LAMMPS (30 Jul 2021)
  using 1 OpenMP thread(s) per MPI task
package omp 0
using multi-threaded neighbor list subroutines
echo both

include		in.partitions
variable        pid world 0
include		in.temp
variable        temperature equal 260.84
variable	tempDamp equal 100.0
include		in.pressure
variable        pressure equal 8125.0
variable        pressureDamp equal 1000.0 # This is 1 ps
include		in.seed
variable        seed world 745823

units		real
atom_style	full
read_restart	restart.lmp.${pid}
read_restart	restart.lmp.0
Reading restart file ...
  restart file = 30 Jul 2021, LAMMPS = 30 Jul 2021
  restoring atom style full from restart
  orthogonal box = (0.60724009 1.8067799 0.74083150) to (17.600332 21.822398 21.472364)
  4 by 4 by 4 MPI processor grid
  restoring pair style lj/cut/tip4p/long/omp from restart
  restoring bond style harmonic/omp from restart
  restoring angle style harmonic/omp from restart
  864 atoms
  576 bonds
  288 angles
Finding 1-2 1-3 1-4 neighbors ...
  special bond factors lj:    0        0        0       
  special bond factors coul:  0        0        0       
     2 = max # of 1-2 neighbors
     1 = max # of 1-3 neighbors
     1 = max # of 1-4 neighbors
     2 = max # of special neighbors
  special bonds CPU = 1.935 seconds
  read_restart CPU = 2.375 seconds
include 	in.setup
variable	out_freq equal 1000
variable	out_freq2 equal 10000
variable	out_freq3 equal 1000

timestep	2.0

neigh_modify    delay 7 every 1

include		in.tip4p
# This is TIP4P/Ice

# create groups ###
group ox type 2
288 atoms in group ox
group hy type 1
576 atoms in group hy

# set charges - beside manually ###
set group ox charge -1.1794
Setting atom values ...
  288 settings made for charge
set group hy charge 0.5897
Setting atom values ...
  576 settings made for charge

# ### TIP3P Potential Parameters ###
pair_style lj/cut/tip4p/long/omp 2 1 1 1 0.1577 8.5
pair_coeff 1 1*2 0.000 0.000
pair_coeff 2 2 0.21084 3.1668
bond_style  harmonic
bond_coeff  1 450 0.9572
angle_style harmonic
angle_coeff 1 55 104.52
kspace_style pppm/tip4p/omp 1.0e-5
pair_modify tail yes

thermo          ${out_freq}
thermo          1000
thermo_style    custom step temp pe etotal epair emol press lx ly lz vol pxx pyy pzz pxy pxz pyz enthalpy

restart 	${out_freq3} restart.lmp.${pid} restart2.lmp.${pid}
restart 	1000 restart.lmp.${pid} restart2.lmp.${pid}
restart 	1000 restart.lmp.0 restart2.lmp.${pid}
restart 	1000 restart.lmp.0 restart2.lmp.0


include         in.dump
dump            myDump all atom ${out_freq2} dump.water.${pid}
dump            myDump all atom 10000 dump.water.${pid}
dump            myDump all atom 10000 dump.water.0
dump            myDump2 all dcd ${out_freq2} dump.dcd
dump            myDump2 all dcd 10000 dump.dcd
dump_modify     myDump append yes
dump_modify     myDump2 append yes


variable natoms 	equal  "count(all)"                        # NUMBER ATOMS
variable H      	equal  "enthalpy/v_natoms"                 # ENTHALPY-per-atom
variable Vol      	equal  "vol/v_natoms"                 # volume-per-atom
fix AVG all 		ave/time ${out_freq} 1 ${out_freq} v_Vol v_H file vol_enthalpy.dat
fix AVG all 		ave/time 1000 1 ${out_freq} v_Vol v_H file vol_enthalpy.dat
fix AVG all 		ave/time 1000 1 1000 v_Vol v_H file vol_enthalpy.dat


timer           timeout 23:50:00 every 1000
New timer settings: style=normal  mode=nosync  timeout=23:50:00

fix 		1 all shake 1e-6 200 0 b 1 a 1
       0 = # of size 2 clusters
       0 = # of size 3 clusters
       0 = # of size 4 clusters
     288 = # of frozen angles
  find clusters CPU = 0.400 seconds
fix             2 all nph iso ${pressure} ${pressure} ${pressureDamp}
fix             2 all nph iso 8125 ${pressure} ${pressureDamp}
fix             2 all nph iso 8125 8125 ${pressureDamp}
fix             2 all nph iso 8125 8125 1000
fix             3 all temp/csvr ${temperature} ${temperature} ${tempDamp} ${seed}
fix             3 all temp/csvr 260.84 ${temperature} ${tempDamp} ${seed}
fix             3 all temp/csvr 260.84 260.84 ${tempDamp} ${seed}
fix             3 all temp/csvr 260.84 260.84 100 ${seed}
fix             3 all temp/csvr 260.84 260.84 100 745823

run             250000
PPPM initialization ...
  extracting TIP4P info from pair style
  using 12-bit tables for long-range coulomb (../kspace.cpp:340)
  G vector (1/distance) = 0.37417365
  grid = 24 24 24
  stencil order = 5
  estimated absolute RMS force accuracy = 0.0031710526
  estimated relative force accuracy = 9.5495307e-06
  using double precision FFTW3
  3d grid and FFT values/proc = 2535 216
Last active /omp style is kspace_style pppm/tip4p/omp
Neighbor list info ...
  update every 1 steps, delay 7 steps, check yes
  max neighbors/atom: 2000, page size: 100000
  master list distance cutoff = 10.8154
  ghost atom cutoff = 10.8154
  binsize = 5.4077, bins = 4 4 4
  1 neighbor lists, perpetual/occasional/extra = 1 0 0
  (1) pair lj/cut/tip4p/long/omp, perpetual
      attributes: half, newton on, omp
      pair build: half/bin/newton/omp
      stencil: half/bin/3d
      bin: standard
Per MPI rank memory allocation (min/avg/max) = 9.234 | 9.239 | 9.243 Mbytes
Step Temp PotEng TotEng E_pair E_mol Press Lx Ly Lz Volume Pxx Pyy Pzz Pxy Pxz Pyz Enthalpy 
16500000     267.7161   -3839.9377   -3381.0815   -3839.9377            0    7423.2844    16.993092    20.015618    20.731533    7051.3591    7100.5384    9565.7211    5603.5937    203.69934    490.13411    86.537478   -2617.6944 
16501000    265.68231   -3877.9567   -3422.5863   -3877.9567            0    8559.3104    16.963678    19.980972    20.695648    7014.8062    8131.1045     8857.931    8688.8958    1326.4165    1837.2901    1245.7557   -2546.9367 
16502000    255.24564   -3850.1044   -3412.6221   -3850.1044            0     8889.507    17.012601    20.038597    20.755333    7075.6728    10147.563    8419.0463    8101.9119   -1193.1588     566.0479   -418.73442   -2495.3012 
16503000    250.05708   -3868.8239   -3440.2347   -3868.8239            0    9379.6636     16.97928    19.999349    20.714682    7034.1788    9422.6976    9217.1538    9499.1393   -741.62952   -841.83142   -379.36924   -2478.0099 
16504000    247.24182   -3881.6809   -3457.9168   -3881.6809            0    7886.1755    16.940547    19.953726    20.667427    6986.1491    5705.4192    8353.2894    9599.8178   -994.49753    461.74083   -767.63499   -2654.4274 
16505000    252.21705   -3857.6906   -3425.3992   -3857.6906            0     8763.332    16.979374     19.99946    20.714797    7034.2957    7375.4968    11114.795     7799.704   -711.67235    951.05746   -435.92321   -2526.3866 
16506000    262.28096   -3867.1417   -3417.6011   -3867.1417            0    8999.5754    16.947981    19.962483    20.676497    6995.3507    9939.8099    7539.7099    9519.2062    31.077671    83.120828    2127.8972   -2499.4643 
16507000    272.80631   -3909.2899   -3441.7092   -3909.2899            0    7888.5862    17.037975    20.068484    20.786289    7107.3795    6861.5012    7970.1276    8834.1298    577.51699    263.60219    -1177.003    -2624.027 
16508000    268.26445   -3871.0638   -3411.2677   -3871.0638            0    8428.2146    17.045061     20.07683    20.794934    7116.2507    8701.8545    8146.9517    8435.8376   -816.75925   -221.97747    198.08236   -2536.5604 
16509000    270.04756   -3841.2881   -3378.4358   -3841.2881            0    7358.8449    16.993917     20.01659     20.73254    7052.3864    7963.7868    5172.1867    8940.5613    1066.9168   -437.27521   -45.688974   -2621.5652 
16510000    261.84194   -3873.1326   -3424.3445   -3873.1326            0    7497.6719     17.02199    20.049656    20.766788    7087.3939     7997.566     8396.725    6098.7247    548.90343    2012.0874    476.70004   -2649.3673 
16511000    263.38917   -3864.3007   -3412.8607   -3864.3007            0    8916.6266    16.920289    19.929866    20.642713     6961.117    9471.3408     8735.542     8542.997    -1397.768    439.08892   -12.760848   -2507.6381 
16512000    268.38912   -3825.0818    -3365.072   -3825.0818            0     8794.836    16.959255    19.975762    20.690251      7009.32    9106.9245    8408.3528    8869.2307    39.714758    194.30649   -321.42573    -2466.031 
16513000     263.5039   -3856.6409   -3405.0042   -3856.6409            0     8089.483     17.00503    20.029679    20.746097    7066.2305    7797.5129     8148.922     8322.014    455.51206    -242.0472    663.42047   -2571.3529 
16514000    255.76653   -3876.5259   -3438.1508   -3876.5259            0    8037.7204    16.992254    20.014631    20.730511    7050.3161    6383.0333    8416.5189    9313.6089   -673.97211   -1515.5877    809.45582   -2611.6993 
16515000    253.04188   -3848.7327   -3415.0276   -3848.7327            0    9128.5551    17.017003    20.043782    20.760704    7081.1668    8621.7953     9221.676    9542.1941   -480.62089    1882.4714    732.43952   -2472.3075 
16516000    263.78017   -3876.4212    -3424.311   -3876.4212            0    7050.9601     17.08543     20.12438    20.844185    7166.9329    7115.9536    7278.5683    6758.3583   -1732.3716   -1096.4352    16.900745    -2687.328 
16517000     272.1964    -3893.139   -3426.6037    -3893.139            0    8726.6089     17.02171    20.049326    20.766446    7087.0441    7514.3522    11053.441    7612.0332   -1070.3815   -523.25987    93.419466   -2524.6453 
16518000    251.54602   -3877.5892   -3446.4479   -3877.5892            0    7940.5895    16.990052    20.012037    20.727824    7047.5755    7978.4045    7695.2112    8148.1529    1246.3787   -822.12261   -643.52755   -2630.3009 
16519000    256.25777   -3855.0081   -3415.7911   -3855.0081            0     9276.195    16.972194    19.991003    20.706038    7025.3762    7588.9954    11458.737    8780.8531   -662.41629     589.5784   -317.99634   -2465.3716 
16520000    253.53794    -3856.534   -3421.9787    -3856.534            0    9854.0989    16.926804     19.93754    20.650662    6969.1614    8456.1233     9880.647    11225.526     978.9651   -1252.6341    1606.0543    -2420.427 
16521000    254.42626   -3871.5975   -3435.5196   -3871.5975            0    8963.3736    16.941795    19.955197    20.668951    6987.6939    9833.0255    10162.907    6894.1881   -1799.4581    537.06023   -256.91067    -2522.077 
16522000    271.19295   -3834.9643   -3370.1489   -3834.9643            0    8750.8127    16.920364    19.929953    20.642804    6961.2088    7016.1946    10332.966    8903.2773   -570.82818    749.68687   -112.45637   -2481.7481 
16523000    247.68755    -3846.336    -3421.808    -3846.336            0    7146.6521     16.91664    19.925568    20.638262    6956.6146    5768.7258    8868.0713    6803.1592    2103.0361    390.86064   -2171.4597   -2696.7438 
16524000    281.89014    -3819.515    -3336.365    -3819.515            0    7486.7281    16.941934    19.955361    20.669121    6987.8662    8660.8088    8182.3197    5617.0557     300.5914    -201.2072    -235.0338   -2573.3861 
16525000    268.26431   -3848.9341   -3389.1383   -3848.9341            0    7877.0889    16.970623    19.989152     20.70412    7023.4243    6198.3228    7533.5953    9899.3485   -603.49952   -76.591185   -563.39489   -2582.2925 
16526000    271.86328   -3859.4098   -3393.4454   -3859.4098            0    8050.6446     17.03419    20.064026    20.781672    7102.6444     7021.908    8546.0397    8583.9862   -748.31073   -945.50596   -385.90434   -2559.5211 
16527000     271.1641   -3851.5977   -3386.8317   -3851.5977            0    7830.0289    16.997153    20.020401    20.736487    7056.4154    8393.1438    8120.7428    6976.1999   -258.52053   -1243.6437   -975.81329   -2581.0389 
16528000    256.92032    -3878.229   -3437.8764    -3878.229            0    7697.7334    17.043173    20.074607    20.792631     7113.887    9346.6157    7436.5909    6309.9934    1801.4162    344.03311    456.43717   -2639.2462 
16529000    246.75907    -3899.701   -3476.7644    -3899.701            0    9035.6651    17.063653    20.098729    20.817616    7139.5624    10438.337    8236.7619    8431.8966     1241.037   -189.10162   -646.46549   -2535.9421 
16530000    258.95782   -3851.2456   -3407.4008   -3851.2456            0    6548.8126    17.104995    20.147425    20.868054    7191.5827     5733.384    8032.4737    5880.5802    985.40719   -25.211714    47.857562   -2720.5491 
16531000    269.84093   -3823.9281     -3361.43   -3823.9281            0      8461.75    17.012326    20.038272    20.754997     7075.329    9938.9126    8656.0962    6790.2414     466.4365     2268.718    932.87636   -2488.2923 
16532000    266.87522   -3878.0326   -3420.6176   -3878.0326            0    7761.5021      17.0504    20.083119    20.801448    7122.9404    7842.0967     6629.495    8812.9145   -558.34479   -555.99017    38.776646   -2614.3467 
16533000    267.62198   -3865.2431   -3406.5482   -3865.2431            0    8699.5249    17.029883    20.058953    20.776418    7097.2579     10492.09    8052.7366    7553.7484    74.608248   -444.49346    1703.9357   -2506.0932 
16534000    266.94921   -3897.6041   -3440.0622   -3897.6041            0    8895.9589    16.999258     20.02288    20.739055    7059.0369    7213.9591    10166.661    9307.2566     347.5323    709.72825   -311.06434   -2524.2338 
16535000    239.22716   -3861.1997   -3451.1725   -3861.1997            0    8321.0534    17.016205    20.042841     20.75973      7080.17    7287.1098    9164.3885     8511.662   -516.94433    182.95471    -82.95663   -2591.9654 
16536000    258.91707   -3887.6157   -3443.8407   -3887.6157            0    9115.8758    16.970333    19.988811    20.703767    7023.0651    9897.9013    8232.8136    9216.9123     2081.805   -44.259541   -218.56656   -2510.1544 
16537000    260.19298   -3869.6417   -3423.6799   -3869.6417            0    7764.8034    17.082316    20.120712    20.840386    7163.0148    6717.0217    6923.6285    9653.7601    663.84847   -392.28687    -707.3518    -2612.528 
16538000    265.49803   -3864.9661   -3409.9115   -3864.9661            0    7006.6538    16.978067     19.99792    20.713202    7032.6712    7422.9208    6472.3553    7124.6852    1445.6626   -629.43939    2577.4901    -2691.279 
16539000    262.75424   -3864.9774   -3414.6256   -3864.9774            0    6624.8049    17.034662    20.064582    20.782248    7103.2346    7507.0963    6354.6414     6012.677   -323.90831    1063.6012   -662.86079   -2728.3396 
16540000    256.36269   -3863.7875   -3424.3907   -3863.7875            0    8364.5742    16.978636     19.99859    20.713896     7033.378    5943.5678    8838.9858    10311.169   -638.97517    1940.9526    1080.2863   -2566.3978 
16541000    259.30061   -3876.7886   -3432.3562   -3876.7886            0    7517.9999    16.955008     19.97076     20.68507    7004.0553     7260.378    7011.3756     8282.246     94.84111   -61.084636   -2196.0489   -2664.4154 
16542000    267.45277   -3886.1773   -3427.7724   -3886.1773            0    8179.6612    17.037017    20.067355     20.78512    7106.1804    8020.9717    7356.1222    9161.8896    626.74492   -772.57191   -360.44401   -2580.0622 
16543000    262.94923   -3872.5496   -3421.8637   -3872.5496            0    10340.669    17.015651    20.042189    20.759055    7079.4791    9816.5561    9867.1225    11338.328   -78.173308   -1275.1373   -1835.5838   -2354.2212 
16544000     267.7264   -3861.5647   -3402.6908   -3861.5647            0    8202.8022    16.991751    20.014038    20.729896    7049.6891    7570.5121    7789.0455    9248.8491   -59.894188    407.33788    796.87492   -2559.3403 
16545000     254.8494   -3881.1793   -3444.3761   -3881.1793            0    9593.3359    16.977801    19.997607    20.712877    7032.3405    8794.1097    9242.3571    10743.541   -882.05018   -422.89201   -13.041568   -2460.4886 
16546000     273.2068   -3856.6019   -3388.3348   -3856.6019            0    8640.1211    16.989997    20.011973    20.727757    7047.5072    9081.2793    7034.5149    9804.5692   -469.15854   -262.86625    -475.9471   -2500.2975 
16547000    253.50834   -3870.3956    -3435.891   -3870.3956            0    6118.4819    17.095859    20.136664    20.856908    7180.0652    7572.7063     4381.199    6401.5403     1713.101    -67.82759   -617.71206   -2795.2009 
16548000    267.70013   -3857.6312   -3398.8024   -3857.6312            0    8614.9379    16.974904    19.994195    20.709344    7028.7418    7398.8707     9315.217    9130.7261   -586.23832    68.901517   -589.50106    -2515.711 
16549000     267.2668   -3852.2943   -3394.2081   -3852.2943            0    10048.754    16.934543    19.946655    20.660103    6978.7239    8845.9283    12705.612    8594.7201   -720.26758    195.74237    2475.4668   -2371.4708 
16550000    255.14694   -3863.7455   -3426.4324   -3863.7455            0    9496.2104     16.92444    19.934755    20.647777    6966.2412    9446.7519    9861.7873    9180.0921    193.14563    258.33119   -518.43028   -2461.6603 
16551000    266.45102   -3855.1049   -3398.4169   -3855.1049            0    9442.1905    16.957814    19.974065    20.688494    7007.5341    6788.8512     10117.07     11420.65    40.173986   -552.07767    1497.7771   -2433.4468 
16552000    254.89064   -3888.0395   -3451.1656   -3888.0395            0    7390.5878    16.974114    19.993264     20.70838    7027.7605    9023.9299    6888.1249    6259.7087    1183.5551   -611.55368   -656.82069   -2693.6845 
16553000    255.69684   -3880.1176    -3441.862   -3880.1176            0    8735.1195    16.956686    19.972736    20.687117    7006.1352    9685.7072    7624.8531    8894.7982   -564.56314   -80.358341     161.6718   -2549.3311 
16554000    262.24603   -3854.0756   -3404.5949   -3854.0756            0    9016.8782    17.022443     20.05019    20.767341    7087.9601    9303.6848    8001.1164    9745.8335   -787.34022    1099.8883   -417.41884   -2472.5145 
16555000    245.73409   -3852.1317   -3430.9519   -3852.1317            0    10127.494    16.955839    19.971739    20.686084    7005.0856    9633.7835    10061.096    10687.602    765.58783   -576.51749   -625.19316   -2396.3069 
16556000    266.44515   -3854.5196   -3397.8418   -3854.5196            0    7933.3166    17.024669    20.052811    20.770056    7090.7404    7044.9292    8747.2065     8007.814   -2268.8145    819.80505   -271.29043   -2577.4482 
16557000     261.0667   -3872.8979   -3425.4386   -3872.8979            0    7650.0348    17.021872    20.049517    20.766645    7087.2473    8305.8855    7151.3837    7492.8352   -1026.2103    1041.3451    796.68518   -2634.7292 
16558000    248.25195   -3860.7684   -3435.2731   -3860.7684            0    9096.7305     16.98591    20.007158     20.72277    7042.4214    9223.7539    9553.5351    8512.9024    937.00574   -1112.8182    337.22928   -2500.9798 
16559000    267.40397   -3896.0889   -3437.7677   -3896.0889            0    9687.6897    16.978373    19.998281    20.713576    7033.0518    9418.6155    10270.231    9374.2229   -16.154676   -1017.2678    611.56137   -2444.1028 
16560000    257.96874   -3892.8775    -3450.728   -3892.8775            0    8811.7402    16.981965    20.002511    20.717957    7037.5157    9733.8705    8538.2684    8163.0818   -204.99858   -499.23912   -2351.5332   -2546.3355 
16561000    259.51731   -3862.8821   -3418.0783   -3862.8821            0    8205.8385    16.963262    19.980482    20.695141    7014.2902    8471.5554    7788.5047    8357.4553   -77.286319   -837.27017    -539.0081    -2578.652 
16562000    261.55582   -3847.6518    -3399.354   -3847.6518            0    7486.4677    17.056276     20.09004    20.808617    7130.3074    7663.2569     5613.448    9182.6982    743.67961    467.80684   -761.16411   -2620.8496 
16563000    273.40494   -3852.6937    -3384.087   -3852.6937            0    9164.1224    16.947373    19.961767    20.675756    6994.5982     10451.69    9204.5146     7836.163    770.11295    437.21342    -709.7687   -2449.2637 
16564000    259.69684      -3860.9   -3415.7885      -3860.9            0    8791.6849    17.020421    20.047807    20.764873    7085.4339    8061.4124    10142.317    8171.3248   -768.04333   -418.91816    1429.2105   -2507.3104 
16565000    254.53662   -3874.1832   -3437.9161   -3874.1832            0    8075.8692    16.942073    19.955524     20.66929    6988.0378    9210.1473    6767.6272    8249.8331   -1951.3941   -426.12925   -1316.8146   -2614.8771 
16566000    276.59424   -3879.3276   -3405.2545   -3879.3276            0    8813.1781    17.041557    20.072703    20.790659    7111.8629    9435.2333    6881.1337    10123.167    612.69125    13.494781   -269.32433   -2491.1585 
16567000    246.85034   -3921.4831     -3498.39   -3921.4831            0    6493.3634    17.087242    20.126514    20.846395    7169.2128     6716.201    6019.5173    6744.3719   -294.11618   -492.95847    765.20622   -2819.4724 
16568000    270.12549   -3894.6553   -3431.6695   -3894.6553            0     11153.37    16.944533    19.958422    20.672291    6991.0824    12684.266     11300.56    9475.2838   -1350.4672   -345.17364   -187.95343   -2294.4968 
16569000    246.07249   -3896.1783   -3474.4184   -3896.1783            0    8078.9212    16.989401     20.01127     20.72703    7046.7651    7574.0585    8249.0425    8413.6625     468.3163    -363.9866    1166.1846    -2644.149 
16570000    255.74234   -3874.9651   -3436.6314   -3874.9651            0    7221.8303    17.015151      20.0416    20.758444    7078.8543    7022.9681    7935.7452    6706.7775   -364.21336    1670.6045    1850.9584   -2691.0654 
16571000    267.61759   -3913.2129   -3454.5255   -3913.2129            0    8713.6642    17.028245    20.057024     20.77442    7095.2107    10070.984    8010.4856    8059.5233   -263.00651   -647.82818   -183.75721   -2552.8672 
16572000    281.61852   -3869.9669   -3387.2824   -3869.9669            0    8823.9261     17.01833    20.045345    20.762323    7082.8238    10530.425    8336.3655    7604.9875    93.334352    107.67217   -782.82597   -2475.8086 
16573000    259.63734   -3906.6515    -3461.642   -3906.6515            0    9055.4701    16.991235     20.01343    20.729267     7049.047    8478.3966    9371.8367    9316.1771   -1601.9239   -352.65186   -1169.3007   -2530.7114 
16574000    256.66213   -3872.1729   -3432.2628   -3872.1729            0     9710.302    17.005378    20.030089    20.746522    7066.6646    10411.351    10532.582    8186.9731    649.01411   -739.34533    75.026826   -2431.5186 
16575000    264.97331   -3876.9582    -3422.803   -3876.9582            0    7047.5565    17.047426    20.079616     20.79782    7119.2135    8249.7786    5952.2529     6940.638    872.65044   -827.27996   -1500.0912   -2691.0804 
16576000    258.16492   -3863.4032   -3420.9174   -3863.4032            0     7429.209    16.996008    20.019052     20.73509     7054.989    8723.3184     8310.619    5253.6894   -85.055342    -287.4379    -740.5199   -2656.5277 
16577000    258.36789   -3889.5048   -3446.6711   -3889.5048            0    9007.9421     16.94951    19.964284    20.678363    6997.2444    10858.727     6459.264    9705.8353    263.91886    439.80007   -1059.0965   -2527.4319 
16578000    271.63775   -3842.9772   -3377.3994   -3842.9772            0    8286.2252    17.013806    20.040016    20.756803    7077.1758    7634.7345    9349.8288    7874.1123   -332.42157    1492.0172   -889.04345   -2522.1503 
16579000    260.78097   -3892.9529   -3445.9833   -3892.9529            0     7450.974    17.031613     20.06099    20.778528    7099.4211    6554.4312    9185.4912    6612.9997   -473.18787    1238.3239   -664.38329    -2674.526 
16580000    279.94436   -3843.3631    -3363.548   -3843.3631            0     7401.134    16.969272    19.987561    20.702473    7021.7482    6608.1122    9088.0799    6507.2098   -283.52954    1379.0982    604.59182   -2605.6349 
16581000    268.28922   -3866.6117   -3406.7731   -3866.6117            0    7910.3657    16.972767    19.991677    20.706736    7026.0866    7933.1691    9064.7625    6733.1656     1095.556   -1795.7787    394.74437   -2596.2117 
16582000     264.6452   -3890.3469    -3436.754   -3890.3469            0    6631.9848    17.059261    20.093557    20.812259    7134.0519    8840.1697    4797.6916    6258.0932   -855.78704    -289.7359   -1680.0036   -2746.7436 
16583000    252.15754   -3874.1648   -3441.9754   -3874.1648            0    7971.7239    17.019104    20.046256    20.763267    7083.7898    7880.1561    8580.5905    7454.4253    940.01184   -649.04144    276.39567   -2618.4181 
16584000    273.63853   -3829.9392   -3360.9321   -3829.9392            0    8774.5748    16.961931    19.978914    20.693516     7012.639    8366.1749    9421.8508    8535.6988    1189.5117    1077.8866    388.01712   -2463.5375 
16585000    250.39163   -3855.4342   -3426.2715   -3855.4342            0    7150.4611    17.017185    20.043997    20.760926    7081.3944    6576.7737    7660.0673    7214.5422    493.60881    613.45592    765.88331   -2687.8085 
16586000    254.51329   -3842.0936   -3405.8665   -3842.0936            0    6920.7335    17.034113    20.063935    20.781578    7102.5479    7390.9737    7320.3271    6050.8997   -1212.9142    -721.5881    842.99608   -2688.9935 
16587000      259.848   -3887.1385   -3441.7679   -3887.1385            0    8677.2685     16.98693    20.008359    20.724015    7043.6904    9125.2738    8948.1747     7958.357   -829.24404    -2704.155     458.0177   -2550.3955 
16588000    277.62224   -3866.8425   -3391.0075   -3866.8425            0    8531.0335    17.000565     20.02442     20.74065     7060.666    9329.1065    6938.1187    9325.8754   -1008.8572    382.52158   -1869.9289    -2512.545 
16589000    261.22428   -3891.4951   -3443.7657   -3891.4951            0    9368.5812    16.913749    19.922162    20.634734    6953.0483    10433.413    7958.1684    9714.1625    143.92912    524.84963    1188.7505   -2493.7627 
16590000    263.18095   -3877.3465   -3426.2634   -3877.3465            0    9041.7893    16.965391     19.98299    20.697738    7016.9313    8794.8788    9162.6146    9167.8744   -139.91629    416.80074    336.93913   -2500.9742 
16591000    258.00944   -3901.4988   -3459.2794   -3901.4988            0    9462.0092    16.897331    19.902824    20.614704    6932.8199    9900.0726    9557.6505    8928.3044   -578.89473   -523.81452    213.03221    -2502.594 
16592000    260.51012   -3845.4163   -3398.9108   -3845.4163            0    9916.3641    16.960418    19.977132    20.691671    7010.7627    8855.3087    11174.629    9719.1546    1843.4524   -486.25383   -230.67692   -2385.0144 
16593000     251.0881   -3894.1576   -3463.8012   -3894.1576            0    7979.1056    17.030313    20.059459    20.776942    7097.7949    8165.8158    10184.169    5587.3324    760.17284    893.38152    1464.5553   -2637.8516 
16594000    259.20262   -3899.1361   -3454.8717   -3899.1361            0    8155.1136    16.959765    19.976364    20.690874    7009.9531     8498.669    6392.1976    9574.4742    135.07345    140.03864   -646.24965   -2621.1502 
16595000    261.94628   -3915.1888   -3466.2218   -3915.1888            0    7166.6534    16.989301    20.011153    20.726908     7046.641    7226.0189    5943.8522     8330.089     85.05631   -1149.2104   -428.26057    -2729.719 
16596000    262.51269   -3897.6735   -3447.7357   -3897.6735            0    9031.9728    16.969042     19.98729    20.702191     7021.462    8394.0538    7605.4651    11096.399    1331.8662      437.474    164.82789   -2522.8543 
16597000    249.89179   -3868.1058   -3439.7999   -3868.1058            0     8187.334    16.970028    19.988451    20.703394    7022.6857    8069.0883    7391.4005    9101.5133    327.89981   -1823.6167   -1260.0825    -2601.264 
16598000    260.60562   -3929.2813   -3482.6122   -3929.2813            0      7951.61    17.023689    20.051658    20.768861    7089.5171    8567.4151    6955.0427    8332.3722   -12.103017   -673.28606   -394.00114   -2660.4687 
16599000    253.60983   -3876.0989   -3441.4203   -3876.0989            0     7569.076    17.020596    20.048014    20.765087    7085.6529    7343.0123    8262.6706     7101.545   -1770.1103   -1319.2754   -143.40449   -2659.2549 
16600000    245.96984   -3890.5881   -3469.0042   -3890.5881            0    8218.7003    16.986998    20.008439    20.724097    7043.7748    8258.1445    8752.0802    7645.8763   -2652.3797    9.7342302    170.71593   -2624.7281 
16601000    255.63549   -3917.4925    -3479.342   -3917.4925            0     7947.814    16.960477    19.977201    20.691742    7010.8349    9026.6138    6994.4294    7822.3987    94.596636    825.47113    987.09863   -2666.7111 
16602000    265.89781   -3864.2407   -3408.5009   -3864.2407            0     8708.295     17.00809    20.033283    20.749829    7070.0452    10799.638    7880.3988    7444.8478   -532.56998    1864.1176   -241.57037   -2510.5942 
16603000    260.59271   -3871.8786   -3425.2316   -3871.8786            0    5269.4223    17.075088    20.112198    20.831567    7153.9257    5643.3261     4678.518    5486.4226    1009.7361    282.35809    460.68809   -2875.4588 
16604000    260.52339   -3876.5659   -3430.0377   -3876.5659            0    8276.1347    17.088571    20.128079    20.848016    7170.8858    7823.3575    7075.8074    9929.2392   -898.75572    1219.9823    179.88451   -2564.5194 
16605000    258.93844   -3841.2212   -3397.4096   -3841.2212            0    5870.6355    17.042468    20.073776    20.791771    7113.0038    5757.8013    5896.5581    5957.5471    753.92004   -656.31442   -692.39264   -2788.4141 
16606000    252.37636   -3856.9959   -3424.4315   -3856.9959            0     7278.255    16.944729    19.958652     20.67253    6991.3244     6200.935    7597.0918    8036.7381    268.65502    709.24919     -365.596   -2682.3312 
16607000    257.23141   -3881.1341   -3440.2483   -3881.1341            0    8197.7985    17.022233    20.049942    20.767084    7087.6975    8394.2102    8632.9018    7566.2836   -1129.6784   -801.83251   -383.51048   -2592.8681 
16608000    254.57998   -3861.3348   -3424.9934   -3861.3348            0     8879.413    17.078526    20.116248    20.835762    7158.2486    8453.4309    7846.5223    10338.286    643.45301   -1071.5222    548.27625   -2498.0207 
16609000    264.84868   -3874.9862   -3421.0446   -3874.9862            0     8490.797    17.005406    20.030122    20.746555     7066.699    7613.2463    9960.5874    7898.5575    578.68945    985.60514   -660.37934   -2545.9784 
16610000    263.24158   -3858.2879   -3407.1008   -3858.2879            0    8651.4415    16.953607    19.969109     20.68336    7002.3189    8750.8405    8234.6463    8968.8378    2058.1362    1691.7993    1332.2853   -2523.6014 
16611000    280.22255   -3895.6465   -3415.3547   -3895.6465            0    7528.7283    16.989809     20.01175    20.727527    7047.2723    7789.9266    8745.3555    6050.9029   -1966.9463     742.5762   -291.31305   -2641.5728 
16612000    273.92272   -3885.4043   -3415.9101   -3885.4043            0    7520.9335    16.979597    19.999722    20.715068    7034.5725    9353.8781    5746.6081    7462.3143   -841.22596    2204.1742    154.69821   -2644.3224 
16613000     255.3113   -3877.1169   -3439.5221   -3877.1169            0    8698.3285    16.998043    20.021449    20.737572    7057.5235    9647.6949    8325.3542    8121.9365    236.12894    246.10554   -2065.9881   -2544.2315 
16614000    258.01858   -3827.7281    -3385.493   -3827.7281            0    8604.0745    16.976825    19.996457    20.711687    7031.1277    8749.9659    7972.3717    9089.8858   -753.90181   -602.43627   -122.21273   -2503.2159 
16615000    262.91007   -3854.9268   -3404.3079   -3854.9268            0    7610.4339    17.059772    20.094158    20.812882    7134.6928    6983.0364    7840.2297    8008.0357   -1487.2104    283.07942    83.489989   -2612.4257 
16616000    252.90859   -3877.2446   -3443.7679   -3877.2446            0    10405.958    17.003125    20.027435    20.743773    7063.8561    11572.765    11039.223    8605.8862    76.494082    856.31384   -790.46599   -2371.7556 
16617000    253.66091   -3890.0222   -3455.2561   -3890.0222            0    9603.1653    16.955352    19.971165    20.685489    7004.4815     9709.083    10892.781    8207.6318    -533.4244    851.22808   -470.76769   -2474.2622 
16618000    259.88936   -3897.7517   -3452.3103   -3897.7517            0    5482.3292    17.075677    20.112892    20.832286    7154.6667    3979.3772    7208.9602    5258.6501   -306.52148    652.71731   -312.97489    -2880.265 
16619000    272.98918    -3888.631   -3420.7369    -3888.631            0    6104.5665    17.059498    20.093835    20.812548    7134.3488    6966.1127    6889.4937    4458.0932   -1473.9374   -1238.2673    1276.0417   -2785.5741 
16620000    257.42302   -3894.2902    -3453.076   -3894.2902            0     7333.829    17.060054     20.09449    20.813226    7135.0458    5075.0478    8514.7491      8411.69    269.66066    893.37813    764.45606   -2689.9374 
16621000    259.84637   -3901.7634   -3456.3956   -3901.7634            0    6862.8258    17.054913    20.088434    20.806954    7128.5974     8567.946    3919.6081    8100.9233   -581.28105   -239.28158   -928.45444   -2742.9138 
16622000    278.91433   -3885.8905   -3407.8408   -3885.8905            0    10312.975    17.016114    20.042735     20.75962    7080.0571    9743.2937    11265.384    9930.2478    2106.4099   -2242.3167    868.45128   -2342.9708 
16623000    256.29524   -3923.7421   -3484.4609   -3923.7421            0    7489.9225    17.057215    20.091146    20.809762    7131.4846    6105.2035    7715.5892    8648.9749   -1152.0726    730.50436    20.697868   -2705.4686 
16624000    252.81879   -3849.3944   -3416.0716   -3849.3944            0    10306.506    16.992583    20.015019    20.730912    7050.7256    10279.013    10047.771    10592.735    -1898.729    -513.3166   -157.36238   -2356.2783 
16625000     275.5544   -3852.6812   -3380.3904   -3852.6812            0    8328.6016    17.013483    20.039635    20.756409    7076.7729    6329.4224     9051.306    9605.0763    927.66521   -1146.6729    587.36673   -2520.8165 
16626000    256.02428   -3856.6833   -3417.8665   -3856.6833            0    8006.1552    17.067637    20.103422    20.822478    7144.5652    8793.0219    8765.2779    6460.1658    2564.8836    786.54452    -1148.278   -2583.6559 
16627000    267.20321   -3862.4684   -3404.4913   -3862.4684            0    9141.9226    17.014557      20.0409    20.757719    7078.1132    9267.9901    9117.8901    9039.8876    762.89386   -1054.6591   -947.68275   -2460.7978 
16628000    261.10746   -3853.1664   -3405.6371   -3853.1664            0    8547.7628    17.008373    20.033616    20.750175    7070.3982     7412.695    10324.216    7906.3776   -1072.6217   -568.83724   -558.94704   -2524.2388 
16629000    271.10029   -3858.5573   -3393.9006   -3858.5573            0    8553.4181    17.065955    20.101441    20.820425    7142.4528    9360.7856    8458.1489    7841.3198    91.675143    1140.5006    626.54643   -2502.9309 
16630000    251.60766   -3866.9958   -3435.7489   -3866.9958            0    12512.105    16.909691    19.917382    20.629784    6948.0447    14888.702    11744.589    10903.026    611.92267    145.41758    1101.9579   -2167.8959 
16631000    259.55866   -3923.4228   -3478.5481   -3923.4228            0    7231.2839     17.06366    20.098737    20.817625    7139.5713    8076.0674    8758.3814    4859.4029    1053.7231    427.18663   -283.89331   -2725.6028 
16632000    262.55105   -3867.8235     -3417.82   -3867.8235            0    8563.7556    17.066753    20.102381    20.821399    7143.4551    7175.0661    10247.974    8268.2265    546.42991   -1298.8984     -689.133   -2525.6482 
16633000    259.56104   -3917.0656   -3472.1868   -3917.0656            0    5933.1457    17.145714    20.195386    20.917731    7243.0634    4101.4093    9185.4687     4512.559    65.958025    334.01352   -451.91586   -2845.4529 
16634000     255.9367   -3895.1356   -3456.4688   -3895.1356            0    6855.6899    17.016511    20.043202    20.760103    7080.5519    5736.2662    7248.1972    7582.6062   -574.19267   -412.49668     1119.359   -2748.5325 
16635000    265.29347      -3928.9   -3474.1961      -3928.9            0    7202.9695    17.058092    20.092179    20.810833    7132.5851      7165.54    8091.8732    6351.4955     571.1832   -1924.6877   -1198.3087   -2724.9328 
16636000    255.71836   -3875.2602   -3436.9677   -3875.2602            0    6413.4831    17.042898    20.074282    20.792295    7113.5419    7490.8445    5057.6941    6691.9107    1117.2433    637.91678     2624.036   -2771.6092 
16637000    258.49014   -3904.6469   -3461.6036   -3904.6469            0    7210.4353    16.991633    20.013899    20.729753    7049.5427    7884.0822    7083.0009    6664.2228   -209.18458    447.54207    260.75522   -2720.2963 
16638000    253.62866   -3876.5059    -3441.795   -3876.5059            0    8795.7136    16.947548    19.961973    20.675969    6994.8144    6053.9826    9702.2948    10630.863   -764.50523   -1284.1029   -1340.2584    -2544.525 
16639000    244.52381    -3896.623   -3477.5176    -3896.623            0    7897.9814    16.962588    19.979688    20.694318    7013.4535    6560.0498    7668.0058    9465.8886    1340.5677   -12.314192    674.08625   -2669.6802 
16640000    265.25172   -3919.2976   -3464.6653   -3919.2976            0    7623.9781    17.017488    20.044353    20.761296    7081.7726    6388.5565    7420.8808    9062.4971    685.98524    1158.5991   -208.56942   -2677.2578 
16641000    256.05849   -3932.3456   -3493.4702   -3932.3456            0    6586.9131    16.996819    20.020008    20.736079    7055.9994    6941.9923    6883.2682    5935.4787    477.08811   -1716.9136    176.77983   -2815.6471 
16642000    249.38693   -3889.4895   -3462.0488   -3889.4895            0    7556.0774    16.995919    20.018948    20.734981    7054.8786    8329.9458    7641.3534     6696.933   -1302.5702   -866.43413    1231.9119   -2684.6179 
16643000    253.75437   -3911.9331   -3477.0068   -3911.9331            0    6567.7519    17.041034    20.072087    20.790022    7111.2086    5704.4593    6736.8522    7261.9442    411.10322    813.15591   -686.03021   -2795.8673 
16644000    252.09863   -3887.9384     -3455.85   -3887.9384            0    7270.8754    17.049099    20.081586    20.799861    7121.3096    8745.7219    5511.7091    7555.1953    47.004563   -48.409534   -123.03798   -2700.7187 
16645000    267.57983   -3885.0835   -3426.4608   -3885.0835            0     7712.459    17.057808    20.091845    20.810486     7132.229    8572.8591    9628.5768    4935.9411    1174.8196    814.58496    605.55579   -2624.2398 
16646000    260.82375   -3909.4172   -3462.3742   -3909.4172            0     8610.495    16.959157    19.975647    20.690132    7009.1984    7985.5899    9296.9096    8548.9856   -352.47498   -959.60219    34.068864   -2582.1925 
16647000    249.05183   -3904.6354   -3477.7691   -3904.6354            0    5871.8892    17.079185    20.117024    20.836565    7159.0763     6808.284    4366.2533    6441.1303    1421.6464     863.4512    524.37724   -2864.6982 
16648000    250.96774    -3912.722   -3482.5719    -3912.722            0    8058.1478    16.947542    19.961966    20.675962    6994.8075    7748.3427    7326.3762    9099.7247    252.15757   -172.77691   -1019.4014   -2660.5434 
16649000    271.73697   -3874.3622   -3408.6143   -3874.3622            0    8523.5102    16.951753    19.966926    20.681099    7000.0229    6928.3926    9745.4257    8896.7122    473.59327     -896.646   -833.50072   -2538.4649 
16650000    268.24589   -3899.0813    -3439.317   -3899.0813            0    7883.8286    17.018199     20.04519    20.762163    7082.6597    7514.5036    7473.6986    8663.2835   -895.63008   -440.92627    1059.9265   -2624.9701 
16651000    261.14041   -3859.7482   -3412.1624   -3859.7482            0    7806.4968     17.04321     20.07465    20.792676    7113.9325    8250.9128    9526.6006    5641.9771    182.65862    903.26733    1326.1715    -2602.243 
16652000    247.80431   -3907.6712    -3482.943   -3907.6712            0    7172.2525    16.998641    20.022153    20.738302    7058.2685    6008.9416     7936.067    7571.7487    147.54415    924.68825    643.36073   -2744.6485 
16653000    249.60267   -3875.3332   -3447.5228   -3875.3332            0    7251.3963    17.032302    20.061802    20.779369     7100.283    6021.7869    9026.7257    6705.6764   -726.50479     1105.226    2609.2556   -2696.6382 
16654000    256.84621   -3891.6512   -3451.4256   -3891.6512            0    7066.6545    17.043034    20.074443    20.792462    7113.7128    5632.1786    8306.2961    7261.4888    145.26809   -1550.9701    1301.3878    -2718.287 
16655000    265.18594   -3892.7571   -3438.2375   -3892.7571            0    9867.3565    16.995096    20.017978    20.733977    7053.8536    8537.4059    9926.1799    11138.484   -434.96882    276.06944    1975.5639   -2423.1508 
16656000    242.73048   -3894.9474   -3478.9156   -3894.9474            0     7689.058    16.994097    20.016801    20.732758    7052.6094    8526.7005    6448.6128    8091.8606    15.569166    454.16559     177.9227    -2688.057 
16657000    252.75919   -3903.1924   -3469.9718   -3903.1924            0    6769.8218    17.059182    20.093463    20.812162    7133.9522    7338.8412    6305.8975    6664.7266   -203.82129   -108.23841    105.78647   -2765.6302 
16658000    255.94129   -3893.7784   -3455.1038   -3893.7784            0    9637.0431    17.008201    20.033415    20.749966    7070.1846    9573.4986     10400.43     8937.201   -503.42899   -1717.8775    261.75455   -2461.4149 
16659000    259.14081    -3893.199   -3449.0405    -3893.199            0    7837.2277    17.052098    20.085119     20.80352    7125.0685    9003.8942    8721.2041    5786.5849   -955.29821    735.43782    364.63818     -2634.66 
16660000    274.92227   -3879.5112   -3408.3038   -3879.5112            0    7860.7963    17.051832    20.084806    20.803195    7124.7352    9329.6178    7013.3705    7239.4005    1470.0155    31.810815    208.95516   -2591.5124 
16661000    250.35697   -3878.3277   -3449.2244   -3878.3277            0    7944.9251    16.986228    20.007533    20.723159    7042.8177    6932.7417    8025.5783    8876.4552    456.93801    219.28653   -810.25554   -2633.1831 
16662000    257.25704   -3883.8632   -3442.9334   -3883.8632            0    7043.2847     16.99812     20.02154    20.737667    7057.6201    7340.8375    6052.3896     7736.627    278.93751    119.76997   -36.785481   -2717.9811 
16663000    263.52944   -3848.1192   -3396.4387   -3848.1192            0    9933.3483    16.900434    19.906479     20.61849    6936.6406    10617.211    9416.1791    9766.6552   -1231.0538    690.09445    151.67338   -2391.5436 
16664000    264.10515   -3904.4814   -3451.8142   -3904.4814            0     9275.564    16.963012    19.980187    20.694835    7013.9793    8845.7807    9282.6944    9698.2168    298.32419    335.45161     1009.882   -2503.0011 
16665000    263.89742   -3867.0534   -3414.7422   -3867.0534            0    7396.3611    16.911598    19.919628     20.63211    6950.3952    9486.8413    7098.1895    5604.0524     592.3943    189.91035   -268.93322   -2665.0147 
16666000    268.53128   -3872.0217   -3411.7682   -3872.0217            0    7496.8075    17.001997    20.026107    20.742397    7062.4504    7413.1508    8695.3895    6381.8821    1483.4267     -59.6914    667.71288   -2639.6076 
16667000    248.15338   -3880.6385   -3455.3121   -3880.6385            0    7865.2208     17.02741     20.05604    20.773401    7094.1669    6852.7688    7429.6157    9313.2777    295.85705    750.27863    598.05313   -2641.5673 
16668000    270.04485   -3831.3373   -3368.4896   -3831.3373            0    10963.146    16.933807    19.945788    20.659205    6977.8146    12080.908    9386.2584    11422.272    -77.59169    725.48891    1533.9981   -2252.8331 
16669000    268.87742   -3856.7164   -3395.8697   -3856.7164            0    10148.821    16.985601    20.006794    20.722393    7042.0373    9299.7295    11483.475    9663.2589    287.60269    2189.7804   -35.568093   -2353.5767 
16670000    257.24545   -3870.4922   -3429.5823   -3870.4922            0    8414.4371    16.999883    20.023617    20.739818    7059.8163    11393.331    6948.1999    6901.7804    481.37957    938.77885   -134.11565   -2563.2304 
16671000     254.1104   -3869.9544   -3434.4178   -3869.9544            0    8287.1102    16.989589    20.011491    20.727259    7046.9987    8292.3034    7394.6438    9174.3835   -2138.5574    1598.6785    1751.2044   -2582.7246 
16672000    266.07725   -3907.6807   -3451.6334   -3907.6807            0    7656.6318    16.986533    20.007892     20.72353    7043.1966    6483.7009    10178.696     6307.499   -437.20861    -140.9337    1165.1557   -2665.1611 
16673000    239.72714   -3886.9847   -3476.1006   -3886.9847            0    8890.3515    16.944636    19.958543    20.672416    6991.2095    9128.8524    10471.758    7070.4438   -333.19987    783.51383   -122.08764   -2569.6437 
16674000    255.99559   -3909.5121   -3470.7444   -3909.5121            0     6259.387    17.026253    20.054677    20.771989    7092.7205     8969.718    2504.0258    7304.4172   -1962.2887    1760.1594   -32.217033   -2823.2731 
16675000    266.04631   -3897.2098   -3441.2155   -3897.2098            0    8637.8116    16.951203    19.966278    20.680428    6999.3416    8422.5295    9777.3249    7713.5805    46.826643   -230.75728    2689.2375   -2559.4831 
16676000    257.62336   -3885.5559   -3443.9983   -3885.5559            0      9549.93    16.936406     19.94885    20.662376    6981.0282    9348.0604    9648.0625    9653.6672    1539.2209    617.40342   -206.72071   -2471.7091 
16677000    268.86582   -3884.2418    -3423.415   -3884.2418            0    7976.0311     16.97947    19.999573    20.714914    7034.4151    6165.4552    10257.175    7505.4627    1641.2521   -934.16481   -914.16196   -2605.1562 
16678000    257.61405   -3866.7733   -3425.2316   -3866.7733            0     7949.006    16.918391     19.92763    20.640398    6958.7746    7450.8841    8480.2683    7915.8657    1489.2072    1348.2668   -16.543685   -2618.5141 
16679000    242.36036   -3857.5492   -3442.1518   -3857.5492            0    7434.4455    16.985432    20.006595    20.722187    7041.8271    8624.0363    8917.4395    4761.8609    264.03104   -1026.3915   -1319.4132   -2678.6504 
16680000    259.58175   -3881.8701   -3436.9558   -3881.8701            0     9544.531    16.906453    19.913568    20.625833    6944.0539     8330.223    10301.899    10001.471    794.38141    612.81033    498.36652    -2470.363 
16681000     270.9663   -3892.9846   -3428.5576   -3892.9846            0    8287.7783    16.916742    19.925687    20.638385    6956.7393    8603.4232    8556.1583    7703.7534    1353.6819     1274.324     454.2325   -2587.7053 
16682000    283.24487   -3887.6193   -3402.1473   -3887.6193            0    7484.3856    16.927073    19.937856     20.65099    6969.4932     6895.573    8168.2979    7389.2859   -2341.5665    1960.9872   -1663.2486   -2641.4126 
16683000    245.64639   -3871.0743   -3450.0448   -3871.0743            0    7822.0136    16.960354    19.977057    20.691592    7010.6831    8260.6209    8911.7867    6293.6332    416.17089    518.42234    261.84403   -2650.2938 
16684000    248.11307   -3880.3608   -3455.1035   -3880.3608            0    8758.0449    16.993667    20.016295    20.732234    7052.0742     7437.723    9492.4572    9343.9546   -156.03515   -417.27547    428.63762   -2554.3625 
16685000    259.16179   -3841.2622   -3397.0677   -3841.2622            0    9376.4983    16.928857    19.939958    20.653166    6971.6972    9519.4857    9549.0253    9060.9839   -583.26629    8.9094561     1633.488   -2443.7118 
16686000    272.78478   -3872.3692   -3404.8254   -3872.3692            0    7711.8196    16.966947    19.984822    20.699636    7018.8619    7650.5228     9090.681    6394.2551   -653.68959    243.05591    447.29466   -2615.4212 
16687000    254.06341   -3869.9227   -3434.4667   -3869.9227            0    8628.7133    16.928322    19.939327    20.652513    6971.0361     8352.022    7484.3646    10049.753   -1076.8505    654.09635    738.88376    -2557.225 
16688000    266.31811   -3839.2888   -3382.8287   -3839.2888            0    8291.7349    16.962716    19.979839    20.694474    7013.6128    8569.0898    8201.9143    8104.2005   -780.34636   -1084.1308   -30.577293   -2534.6974 
16689000    262.50168   -3891.9711   -3442.0522   -3891.9711            0    8454.3104    16.930876    19.942336     20.65563     6974.192    10068.912    8322.3941    6971.6248    312.52741   -990.56687    1292.1905   -2582.1522 
16690000    267.81754     -3843.57   -3384.5399     -3843.57            0    8634.2133    17.024457    20.052561    20.769798    7090.4759    8640.3682    9356.6303    7905.6415    1429.8321   -1182.4948    1122.8509    -2491.699 
16691000    249.54402   -3867.0135   -3439.3036   -3867.0135            0    8698.6049    17.034883    20.064842    20.782518    7103.5112      7897.08    8915.5379    9283.1967    -225.2758    393.43172    172.04186   -2538.1505 
16692000     253.9416   -3849.4276   -3414.1804   -3849.4276            0    7013.0897    17.019243     20.04642    20.763437    7083.9636    6129.7957    8168.6354    6740.8378    74.052536    969.78722   -199.14366   -2689.6416 
16693000    246.58907   -3839.9608   -3417.3155   -3839.9608            0    7296.7449     16.99972    20.023425    20.739619    7059.6131     8787.103    6035.8135    7067.3181    2669.2186    1082.4373    619.56553    -2666.063 
16694000     266.8072   -3859.2199   -3401.9215   -3859.2199            0    5512.7145    17.059634    20.093996    20.812714    7134.5196     5256.096    6425.6223    4856.4252     105.9776   -603.84895   -1517.2368   -2828.3254 
16695000    259.14352   -3879.4166   -3435.2535   -3879.4166            0    6908.5651    17.073742    20.110612    20.829925    7152.2339    6341.8128    7238.6838    7145.1988   -482.87154   -941.74513   -265.43357   -2714.6349 
16696000    251.45532   -3842.6623   -3411.6764   -3842.6623            0    8314.9604    17.007414    20.032487    20.749005    7069.2024    9474.7973    8119.1113    7350.9724    691.23087   -758.30317   -1089.2541   -2554.4284 
16697000    257.12549    -3859.256   -3418.5517    -3859.256            0    8140.6527    17.005016    20.029663     20.74608    7066.2129    9147.4782    7558.5465    7715.9335    1015.2631   -239.31315   -816.57045   -2579.6292 
16698000    267.58671   -3886.8831   -3428.2486   -3886.8831            0    6836.2758    17.083776    20.122431    20.842166     7164.851    6893.5068    6339.2763    7276.0443    667.93656    687.05284   -545.33861   -2713.9125 
16699000    263.88053   -3839.8936   -3387.6114   -3839.8936            0    9304.0236    17.006017    20.030842    20.747301    7067.4614    10119.153    7034.5753    10758.343   -1262.3659    447.79216   -681.27361   -2428.6301 
16700000    255.34823   -3855.7531   -3418.0949   -3855.7531            0    8547.0748    17.013927    20.040159    20.756952    7077.3278    7800.2403    6769.0152    11071.969   -517.75723    406.27739    1645.9067   -2535.9038 
16701000    260.06775   -3882.8244   -3437.0772   -3882.8244            0    6802.7225    17.046894     20.07899    20.797171    7118.5474    6300.6033    7055.6587    7051.9054    411.94999   -1278.4149    297.63119   -2730.8409 
16702000    260.36146   -3875.8274   -3429.5768   -3875.8274            0     5848.498    17.048311    20.080658      20.7989    7120.3225      6023.02    5471.9761    6050.4979    357.65604   -247.63987    176.55008   -2822.2535 
16703000    252.51667   -3869.6557   -3436.8508   -3869.6557            0    8295.1608    16.991934    20.014253    20.730119    7049.9169    11204.158    5885.4849      7795.84   -36.293693    986.42584   -590.77557   -2583.9772 
16704000    259.92845   -3907.0446   -3461.5362   -3907.0446            0    8271.0909    17.008297    20.033527    20.750082    7070.3034    6908.1978    7945.3845    9959.6904   -1676.5112    1118.0838    1310.0669   -2608.6782 
16705000    244.70669   -3897.8158   -3478.3969   -3897.8158            0    7257.7868    17.018114    20.045091     20.76206    7082.5542    7953.8346    6495.5281    7323.9978    2438.6602   -1198.6385   -790.10437   -2728.7271 
16706000    256.83915   -3886.1857   -3445.9722   -3886.1857            0    8043.1177    16.957819    19.974071    20.688499    7007.5397    8588.9439    8972.5996    6567.8097   -872.61882    915.78645   -312.98727   -2623.9834 
16707000    252.18858   -3877.6942   -3445.4516   -3877.6942            0    7672.6551    16.978656    19.998614     20.71392     7033.403    7355.9613    7707.8413    7954.1627    192.40475     508.0338   -1144.7953   -2658.4293 
16708000    265.62584   -3831.5174   -3376.2438   -3831.5174            0     10179.83    16.958057    19.974351     20.68879    7007.8351    10389.818    8759.4336    11390.239     653.7468    399.52938    598.20266   -2335.8439 
16709000     250.3691   -3860.0725   -3430.9485   -3860.0725            0     7682.298    17.021167    20.048686    20.765783    7086.3656    8497.2759    7593.4825    6956.1356   -1535.6479    532.40039   -496.82947   -2637.0031 
16710000    268.77209   -3841.6852   -3381.0191   -3841.6852            0    8292.6998    17.005847    20.030641    20.747094    7067.2489    9008.9904    8801.3058    7067.8033    262.47026    1758.4228   -1530.0759   -2526.3023 
16711000    253.85179   -3838.6569   -3403.5636   -3838.6569            0    11235.896    16.970426     19.98892     20.70388    7023.1805    10564.022    13097.709    10045.958   -734.02846   -393.86894   -1704.8286    -2252.717 
16712000    258.02936   -3858.3689   -3416.1154   -3858.3689            0    6972.6786    17.077764    20.115351    20.834833    7157.2904    7339.2849    7026.6923    6552.0588    1114.9453    1729.9408   -505.04685   -2688.2951 
16713000    266.83023   -3840.6737   -3383.3358   -3840.6737            0    7148.4357    17.033489      20.0632    20.780816    7101.7667    6602.8363    6140.1417    8702.3291    31.338818   -1334.6621   -660.53233   -2642.9581 
16714000    249.22772   -3862.0141   -3434.8463   -3862.0141            0    7917.4805    17.047055    20.079179    20.797367    7118.7484    5569.1759    7879.6068    10303.659    1289.3391    1070.1132   -472.33322   -2612.8563 
16715000    246.30363   -3908.9313   -3486.7753   -3908.9313            0    7682.5889    16.997996    20.021393    20.737515    7057.4648     5994.285    9151.0012    7902.4805    215.14212    1257.7043   -1304.8661   -2696.0381 
16716000    253.15734   -3867.6522   -3433.7492   -3867.6522            0    7298.0839    16.990349    20.012387    20.728186    7047.9444    6757.4838    7897.5017    7239.2662    522.30219   -2104.1766    823.32903   -2683.6008 
16717000    260.67518   -3885.3239   -3438.5356   -3885.3239            0    7005.1292     16.96126    19.978124    20.692698    7011.8067    5969.1783     8551.332    6494.8771    126.78553   -537.39688   -1199.6681    -2722.191 
16718000    263.79433    -3857.783   -3405.6486    -3857.783            0    7917.3011    16.995369      20.0183    20.734311     7054.194    9048.4265    5885.3188    8818.1579   -2589.6455    247.24706   -799.57268    -2591.131 
16719000    268.40632   -3847.3834   -3387.3441   -3847.3834            0    6469.9658     17.01736    20.044202     20.76114    7081.6124    4761.9944    7694.0655    6953.8374    445.10531   -900.84433   -616.73601   -2719.1387 
16720000    252.61813   -3880.7102   -3447.7314   -3880.7102            0    7810.7953    17.016501     20.04319    20.760091    7080.5394    6168.5523    6919.7027    10344.131   -272.83385   -830.28386    360.77633   -2641.1699 
16721000    258.62851   -3882.3367   -3439.0563   -3882.3367            0    9815.7968    16.984701    20.005734    20.721295    7040.9178    11767.565    7497.9436    10181.882   -993.43203     1840.747    1850.1691   -2431.1255 
16722000     257.1504   -3897.1302   -3456.3832   -3897.1302            0    8231.4048     17.02823    20.057005    20.774401     7095.191    8902.6231    7907.1616    7884.4297    1679.7074    102.15912   -630.43742   -2604.6297 
16723000    261.10587   -3890.6983   -3443.1718   -3890.6983            0    8338.4209    16.942328    19.955825    20.669601    6988.3535    8957.9517     7315.906     8741.405    44.510672    482.53845    151.73549   -2593.3369 
16724000    267.36735   -3882.6564    -3424.398   -3882.6564            0    7245.8881    17.031948    20.061385    20.778937    7099.8397    8361.4123    5907.9207    7468.3313   -1252.0764    1421.0186    2323.9128   -2674.1306 
16725000    261.85902   -3884.6269   -3435.8095   -3884.6269            0    9415.3018    16.952073    19.967303     20.68149    7000.4193    10263.102     7960.239    10022.564   -648.43269    150.74867    660.87338   -2474.5643 
16726000    271.29769   -3851.7135   -3386.7186   -3851.7135            0    8831.6464    16.947961    19.962459    20.676472    6995.3255    7628.7386    9740.0912    9126.1093   -37.930684   -1226.8007    314.86267   -2485.7171 
16727000    277.53568   -3828.8466   -3353.1599   -3828.8466            0    8283.3937    17.039939    20.070798    20.788686    7109.8383    8414.0241    7014.8992    9421.2578   -306.56473   -1240.2085    577.29026   -2494.2573 
16728000    259.93467   -3850.1787   -3404.6596   -3850.1787            0    7319.9173    17.017083    20.043876    20.760802    7081.2668    6928.5658    8511.1292    6520.0569   -2520.8229   -1105.3596    -402.5471   -2648.7097 
16729000    273.89204   -3868.4744   -3399.0329   -3868.4744            0    9949.7609    16.950506    19.965457    20.679577    6998.4773    11736.045    11100.812    7012.4259    878.30261    62.844907   -89.515423   -2383.5044 
16730000    262.70476   -3845.2147   -3394.9478   -3845.2147            0    7928.5274    16.972242    19.991059    20.706095    7025.4349    7624.5913    7269.2989    8891.6921   -518.00358    1500.1179    742.01833   -2582.6007 
16731000    256.34656   -3822.4105   -3383.0413   -3822.4105            0    9920.5869    16.960122    19.976783    20.691309    7010.3953    10858.615    9728.4489     9174.697   -2562.8046   -475.96513    159.21683   -2368.7662 
16732000    260.15801   -3866.3877   -3420.4858   -3866.3877            0    7389.3417    17.008171    20.033379    20.749929    7070.1467    6403.7695    9362.4577     6401.798    315.81155   -1629.4552    1093.8576   -2658.5646 
16733000    251.16881   -3886.7036   -3456.2089   -3886.7036            0    6038.7433    17.072738     20.10943      20.8287    7150.9724    5806.3919    5682.7834    6627.0547   -422.56416    732.29796    558.88722   -2826.4308 
16734000    268.57412   -3861.9653   -3401.6385   -3861.9653            0    7676.1127    17.021239    20.048771    20.765872    7086.4561    7560.3911    5851.7531    9616.1938    1412.5884   -1999.6429    2929.4662   -2608.3223 
16735000     259.5925   -3881.7925   -3436.8598   -3881.7925            0    6442.3302    17.027858    20.056568    20.773948     7094.727    7107.5823     7168.404    5051.0043    405.86623    1830.2579    296.74481   -2770.2763 
16736000    255.41504   -3841.8948   -3404.1222   -3841.8948            0    8563.8073    16.994915    20.017765    20.733756    7053.6282    8068.4187    8882.4809    8740.5222   -76.806995    641.67993   -1023.7903   -2523.1639 
16737000    259.09477   -3860.3471   -3416.2676   -3860.3471            0    7694.3635    17.018212    20.045205    20.762178    7082.6756    9153.1999    6741.5251    7188.3655   -510.89755   -1396.1469    803.45462   -2621.4894 
16738000    273.03313   -3858.2199   -3390.2505   -3858.2199            0    8183.8649    16.994893    20.017739    20.733729    7053.6005    7491.3137    7109.1594    9951.1218   -2914.9945   -1177.1886    1141.1752   -2548.3801 
16739000    268.04243   -3875.3289   -3415.9134   -3875.3289            0    9483.1985    16.942174    19.955643    20.669413    6988.1626     7989.466    9588.8303    10871.299   -775.15417    -589.4736    411.39816   -2449.4315 
16740000    258.06413   -3860.2197   -3417.9066   -3860.2197            0    7477.5657    16.967524    19.985502     20.70034     7019.578    7801.8137    7587.4967    7043.3867   -82.466912   -518.03241   -159.93043   -2652.4032 
16741000    249.63703   -3870.0639   -3442.1945   -3870.0639            0    7964.1248    16.882253    19.885064    20.596309     6914.277    7085.5322    7638.5288    9168.3134   -728.49139   -484.56952    1925.8785    -2639.111 
16742000    259.50815   -3841.0872   -3396.2991   -3841.0872            0    7145.9089    16.972615    19.991499    20.706551    7025.8988    7153.4531    8744.6564    5539.6171    680.30389   -662.27276   -222.03715   -2664.0898 
16743000    260.63705   -3840.4341   -3393.7112   -3840.4341            0    7229.1098    16.980027    20.000229    20.715593     7035.107    6654.3487    6327.8707      8705.11    1708.2997    409.41242   -577.31066   -2652.0058 
16744000    254.60078   -3870.8004   -3434.4233   -3870.8004            0    7925.5609    16.979968    20.000159    20.715521    7035.0332    8338.4113    8259.9016    7178.3698    -34.78455   -447.32805    138.03531   -2621.2707 
16745000    266.21259   -3854.2477   -3397.9685   -3854.2477            0    6181.3046    17.001619    20.025661    20.741935    7061.9787    4504.9467    6647.0309    7391.9362    1046.8999    895.59188    1846.7623   -2761.3453 
16746000    252.35683   -3866.7581   -3434.2271   -3866.7581            0    7319.7102    17.003227    20.027555    20.743897    7063.9828    6161.2324    6948.9771    8848.9212   -309.09164   -875.56356    991.18057   -2680.1436 
16747000    261.04457   -3865.0412   -3417.6197   -3865.0412            0    7442.1446    16.953614    19.969117    20.683369    7002.3276    7700.6884    6954.8393    7670.9062   -497.94681    320.92033    1198.5435   -2657.6148 
16748000    266.85439   -3848.7169   -3391.3376   -3848.7169            0    6560.0172     17.04574     20.07763    20.795763    7117.1014    6381.3236    7673.8436    5624.8845    444.14843    963.84229    568.08469   -2710.4366 
16749000    250.56917     -3873.93    -3444.463     -3873.93            0    8668.8156    16.984244    20.005197    20.720739    7040.3506    8300.0266    8584.3253    9122.0949   -1491.2335   -821.90587   -602.17116   -2554.3811 
16750000    271.48767   -3863.0553   -3397.7347   -3863.0553            0    7817.4977    17.031639    20.061021     20.77856    7099.4539    7398.7792    8561.3761    7492.3378   -349.56734    231.77583    600.91295   -2588.3246 
Loop time of 476.509 on 64 procs for 250000 steps with 864 atoms

Performance: 90.659 ns/day, 0.265 hours/ns, 524.649 timesteps/s
99.1% CPU use with 64 MPI tasks x 1 OpenMP threads

MPI task timing breakdown:
Section |  min time  |  avg time  |  max time  |%varavg| %total
---------------------------------------------------------------
Pair    | 21.802     | 26.68      | 31.279     |  48.0 |  5.60
Bond    | 0.27019    | 0.27931    | 0.28947    |   0.8 |  0.06
Kspace  | 204.64     | 214.93     | 222.03     |  24.4 | 45.10
Neigh   | 5.6723     | 6.408      | 7.6065     |  16.1 |  1.34
Comm    | 99.977     | 108.58     | 119.02     |  35.3 | 22.79
Output  | 0.90354    | 0.90418    | 0.90622    |   0.1 |  0.19
Modify  | 110.26     | 113.9      | 116.66     |  15.4 | 23.90
Other   |            | 4.833      |            |       |  1.01

Nlocal:        13.5000 ave          20 max          10 min
Histogram: 2 10 11 14 7 7 8 3 1 1
Nghost:        2231.77 ave        2277 max        2198 min
Histogram: 3 7 6 14 10 13 3 5 1 2
Neighs:        4345.23 ave        6522 max        3029 min
Histogram: 5 6 17 10 12 5 3 1 3 2

Total # of neighbors = 278095
Ave neighs/atom = 321.86921
Ave special neighs/atom = 2.0000000
Neighbor list builds = 14000
Dangerous builds = 1

unfix		3
unfix		2
unfix		1

write_data	data.final.${pid}
write_data	data.final.0
System init for write_data ...
PPPM initialization ...
  extracting TIP4P info from pair style
  using 12-bit tables for long-range coulomb (../kspace.cpp:340)
  G vector (1/distance) = 0.37398661
  grid = 24 24 24
  stencil order = 5
  estimated absolute RMS force accuracy = 0.0031925209
  estimated relative force accuracy = 9.6141818e-06
  using double precision FFTW3
  3d grid and FFT values/proc = 2535 216
Last active /omp style is kspace_style pppm/tip4p/omp
WARNING: Not all mixed pair coeffs generated from mixing. Use write_data with 'pair ij' option to store all pair coeffs. (../write_data.cpp:312)

write_restart   restart.lmp.${pid}
write_restart   restart.lmp.0
System init for write_restart ...
PPPM initialization ...
  extracting TIP4P info from pair style
  using 12-bit tables for long-range coulomb (../kspace.cpp:340)
  G vector (1/distance) = 0.37398661
  grid = 24 24 24
  stencil order = 5
  estimated absolute RMS force accuracy = 0.0031925209
  estimated relative force accuracy = 9.6141818e-06
  using double precision FFTW3
  3d grid and FFT values/proc = 2535 216
Last active /omp style is kspace_style pppm/tip4p/omp
Total wall time: 0:08:00
