#include		in.partitions
include		in.temp
variable        temperature equal 182.72
variable	tempDamp equal 100.0
include		in.pressure
variable        pressure equal 1750.7
variable        pressureDamp equal 1000.0 # This is 1 ps
include		in.seed
variable        seed equal 745823

units		real
atom_style	full

read_restart	restart.lmp.${pid}
read_restart	restart.lmp.1
Reading restart file ...
  restart file = 30 Jul 2021, LAMMPS = 30 Jul 2021
  restoring atom style full from restart
  orthogonal box = (0.018033065 -0.050617751 -0.17434280) to (19.981968 20.050619 20.874341)
  2 by 4 by 4 MPI processor grid
  restoring pair style lj/cut/tip4p/long/omp from restart
  restoring bond style harmonic/omp from restart
  restoring angle style harmonic/omp from restart
  972 atoms
  648 bonds
  324 angles
Finding 1-2 1-3 1-4 neighbors ...
  special bond factors lj:    0        0        0       
  special bond factors coul:  0        0        0       
     2 = max # of 1-2 neighbors
     1 = max # of 1-3 neighbors
     1 = max # of 1-4 neighbors
     2 = max # of special neighbors
  special bonds CPU = 0.002 seconds
  read_restart CPU = 0.006 seconds
include 	in.setup
variable	out_freq equal 1000
variable	out_freq2 equal 10000
variable	out_freq3 equal 1000

timestep	2.0

neigh_modify    delay 7 every 1

include		in.tip4p
# This is TIP4P/Ice

# create groups ###
group ox type 2
324 atoms in group ox
group hy type 1
648 atoms in group hy

# set charges - beside manually ###
set group ox charge -1.1794
Setting atom values ...
  324 settings made for charge
set group hy charge 0.5897
Setting atom values ...
  648 settings made for charge

# ### TIP3P Potential Parameters ###
pair_style lj/cut/tip4p/long/omp 2 1 1 1 0.1577 8.5
pair_coeff 1 1*2 0.000 0.000
pair_coeff 2 2 0.21084 3.1668
bond_style  harmonic
bond_coeff  1 450 0.9572
angle_style harmonic
angle_coeff 1 55 104.52
kspace_style pppm/tip4p/omp 1.0e-5
pair_modify tail yes

thermo          ${out_freq}
thermo          1000
thermo_style    custom step temp pe etotal epair emol press lx ly lz vol pxx pyy pzz pxy pxz pyz enthalpy

restart 	${out_freq3} restart.lmp.${pid} restart2.lmp.${pid}
restart 	1000 restart.lmp.${pid} restart2.lmp.${pid}
restart 	1000 restart.lmp.1 restart2.lmp.${pid}
restart 	1000 restart.lmp.1 restart2.lmp.1


include         in.dump
dump            myDump all atom ${out_freq2} dump.water.${pid}
dump            myDump all atom 10000 dump.water.${pid}
dump            myDump all atom 10000 dump.water.1
dump            myDump2 all dcd ${out_freq2} dump.dcd
dump            myDump2 all dcd 10000 dump.dcd
dump_modify     myDump append yes
dump_modify     myDump2 append yes


variable natoms 	equal  "count(all)"                        # NUMBER ATOMS
variable H      	equal  "enthalpy/v_natoms"                 # ENTHALPY-per-atom
variable Vol      	equal  "vol/v_natoms"                 # volume-per-atom
fix AVG all 		ave/time ${out_freq} 1 ${out_freq} v_Vol v_H file vol_enthalpy.dat
fix AVG all 		ave/time 1000 1 ${out_freq} v_Vol v_H file vol_enthalpy.dat
fix AVG all 		ave/time 1000 1 1000 v_Vol v_H file vol_enthalpy.dat


timer           timeout 02:55:00 every 1000
New timer settings: style=normal  mode=nosync  timeout=02:55:00

fix 		1 all shake 1e-6 200 0 b 1 a 1
       0 = # of size 2 clusters
       0 = # of size 3 clusters
       0 = # of size 4 clusters
     324 = # of frozen angles
  find clusters CPU = 0.001 seconds
fix             2 all nph aniso ${pressure} ${pressure} ${pressureDamp}
fix             2 all nph aniso 1750.7 ${pressure} ${pressureDamp}
fix             2 all nph aniso 1750.7 1750.7 ${pressureDamp}
fix             2 all nph aniso 1750.7 1750.7 1000
fix             3 all temp/csvr ${temperature} ${temperature} ${tempDamp} ${seed}
fix             3 all temp/csvr 182.72 ${temperature} ${tempDamp} ${seed}
fix             3 all temp/csvr 182.72 182.72 ${tempDamp} ${seed}
fix             3 all temp/csvr 182.72 182.72 100 ${seed}
fix             3 all temp/csvr 182.72 182.72 100 745823


run             250000
PPPM initialization ...
  extracting TIP4P info from pair style
  using 12-bit tables for long-range coulomb (../kspace.cpp:340)
  G vector (1/distance) = 0.3719861
  grid = 24 24 25
  stencil order = 5
  estimated absolute RMS force accuracy = 0.0034588334
  estimated relative force accuracy = 1.0416174e-05
  using double precision FFTW3
  3d grid and FFT values/proc = 3458 576
Last active /omp style is kspace_style pppm/tip4p/omp
Neighbor list info ...
  update every 1 steps, delay 7 steps, check yes
  max neighbors/atom: 2000, page size: 100000
  master list distance cutoff = 10.8154
  ghost atom cutoff = 10.8154
  binsize = 5.4077, bins = 4 4 4
  1 neighbor lists, perpetual/occasional/extra = 1 0 0
  (1) pair lj/cut/tip4p/long/omp, perpetual
      attributes: half, newton on, omp
      pair build: half/bin/newton/omp
      stencil: half/bin/3d
      bin: standard
Per MPI rank memory allocation (min/avg/max) = 10.19 | 10.19 | 10.21 Mbytes
Step Temp PotEng TotEng E_pair E_mol Press Lx Ly Lz Volume Pxx Pyy Pzz Pxy Pxz Pyz Enthalpy 
14000000    188.39963   -4838.9862   -4475.6416   -4838.9862            0    928.75788    19.963935    20.101237    21.048684     8446.832    947.71131    1386.5295    452.03278    -672.8509    1356.9604    419.35833   -4361.2294 
14001000    185.91161   -4874.2633   -4515.7172   -4874.2633            0    3178.3934     20.18806    20.096053    20.462882    8301.7981    2972.0858    2374.4494    4188.6449   -2.4121911   -581.72369    -1086.661   -4130.8989 
14002000    183.85578   -4872.2293    -4517.648   -4872.2293            0    2579.9472    19.983418    20.000067    20.994203    8390.7465    2554.8566    2568.1822    2616.8027   -843.60504    495.70346   -404.79143   -4201.9387 
14003000     182.5704   -4873.4696   -4521.3672   -4873.4696            0    599.33494    20.041916    20.215076    20.851937    8448.1383    2342.8698   -409.03503   -135.82989    -34.19632    943.02118   -567.20615   -4447.5247 
14004000    173.45126   -4875.3436   -4540.8282   -4875.3436            0    2472.4649    19.937055    20.070846    20.937153    8378.0764    2109.8333    2772.4005    2535.1608   -462.05911    318.44268    331.38302   -4238.7285 
14005000    181.66726   -4871.2246    -4520.864   -4871.2246            0    2159.6382    20.031237    20.142718    20.900406    8432.9701    2600.9251    1897.5804    1980.4091   -30.613808    332.69042   -369.50901   -4255.2583 
14006000    181.34883      -4849.8   -4500.0536      -4849.8            0     1878.335    20.067767    20.013095    20.898422    8393.1848    1412.5179    1272.5635    2949.9235   -57.562891    -1857.036   -1028.8682   -4270.1341 
14007000    186.07335   -4871.6305   -4512.7724   -4871.6305            0      2712.42    20.052649    19.884676     20.91488     8339.608    3317.3729    2210.7318    2609.1551   -624.66267    525.57002   -807.46897   -4182.8753 
14008000    180.99715   -4859.0062    -4509.938   -4859.0062            0    2132.1611    20.146202    19.959433    20.913695    8409.5384    1318.8811    2552.0672    2525.5349   -722.03097   -598.99589   -564.24424   -4248.4402 
14009000    191.97443   -4865.2148   -4494.9759   -4865.2148            0       2369.2    20.092584    19.858727    21.038763    8394.7431    1219.2515    4119.4945    1768.8541   -115.33689    1141.2572   -71.991889   -4204.9178 
14010000    192.51862   -4875.6797   -4504.3914   -4875.6797            0    1094.6957    20.310237    19.919314    20.798408    8414.3283   -753.41795     2198.455    1839.0501    -323.3632   -118.01938    1636.1469   -4370.0565 
14011000    178.52005   -4867.2754   -4522.9844   -4867.2754            0    2367.2355    20.080308      19.8273    21.147357    8419.5724     2125.638    3914.5784    1061.4902    31.258479     1079.987   -466.10151   -4232.3096 
14012000    189.82385   -4851.6702   -4485.5789   -4851.6702            0    1100.9568     20.15557     19.99506     20.92586     8433.369    839.51473    1461.1284    1002.2271   -524.88667    335.12061    842.23665     -4350.17 
14013000    192.77095   -4863.1599   -4491.3849   -4863.1599            0     2296.835    20.116029    19.857931    21.082352    8421.6132    1959.2042    2504.5206    2426.7803   -491.35867    203.91469    1583.5449   -4209.2863 
14014000    186.39562   -4886.3181   -4526.8385   -4886.3181            0     1294.779    20.060017    20.093187    20.869346    8411.8004    1469.3042    1427.1122    987.92059    168.42684   -1007.5466   -387.34045   -4367.9983 
14015000    188.23477    -4886.776   -4523.7495    -4886.776            0    1339.4562    19.979513     19.97356    21.035851    8394.6089    2095.9963    2177.4047   -255.03238    34.486606    1245.1257    838.29427   -4359.7642 
14016000    183.67444   -4872.0066    -4517.775   -4872.0066            0    1559.6305    19.938081     20.14512    21.079088    8466.5217    2181.4913    2282.2377    215.16252    279.85072    1565.6713    341.62756   -4325.1988 
14017000     186.7275   -4873.7649   -4513.6452   -4873.7649            0    2246.1753    20.049016    20.038771    20.841977    8373.4238    1278.5505    3349.7257    2110.2498   -760.35788   -1189.2368   -1145.8445   -4239.3472 
14018000     183.3942    -4893.243   -4539.5518    -4893.243            0    615.10944    20.123057    20.022051    20.984155    8454.6181    134.22031    1469.7161    241.39193   -262.69605   -296.99715   -594.92567   -4463.7076 
14019000    177.56651   -4866.4058   -4523.9539   -4866.4058            0    1491.2685    20.287946    19.876146    20.907459     8430.853    1352.3712    1841.7172    1279.7172   -128.36173   -2.3960315    1.5475328   -4340.5944 
14020000    183.56364   -4881.1594   -4527.1415   -4881.1594            0    1361.6875     20.21678    19.931081    20.843499    8398.7267    56.342521    2627.3245    1401.3955    -231.7922    -362.2883    100.20468   -4360.3527 
14021000    181.07224   -4888.2398   -4539.0268   -4888.2398            0    998.91436    20.178606    20.098038    20.844277    8453.4048    1027.2281    961.93654    1007.5784   -509.48274   -174.06868   -548.69883   -4415.8764 
14022000    188.02749   -4877.8243   -4515.1974   -4877.8243            0     2004.468    20.021807    20.045639     21.10437     8470.237    3456.0778    1430.5822    1126.7441   -490.75723    13.053362     646.0981   -4267.5861 
14023000     177.6167   -4873.8488   -4531.3001   -4873.8488            0    1685.8414    20.216715    20.070067    20.627273    8369.5328    60.877505    2544.8625    2451.7842    246.69792   -215.68518   -1195.3063   -4325.5245 
14024000    194.45149   -4854.2799   -4479.2638   -4854.2799            0    1219.6903    20.074382    20.059533    21.101978    8497.4021    1174.4966    1169.8329    1314.7414     275.3467    618.51617    634.97779   -4328.1126 
14025000    185.14216   -4856.2145   -4499.1522   -4856.2145            0    565.03034    20.268781    20.004252    20.916857    8480.9864     -404.244    1483.0412    616.29381   -118.35918    510.51714   -349.23224   -4429.2656 
14026000    190.22581   -4857.9698   -4491.1033   -4857.9698            0    3090.2027    20.050924    19.945499    20.966805    8385.1642    5025.7701    1164.2606    3080.5775   -136.72633   -566.10088    1201.6674   -4113.2055 
14027000    192.23051   -4860.2005   -4489.4677   -4860.2005            0    2765.3944    20.174108     19.95661    20.830726    8386.5923    3733.9346    1589.7386    2972.5102    45.776009    872.52559    612.19735   -4151.2328 
14028000    180.54019   -4874.3205   -4526.1336   -4874.3205            0    2608.3646    20.095597    19.973949    20.890373    8385.1543    2729.8448    2858.2478    2237.0012    -64.81206    406.73808    1143.0594   -4207.1596 
14029000     194.2472   -4880.2312   -4505.6091   -4880.2312            0    3100.1412    19.763843     20.08804    20.960872    8321.8198    5479.3697    909.47707    2911.5769   -158.41448   -355.25179    143.02579   -4129.3598 
14030000    188.91109   -4858.2187   -4493.8878   -4858.2187            0    3108.8703    19.977519    20.170952    20.782643    8374.6897     3425.888    2564.0991    3336.6238   -155.12417   -727.75827     135.5289    -4114.182 
14031000    183.73127   -4851.8234   -4497.4822   -4851.8234            0    2512.7869    20.086404    20.029977    21.032664     8462.076    2965.0992    2563.1496    2010.1119   -679.14559   -301.63942   -771.34501   -4187.3774 
14032000    187.56823   -4871.1474   -4509.4063   -4871.1474            0    852.23963    20.089552    19.997635    20.923384    8405.8337    279.25459    1503.3787    774.08556    205.46293   -545.40753   -434.31348   -4404.9299 
14033000    180.37053    -4863.754   -4515.8942    -4863.754            0    2000.8139    20.067022    20.124421    20.772006    8388.5089    2068.2531    2045.2656     1888.923   -122.15922    2127.2497    592.96841   -4271.1191 
14034000    182.59828   -4881.3886   -4529.2325   -4881.3886            0    2587.9029    19.948973    20.016001      20.9867    8379.9608    1836.6993    3447.2335     2479.776    378.52316    301.56814   -667.44468   -4212.9568 
14035000    177.54797   -4890.0307   -4547.6145   -4890.0307            0    1037.0049     20.11989    20.308502    20.589746    8413.0695     502.4285    742.47262    1866.1135   -293.50854    354.82623    -554.4652   -4420.3782 
14036000    176.37839   -4877.8621   -4537.7016   -4877.8621            0    2345.2502     19.92865    20.013131    21.054941    8397.4408    2980.3904    3235.0373    820.32298    502.17363     386.2788    -727.8411   -4250.4833 
14037000    179.15601   -4867.8101   -4522.2926   -4867.8101            0    1826.4329    20.033066    20.101782    20.836472     8390.854    2346.0168    297.20125    2836.0807     272.9078   -620.60114    364.83661   -4298.7884 
14038000    184.39599   -4863.4918   -4507.8686   -4863.4918            0    568.90719    19.979618    20.177087    21.033328    8479.1757     1646.851    194.32099   -134.45047   -392.86592    207.62594   -846.59366   -4437.5175 
14039000    174.66926   -4867.9527   -4531.0883   -4867.9527            0    2238.5589    19.955249    20.119669    20.869711    8379.0429    3021.5515    1625.7577    2068.3673   -403.70089    92.050703   -802.91823    -4257.537 
14040000    177.37163    -4863.809   -4521.7329    -4863.809            0      1245.31     20.01608    19.900976    21.310738    8488.9095    1593.9539    2371.1593    -229.1832    120.67179    51.108154   -24.097451    -4367.561 
14041000    181.95463   -4865.0418    -4514.127   -4865.0418            0    216.07088    20.191831    20.083579    20.924134    8485.2439   -136.71399   -110.17073    895.09737     118.9061   -827.73537    39.509272   -4487.3885 
14042000    181.59442    -4876.364   -4526.1439    -4876.364            0    892.05257    20.236903    19.908462    21.068292    8488.1121   -924.69209    2963.9588    636.89099   -631.56462    863.59283    1628.2423   -4415.7163 
14043000    191.10621   -4873.7278   -4505.1634   -4873.7278            0     1218.565    20.156872    20.005054    20.967211    8454.8039    148.70302     1509.567    1997.4249   -102.84315   -49.486949    1328.4322   -4354.9087 
14044000    176.27022   -4881.3931   -4541.4412   -4881.3931            0    2381.3622    20.107391    19.951478    20.867151    8371.3201    941.06803    4157.9674     2045.051   -376.85538    1325.7002   -338.20534   -4250.7076 
14045000    168.67344   -4868.0013   -4542.7004   -4868.0013            0    1790.2567    20.161712     19.91077    20.939481    8405.8447    2012.3229    1867.1239    1491.3235   -262.82134    980.67218   -426.41662   -4323.2317 
14046000    182.23191   -4879.1668   -4527.7173   -4879.1668            0    1829.4484    20.170965    19.876459      20.9197    8387.2797    1347.0668    2975.9205     1165.358     117.8006    987.00268   -1247.9418   -4303.9394 
14047000    176.20173   -4864.5215   -4524.7016   -4864.5215            0    2168.0676    20.152025    20.010932     20.86511    8414.0809     2416.478    1636.0705    2451.6544    83.468049    820.86824   -711.10001   -4258.6565 
14048000    179.71026   -4889.4478   -4542.8615   -4889.4478            0    1221.1368    20.011102    20.044324    21.036974      8438.12    627.12765    2488.3571    547.92567   -630.37064   -1210.8594    1470.6422   -4392.5868 
14049000    185.50524    -4870.571   -4512.8085    -4870.571            0    2057.1585    20.049843    20.097562    20.832892    8394.6757    1436.5172    2597.9344    2137.0238   -460.35973   -114.74569    240.30421   -4260.9553 
14050000    176.99903   -4874.1786   -4532.8211   -4874.1786            0    1190.4804    19.942275    20.079869    21.102733    8450.3417    1698.7917    414.16745     1458.482   -148.17414   -390.65998    142.43316   -4386.1068 
14051000    197.15999   -4848.3773   -4468.1377   -4848.3773            0    2907.7551    20.015259    20.158499    20.731835     8364.831    3463.7656    1687.7006     3571.799   -674.49452    149.77734    881.46374   -4113.4135 
14052000    183.14731   -4885.8063   -4532.5913   -4885.8063            0    2195.1681    20.005994    19.860702    21.113794     8389.209    3409.9686    1538.2343    1637.3013   -4.6526667    212.94773    1141.3233   -4264.0169 
14053000    176.85176   -4884.2428   -4543.1693   -4884.2428            0    1331.1719    20.385395    20.012764    20.665539    8430.8807   -767.64631    1771.0003    2990.1618    -6.338863     659.8187    -286.9569   -4379.4941 
14054000    187.12808   -4865.3002   -4504.4079   -4865.3002            0    736.77759    20.090527    20.050883    21.082162    8492.5865    635.76841    1105.8332    468.73112    17.843142    243.54759    194.27964   -4413.1538 
14055000    184.01821   -4870.7736    -4515.879   -4870.7736            0    2467.1381    19.911981    20.189881    20.888338     8397.541    3786.4352    1107.3322     2507.647     422.5762    596.66054   -555.89719   -4213.7297 
14056000    191.97572   -4851.2432   -4481.0019   -4851.2432            0    2675.0592     20.01148    20.023851    20.883104    8368.0035     4633.585    675.79644    2715.7963   -517.50592    14.637559    7.8147076    -4154.541 
14057000    174.69842    -4878.347   -4541.4264    -4878.347            0    2143.2526    20.104364    19.931563    21.052493    8435.9737    1533.3941     2367.432    2528.9315   -613.42828    759.55195     17.14167    -4277.742 
14058000     187.6675   -4875.4095   -4513.4769   -4875.4095            0    2130.2081    20.036626    20.078354    20.845022    8386.0038    1948.3398    2480.5675    1961.7171   -55.109044    715.96231   -590.04931   -4252.9498 
14059000    183.60338    -4869.797   -4515.7024    -4869.797            0    3065.7606    19.869894     19.99071    20.998683    8340.9561    4434.7117    2064.2942    2698.2758   -240.01255   -365.79176   -764.96339   -4142.7701 
14060000    189.06282   -4880.8721   -4516.2485   -4880.8721            0    2907.3349    20.076837    20.210999    20.691384    8396.0034    3031.8093    1685.0604    4005.1349   -502.35298     367.7289   -616.55588   -4160.2538 
14061000    180.85954   -4858.5314   -4509.7286   -4858.5314            0    1339.3067     19.83321    20.143711    21.133091    8442.9749    2380.5671     690.7051    946.64775    148.44315    761.08611   -184.41292   -4344.8169 
14062000    185.93364   -4847.1852   -4488.5965   -4847.1852            0   -230.90468    20.117538     20.26821    20.822378    8490.2515   -1192.5828    26.225707    473.64303    -259.6412   -301.06385    469.41166   -4517.1875 
14063000    195.74434   -4874.0836   -4496.5742   -4874.0836            0    3035.9454    19.980548    19.979931    20.950368    8363.5957    2293.3265     3527.526    3286.9838    42.468836     -785.918    1727.4464   -4126.2663 
14064000     178.6784   -4861.8746   -4517.2783   -4861.8746            0    1193.0079    20.145965    20.032509    20.911675    8439.4132    1761.5744   -825.42815    2642.8775   -924.88348    1282.3055   -640.22683   -4370.4426 
14065000    188.23882   -4891.8106   -4528.7762   -4891.8106            0    1492.4607    20.037428    19.993074    20.903123    8373.9956    1741.1385     1603.675    1132.5685    133.61179   -137.69058   -498.92554   -4346.5078 
14066000    189.04482   -4851.6067   -4487.0179   -4851.6067            0    1458.0967    19.989323    20.075266    20.933929    8400.5971    399.17234    1664.2265    2310.8913   -295.88585    126.43001    -784.7469   -4308.3805 
14067000    172.21158   -4861.5672   -4529.4426   -4861.5672            0    493.59296    20.227406    19.966898    20.946881    8459.9962    892.44594    537.40224      50.9307    448.26492    548.76551     -198.551    -4468.543 
14068000    182.59916   -4871.8588   -4519.7009   -4871.8588            0    1888.8426    20.114679    19.999788    20.900409    8408.0113    952.75516    3020.1622    1693.6103   -395.52732    321.02518    138.85222   -4288.0869 
14069000    178.33837   -4890.4575    -4546.517   -4890.4575            0    996.75672    20.021164    20.065803    21.067351    8463.6131    310.06949    2571.2634    108.93731   -471.79435    405.25107    576.67718   -4423.4842 
14070000    191.10592    -4879.441   -4510.8771    -4879.441            0    1714.4098     20.14836    20.116308    20.854077    8452.3789    252.42077    2854.0216    2036.7871    436.87924    101.11561    1088.1942   -4299.5431 
14071000    176.91162   -4855.2361   -4514.0471   -4855.2361            0    1877.2913    20.140788    20.011172    20.868732    8410.9499    2734.9731    1734.1786    1162.7223   -567.48589    721.87118     66.42409    -4283.769 
14072000    194.92755   -4853.6344   -4477.7003   -4853.6344            0    2529.0501    19.968226    20.103445    20.914791    8395.8276    1155.4018     3460.275    2971.4735    -62.33221    266.37075   -30.460085   -4168.0319 
14073000    173.64167    -4876.323   -4541.4405    -4876.323            0    2306.0527    19.956691    20.007795     20.99021    8381.1678    2597.9576    2576.6184    1743.5821   -853.41941    411.03151   -202.54507   -4259.5699 
14074000    181.34662   -4891.7182    -4541.976   -4891.7182            0    2365.2038    20.153301     19.95772    20.850332    8386.2941    1136.1099     4465.182    1494.3196   -104.88731    397.62064   -26.336374   -4252.6986 
14075000    182.75086   -4875.0557   -4522.6053   -4875.0557            0     1923.392    20.236072     19.95951    20.867782    8428.5408    1254.4575     2272.604    2243.1145   -222.09817   -758.46136   -117.10864   -4286.1789 
14076000    186.98535   -4886.6557   -4526.0387   -4886.6557            0    1237.6572    20.216598    19.900116    21.010307    8452.7121     143.1168    2208.7367     1361.118    457.44045    600.95327    762.89152   -4373.4676 
14077000    176.93526   -4894.0829   -4552.8484   -4894.0829            0    1597.5598    20.135126    20.019569    20.926518    8435.4073    292.89449    3098.0722    1401.7126   -835.61944    437.97607     1138.839   -4356.3138 
14078000    192.41421   -4864.4239   -4493.3369   -4864.4239            0    791.48254    20.108879    20.128779    20.932477    8472.7799    533.49728    1022.5787    818.37167   -184.51578    386.84395   -735.40477    -4395.536 
14079000    178.61689   -4880.9925   -4536.5148   -4880.9925            0    910.79945    20.014595    20.184901    21.088242    8519.4945    2331.4709    467.92339   -66.995927   -398.66336    715.60597   -786.09027   -4423.3497 
14080000    185.86043     -4855.89   -4497.4425     -4855.89            0    1630.8989    19.999745    20.030174    20.840876     8348.821    1000.9459    2750.0232    1141.7278    -272.7914    127.48604    833.78476   -4298.8659 
14081000    191.41772   -4880.9757   -4511.8105   -4880.9757            0    1181.5528    20.125537    20.027427    20.895061    8422.0199    825.01072    1328.8957    1390.7519   -355.18772   -546.19006    181.72842   -4366.6845 
14082000    179.99137   -4886.9715    -4539.843   -4886.9715            0    1658.0739    19.961243     19.91512    21.175724    8417.9974    2404.5769    1815.6601     753.9845   -462.15647    948.29867   -363.85723   -4336.2848 
14083000    183.65562    -4866.293   -4512.0977    -4866.293            0    857.54406    20.273978    20.029656    20.875535    8477.1543   -115.57662    1887.4769    800.73187   -89.459894    308.96007   -758.22477    -4406.079 
14084000    189.07652    -4856.275   -4491.6251    -4856.275            0    2135.9025    20.015077    20.048836    20.925849     8397.104     1499.415    2824.9184    2083.3741   -258.04436    -1779.639    1346.2809   -4230.0557 
14085000    180.96375   -4886.8169   -4537.8131   -4886.8169            0    519.66064     20.02035    20.100329    20.987301    8445.6177    87.490357    1305.5721    165.91945    -480.6399    455.31382    329.56236   -4473.8061 
14086000    177.30889   -4870.7715   -4528.8164   -4870.7715            0     2566.934    20.120594    20.028267    20.904351    8424.0486    3069.7774    1642.5382    2988.4863    289.50923     91.01525   -1010.2454   -4213.4529 
14087000    185.31095    -4881.049   -4523.6613    -4881.049            0    1575.2132    20.119565    20.068576    20.865807    8425.0086    1701.7349    1335.5554    1688.3491    -264.2683   -1531.6658    1453.0135   -4330.1146 
14088000    189.17803   -4879.5682   -4514.7224   -4879.5682            0    2388.1719    20.069502    20.137944    20.810042    8410.5555    2795.9809    1265.0211    3103.5136   -410.66283    549.29568     177.1601   -4221.7909 
14089000    176.33645   -4896.0588   -4555.9791   -4896.0588            0    1440.3825    19.979492    20.127505     21.07366    8474.5055    3991.9435   -816.03478    1145.2389    129.95608    617.92194   -142.37571   -4377.9594 
14090000    185.12311   -4887.3944   -4530.3689   -4887.3944            0    1581.9858    20.090047    20.207807    20.898838    8484.4224    1508.1946    1186.4204    2051.3423   -614.46212   -282.29773    1332.1628   -4334.6194 
14091000    183.64783    -4878.611   -4524.4307    -4878.611            0    1677.9522    20.067992    19.817857    20.997364    8350.7479    2229.5282    1709.7097    1094.6189   -182.88708    969.67781   -942.21224   -4320.0778 
14092000      179.771   -4869.8078   -4523.1043   -4869.8078            0    1961.7695    20.115748    19.993502    20.847313    8384.4609    3693.0023    93.309153     2098.997   -404.75134    213.16388    -561.3329   -4283.2215 
14093000    195.11393   -4872.3272   -4496.0336   -4872.3272            0    4080.7051    20.052907    20.051017    20.739667      8339.03    6295.0613    2313.1776    3633.8765   -89.561259    704.36927   -859.56519   -3999.7537 
14094000     192.3774   -4886.7307   -4515.7147   -4886.7307            0    2852.8483    20.043662     19.96621    20.931268    8376.6089    2275.1668     3920.703     2362.675    50.293695   -796.58675    1046.7084   -4167.1986 
14095000    178.97962   -4887.9134   -4542.7362   -4887.9134            0    888.97592     20.00231    20.146565    20.911737    8426.9666    1048.8817    148.62015    1469.4259   -462.93065   -127.44779   -169.60259   -4433.4822 
14096000    185.20186    -4872.664   -4515.4867    -4872.664            0    1173.5141    20.180315     20.13982     20.77281    8442.6498    2556.7155   -530.34666    1494.1735   -268.48171     9.649434   -148.51017    -4370.995 
14097000    186.61862   -4882.0322   -4522.1225   -4882.0322            0    775.76157    19.991348    20.077917    20.976526     8419.655    458.79999    943.06919    925.41553    104.99794    935.24878    33.400197   -4426.8652 
14098000    181.00529   -4874.3773   -4525.2934   -4874.3773            0    1420.7727     20.02992    20.044388    21.120272    8479.5253    1973.4158    625.03859    1663.8636    181.31522    167.12868   -240.54036   -4349.5933 
14099000    182.52737   -4872.7372   -4520.7178   -4872.7372            0    2764.6238    20.022591    19.983065    20.749282    8302.0521    3214.9088    2882.2552    2196.7072   -358.51183    207.99912   -142.84944   -4185.9857 
14100000    174.21112   -4860.1269   -4524.1461   -4860.1269            0    344.01065    20.017761    20.135178    20.991387    8460.8132    1229.2596   -606.05196    408.82428    371.12971    71.297693    324.18424   -4481.6979 
14101000    171.81122   -4880.3843    -4549.032   -4880.3843            0    1537.3162    20.089388     20.02045     20.98197    8438.9187     568.9643     2879.563    1163.4213   -347.14338    1109.9848   -161.56997   -4359.8299 
14102000    180.59359   -4861.9966   -4513.7067   -4861.9966            0    2508.9979    20.305203    20.013039    20.679517     8403.511    1030.4721    3265.4229    3231.0987    129.55561    60.952075    1225.6022   -4206.2125 
14103000    191.12485   -4873.1404     -4504.54   -4873.1404            0    807.18127    20.010302    20.049119    21.055784    8447.3476   -692.00743    1444.8572     1668.694    148.26757    130.97551    947.37994   -4405.0986 
14104000    178.21558   -4848.4251   -4504.7214   -4848.4251            0    3284.7272    20.153665    19.968995    20.747863    8349.9451    3853.9799     2282.127    3718.0748    -732.2807   -879.45874    14.758519   -4104.7224 
14105000     185.9457   -4844.7964   -4486.1844   -4844.7964            0    2374.4945    19.843764    19.973162    21.213233      8407.71    5147.0696    924.65251    1051.7614   -522.76315      235.289   -798.06176   -4195.0291 
14106000     172.7842   -4875.5129    -4542.284   -4875.5129            0    1423.1848    20.134462    20.185227    20.754271    8434.9233    717.53134     1167.123       2384.9   -653.98658   -761.51087    477.02204   -4367.2114 
14107000    184.04202    -4870.966   -4516.0255    -4870.966            0    1423.6656    20.056235    20.097809    20.982668    8457.8277    881.26357    1756.8118    1632.9215    228.13141    -234.7139   -787.17538   -4340.4181 
14108000    189.88958   -4873.2847   -4507.0667   -4873.2847            0      2119.09    20.088041    20.023339    20.939462    8422.4726    2679.0595    1798.4263    1879.7843   -78.376236      398.612    580.20193   -4246.7723 
14109000    185.86776   -4880.8912   -4522.4296   -4880.8912            0    1175.5962    20.186381    19.973096    20.960578    8450.9809   -112.70989    2934.5427     704.9559    409.38076   -320.86388   -1530.7849   -4377.5387 
14110000     191.7805   -4870.1625   -4500.2977   -4870.1625            0    2081.0153     20.12827    19.981732    20.907082    8408.7801     2070.342    1247.0192    2925.6848   -302.95925   -702.03288   -68.527525   -4245.0956 
14111000    192.35555   -4865.9719    -4494.998   -4865.9719            0    2278.5057    20.075588    19.888301     20.98392    8378.2358    1641.3583    3294.0547     1900.104    10.440492   -366.83863    1378.3389    -4216.592 
14112000    178.67348    -4850.713   -4506.1261    -4850.713            0    3132.8689     20.14309    19.973175    20.871794    8397.1704    2090.6082    3674.6397    3633.3588    282.06983   -127.44565     1182.582   -4122.4621 
14113000    182.59037   -4888.3237   -4536.1828   -4888.3237            0   -229.25415    20.201344    19.969786    21.041324    8488.4177    231.99876    -928.5699    8.8087029   -48.909572    517.10737    1009.2015   -4564.5633 
14114000    181.82102    -4861.213   -4510.5559    -4861.213            0     1165.765     20.35563    19.926394    20.743375    8413.8097    544.02153    1071.5931    1881.6805     -276.733    344.70118    616.64834   -4367.5086 
14115000    183.61128   -4873.9697   -4519.8599   -4873.9697            0    1464.4899    20.237262    19.945378     21.11314    8522.1043    1056.5115    2126.4208    1210.5374   -253.52331   -836.03112   -1363.2138   -4337.8441 
14116000    174.81144   -4880.8215   -4543.6829   -4880.8215            0    1518.3079    20.176349    19.997862    20.951836    8453.7275    783.37101    2303.5432    1468.0095   -553.33078   -1034.3164   -1225.7521   -4356.4924 
14117000    176.26971   -4879.0676   -4539.1167   -4879.0676            0    798.55672    19.952236    20.210547    20.750823    8367.6783    385.68372    744.20985    1265.7766   -220.83445    715.77329    169.38464   -4441.6656 
14118000    184.09021   -4886.3739   -4531.3405   -4886.3739            0    1850.4471    19.946331    20.059371    21.070864    8430.6813    2444.1813    2002.4499    1104.7099    173.32832   -1479.9181    878.90155   -4303.8227 
14119000    184.59322   -4891.8386    -4535.835   -4891.8386            0    3254.3502    19.998443    20.200879    20.749661    8382.5749    3202.6724    2294.8437    4265.5345   -571.49217   -94.102671    530.98424   -4137.9866 
14120000      185.958   -4872.9392   -4514.3035   -4872.9392            0    2586.9815    19.910164    20.007947    20.994956    8363.5822    3508.3606    2494.9365    1757.6476   -392.87141    1304.4002    12.107069   -4198.7584 
14121000    174.33784   -4880.3605   -4544.1353   -4880.3605            0    809.54299    20.111768    19.859907    21.083773    8421.2353   -436.67961    2720.9215    144.38706     95.58271    126.31521    339.12463   -4444.7112 
14122000     187.5201   -4862.4748   -4500.8265   -4862.4748            0    2473.4932    20.059854    20.019864    20.891188    8389.8076    2581.3625    2497.2169    2341.9003   -44.674711    1484.1961   -583.64105    -4198.178 
14123000    189.62711   -4885.1627   -4519.4509   -4885.1627            0    2604.3085    20.201788    19.910902    20.867883    8393.8102    285.65171    3938.6645    3588.6092   -544.36407   -111.09602    640.10374   -4200.6442 
14124000    181.72223   -4867.5758   -4517.1092   -4867.5758            0     1759.872    20.126515    19.947778    21.130319    8483.3847    912.47894    3210.2021    1156.9349   -149.42296    1396.5045    1027.0388   -4299.3753 
14125000    187.34635   -4855.1873   -4493.8741   -4855.1873            0    2415.2985    20.133406    20.044037    20.944501    8452.2528    847.68608    2811.8305    3586.3789   -550.56404    679.56591   -83.631854   -4196.1464 
14126000    174.89543   -4874.7913   -4537.4907   -4874.7913            0    1044.1248    20.186037    20.153574    20.862485    8487.2925    325.58326    1523.4289    1283.3621    181.92135   -394.56246   -570.13276   -4408.2506 
14127000    183.74249   -4876.0938   -4521.7309   -4876.0938            0    2119.8726    20.012193    19.961533    21.023983    8398.5353    1938.4397    3623.5081    797.67014    923.98671   -400.40694   -726.15645   -4262.0804 
14128000    185.11843   -4885.9073   -4528.8909   -4885.9073            0    1282.0282    20.092439    20.138584    20.784502    8410.1007    340.03327    860.32668    2645.7246   -210.57088    349.16057   -696.65642   -4371.6467 
14129000     195.9568   -4870.7973   -4492.8782   -4870.7973            0    1037.7053     19.98162    20.021113     21.12455    8450.9662    2231.4437    851.81413    29.857874   -202.38267    324.39134   -2090.4294   -4364.9824 
14130000     175.3987   -4886.1505   -4547.8793   -4886.1505            0    1505.8467    19.971886     20.18087    20.859447     8407.401    1450.5051    1486.8563    1580.1787    344.35023    266.57087   -209.31958   -4363.2425 
14131000    177.03027   -4892.7191   -4551.3013   -4892.7191            0    2261.4467    19.958134    20.121917    20.848191    8372.5484    1512.7603     3183.421    2088.1589   -857.81708     645.0351    615.29053   -4275.1673 
14132000    187.84089   -4856.4513   -4494.1843   -4856.4513            0   -693.55521    20.139052    20.215843    21.000759    8549.9952   -512.81087   -948.51341   -619.34134   -278.62686    515.44604   -139.42221   -4580.6657 
14133000    187.89393   -4861.5291   -4499.1599   -4861.5291            0    1172.9358    20.091287     19.98795    21.018556    8440.7085    3288.4787    487.14654   -256.81782   -357.36109     67.04409    772.45021   -4354.7726 
14134000    174.87081   -4872.0102   -4534.7572   -4872.0102            0    2340.1742    20.115077    19.899066    21.075454    8435.8983    1948.3399     3430.034    1642.1487   -417.33839   -805.02082     75.12443   -4246.8481 
14135000    186.05994   -4884.4014   -4525.5692   -4884.4014            0    2575.1555    19.991517    20.009602    20.916212    8366.9512    3490.0431    1984.9616    2250.4618      230.025   -967.39707    -89.31089   -4211.3399 
14136000    189.78711    -4883.463   -4517.4426    -4883.463            0    1076.0479    20.147505    20.087508    20.995109     8496.997   -150.70453    1758.1899    1620.6583    239.24921   -594.58928    124.68457   -4384.0988 
14137000    175.03347   -4865.9577   -4528.3909   -4865.9577            0    1298.5735    20.108016    20.075133    20.929766    8448.7414    1883.0404    790.60923     1222.071   -364.42931    894.40924    546.97803   -4368.3856 
14138000    179.21802   -4874.5999   -4528.9629   -4874.5999            0    1595.3147    19.922621    20.074334    20.990458    8394.7839    1216.2456    1521.6141    2048.0842   -298.42302    1137.1537    15.830658   -4333.6496 
14139000    172.58809   -4884.5688   -4551.7181   -4884.5688            0    1278.0941    20.106582    20.064492    21.049955    8492.1485    1194.3903    1417.3829     1222.509   -1098.4787    667.23105    -280.3726   -4393.4271 
14140000    181.68823   -4865.4185   -4515.0175   -4865.4185            0    2577.6005    20.108976    20.003634    20.940848    8423.5104    1945.3706    4065.7679    1721.6628   -134.21045   -855.18485    1002.8039   -4198.3638 
14141000    180.59664   -4873.3736   -4525.0778   -4873.3736            0    2339.1328    20.182967    19.918262    20.998779    8441.7115    1856.6859    3201.2176    1959.4949    486.20663    279.17751   -1147.4317   -4237.0985 
14142000    180.65458   -4867.9707   -4519.5632   -4867.9707            0    4057.1155    19.935683    20.022467    20.899802    8342.3971    4313.7421    3543.2524    4314.3519   -172.37298    254.41563   -644.41609    -4025.953 
14143000    176.61037   -4870.8366   -4530.2286   -4870.8366            0    1561.5663    20.115711    20.003834    20.992075    8447.0289    961.81794    2231.4743    1491.4067   -656.92743    138.76041    363.11833   -4337.8573 
14144000    191.04558   -4884.6014   -4516.1539   -4884.6014            0    2822.9943    20.061475    19.996199    20.899241    8383.7979    366.99027     4600.498    3501.4945   -27.533879   -444.69363   -527.05767    -4170.989 
14145000    174.75531    -4857.446   -4520.4157    -4857.446            0    368.54474    20.033285    20.127767    20.925408    8437.6536   -611.78701    1682.8492    34.572023   -362.24151    259.61379   -1424.9999   -4475.0646 
14146000    181.98437   -4885.4325   -4534.4603   -4885.4325            0     701.1288    20.113292    19.955749    21.059642    8452.8308    -656.5335    1698.5466    1061.3733    297.41263   -322.63381   -991.95743   -4448.0281 
14147000    183.55978   -4898.6925    -4544.682   -4898.6925            0    991.98047    20.094332    20.111004    20.966086    8472.7556      2079.33    -185.1612    1081.7726     135.3827    523.61485    19.695754   -4422.1065 
14148000     174.5584   -4871.6268   -4534.9762   -4871.6268            0    1696.7814    20.177452    20.043655    20.958986    8476.4402    998.63429    2181.1054    1910.6046   -122.38973   -159.77726    524.02891   -4325.2198 
14149000    185.30893   -4859.5955   -4502.2117   -4859.5955            0    297.89306    20.178563    20.039446    20.957056    8474.3465    147.87377    953.14055   -207.33515    80.307087   -261.97451   -781.24114   -4465.3952 
14150000     182.7728   -4880.3534   -4527.8607   -4880.3534            0    2114.2629    19.986525     20.03817    20.925906    8380.6873     3211.297    1062.9792    2068.5125   -223.57388    1295.0827    17.723397   -4269.4476 
14151000    191.97024    -4866.229   -4495.9982    -4866.229            0    1800.5599    20.123928    19.985917    20.960768    8430.3192     1877.094    1151.5288     2373.057   -267.19038    1203.4407    320.44182   -4274.6238 
14152000    186.90961   -4867.2666   -4506.7957   -4867.2666            0    680.61036    20.150864    20.085517    21.000442    8499.7297    697.53998    794.18272    550.10838    349.49142    145.72287   -588.76655   -4422.4274 
14153000    187.13404   -4882.2626   -4521.3589   -4882.2626            0    1857.0486    20.107986    19.938007    20.778131     8330.226    993.67849    2491.0738    2086.3935   -181.52476    1025.8272   -490.80957   -4295.7502 
14154000    178.48009   -4863.8043   -4519.5905   -4863.8043            0    1678.4016    19.964435    20.053324    21.062187    8432.3157    1914.8517    2258.2376    862.11565    580.07416   -43.495743   -707.18808   -4313.1862 
14155000    181.02705    -4875.928   -4526.8021    -4875.928            0    2264.0375    20.085388    20.134992    20.731046    8384.0316    2362.7555    1808.3096    2621.0475   -286.64422   -175.28437   -289.35711   -4249.9726 
14156000    175.04879   -4874.1204    -4536.524   -4874.1204            0    913.84756    20.106005    20.008693    21.050202    8468.3886   -539.16307    1228.4263    2052.2794   -338.79133    672.24678   -1033.3263   -4423.6613 
14157000     185.1648   -4869.5719    -4512.466   -4869.5719            0     1022.991    20.053832    20.021965     21.01303    8437.0916     1537.382    958.31491    573.27628   -245.71822   -151.59132    348.16688   -4386.5907 
14158000    163.65265   -4855.7713   -4540.1534   -4855.7713            0    3296.1414    20.069773    20.035338    20.728647    8335.0863      3815.08    2687.0418    3386.3024    358.10402    945.53379    717.61835   -4139.4788 
14159000    179.65975    -4886.648   -4540.1591    -4886.648            0    780.25175    20.038586    20.055217    21.123712    8489.1595    1285.3661    301.42016    753.96898   -585.96871    474.68553    51.938549   -4443.5595 
14160000    180.01032   -4871.0944   -4523.9294   -4871.0944            0    1617.1736    20.212189    19.968648    20.935413    8449.7436    671.90054    2529.9827    1649.6377   -302.86677    388.81112    675.18365   -4324.6437 
14161000    176.17417   -4875.4195   -4535.6528   -4875.4195            0    1507.7074     20.12254    20.066014    20.955889    8461.5514    30.304191    2510.2749    1982.5432   -239.69866    353.95464    1112.6085   -4349.5971 
14162000    176.95006   -4858.3859   -4517.1228   -4858.3859            0    2524.6018    19.968601    19.935668    21.075873    8390.0401    2236.5128    3581.9019    1755.3907   -124.98305   -244.48418   -914.81452   -4208.2122 
14163000    180.61043   -4859.7264   -4511.4039   -4859.7264            0    1619.7632    20.242701    20.022127    20.687213    8384.5672    710.07433    1313.2645    2835.9508    220.57337    806.16206    1011.6651   -4313.3388 
14164000    183.25009   -4887.0599   -4533.6467   -4887.0599            0    2620.7774    20.093268    19.885217    21.127357    8441.6256    1880.2374    3203.7966    2778.2981    99.736019    624.82153     -782.443   -4210.9964 
14165000    184.82006   -4880.3294   -4523.8883   -4880.3294            0    2420.6529    20.160797    19.998157    20.812035    8390.9709    1857.1481    2073.1136    3331.6969    81.150612   -1176.2881    145.22353   -4227.6641 
14166000    187.51864   -4872.0061   -4510.3607   -4872.0061            0    1055.9276    19.936312    20.100859    21.052768    8436.6231    2510.5159    666.12824   -8.8613134    475.52976    1021.8799    635.56875   -4380.4399 
14167000    190.52786   -4886.9876   -4519.5386   -4886.9876            0    1613.0443    20.006116    20.136791    20.918668    8427.2732    1652.6222     1354.508    1832.0028   -394.46503   -573.51854   -419.70445   -4321.2904 
14168000    194.46131   -4871.7952   -4496.7602   -4871.7952            0    2721.9936    20.117442    20.012199    20.896994    8413.0095    1517.4484    4510.1275    2138.4048    445.23167    199.89788   -639.20124   -4162.7849 
14169000    191.53174   -4866.8642   -4497.4791   -4866.8642            0    860.23164    20.022406    20.063001    20.915617    8402.0034    304.74906    577.31684     1698.629    152.24239    96.137181     950.5486    -4392.071 
14170000    180.97118   -4860.4905   -4511.4724   -4860.4905            0     2870.731    20.065607    20.024734    20.900336    8397.9319    2455.4781    3035.4869    3121.2281   -499.09095    987.24575   -614.47724   -4159.8789 
14171000    187.49572   -4866.5962   -4504.9949   -4866.5962            0    2032.5918    20.051218    20.037527    20.807536    8359.9853    806.22857    3455.1951    1836.3517    368.62913   -1223.7385   -289.27129   -4257.1777 
14172000    181.64144   -4881.4989   -4531.1881   -4881.4989            0    3258.4315    20.082042    19.943409    20.875507    8360.7316    1120.3137    4847.1962    3807.7846   -290.75802    133.02605    140.02719   -4133.8788 
14173000    178.50011   -4882.0907   -4537.8382   -4882.0907            0     1018.294    20.154043    20.138496    20.901849    8483.4781    2186.5581   -116.96765    985.29145   -61.716068   -314.28115    320.60329    -4411.852 
14174000    184.36796   -4878.2204   -4522.6513   -4878.2204            0    3043.5846    20.051843     19.84116    21.030636    8367.0768    3780.3339    2829.8227    2520.5973   -540.89312   -380.65518     -1264.33   -4151.2571 
14175000    183.41006   -4879.3155   -4525.5937   -4879.3155            0    1961.2689    20.031407    20.005057    20.839016    8350.8072    989.90353    2600.0596    2293.8436    263.05378    373.12577      436.703   -4286.7348 
14176000    175.48404    -4883.477   -4545.0413    -4883.477            0    1422.3241    20.077258    20.065812    20.986986    8454.9532    2188.3766    1246.3015    832.29413   -172.57197   -949.32501    -735.6457   -4369.6591 
14177000    176.99749   -4864.6587   -4523.3042   -4864.6587            0      412.163    20.100909    20.110205    20.977248    8479.7045    995.83451    25.040222    215.61426    375.21377    447.44481   -861.62869   -4472.3329 
14178000    176.19478   -4855.0044   -4515.1979   -4855.0044            0    2200.1211    19.989896    20.093057    20.873192     8383.887    2728.8011    2502.0124    1369.5497   -369.37768    1029.3063    391.04557   -4246.1883 
14179000    192.11584    -4870.598   -4500.0864    -4870.598            0    1850.9083    20.094196    20.014284     20.98685    8440.3012    1846.9007    1908.2559    1797.5685    285.25281    906.61311    296.00317   -4272.2523 
14180000    175.59397   -4850.8068   -4512.1591   -4850.8068            0    763.99573    19.988244    20.110719    20.998974    8441.1248    93.407507    1381.3561     817.2236   -109.36468   -327.21356     146.1265   -4418.1072 
14181000    176.31955   -4867.9837   -4527.9366   -4867.9837            0    1324.2354    20.144778    20.058885    20.824704    8414.8837    1547.8514    1174.1592    1250.6956   -528.57988    459.85929    443.44507   -4365.4232 
14182000    180.47079   -4865.3383   -4517.2852   -4865.3383            0    0.7531248    19.960791    20.092421    20.925941    8392.5708     833.3695   -909.34722     78.23709   -67.621777      612.219    578.66068    -4517.193 
14183000    175.06344   -4878.2183   -4540.5937   -4878.2183            0     1314.028    20.016167    20.197064    20.882927    8442.2951    1840.2158    1305.7728    796.09553      -345.21    1263.2257    382.60997   -4378.8077 
14184000    174.98019   -4873.5587   -4536.0947   -4873.5587            0    660.18824    20.009328    20.207473    21.179173    8563.5438    1006.2537   -200.27864    1174.5897   -608.40878    47.990562   -1067.6204   -4453.6435 
14185000    192.10891   -4874.0201   -4503.5219   -4874.0201            0    1723.3427    20.061833    20.150937    20.834583    8422.6873    2122.1061    154.19896    2893.7231    436.59831   -488.80482   -151.82266    -4291.833 
14186000    186.06744   -4854.7687    -4495.922   -4854.7687            0    3130.9375    19.826694    20.005009    21.065586    8355.3108    5364.2436    2804.5293    1224.0396   -271.52435   -345.76083    1661.9116   -4114.4058 
14187000    185.58368   -4887.8446   -4529.9309   -4887.8446            0    626.30905    20.115569    20.138551    20.857089     8449.174   -194.72876    597.31052    1476.3454    49.772754    818.78336    189.03891   -4452.7555 
14188000    189.99641   -4880.3268   -4513.9027   -4880.3268            0    844.82004    19.935296    20.161691    21.101235    8481.2044    1771.8372    612.55271    150.07017    488.89985    173.84666    98.433866   -4409.4072 
14189000    182.95102   -4892.4106   -4539.5742   -4892.4106            0    2011.6935    19.974564    20.142311     20.88369    8402.2164    2828.6987    1112.8113    2093.5706   -652.34116    297.69977   -869.19347   -4293.0659 
14190000    181.01657   -4837.8637    -4488.758   -4837.8637            0    2168.7518    20.001534    20.071058    20.931412    8402.9561    2803.4971    1423.3673     2279.391     74.30732   -681.59931    334.34116   -4222.9808 
14191000    186.41888   -4877.1989   -4517.6744   -4877.1989            0    1760.1875    19.952822    20.136222    21.014734    8443.1836    2506.4721     1398.165    1375.9252    103.56814    67.508575   -43.782299   -4300.9334 
14192000    187.91796   -4875.6304   -4513.2149   -4875.6304            0    2232.7911    19.983256    20.170605    20.767928    8371.0192    1717.4198    2266.8268    2714.1268     -110.625    865.65519    447.76452   -4240.6296 
14193000    185.40212   -4877.1672   -4519.6037   -4877.1672            0    1332.3526    19.941855    20.090313    20.944539    8391.1802    1583.3319    1926.3159    487.41015   -445.69443   -66.768022    579.29241   -4356.5547 
14194000    185.87224   -4857.9732   -4499.5029   -4857.9732            0    807.24911    20.135146    20.160631    20.911032     8488.567    1310.1768    445.79423    665.77633    119.74133    14.746899   -990.85281   -4399.5679 
14195000    175.78245   -4856.3192   -4517.3079   -4856.3192            0    1879.4315    20.233463    19.983797    20.863823    8436.1081   -374.41602     4104.537    1908.1735   -405.78396    -576.7917    98.999834   -4286.0778 
14196000    183.54757   -4875.2104   -4521.2235   -4875.2104            0    1224.1846    20.065091    19.929695    21.052104    8418.5496    617.75442    3010.1574    44.641936   -149.50626    341.38025   -437.58157   -4370.9231 
14197000    180.60363    -4861.316   -4513.0067    -4861.316            0    2453.2704    20.355707    20.036154    20.452534    8341.5678    2405.8302    1493.9297    3460.0513     306.5461    70.522943    571.83182   -4214.5585 
14198000    177.73165   -4855.9292   -4513.1587   -4855.9292            0    1940.1898    20.066354    19.972879    21.154063    8478.1858    1191.7442    3433.4952    1195.3299    207.21786    677.77465    -53.01753   -4273.2627 
14199000    190.76219   -4868.6614   -4500.7605   -4868.6614            0    3829.4463    20.197605    19.993724     20.75365    8380.8497    2879.5715    4073.2861    4535.4813    550.29316    451.70862   -500.35938   -4032.7022 
14200000    176.49218   -4865.9216   -4525.5415   -4865.9216            0    2221.0847    20.091463    19.984217    20.994186    8429.4208    3530.7059    1379.7818    1752.7663   -37.521042    764.49719   -493.24355   -4252.4937 
14201000    178.30708   -4865.7665   -4521.8863   -4865.7665            0    1490.5046    20.065844    19.986523    20.858222    8365.1159    200.64453    2475.7131    1795.1562   -63.749571    611.67243     777.4267   -4340.0497 
14202000    189.65745   -4886.7293    -4520.959   -4886.7293            0    3224.5491    20.012195    20.030082    20.938545      8393.13    2881.6065    4046.4821    2745.5587    223.71418    165.64526    -69.97927   -4126.2574 
14203000    179.07993   -4885.9692   -4540.5985   -4885.9692            0    1643.2254     20.11461    20.077694    20.928403    8452.0403    1006.5757    2289.6534     1633.447   -412.23722   -328.55234   -340.27416   -4338.0474 
14204000    175.17909   -4872.0884   -4534.2408   -4872.0884            0    1804.5041     20.04505    19.811351    21.069596    8367.1477    758.62692    4457.3852    197.50022   -176.23315    128.29567   -545.50543   -4314.0439 
14205000    173.20194    -4878.823   -4544.7885    -4878.823            0    2787.2155     20.25367    19.947971    20.851331    8424.3465    2829.0571    3019.7627    2512.8269   -264.33846    1268.3401   -84.941096     -4202.35 
14206000    179.62409   -4886.7914   -4540.3713   -4886.7914            0    1407.2585    20.137967     20.01534    20.941561    8440.8785    298.00477    2464.3651    1459.4057   -79.889183    1040.7509   -410.10005   -4367.1356 
14207000    180.90493   -4872.4199   -4523.5295   -4872.4199            0    511.73022    20.172757    20.044903    20.992909    8488.7129    1622.9228    326.87963    -414.6118   -138.48312    239.42161   -1004.5632   -4460.1777 
14208000    187.02273   -4868.5236   -4507.8346   -4868.5236            0     2397.173    20.143807    20.038378    20.760611    8380.0046    1092.4672    2766.7779     3332.274   -609.03179    416.88838   -582.96558    -4214.867 
14209000    182.56435   -4876.5205   -4524.4298   -4876.5205            0    435.81726    20.027295    19.968165    21.168316     8465.386   -643.45972    2017.7306    -66.81909      36.2269    465.18404    630.14562   -4470.6242 
14210000    189.04198   -4862.3544   -4497.7711   -4862.3544            0    1591.4462     20.13498    20.065998    20.819764    8411.7771    1217.2925    1476.6708    2080.3753   -54.169702   -288.51397    260.54873    -4302.537 
14211000    178.88144   -4865.7107   -4520.7228   -4865.7107            0    1748.9935    20.241461    19.911041    20.920858    8431.7035    1660.1628    1625.4594    1961.3583   -342.44379    -554.4785   -874.89232    -4305.653 
14212000    182.57865    -4870.759   -4518.6407    -4870.759            0    1862.8132     19.99818    20.059229    20.994948    8422.0829    2309.0841    2817.7848    461.57067   -376.28532    41.871575    497.27431   -4289.8361 
14213000    183.41263   -4859.0698   -4505.3431   -4859.0698            0    895.17126    20.181329     20.12582    20.791003    8444.5944    1340.5853   -632.33586    1977.2644   -327.06656   -222.44126    1245.3869   -4395.0976 
14214000    182.13677   -4866.2286   -4514.9626   -4866.2286            0    1302.4498    20.066156    19.969502    21.074338    8444.7221    704.74849    2126.3065    1076.2945   -475.96814   -623.13223    96.002931    -4354.556 
14215000    176.79734   -4892.2254   -4551.2568   -4892.2254            0    1980.8831     19.90928    20.248491    20.754827    8366.9531    3807.1104    891.19639    1244.3426   -87.177045   -545.58729    147.69219   -4309.5427 
14216000    181.21151   -4884.2508   -4534.7692   -4884.2508            0     777.8382    20.125449    19.983446    20.986425    8440.2324    1132.5391     122.9693    1078.0062    124.27795   -908.47377   -155.75353   -4439.0234 
14217000    172.25118   -4873.8382   -4541.6373   -4873.8382            0    3857.7616    20.163914    19.970897    20.806253    8378.5001    3604.5397    3367.9289    4600.8161   -237.07091   -145.36267    635.10494   -4070.2504 
14218000    186.79296    -4865.586   -4505.3401    -4865.586            0    3534.1888    20.051649    19.924541    21.016408    8396.4734    3741.0222    4477.5389    2384.0054    537.36022    1630.4506    107.85758   -4072.5647 
14219000    181.24536   -4860.4218   -4510.8749   -4860.4218            0    1076.6169    20.068456    20.120999    20.919846    8447.3791    1400.1427    775.49584    1054.2121   -693.87723    1189.7325   -271.35107   -4378.2396 
14220000    181.22614   -4891.0157   -4541.5059   -4891.0157            0    2423.3057      20.0982    20.070678    20.702925    8351.2388    2362.9684    1269.3854    3637.5632    -103.4505     -1210.78   -28.273429   -4246.3612 
14221000    181.27805   -4875.9615   -4526.3516   -4875.9615            0    3369.9624    19.968228     20.02265    20.964635    8382.0142    4378.3282      1897.84    3833.7189    478.82517    625.48936    672.56272    -4114.397 
14222000    186.32932   -4896.6401   -4537.2883   -4896.6401            0    1959.5688    19.823474    20.165031    20.966731    8381.2613    2553.4723    1445.5485    1879.6856    445.72999    -1168.467   -205.29212   -4297.7661 
14223000    185.82559   -4891.0322   -4532.6519   -4891.0322            0    1818.0899    20.126467    20.100493    20.807672    8417.7836    1911.5839    687.42707    2855.2589    -737.5918   -32.558177   -280.71669   -4309.4545 
14224000    177.63432   -4869.1043   -4526.5216   -4869.1043            0    838.70715    20.006532    20.099974    21.184327    8518.8701    2006.9762    330.68649    178.45879    382.60798   -430.39604    399.76713   -4422.3215 
14225000    183.47726    -4888.987   -4535.1357    -4888.987            0    1718.5588    20.100493    20.021456     20.80473    8372.6793    1179.6445    1758.5985    2217.4335    336.37394   -847.35653   -438.84974   -4325.2878 
14226000    180.41926   -4871.8921   -4523.9384   -4871.8921            0    972.39878      19.9424    20.121889    21.030924    8439.2629    2455.4131   -578.14423    1039.9275    -759.0564   -555.62299   -963.77287   -4404.2575 
14227000     194.2002   -4843.9348   -4469.4033   -4843.9348            0    2069.4737    20.026859    20.085404    20.856741     8389.573    1552.9341    1856.8658     2798.621    77.513987   -195.24256    1050.6483   -4216.1964 
14228000    194.29498   -4875.7782    -4501.064   -4875.7782            0    160.28994    20.076189    20.039456     20.98371    8442.0803    -626.3603     1174.648   -67.417923   -371.26228     452.8348    4.5697816   -4481.3292 
14229000    185.42148   -4865.4104   -4507.8095   -4865.4104            0    399.69331    20.109967    20.121038    21.005646    8499.5857   -86.636812    2027.6249   -741.90814   -287.56757   -258.07339    686.88626   -4458.2644 
14230000    189.41644   -4861.9956   -4496.6901   -4861.9956            0    905.32805    20.104045    20.153442    20.958127    8491.5143    655.98839    1596.6356    463.36015   -406.92532    894.60656   -709.50036   -4384.5742 
14231000     194.5122   -4881.1784   -4506.0452   -4881.1784            0    1968.6142    20.099236    20.015096    21.018482    8455.4856    1658.2175    1727.6982    2519.9271    292.36132   -7.2367288    690.44565   -4263.2864 
14232000    177.59877   -4859.7659   -4517.2517   -4859.7659            0    1303.9495     20.16328    20.104894    20.795739    8430.1896    1853.8135    856.48425    1201.5507    -964.0262      841.722   -564.24772   -4356.9368 
14233000    179.41836   -4876.0732   -4530.0499   -4876.0732            0    2290.1613     20.24024    19.902019    21.003545    8460.6823    2293.2932    2054.1565    2523.0344   -239.72297    834.80278    11.355224    -4247.466 
14234000    186.40046   -4869.2304   -4509.7414   -4869.2304            0    2061.7693    20.057108    19.887302     21.10004    8416.4215    3465.0475    2320.6306     399.6299    153.78511    141.84333   -172.23148   -4256.6698 
14235000    181.27669   -4890.4695   -4540.8621   -4890.4695            0    2227.7897     20.08279    19.958401    20.857949    8360.2907    1991.0024    2091.0234    2601.3434    314.15302    663.69636    258.51871   -4269.2361 
14236000    180.04891   -4880.2596   -4533.0201   -4880.2596            0    2522.8452     19.98822    20.010619    20.969042    8387.1272    2458.1796    3003.6833    2106.6726   -433.50826   -449.21801    167.36341   -4224.4316 
14237000    184.13332   -4873.6351   -4518.5185   -4873.6351            0    2150.7125    20.054883    19.993675    20.889635     8376.134    1837.9511    2370.8578    2243.3286    423.78451    573.51315    562.06299   -4255.7932 
14238000    179.67184   -4853.9646   -4507.4524   -4853.9646            0    2634.4335    20.129921    20.112474    20.693634    8378.0766    2782.0612    1220.9317    3900.3075    58.291909   -352.66769    321.10264   -4185.5624 
14239000    176.36511   -4864.9153   -4524.7804   -4864.9153            0    800.38175     20.08809    19.973974    21.041901     8442.831    755.05151    1114.0052    532.08858   -51.356592   -476.01122   -527.65274   -4426.2293 
14240000    186.92822   -4871.5909   -4511.0841   -4871.5909            0    3147.5239    20.055252    19.920438    20.771532    8298.4223    2858.4702    3601.0302    2983.0712    94.758903    897.38659    836.68731   -4130.1582 
14241000    177.22056   -4876.5259   -4534.7412   -4876.5259            0    1871.1986    20.246597    19.858639    20.964206    8429.0751    759.48379    3468.1265    1385.9857   -277.89191   -524.99932   -713.74379   -4304.7158 
14242000    178.33405   -4865.0207   -4521.0884   -4865.0207            0    2250.7533    20.170994    19.907483    20.909314    8396.2129    1705.4275      3341.97    1704.8625   -695.28222     419.8677    193.88373   -4245.4833 
14243000    185.12769   -4867.8908   -4510.8565   -4867.8908            0    1001.3314    20.228334    20.039044    20.906841    8474.7232    310.62847    345.89683    2347.4689   -305.57691    493.62392    227.22376   -4387.0968 
14244000    187.19854   -4870.4571    -4509.429   -4870.4571            0    1744.3868    20.039669     20.06956    20.857388    8388.5771    1150.3092     2430.721    1652.1301    468.15266   -980.70458   -393.46366   -4296.0228 
14245000    196.77522   -4866.3707   -4486.8732   -4866.3707            0    539.30619    20.091591    19.881911    21.437369    8563.3545    653.74663    1327.1316   -362.95963   -46.670743   -173.14577   -274.40224   -4419.5204 
14246000    189.34116   -4870.6731   -4505.5127   -4870.6731            0    2712.1911    20.235817    19.913817    20.861463    8406.5928     3190.196    2656.1283     2290.249   -445.00952   -588.99111    -194.2278    -4172.994 
14247000    180.57738   -4871.2694   -4523.0108   -4871.2694            0    1650.8097    20.131675    19.900013    21.105175     8455.168    2155.5126    2409.7756    387.14093   -112.01337    303.49927   -1023.4188   -4319.4495 
14248000    186.77503   -4861.4114   -4501.2001   -4861.4114            0    2255.8426    19.995592    20.081521    20.889042    8387.8258    2970.2113    2032.9892    1764.3273    79.514882   -626.19331   -214.38413   -4225.2477 
14249000    173.44799    -4873.737    -4539.228    -4873.737            0    2781.8779    19.991905    20.082684    20.943035    8408.4428    1670.4458     3036.269     3638.919   -220.89358    -125.0084   -959.34178   -4198.0904 
14250000    195.69594    -4866.526   -4489.1099    -4866.526            0    914.27623    20.045501     20.30664    20.750619    8446.6802   -466.07477    746.42319    2462.4803    285.51177    394.60209    247.08837   -4376.4838 
Loop time of 338.59 on 64 procs for 250000 steps with 972 atoms

Performance: 127.588 ns/day, 0.188 hours/ns, 738.356 timesteps/s
195.1% CPU use with 32 MPI tasks x 2 OpenMP threads

MPI task timing breakdown:
Section |  min time  |  avg time  |  max time  |%varavg| %total
---------------------------------------------------------------
Pair    | 28.691     | 34.235     | 41.849     |  57.1 | 10.11
Bond    | 1.0093     | 1.2013     | 1.3557     |   7.8 |  0.35
Kspace  | 148.84     | 157.32     | 162.82     |  28.7 | 46.46
Neigh   | 1.2378     | 1.3071     | 1.4159     |   4.1 |  0.39
Comm    | 58.828     | 62.439     | 65.037     |  19.0 | 18.44
Output  | 0.55773    | 0.55808    | 0.55959    |   0.0 |  0.16
Modify  | 66.118     | 67.976     | 70.517     |  12.4 | 20.08
Other   |            | 13.55      |            |       |  4.00

Nlocal:        30.3750 ave          37 max          26 min
Histogram: 7 3 3 6 1 6 1 1 1 3
Nghost:        2557.44 ave        2583 max        2531 min
Histogram: 2 4 3 2 4 7 1 2 3 4
Neighs:        9337.94 ave       12139 max        7623 min
Histogram: 5 4 4 3 7 4 1 2 0 2

Total # of neighbors = 298814
Ave neighs/atom = 307.42181
Ave special neighs/atom = 2.0000000
Neighbor list builds = 4386
Dangerous builds = 0

unfix		3
unfix		2
unfix		1

write_data	data.final.${pid}
write_data	data.final.1
System init for write_data ...
PPPM initialization ...
  extracting TIP4P info from pair style
  using 12-bit tables for long-range coulomb (../kspace.cpp:340)
  G vector (1/distance) = 0.37194019
  grid = 24 24 25
  stencil order = 5
  estimated absolute RMS force accuracy = 0.0034674319
  estimated relative force accuracy = 1.0442068e-05
  using double precision FFTW3
  3d grid and FFT values/proc = 3458 576
Last active /omp style is kspace_style pppm/tip4p/omp
WARNING: Not all mixed pair coeffs generated from mixing. Use write_data with 'pair ij' option to store all pair coeffs. (../write_data.cpp:312)

write_restart   restart.lmp.${pid}
write_restart   restart.lmp.1
System init for write_restart ...
PPPM initialization ...
  extracting TIP4P info from pair style
  using 12-bit tables for long-range coulomb (../kspace.cpp:340)
  G vector (1/distance) = 0.37194019
  grid = 24 24 25
  stencil order = 5
  estimated absolute RMS force accuracy = 0.0034674319
  estimated relative force accuracy = 1.0442068e-05
  using double precision FFTW3
  3d grid and FFT values/proc = 3458 576
Last active /omp style is kspace_style pppm/tip4p/omp
Total wall time: 0:05:38
