#include		in.partitions
include		in.temp
variable        temperature equal 70.86
variable	tempDamp equal 100.0
include		in.pressure
variable        pressure equal 8483.3
variable        pressureDamp equal 1000.0 # This is 1 ps
include		in.seed
variable        seed equal 745823

units		real
atom_style	full
read_restart    restart.lmp.${pid}
read_restart    restart.lmp.1
Reading restart file ...
  restart file = 30 Jul 2021, LAMMPS = 30 Jul 2021
  restoring atom style full from restart
  triclinic box = (-3.1411150 0.042336327 0.076772077) to (14.751114 22.537663 19.153226) with tilt (-0.046425808 -6.7532632 0.086806701)
  2 by 4 by 4 MPI processor grid
  restoring pair style lj/cut/tip4p/long/omp from restart
  restoring bond style harmonic/omp from restart
  restoring angle style harmonic/omp from restart
  1008 atoms
  672 bonds
  336 angles
Finding 1-2 1-3 1-4 neighbors ...
  special bond factors lj:    0        0        0       
  special bond factors coul:  0        0        0       
     2 = max # of 1-2 neighbors
     1 = max # of 1-3 neighbors
     1 = max # of 1-4 neighbors
     2 = max # of special neighbors
  special bonds CPU = 0.002 seconds
  read_restart CPU = 0.008 seconds

include 	in.setup
variable	out_freq equal 1000
variable	out_freq2 equal 10000
variable	out_freq3 equal 1000

timestep	2.0

neigh_modify    delay 7 every 1

include		in.tip4p
# This is TIP4P/Ice

# create groups ###
group ox type 2
336 atoms in group ox
group hy type 1
672 atoms in group hy

# set charges - beside manually ###
set group ox charge -1.1794
Setting atom values ...
  336 settings made for charge
set group hy charge 0.5897
Setting atom values ...
  672 settings made for charge

# ### TIP3P Potential Parameters ###
pair_style lj/cut/tip4p/long/omp 2 1 1 1 0.1577 8.5
pair_coeff 1 1*2 0.000 0.000
pair_coeff 2 2 0.21084 3.1668
bond_style  harmonic
bond_coeff  1 450 0.9572
angle_style harmonic
angle_coeff 1 55 104.52
kspace_style pppm/tip4p/omp 1.0e-5
pair_modify tail yes

thermo          ${out_freq}
thermo          1000
thermo_style    custom step temp pe etotal epair emol press lx ly lz vol pxx pyy pzz pxy pxz pyz enthalpy

restart 	${out_freq3} restart.lmp.${pid} restart2.lmp.${pid}
restart 	1000 restart.lmp.${pid} restart2.lmp.${pid}
restart 	1000 restart.lmp.1 restart2.lmp.${pid}
restart 	1000 restart.lmp.1 restart2.lmp.1


include         in.dump
dump            myDump all atom ${out_freq2} dump.water.${pid}
dump            myDump all atom 10000 dump.water.${pid}
dump            myDump all atom 10000 dump.water.1
dump            myDump2 all dcd ${out_freq2} dump.dcd
dump            myDump2 all dcd 10000 dump.dcd
dump_modify     myDump append yes
dump_modify     myDump2 append yes


variable natoms 	equal  "count(all)"                        # NUMBER ATOMS
variable H      	equal  "enthalpy/v_natoms"                 # ENTHALPY-per-atom
variable Vol      	equal  "vol/v_natoms"                 # volume-per-atom
fix AVG all 		ave/time ${out_freq} 1 ${out_freq} v_Vol v_H file vol_enthalpy.dat
fix AVG all 		ave/time 1000 1 ${out_freq} v_Vol v_H file vol_enthalpy.dat
fix AVG all 		ave/time 1000 1 1000 v_Vol v_H file vol_enthalpy.dat



fix 		1 all shake 1e-6 200 0 b 1 a 1
       0 = # of size 2 clusters
       0 = # of size 3 clusters
       0 = # of size 4 clusters
     336 = # of frozen angles
  find clusters CPU = 0.000 seconds
fix             2 all nph tri ${pressure} ${pressure} ${pressureDamp}
fix             2 all nph tri 8483.3 ${pressure} ${pressureDamp}
fix             2 all nph tri 8483.3 8483.3 ${pressureDamp}
fix             2 all nph tri 8483.3 8483.3 1000
fix             3 all temp/csvr ${temperature} ${temperature} ${tempDamp} ${seed}
fix             3 all temp/csvr 70.86 ${temperature} ${tempDamp} ${seed}
fix             3 all temp/csvr 70.86 70.86 ${tempDamp} ${seed}
fix             3 all temp/csvr 70.86 70.86 100 ${seed}
fix             3 all temp/csvr 70.86 70.86 100 745823


run             250000
PPPM initialization ...
  extracting TIP4P info from pair style
  using 12-bit tables for long-range coulomb (../kspace.cpp:340)
  G vector (1/distance) = 0.37991956
  grid = 24 27 32
  stencil order = 5
  estimated absolute RMS force accuracy = 0.002401655
  estimated relative force accuracy = 7.2325126e-06
  using double precision FFTW3
  3d grid and FFT values/proc = 5355 672
Last active /omp style is kspace_style pppm/tip4p/omp
Neighbor list info ...
  update every 1 steps, delay 7 steps, check yes
  max neighbors/atom: 2000, page size: 100000
  master list distance cutoff = 10.8154
  ghost atom cutoff = 10.8154
  binsize = 5.4077, bins = 5 5 4
  1 neighbor lists, perpetual/occasional/extra = 1 0 0
  (1) pair lj/cut/tip4p/long/omp, perpetual
      attributes: half, newton on, omp
      pair build: half/bin/newton/tri/omp
      stencil: half/bin/3d/tri
      bin: standard
Per MPI rank memory allocation (min/avg/max) = 10.32 | 10.33 | 10.33 Mbytes
Step Temp PotEng TotEng E_pair E_mol Press Lx Ly Lz Volume Pxx Pyy Pzz Pxy Pxz Pyz Enthalpy 
 5750000    67.463786   -5237.7714   -5102.8355   -5237.7714            0    8764.9294    17.892229    22.495326    19.076454    7678.1111    8785.2396    8787.3425    8722.2061    181.55628    188.69844    66.812348   -4121.3617 
 5751000    70.161722   -5242.0035   -5101.6714   -5242.0035            0    8872.1044    17.865772    22.443106    19.181269    7690.9868    8286.1424    9445.8193    8884.3516   -91.004462   -135.50171   -994.05203   -4106.5304 
 5752000    69.364219   -5240.4235   -5101.6865   -5240.4235            0    7867.0834    17.832282    22.559657    19.155442    7706.0455    8348.7403    7636.1441    7616.3659   -1385.1114     130.9814   -132.40271   -4217.5461 
 5753000    71.644817   -5246.5915    -5103.293   -5246.5915            0    8039.1404    17.809497    22.619384    19.111663    7698.9399     6942.789    8595.6741    8578.9581    187.16767    563.43203    241.04335   -4200.6491 
 5754000    69.481774   -5243.9364   -5104.9642   -5243.9364            0    8517.2246    17.697647    22.711068    19.073104    7666.0994    9187.3888    8409.9044    7954.3807   -1137.8531    -99.26293   -1095.6556   -4152.7198 
 5755000    70.081645   -5237.5886   -5097.4167   -5237.5886            0    9165.5014    17.786489    22.655749    19.033061    7669.6807    8808.8379    8859.2326    9828.4337    945.17092    345.25251    54.361438   -4072.2148 
 5756000    70.203774   -5232.3423   -5091.9261   -5232.3423            0     8385.635    17.776756    22.717446    18.990496    7669.1691    7943.5629    8694.0217    8519.3205   -20.867822    94.618882   -699.85796   -4154.0182 
 5757000    68.493707        -5234   -5097.0041        -5234            0    9333.2614    17.744555    22.738078    18.980674    7658.2672    9338.7987    8982.8926    9678.0928    267.75207    195.21047    1436.5748   -4054.5911 
 5758000    71.700426   -5241.6638   -5098.2541   -5241.6638            0    8407.5603    17.722884    22.722225    19.084941      7685.57    8573.2664     8755.971    7893.4434    113.95744    -508.3085   -193.73425    -4155.883 
 5759000    72.128381   -5236.4868   -5092.2212   -5236.4868            0    7942.4882    17.848667    22.627725    19.067907    7701.0457    6760.1055    8359.8381    8707.5211    7.9677157   -211.71995    -310.5053   -4200.1856 
 5760000    67.717031   -5228.7575    -5093.315   -5228.7575            0    8344.0675    17.792548     22.58492    19.125087    7685.2878    9321.0556    8149.3937    7561.7532    164.29204    22.209156   -24.504751   -4158.0949 
 5761000    72.180766    -5241.783   -5097.4125    -5241.783            0    8831.4993    17.762618    22.614377    19.071366    7660.7873    9578.8355    8502.4437    8413.2186    382.99433   -348.67845    971.64075   -4110.7157 
 5762000    76.853272   -5242.0536   -5088.3375   -5242.0536            0    7881.8561    17.790013    22.717928    19.063487    7704.5508    7706.9076    7870.3931    8068.2675    553.95385    763.40388      364.376   -4202.7088 
 5763000    74.031852   -5232.4896   -5084.4168   -5232.4896            0     9850.482    17.716278    22.668398    19.064345     7656.234    9955.3464    9560.9894     10035.11    141.04677   -662.87365   -1824.1835   -3984.5285 
 5764000     70.00118    -5236.594    -5096.583    -5236.594            0    8968.3964    17.693674    22.677551    19.094565    7661.6787    9193.1155    9188.3913    8523.6824   -59.949086    143.59726   -829.90245   -4094.4748 
 5765000    71.743624   -5238.4373   -5094.9411   -5238.4373            0    9534.2858    17.732482    22.753818    19.006572    7668.8034    9084.2265    9495.1782    10023.453    1162.2351    13.401918    918.97428   -4028.6111 
 5766000    71.200424   -5238.5501   -5096.1404   -5238.5501            0    8547.4401    17.762098    22.656304    19.077517    7677.2409    9184.8192    8072.7629    8384.7384   -7.1437921    12.275801   -659.10815    -4139.129 
 5767000    70.907316   -5238.9829   -5097.1595   -5238.9829            0    9001.2031    17.823894    22.568545    19.051438     7663.619    9781.6507    8785.1151    8436.8437    528.88368    167.08575    266.96307   -4091.1308 
 5768000    71.081849   -5246.7243   -5104.5518   -5246.7243            0    8564.2594    17.775127    22.660327    19.097591     7692.322    8861.9185    7987.8964    8842.9632   -4.8136128    268.78813    989.04698   -4143.7736 
 5769000     70.77027    -5239.434   -5097.8847    -5239.434            0    8328.8705    17.790262    22.573207    19.130975    7682.6794    8298.5671    8319.5786    8368.4659    147.87503   -289.28742    363.02278   -4164.6847 
 5770000    73.236006   -5240.9136   -5094.4325   -5240.9136            0    9493.2267    17.828308    22.509365    19.076215    7655.3596    9713.6486    9245.0085     9521.023    188.19787   -166.93723   -1172.7181   -4034.5559 
 5771000    70.267841   -5245.6762   -5105.1318   -5245.6762            0    8884.2818     17.76132    22.634587    19.107774    7681.7104    8708.3538    9276.2495    8668.2419    1100.4815   -32.611311    367.68845   -4109.8269 
 5772000    70.316364   -5235.6965   -5095.0551   -5235.6965            0    8514.4289    17.637011    22.852178    19.042628    7675.0194    9547.2691    7887.5873    8108.4301    12.689199   -655.23588   -46.013138   -4142.0157 
 5773000    67.098091   -5237.8224    -5103.618   -5237.8224            0    8558.3782    17.707859    22.702734    19.084729    7672.3823    8899.3261    8301.2492    8474.5592   -227.73623   -401.78096    70.507514   -4145.9883 
 5774000    74.176319   -5232.4661   -5084.1043   -5232.4661            0    8927.8737    17.725699    22.698453    19.080913    7677.1279    9769.4704    8710.3871    8303.7636   -132.95149    617.87227    732.12064   -4084.5125 
 5775000    73.357196   -5238.5694    -5091.846   -5238.5694            0    8291.7684    17.802091    22.656986    19.088879    7699.3417    8540.2471    7800.5903    8534.4679   -552.61734    369.72298   -867.42143   -4160.7882 
 5776000    72.719314   -5239.5621   -5094.1145   -5239.5621            0    7453.7799    17.821255    22.671188    19.054015    7698.3749    6979.0053    7205.2979    8177.0364   -462.60836   -198.34001   -43.329352    -4257.257 
 5777000    73.863592   -5240.4559   -5092.7196   -5240.4559            0    7857.4949    17.901642     22.61079    19.038862    7706.3652    8453.8713    7357.2834    7761.3299   -877.92074   -723.86007   -58.509069   -4209.6202 
 5778000    71.834341   -5244.7739   -5101.0963   -5244.7739            0    8274.1484    17.820025    22.637406    19.058437    7688.1572    8095.5552     8444.973    8281.9169    392.22177    200.61468    59.213163   -4173.3666 
 5779000    73.854197   -5239.8111   -5092.0936   -5239.8111            0    9326.6238    17.710949    22.690509     19.04345    7652.9997    10383.463    8402.4241    9193.9843    277.40175   -185.74959    -955.1744   -4051.1384 
 5780000    69.343309   -5230.5389   -5091.8437   -5230.5389            0     8011.679    17.752839    22.666525    19.071423    7674.2481    7476.4952    7883.1835    8675.3583    322.91238   -190.51816   -692.85709   -4195.1683 
 5781000     75.35349   -5238.8681   -5088.1519   -5238.8681            0     8498.941    17.881544    22.638264    18.991795    7688.0136    8070.6279    8670.9211     8755.274    673.58791    390.17284    1277.1609   -4135.2353 
 5782000     72.08397   -5234.3275   -5090.1506   -5234.3275            0    9181.2872    17.704363    22.690648    19.060842    7657.1876    9476.5088    9077.1014    8990.2514   -26.574228   -99.967516    154.10082   -4064.8559 
 5783000    73.343129   -5243.8571   -5097.1618   -5243.8571            0    8492.2184    17.685198     22.69045    19.143376    7681.9516    10502.569    8183.9565    6790.1297    -560.7543    483.75846    -256.1822   -4145.7498 
 5784000    70.520202   -5244.1946   -5103.1455   -5244.1946            0    8818.4825    17.828284    22.576161    19.047988    7666.7048    8618.9413     9133.633    8702.8731    408.07414    102.78865     290.5565   -4117.1419 
 5785000    69.501529   -5243.7795   -5104.7678   -5243.7795            0    9394.0254    17.759027    22.620616    19.057314    7655.7068    9230.7279    9462.0986    9489.2496   -101.73573   -429.86877    35.803499    -4055.919 
 5786000    70.128695   -5241.8336   -5101.5676   -5241.8336            0    9614.6216    17.766436    22.634283    19.038875    7656.1131    9086.4603    10151.781    9605.6235   -632.37506    287.60383   -715.46025    -4028.032 
 5787000    72.540521   -5238.3116   -5093.2216   -5238.3116            0    9402.4898    17.778188     22.65304      19.0049    7653.8432    9895.7953    8936.0301    9375.6441    500.97964   -49.965476   -10.092363   -4043.6832 
 5788000    71.058473    -5241.469   -5099.3433    -5241.469            0    8474.4291    17.771094    22.701659    19.027135    7676.1799    6905.2185    9016.6075    9501.4612    390.47087    532.34213   -269.96841   -4150.6377 
 5789000    71.130935    -5239.795   -5097.5243    -5239.795            0    8809.6297    17.783468    22.557769    19.109155    7665.7396    8188.4764     9193.025    9047.3877    447.01449    86.266573    178.94875   -4112.6346 
 5790000    68.096563   -5230.7182   -5094.5167   -5230.7182            0    8546.9463    17.678474    22.629332    19.199942    7680.9763    9049.1418    9131.1773    7460.5198   -340.42618    245.35446    492.23534   -4137.0949 
 5791000    69.182603    -5235.857   -5097.4833    -5235.857            0    8378.4696    17.718765    22.629266    19.144106    7676.0715    8666.2448    8305.6813    8163.4826      526.055   -147.23524    470.17128   -4159.5335 
 5792000    69.414103     -5238.44   -5099.6032     -5238.44            0     8347.566    17.840389    22.494103    19.181451    7697.5844    9749.3376    8129.2556    7164.1048   -282.18156   -123.95309   -135.35604    -4162.494 
 5793000    72.839081   -5244.1022    -5098.415   -5244.1022            0    6841.4624    17.860381    22.615836    19.145535    7733.4072    7583.3385    6244.4677    6696.5812    485.13353   -691.72107   -427.28703   -4326.8088 
 5794000    68.390135   -5243.2976   -5106.5088   -5243.2976            0    8024.1023    17.791694    22.597052     19.09691     7677.719    8370.0001    7994.7394    7707.5675    433.68426   -412.95646    406.83783   -4208.0368 
 5795000    68.008941   -5240.3783    -5104.352   -5240.3783            0    8803.5327    17.754295    22.651755    19.058686    7664.7545    9131.1149    8318.3534    8961.1298   -118.43423   -732.03316   -94.654619   -4120.2704 
 5796000    68.235016   -5235.3386   -5098.8601   -5235.3386            0    9477.0193    17.751595    22.637466    19.034942    7649.2132    9227.8857    10449.183    8753.9888   -537.34108    598.58161   -17.014216   -4041.6425 
 5797000    72.134479   -5239.8358    -5095.558   -5239.8358            0    8775.9107    17.709039     22.83441    18.960578    7667.1923    8439.1865    8474.9131    9413.6324    -445.0357   -154.36437   -1480.7154    -4114.252 
 5798000    70.238987   -5240.8835   -5100.3969   -5240.8835            0    8478.9792    17.750207    22.715747    19.012649    7666.0752     9394.907    7512.9205    8529.1102    438.17288   -496.50806   -1199.8329   -4152.4313 
 5799000    72.932708   -5238.2875   -5092.4131   -5238.2875            0    8143.9725     17.82714    22.789917    18.921709    7687.4937     7739.789    6971.9906    9720.1378   -383.53905   -374.54781    1541.6818    -4179.358 
 5800000    67.951945   -5242.2719   -5106.3596   -5242.2719            0    7335.0992    17.762076    22.758772    19.031395     7693.309    7513.5609    7251.2252    7240.5114   -102.27751   -627.07739   -16.038111   -4283.3687 
 5801000    74.462949   -5228.9137   -5079.9786   -5228.9137            0    8920.2205    17.845362    22.584664    19.025976    7668.0678    8421.3598    9418.5021    8920.7996     22.72791    1069.1217    668.34896   -4082.4223 
 5802000    69.641877   -5242.2497   -5102.9574   -5242.2497            0    8276.7582    17.730998    22.673821    19.095797    7677.0731    8793.7776    8613.0509     7423.446   -311.78263    157.70873    243.36195    -4176.273 
 5803000    68.588061   -5247.0836    -5109.899   -5247.0836            0    8025.7337    17.779577    22.708738    19.042474    7688.4319    8505.0546    7873.5957    7698.5508    268.95829    112.28064    639.07655   -4209.9904 
 5804000    74.001966   -5238.0557   -5090.0426   -5238.0557            0    8138.2083    17.793074     22.70611    19.028879    7687.8862    7870.8826    8040.5626    8503.1797    -358.2531   -19.150611     373.7141   -4177.5872 
 5805000    74.651625     -5241.01   -5091.6975     -5241.01            0    8678.2177    17.728488    22.753264     19.01966    7672.1691    8395.5054    8428.5443    9210.6034   -391.97959   -556.40151    1364.8343   -4120.6855 
 5806000    69.833015   -5226.5549   -5086.8803   -5226.5549            0    8520.6405     17.87919    22.636871    18.991283    7686.3216    6581.3944     9139.024    9841.5032    127.97995     277.7141   -146.55986    -4131.741 
 5807000    70.857513   -5246.9436   -5105.2198   -5246.9436            0    8536.7551    17.731362     22.73945    19.017317     7667.809    8169.2401     8843.903    8597.1222    -238.7116    170.12323     831.2255    -4150.579 
 5808000    69.535508   -5236.0348   -5096.9551   -5236.0348            0     9043.905    17.756876     22.62697    19.077724      7665.13    9142.5063    9262.0938    8727.1151   -555.19917     44.46925   -41.915732   -4085.9546 
 5809000    70.328988   -5241.7733   -5101.1067   -5241.7733            0    8064.8375    17.727395    22.631168    19.172671    7691.9157    8990.3059    8064.2168    7139.9897     469.6449    75.368401   -316.70777   -4196.4037 
 5810000    73.179843   -5247.3959   -5101.0272   -5247.3959            0    7644.9088    17.723591    22.699764    19.128743    7695.9015    7763.4417    7402.0911    7769.1936   -228.14841    -785.8509   -71.579554   -4242.9869 
 5811000     74.27865   -5240.8043   -5092.2378   -5240.8043            0    8483.6014    17.910576    22.586043    18.997656    7685.1035    8931.1656    8033.1844    8486.4541   -552.17524    333.65063   -80.772763   -4141.4013 
 5812000    76.826491   -5236.2569   -5082.5944   -5236.2569            0    8824.0123    17.821769    22.533963    19.092274    7667.3636    8027.4866     9055.619    9388.9313    498.18727   -513.22104      981.799   -4095.8878 
 5813000    73.063808   -5236.6388   -5090.5021   -5236.6388            0    8167.3458     17.84248    22.576253    19.071205    7682.1928    8379.1197    7867.9187    8254.9991   -593.70274   -50.813209    237.02897    -4175.458 
 5814000    67.612251   -5238.6626   -5103.4297   -5238.6626            0    7933.1174    17.799041    22.637295    19.095377    7693.9504    6082.2274    8873.0648      8844.06    325.46916    106.39606    519.80543   -4213.2675 
 5815000    71.214652   -5245.2113   -5102.7732   -5245.2113            0    8701.5799    17.900434    22.586227    18.966447    7668.1967    7308.8661    8660.5067    10135.367    134.81411   -637.89777   -639.18758   -4129.6513 
 5816000    76.613026   -5237.8514   -5084.6159   -5237.8514            0    8629.3285    17.691531    22.624165    19.143758    7662.4062     9205.935    8799.1275     7882.923   -356.14894    287.23162   -969.43443   -4120.3028 
 5817000    71.826411   -5246.8184   -5103.1567   -5246.8184            0    8191.2398    17.806121    22.629052     19.10837    7699.4434    8611.2023    8115.0027    7847.5144   -87.726199    154.53922   -410.86573   -4183.3748 
 5818000    73.737584   -5245.1544   -5097.6701   -5245.1544            0    8263.1874    17.677807    22.820235    19.055176    7687.0809    8391.8797    8281.9658    8115.7167   -818.07297   -330.35676   -426.75257   -4171.2991 
 5819000    67.714858   -5242.9305   -5107.4924   -5242.9305            0     8427.544    17.819257    22.675015    19.003554    7678.4222    9328.6612    7656.0809      8297.89    639.05645   -293.44824     685.8638   -4163.7599 
 5820000    69.679022   -5237.6531   -5098.2865   -5237.6531            0     7567.438    17.889247    22.580883    19.100195    7715.6194    7679.0506    7759.0737    7264.1897   -791.85916   -410.53502    648.46577   -4246.7651 
 5821000    69.780878   -5233.6321   -5094.0617   -5233.6321            0    9096.1925    17.773849    22.585445    19.084542    7661.1132    9351.3503    9235.5047    8701.7223   -662.40812    318.43831   -898.17967   -4077.7489 
 5822000    76.519098   -5235.4743   -5082.4267   -5235.4743            0    8978.2084    17.772211    22.532997    19.145839    7667.1651    9008.9865    9059.5386    8866.1001    57.455921   -484.22469    1122.1594   -4078.5037 
 5823000     67.77479   -5243.2947   -5107.7368   -5243.2947            0    9066.9532    17.808217    22.568691    19.075229    7666.4901    8424.5578    10105.694    8670.6076   -1069.7521    586.93663    28.854135   -4093.9798 
 5824000    68.138453    -5244.539   -5108.2537    -5244.539            0    8444.2556    17.756032    22.710881    19.057388    7684.9898    7480.7128    8807.5179    9044.5361   -1192.9434   -367.10402   -402.54011    -4161.841 
 5825000    73.677919   -5248.5337   -5101.1688   -5248.5337            0    8629.3465    17.802536    22.564643    19.110473    7676.8276    10186.895    8315.5929    7385.5516   -1606.9998    215.25297    500.44634   -4135.0387 
 5826000    72.351644   -5238.4797   -5093.7675   -5238.4797            0    9336.6734    17.762397     22.50275    19.165454    7660.4853    9989.5448    9301.6586    8718.8169   -23.016387   -492.43255   -587.97787   -4050.6713 
 5827000    66.697116   -5245.7586   -5112.3562   -5245.7586            0    8128.2355    17.705278    22.761788    19.103113    7698.6268    8884.9366     8156.357    7343.4128   -184.08556    210.25334   -477.17276   -4199.7457 
 5828000    76.579806   -5235.3304   -5082.1613   -5235.3304            0    8803.4251    17.674487     22.78252    19.023384    7660.1339    9128.0522    8475.7966    8806.4265    205.18341   -37.585856    1521.0885    -4098.685 
 5829000    72.856231   -5250.3133   -5104.5919   -5250.3133            0    7886.7742    17.626119    22.839201    19.086441    7683.5613    9011.8271    7347.8311    7300.6643   -789.27276    -571.3719   -632.32838   -4220.8247 
 5830000    75.183379   -5238.9515   -5088.5755   -5238.9515            0    8707.6844    17.733265    22.637177    19.125664    7677.6352    8432.7272    9217.6611     8472.665    369.70943    782.18607    59.511661   -4113.5723 
 5831000    68.852982   -5231.2658   -5093.5514   -5231.2658            0    9292.1523    17.798167    22.651599     19.01395    7665.6058    9382.5565    9521.2845    8972.6159   -750.52685    900.96204   -259.19719   -4054.7352 
 5832000    69.079328   -5244.1204   -5105.9532   -5244.1204            0    7924.2777    17.830625    22.573624    19.111114     7692.258    8520.6307    7566.1507    7686.0518   -275.97694   -508.94145    1.1305896   -4216.9785 
 5833000    76.358036   -5246.3371   -5093.6116   -5246.3371            0    8623.3615    17.759997    22.560577     19.16984    7680.8905    8505.4262    8953.5199    8411.1384   -259.58714   -118.75108    1256.5218   -4127.6406 
 5834000    73.501461   -5233.4529   -5086.4409   -5233.4529            0    8716.0904     17.74422    22.621559    19.128436    7678.1912    8687.7207    9238.5326    8222.0181   -207.30926   -89.207122    988.81888   -4110.4258 
 5835000    70.084839   -5242.4484   -5102.2701   -5242.4484            0    8191.0548    17.746811    22.715682    19.046173    7678.1011    9217.3913    7640.6169    7715.1563   -44.907015   -557.76017     743.5514   -4185.0584 
 5836000    71.505623   -5246.2854   -5103.2653   -5246.2854            0    7797.2475    17.819382    22.625797    19.091176    7697.1367     6997.536    8632.4895    7761.7171    356.14584    156.42766   -610.59309   -4227.9865 
 5837000    68.203689   -5235.4044   -5098.9886   -5235.4044            0    8820.8664    17.768719    22.705105    19.001477    7665.9675    9003.8035    9143.1216     8315.674    888.70584    370.92048     299.9972   -4112.8134 
 5838000    69.584428   -5238.4209   -5099.2434   -5238.4209            0    8385.7772    17.780092    22.755204    18.986291    7681.6564    8567.1807    7664.5219    8925.6289    153.00734   -89.978259   -310.18039   -4159.7925 
 5839000    66.116393   -5240.3327   -5108.0918   -5240.3327            0    9626.3991    17.652404    22.811623    18.974265    7640.5566     10116.66    9309.7637    9452.7739   -239.19762    190.15737   -377.20452   -4035.4252 
 5840000    68.242379   -5232.7634   -5096.2702   -5232.7634            0    10384.522     17.64236    22.690464    19.105194    7648.0639    11139.206    10258.794    9755.5671    -46.08556    514.32028    302.48097   -3937.9892 
 5841000    66.307128   -5241.1748   -5108.5523   -5241.1748            0    7396.2439    17.849515    22.642383    19.116835    7726.1753    6770.2747    7512.3412    7906.1159     115.7366    109.51936   -367.48311   -4275.1558 
 5842000    69.493706   -5236.1632   -5097.1672   -5236.1632            0    9981.3668    17.757094    22.628802    19.013836    7640.1732    9093.6196    10177.005    10673.476   -533.19289   -234.59173   -159.74846   -3985.0025 
 5843000    73.559326   -5238.9774   -5091.8497   -5238.9774            0    8950.4605    17.838417    22.498973    19.128178    7677.0187    8522.1114    9236.8578    9092.4122     -209.688    172.65971    495.40672   -4089.7432 
 5844000    72.566217   -5244.3464    -5099.205   -5244.3464            0    8485.8774    17.767446    22.605216    19.139613    7687.1759    8507.5809    8903.5942    8046.4573    512.78562    165.98544   -135.75953   -4147.8569 
 5845000    67.454138   -5244.8297   -5109.9131   -5244.8297            0    8419.6045    17.742995    22.696263    19.069086    7679.1149    7982.0319     8696.624    8580.1577    239.48168    408.25456    278.79135   -4166.9847 
 5846000    71.800706   -5242.5596   -5098.9493   -5242.5596            0    7843.9502    17.829368    22.680397    19.067014    7710.2646     7177.173    7711.2382    8643.4394      364.827   -24.258908   -267.32694   -4216.9261 
 5847000     70.30794   -5241.1387   -5100.5141   -5241.1387            0    8308.5805    17.806966    22.661052    19.037321    7682.0269    8965.0429    7260.3619    8700.3366    896.47572   -230.35914   -119.70446   -4169.6666 
 5848000     68.68188   -5236.2248   -5098.8525   -5236.2248            0    8170.2177    17.856166    22.579235    19.083138    7693.9125    7771.2745    8360.0576     8379.321   -562.87407     274.0576   -1549.0185   -4182.0902 
 5849000     68.84167   -5236.0649   -5098.3731   -5236.0649            0    8620.5985    17.780755    22.570581    19.126074    7675.7137    9338.7666    8142.7135    8380.3154   -198.22953   -274.20242   -834.89849   -4133.3625 
 5850000     70.82784   -5238.0533   -5096.3889   -5238.0533            0    9598.3417    17.782049    22.618224    19.039316    7657.5816    8955.4458    9188.5623    10651.017    382.93959   -143.96099   -1251.3854   -4024.4655 
 5851000    67.543444   -5247.1377   -5112.0425   -5247.1377            0    7893.3868    17.699318    22.832804    19.042876    7695.7034    8629.8278    7333.8394    7716.4932    65.453784   -552.75761    13.181534   -4226.1366 
 5852000    70.785628   -5240.2359   -5098.6559   -5240.2359            0    8546.9944    17.838661    22.639574    19.022903    7682.5835    8607.3304    8903.4827    8130.1701    -43.93153    546.46967    184.06559   -4141.0284 
 5853000    72.143689   -5241.4555   -5097.1592   -5241.4555            0    7238.1161    17.810387    22.663904    19.138264    7725.2157    6866.1211    7286.5164    7561.7109   -545.96246    228.26925   -637.86122   -4281.6816 
 5854000    73.360107   -5237.2829   -5090.5536   -5237.2829            0    8743.1703    17.714221    22.663179    19.089104    7663.5225    8557.8206    8887.2941    8784.3962   -294.02676    479.67865    321.83856   -4113.3766 
 5855000    74.562089   -5235.6704    -5086.537   -5235.6704            0    8352.0034     17.81207    22.697757    19.029257    7693.4151    7483.2666    8169.0674    9403.6762    416.25671   -241.20242    341.51031   -4149.4375 
 5856000    68.482836   -5243.4197   -5106.4456   -5243.4197            0    8404.9604    17.815995    22.665109    19.020567     7680.533    7917.0365    8977.4515    8320.3931    211.81895    189.79998    1553.7963   -4164.9833 
 5857000    69.298888   -5234.3091   -5095.7028   -5234.3091            0    7795.3709      17.7428    22.722888    19.090971     7696.862     7421.006     7885.605    8079.5017    416.85499    365.26629    479.46837   -4220.6659 
 5858000     72.01803   -5238.6742   -5094.6293   -5238.6742            0    8841.5394    17.736574    22.732582      19.0288    7672.3767     8440.518    8889.2811    9194.8192   -215.66131    220.27567   -477.60174   -4105.3163 
 5859000    69.730005   -5234.7701   -5095.3015   -5234.7701            0    9660.4269    17.771632    22.583904    19.069509    7653.6013    8987.0388    9675.5558    10318.686   -588.93571    -301.7208   -56.127739   -4017.0054 
 5860000    71.811113   -5233.1552   -5089.5241   -5233.1552            0    9449.6792    17.779125     22.65696    19.001379    7654.1529    9544.2103    8880.6793    9924.1479    309.89619   -211.12793    1651.6528   -4034.6756 
 5861000    76.235213   -5241.5475   -5089.0677   -5241.5475            0    8414.1369    17.772105     22.58644    19.148968    7686.5601    9501.3643    8450.0186    7291.0278   -1244.3934   -663.12123   -724.36506   -4145.8379 
 5862000    70.612608    -5237.874     -5096.64    -5237.874            0    8567.1437    17.832102    22.556126    19.102258    7683.3703    8654.9051    7757.7818    9288.7442    897.48072   -80.644985    898.87221   -4136.6567 
 5863000    70.916869   -5242.1177   -5100.2752   -5242.1177            0    8094.8615    17.787801    22.535331    19.159888    7680.3172    8552.6011    8428.2687    7303.7148    143.68778   -479.23793   -73.889439   -4193.5734 
 5864000    73.910494   -5242.1914   -5094.3613   -5242.1914            0     7525.307    17.828535    22.707934    19.013631    7697.6533    7752.1027    7041.6162     7782.202    310.23163   -85.729031   -603.85765   -4249.5524 
 5865000    69.909935   -5237.5154   -5097.6869   -5237.5154            0    8537.4155    17.801927    22.660539    19.027857    7675.8615    7967.7204    8792.9768    8851.5492   -610.30988    423.90755   -440.36919   -4141.9696 
 5866000    69.646566   -5245.1369   -5105.8352   -5245.1369            0    8434.4368    17.697503    22.675992     19.12091    7673.3824    9570.1634    8210.3985    7522.7484    4.0652748   -540.50275    106.84488   -4161.9508 
 5867000      71.1616   -5251.6769   -5109.3449   -5251.6769            0    8362.6514    17.782304    22.622483    19.081372     7676.052    9245.1567    7667.9444     8174.853   -474.78717    -535.6418    7.7213198   -4173.1683 
 5868000    70.991432   -5246.8793   -5104.8877   -5246.8793            0    8911.5987    17.742335    22.622984    19.113922    7672.0331    9320.5581    8568.8843    8845.3538     331.5948   -639.63688    888.25802   -4107.7802 
 5869000     68.46592   -5243.2258   -5106.2855   -5243.2258            0     8233.549    17.854492    22.486704     19.15859     7691.957    7442.5534     9046.116    8211.9774    579.91351   -307.16789    424.55511   -4182.6517 
 5870000    68.296655   -5236.9398    -5100.338   -5236.9398            0    8820.2558    17.785088    22.596095    19.076832    7666.4739    8989.4727    8499.0788    8972.2158   -905.71409    -259.3138   -1380.3017   -4114.1659 
 5871000    69.901935   -5248.0437   -5108.2312   -5248.0437            0      7976.44    17.805484    22.590601    19.131724    7695.4791    8037.1078    8335.4686    7556.7436    413.21614    565.32868    1078.7465     -4213.03 
 5872000    72.512854    -5237.987   -5092.9523    -5237.987            0    7927.6069    17.871456     22.60381    19.082489    7708.6197    7369.3164    7847.1149    8566.3894    229.27067   -476.25042    338.74803   -4201.7124 
 5873000    70.492929   -5242.9894   -5101.9949   -5242.9894            0    8231.0309    17.798207    22.573712    19.141983     7690.705    8579.7339    7949.9646    8163.3941    253.90229   -671.81788    67.841796   -4178.7939 
 5874000    69.821622   -5234.1924   -5094.5406   -5234.1924            0    8485.5092    17.748228       22.667    19.116212    7690.4344    8833.6196    8769.2019    7853.7061   -1359.7481    102.73246   -280.14176   -4142.8305 
 5875000    70.196097   -5233.8945   -5093.4936   -5233.8945            0    8259.8551    17.785682    22.682471    19.065385    7691.4194    7870.0255     8417.027    8492.5128    709.32713    244.19262    590.28152   -4166.9736 
 5876000    69.723105   -5241.7006   -5102.2458   -5241.7006            0    8714.0452    17.750738    22.732893    19.009473    7670.8097    9232.0146    8424.7773    8485.3436   -190.90085   -58.428282    190.22867   -4127.3978 
 5877000    68.070966   -5237.8469   -5101.6965   -5237.8469            0     9301.135    17.823613    22.538589    19.094708    7670.7086    8515.1396    9686.3653    9701.9002   -509.74104    385.55022    97.896008    -4061.184 
 5878000     67.38794   -5235.8883   -5101.1041   -5235.8883            0    9041.4287    17.809029    22.582358    19.048063    7660.5571    9013.7431    9235.4147    8875.1282   -63.715754    117.33312    846.94882   -4090.9833 
 5879000    75.246747   -5236.5364   -5086.0336   -5236.5364            0    8320.5494    17.720508    22.696889    19.100716    7682.3159    9276.7701    8304.2259    7380.6523   -472.23252    36.107893   -846.46432   -4153.8101 
 5880000    68.235537   -5244.9832   -5108.5037   -5244.9832            0    8801.1868    17.757378    22.768903    19.002071    7682.8419    9484.9766    8151.2245    8767.3594    270.91551    223.99803    199.55443   -4122.3627 
 5881000    68.419337   -5245.0612   -5108.2141   -5245.0612            0    8546.2501    17.756084    22.697781    19.040879    7673.9254    8104.5427    8654.8971    8879.3105    880.91338   -81.596508     919.8451   -4151.7491 
 5882000    73.003259   -5236.2513   -5090.2358   -5236.2513            0    8882.6252    17.668995    22.721973    19.113776    7673.6921    9246.5293    8657.7037    8743.6427    208.60187    92.626991    494.57912   -4096.1552 
 5883000    70.486216   -5231.5785   -5090.5974   -5231.5785            0    8479.2162    17.816897     22.56529    19.102608    7680.0782     9030.712    8608.7913    7798.1454    87.468273    392.01504   -695.91737   -4140.8737 
 5884000      69.5641   -5244.7026   -5105.5658   -5244.7026            0    8789.8588    17.878138    22.591343    19.013074    7679.2123    8024.7765     8627.439    9717.3611   -206.83467   -12.071004   -798.97086   -4121.1593 
 5885000    70.750421   -5242.5667   -5101.0571   -5242.5667            0    9066.1604    17.837897    22.635092    18.996352    7670.0133    7920.6533    9016.5887    10261.239    358.50231   -32.566029    942.94362   -4086.9229 
 5886000     71.52028   -5236.7955   -5093.7461   -5236.7955            0    8525.2344    17.734467    22.667728    19.113325    7683.5583    8711.5244    8236.6788    8627.5001   -663.70015    585.56895   -103.97683   -4138.4355 
 5887000    69.709639     -5245.45   -5106.0221     -5245.45            0    7409.3702    17.746081    22.676951    19.170583    7714.7605     6827.081    8050.8353    7350.1943    370.52794    202.62157   -738.73157     -4272.38 
 5888000    68.039997   -5236.0765   -5099.9881   -5236.0765            0    8611.3167    17.738741    22.693832    19.067863    7675.9592    8243.7277     9311.479    8278.7432    550.79816    76.082006    472.74238   -4135.9857 
 5889000    67.585889   -5242.1605   -5106.9804   -5242.1605            0    8415.4649    17.741177    22.811377    18.968371    7676.5126    7794.6247    7926.7556    9525.0145    240.24987    20.674495   -1393.1827   -4164.8349 
 5890000    69.383542   -5236.1322   -5097.3565   -5236.1322            0    8171.0077     17.74055    22.783147    19.029313    7691.3736    8041.2266    7922.3381    8549.4584   -159.93454   -117.52558    425.71392   -4180.8081 
 5891000    71.380426   -5244.1958   -5101.4261   -5244.1958            0    8106.0411    17.845604    22.702533    18.965556    7683.7131    7788.5824    7845.0939    8684.4468    275.14406   -111.87348   -489.88494   -4193.0707 
 5892000     71.06914   -5239.1489   -5097.0018   -5239.1489            0     8198.887    17.801594    22.658162    19.031087    7676.2156      7988.25    8762.3785    7846.0325   -908.98542    441.79167    583.49862   -4179.1386 
 5893000    71.266651   -5244.3977   -5101.8556   -5244.3977            0    8072.5271    17.750594     22.60337    19.140944    7679.7916    7473.8831    8667.5225    8076.1757   -637.03013   -471.49908   -520.30216   -4197.7174 
 5894000    73.812628    -5246.532   -5098.8976    -5246.532            0     7957.882    17.846104    22.553272    19.104408    7689.2953    8312.0843    7950.9087    7610.6528   -808.74492   -439.47233   -267.22998   -4206.4969 
 5895000    71.570199   -5241.5706   -5098.4214   -5241.5706            0     8618.736    17.835808    22.516114    19.081124    7662.8476    8515.3207    8848.4752     8492.412   -1.7955268   -330.44051     802.4975   -4135.2365 
 5896000    67.905581   -5238.7375    -5102.918   -5238.7375            0    8904.0004    17.865572    22.518823    19.087239    7679.0185    8364.6203     8975.199    9372.1819     222.5785   -67.934445    334.14566   -4105.7535 
 5897000    68.743638   -5241.4436   -5103.9479   -5241.4436            0    9442.4193    17.815532    22.430397    19.151148    7652.9799    9413.2668    9310.3892    9603.6018   -654.46824   -765.93877   -1912.2909   -4050.0713 
 5898000    65.923678   -5236.1319   -5104.2764   -5236.1319            0    8479.3762    17.778786    22.686583    19.046093    7682.0491    7996.9047    8528.1198    8913.1041   -206.73774    192.53624    867.15678   -4154.2912 
 5899000    71.444539   -5232.3206   -5089.4227   -5232.3206            0    9045.7714    17.749123    22.634774    19.102109    7674.2226    9404.3586    8898.1162    8834.8395    467.03827    60.090029     436.6347    -4077.014 
 5900000    70.676185   -5239.5316   -5098.1705   -5239.5316            0    9502.4403    17.703174    22.647277    19.058132    7640.9518    9799.7252    9394.6618    9312.9339    1189.1069    75.846212   -781.23172   -4039.2618 
 5901000    75.577828   -5235.2601   -5084.0951   -5235.2601            0    8346.7611    17.698974    22.699168    19.104602    7675.3119    8924.3421    8105.4076    8010.5335    97.192314    151.24452   -476.32929   -4149.7874 
 5902000    69.720672   -5235.9744   -5096.5244   -5235.9744            0    8722.9727    17.731671    22.722291    19.074633    7685.2497    8832.8207     8641.516    8694.5813    915.15181   -333.23625    1010.2381   -4118.8407 
 5903000    71.605468   -5237.9017   -5094.6819   -5237.9017            0    8465.4969    17.799405    22.641676    19.076151    7687.8485     8206.955    8346.0842    8843.4515    97.982368    20.530514   -361.88678   -4145.5356 
 5904000    70.046386   -5238.9489   -5098.8475   -5238.9489            0    8606.3446    17.756317    22.538849    19.145795      7662.28    7665.9313    9298.3433    8854.7592    164.25064    24.195536    195.45572   -4137.1186 
 5905000    67.887061    -5238.812   -5103.0295    -5238.812            0    8056.5802    17.886887    22.485166    19.104186    7683.5054    7973.8131    8524.0201    7671.9075    1416.7636    542.82548    1330.0015    -4200.241 
 5906000    67.378429   -5244.4526   -5109.6874   -5244.4526            0    8362.5819    17.826072    22.515166    19.124577    7675.7825    8593.7365    8383.2959    8110.7133    154.78923    316.36526   -124.20957   -4173.5514 
 5907000    69.996038    -5243.855   -5103.8543    -5243.855            0    7918.6403    17.802012    22.576946    19.170944    7705.0915    8562.6965    7549.7666    7643.4579   -241.42355    208.04764   -178.95283   -4214.0299 
 5908000    68.907643   -5246.3367   -5108.5129   -5246.3367            0    8639.2468     17.82253    22.496396    19.174021    7687.6835    8458.8455    9044.7965    8414.0984    4.2025876   -4.9192341    462.41264   -4139.9067 
 5909000    67.877243   -5243.3493   -5107.5864   -5243.3493            0    7705.9058    17.910736    22.551416    19.045148    7692.5725    7667.9102    7775.2714    7674.5357    -37.06847   -49.493861    162.84554   -4243.0741 
 5910000    73.035839   -5241.4318   -5095.3511   -5241.4318            0    8805.6746    17.737506    22.634251    19.094389    7665.9229    8532.7054    8983.9024     8900.416    26.501851   -119.15387   -522.65451     -4110.88 
 5911000    69.955211   -5244.4945   -5104.5754   -5244.4945            0    8947.4092    17.799069    22.666584    18.997506    7664.4317    8122.9275    8992.1502      9727.15    735.34491   -298.31942   -237.77518    -4104.453 
 5912000    72.671803   -5242.2312   -5096.8786   -5242.2312            0    8921.2764    17.776012    22.723443    18.970487    7662.7905    9088.2637    8560.1055      9115.46    74.011528    137.19856    489.25629   -4099.8909 
 5913000    67.831227   -5236.3403   -5100.6695   -5236.3403            0    8485.3157    17.662373    22.779763     19.07214    7673.5738    9888.8356     8184.778    7382.3336    504.23818      96.4027    234.37968   -4151.0676 
 5914000    69.783563   -5240.7435   -5101.1677   -5240.7435            0     8891.503    17.706499     22.65805    19.131201    7675.3375    8358.2816    9546.8992    8769.3281    144.77513    788.87181    318.02414   -4105.8802 
 5915000     71.47703    -5247.921   -5104.9581    -5247.921            0    7882.2982    17.730217    22.727372    19.091503    7693.1356    8145.7863    7416.2001    8084.9083    506.21509    98.277485   -396.54036   -4220.5919 
 5916000    75.721101   -5238.5618   -5087.1102   -5238.5618            0     8511.405    17.713313    22.775236    19.017717    7672.2203    8830.4299    7946.3102    8757.4749   -862.98057    270.35786   -58.741786   -4134.7567 
 5917000    70.964277   -5243.2614   -5101.3241   -5243.2614            0    8865.7614    17.811004    22.758929    18.944343    7679.2668    9343.6778    8300.7857    8952.8207   -758.78937    23.637482   -635.95049     -4108.41 
 5918000    70.265723   -5234.3889   -5093.8488   -5234.3889            0    8502.3144    17.851817    22.613904    19.024333    7680.1093    7909.2937    8502.9775    9094.6721   -364.91368   -209.39396     136.3465   -4141.5342 
 5919000    77.930558    -5242.436   -5086.5652    -5242.436            0    8702.3306    17.684737    22.571674    19.210378    7668.2855    9499.6827    9178.4612    7428.8479    -1456.441    587.90378   -1437.5002   -4113.3481 
 5920000    70.194859   -5236.8177   -5096.4193   -5236.8177            0     9082.363    17.756095    22.554171    19.140053    7665.0936      9347.09     9176.326    8723.6731    470.76242    75.971878   -303.49637   -4081.1244 
 5921000    71.952033   -5236.6882   -5092.7752   -5236.6882            0    8504.5029    17.840641    22.603208    19.014341    7667.6415    8898.7659    8707.9135    7906.8291   -31.233394   -423.03605    369.02783   -4141.7619 
 5922000    68.353291   -5243.1253   -5106.4102   -5243.1253            0    8042.1027    17.777114    22.728742    19.053948    7698.7749    7715.5795     7748.032    8662.6966   -313.66639   -240.68084   -642.84032   -4203.4531 
 5923000    70.075301   -5245.9356   -5105.7764   -5245.9356            0    8399.0445    17.773515    22.731242    18.990939    7672.6067    8768.8861    8253.7084     8174.539   -1103.4655   -13.575076    147.42645   -4165.9477 
 5924000    71.211265   -5243.2869   -5100.8556   -5243.2869            0    8670.7511    17.837705    22.644652    18.992669    7671.6823    8426.8686    8406.9625    9178.4224    -821.9047   -316.15162    641.80066   -4130.7406 
 5925000     68.08114   -5240.1533   -5103.9826   -5240.1533            0    7603.7637    17.815262    22.686118    19.089964    7715.3833    7315.8388    7574.4668    7920.9855    395.73921   -89.495217   -256.72457   -4248.3999 
 5926000    72.957092   -5245.4311   -5099.5079   -5245.4311            0    8171.1588    17.723772     22.74142    19.053832    7679.9088     7731.042     8178.011    8604.4235    -379.0982   -21.429976     119.8402   -4184.3087 
 5927000    75.505354   -5243.3054   -5092.2854   -5243.3054            0    8294.9112    17.807211    22.595549    19.098847    7684.6828    8654.1043    8648.4864     7582.143    369.17229    570.70981    775.36088    -4162.648 
 5928000    69.725001   -5233.8297   -5094.3711   -5233.8297            0    9339.6659     17.71784    22.707038    19.069704    7672.1167    10623.922    8633.1016    8761.9738   -128.34034   -977.44663   -629.44164   -4049.3563 
 5929000    71.604823   -5234.2009   -5090.9824   -5234.2009            0    9104.0388    17.736586    22.710568     19.02738    7664.3798    8882.6345    9225.0521    9204.4299   -114.07236    208.48795   -1496.4864   -4073.3592 
 5930000    71.753767   -5240.9814    -5097.465   -5240.9814            0     8587.476    17.795806    22.611369     19.09339    7682.9424    8923.7794    8767.8402    8070.8085   -43.480201    46.489724    59.516438   -4135.2569 
 5931000    69.691374   -5241.9583   -5102.5669   -5241.9583            0    8659.2823    17.828945     22.54904    19.082288    7671.5684    7817.5003    8923.1809    9237.1656   -668.34531   -16.296615    240.83403   -4133.7495 
 5932000    74.786953   -5246.8946   -5097.3115   -5246.8946            0    7981.5955    17.819984    22.571167    19.113436    7687.7649    8546.9519    7650.0695     7747.765   -678.37467    108.30375    5.0144727   -4202.4296 
 5933000    69.717864   -5248.0125   -5108.5682   -5248.0125            0    8036.8052    17.746214    22.629337    19.152005    7691.1591    7715.9782    8691.6746    7702.7627    204.60822   -92.876407    217.48496   -4207.0985 
 5934000    68.843955   -5244.0954   -5106.3989   -5244.0954            0    8606.1796    17.756247    22.632914    19.110763    7680.1494    8477.4539    8461.2611     8879.824    209.23245   -264.73129   -515.51789   -4142.4457 
 5935000    74.851631   -5237.7492   -5088.0367   -5237.7492            0    9471.4934    17.850822    22.616527    18.961698    7655.2849    7043.3391     9984.394    11386.747     636.4621    505.19682   -84.754503   -4030.5968 
 5936000      71.6395   -5234.8588   -5091.5709   -5234.8588            0    8953.2843    17.758253    22.645406    19.074803    7670.7958    9202.0794    9626.4391    8031.3344    185.49535    632.77219    614.03498   -4089.9608 
 5937000    70.083525   -5246.5133   -5106.3376   -5246.5133            0    7695.7202     17.75598    22.694838    19.098725    7696.1959    8343.1171    7722.3581    7021.6855   -96.570243    31.032191    626.19777   -4242.5613 
 5938000    75.332916   -5244.6964   -5094.0213   -5244.6964            0    8387.2658    17.778976     22.74262    19.011976    7687.3119    9350.8625    7493.0734    8317.8614   -362.47004   -290.39002    74.462014   -4153.7118 
 5939000    70.589497   -5250.6643   -5109.4766   -5250.6643            0     7672.351     17.76206    22.896279    18.921773    7695.2024    8228.3582    6809.6908    7979.0039   -36.853916    457.63546   -828.55735   -4248.4345 
 5940000    75.124873   -5235.7325   -5085.4734   -5235.7325            0    8449.2135    17.740121    22.765378    19.008132    7676.6349    7792.0455    8371.1105    9184.4844    334.56742   -53.928299    99.891515   -4139.5346 
 5941000    71.354851    -5235.949   -5093.2305    -5235.949            0    9023.7446    17.676369    22.763105    19.035564    7659.3213    8768.8837    8846.8309    9455.5191    -432.8437    93.071076   -712.39361    -4085.248 
 5942000    73.922855   -5244.8233   -5096.9685   -5244.8233            0    8471.6051    17.686311    22.752197    19.073763    7675.3286    8653.3351    8154.0185    8607.4616   -228.38144    352.49823   -118.95604   -4148.6842 
 5943000    72.111873   -5240.6018   -5096.3692   -5240.6018            0    9190.8735     17.74724    22.592785    19.088224    7653.6064    9078.9542    9224.8918    9268.7744    203.69185   -139.88705    371.08332   -4070.4839 
 5944000    72.285113   -5241.6049   -5097.0258   -5241.6049            0    8943.7937    17.803812    22.645497    19.030196    7672.5218    9215.0556    9231.8941    8384.4314    783.94042    724.57316    725.22833   -4096.2523 
 5945000    71.616422    -5241.702   -5098.4603    -5241.702            0    8681.9903    17.749307    22.708233    19.044241     7675.884    8012.5823    8471.9818    9561.4067    133.53326    153.50301    1469.9391   -4126.5558 
 5946000    69.252416   -5240.1985   -5101.6851   -5240.1985            0    8738.6604    17.756773    22.730221    19.030399    7680.9613    8621.9738    8544.1575    9049.8499    5.8703166    190.22343    827.56136   -4122.7896 
 5947000    70.121497   -5235.1653   -5094.9136   -5235.1653            0    9086.0668    17.691401    22.781883    19.023304    7667.2177    9241.1263    8813.9829    9203.0913    478.88666    267.83005   -239.07031   -4078.9232 
 5948000    72.286809   -5243.8157   -5099.2332   -5243.8157            0    8383.0966    17.807389    22.634391    19.062485    7683.3139    8348.7171    8206.6552    8593.9174   -554.29941  -0.82291343   -327.88709     -4159.88 
 5949000    72.781513   -5237.3216   -5091.7496   -5237.3216            0     9015.042    17.765422    22.626741    19.068081    7664.8649    8726.6161    8904.0325    9414.4775    139.01487   -210.62711   -644.88302   -4084.0104 
 5950000    70.909706     -5239.53   -5097.7018     -5239.53            0    9259.0036    17.776454    22.473489    19.151021     7650.813    9853.1626     9200.932    8722.9162    360.43373   -402.67669   -229.12047    -4064.589 
 5951000    71.654477   -5240.4231   -5097.1053   -5240.4231            0    8605.2029    17.759233    22.583228    19.121563    7668.9091      9650.75    8475.8808     7688.978    562.38292   -4.2461187     133.4558   -4134.6721 
 5952000    72.344761   -5246.4799   -5101.7814   -5246.4799            0    8230.1245    17.747143    22.658447    19.099482    7680.3355    8250.5259    8357.7786    8082.0689    7.4626819    180.62874   -366.59804   -4179.9267 
 5953000    70.676408   -5248.3789   -5107.0173   -5248.3789            0    8574.6355    17.794458     22.68602    19.006296    7672.5648    8239.5794    8746.6314    8737.6958    -431.7675    -132.4202   -331.37804   -4147.5457 
 5954000    68.020015    -5245.876   -5109.8276    -5245.876            0    7678.2637    17.725705    22.756622    19.079865    7696.3821     8585.789    6712.3416    7736.6603    176.80222   -445.52567     223.2004   -4247.9898 
 5955000    70.428031   -5248.2479   -5107.3832   -5248.2479            0    8516.6845    17.758929    22.728468      19.0305    7681.3422    8683.3479    8034.9748    8831.7308   -72.480286    785.28503    507.37549   -4153.3059 
 5956000    70.054487   -5249.5803   -5109.4627   -5249.5803            0    6929.1232    17.808525    22.715139    19.081519    7718.9153    6436.6485    7118.1349    7232.5863   -132.68094    723.53867    684.96154   -4329.4342 
 5957000    69.473086   -5238.7125   -5099.7578   -5238.7125            0    7742.5896    17.794221     22.64958    19.070687    7686.0902    7683.2577    7650.8525    7893.6586    1862.0693    236.62827    666.45529   -4231.8619 
 5958000    73.093495   -5239.3455   -5093.1495   -5239.3455            0    8253.9362    17.757022    22.689701    19.077561     7686.378    8104.8154    8410.0997    8246.8936    129.45162   -89.680296    578.94832   -4167.9002 
 5959000    72.055638   -5242.1513   -5098.0311   -5242.1513            0    8055.0745    17.774964    22.793744    18.960829    7682.1308    8219.2121    7277.1358    8668.8756    40.508372    -67.23484     552.2095   -4195.5728 
 5960000    76.361872   -5251.5448   -5098.8116   -5251.5448            0    6682.8796    17.736153    22.781222    19.097841    7716.5063    7989.7696    5812.3772    6246.4919   -270.02221   -322.46288   -1295.5879   -4346.7382 
 5961000    69.732178    -5235.996    -5096.523    -5235.996            0    9117.4872    17.748014    22.705693    19.043427    7674.1385    9516.4627    8372.4406    9463.5582   -844.11514   -645.25414   -671.08246    -4076.099 
 5962000    68.527182   -5235.9585   -5098.8957   -5235.9585            0    8336.9979    17.798957    22.588426    19.106885    7681.9314    8145.8178    8534.0295    8331.1463    335.09053    280.90927   -87.998444   -4164.8761 
 5963000    69.966067   -5241.5183   -5101.5775   -5241.5183            0    8221.5544    17.743654    22.751276    19.055191    7692.4045    8097.2973     7630.548     8936.818   -27.501256   -535.32828    -765.7835   -4179.2356 
 5964000     68.48372   -5236.7964   -5099.8205   -5236.7964            0    8638.5945    17.918957    22.561017    18.979547    7672.8594    9508.1479    8331.8099    8075.8256    -153.6717   -377.48752   -541.10484    -4133.155 
 5965000    67.122724    -5243.036   -5108.7823    -5243.036            0    8924.8888    17.729754     22.71471    19.042925    7669.0854    8626.2793       8975.9    9172.4871    432.47461   -222.83543    1878.2639   -4110.5714 
 5966000    71.800468   -5243.0973   -5099.4875   -5243.0973            0    8751.3115     17.74639    22.673881    19.079133    7677.0529    8692.4036    8814.4556    8747.0753     459.2236    945.41762    1206.4229   -4119.6736 
 5967000    70.541031   -5251.5875   -5110.4967   -5251.5875            0    8002.1719    17.771035    22.682144    19.089507    7694.6973    8169.4496    7808.9713    8028.0947   -298.82175   -453.11616   -874.23785   -4212.4989 
 5968000    70.086969   -5236.3984   -5096.2158   -5236.3984            0     7976.681    17.756288    22.711584    19.060867    7686.7411    7713.8755    7982.2681    8233.8994    501.45311   -23.454722    827.04871   -4202.0041 
 5969000    71.079806   -5245.0849   -5102.9165   -5245.0849            0    8157.3341    17.802384    22.682302    19.044418     7690.118    7773.8432    8055.4946    8642.6645    46.424788    740.67388    389.52332   -4188.0512 
 5970000    66.792758   -5241.4574   -5107.8636   -5241.4574            0    8176.8896    17.754851     22.70873    19.045604    7678.9994     8551.037    7787.7037    8191.9281    172.02005   -617.20223    185.73784   -4192.1311 
 5971000    71.697906    -5248.242   -5104.8373    -5248.242            0    8420.8194    17.826981    22.678193    19.033934      7695.11    7695.9956    8387.1335    9179.3292     99.42041    255.31259    1533.6968   -4159.8085 
 5972000    66.318728   -5243.6053   -5110.9597   -5243.6053            0    8029.2774    17.725023    22.813744    18.995005    7681.0889    8040.3672    7480.8615    8566.6035   -609.88078   -267.46565   -442.90442   -4211.5136 
 5973000    69.831515   -5246.4398   -5106.7682   -5246.4398            0    9292.5045    17.664282    22.702998    19.094055    7657.3301    9638.7476     9009.038    9229.7279    777.00907    389.38724   -474.78195   -4069.0342 
 5974000     69.48734   -5238.0607   -5099.0775   -5238.0607            0     8623.155    17.718493    22.760926    19.038831    7678.1569    8084.7127    8670.8347    9113.9178   -196.46024    902.56136   -443.24808   -4133.4734 
 5975000    70.219894   -5242.3257   -5101.8772   -5242.3257            0    9234.5294    17.685083    22.784798    18.999324    7655.7974    9051.6311    8961.9021    9690.0549    488.90244   -140.72446   -830.14588    -4070.824 
 5976000    69.648492   -5242.7529   -5103.4473   -5242.7529            0    8127.0079    17.797425    22.691362    19.050101    7693.3416    7196.0519     8559.333    8625.6386   -15.919053    896.88583    93.805129   -4191.6012 
 5977000    76.304879   -5230.0062    -5077.387   -5230.0062            0    9899.0068    17.620818    22.745825    19.057244    7638.1442    10732.121    9348.9877    9615.9117    267.82343   -531.15509    -516.3627   -3974.6921 
 5978000    71.638957   -5232.7502   -5089.4635   -5232.7502            0    9220.3427     17.74843    22.615336    19.094275    7664.1879    9995.2118     9206.118    8459.6982    618.91134    234.35099    173.83649   -4058.8659 
 5979000    74.246144   -5245.5171   -5097.0156   -5245.5171            0     8128.434    17.800961    22.617336    19.108122    7693.1266    8046.7058    8263.2439    8075.3523   -1179.7078   -167.09868    -1271.014   -4185.0349 
 5980000    75.420393   -5241.2755   -5090.4254   -5241.2755            0    8213.0103    17.756697    22.725472    19.050744     7687.534    8253.0263    7865.7926    8520.2121    747.66333    8.6373034     -97.7564   -4169.6254 
 5981000    70.758408   -5234.4109   -5092.8854   -5234.4109            0    8366.2114    17.673768    22.691115    19.142411    7676.8248    10093.336    8010.4906    6994.8081   -218.22567    168.64147   -592.84721   -4156.2159 
 5982000    70.429105   -5238.1002   -5097.2333   -5238.1002            0    8541.8296    17.812609    22.706612    18.978767    7676.2281    7612.1931    8336.2949    9677.0009    210.00426   -501.89058   -74.169817   -4140.9762 
 5983000    69.042217   -5244.9132   -5106.8203   -5244.9132            0    7858.5932    17.759499    22.694062    19.098645    7697.4257    8051.0497    8237.5123    7287.2174   -495.63874    490.23385   -141.19788    -4224.622 
 5984000    72.394704    -5236.921   -5092.1226    -5236.921            0    8393.2372      17.7378    22.747075    19.021463     7674.838    8489.2192    7653.4086    9037.0838   -407.77048   -915.20858   -50.460497   -4152.6706 
 5985000    69.774496   -5246.7036    -5107.146   -5246.7036            0    8801.7171    17.817898     22.54049     19.10118    7671.4949    8882.4894    8998.5698    8524.0919    16.811102    509.07101    -394.3837   -4122.4021 
 5986000     73.76859   -5248.5291   -5100.9828   -5248.5291            0    8517.9071    17.801216    22.545109    19.100453    7665.5914    8306.9241     8930.282    8316.5153     -936.828   -325.40647    199.79185   -4148.7251 
 5987000    67.771154   -5240.2616   -5104.7109   -5240.2616            0    8149.7387     17.83774    22.510912    19.194451    7707.4126      8652.45    8336.4979    7460.2683   -972.48339    194.06331    605.74823   -4188.6419 
 5988000     71.45832   -5234.7332   -5091.8077   -5234.7332            0    9301.5822    17.790261    22.579272    19.061164    7656.7006    8738.3759     9681.764    9484.6065    158.37747     318.5535    438.39367   -4053.1454 
 5989000    71.336064    -5241.501     -5098.82    -5241.501            0    8542.9214     17.79602    22.712106    19.016774    7686.2965    9410.7814    8028.1002    8189.8827   -328.34575    674.82687    609.61615   -4141.1863 
 5990000    72.411467   -5232.6668   -5087.8349   -5232.6668            0    10855.806    17.698392    22.756465    18.935422    7626.2952    10738.525    10635.978    11192.916   -668.89419   -123.16429   -611.41597   -3880.4338 
 5991000    69.947616   -5246.6618   -5106.7579   -5246.6618            0     8239.341    17.748893    22.750886    19.029705    7684.2528      8290.41    7927.2643    8500.3487    936.83733    401.12392    160.13997   -4183.4001 
 5992000    70.976091   -5243.3332   -5101.3723   -5243.3332            0     9652.044    17.700459    22.717877    19.061565    7664.9767    9147.2613    9254.0782    10554.792   -179.64687    250.99071     650.7692   -4022.4106 
 5993000     74.70138   -5237.9673   -5088.5553   -5237.9673            0    9102.6081    17.728616    22.660422     19.08267    7666.2321    9701.0823    8718.6032    8888.1388     242.2499   -17.603704    2.8581261   -4070.8461 
 5994000    73.510761   -5241.0233   -5093.9927   -5241.0233            0    8231.4052    17.869919    22.559481    19.084185    7693.5235    8001.3897    8483.8575    8208.9685     55.85949    236.34182    1025.0927   -4170.4114 
 5995000    73.732245   -5237.5193   -5090.0457   -5237.5193            0    7993.8049    17.748054    22.674348    19.096453    7684.9003    7454.2976    8300.8122     8226.305     308.0631    301.62408    342.92514   -4194.1289 
 5996000    69.574534     -5233.22   -5094.0624     -5233.22            0    9253.1701    17.804901    22.605697     18.99023     7643.419    9485.0708    8963.4409    9310.9987   -322.57112    91.703877   -1088.5211   -4062.5983 
 5997000    70.522475   -5239.5243   -5098.4706   -5239.5243            0     8964.924    17.625181    22.785403    19.087753    7665.5817     10228.29    8300.7278    8365.7544   -304.66258   -610.48313    488.47217   -4096.2401 
 5998000     73.20964   -5240.7959   -5094.3675   -5240.7959            0    8399.8823    17.807311    22.623726    19.097744    7693.8642    7990.4866    8784.4065     8424.754    18.378793    661.58583   -108.50958   -4151.8409 
 5999000    72.818258    -5248.967   -5103.3214    -5248.967            0    9325.2431    17.750458    22.681113    19.033783     7663.004    9413.8701    8865.2185    9696.6407   -91.835844    -36.35241    570.74683   -4061.1598 
 6000000    72.728218   -5234.9014    -5089.436   -5234.9014            0     8517.362    17.704219    22.695379    19.102315    7675.3855    7690.7527    9114.9945    8746.3387   -1150.5777     -760.851   -207.19201   -4136.0227 
Loop time of 482.445 on 64 procs for 250000 steps with 1008 atoms

Performance: 89.544 ns/day, 0.268 hours/ns, 518.193 timesteps/s
193.9% CPU use with 32 MPI tasks x 2 OpenMP threads

MPI task timing breakdown:
Section |  min time  |  avg time  |  max time  |%varavg| %total
---------------------------------------------------------------
Pair    | 37.001     | 40.026     | 45.3       |  30.5 |  8.30
Bond    | 0.81062    | 1.0625     | 1.4273     |  11.7 |  0.22
Kspace  | 235.67     | 243.52     | 250.49     |  27.5 | 50.48
Neigh   | 0.60779    | 0.66832    | 0.74469    |   5.4 |  0.14
Comm    | 76.659     | 82.642     | 88.079     |  36.4 | 17.13
Output  | 0.62329    | 0.62397    | 0.63793    |   0.3 |  0.13
Modify  | 92.414     | 95.201     | 97.568     |  12.8 | 19.73
Other   |            | 18.71      |            |       |  3.88

Nlocal:        31.5000 ave          37 max          28 min
Histogram: 4 5 5 4 2 3 4 3 1 1
Nghost:        2977.12 ave        2996 max        2960 min
Histogram: 1 3 5 3 5 6 4 2 2 1
Neighs:        10876.0 ave       12760 max        9646 min
Histogram: 4 5 5 4 2 3 4 3 0 2

Total # of neighbors = 348033
Ave neighs/atom = 345.27083
Ave special neighs/atom = 2.0000000
Neighbor list builds = 1398
Dangerous builds = 0

unfix		3
unfix		2
unfix		1

write_data	data.final.${pid}
write_data	data.final.1
System init for write_data ...
PPPM initialization ...
  extracting TIP4P info from pair style
  using 12-bit tables for long-range coulomb (../kspace.cpp:340)
  G vector (1/distance) = 0.38005423
  grid = 24 27 32
  stencil order = 5
  estimated absolute RMS force accuracy = 0.0023843898
  estimated relative force accuracy = 7.1805189e-06
  using double precision FFTW3
  3d grid and FFT values/proc = 5355 672
Last active /omp style is kspace_style pppm/tip4p/omp
WARNING: Not all mixed pair coeffs generated from mixing. Use write_data with 'pair ij' option to store all pair coeffs. (../write_data.cpp:312)

write_restart   restart.lmp.${pid}
write_restart   restart.lmp.1
System init for write_restart ...
PPPM initialization ...
  extracting TIP4P info from pair style
  using 12-bit tables for long-range coulomb (../kspace.cpp:340)
  G vector (1/distance) = 0.38005423
  grid = 24 27 32
  stencil order = 5
  estimated absolute RMS force accuracy = 0.0023843898
  estimated relative force accuracy = 7.1805189e-06
  using double precision FFTW3
  3d grid and FFT values/proc = 5355 672
Last active /omp style is kspace_style pppm/tip4p/omp
Total wall time: 0:08:02
