LAMMPS (30 Jul 2021)
Processor partition = 0
  using 2 OpenMP thread(s) per MPI task
using multi-threaded neighbor list subroutines
variable        pid world 0 1
variable        phase world IceVI Liquid

shell cd ${phase}
shell cd IceVI
include Restart.lmp
echo both
log log.lammps
#include		in.partitions
include		in.temp
variable        temperature equal 261.63
variable	tempDamp equal 100.0
include		in.pressure
variable        pressure equal 8125.0
variable        pressureDamp equal 1000.0 # This is 1 ps
include		in.seed
variable        seed equal 745823

units		real
atom_style	full
read_restart	restart.lmp.${pid}
read_restart	restart.lmp.0
Reading restart file ...
  restart file = 30 Jul 2021, LAMMPS = 30 Jul 2021
  restoring atom style full from restart
  orthogonal box = (-0.14344005 -0.066888133 -0.14815561) to (24.873441 24.796889 22.958156)
  4 by 4 by 2 MPI processor grid
  restoring pair style lj/cut/tip4p/long/omp from restart
  restoring bond style harmonic/omp from restart
  restoring angle style harmonic/omp from restart
  1920 atoms
  1280 bonds
  640 angles
Finding 1-2 1-3 1-4 neighbors ...
  special bond factors lj:    0        0        0       
  special bond factors coul:  0        0        0       
     2 = max # of 1-2 neighbors
     1 = max # of 1-3 neighbors
     1 = max # of 1-4 neighbors
     2 = max # of special neighbors
  special bonds CPU = 0.003 seconds
  read_restart CPU = 0.026 seconds
include 	in.setup
variable	out_freq equal 1000
variable	out_freq2 equal 10000
variable	out_freq3 equal 1000

timestep	2.0

neigh_modify    delay 7 every 1

include		in.tip4p
# This is TIP4P/Ice

# create groups ###
group ox type 2
640 atoms in group ox
group hy type 1
1280 atoms in group hy

# set charges - beside manually ###
set group ox charge -1.1794
Setting atom values ...
  640 settings made for charge
set group hy charge 0.5897
Setting atom values ...
  1280 settings made for charge

# ### TIP3P Potential Parameters ###
pair_style lj/cut/tip4p/long/omp 2 1 1 1 0.1577 8.5
pair_coeff 1 1*2 0.000 0.000
pair_coeff 2 2 0.21084 3.1668
bond_style  harmonic
bond_coeff  1 450 0.9572
angle_style harmonic
angle_coeff 1 55 104.52
kspace_style pppm/tip4p/omp 1.0e-5
pair_modify tail yes

thermo          ${out_freq}
thermo          1000
thermo_style    custom step temp pe etotal epair emol press lx ly lz vol pxx pyy pzz pxy pxz pyz enthalpy

restart 	${out_freq3} restart.lmp.${pid} restart2.lmp.${pid}
restart 	1000 restart.lmp.${pid} restart2.lmp.${pid}
restart 	1000 restart.lmp.0 restart2.lmp.${pid}
restart 	1000 restart.lmp.0 restart2.lmp.0


include         in.dump
dump            myDump all atom ${out_freq2} dump.water.${pid}
dump            myDump all atom 10000 dump.water.${pid}
dump            myDump all atom 10000 dump.water.0
dump            myDump2 all dcd ${out_freq2} dump.dcd
dump            myDump2 all dcd 10000 dump.dcd
dump_modify     myDump append yes
dump_modify     myDump2 append yes


variable natoms 	equal  "count(all)"                        # NUMBER ATOMS
variable H      	equal  "enthalpy/v_natoms"                 # ENTHALPY-per-atom
variable Vol      	equal  "vol/v_natoms"                 # volume-per-atom
fix AVG all 		ave/time ${out_freq} 1 ${out_freq} v_Vol v_H file vol_enthalpy.dat
fix AVG all 		ave/time 1000 1 ${out_freq} v_Vol v_H file vol_enthalpy.dat
fix AVG all 		ave/time 1000 1 1000 v_Vol v_H file vol_enthalpy.dat




fix 		1 all shake 1e-6 200 0 b 1 a 1
Finding SHAKE clusters ...
       0 = # of size 2 clusters
       0 = # of size 3 clusters
       0 = # of size 4 clusters
     640 = # of frozen angles
  find clusters CPU = 0.002 seconds
fix             2 all nph aniso ${pressure} ${pressure} ${pressureDamp}
fix             2 all nph aniso 8125 ${pressure} ${pressureDamp}
fix             2 all nph aniso 8125 8125 ${pressureDamp}
fix             2 all nph aniso 8125 8125 1000
fix             3 all temp/csvr ${temperature} ${temperature} ${tempDamp} ${seed}
fix             3 all temp/csvr 261.63 ${temperature} ${tempDamp} ${seed}
fix             3 all temp/csvr 261.63 261.63 ${tempDamp} ${seed}
fix             3 all temp/csvr 261.63 261.63 100 ${seed}
fix             3 all temp/csvr 261.63 261.63 100 745823


run             250000
PPPM initialization ...
  extracting TIP4P info from pair style
  using 12-bit tables for long-range coulomb (../kspace.cpp:340)
  G vector (1/distance) = 0.37433414
  grid = 30 30 30
  stencil order = 5
  estimated absolute RMS force accuracy = 0.0032830233
  estimated relative force accuracy = 9.8867271e-06
  using double precision FFTW3
  3d grid and FFT values/proc = 5400 960
Last active /omp style is kspace_style pppm/tip4p/omp
Neighbor list info ...
  update every 1 steps, delay 7 steps, check yes
  max neighbors/atom: 2000, page size: 100000
  master list distance cutoff = 10.8154
  ghost atom cutoff = 10.8154
  binsize = 5.4077, bins = 5 5 5
  1 neighbor lists, perpetual/occasional/extra = 1 0 0
  (1) pair lj/cut/tip4p/long/omp, perpetual
      attributes: half, newton on, omp
      pair build: half/bin/newton/omp
      stencil: half/bin/3d
      bin: standard
Setting up Verlet run ...
  Unit style    : real
  Current step  : 7750000
  Time step     : 2
Per MPI rank memory allocation (min/avg/max) = 10.54 | 10.55 | 10.55 Mbytes
Step Temp PotEng TotEng E_pair E_mol Press Lx Ly Lz Volume Pxx Pyy Pzz Pxy Pxz Pyz Enthalpy 
 7750000    266.58666   -9082.0845   -8065.7346   -9082.0845            0    8536.8145    25.016881    24.863777    23.106311    14372.453    8640.9435     8675.741    8293.7591   -257.19188   -1231.9709    336.39837   -6276.3544 
 7751000    264.59513   -9118.0697   -8109.3124   -9118.0697            0     8183.959    25.191946    24.899936    22.873572    14348.085    6655.5904    8755.3929    9140.8937   -64.691768   -423.75161    579.95606   -6396.8018 
 7752000    267.53261   -9116.0237   -8096.0674   -9116.0237            0    8724.2031    24.992412    24.943661    23.021645    14351.746    7878.3096    9338.5599    8955.7398    149.50188   -52.026517   -710.30312   -6270.0438 
 7753000    269.57925   -9116.8559   -8089.0969   -9116.8559            0    9196.6564    24.945503    24.932107    23.010762    14311.403    9429.1065    8940.4146    9220.4479    961.63257   -64.677007   -733.27973    -6169.597 
 7754000    252.50107   -9100.3947   -8137.7455   -9100.3947            0     8644.654    24.928284    24.996293    23.008854    14337.155    8320.9024    9031.6423    8581.4172   -476.97367    887.26806    -230.8615   -6330.2114 
 7755000    254.03654   -9051.7737   -8083.2706   -9051.7737            0    8071.0146    25.073527    25.086346    22.868557    14384.395    7403.8563     8076.749    8732.4386    -485.8296    711.39301   -424.95509   -6390.1199 
 7756000    261.81624     -9060.56   -8062.3971     -9060.56            0     6480.422    24.931684    24.999588    23.233086    14480.761     8181.178     5907.896     5352.192   -121.30709    292.10652    302.28512   -6693.8159 
 7757000    256.59442   -9104.2259    -8125.971   -9104.2259            0    6978.3203    25.046086    25.030868    23.056689    14454.821    6870.0096    7005.0521     7059.899   -238.00959   -838.68312    1204.6691   -6654.8801 
 7758000    254.94786   -9102.2106   -8130.2331   -9102.2106            0    6565.5496    25.109474    24.967124     23.00812    14424.051    6697.3879    7126.8379     5872.423   -193.02351   -895.68722   -1424.5552   -6749.1041 
 7759000    266.98955   -9067.5986   -8049.7127   -9067.5986            0    7307.1006    25.152581    24.920635    23.021966     14430.59    6229.1603    8572.9036    7119.2379   -730.85772   -129.76031   -49.775166   -6511.8943 
 7760000    272.62062    -9121.972   -8082.6179    -9121.972            0     6848.771    25.048606    24.854374    23.141481    14407.132    6091.5041    8839.8617    5614.9472   -208.60483    507.20363    111.62998   -6643.6004 
 7761000    259.35706   -9100.8843   -8112.0969   -9100.8843            0    7654.4232    25.115618    24.907583    23.005631    14391.618     7155.341    8428.9594    7378.9691   -316.19367   -520.73297   -311.81696   -6505.5332 
 7762000    267.88626   -9084.8008   -8063.4962   -9084.8008            0    7009.9801    25.117604    24.937931    23.063957    14446.827    6465.4609    7993.0332     6571.446    129.98301    235.92331   -379.46278   -6586.5484 
 7763000    264.46717    -9084.855   -8076.5855    -9084.855            0    6693.8434    25.015924    25.053381    23.049849    14446.112    5834.5127    7434.2189    6812.7984   -656.46043    644.69077    492.96123   -6666.3151 
 7764000    247.09456   -9094.3974   -8152.3603   -9094.3974            0    6868.4783     25.11021    25.066839    22.920903    14427.187    6390.5719    6524.7113    7690.1517   -598.40555   -561.10962    793.20185   -6707.1932 
 7765000    263.68401    -9115.094   -8109.8103    -9115.094            0     7837.294    24.987074    24.922423    23.120699    14398.148    7865.1044    7740.0047    7906.7729   -226.09882    505.54431    280.15765   -6464.1179 
 7766000    258.57679   -9073.1073   -8087.2946   -9073.1073            0     8387.003    24.989881    24.892158    23.100961        14370    8869.4159    9551.9168    6739.6762   -390.26173    1093.5376    330.07368    -6329.616 
 7767000    261.60584   -9090.2693   -8092.9085   -9090.2693            0    7536.6421    25.127769    24.987169    22.917856    14389.476    6374.8848    8467.3433    7767.6983   -255.53782    311.37081    287.15231   -6511.3008 
 7768000    259.60672   -9122.3415   -8132.6023   -9122.3415            0    8070.6378     24.98117     24.96268     23.00519    14345.966    8345.9651    7701.2876    8164.6606   -783.85426   -28.968718   -588.42495   -6444.0538 
 7769000    257.77755   -9080.6181   -8097.8525   -9080.6181            0    9410.1925    24.779495    24.909746    23.188461    14313.099    10736.279    9120.3287    8373.9694    221.47585   -676.02115    983.03973   -6133.5514 
 7770000    257.14511   -9109.6906   -8129.3362   -9109.6906            0    8321.7008    24.962573    24.985253    23.012831    14353.016    8524.6076    7778.8478    8661.6468    -728.7889    566.96565   -688.60205   -6387.4044 
 7771000    266.09596   -9130.1705   -8115.6913   -9130.1705            0    7124.3353    25.068594    25.085651    22.887393    14393.012    6595.7507    6718.0892    8059.1662   -427.00532    -413.8957   -152.15032   -6620.2412 
 7772000    271.58022   -9112.1139   -8076.7262   -9112.1139            0     7350.586    24.940788    25.101395    23.010449    14405.659    7840.1166    7243.0435    6968.5979   -523.36902   -418.63265   -952.24028   -6532.4287 
 7773000    250.74922   -9108.3614    -8152.391   -9108.3614            0    8479.7355    24.875772    24.996148    23.068466    14343.937    8909.2063    9037.7538    7492.2462    74.453126   -40.855502      1467.65   -6378.5015 
 7774000    265.58577   -9045.0288   -8032.4947   -9045.0288            0    7861.8643    24.922896    25.078264    23.099883    14437.957    7021.4518    9341.3797    7222.7613   -1051.9327    33.421335   -735.78522   -6377.0786 
 7775000    262.99699   -9091.7969   -8089.1325   -9091.7969            0    6977.4459    25.006845    25.130631    22.940899    14416.928    7507.7718    5893.4606    7531.1053      51.4587    222.65988    -116.9145   -6622.0819 
 7776000    260.27192   -9067.9271   -8075.6519   -9067.9271            0    6586.0507    25.016339    25.018121    23.107822    14462.303    5800.9272    6972.1922    6985.0327   -393.41282    -714.3964    101.46499   -6686.5361 
 7777000     258.6668   -9082.2167   -8096.0609   -9082.2167            0    7457.6704     25.01312    25.052236    23.027814    14430.025    5925.2086     7955.485    8492.3176    46.606383   -740.00044    591.21133   -6526.6157 
 7778000    272.02053   -9151.4542   -8114.3879   -9151.4542            0    7096.4761    25.067375    25.041228    22.934383    14396.322    6905.3228    6504.6019    7879.5036    604.43326    -14.81704   -42.276836   -6624.4431 
 7779000    257.82722   -9111.9482   -8128.9933   -9111.9482            0    7608.6282    24.983715    24.973339    23.062218    14389.135    6508.1235    7864.8125    8452.9487     3.304984    387.12795    170.93416   -6532.3167 
 7780000    259.69406   -9046.9989   -8056.9267   -9046.9989            0    7966.0178    25.094556    24.874091    23.084776    14409.616     7410.063    7735.4019    8752.5884    167.27193   -1364.0926    334.97202   -6382.8723 
 7781000    270.53949   -9081.8035   -8050.3836   -9081.8035            0    7753.2208    25.036772    25.007736     23.01617    14410.723    8360.4943    6516.3529    8382.8152   -510.02668   -155.96915    113.12211   -6420.9232 
 7782000    264.69605   -9074.3116   -8065.1695   -9074.3116            0    9243.9244    24.972142    24.947532    22.972662    14311.815    8931.1207    8875.1639    9925.4885     -67.8049   -1098.7906    53.155597   -6135.7486 
 7783000    271.95564   -9116.6071   -8079.7882   -9116.6071            0    9258.6587    24.964518    24.936003    22.975132    14302.371    9831.2271    8978.8711    8965.8778    1052.4899    220.93586    114.69935    -6148.567 
 7784000    254.64475   -9123.4543   -8152.6324   -9123.4543            0    6973.2723    24.961632    24.939349    23.168824    14423.215    7225.2438    7129.9094    6564.6636   -90.123802   -739.29099    1370.2685   -6685.8199 
 7785000    255.85169   -9143.4882   -8168.0649   -9143.4882            0    7562.2596    25.065735    24.962102    22.970806    14372.683    6404.9138    8754.1798    7527.6852   -346.45529   -134.25294   -1010.2824   -6582.9333 
 7786000    263.98596   -9114.9678   -8108.5329   -9114.9678            0    8012.0072      25.1106    24.953714    22.934494    14370.816    8227.1675    7496.2318    8312.6222   -541.41631   -200.58082    1137.1137   -6429.3475 
 7787000      270.136   -9138.8149   -8108.9333   -9138.8149            0    7630.9898     24.91272    24.985016    23.078838      14365.3    8855.6485    7344.3642    6692.9567    910.15767    577.71632    114.50884   -6510.2167 
 7788000    270.73566   -9106.8612   -8074.6934   -9106.8612            0     8051.206    24.943415    25.129967    22.901688    14355.401    9205.4735    6869.5478    8078.5968    39.190691    175.14846   -183.28829   -6389.1026 
 7789000    250.46953   -9077.1561    -8122.252   -9077.1561            0    7994.4097    24.951418    25.053961    22.976242    14363.181    9663.6948    6530.5684     7788.966   -839.94155   -1619.5884    245.55182   -6447.6449 
 7790000    265.56397   -9128.7138   -8116.2629   -9128.7138            0    8591.8826    24.813515    25.019231     23.07952    14328.113     9497.243    7870.6603    8407.7447   -353.93289   -60.999705   -510.07319   -6320.8959 
 7791000    261.74697   -9138.5862   -8140.6874   -9138.5862            0    9929.2327    24.862895    25.007907    22.943519    14265.568    10055.115    9299.7217    10432.862    142.56475   -373.26041    323.06126   -6074.9237 
 7792000    267.12903   -9129.9593   -8111.5417   -9129.9593            0     7932.483    24.945362    25.114309    22.907925    14351.484    8552.4268    7348.3657    7896.6565     124.6618   -31.628994   -552.43462   -6451.2597 
 7793000    262.85279   -9083.5821   -8081.4674   -9083.5821            0    8523.6566    24.872339    24.985191    23.085335    14346.154    9698.7444    8678.7688    7193.4565   -703.45047    157.81312    -543.5022   -6298.1144 
 7794000    260.43074     -9100.79   -8107.9092     -9100.79            0    8936.0293     24.83428    24.970342    23.102785     14326.51    9182.6495    9078.2401    8547.1982   -456.85332    190.65945    458.70129   -6240.8381 
 7795000    246.87275    -9105.124   -8163.9325    -9105.124            0    8366.0076     24.93197    25.013932    22.986863    14335.679    8681.9454    8116.8422    8299.2353    368.87815   -202.41925    447.71243   -6414.8414 
 7796000    266.98328   -9061.2635   -8043.4014   -9061.2635            0    9696.3362    24.903044    25.152483    22.796104    14278.873    10084.816    8473.9952    10530.198    522.77615    1132.4643    423.09384   -6024.2101 
 7797000    260.05878   -9101.6635   -8110.2008   -9101.6635            0    9515.0046    24.835029    25.057772    22.952626     14283.66    9755.4036    8552.2044    10237.406    965.02098    -831.0826   -170.49876   -6128.1061 
 7798000    251.29383    -9067.158   -8109.1114    -9067.158            0    9311.6346    24.880458    25.040437     22.95155    14299.219      10840.3    8251.7473    8842.8562   -134.83489    241.42445    1259.9976   -6167.2683 
 7799000    269.93693    -9109.224   -8080.1013    -9109.224            0    7961.5272    24.892908    25.093529    22.989458    14360.386     8427.378    6743.8408    8713.3628    330.62087    1015.5373     265.9385   -6412.7068 
 7800000     272.9094   -9104.3222   -8063.8671   -9104.3222            0    8489.7039    24.779367    25.117389    22.989428    14308.459    8839.0815    7902.9251     8727.105   -131.71279    515.25654    -309.0038   -6292.2849 
 7801000    263.43929   -9099.2332   -8094.8825   -9099.2332            0    7933.4666    24.933593    25.007687    23.082655    14392.762    7966.2958    7892.6537    7941.4502    -309.0361    631.39217   -919.96681   -6429.6187 
 7802000    255.09836    -9079.883   -8107.3317    -9079.883            0     8100.917    24.959402    25.029289    23.002742    14370.183    7971.5092    8281.7482    8049.4937   -755.10532   -1036.8104    940.13376    -6409.587 
 7803000    257.86296   -9084.0094   -8100.9182   -9084.0094            0    9345.0979    24.981195     25.01768    22.887384    14303.963    9496.1845    8856.2062    9682.9031    345.23153   -995.49428   -745.11154   -6151.4501 
 7804000    265.33256   -9100.6881   -8089.1193   -9100.6881            0    7682.0209    25.008675     24.95392    23.049011    14384.069    7531.0474    7617.0989    7897.9165   -1544.5462    258.51718   -971.21002   -6477.6089 
 7805000    263.90969   -9071.8481    -8065.704   -9071.8481            0    9791.0057    24.954628    24.973511    22.908159    14276.472    9041.3262    10751.356     9580.335   -176.82111   -1384.5712   -984.53419   -6027.1413 
 7806000    259.48826   -9055.5467   -8066.2591   -9055.5467            0    9219.8071    24.911419    24.973488    23.070182    14352.538     9407.852     9394.449    8857.1203     298.4957    85.363608   -379.50225   -6136.3963 
 7807000    259.67279   -9098.8514   -8108.8603   -9098.8514            0    7406.8558    24.905359    25.096613    23.006894    14380.233    7910.3232    6279.2469    8030.9972    949.40581   -764.89622   -479.78838   -6555.4876 
 7808000    262.68963   -9125.8793   -8124.3866   -9125.8793            0    7687.5035    24.976788    25.024273    22.993431    14371.491      8022.43    6529.2222    8510.8583    894.20228    -1104.127     1063.837   -6513.1362 
 7809000    257.74729   -9083.2117   -8100.5615   -9083.2117            0    8558.1909    24.960112    25.013731    22.971261    14342.004    8605.3971    8142.7734    8926.4023   -543.12027   -745.31719   -312.94897    -6310.501 
 7810000    257.68727   -9127.5309   -8145.1095   -9127.5309            0    7857.2968    24.885608    25.081921    22.999103    14355.554    8426.0208    7159.8993    7985.9703    751.24906   -590.77121    261.21081   -6500.0978 
 7811000    251.96302   -9089.5661   -8128.9681   -9089.5661            0    6703.8723    24.861645    25.158287    23.092369    14443.732    7470.7992    6286.8815    6353.9361   -128.94136    275.04176   -314.87862   -6716.8175 
 7812000    260.75203   -9100.4517    -8106.346   -9100.4517            0    8256.4617    24.903704    25.032595    23.050267    14369.637    8466.2541    8165.7086    8137.4226   -308.72724   -655.72349   -30.597018   -6376.0689 
 7813000    268.33192   -9065.7264   -8042.7228   -9065.7264            0    9359.2251    24.965239     25.08885    22.864817    14321.358    9225.5259    8882.9961    9969.1533    -762.3132   -215.05341    342.58957   -6087.9333 
 7814000    268.84217   -9114.9921   -8090.0431   -9114.9921            0    7949.3829    25.006743     24.95332    23.029198    14370.248    7732.5448    8968.4784    7147.1254    1727.2993    816.39645   -237.14732   -6424.0486 
 7815000    251.41724   -9108.9539   -8150.4367   -9108.9539            0    6353.0034    25.064983    24.980027    23.087715    14455.771    6654.1546    6079.7771    6325.0785   -1025.9788    405.81067    13.270475     -6811.08 
 7816000     272.0331   -9062.6977   -8025.5834   -9062.6977            0    8063.1785    25.040364    25.003759    23.032552    14420.755    7637.8227     7895.249    8656.4638    321.11627   -804.17483    219.70067   -6329.8008 
 7817000    263.50078   -9154.2658   -8149.6807   -9154.2658            0    7562.9716    25.076398    24.986924    22.937362    14372.139    6193.6491    8142.8211    8352.4448   -618.62657    210.27921    1355.3976   -6564.4598 
 7818000    266.06839   -9146.3037   -8131.9296   -9146.3037            0    7659.7291     24.97548     25.08702    22.911954    14355.722    7577.8439    6527.9507    8873.3926   -698.56312   -436.39083    527.50794   -6528.2621 
 7819000    261.09613   -9120.8215    -8125.404   -9120.8215            0    8905.7935    24.901507    24.864668    23.088648    14295.745    9421.4368     8887.336    8408.6078   -346.51849   -1201.2033   -337.68572    -6268.646 
 7820000     257.8495   -9115.8743   -8132.8344   -9115.8743            0    8631.2249    24.908455    24.978146     23.03988    14334.654     9114.934     8542.833    8235.9078   -14.243128    -1101.314   -284.20682   -6328.4231 
 7821000    265.27724   -9111.1838    -8099.826   -9111.1838            0    7782.7694    25.098365    25.053895    22.862926    14376.477    6509.2932    7419.6577    9419.3574   -3.9403884   -767.28034   -603.90013   -6468.0425 
 7822000    271.66655   -9094.1044   -8058.3876   -9094.1044            0    8222.7579    24.890693    24.931578    23.171923    14379.667    9267.9939    8226.9977     7173.282    530.49827   -473.38331    12.262562    -6333.971 
 7823000    246.49762   -9119.0086   -8179.2473   -9119.0086            0    9016.3576    25.030096    24.941794    22.922974     14310.71    8677.6104    10048.613    8322.8491    651.20575   -97.933528    169.63418   -6297.4702 
 7824000    265.03113     -9088.75   -8078.3305     -9088.75            0    9460.5414    24.996097    24.993509    22.905396    14309.921    9203.7147    8867.3105    10310.599    300.51647   -166.74754     590.1051   -6103.9579 
 7825000    278.01567   -9119.6882   -8059.7657   -9119.6882            0    8959.6689    24.857877    24.910945    23.111806    14311.598    8837.1788    9090.6524    8951.1754   -274.54644   -1550.7201    973.52211   -6189.7038 
 7826000     266.5458   -9115.2967   -8099.1026   -9115.2967            0    8767.4282    24.943079    24.899723    23.054015     14318.29    8309.3358    9529.6131    8463.3356   -385.89296     467.7047   -1159.9736   -6268.3095 
 7827000     250.5073   -9095.9344   -8140.8863   -9095.9344            0    9654.9309    25.044285    24.988085    22.837601     14291.97    8870.5529    9419.4319    10674.808   -1151.7589   -1174.9643   -92.332523   -6128.4732 
 7828000    261.84639   -9057.3877   -8059.1099   -9057.3877            0    8763.6904    25.005704    24.894357    23.070324    14361.298    8111.7407    10312.383    7866.9475    60.491893   -560.61487    545.27778   -6223.6005 
 7829000    259.68446   -9114.6804   -8124.6448   -9114.6804            0    8619.1556    24.931415    25.018345    22.993526    14342.045    9804.0405    7976.1305     8077.296    411.22225    372.90217    657.98035   -6321.8277 
 7830000    264.00727   -9115.5164   -8109.0003   -9115.5164            0    7041.7183    24.905575    25.003408    23.154378    14418.793    7533.2016    7181.2761    6410.6772    -317.5726   -70.055521    1160.8612   -6628.2445 
 7831000    267.77312   -9094.7902   -8073.9169   -9094.7902            0    7140.1467    24.959215    25.033634    23.050082    14402.149    6909.5812    7173.9307    7336.9281    300.51726    173.50694    18.493712   -6574.1964 
 7832000    256.99747   -9092.1008   -8112.3092   -9092.1008            0    7620.2034    24.956626    25.040274    22.989407    14366.558    7532.7868    7196.9842    8130.8391   -338.91144    6.1572537   -1463.0551   -6515.7127 
 7833000    259.23417    -9140.782   -8152.4631    -9140.782            0    7571.9756    24.837033     25.00256    23.153631     14378.16    7553.2485    7988.0332    7174.6451    1235.8258    722.66964    54.590976   -6564.6902 
 7834000    264.02224   -9062.6892    -8056.116   -9062.6892            0    8280.2001    25.004858    25.115535    22.949444     14412.49    9049.7217    8577.2896    7213.5891    357.93318   -135.40263    54.802231   -6315.6893 
 7835000    258.94527    -9116.115   -8128.8975    -9116.115            0    6937.4139    25.031948    24.937797    23.117522     14430.92    6149.9758    8105.1003    6557.1655   -13.934915    140.93376   -296.45983   -6668.8482 
 7836000    264.87623   -9101.4552   -8091.6262   -9101.4552            0    7789.6835    24.929579    24.952707    23.121048     14382.69    8355.6768    8554.1465    6459.2272    1406.7124    144.57009    414.21243   -6457.6872 
 7837000    267.55761   -9124.1012   -8104.0496   -9124.1012            0    9608.8863     24.99673    25.012809    22.876323    14303.157    8489.7204     8769.704    11567.235    143.26741     818.6055   -239.24417    -6099.666 
 7838000    267.65058   -9074.9445   -8054.5384   -9074.9445            0    8570.0719    25.052453    24.964413    22.955258    14356.673    8114.0011     9413.724    8182.4907    794.29682    705.49416   -596.87497   -6260.1594 
 7839000    250.21333   -9115.7148   -8161.7875   -9115.7148            0    10375.692    24.836299    24.860453    23.115992    14272.776    12147.165    9883.6507    9096.2618    66.728677    209.34393     752.0238   -6002.0477 
 7840000    263.67728   -9092.0777   -8086.8196   -9092.0777            0    9240.2334    24.982688    24.968555    22.946342    14313.506    8719.4918    9301.6281    9699.5802    1380.1442    39.235884   -122.90987   -6157.9412 
 7841000    259.80944   -9120.6554   -8130.1433   -9120.6554            0    8412.8308     25.00723    24.879442    23.057971    14345.884    7822.2928    8551.8229    8864.3766   -30.156257   -502.94919    624.07313   -6370.0108 
 7842000    266.85599   -9116.3077    -8098.931   -9116.3077            0    8108.6312    25.132626    24.955104    22.870686    14344.204    5980.8402    8932.9158    9412.1375   -112.25534    303.82934    661.79862   -6402.6419 
 7843000    268.00927    -9115.485   -8093.7115    -9115.485            0    7314.7299    24.931884    25.015539    23.078453    14393.674    6998.2071     7841.553    7104.4295    492.91644    421.14394    1249.3951   -6558.2256 
 7844000    254.06821   -9081.6674   -8113.0436   -9081.6674            0     8102.777    24.843414    24.994699     23.19684    14404.163    9367.0193    7951.3164    6989.9952   -469.89717    508.82762    35.294287   -6410.8937 
 7845000    248.02703   -9116.1736   -8170.5815   -9116.1736            0    8138.8426    24.979204     25.04447     22.88903     14319.17    9471.9407    7886.5326    7058.0546    -125.5308   -601.76529   -94.343384   -6470.9437 
 7846000     256.0033   -9089.4375   -8113.4362   -9089.4375            0    7903.0238     24.91012    25.010007    23.064669    14369.341    10107.811    6607.9101    6993.3504    1579.9368    510.67565      408.939   -6457.2619 
 7847000    268.56264   -9113.8225   -8089.9393   -9113.8225            0     7734.049    25.018474     24.90891    23.088757    14388.519    8157.6465    8116.8247     6927.676   -265.39574    432.08376   -447.01398   -6467.0126 
 7848000    256.80823   -9153.4541    -8174.384   -9153.4541            0    6625.7724    25.053152    25.079454    22.962903    14428.037    6492.6843    6564.7771    6819.8558   -166.60883    -153.6149    152.81898   -6780.2015 
 7849000    260.69237   -9088.0122    -8094.134   -9088.0122            0    5447.5801    24.974895    25.154396    23.119567    14524.369    6537.7836    4024.2456    5780.7112    846.93666    110.46147    375.39442   -6940.2111 
 7850000    256.34563   -9126.8901   -8149.5837   -9126.8901            0    7531.6806    25.030427    24.981796    23.035905    14404.467    7070.7347    7798.7595    7725.5476   -497.60404    -686.1946   -6.1898268   -6567.3706 
 7851000    260.39137    -9110.784   -8118.0533    -9110.784            0    8509.3464    25.145831    24.890234    22.908419     14338.05    7220.1047    8776.1516    9531.7827   -922.85092   -636.60409    282.69466      -6338.7 
 7852000    265.90909   -9083.0505   -8069.2837   -9083.0505            0     8518.903    25.069396    24.882744    23.005566    14350.765    9189.6632     7977.162    8389.8837   -374.55179    392.51296    371.12321   -6286.3524 
 7853000    265.31992   -9105.5527   -8094.0322   -9105.5527            0    6924.0761    25.079999     24.86926    23.127212    14424.928    6878.5957    7462.1863    6431.4461    254.96988   -442.72181   -207.52225    -6637.395 
 7854000    264.23465   -9129.0582   -8121.6752   -9129.0582            0    6985.3815    25.051703    25.081069     22.94291     14415.57    6669.7997    6009.7338    8276.6109   -558.87776    327.90372   -123.37603   -6653.0945 
 7855000    265.75146   -9103.9297   -8090.7639   -9103.9297            0    6947.3652    24.910224    24.951655    23.208835    14425.482    7710.2002    7371.5755    5760.3198   -565.21738    620.88155   -201.10967   -6629.1713 
 7856000    255.05354   -9112.4437   -8140.0633   -9112.4437            0    8370.7578    24.940232    25.033951    22.988188    14352.734    8167.8788    9184.0992    7760.2953    1300.0934   -644.07672    473.77287   -6387.8971 
 7857000    265.51818   -9113.4162   -8101.1398   -9113.4162            0     7152.678    25.053809    25.142428    22.869105    14405.559    7334.3473    5614.6453    8509.0414   -10.716943    161.99503   -398.16009   -6598.4315 
 7858000     266.9212   -9120.6439   -8103.0186   -9120.6439            0    7874.4576    24.886406    25.001347    23.102229     14374.06    9089.6881    8564.9488    5968.7359   -929.20393    179.73953     949.1347   -6452.2887 
 7859000    268.19263   -9138.8651   -8116.3925   -9138.8651            0    7256.4632      24.9501    25.061406    23.010793    14388.295    8103.1676     6617.116    7049.1058    -489.4738    666.54942    930.06252    -6593.707 
 7860000    264.54963   -9140.9593   -8132.3755   -9140.9593            0    7298.1572     25.01635    25.001332    23.009067    14390.838    7663.1266    7377.5298     6853.815   -34.408455    -591.2351   -544.85279   -6600.6702 
 7861000    253.05997   -9070.5423   -8105.7623   -9070.5423            0    7672.1415    25.038479    25.017385     23.00107    14407.808    6639.0861    8183.9242    8193.4142    407.28202   -46.121379    234.82082   -6493.6681 
 7862000    259.50036   -9082.8079   -8093.4741   -9082.8079            0    7554.7063     25.02403    24.860784    23.175004    14417.564    7614.5164    8035.4846    7014.1178   -606.77496   -321.69425   -388.93062   -6504.9809 
 7863000    266.38453   -9124.1483    -8108.569   -9124.1483            0    7474.2983    25.012263    24.967729    22.991353    14358.086    7573.6625     7584.014    7265.2185    301.63573    77.824119   -91.578266   -6543.4661 
 7864000    274.94838   -9091.3033   -8043.0747   -9091.3033            0    8152.5459    25.103728    24.907068    22.958884    14355.278     6607.888    9257.2133    8592.5365    569.14039   -1059.3146   -114.62504    -6336.282 
 7865000    272.99954    -9087.104   -8046.3052    -9087.104            0    8774.3451     25.10969    24.798207    23.072192    14366.484    7740.9338    10129.812    8452.2895    132.93253    1034.7683   -401.02161   -6207.9006 
 7866000    264.62514   -9123.3786   -8114.5069   -9123.3786            0    8808.4567     24.96585    24.935109    22.965867    14296.853    7678.4781    9762.4205    8984.4715     261.5923    344.41634     709.7494   -6277.9002 
 7867000    264.42355   -9183.0658   -8174.9626   -9183.0658            0    8152.3768    24.961049    24.938506    23.007415    14321.915    8183.3888    7747.2467     8526.495   -436.85698   -177.91974    497.98882   -6472.1721 
 7868000    255.17962   -9140.5797   -8167.7186   -9140.5797            0    8436.6931    24.944791    24.977686    22.988024    14322.991    8140.0749    9483.7005    7686.3038   -293.90101    879.68294    115.62595   -6405.4104 
 7869000     264.0406   -9114.8892    -8108.246   -9114.8892            0    8176.2891    25.013989     24.99189     22.96591    14357.067     7445.124    7629.0217    9454.7217    145.29784   -509.40161    648.39267   -6396.2693 
 7870000    250.95305   -9076.7082   -8119.9607   -9076.7082            0    8391.5749    24.934929     24.94423     23.11203    14375.281    8444.4272    7923.5999    8806.6977   -363.05209    640.02221   -757.76855   -6360.6777 
 7871000    258.26157   -9107.0363   -8122.4254   -9107.0363            0    7974.3545     25.08692    24.989119    22.953139    14389.324    7290.0362    8199.8619    8433.1654    1134.9748   -744.81983    570.58469    -6448.979 
 7872000    255.51506   -9050.5925   -8076.4526   -9050.5925            0    7534.6388    25.088876    24.978666    23.027202     14430.84    6891.9016    7408.2921    8303.7227    126.95217    128.37813   -147.65815   -6490.7201 
 7873000    256.23463   -9121.9005   -8145.0172   -9121.9005            0    6506.6086    25.022192    24.995132    23.049295    14415.789    7490.8037    6332.0505    5696.9716   -427.72768   -1607.0837    337.09652    -6777.071 
 7874000    268.47516   -9103.4444   -8079.8946   -9103.4444            0    6845.4379    25.019398    24.983172    23.074979    14423.336    7461.4433    6292.0851    6782.7855   -544.36996   -571.83856   -553.00969   -6639.9597 
 7875000    262.16776   -9063.0979   -8063.5948   -9063.0979            0    8855.1051    24.943267    24.927996    23.138116    14386.949    8752.9087     9123.393    8689.0135   -60.375942   -543.54982    7.3462199   -6205.6265 
 7876000    266.72103   -9120.2468   -8103.3846   -9120.2468            0    6987.3706    25.029749    25.068847    22.893389    14364.845    6975.7882    7721.6169    6264.7068    376.71753   -58.238633     404.9449   -6639.5547 
 7877000    263.72328   -9078.5778   -8073.1443   -9078.5778            0    10162.256    24.992398    24.909084    22.911819    14263.472    9665.2377    10617.433    10204.098   -206.66996    125.72923     391.3363    -5959.211 
 7878000    263.63041   -9130.5933    -8125.514   -9130.5933            0    7758.3276    24.929956    24.936518    23.090393    14354.519    7657.7277    8032.9252    7584.3299   -258.04181    159.75977    428.92175   -6501.3397 
 7879000    260.46188   -9073.3345    -8080.335   -9073.3345            0    8140.4511    25.079229    24.995724    22.938138     14379.31    7716.7082    8397.8648    8306.7804   -260.97583   -1007.8911    612.14445   -6373.2214 
 7880000    254.06245   -9110.1206   -8141.5187   -9110.1206            0    8558.5247    25.065999    24.937532    22.930468    14333.472    8417.7125    7868.3712    9389.4906   -434.08736   -518.34317   -669.69994   -6352.4533 
 7881000    262.75701   -9147.1849   -8145.4353   -9147.1849            0    8544.6069    25.060129    24.803452    23.042502    14322.706    6757.3516    10531.451    8345.0184    307.98239    272.69514    297.46324   -6360.6209 
 7882000     260.0074   -9100.9732   -8109.7064   -9100.9732            0    6892.0389     25.01644    24.976674    23.107205    14438.016     6719.674    6894.6597     7061.783    296.55955   -501.04183   -969.16748   -6658.4935 
 7883000     252.3381    -9073.323    -8111.295    -9073.323            0    8110.9713    24.959369    25.009309     23.04233    14383.405    9174.8272     7522.086    7636.0008   -6.8459929   -1025.2094   -1135.7679   -6409.8793 
 7884000    259.82835   -9145.2376   -8154.6535   -9145.2376            0    6598.9756    25.077905    25.043132    22.958184    14418.412    6032.3663    6408.8585    7355.7019   -156.76105    -15.37466   -202.07934   -6767.0357 
 7885000    258.46468   -9154.8266   -8169.4414   -9154.8266            0    6905.5886    25.068014    24.918231    23.048196    14397.068     5920.215    8246.7047     6549.846   -269.51366    475.33754    784.83272   -6719.4993 
 7886000    256.04647   -9076.0964   -8099.9305   -9076.0964            0    7909.6857    24.973171    24.980581    23.081896     14399.51    6536.7305    8612.1921    8580.1344    203.33289   -256.19513    99.204558     -6438.88 
 7887000    260.66071    -9130.722   -8136.9645    -9130.722            0     6713.684    25.083154    25.029604    22.972119    14422.388    6100.9504    7058.4515      6981.65   -352.08358    782.41352    516.64079   -6724.8368 
 7888000    260.70349   -9098.0047    -8104.084   -9098.0047            0    7271.5168    24.994372    24.949045    23.111589    14412.057    6698.6255    7006.2386    8109.6864   -567.36853   -1140.1095    -203.8281   -6575.7198 
 7889000    255.86258   -9131.3583   -8155.8935   -9131.3583            0    7402.0155     25.07971    24.936522    22.972085    14366.759    6670.0407    7452.4741    8083.5316    416.12275   -84.260661    95.921063   -6604.9902 
 7890000    267.88358   -9116.7652   -8095.4708   -9116.7652            0     8344.282    25.004328    24.914832    23.070343    14372.331    7190.4667     9242.051    8600.3284   -314.15843   -313.25094    330.02487   -6346.4617 
 7891000    254.14146   -9107.3105   -8138.4073   -9107.3105            0    8369.7167    25.023103    24.889092    23.027326    14341.472    7813.9223    9210.8748     8084.353    487.50572    29.894256   -845.70312   -6387.8337 
 7892000     265.6767   -9153.2671   -8140.3864   -9153.2671            0    8526.4596    25.025864     24.88277    22.980599    14310.313    7372.0034    9688.6153    8518.7601    425.49251     808.8504   -442.72596   -6360.9037 
 7893000    260.35966   -9087.7037   -8095.0939   -9087.7037            0    9722.0644    25.006776    24.914664    22.962219    14306.276    9125.4337    9640.1464    10400.613   -776.23001    389.66429    315.53153   -6066.6595 
 7894000    263.10855   -9110.8941   -8107.8043   -9110.8941            0    8235.2265    24.964304    24.967693    22.999206    14335.429    8343.9199    9179.9222    7181.8375    38.620268    390.71961    317.90563   -6386.0858 
 7895000    271.69052   -9072.9951   -8037.1869   -9072.9951            0    8674.0172    25.043283    25.008259    22.927715    14359.374    8596.0931    9170.7295     8255.229   -12.673542    -657.6923    440.13277   -6220.7026 
 7896000    258.78574   -9119.8981   -8133.2889   -9119.8981            0    7210.7993    25.021983    25.081964    22.976688     14420.18    7227.1556    6601.1276    7804.1148   -528.04751   -228.14028    594.86675   -6616.8323 
 7897000    257.38764   -9093.8772   -8112.5981   -9093.8772            0    8398.3254     24.90094     24.98946    23.088342    14366.976    8085.2022    8424.5138    8685.2601    95.976826     426.8628   -159.26822   -6352.9171 
 7898000    258.72395   -9136.2657   -8149.8921   -9136.2657            0    7926.7256    24.957888    24.990762    22.988692     14338.43     8441.864    7511.0202    7827.2928   -178.39958    641.15039    90.431518   -6492.3242 
 7899000    269.42841   -9118.9993   -8091.8153   -9118.9993            0    8635.7008    24.971644    24.931845    23.022782    14333.734    9573.8321    8226.8231    8106.4474   -1156.5054    -602.2205   -255.45493   -6286.5841 
 7900000    266.98975   -9143.6743   -8125.7876   -9143.6743            0    8898.1567      24.8979    24.912085    23.072801    14311.103    9017.8089    9178.9665    8497.6948    409.51989   -627.34751    512.08404   -6268.6287 
 7901000    263.34507   -9086.8132   -8082.8217   -9086.8132            0    9435.0499    24.934972    24.934152    23.033926    14320.938     9221.154    9669.8678     9414.128    584.86097    690.05057    896.73062   -6112.2531 
 7902000    253.74924   -9103.2652   -8135.8574   -9103.2652            0     7665.362    25.016478     25.00975    22.973495    14373.502    7465.2453    7477.4689    8053.3719    474.23156   -161.24197    596.51045   -6529.0229 
 7903000     259.3135   -9081.9215   -8093.3002   -9081.9215            0     6905.695    25.052381    24.910639    23.118977    14427.879    6897.9219    7614.9856    6204.1775    -617.0391    7.9325315   -1.7513065   -6640.2328 
 7904000    257.66228   -9128.9808   -8146.6547   -9128.9808            0    6735.5096     25.14212    24.962953    22.966467    14414.251    5390.5354     7649.823    7166.1704   -565.11403   -1105.9083    1042.9127   -6730.7357 
 7905000    262.61416   -9111.0771   -8109.8721   -9111.0771            0    7528.4564    25.073731    24.983884    22.974976    14392.426    6964.4666     6635.818    8985.0847   -314.38518    773.82502   -332.10809   -6529.6584 
 7906000    252.59776   -9158.1977   -8195.1798   -9158.1977            0    8533.2212    24.908685     24.79986    23.141942    14295.516    8518.5698    9717.3375    7363.7562   -97.726341   -345.67362    648.94694   -6416.1275 
 7907000    261.14398   -9109.0482   -8113.4482   -9109.0482            0    7738.9557    25.029279    25.010303    22.924691    14350.624    7172.1059    8498.8792     7545.882   -885.71212    642.93534    -57.05584   -6493.7689 
 7908000    256.18614   -9073.8544    -8097.156   -9073.8544            0    9011.4196    24.978339    25.005384    22.967668    14345.444     8333.885    9804.1236    8896.2502   -780.41861   -1299.3987   -701.51809   -6211.8446 
 7909000    265.63926   -9095.7294   -8082.9914   -9095.7294            0    7787.9007    24.889548    24.963811    23.150416    14384.232    8142.5454    8500.8064    6720.3503    873.40973   -1760.1125    1048.2829   -6449.2513 
 7910000    257.26074   -9075.7282    -8094.933   -9075.7282            0    9575.1624    25.095672    24.984195    22.801336    14296.328      8408.01     9271.733    11045.744    170.62255   -688.84452    173.80866   -6098.5377 
 7911000    261.90217   -9159.8358   -8161.3453   -9159.8358            0    8281.2229    24.934343    24.968059    22.993664    14314.985    7826.4348    8254.0999    8763.1342    -765.0687   -541.79485    -456.9173   -6432.4795 
 7912000    259.49056   -9101.3311   -8112.0347   -9101.3311            0    8146.2461      24.9132    25.041079    22.990273    14342.561    7962.4856    7780.3646    8695.8881    -1003.811   -357.68791    298.37433   -6408.0719 
 7913000    257.91184   -9072.5621   -8089.2845   -9072.5621            0    8821.6888    25.034694     25.10826    22.856861    14367.311    7599.7446    8444.8929    10420.429   -337.73027   -674.35684    -862.3587   -6240.8541 
 7914000    257.66817   -9121.3736    -8139.025   -9121.3736            0    8521.0703    24.905786    24.948568    23.069557    14334.585     8898.224    8103.1365    8561.8505    73.065585   -313.78592    -166.7991   -6357.6508 
 7915000    269.21953   -9123.3098   -8096.9222   -9123.3098            0    8730.6052     24.87393     25.02745    22.994649    14314.883    8375.7637     8633.078    9182.9738    425.78354    911.51426    334.73467   -6274.2522 
 7916000    271.35972   -9099.6582   -8065.1112   -9099.6582            0    9362.7728    24.896077    25.004924    22.969026    14298.781    8621.8893    9989.6053    9476.8238    1175.3558    387.88435    375.79083   -6112.6635 
 7917000    248.22892   -9122.3521   -8175.9902   -9122.3521            0    6693.4018     24.97434    25.066214    23.015661    14408.083    6730.1921    5712.0834      7637.93     388.2157    -14.38223    562.30794    -6769.525 
 7918000    267.47052   -9075.0331   -8055.3135   -9075.0331            0    7669.9427    24.863041     25.09055    23.109726     14416.48    8295.0389    6677.5141     8037.275    582.49204   -1346.9095    552.25121   -6442.7113 
 7919000    263.07873   -9114.0949   -8111.1188   -9114.0949            0    7798.5225    24.979526    25.050725     22.97038    14373.836    7541.8079    7267.4592    8586.3005   -346.82239   -143.17414    -507.5417   -6476.3328 
 7920000    254.65527   -9072.2661   -8101.4041   -9072.2661            0    9969.5779    24.850263    25.096378    22.887387    14273.755    10889.976    8920.9545    10097.803    225.48511    861.43923     -289.588   -6026.0562 
 7921000     260.0382   -9112.9403   -8121.5561   -9112.9403            0    8290.7193    24.896831    24.920816     23.10886    14337.877    8949.2475     8595.089    7327.8212   -358.77219   -262.11192    -32.62875   -6387.9399 
 7922000    260.54148   -9113.8221   -8120.5191   -9113.8221            0    8239.0837    25.072053    25.053913    22.848948    14352.636    7285.3243    8657.0271    8774.8996   -704.44307   -1181.5701   -936.32869   -6395.9267 
 7923000    259.21563   -9088.4561   -8100.2079   -9088.4561            0    10121.417     24.92312    25.048339    22.831874    14253.546    10321.778    9348.9636    10693.511   -117.89888    534.17778    618.02079    -5996.235 
 7924000    258.31605   -9113.0168   -8128.1982   -9113.0168            0    8846.3384    24.912128    24.989957    23.032213    14338.774    7794.9655    8561.5548    10182.495   -407.92686   -625.49518    172.99982   -6278.2845 
 7925000    260.72269    -9112.882   -8118.8882    -9112.882            0    8094.1171     25.02856    25.082419    22.827752    14330.734    6998.1943    8546.1307    8738.0262   -1117.8808    330.58896   -96.102726   -6427.2254 
 7926000     257.6588   -9114.6286   -8132.3158   -9114.6286            0    8919.8016    24.902532    24.952531    23.047109     14321.04    8690.7893    9454.8962    8613.7193   -943.43209   -185.65712    756.56755   -6269.3467 
 7927000    264.22082   -9104.6861   -8097.3558   -9104.6861            0    7886.0842    24.919514    24.967314    23.124702    14387.573    8995.7261    7698.0778    6964.4487    -97.70802    169.92049    830.42487   -6442.6346 
 7928000    254.30987    -9087.811   -8118.2658    -9087.811            0    7477.3829    25.067976    25.099346     22.90243    14409.975    8215.6959    5645.0204    8571.4323     1085.676   -598.30962    1161.4035   -6546.8586 
 7929000    261.35281   -9125.9505   -8129.5544   -9125.9505            0    6096.4706    25.077595    25.020182    23.043353     14458.46     4637.389    6929.8049    6722.2178   -728.28845    597.90444    159.58003   -6844.0416 
 7930000    255.97991   -9111.8113   -8135.8992   -9111.8113            0    7444.0356    24.935247    24.984545    23.071132    14373.218    7604.2436    7115.8408    7612.0223    346.99935     880.1574    168.93894   -6575.4906 
 7931000    263.33344   -9116.3047   -8112.3575   -9116.3047            0    8913.0121    24.876481    25.027385     23.03526    14341.598    9495.0883    8789.7914    8454.1565    282.24171    -81.25791    1005.0218   -6248.1343 
 7932000    269.41452   -9092.4812   -8065.3502   -9092.4812            0    8288.6537    24.881466    25.019943     23.05952    14355.309    9256.7225    8009.2423    7599.9962    185.74131   -724.96823   -382.18759   -6330.0587 
 7933000    261.04675   -9102.9301   -8107.7008   -9102.9301            0    8451.5704    24.933436    24.994154    23.002128    14334.699    9243.0706    8251.2242    7860.4164    167.53726    716.33857   -690.94228   -6340.8418 
 7934000    256.94528    -9070.646   -8091.0534    -9070.646            0    9825.8781    24.884507    24.967666    23.017766    14301.123    11521.898    9124.6407    8831.0958   -382.32643    1232.1377    -811.3949   -6041.6974 
 7935000    269.18536   -9066.0683   -8039.8109   -9066.0683            0    9768.7008    24.967515    25.064283    22.844594    14295.985     8862.247    9886.5561    10557.299   -251.20855     477.9075   -1018.3148   -6003.1123 
 7936000    271.53219   -9102.5404   -8067.3358   -9102.5404            0    8093.0196    24.958376    25.017189    23.019156    14372.894    8560.1844    7409.5893    8309.2849   -452.79933   -736.06597    677.30399   -6370.9263 
 7937000    254.51991   -9143.5428   -8173.1968   -9143.5428            0     7623.542    24.967795    25.002406    23.061387    14396.184    8029.1448    6695.3253     8146.156    125.72286   -388.38814   -1388.8914   -6572.6069 
 7938000     262.3834    -9088.586   -8088.2608    -9088.586            0    6588.6501    25.001078    25.159178    22.991841    14462.019    6382.6286    5547.1292    7836.1924   -960.06593    264.67324   -304.18448   -6698.6242 
 7939000    254.94405   -9152.6614   -8180.6984   -9152.6614            0    7084.3421    24.887242     25.07757     23.04329    14381.584    8534.2869    6488.6676    6230.0719    135.04508    -604.7491    371.12491   -6694.8239 
 7940000    262.59642   -9061.1914   -8060.0541   -9061.1914            0    8177.7232    24.892044    25.072696    23.078898    14403.786    9178.9045     8115.872    7238.3933    713.66394   -366.14325    1055.3846   -6342.2052 
 7941000     261.3115   -9104.7134   -8108.4748   -9104.7134            0    7406.6577    24.897611    25.093187    23.033596    14390.479    7409.4102    7480.7694    7329.7934   -582.40856   -124.57084    254.77506   -6554.0367 
 7942000    265.46369   -9089.9835   -8077.9148   -9089.9835            0    8297.0632    24.941384    25.034207    22.969005    14341.566    7948.4384    7922.5379    9020.2134   -28.721124    664.07216   -1115.1897   -6342.5257 
 7943000    262.72696   -9112.6942   -8111.0592   -9112.6942            0    8387.6368    24.840233    25.063846     23.02322    14334.068    9372.0405    7799.9308    7990.9392   -430.84182   -170.58371    67.690254   -6357.6432 
 7944000    253.92273   -9084.2293   -8116.1601   -9084.2293            0    8292.5953    24.899773    25.085134    22.976088     14351.19    8907.8134    7341.6183    8628.3542   -264.57408    520.78117   -772.93509   -6380.5416 
 7945000    264.36842   -9107.8193   -8099.9263   -9107.8193            0    8779.6614    24.861529    24.877083    23.173028    14332.108    9777.3943    9575.2916    6986.2984   -99.138958   -474.59059    664.45981   -6264.8094 
 7946000    263.95928   -9084.1903   -8077.8571   -9084.1903            0    8820.3162    24.924822    25.053301      22.9842    14352.462     9020.953    7915.6022    9524.3935   -316.08471   -1202.4387    489.86774   -6231.6244 
 7947000    251.61946   -9068.4677   -8109.1796   -9068.4677            0    7886.7402    24.948031    25.085563    23.021548      14407.7    8870.8918    6785.1612    8004.1675    193.00955    972.27192   -68.985571   -6452.0058 
 7948000    261.13125    -9083.854   -8088.3026    -9083.854            0    7550.0831      24.9305    25.057443    23.044899    14396.023    9553.2414    7104.4526    5992.5553   -366.21237   -29.442628    271.89548   -6503.1534 
 7949000    261.82042   -9064.6155   -8066.4366   -9064.6155            0    8545.8423    24.840183    25.124317    23.035164    14376.076    9042.2824     7778.004    8817.2405    832.41593   -275.04557    69.385984   -6274.7126 
 7950000    262.28587   -9103.0994    -8103.146   -9103.0994            0    8410.7706    24.904792    25.045204    23.020387    14358.865     9952.217    7765.0508    7515.0442   -17.942055   -1055.6445    1113.2471   -6341.8523 
 7951000    268.22622   -9082.1425   -8059.5418   -9082.1425            0    10852.595     24.86761    25.036658    22.873853    14241.303     11822.45    9905.3818    10829.954   -364.79173   -402.53535     -249.895   -5805.5142 
 7952000    253.75034   -9085.7826   -8118.3706   -9085.7826            0    9376.9067    24.873792    25.044262    22.958113    14301.659    9634.4367    8793.7771    9702.5064     452.2134    794.40952     254.2348   -6162.5821 
 7953000    253.72521   -9127.9593   -8160.6431   -9127.9593            0    8611.9426    24.816351    24.985517    23.107676      14327.9     10221.44    7919.0517    7695.3358    181.96352   -76.510361     87.32348   -6361.1112 
 7954000    268.76963   -9122.8789   -8098.2065   -9122.8789            0    7293.9685    24.910358    25.031721    23.068131    14384.113    8219.1059    7729.0561    5933.7436    1177.6734   -753.76548    261.18896   -6568.0958 
 7955000    264.95683   -9149.2775   -8139.1412   -9149.2775            0    8471.7868    24.985182    24.996817    22.901487    14303.124    8510.1762    7764.4605    9140.7237    519.60223    744.01869    19.658528    -6371.957 
 7956000    259.47627   -9187.6572   -8198.4153   -9187.6572            0    8024.2119    24.976977    25.026277    22.908323    14319.552    7394.1643    7875.4352    8803.0363    416.14708   -22.919499    718.59289   -6522.6712 
 7957000    258.30424   -9088.3314   -8103.5578   -9088.3314            0    8820.2391     24.89186    24.934534    23.100932    14337.985    8813.3907    9065.4251    8581.9014   -500.84523   -177.39756   -597.67838   -6259.2034 
 7958000    256.57932    -9091.259   -8113.0616    -9091.259            0    8131.6747    24.949623    24.887541    23.129497    14361.909    8216.5484    8469.3839    7709.0918    373.89168    701.70659    361.58125   -6409.8521 
 7959000    265.55855   -9089.9445   -8077.5142   -9089.9445            0    7928.6012    25.055512    25.009683     22.93991    14374.846    6987.4328    7600.2719     9198.099     267.4424   -128.54087    831.71356   -6415.3434 
 7960000    256.43097   -9065.1649   -8087.5331   -9065.1649            0    8694.2139    24.873412    25.045248    23.064166     14368.07    9489.6579    8279.0214    8313.9626    622.39779   -1220.6114   -356.19411   -6265.7165 
 7961000    267.32025   -9105.6122   -8086.4655   -9105.6122            0    8657.9276    24.865328    24.961496    23.122039     14351.29    9635.5976       8275.7    8062.4853    1076.7468    66.437782    206.07259   -6274.3713 
 7962000    260.77921   -9112.2492   -8118.0399   -9112.2492            0    8260.5617    25.017078     25.04735    22.898782     14348.64    8197.6599    7759.0718    8824.9534    -578.1465    169.86312    1079.7007   -6389.4331 
 7963000    268.29109   -9144.0648   -8121.2168   -9144.0648            0    8415.9858    24.980277    24.932194    23.004453    14327.475    8790.2284    8152.7572    8304.9717    706.54756     657.2565    1345.1912   -6362.6837 
 7964000    258.52361    -9074.785   -8089.1751    -9074.785            0    8199.9612    25.013123     24.80888    23.149445    14365.332    8211.8008    9586.8888    6801.1941    1221.5509    343.66278    1257.5199   -6371.2534 
 7965000    264.61397   -9132.8254   -8123.9963   -9132.8254            0    8947.7698    25.065864    24.868559    22.929384    14293.075    8058.8356    10454.401    8330.0723   -941.90104   -84.262138    901.86749   -6258.8351 
 7966000    258.96095   -9134.3037   -8147.0264   -9134.3037            0    8739.6836     24.94017    24.922904    23.023438    14310.942     9290.334    7967.1112    8961.6057    -272.9225   -656.07733     524.5244   -6322.9635 
 7967000    260.77044   -9078.3983   -8084.2225   -9078.3983            0    8596.2848    24.958676    24.869749    23.096421    14336.318    7915.9556    9336.7016    8536.1971   -671.13389   -953.49813    24.466248   -6286.9071 
 7968000    259.97491   -9092.2023   -8101.0593   -9092.2023            0    7829.4437    25.010925    24.994587    22.982448    14367.195    7720.5375    7666.2047     8101.589    571.60031    -188.6269    246.99386   -6460.5497 
 7969000    248.37239   -9100.2921   -8153.3833   -9100.2921            0    10128.923    25.029202    24.804746    23.027458    14296.436    10635.394    9731.3771    10019.998    672.87584    1153.7343    -566.2616   -6041.5145 
 7970000     262.2428   -9123.4004   -8123.6113   -9123.4004            0     7531.078    25.024036    24.978937    22.993593    14372.693    7097.5435    7716.8061    7778.8844    891.97221    1213.6441    325.22707   -6545.0146 
 7971000    264.70309   -9124.9416   -8115.7727   -9124.9416            0    7642.8794    25.108616    25.010488    22.907492    14385.418    7475.6083    7510.6625    7942.3674    1126.1568   -1062.5807   -5.9817656   -6512.3228 
 7972000    253.14691   -9097.5914   -8132.4799   -9097.5914            0    9762.8036    24.884123    24.889306    23.064283     14284.83    9437.5047    10541.738    9309.1686   -822.90486    -170.9448    48.925422    -6098.599 
 7973000    260.48099   -9107.1311   -8114.0588   -9107.1311            0    7086.4316    25.058651    25.030232    22.950196     14394.91     6423.716    6874.9423    7960.6364   -484.33929    379.87119   -692.68115   -6626.3688 
 7974000    265.57084   -9049.9681   -8037.4909   -9049.9681            0    9560.6415    24.941728    24.929509    23.038649    14325.087    10076.275    9960.1682    8645.4819   -696.64446   -341.56535   -246.71062   -6040.1132 
 7975000    257.12009   -9111.5869   -8131.3279   -9111.5869            0    7977.3521    24.929601    24.879371    23.201334    14390.228    8490.3152    9016.3831    6425.3579   -578.12681   -375.45415   -902.73935   -6457.1472 
 7976000    258.86338    -9095.413   -8108.5078    -9095.413            0    8822.3433    25.060544    24.965122    22.912432    14334.923    7963.1326    8651.6492    9852.2482   -372.51312    -59.29249  0.073567201   -6264.1073 
 7977000    261.75651   -9085.2851   -8087.3499   -9085.2851            0    6859.4683    25.078136    25.026107    23.020859    14448.078    7295.5591      7097.97    6184.8758    8.4027558    491.01981    702.52609   -6641.9887 
 7978000    259.53917   -9078.9268   -8089.4451   -9078.9268            0    7395.2155     25.03976    24.944008    23.117105    14438.758    5692.4831    7916.0924    8577.0711   -389.25848   -642.00463    1132.9157   -6532.2014 
 7979000    263.07004   -9118.5736   -8115.6306   -9118.5736            0    7693.9872    25.102464    24.880736    23.037625    14388.558     6646.367    9215.0641    7220.5305    315.95368    -552.5146     781.8132   -6501.1061 
 7980000    262.12729   -9087.1682   -8087.8194   -9087.1682            0    7692.2113    25.107198    25.038891    22.888204    14388.816    8094.5049    6598.3908    8383.7381    928.84288   -529.27082   -1784.9441   -6473.6387 
 7981000    273.54096   -9120.5788   -8077.7159   -9120.5788            0    6197.8678    24.915294    24.990701    23.215428    14455.101    7090.9978    6166.6614    5335.9443   -1019.7938    13.783488    29.125672   -6771.1259 
 7982000    253.60288   -9068.5894   -8101.7396   -9068.5894            0    8261.4156    25.029257    24.900931     23.06918    14377.908    6893.3082    9911.0088    7979.9297    -358.0764    695.95249   -309.85652   -6369.4278 
 7983000    261.99918   -9066.6262   -8067.7658   -9066.6262            0    8680.0267    25.037164    24.928194    22.979116    14341.985    8503.1266    8672.6513    8864.3023   -87.930855   -1071.0406    582.03328   -6252.2242 
 7984000    261.56636   -9069.2449   -8072.0346   -9069.2449            0    8258.2926    25.042662    24.912958    23.063822    14389.214    8190.4324    9337.6703    7246.7752   -348.01882    418.58428   -16.309612   -6339.0161 
 7985000    254.39667   -9115.4913   -8145.6152   -9115.4913            0    7748.9857      25.0254    25.054159    22.948181    14388.288    7595.5188    7160.3749    8491.0635    622.10901    388.71666   -178.09978   -6519.5803 
 7986000    264.13817   -9104.3284   -8097.3132   -9104.3284            0    8420.4746    24.927486    24.999668    23.018305    14344.521    9898.2258    7805.9243    7557.2738    296.16797    900.57595    1361.3361   -6335.7488 
 7987000    267.77803   -9151.1872   -8130.2952   -9151.1872            0    8515.3663    24.941191    24.906066    23.041011    14312.775    8698.9362    8159.6571    8687.5057    8.2716723   -420.13429    764.94707    -6352.822 
 7988000    266.64956   -9077.9592   -8061.3695   -9077.9592            0    7750.7918    25.004504    25.061892    22.955335    14385.194    7363.0861    7176.2084    8713.0808    126.23764    94.939463   -696.08794   -6435.3053 
 7989000    258.05911   -9086.9931   -8103.1541   -9086.9931            0    8001.4479    25.070184    24.958964    22.967957    14371.644     6400.954    9218.8213    8384.5684   -808.57453   -797.43801   -309.22677   -6426.0852 
 7990000    272.25833   -9107.8821   -8069.9092   -9107.8821            0     8165.614    24.973388    24.896696    23.113729    14371.073    7463.6593    9175.2349    7857.9478   -985.62592   -767.22764    259.18027   -6358.4997 
 7991000    262.85721   -9102.6926    -8100.561   -9102.6926            0    7303.1011    25.066766    25.036601    22.944737     14399.81    6362.7796    6176.1503    9370.3733   -728.20735    1047.3024   -464.10228   -6566.8626 
 7992000     263.1999   -9074.6856   -8071.2476   -9074.6856            0    9199.6319    24.946276    24.988381    23.000185    14337.557    9093.2794    9345.5243    9160.0919    318.06528   -483.39605   -99.985867   -6147.6178 
 7993000    259.81593    -9105.198   -8114.6612    -9105.198            0    7162.4908    25.003889    24.973139    23.093116    14419.933    7803.9737    6563.5629    7119.9359   -478.38805    1440.7803   -510.66729   -6608.3899 
 7994000    258.58706   -9116.2183   -8130.3665   -9116.2183            0    7796.1617     25.05632    25.006393    22.937496    14371.905    7522.2799    8417.7436    7448.4616    632.40621    241.76959    35.502338    -6496.295 
 7995000    270.21241   -9122.7723   -8092.5994   -9122.7723            0     8159.963    25.011333    24.989742    22.974628    14359.757    7831.2453    8907.7695    7740.8742   -667.83456    212.20253    53.816372    -6383.721 
 7996000    256.87032   -9104.0773   -8124.7706   -9104.0773            0     8256.144    25.050386    24.874992    23.059926    14369.289    7281.8193    8668.5108     8818.102    359.12911    8.3480545    -424.4324   -6394.6019 
 7997000    273.48888   -9100.8808   -8058.2165   -9100.8808            0    7634.9366    25.123902    24.966423    22.922806    14378.421    6569.3302    7568.3394    8767.1402   -679.54453   -1012.6903    1006.4293   -6457.2121 
 7998000    253.35592   -9118.7814   -8152.8731   -9118.7814            0    8293.4656    24.985681    24.911187    23.079899     14365.46     8170.696    9000.9479    7708.7529   -200.64494    -824.6669    585.47537   -6415.3465 
 7999000    254.84332   -9128.4059    -8156.827   -9128.4059            0     8852.937      24.9369    24.975704    22.950857    14294.175    9727.8218    8181.9377    8649.0514   -902.72557    309.67487   -763.07115   -6311.2916 
 8000000    268.90834   -9086.6118   -8061.4105   -9086.6118            0    9468.3982    24.963281    24.968082    22.946358    14302.126    9366.6923    8338.0869    10700.415   -21.120582    469.13757    1066.8576   -6086.4746 
Loop time of 518.593 on 64 procs for 250000 steps with 1920 atoms

Performance: 83.302 ns/day, 0.288 hours/ns, 482.074 timesteps/s
193.4% CPU use with 32 MPI tasks x 2 OpenMP threads

MPI task timing breakdown:
Section |  min time  |  avg time  |  max time  |%varavg| %total
---------------------------------------------------------------
Pair    | 69.591     | 74.512     | 83.022     |  31.5 | 14.37
Bond    | 0.54447    | 0.92523    | 1.4591     |  19.6 |  0.18
Kspace  | 232.42     | 240.25     | 246.86     |  21.0 | 46.33
Neigh   | 4.7735     | 5.2549     | 5.6289     |   8.2 |  1.01
Comm    | 83.716     | 87.188     | 91.816     |  23.7 | 16.81
Output  | 0.4947     | 0.495      | 0.49656    |   0.0 |  0.10
Modify  | 86.514     | 91.181     | 96.196     |  26.2 | 17.58
Other   |            | 18.79      |            |       |  3.62

Nlocal:        60.0000 ave          64 max          55 min
Histogram: 1 0 2 3 8 5 6 3 3 1
Nghost:        3370.12 ave        3411 max        3343 min
Histogram: 4 4 6 3 2 5 2 3 2 1
Neighs:        21234.0 ave       22388 max       19028 min
Histogram: 1 0 1 1 5 5 5 4 4 6

Total # of neighbors = 679488
Ave neighs/atom = 353.90000
Ave special neighs/atom = 2.0000000
Neighbor list builds = 11094
Dangerous builds = 0

unfix		3
unfix		2
unfix		1

write_data	data.final.${pid}
write_data	data.final.0
System init for write_data ...
PPPM initialization ...
  extracting TIP4P info from pair style
  using 12-bit tables for long-range coulomb (../kspace.cpp:340)
  G vector (1/distance) = 0.37440351
  grid = 30 30 30
  stencil order = 5
  estimated absolute RMS force accuracy = 0.0032787421
  estimated relative force accuracy = 9.8738345e-06
  using double precision FFTW3
  3d grid and FFT values/proc = 5400 960
Last active /omp style is kspace_style pppm/tip4p/omp
WARNING: Not all mixed pair coeffs generated from mixing. Use write_data with 'pair ij' option to store all pair coeffs. (../write_data.cpp:312)

write_restart   restart.lmp.${pid}
write_restart   restart.lmp.0
System init for write_restart ...
PPPM initialization ...
  extracting TIP4P info from pair style
  using 12-bit tables for long-range coulomb (../kspace.cpp:340)
  G vector (1/distance) = 0.37440351
  grid = 30 30 30
  stencil order = 5
  estimated absolute RMS force accuracy = 0.0032787421
  estimated relative force accuracy = 9.8738345e-06
  using double precision FFTW3
  3d grid and FFT values/proc = 5400 960
Last active /omp style is kspace_style pppm/tip4p/omp
Total wall time: 0:08:38
