LAMMPS (30 Jul 2021)
  using 1 OpenMP thread(s) per MPI task
package omp 0
using multi-threaded neighbor list subroutines
echo both

include		in.partitions
variable        pid world 0
include		in.temp
variable        temperature equal 249.70
variable	tempDamp equal 100.0
include		in.pressure
variable        pressure equal 6750.0
variable        pressureDamp equal 1000.0 # This is 1 ps
include		in.seed
variable        seed world 745823

units		real
atom_style	full
box tilt large
read_restart	restart.lmp.${pid}
read_restart	restart.lmp.0
Reading restart file ...
  restart file = 30 Jul 2021, LAMMPS = 30 Jul 2021
  restoring atom style full from restart
  triclinic box = (-10.776414 -9.2018282 0.082281911) to (12.756414 12.191826 21.777717) with tilt (-8.9237085 1.7199339 2.8073202)
  4 by 4 by 4 MPI processor grid
  restoring pair style lj/cut/tip4p/long/omp from restart
  restoring bond style harmonic/omp from restart
  restoring angle style harmonic/omp from restart
  1296 atoms
  864 bonds
  432 angles
Finding 1-2 1-3 1-4 neighbors ...
  special bond factors lj:    0        0        0       
  special bond factors coul:  0        0        0       
     2 = max # of 1-2 neighbors
     1 = max # of 1-3 neighbors
     1 = max # of 1-4 neighbors
     2 = max # of special neighbors
  special bonds CPU = 0.295 seconds
  read_restart CPU = 0.503 seconds
include 	in.setup
variable	out_freq equal 1000
variable	out_freq2 equal 10000
variable	out_freq3 equal 1000

timestep	2.0

neigh_modify    delay 7 every 1

include		in.tip4p
# This is TIP4P/Ice

# create groups ###
group ox type 2
432 atoms in group ox
group hy type 1
864 atoms in group hy

# set charges - beside manually ###
set group ox charge -1.1794
Setting atom values ...
  432 settings made for charge
set group hy charge 0.5897
Setting atom values ...
  864 settings made for charge

# ### TIP3P Potential Parameters ###
pair_style lj/cut/tip4p/long/omp 2 1 1 1 0.1577 8.5
pair_coeff 1 1*2 0.000 0.000
pair_coeff 2 2 0.21084 3.1668
bond_style  harmonic
bond_coeff  1 450 0.9572
angle_style harmonic
angle_coeff 1 55 104.52
kspace_style pppm/tip4p/omp 1.0e-5
pair_modify tail yes

thermo          ${out_freq}
thermo          1000
thermo_style    custom step temp pe etotal epair emol press lx ly lz vol pxx pyy pzz pxy pxz pyz enthalpy

restart 	${out_freq3} restart.lmp.${pid} restart2.lmp.${pid}
restart 	1000 restart.lmp.${pid} restart2.lmp.${pid}
restart 	1000 restart.lmp.0 restart2.lmp.${pid}
restart 	1000 restart.lmp.0 restart2.lmp.0


include         in.dump
dump            myDump all atom ${out_freq2} dump.water.${pid}
dump            myDump all atom 10000 dump.water.${pid}
dump            myDump all atom 10000 dump.water.0
dump            myDump2 all dcd ${out_freq2} dump.dcd
dump            myDump2 all dcd 10000 dump.dcd
dump_modify     myDump append yes
dump_modify     myDump2 append yes


variable natoms 	equal  "count(all)"                        # NUMBER ATOMS
variable H      	equal  "enthalpy/v_natoms"                 # ENTHALPY-per-atom
variable Vol      	equal  "vol/v_natoms"                 # volume-per-atom
fix AVG all 		ave/time ${out_freq} 1 ${out_freq} v_Vol v_H file vol_enthalpy.dat
fix AVG all 		ave/time 1000 1 ${out_freq} v_Vol v_H file vol_enthalpy.dat
fix AVG all 		ave/time 1000 1 1000 v_Vol v_H file vol_enthalpy.dat


timer           timeout 10:00:00 every 1000
New timer settings: style=normal  mode=nosync  timeout=10:00:00

fix 		1 all shake 1e-6 200 0 b 1 a 1
       0 = # of size 2 clusters
       0 = # of size 3 clusters
       0 = # of size 4 clusters
     432 = # of frozen angles
  find clusters CPU = 0.002 seconds
fix             2 all nph tri ${pressure} ${pressure} ${pressureDamp}
fix             2 all nph tri 6750 ${pressure} ${pressureDamp}
fix             2 all nph tri 6750 6750 ${pressureDamp}
fix             2 all nph tri 6750 6750 1000
fix             3 all temp/csvr ${temperature} ${temperature} ${tempDamp} ${seed}
fix             3 all temp/csvr 249.7 ${temperature} ${tempDamp} ${seed}
fix             3 all temp/csvr 249.7 249.7 ${tempDamp} ${seed}
fix             3 all temp/csvr 249.7 249.7 100 ${seed}
fix             3 all temp/csvr 249.7 249.7 100 745823


run             250000
PPPM initialization ...
  extracting TIP4P info from pair style
  using 12-bit tables for long-range coulomb (../kspace.cpp:340)
  G vector (1/distance) = 0.36882817
  grid = 30 40 32
  stencil order = 5
  estimated absolute RMS force accuracy = 0.0041597148
  estimated relative force accuracy = 1.2526857e-05
  using double precision FFTW3
  3d grid and FFT values/proc = 5168 640
Last active /omp style is kspace_style pppm/tip4p/omp
Neighbor list info ...
  update every 1 steps, delay 7 steps, check yes
  max neighbors/atom: 2000, page size: 100000
  master list distance cutoff = 10.8154
  ghost atom cutoff = 10.8154
  binsize = 5.4077, bins = 7 5 5
  1 neighbor lists, perpetual/occasional/extra = 1 0 0
  (1) pair lj/cut/tip4p/long/omp, perpetual
      attributes: half, newton on, omp
      pair build: half/bin/newton/tri/omp
      stencil: half/bin/3d/tri
      bin: standard
Per MPI rank memory allocation (min/avg/max) = 9.433 | 9.439 | 9.446 Mbytes
Step Temp PotEng TotEng E_pair E_mol Press Lx Ly Lz Volume Pxx Pyy Pzz Pxy Pxz Pyz Enthalpy 
23250000    251.06093   -6288.4892   -5642.6503   -6288.4892            0    5387.4159    23.532828    21.393654    21.695435    10922.636    3143.8156    7512.1775    5506.2547    -555.7242    702.80216    391.07153   -4784.4595 
23251000    248.94945    -6335.278   -5694.8707    -6335.278            0    5010.0312    23.264933    21.562701    21.705005     10888.42    5184.1287    5448.0793    4397.8857   -557.63801    -22.23729   -153.51056   -4899.2956 
23252000    248.31893   -6323.9284   -5685.1431   -6323.9284            0    5777.3293    23.280095     21.38183    21.869307    10885.908    6402.1049    6059.8939    4869.9892   -1072.7817    617.89535    171.89023   -4767.9355 
23253000     259.2094   -6355.6745   -5688.8741   -6355.6745            0    5723.0642     23.40105    21.324725     21.78089    10869.121    6368.7083    4514.7537    6285.7308    134.29253   -541.61334    1193.2689   -4781.6827 
23254000    243.36869   -6350.2999   -5724.2488   -6350.2999            0    4943.9084    23.278802    21.566509    21.679243    10883.901    4948.9501    3886.8647    5995.9102     450.1917    1415.3213    308.25883   -4939.4995 
23255000    247.58954    -6344.129     -5707.22    -6344.129            0    3517.1704    23.508681    21.339097    21.893123    10982.773    3579.3623     3837.564    3134.5847    -346.4466   -84.316465    545.90343    -5143.866 
23256000    245.30394   -6307.6415   -5676.6121   -6307.6415            0    5801.2343     23.21082    21.517896    21.792393    10884.168    6220.6192    6147.4341    5035.6497   -576.65411    1115.5534    51.799303   -4755.7565 
23257000    247.75706   -6344.5584   -5707.2185   -6344.5584            0    7193.3482    23.323622     21.48624    21.555057    10802.035    5857.1239    7273.5375    8449.3832   -68.079796   -16.567794    280.24398   -4574.0028 
23258000    252.84827   -6334.6201   -5684.1833   -6334.6201            0    7257.5935    23.338158     21.34344    21.710418    10814.319     6594.471    7709.5349    7468.7746   -967.91034   -78.666599    -1159.587   -4539.5465 
23259000      265.475   -6333.3483     -5650.43   -6333.3483            0     6247.655    23.077455    21.522067    21.834933    10844.855    6208.7328    5642.3509    6891.8813    96.830968    7.7296623    1307.0758   -4662.2941 
23260000    254.55166   -6327.9603   -5673.1416   -6327.9603            0    6825.7067    23.336022     21.44751    21.636706    10829.161    6724.1196    7132.3995     6620.601   -151.29797    981.76849   -798.45687   -4595.1427 
23261000    245.76339   -6324.4331   -5692.2218   -6324.4331            0    7136.0071    23.469822    21.363554    21.581437    10820.907    6180.1711    7759.1202    7468.7301   -805.64151    364.81301   -617.31874   -4566.0755 
23262000    254.40367   -6303.4863   -5649.0484   -6303.4863            0    7153.6777    23.141609    21.611339    21.697465    10851.362    7380.9475    6683.5324    7396.5532   -754.29451    477.87587   -62.402845   -4516.9362 
23263000    247.45727   -6305.0588   -5668.4901   -6305.0588            0     6437.787     23.45279    21.241451    21.778037    10849.193    6910.2373    7370.4869    5032.6367    101.54992   -232.65165   -614.19745   -4649.8754 
23264000    247.03185   -6345.5473    -5710.073   -6345.5473            0    7901.2572    23.249902    21.397624    21.591558    10741.642    8137.3485    7341.0769    8225.3463   -559.73888    377.09014    121.51529    -4472.295 
23265000    249.85897   -6323.7101   -5680.9631   -6323.7101            0    6646.6678    23.394943    21.485314    21.520572    10817.266    5700.7938    5867.8706    8371.3389   -963.00274   -155.60408    435.94903   -4632.3933 
23266000    251.95716   -6341.3836   -5693.2391   -6341.3836            0    5819.5072    23.287572    21.481272    21.790485    10900.617     5835.976    5873.3344    5749.2112   -1441.4454   -756.14108   -433.81924   -4768.0869 
23267000    257.25743   -6347.1775   -5685.3984   -6347.1775            0    6968.7221    23.193188    21.523904    21.693678    10829.657    7950.3613    7317.7176    5638.0874   -605.69395   -1153.0056    -1221.288   -4584.7624 
23268000    250.46254   -6363.4224   -5719.1228   -6363.4224            0    5850.0479    23.316122    21.346288    21.721669     10811.15    6015.1334    6094.3353    5440.6751   -555.59048    983.76979    61.525169   -4796.7485 
23269000    251.46803   -6334.9756   -5688.0895   -6334.9756            0    7038.8517    23.291218     21.39819    21.717176    10823.621    6218.9132    7269.6137    7628.0281    198.69269    1934.0847     1791.622   -4576.9968 
23270000    250.96554   -6349.6855   -5704.0919   -6349.6855            0    7206.6884    23.335797    21.257674    21.792277    10810.381     6044.164    8382.9561     7192.945    454.01758    634.53962   -52.961899   -4567.8975 
23271000     256.1337   -6380.4186   -5721.5302   -6380.4186            0    6796.3148    23.143451    21.500637     21.73246    10814.049    6456.6804    7363.1593    6569.1048   -33.570709   -224.58591    -165.5552   -4649.6711 
23272000    261.36301   -6357.3014    -5684.961   -6357.3014            0    5217.1982    23.491774    21.366415     21.63253    10858.124    3801.7012    5788.5579    6061.3356    664.27755    1156.7548    729.55364   -4858.7937 
23273000     247.9191   -6341.3736   -5703.6168   -6341.3736            0    5535.6329    23.360522    21.529543    21.566789     10846.83    6725.9165    4071.7144    5809.2677    554.36905   -231.04306     910.9163   -4827.9356 
23274000    260.04415   -6296.4244   -5627.4766   -6296.4244            0    5862.9576    23.354229     21.44457    21.831159    10933.512    4927.7658    5821.6875    6839.4194    1277.3433    617.81863    571.09323   -4692.6043 
23275000    256.77041   -6314.7297   -5654.2035   -6314.7297            0    5694.2804    23.260876    21.373238    21.938223    10906.813    6892.0986    5103.0498    5087.6929   -578.92411   -946.13003   -605.24965   -4748.4446 
23276000     252.2862   -6311.5383   -5662.5474   -6311.5383            0    4845.1267    23.382423     21.56135    21.695375    10937.867    4294.5185    4096.2107    6144.6507   -41.483345   -161.45772    -212.6765   -4889.6646 
23277000    243.82249   -6303.2788   -5676.0603   -6303.2788            0     5012.324    23.484792    21.451747    21.750407    10957.633    4543.1466    4691.3242    5802.5011   -583.01381     1049.087    575.02317   -4875.0617 
23278000    242.92225   -6350.0981   -5725.1955   -6350.0981            0    5325.1786    23.173784    21.442538    21.921542    10892.918    6046.3773    5758.7863    4170.3721    976.10264    984.69667     360.6302   -4879.2267 
23279000    242.58147   -6339.2791   -5715.2531   -6339.2791            0     5316.786    23.474644    21.288531    21.773157    10880.932    4067.4046     6120.302    5762.6514    1340.8331    511.92278     1059.033    -4871.547 
23280000    250.66737   -6291.1086    -5646.282   -6291.1086            0    6545.9369    23.410934    21.450118    21.695573    10894.807    5877.4101    7117.4648    6642.9358     183.3747    9.3444732    367.87817   -4606.2008 
23281000    247.25753   -6298.2403   -5662.1853   -6298.2403            0    6119.1232    23.410045     21.47162     21.69409    10904.569    5274.9431    6174.6776    6907.7488   -581.99117    1226.1592    -445.0678   -4689.0493 
23282000    254.06172   -6323.0506   -5669.4923   -6323.0506            0    6265.6468    23.297733    21.451436     21.73667    10863.332    6034.0022    5578.9375    7184.0007   -741.92194    1116.9654    195.68379   -4676.8223 
23283000      248.271   -6326.3255   -5687.6635   -6326.3255            0    6975.2669    23.312092      21.2885    21.806407    10822.072    6944.4126    7517.0613    6464.3269   -99.232296    1858.9841     740.0696   -4586.7654 
23284000     251.6774   -6355.3738    -5707.949   -6355.3738            0    5514.0492    23.308628    21.508799    21.673827    10865.969    5886.9977    4973.6281    5681.5218   -40.309235    131.07779    452.71302    -4834.143 
23285000    244.02818   -6349.7192   -5721.9715   -6349.7192            0    5999.8763    23.300427    21.488777    21.689065    10859.664    6451.6044    5441.4759    6106.5487   -1426.1941   -1.3068167   -323.38328   -4771.7287 
23286000    255.13549   -6371.1216    -5714.801   -6371.1216            0    5297.1941    23.352626      21.5049     21.63275    10863.878    5949.8601    6015.0037    3926.7184   -1394.8293    -723.3349     19.41016   -4875.5215 
23287000    239.54843   -6290.5361   -5674.3124   -6290.5361            0    6933.3679    23.357806    21.407472    21.644215    10822.791     6571.687     7259.404    6969.0128   -410.37874   -550.30419   -610.15233   -4579.9544 
23288000    251.96831   -6329.9773   -5681.8042   -6329.9773            0     6556.336    23.332185    21.507401    21.549621    10813.916    5297.4598      6167.08    8204.4683    2045.8767   -8.8256076    763.95191   -4647.8053 
23289000    252.10543    -6332.685   -5684.1591    -6332.685            0    6995.0885    23.349119     21.24826     21.79344    10812.339    6044.6488    7657.7534    7282.8632    731.22252    720.03569   -496.14603   -4581.1255 
23290000    247.75133   -6336.0496   -5698.7244   -6336.0496            0    8039.9032     23.17506    21.416296    21.697432    10768.955    7209.6914    8493.3415    8416.6767    138.51711   -393.08004   -150.84983   -4436.0241 
23291000    244.22735   -6339.2512   -5710.9913   -6339.2512            0     6670.827    23.359412    21.496428    21.587976     10840.27     6364.665    5465.2846    8182.5313   -260.17861    510.80032   -434.05141    -4656.372 
23292000    241.99144   -6319.4144   -5696.9062   -6319.4144            0    6652.1771    23.508038    21.404814    21.501927    10819.451    6090.1917    7072.7534    6793.5863    366.06534    -84.80086   -1106.7171   -4647.2552 
23293000    257.11356    -6340.237    -5678.828    -6340.237            0    6650.0446     23.21077    21.586422    21.656824     10850.88    7260.2428    5776.6267    6913.2644    1015.4995   -826.65785    477.73602   -4626.4654 
23294000    250.79097   -6324.7485    -5679.604   -6324.7485            0    6390.1723    23.277983    21.335772    21.781617    10817.922    6040.8697    6736.5414    6393.1057    105.35344   -199.66465   -168.79414   -4671.4374 
23295000    230.45782   -6346.2949   -5753.4562   -6346.2949            0    6572.7657    23.262496      21.3741    21.760994    10819.891    7829.9688     6309.139    5579.1893   -1412.8881   -421.40352    1190.8223   -4716.2934 
23296000    255.29401   -6329.8837   -5673.1554   -6329.8837            0    5504.5471    23.218891    21.741706    21.501982    10854.594    6202.6405    4025.0511    6285.9499   -1071.3999    197.51154    857.79278   -4801.7685 
23297000     239.8521   -6327.1265   -5710.1216   -6327.1265            0    7107.8716    23.406129    21.372648    21.591649    10801.243    6517.5611    7832.8407     6973.213   -1846.8785    363.20733   -1736.9182   -4590.4537 
23298000    251.68032   -6315.2452    -5667.813   -6315.2452            0    7862.0689    23.195128    21.477267    21.710777    10815.614     7851.574    7786.8078    7947.8248    127.13135   -76.988993   -439.63085   -4427.6924 
23299000    258.27868   -6331.8074   -5667.4012   -6331.8074            0    5854.2894    23.255833    21.352444    21.907994    10878.828    6746.6207    4655.5036    6160.7437   -255.85831   -532.90513    1176.4606   -4738.5799 
23300000    253.16568   -6340.4037   -5689.1504   -6340.4037            0    6155.2639    23.522706    21.268977    21.698685    10855.937    6247.5192    6013.7277    6204.5447   -81.120307   -277.10947   -210.34013   -4714.6324 
23301000    249.39686   -6303.5931   -5662.0349   -6303.5931            0    6712.3105    23.289514    21.499853    21.677325    10854.295    6317.0084    5673.0011    8146.9219    1266.7771    -640.2646    476.47473   -4599.4845 
23302000    246.32001   -6344.4077   -5710.7645   -6344.4077            0    6355.4791    23.467823    21.389268    21.572039    10828.291    5724.0676    6227.8782    7114.4914   -515.99975   -222.82226    341.45359   -4707.1103 
23303000    234.85602   -6314.7928     -5710.64   -6314.7928            0    6679.9567    23.289106    21.441343     21.72107     10846.41    7648.2579    6322.5571    6069.0552   -959.79942    325.48147   -443.80807   -4653.9793 
23304000    242.69488   -6300.0338    -5675.716   -6300.0338            0     5770.766    23.286883    21.589836    21.652289    10885.905    5923.3007    6100.1354    5288.8618    740.52923    1209.7927   -815.74195   -4759.5506 
23305000    253.26468   -6328.9962   -5677.4882   -6328.9962            0    6627.0201    23.631792     21.23258    21.554931    10815.486    5378.4693    5728.9001    8773.6909   -484.24143    770.13444    758.16319     -4632.19 
23306000    258.62123   -6318.1447   -5652.8573   -6318.1447            0    6707.0694    23.313076    21.433657    21.675791    10831.056     5171.362     7680.277    7269.5692    1257.2501    821.03396    1113.3517   -4593.4097 
23307000    247.41712   -6319.2846   -5682.8191   -6319.2846            0    6752.6702    23.193138    21.520862    21.696364    10829.443    8479.1278    6089.9492    5688.9335    -1523.826    537.95863   -1420.9805   -4616.3273 
23308000    256.59615   -6356.2974   -5696.2195   -6356.2974            0     6097.084    23.516474    21.390882    21.532718    10831.778    5636.2186    6161.1008    6493.9326   -455.01303     605.7696   -963.98095   -4733.0608 
23309000    259.29275   -6353.0587   -5686.0439   -6353.0587            0    6282.3278    23.268862    21.522418    21.628121     10831.41    6331.9383    6770.7744    5744.2705    64.675882   -358.26876    -268.8346    -4693.656 
23310000     247.0667   -6362.5096   -5726.9456   -6362.5096            0    7063.8485    23.132396    21.483651     21.79095    10829.412    7978.8566    6361.5447    6851.1443   -679.46736   -606.88933    1485.4582   -4611.3106 
23311000    249.43403   -6332.7853   -5691.1315   -6332.7853            0    7314.1086    23.365057    21.271289    21.777784    10823.665     8210.014    7334.6541    6397.6576   -1463.7866    263.40064   -270.87056   -4536.5845 
23312000    243.43212   -6295.4692   -5669.2549   -6295.4692            0    5409.7196    23.161418    21.751163    21.616916    10890.338    6071.0842    4718.3573    5439.7174    963.73108    160.31249   -307.91295   -4810.0593 
23313000    261.25825   -6317.5185   -5645.4476   -6317.5185            0     5333.794     23.62434    21.241276    21.714608    10896.632     4721.632    6113.0615    5166.6885     11.41326      13.5174    239.02974   -4797.8213 
23314000      243.481   -6322.7946   -5696.4546   -6322.7946            0    6365.1127     23.20624    21.501359    21.745957    10850.487    6915.2483     5257.425    6922.6648   -30.097798    653.16834   -175.84589   -4689.2187 
23315000    232.62104   -6336.5919   -5738.1884   -6336.5919            0     6114.184    23.209111    21.408792    21.852003    10857.802     7851.172    5595.2196    4896.1603   -1255.8638    372.95051   -68.979018    -4770.008 
23316000    255.13673   -6313.3026   -5656.9789   -6313.3026            0    5944.5615    23.550641    21.384634    21.614167    10885.366    6101.1656    6226.9195    5505.5995   -2172.3749     416.0299   -194.00105   -4713.2685 
23317000    242.46107   -6353.6428   -5729.9265   -6353.6428            0    6138.0956    23.251517    21.601547    21.586744    10842.347    5754.8883    5651.6975     7007.701     751.2801   -50.817126    131.43268   -4759.3431 
23318000    249.63068   -6353.5042   -5711.3445   -6353.5042            0    6330.9994    23.435824    21.257304    21.793832    10857.304    5523.7876    7707.1773    5762.0332   -321.03232    286.47129   -1282.6915   -4708.8773 
23319000     232.1658   -6338.9951   -5741.7627   -6338.9951            0    6705.8594     23.30482    21.361204    21.679993    10792.713    5914.4332    9067.5916    5135.5534    -476.7348    1513.5206   -1096.5152   -4686.2561 
23320000    249.92304   -6336.4058    -5693.494   -6336.4058            0    7329.8134    23.145472    21.481209    21.702245    10790.198    8146.1461    7364.0332     6479.261   -55.113846    599.17225    1053.0266   -4540.0454 
23321000    249.13989    -6320.968   -5680.0708    -6320.968            0    6657.5467    23.465769    21.362148    21.660245    10857.831     5937.918    6952.7369    7081.9851   -1362.4405    344.86636   -105.91172   -4625.8462 
23322000    254.95233   -6276.8097   -5620.9604   -6276.8097            0    7392.9153    23.129918    21.585111    21.724177    10846.053    7804.0587     7052.419     7322.268    48.127743    1014.1139    -607.8385   -4451.5598 
23323000    244.22933   -6346.4512   -5718.1861   -6346.4512            0    6502.0338    23.090877    21.506033    21.775306    10813.468    6493.2816    6572.0831    6440.7367    386.46123   -136.51921   -34.790413   -4692.7936 
23324000    255.20907   -6348.9717   -5692.4619   -6348.9717            0    8192.8912    23.248707     21.28909    21.729055    10754.661    8029.3481    9042.3267    7506.9988    -331.0754   -613.74387   -17.034315   -4407.4422 
23325000    255.04225   -6330.0668   -5673.9862   -6330.0668            0     8952.399    23.247685    21.367153     21.57283     10716.02    8827.8521    7973.6006    10055.744   -526.77895   -8.8123302    648.12195    -4274.886 
23326000    252.40587   -6327.2642   -5677.9655   -6327.2642            0    9090.1694    23.196121    21.316565    21.660824    10710.446    11114.247    8924.9893    7231.2722   -416.34846   -34.704196   -1654.7554   -4258.0731 
23327000     256.5652   -6360.3242   -5700.3258   -6360.3242            0    9339.3961    23.226622     21.23133    21.741894    10721.625    11205.246    9028.4042    7784.5378   -698.66768    -1641.001   -886.33847   -4239.9814 
23328000    259.04594   -6306.0576   -5639.6777   -6306.0576            0    8222.0679    23.225843    21.436633    21.667487    10787.892     8067.607    8054.4014    8544.1954   -368.98898    680.80894   -198.62463    -4346.097 
23329000    241.91261    -6334.388   -5712.0825    -6334.388            0    7594.0885    23.267781     21.50014    21.479334    10745.264    7983.0087    6498.3576     8300.899    487.17489   -99.963574    636.17938   -4522.0231 
23330000    262.70254   -6330.7563     -5654.97   -6330.7563            0    6298.7239    23.478049    21.262213    21.695821    10830.451    5593.0658    7094.3455    6208.7604    116.29789    480.80451    596.45149   -4660.0801 
23331000    250.26518   -6357.2851   -5713.4932   -6357.2851            0     6286.392    23.053258    21.603384    21.739017    10826.647    8170.3787    4506.0242    6182.7731   -175.70149   -921.62147    581.30038   -4720.8999 
23332000     250.8337   -6354.2834    -5709.029   -6354.2834            0    5451.1234    23.397497    21.351446    21.745496    10863.406    6573.6448    4170.5009    5609.2243    229.94121   -1070.3834    738.39793   -4845.3986 
23333000    234.36449   -6290.4321   -5687.5438   -6290.4321            0    6398.7803    23.431513    21.434219    21.570716    10833.594    6737.9509    5469.8639    6988.5262   -416.30101    1599.1787    624.08673   -4676.5566 
23334000    249.99201   -6283.8302    -5640.741   -6283.8302            0    6361.6856    23.167476    21.586901    21.735783     10870.37    6080.8027      6174.41    6829.8441   -705.09783    884.71665   -1058.7983   -4632.2026 
23335000    244.07644   -6335.1105   -5707.2387   -6335.1105            0    7285.0334    23.442082    21.235337    21.764827    10834.542    7129.2204    7229.2534    7496.6263    287.35148     -158.123    261.92879   -4556.1256 
23336000    247.74932   -6346.1392   -5708.8192   -6346.1392            0    5920.6065    23.255892    21.458285    21.767844    10862.841    5637.0019     5056.671    7068.1466    316.58036    1793.2625    1044.8167   -4770.8566 
23337000    247.51067   -6359.1223   -5722.4162   -6359.1223            0    6552.1171    23.137844    21.354178    21.814287    10778.213    7011.4579    8532.4705     4112.423   -1056.3276    966.09131   -647.67041   -4692.4942 
23338000    240.01652   -6292.0334   -5674.6056   -6292.0334            0    6860.3518    23.410167    21.419517    21.627016    10844.531    6991.3888    6556.7694    7032.8972   -535.30827   -164.64894   -1022.0653   -4589.5973 
23339000    241.57266   -6351.0452   -5729.6143   -6351.0452            0    7884.9063    23.267656    21.465013    21.516342    10746.133    7689.8344    6767.0276    9197.8569    38.929443   -100.09908    198.53264   -4493.8813 
23340000     253.5934   -6349.5939   -5697.2403   -6349.5939            0    7657.0202     23.26748     21.25735    21.759885    10762.547    6646.1889    8737.9072    7586.9646    417.19916    809.16034    176.63904   -4495.3889 
23341000    241.58596    -6343.083   -5721.6178    -6343.083            0    6171.9771    23.358078     21.35964    21.708879    10830.997    6681.2321    5257.5544    6577.1447    257.22454    309.47115    972.40105   -4746.6986 
23342000    248.47902   -6329.9242    -5690.727   -6329.9242            0     5430.447    23.197214    21.597096    21.666399    10854.702    5922.2962    4937.5024    5431.5424    914.25091    598.57555   -1648.5545   -4831.0618 
23343000    255.60813   -6351.2563     -5693.72   -6351.2563            0    6131.1965    23.422787    21.286581    21.764513    10851.592    4911.5921    7905.4244    5576.5731    509.99746    783.18469   -155.93169   -4723.4009 
23344000    247.25176   -6315.3459   -5679.3058   -6315.3459            0    6779.8788    23.196845    21.708436    21.512545    10833.012    7976.7349    4498.6083    7864.2933   -1311.9184    1072.6962    546.05059   -4608.1638 
23345000    242.44337   -6360.4155   -5736.7447   -6360.4155            0    6687.9882    23.442682    21.271778    21.638103     10790.22    6332.6633    6271.6952    7459.6062   -456.18474   -614.09518    396.96024   -4684.2942 
23346000    253.85444   -6312.8374   -5659.8123   -6312.8374            0    6801.8014    23.285587    21.403198    21.731957    10830.903    6475.0889    7621.3347    6308.9806    906.59673   -34.078769    734.90179    -4585.416 
23347000    240.48886   -6313.9284   -5695.2855   -6313.9284            0    7351.6157    23.218306    21.408727    21.725451    10799.165    7722.9176    7499.3666    6832.5629   -938.80386   -407.53577    248.85137   -4537.4446 
23348000    246.02759   -6359.1253   -5726.2343   -6359.1253            0    7062.0192    23.421707    21.274779    21.631211    10778.652    7377.3573    6766.4057    7042.2946    194.70216   -1301.9458    -346.5788   -4616.1161 
23349000    245.43127   -6313.2255   -5681.8685   -6313.2255            0    6187.9934    23.210407     21.60253    21.630806    10845.762     6832.182    5616.5514    6115.2467    1194.6645    399.03995    545.93548   -4703.0869 
23350000     240.4732   -6326.8688   -5708.2661   -6326.8688            0     7311.892    23.244904    21.273866    21.874995    10817.381    7262.0568    7356.8119    7316.8072    323.88322    431.39253    486.37633   -4554.7391 
23351000    247.77002   -6361.8099   -5724.4366   -6361.8099            0    6896.8328    23.405677    21.383255     21.55861    10789.859    7034.3368    6416.5185    7239.6433    627.92998    549.65874    693.96723   -4639.1577 
23352000    251.14325   -6336.5715   -5690.5209   -6336.5715            0    6472.0623    23.278913     21.66131    21.504848    10843.857     7047.078      5568.93    6800.1789    -325.5832    10.055957   -897.07088   -4666.9866 
23353000    252.22202   -6310.3493   -5661.5235   -6310.3493            0    6634.1189     23.45081    21.203748    21.835012    10857.352    6904.7387    7494.2007    5503.4174    114.92526   -383.88732   -253.44648   -4611.0549 
23354000    256.22376   -6356.8673   -5697.7473   -6356.8673            0    5059.7342    23.207366    21.515614    21.798287    10884.337    5390.8773    4484.1826    5304.1427    297.03344    395.14477    835.43376   -4894.5808 
23355000    248.86825   -6322.8508   -5682.6523   -6322.8508            0    5709.0688    23.339714    21.419952     21.77165    10884.422     4851.463    7015.1517    5260.5916    739.65207    1206.5452    44.994349   -4776.4055 
23356000    247.63278    -6341.893   -5704.8727    -6341.893            0    7594.3524     23.37426    21.343375    21.608523    10780.181    7638.7173    7887.9676    7256.3725   -595.07122    1213.2685    334.12582   -4510.9047 
23357000    242.13677   -6329.9653   -5707.0832   -6329.9653            0    6914.1686    23.220554    21.533733    21.695098    10848.096    7857.4927    5944.1081    6940.9052    203.69017   -118.34006   -767.85577    -4613.204 
23358000    247.93334   -6335.6364    -5697.843   -6335.6364            0    7206.5412    23.465177    21.191168     21.73023    10805.455    7045.3511    7957.5315     6616.741   -229.98673    893.20307   -287.58202   -4562.1896 
23359000    239.16921   -6329.0993   -5713.8511   -6329.0993            0     5675.628    23.225006    21.505253    21.781977    10879.218    5735.4726    5632.8501    5658.5612   -605.70361    873.38932     198.2227   -4813.3432 
23360000    249.50563   -6353.1756   -5711.3376   -6353.1756            0    6287.3952    23.255532     21.50851     21.67447    10841.393     5449.873    6778.7738    6633.5388   -252.10691     599.7788   -601.35235   -4717.2338 
23361000    252.61612   -6342.7989   -5692.9593   -6342.7989            0    6131.1872    23.424092    21.256214    21.839173    10873.889    6195.8659    6740.3115    5457.3843   -527.44721    399.68571     97.26268    -4720.648 
23362000    248.79925   -6333.5132   -5693.4923   -6333.5132            0    5177.0204     23.27316    21.606615    21.666735    10895.209    6748.0488    4107.8419    4675.1705   -788.06985    986.05572    1231.9264   -4870.8874 
23363000    257.27304   -6355.1457   -5693.3265   -6355.1457            0    6654.6228    23.364886    21.398188    21.718008     10858.27    6713.1519    6106.1797    7144.5368   -296.10532    378.92923    829.03136   -4639.5222 
23364000    252.11578   -6334.9111   -5686.3587   -6334.9111            0    6111.2428     23.25648    21.422826    21.796989    10859.686    6167.5484    6775.7077    5390.4723   -248.12713     899.1871   -132.23603   -4718.4761 
23365000    253.21144   -6330.0166   -5678.6456   -6330.0166            0    6617.8321    23.280217    21.425794    21.739269    10843.485    8694.9408    6236.5078    4922.0476   -2174.2472     -245.871   -1656.2948   -4632.0944 
23366000    243.45332   -6365.2537   -5738.9849   -6365.2537            0    5752.1086    23.419095    21.458479    21.593089    10851.351    5676.1545    5720.6711    5859.5002    1291.6865   -819.64057   -164.02449   -4828.6802 
23367000    232.09151    -6356.833   -5759.7917    -6356.833            0    5648.2478    23.284708    21.406289    21.750576    10841.339    5194.9039    5812.4294      5937.41    992.29004    676.30313    228.31325   -4866.7484 
23368000    235.41029   -6328.8087     -5723.23   -6328.8087            0    6811.4474    23.243321    21.415596    21.761247    10832.087    6531.5886    7294.6698    6608.0838     603.9204    818.91064    333.97767   -4647.1925 
23369000    249.32739   -6342.4601   -5701.0806   -6342.4601            0    6785.5962    23.542203    21.423281    21.399474    10792.851    6226.6199    5694.8775    8435.2911   -979.94012   -284.72699   -164.72244   -4633.0097 
23370000    240.32634   -6303.3714   -5685.1465   -6303.3714            0    7692.0996    23.262673     21.52681    21.581538    10807.411    7463.1841    6510.0187    9103.0959    968.33416    252.93341   -306.91692   -4472.7562 
23371000     245.5317   -6330.4663    -5698.851   -6330.4663            0    5993.4256    23.186277    21.402845    21.849371      10842.8    5450.8726    6739.6933    5789.7109     1534.998    -431.5228    126.98993   -4751.1039 
23372000    262.58082   -6322.9902    -5647.517   -6322.9902            0    6746.5585    23.513249    21.380605    21.529913    10823.679    7013.9484    6598.2241    6627.5029   -823.82881   -706.93414    395.16074   -4582.5576 
23373000    247.20373    -6341.372   -5705.4555    -6341.372            0    6420.6232    23.376121    21.624668    21.403708    10819.593    6507.1293    5111.7495    7642.9909   -722.63566   -742.18737    295.44537   -4692.3282 
23374000    244.31946   -6312.5223   -5684.0253   -6312.5223            0    7759.9323     23.32294     21.41868    21.652919    10816.642    7459.5541    7862.2142    7958.0285   -1121.3253    1362.2308    471.76681   -4459.8989 
23375000     258.5909   -6322.3594   -5657.1501   -6322.3594            0    7930.6517    23.251745     21.27989    21.795319    10784.206    10101.432    7301.4359    6389.0875    -743.1041   -132.81479    1378.8885   -4409.8443 
23376000    254.43561   -6345.3041    -5690.784   -6345.3041            0    7724.4769    23.164926    21.431474    21.656178    10751.393     6337.359     8351.081    8484.9906    556.79928    360.82072    414.65778   -4479.6011 
23377000    247.28824   -6328.7167   -5692.5827   -6328.7167            0    8430.7053    23.431249     21.32438    21.568917    10777.057     8854.212      9006.77     7431.134    742.47482    208.08148    213.42475   -4367.5091 
23378000    255.27598   -6341.8981   -5685.2162   -6341.8981            0    8108.4127     23.10759    21.577124    21.592399    10765.869    8777.1274    7730.9247    7817.1861   -333.42297    69.932323   -1429.2138   -4412.1212 
23379000    257.30496   -6303.6841   -5641.7828   -6303.6841            0    7975.3305    23.423948    21.166955    21.769096    10793.415    8023.7003    9357.4169    6544.8743    352.07594   -1016.9794    472.24921    -4386.379 
23380000    240.90414   -6364.7416   -5745.0304   -6364.7416            0    5893.7216    23.284079    21.455422    21.693682    10837.507    5617.7271     4965.275    7098.1627    908.97197   -254.31156    374.99949   -4813.5046 
23381000    234.42582   -6337.8672   -5734.8211   -6337.8672            0    6288.6338    23.139096    21.559818    21.735786    10843.434    6980.1707    6419.7433    5465.9875    96.654687     33.86679    245.25323   -4740.3343 
23382000    253.65691   -6306.3589    -5653.842   -6306.3589            0    6665.8795    23.528288      21.2906    21.652582    10846.457    5376.8149    7974.7719    6646.0516   -75.307449    299.38046    221.79541   -4599.4035 
23383000    254.20776    -6329.181   -5675.2471    -6329.181            0    6128.2106    23.423356    21.675625    21.362517    10846.089    5695.8126     4139.016    8549.8031   -87.374381   -277.12369    647.80516   -4705.8924 
23384000    249.11313    -6377.562   -5736.7336    -6377.562            0    4748.5234    23.358474    21.478427    21.700015    10886.969    4963.9587    4487.8889    4793.7225   -99.455222     591.8843   -358.66242   -4982.7855 
23385000    247.09776   -6364.5051   -5728.8612   -6364.5051            0    7053.6007    23.351148    21.179034    21.872668    10817.232    7311.9669     7356.306    6492.5292   -469.66704   -75.784786   -36.445356   -4616.0976 
23386000    257.02254   -6330.3871   -5669.2123   -6330.3871            0    7929.0748    23.126417    21.616039    21.627127    10811.434    8963.9575    7101.3659    7721.9009    437.72154    828.09398   -601.12296    -4419.006 
23387000    247.97744   -6339.9922   -5702.0854   -6339.9922            0    7803.5689    23.433873    21.200507    21.625495    10743.762    7814.5922    8909.2413    6686.8733     232.7279    1076.2155    231.77246   -4479.3695 
23388000    250.62538   -6365.3746   -5720.6561   -6365.3746            0    7400.6132    23.243885    21.408065    21.626512    10761.495    7141.6534    6863.1634    8197.0227   -273.89255   -772.74503    615.56549   -4559.1641 
23389000    248.46274   -6350.5683    -5711.413   -6350.5683            0    7265.7058    23.238073    21.377497    21.700099    10779.998     6062.211     9287.458    6447.4485    913.21101    -228.5822   -1234.8436   -4569.1335 
23390000      257.273   -6357.1892     -5695.37   -6357.1892            0    6888.4765    23.424208    21.363987    21.566578     10792.66    5861.3188    7226.9165    7577.1941    619.21515    560.39141    608.77991   -4611.1248 
23391000    256.24087   -6371.8286   -5712.6646   -6371.8286            0    6770.1181    23.206838    21.576324    21.622765    10826.913     7621.924    5071.4294     7617.001    463.74293   -717.97338    1786.3736   -4643.6669 
23392000    254.27152   -6352.0587   -5697.9607   -6352.0587            0     6417.167     23.39646     21.33113    21.715666    10837.701    6203.1169    7189.0709    5859.3132    -1073.007    315.23328    145.53129   -4683.6842 
23393000    241.89552   -6313.2049   -5690.9434   -6313.2049            0    6151.7585    23.256295    21.524597     21.68891    10857.086    7534.4261    4858.3174    6062.5318   -380.32029   -1107.7227   -455.12073   -4716.8772 
23394000    242.62688    -6330.042   -5705.8991    -6330.042            0    5850.1865    23.379871    21.509265      21.6296    10877.176    5183.7285    5505.0613    6861.7696   -784.05012   -412.38802   -438.18116   -4777.8697 
23395000    262.31303   -6331.9552   -5657.1709   -6331.9552            0    6826.4669    23.350826    21.305726    21.825441    10858.294    7053.3326    7157.4109    6268.6572    1152.7194    953.13538    914.42498   -4576.1515 
23396000    249.38597   -6361.4674   -5719.9371   -6361.4674            0    6149.5744    23.185999    21.442177    21.833957    10854.933      8180.49    6246.2838    4021.9494    135.75106   -722.17767   -273.05666   -4746.4099 
23397000    249.19136   -6361.1293   -5720.0998   -6361.1293            0     6196.596    23.464628    21.400131      21.5786     10835.61    4298.6078    7600.1237    6691.0566    16.343352   -14.215439    214.59927   -4740.8749 
23398000    246.14827   -6355.6126   -5722.4112   -6355.6126            0    5109.5721     23.50297    21.527656    21.508504    10882.526    3318.8975    5315.6498     6694.169    1658.4377    310.23654    52.276838   -4911.4685 
23399000    252.79944    -6310.357   -5660.0458    -6310.357            0    6028.3734    23.426637    21.499568    21.649682    10904.134    4905.0439    6667.5719    6512.5044   -16.353063    506.56999   -968.65123     -4701.38 
23400000    243.71638   -6332.4855     -5705.54   -6332.4855            0    6481.1023    23.212718    21.524442    21.675613    10830.021    6856.7895    6435.7526    6150.7649   -413.06822    204.92024   -381.91465   -4681.8839 
23401000    254.53723   -6317.7812   -5662.9996   -6317.7812            0    6474.0018     23.50083     21.29226    21.660407     10838.56    7132.8227    6234.0297     6055.153   -30.465251   -715.46366    935.76299   -4639.6588 
23402000    244.78348   -6356.0948   -5726.4042   -6356.0948            0    7958.6217    23.259047    21.375847     21.69721    10787.459    7194.2323    8151.8714    8529.7614   -165.53385    384.65502    1308.6191   -4474.3219 
23403000    253.25744   -6319.1043   -5667.6149   -6319.1043            0    6779.6056    23.369966    21.568808    21.520863    10847.856    6765.3488    5716.6988     7856.769   -270.81209   -417.96262    336.40196   -4595.0484 
23404000    253.65492   -6351.9946   -5699.4828   -6351.9946            0    6700.9526    23.383695    21.406458    21.550813     10787.52    6538.0176    6524.8987    7039.9415    1118.0835    198.37639    442.14168   -4645.2559 
23405000    235.49286   -6333.1819   -5727.3908   -6333.1819            0    8139.7368    23.275702    21.271468    21.754484    10770.826    8015.7464    9557.9339    6845.5302   -167.42944   -8.6342013   -840.13033   -4448.7891 
23406000    240.78457   -6360.0848   -5740.6812   -6360.0848            0    7463.1855    23.211733    21.392324    21.634153    10742.502    7359.6659    8095.6768    6934.2136    271.61833    80.423614    92.430781   -4571.4361 
23407000    242.89408   -6338.0964   -5713.2662   -6338.0964            0    7292.0421    23.197491     21.56141     21.58515    10796.258    7463.5276    6511.5929    7901.0059    1121.6041   -969.33456      411.216   -4565.1171 
23408000    242.15526   -6342.7468   -5719.8172   -6342.7468            0    6867.5349     23.37415    21.367244    21.667081    10821.432    7586.1574    7439.7679    5576.6794    -787.6697   -2152.9125    -779.7749   -4635.9863 
23409000    254.44713   -6350.6119   -5696.0622   -6350.6119            0    7659.3176    23.199898    21.507445    21.673054    10814.215    7887.9825    7276.0904      7813.88   -1571.9538    34.576067   -980.73091   -4488.0787 
23410000    248.64497    -6345.423   -5705.7989    -6345.423            0      5771.54    23.467987    21.361024     21.63778    10847.025    5901.3406    6727.7579    4685.5214   -135.73573   -95.913447   -1501.4288   -4792.7833 
23411000    249.51126    -6362.498   -5720.6455    -6362.498            0    6748.4479    23.220903    21.250282    21.939332    10825.979    6950.9863    8305.3341    4989.0234     489.4554   -282.79381   -92.010986   -4655.1613 
23412000    257.99665   -6358.0866   -5694.4059   -6358.0866            0     6916.318      23.3087    21.473811    21.658502    10840.657    6094.1758    6744.0739    7910.7043    199.29189    1258.1281   -130.62321    -4600.937 
23413000    252.14451   -6337.3342   -5688.7078   -6337.3342            0    7526.4128    23.517941    21.188108    21.677119    10801.723    6457.9795    8704.5607    7416.6983   -191.81169    845.19551   -1322.1452   -4503.0566 
23414000    242.46526   -6337.6645   -5713.9374   -6337.6645            0    7233.8658    23.270766    21.615803    21.531754    10830.823     7188.156    7566.5298    6946.9116    671.27365   -1336.6677   -760.76251   -4571.3017 
23415000    250.32515   -6329.0091   -5685.0629   -6329.0091            0    8091.0464    23.270198    21.366861     21.63041     10754.88      7933.93    10254.049      6085.16   -649.92069   -607.16536   -897.87389   -4415.9913 
23416000    256.25947   -6315.5139    -5656.302   -6315.5139            0    8006.5111    23.230635    21.439055    21.676687     10795.92    8356.2508    7981.6555    7681.6271   -929.56717   -788.86625     223.0853   -4395.6976 
23417000    250.21179   -6354.6754   -5711.0208   -6354.6754            0    6717.6615    23.283915    21.480917    21.586679     10796.79     6411.353    7039.9784    6701.6529   -536.17626    1465.6141    652.98932   -4653.2571 
23418000    262.90208   -6343.1055   -5666.8059   -6343.1055            0     7890.788    23.289109    21.375419    21.597689    10751.642    6667.6818     8009.879    8994.8032   -899.97362    1373.5557   -531.07793   -4429.5172 
23419000    261.81964   -6316.8646   -5643.3495   -6316.8646            0    6901.9538    23.247759    21.537575    21.615127    10822.702    8159.3927     6317.497    6228.9717   -583.16975    255.96496    332.74088   -4553.9589 
23420000    246.45888   -6330.8475   -5696.8471   -6330.8475            0    7618.9416      23.3862    21.238046    21.742485    10798.996    8169.4183    7952.2698    6735.1367    372.61874    536.25639   -308.69765   -4496.9226 
23421000    241.59719    -6314.344     -5692.85    -6314.344            0    7716.5231    23.221739    21.614962    21.474688     10778.94    7605.1961    5861.1297    9683.2436    512.41041    1770.5942    1658.4669   -4479.8141 
23422000    257.47838   -6349.3314    -5686.984   -6349.3314            0    7040.7696    23.403584    21.388965     21.56668    10795.815    6785.1388     6839.941     7497.229   -202.13379    19.841208    233.83923   -4578.4437 
23423000    244.60917   -6335.1105   -5705.8683   -6335.1105            0     7907.358    23.222964    21.295765    21.761012    10761.926    7469.7769    7940.7008    8311.5964    811.69812   -103.02133    467.88652   -4464.7954 
23424000    245.86037   -6343.2169   -5710.7561   -6343.2169            0    7225.1058     23.03106    21.638477    21.634412    10781.662    7673.3286    6964.1348     7037.854     -204.346    901.27666   -194.32172   -4574.6842 
23425000    248.44223   -6321.4298   -5682.3273   -6321.4298            0    8125.3074    23.429462    21.102334    21.737177    10747.215    6955.4025    9044.0375    8376.4821    630.73971    489.47181    90.025651   -4408.7901 
23426000    247.45934   -6358.2943   -5721.7203   -6358.2943            0    6821.5494    23.119963    21.479141    21.712927    10782.573    8233.2594    6883.9445    5347.4442   -379.29711    62.844582   -680.88547   -4649.0127 
23427000     260.9352   -6328.7231   -5657.4832   -6328.7231            0    7168.9059    23.208045    21.387499    21.827124    10834.156    8197.7219    6999.1311    6309.8647   -1115.7333    707.18125   -305.62633   -4524.7599 
23428000    257.69191   -6332.0501   -5669.1533   -6332.0501            0      6587.63    23.591104    21.210756    21.645538    10831.106    5704.6857    7116.0822     6942.122   -546.75628   -684.75582    1429.6272   -4628.5676 
23429000    247.05953   -6330.9931   -5695.4475   -6330.9931            0    4774.2951    23.257137    21.568241    21.723107    10896.648    5292.2956    4584.8257     4445.764   -277.31747    200.92773    751.32579   -4936.7336 
23430000    249.61456   -6337.9606   -5695.8423   -6337.9606            0    5028.2317    23.431796    21.438148    21.730948    10916.201    5761.5052    4751.1027    4572.0872    96.833183    103.17921    519.90836   -4895.3398 
23431000    254.18764   -6364.7491   -5710.8669   -6364.7491            0    5646.8614    23.426506    21.405122     21.69104    10876.911    5937.8205    4846.3222    6156.4414    745.62664    698.03451     399.5884   -4815.1132 
23432000    260.55087   -6352.8063   -5682.5551   -6352.8063            0    5651.8849    23.329452    21.462253    21.756684    10893.628    5412.8339     6004.401      5538.42    774.11834    481.78443   -699.42166   -4784.6266 
23433000    242.94745    -6343.525   -5718.5575    -6343.525            0    6605.2805    23.453462    21.247891    21.785769    10856.646     7241.582    6516.1912    6058.0682    214.47665    1099.2014    1060.6326   -4672.7233 
23434000    245.66875   -6347.8449    -5715.877   -6347.8449            0     6727.589    23.131613    21.594891    21.695269    10837.322    7231.6602    5114.3605    7836.7462    322.05332    437.61241    1210.9725   -4652.5733 
23435000    247.19073   -6297.2609   -5661.3778   -6297.2609            0    9075.9906     23.51279    21.264187    21.456717    10727.937    7842.9691    9728.6691    9656.3336    346.04113   -1005.3616    782.15553    -4241.385 
23436000    253.16199   -6319.9028    -5668.659   -6319.9028            0    6584.3271    23.364526    21.412183    21.564207    10788.261    5101.3308    7980.9719    6670.6787    18.909681   -781.80854    602.25035   -4632.7091 
23437000    250.01715   -6373.4853   -5730.3315   -6373.4853            0    6657.2454    23.172908     21.55313    21.653357    10814.741    7259.4802    5507.8066    7204.4494   -205.10146   -1223.8226    689.95806    -4680.338 
23438000    265.32689   -6338.5398   -5656.0025   -6338.5398            0    6893.4343    23.593215    21.245174    21.537336    10795.416    5689.9169    6884.1388     8106.247   -238.41765     678.3807    382.39194   -4570.6997 
23439000    246.58236   -6370.6861   -5736.3681   -6370.6861            0     6641.972    23.234789    21.461538    21.630571    10786.177    6621.7044    6957.3532    6346.8583    1206.8796   -930.13695    687.46311   -4691.5505 
23440000    260.25504   -6302.9455   -5633.4553   -6302.9455            0    5981.5366    23.392131    21.417515    21.660824    10852.101     6088.485    5684.8876    6171.2372    2456.8271   -233.12795    583.39269   -4686.7768 
23441000    253.22697   -6323.6288   -5672.2178   -6323.6288            0    6192.8067    23.576975    21.391154    21.522053    10854.405    4386.1693    6717.4887    7474.7622    591.33787    486.37065   -505.42901   -4691.8943 
23442000    238.67763   -6292.0561   -5678.0725   -6292.0561            0    7810.5043    23.194144    21.474813    21.739673    10828.312    8426.9167    6751.2349    8253.3612    344.42507   -710.84085    36.133179    -4444.639 
23443000    246.72443   -6344.5627   -5709.8792   -6344.5627            0     7170.687    23.286884    21.471022    21.638478    10819.092    5571.1569    8560.4072    7380.4969    824.82493    7.6671636      33.5784   -4578.4498 
23444000    244.70847   -6316.2794   -5686.7818   -6316.2794            0    7793.6276    23.345224    21.443583    21.581557    10803.841    8085.3314    8376.2718    6919.2798    328.95324     -427.486    829.39715   -4458.7949 
23445000    251.18103   -6323.2054   -5677.0575   -6323.2054            0    7562.3277    23.370695    21.452868    21.588874     10823.98    6817.1198    8117.1589    7752.7044    1089.1171    384.74132    1387.6239   -4483.2938 
23446000    245.01915   -6340.0875   -5709.7907   -6340.0875            0    7705.3751     23.31065    21.407241    21.704325    10830.821    6353.8133    7774.3113    8988.0006    322.75844    472.36288   -212.35243   -4492.6773 
23447000    244.97294   -6318.2749    -5688.097   -6318.2749            0     6830.741    23.277589    21.594786    21.562024    10838.681    6778.3981    6017.0717    7696.7532    476.11441   -1703.5158    643.83156   -4608.3547 
23448000    264.39178   -6348.5946   -5668.4628   -6348.5946            0    7034.3932    23.380218    21.499039    21.567653    10841.029    7721.1224    6315.9219    7066.1352    441.79591   -2003.7518   -1248.4347   -4556.2881 
23449000    260.74505   -6339.9332   -5669.1824   -6339.9332            0    7837.5067    23.290848    21.385368     21.60645    10761.813    6928.7597    9242.6113    7341.1493    1281.3892    303.80276   -221.73065   -4439.0857 
23450000    250.43125    -6348.094   -5703.8748    -6348.094            0    7914.4786    23.129507       21.475    21.644305     10750.86     7524.632    7825.5832    8393.2207    1403.9571    305.33109   -660.78002   -4462.9617 
23451000     253.2441   -6336.4625   -5685.0074   -6336.4625            0    7339.6579    23.440088    21.153249    21.702038    10760.608    6006.9076    8844.0612     7168.005    1151.6989    265.11563    957.35025    -4533.177 
23452000    247.94451   -6334.4823   -5696.6602   -6334.4823            0    7090.8844    23.232015    21.556679    21.587901    10811.331     6766.241    8030.8318    6475.5805     839.8532    406.06515    -441.0175    -4578.625 
23453000    241.59614   -6367.9952   -5746.5039   -6367.9952            0    7276.4353    23.356201    21.449295    21.520276      10781.1     7068.029    7152.1383    7609.1385   -1076.6849   -197.35038    399.56848   -4602.4206 
23454000    248.96325   -6350.4344   -5709.9916   -6350.4344            0    7061.9959    23.355879    21.401366    21.682148    10837.772    7084.9824    7194.2589    6906.7465   -18.493441   -899.94958    451.43454   -4593.7881 
23455000    244.75397   -6340.6993   -5711.0846   -6340.6993            0    6626.3504    23.045545    21.563946    21.745987    10806.731    7352.3309     6481.231    6045.4892    453.62373   -338.73774     755.5038    -4666.738 
23456000     240.6686   -6356.4268   -5737.3215   -6356.4268            0    7201.1531    23.373496    21.379521    21.591182    10789.419    7327.1302    8280.3193    5996.0098   -593.85907   -870.91609   -1571.7079   -4604.2013 
23457000    242.92673   -6345.9638   -5721.0496   -6345.9638            0    6203.6221    23.362875    21.319014    21.757446    10836.807    5754.8949    6871.5243    5984.4471    545.81236    479.08352    839.28201   -4740.6062 
23458000    252.34264   -6340.3262   -5691.1902   -6340.3262            0    6929.1398    23.199297    21.588773    21.576421    10806.428    6608.7578    6995.8404    7182.8211     721.3552    1038.7316    325.87739   -4599.1531 
23459000    263.94518    -6358.967   -5679.9841    -6358.967            0    6302.3415     23.45084    21.305744     21.70425    10844.259    5919.6602    6233.5378    6753.8263     1161.293   -169.65028   -385.05121   -4683.2537 
23460000    255.38991    -6359.591    -5702.616    -6359.591            0    6872.0761    23.201484    21.527195    21.654231    10815.484    7298.5621    6725.1836    6592.4827   -510.61506    357.03314   -710.06806   -4618.6645 
23461000    242.90987   -6304.1278   -5679.2569   -6304.1278            0    6487.4328    23.377862    21.556048    21.535612    10852.534     7740.922    5113.1832    6608.1932   -1438.7734   -244.74215    583.77322    -4652.471 
23462000    249.06897   -6351.9781   -5711.2633   -6351.9781            0    6609.3622    23.463887    21.279499     21.66309    10816.375    4764.8856    8151.9037    6911.2973   -158.33558   -288.14226   -6.4156482   -4668.6646 
23463000    244.33191   -6332.0879   -5703.5589   -6332.0879            0    8442.1286    23.056702     21.59657    21.604236    10757.736    8949.9758    7121.7025    9254.7076   -84.391034   -16.836803    1668.4465   -4379.0688 
23464000    260.62574   -6360.9164   -5690.4726   -6360.9164            0    6689.3043    23.388973    21.241024    21.688201    10774.823    5703.7653    8092.8307    6271.3169     43.01131    248.70947    196.87025   -4639.3171 
23465000     238.0165   -6348.2539    -5735.971   -6348.2539            0     8058.827     23.12541    21.421054    21.747918    10773.281    8420.3616    8056.4707    7699.6487    147.65904   -229.10969   -647.58594   -4469.7903 
23466000    246.28973   -6330.0215   -5696.4562   -6330.0215            0    7509.9932    23.290675    21.537675    21.541224    10805.659       7840.9    6124.9405     8564.139   -929.56939    63.020769    -352.3453   -4512.9604 
23467000    247.38706   -6337.2846   -5700.8964   -6337.2846            0    7614.6116    23.471278    21.328734    21.568598    10797.513    6567.8072    8143.6747    8132.3529   -238.72057    587.14111   -808.90722   -4501.8186 
23468000    251.74033    -6321.154   -5673.5673    -6321.154            0    6489.7445    23.196469    21.493603    21.732472    10835.282     6835.051    6316.4615     6317.721   -1170.1205    1454.6696   -388.84545   -4648.0483 
23469000    240.38395   -6318.0321    -5699.659   -6318.0321            0    7634.4265    23.341463    21.232554    21.809653    10808.839    6413.4562    9055.5739    7434.2493    757.04984    270.93192    736.14329   -4496.1998 
23470000    242.57034   -6365.8282   -5741.8308   -6365.8282            0    6373.2352    23.377529     21.48533    21.580755     10839.45    7286.0569    5004.9868    6828.6619   -1058.6443   -430.42563   -457.07654   -4734.3353 
23471000    235.48771   -6320.0516   -5714.2738   -6320.0516            0    5181.4577    23.287282    21.553061    21.711416    10897.225    5372.2222    4687.2899    5484.8611   -963.00982   -74.033815   -1455.8061   -4890.8115 
23472000     241.4509   -6332.0314   -5710.9137   -6332.0314            0    7805.9284    23.413411    21.201834    21.730693    10787.273     6180.464    10443.935     6793.386    587.12984    1903.0338    374.06146   -4482.8747 
23473000     251.0262   -6362.4352   -5716.6857   -6362.4352            0    6033.0151    23.260475    21.510279    21.670564    10842.635    6604.0569    5459.8178    6035.1706   -203.14187     1103.801    600.93744   -4762.6928 
23474000    253.35868   -6312.1237   -5660.3739   -6312.1237            0    7587.8931     23.32779    21.378591     21.72665    10835.413      7980.54    7025.9444     7757.195   -642.22116    166.24749   -250.85159   -4461.3094 
23475000    244.11319    -6335.675   -5707.7086    -6335.675            0    7165.0307    23.325661    21.289938    21.790326    10821.117    6011.4556    7979.1603    7504.4763   -252.93879    346.00549   -144.66237   -4576.9601 
23476000    243.08786   -6322.6004   -5697.2717   -6322.6004            0    6992.8437    23.202994    21.571198    21.625867    10824.101    7374.2917    6170.7199    7433.5193   -308.95031   -261.75978    720.93134   -4593.3925 
23477000     260.8339   -6306.4048   -5635.4255   -6306.4048            0    6273.1479    23.304206    21.573824    21.597582    10858.419    6483.8011    4884.1036    7451.5391   -295.46444    977.06292    1486.6312   -4642.0167 
23478000    254.45559   -6313.7457   -5659.1742   -6313.7457            0    5736.3246    23.471012    21.372712    21.705415    10888.287    5995.7913     5894.416    5318.7664    529.40044    110.05998     800.6383   -4748.2775 
23479000    253.86021   -6330.2725   -5677.2326   -6330.2725            0    6108.9257    23.284663    21.618744    21.606396     10876.34      6895.85    4605.5708    6825.3562   -415.24504   -195.32466    1074.3623   -4708.2332 
23480000    253.94865   -6314.6051   -5661.3377   -6314.6051            0    5852.3422    23.438964    21.366388    21.785502     10910.31    5296.5451    7406.2367    4854.2446    752.43225   -1242.6784    -242.3427   -4730.1383 
23481000    258.66677   -6336.9781   -5671.5736   -6336.9781            0    6821.3496    23.443999    21.457877    21.501945    10816.735    6747.4439    6556.0527    7160.5523    -633.6292   -629.39579    81.634909    -4595.499 
23482000    251.21997   -6332.1961    -5685.948   -6332.1961            0    7541.2588    23.246762    21.461669    21.655263    10804.121    7028.4486    7106.9268    8488.4011   -479.73937    489.67914    -950.3524   -4497.6944 
23483000    247.19198   -6343.1425   -5707.2562   -6343.1425            0    8044.0106    23.214969    21.311309    21.737976    10754.676    9417.4033    8061.8641    6652.7644   -146.85687   -890.61661   -593.63707    -4445.586 
23484000    244.66186   -6322.7376   -5693.3599   -6322.7376            0    6771.4471    23.268439    21.331041    21.765712    10803.194     7106.325    8624.2824    4583.7338    879.50701   -232.45412   -869.60235   -4626.4947 
23485000    251.85091   -6357.9498   -5710.0787   -6357.9498            0     7902.324    23.277462    21.379221    21.651012    10774.713    6437.2879    8969.1497    8300.5343    1673.8472   -537.66114   -492.95438   -4468.3222 
23486000    244.44981   -6330.2852    -5701.453   -6330.2852            0     8455.725    23.392149    21.375513    21.539424    10770.125    8757.6129    8674.6279    7934.9342    24.788199    -1041.319   -625.44376   -4373.3018 
23487000    240.85554   -6335.6814   -5716.0952   -6335.6814            0    7690.6253    23.317269    21.417204    21.599731    10786.705    7799.9732    6902.4623    8369.4405    746.23678    631.05094   -675.93846   -4506.2597 
23488000    249.06543   -6299.9741   -5659.2685   -6299.9741            0    7661.4151    23.193938    21.327318    21.813347    10790.288    8424.8751    8829.1187    5730.2516    1634.9579    -1368.045   -1213.8446   -4453.6277 
23489000    241.96641   -6335.2173   -5712.7735   -6335.2173            0    5960.5962    23.354781     21.45821    21.663647    10856.775    6467.0439    5309.7294    6105.0153    843.51636   -697.43702    344.98695   -4769.0029 
23490000    241.88891   -6303.0481   -5680.8037   -6303.0481            0     6465.293    23.339867    21.513237    21.616635     10854.06    5565.4395    6395.4562    7434.9832    1056.6768   -1189.3698    1232.6107    -4657.378 
23491000    247.80505   -6334.3489   -5696.8855   -6334.3489            0    7691.2477    23.321181    21.448618    21.516498    10762.705    7158.7731    8768.3861    7146.5837   -502.45936   -1977.9417    315.91856   -4489.6441 
23492000     240.6944   -6319.8315   -5700.6598   -6319.8315            0    6647.0414    23.470633    21.286906    21.705082    10844.232    7647.0007    5538.6944    6755.4289   -397.81756   -260.63415   -1117.1707    -4649.417 
23493000    252.67184   -6337.9053   -5687.9224   -6337.9053            0    5500.5744    23.280541    21.537735    21.690663    10875.918    4971.8052    6002.5294    5527.3888    203.78609   -215.40097   -4.1777922   -4815.4537 
23494000    244.50129    -6324.635   -5695.6703    -6324.635            0    6496.8541    23.373583    21.501379     21.63831    10874.642    6229.8986    6454.2756     6806.388   -1031.8466    336.16147   -588.62434   -4665.2985 
23495000    260.43104   -6316.6543   -5646.7113   -6316.6543            0    6090.0975    23.447959    21.341518    21.803566    10910.833    7063.2181    5850.2784    5356.7958    501.04247    289.71395   -268.44095   -4677.6349 
23496000    240.51503   -6332.6229   -5713.9127   -6332.6229            0    5820.8068    23.401307     21.42899    21.708652    10886.159    5977.3136    5762.5609     5722.546    137.33698    669.49751   -340.16357   -4789.7812 
23497000    248.49095   -6337.2163   -5697.9885   -6337.2163            0    4821.8531    23.400894     21.64788     21.54672    10915.132    6322.8113     2759.269    5383.4791   -925.07857    224.96494    100.15323   -4930.4169 
23498000    254.46804   -6334.8661   -5680.2626   -6334.8661            0    7291.5703     23.41017    21.473769    21.471477     10793.81    7593.6159    7279.1732    7001.9219   -1244.3037   -55.371758   -854.51399   -4532.4481 
23499000    259.53139   -6379.5448   -5711.9161   -6379.5448            0    6886.1188    23.383018    21.293648    21.750424    10829.748    6785.7976    6046.0787    7826.4802    780.19588    66.804321    983.97673   -4624.3172 
23500000    258.98613   -6305.8004   -5639.5743   -6305.8004            0    6559.1304    23.151519    21.582629    21.762475     10874.07    7472.3667    5446.4057    6758.6188   -1513.3814    161.27211    666.24457   -4599.3805 
Loop time of 603.914 on 64 procs for 250000 steps with 1296 atoms

Performance: 71.533 ns/day, 0.336 hours/ns, 413.966 timesteps/s
99.2% CPU use with 64 MPI tasks x 1 OpenMP threads

MPI task timing breakdown:
Section |  min time  |  avg time  |  max time  |%varavg| %total
---------------------------------------------------------------
Pair    | 30.116     | 39.409     | 48.526     |  94.6 |  6.53
Bond    | 0.27372    | 0.28039    | 0.29406    |   0.8 |  0.05
Kspace  | 309.9      | 321.99     | 334.87     |  37.7 | 53.32
Neigh   | 4.5768     | 5.0968     | 5.6912     |  12.8 |  0.84
Comm    | 99.671     | 109.22     | 117.63     |  36.7 | 18.08
Output  | 1.0095     | 1.0103     | 1.0144     |   0.1 |  0.17
Modify  | 117.4      | 119.23     | 121.52     |  10.5 | 19.74
Other   |            | 7.683      |            |       |  1.27

Nlocal:        20.2500 ave          27 max          12 min
Histogram: 1 2 5 6 14 9 7 5 13 2
Nghost:        2575.30 ave        2604 max        2550 min
Histogram: 5 6 4 5 13 11 11 6 2 1
Neighs:        6415.23 ave        8563 max        3830 min
Histogram: 1 5 2 11 9 12 4 8 10 2

Total # of neighbors = 410575
Ave neighs/atom = 316.80170
Ave special neighs/atom = 2.0000000
Neighbor list builds = 9036
Dangerous builds = 0

unfix		3
unfix		2
unfix		1

write_data	data.final.${pid}
write_data	data.final.0
System init for write_data ...
PPPM initialization ...
  extracting TIP4P info from pair style
  using 12-bit tables for long-range coulomb (../kspace.cpp:340)
  G vector (1/distance) = 0.37065779
  grid = 30 40 32
  stencil order = 5
  estimated absolute RMS force accuracy = 0.0037806324
  estimated relative force accuracy = 1.1385262e-05
  using double precision FFTW3
  3d grid and FFT values/proc = 5168 640
Last active /omp style is kspace_style pppm/tip4p/omp
WARNING: Not all mixed pair coeffs generated from mixing. Use write_data with 'pair ij' option to store all pair coeffs. (../write_data.cpp:312)

write_restart   restart.lmp.${pid}
write_restart   restart.lmp.0
System init for write_restart ...
PPPM initialization ...
  extracting TIP4P info from pair style
  using 12-bit tables for long-range coulomb (../kspace.cpp:340)
  G vector (1/distance) = 0.37065779
  grid = 30 40 32
  stencil order = 5
  estimated absolute RMS force accuracy = 0.0037806324
  estimated relative force accuracy = 1.1385262e-05
  using double precision FFTW3
  3d grid and FFT values/proc = 5168 640
Last active /omp style is kspace_style pppm/tip4p/omp
Total wall time: 0:10:05
