#include		in.partitions
include		in.temp
variable        temperature equal 138.27
variable	tempDamp equal 100.0
include		in.pressure
variable        pressure equal 8291.5
variable        pressureDamp equal 1000.0 # This is 1 ps
include		in.seed
variable        seed equal 745823

units		real
atom_style	full
read_restart	restart.lmp.${pid}
read_restart	restart.lmp.0
Reading restart file ...
  restart file = 30 Jul 2021, LAMMPS = 30 Jul 2021
  restoring atom style full from restart
  orthogonal box = (-0.0088692326 -0.029938701 -0.00077300969) to (24.738870 24.759940 22.810773)
  2 by 4 by 2 MPI processor grid
  restoring pair style lj/cut/tip4p/long/omp from restart
  restoring bond style harmonic/omp from restart
  restoring angle style harmonic/omp from restart
  1920 atoms
  1280 bonds
  640 angles
Finding 1-2 1-3 1-4 neighbors ...
  special bond factors lj:    0        0        0       
  special bond factors coul:  0        0        0       
     2 = max # of 1-2 neighbors
     1 = max # of 1-3 neighbors
     1 = max # of 1-4 neighbors
     2 = max # of special neighbors
  special bonds CPU = 0.001 seconds
  read_restart CPU = 0.007 seconds
include 	in.setup
variable	out_freq equal 1000
variable	out_freq2 equal 10000
variable	out_freq3 equal 1000

timestep	2.0

neigh_modify    delay 7 every 1

include		in.tip4p
# This is TIP4P/Ice

# create groups ###
group ox type 2
640 atoms in group ox
group hy type 1
1280 atoms in group hy

# set charges - beside manually ###
set group ox charge -1.1794
Setting atom values ...
  640 settings made for charge
set group hy charge 0.5897
Setting atom values ...
  1280 settings made for charge

# ### TIP3P Potential Parameters ###
pair_style lj/cut/tip4p/long/omp 2 1 1 1 0.1577 8.5
pair_coeff 1 1*2 0.000 0.000
pair_coeff 2 2 0.21084 3.1668
bond_style  harmonic
bond_coeff  1 450 0.9572
angle_style harmonic
angle_coeff 1 55 104.52
kspace_style pppm/tip4p/omp 1.0e-5
pair_modify tail yes

thermo          ${out_freq}
thermo          1000
thermo_style    custom step temp pe etotal epair emol press lx ly lz vol pxx pyy pzz pxy pxz pyz enthalpy

restart 	${out_freq3} restart.lmp.${pid} restart2.lmp.${pid}
restart 	1000 restart.lmp.${pid} restart2.lmp.${pid}
restart 	1000 restart.lmp.0 restart2.lmp.${pid}
restart 	1000 restart.lmp.0 restart2.lmp.0


include         in.dump
dump            myDump all atom ${out_freq2} dump.water.${pid}
dump            myDump all atom 10000 dump.water.${pid}
dump            myDump all atom 10000 dump.water.0
dump            myDump2 all dcd ${out_freq2} dump.dcd
dump            myDump2 all dcd 10000 dump.dcd
dump_modify     myDump append yes
dump_modify     myDump2 append yes


variable natoms 	equal  "count(all)"                        # NUMBER ATOMS
variable H      	equal  "enthalpy/v_natoms"                 # ENTHALPY-per-atom
variable Vol      	equal  "vol/v_natoms"                 # volume-per-atom
fix AVG all 		ave/time ${out_freq} 1 ${out_freq} v_Vol v_H file vol_enthalpy.dat
fix AVG all 		ave/time 1000 1 ${out_freq} v_Vol v_H file vol_enthalpy.dat
fix AVG all 		ave/time 1000 1 1000 v_Vol v_H file vol_enthalpy.dat




fix 		1 all shake 1e-6 200 0 b 1 a 1
       0 = # of size 2 clusters
       0 = # of size 3 clusters
       0 = # of size 4 clusters
     640 = # of frozen angles
  find clusters CPU = 0.000 seconds
fix             2 all nph aniso ${pressure} ${pressure} ${pressureDamp}
fix             2 all nph aniso 8291.5 ${pressure} ${pressureDamp}
fix             2 all nph aniso 8291.5 8291.5 ${pressureDamp}
fix             2 all nph aniso 8291.5 8291.5 1000
fix             3 all temp/csvr ${temperature} ${temperature} ${tempDamp} ${seed}
fix             3 all temp/csvr 138.27 ${temperature} ${tempDamp} ${seed}
fix             3 all temp/csvr 138.27 138.27 ${tempDamp} ${seed}
fix             3 all temp/csvr 138.27 138.27 100 ${seed}
fix             3 all temp/csvr 138.27 138.27 100 745823


run             250000
PPPM initialization ...
  extracting TIP4P info from pair style
  using 12-bit tables for long-range coulomb (../kspace.cpp:340)
  G vector (1/distance) = 0.37501576
  grid = 30 30 30
  stencil order = 5
  estimated absolute RMS force accuracy = 0.0032061506
  estimated relative force accuracy = 9.6552274e-06
  using double precision FFTW3
  3d grid and FFT values/proc = 7920 1800
Last active /omp style is kspace_style pppm/tip4p/omp
Neighbor list info ...
  update every 1 steps, delay 7 steps, check yes
  max neighbors/atom: 2000, page size: 100000
  master list distance cutoff = 10.8154
  ghost atom cutoff = 10.8154
  binsize = 5.4077, bins = 5 5 5
  1 neighbor lists, perpetual/occasional/extra = 1 0 0
  (1) pair lj/cut/tip4p/long/omp, perpetual
      attributes: half, newton on, omp
      pair build: half/bin/newton/omp
      stencil: half/bin/3d
      bin: standard
Per MPI rank memory allocation (min/avg/max) = 12.56 | 12.56 | 12.56 Mbytes
Step Temp PotEng TotEng E_pair E_mol Press Lx Ly Lz Volume Pxx Pyy Pzz Pxy Pxz Pyz Enthalpy 
25250000    138.90024   -9617.5006   -9087.9496   -9617.5006            0    8569.8236    24.747739    24.789878    22.811546    13994.734    8758.7223    8331.3196    8619.4288   -885.49416    -858.7102    32.413921   -7338.8585 
25251000    136.04537   -9623.0811   -9104.4141   -9623.0811            0    8495.9987    24.703534    24.834337    22.803311    13989.738    9497.0855    7670.5994     8320.311   -183.59596    159.10736    513.74232   -7371.0097 
25252000    139.01063   -9627.7377   -9097.7658   -9627.7377            0    8585.3238    24.753387    24.771795    22.792573    13976.083     8630.279    8003.1639    9122.5285   -334.38789    252.19744    376.66429   -7347.8464 
25253000    138.21012   -9628.7544   -9101.8344   -9628.7544            0    8614.7757    24.782366    24.748803    22.788603    13977.023    8778.8562     8554.655    8510.8159   -140.07486   -316.51588    310.31287   -7345.7939 
25254000    137.93418   -9647.8181   -9121.9501   -9647.8181            0    7638.0175    24.770318    24.728609    22.876797    14012.851    7789.9658    8120.6485    7003.4383   -1235.6792   -422.28338    366.06467   -7561.0215 
25255000    137.74956   -9623.2483   -9098.0842   -9623.2483            0    6805.2628    24.831888    24.890331    22.759996     14067.36    7370.4555    5865.5004    7179.8325   -332.19783   -255.35069    99.929476     -7701.93 
25256000    141.31325   -9619.7962   -9081.0457   -9619.7962            0     8183.114    24.788356    24.759981    22.847951    14023.141     8166.577    8498.1933    7884.5716   -487.29177   -619.89381    158.89094   -7407.4915 
25257000    133.71621   -9615.9324   -9106.1453   -9615.9324            0    9111.9313    24.725139    24.819198    22.751924    13961.903    9718.6932    8331.4593    9285.6414    619.59093    479.74643   -433.97573   -7250.7735 
25258000    136.34743   -9629.0482   -9109.2296   -9629.0482            0    8570.5602    24.751679    24.753234    22.825476    13984.807    8499.5373    8862.3433    8349.8001    349.63116     25.30529    -775.3142   -7361.2291 
25259000    141.06901   -9611.2067   -9073.3873   -9611.2067            0     8151.792    24.807542    24.779463    22.789185    14008.913    8564.5032    8022.2659    7868.6068   -254.06553   -632.64127    600.81035   -7407.9304 
25260000      141.806   -9629.6978   -9089.0686   -9629.6978            0    8360.2209    24.776644    24.718405    22.863387    14002.433    8147.9397    8896.1404    8036.5828   -108.64211   -405.82421    363.60932   -7381.8186 
25261000    137.08737   -9621.2665   -9098.6269   -9621.2665            0    9210.2646    24.823201    24.748652    22.739671    13969.907    8566.4929    9521.6938    9542.6072    109.50496   -889.79643    854.27862   -7222.1574 
25262000    143.94635   -9622.2691     -9073.48   -9622.2691            0    8428.6988     24.73941    24.745314    22.868803    13999.925    8889.0376    8483.5509    7913.5081   -158.84174   -606.75631    850.35935   -7352.5542 
25263000    138.02025    -9615.696   -9089.4998    -9615.696            0    7606.2065    24.831248    24.826578    22.773816    14039.487    6757.4818    7851.8627    8209.2751    84.450818   -225.51067    277.00459   -7532.1176 
25264000    132.99566    -9634.766   -9127.7259    -9634.766            0     8313.214    24.725975    24.824817    22.818178    14006.204    8672.9475    7999.5749    8267.1195    470.48453   -446.22482    145.38041    -7429.618 
25265000    138.92596   -9635.2421    -9105.593   -9635.2421            0    7589.0483    24.757639    24.897511     22.75473    14026.097    8025.3792    6690.6635     8051.102   -181.17999   -174.60569    537.44087   -7553.2058 
25266000     138.4258   -9623.0117   -9095.2694   -9623.0117            0     8583.496    24.731502    24.796726    22.807824    13987.133    8818.5943    7987.4214    8944.4724   -73.559853   -366.77588   -411.66563   -7344.3394 
25267000    138.80333   -9622.9072   -9093.7256   -9622.9072            0    9360.5698    24.755386    24.757016    22.770162    13955.137    9552.0319    8936.8961    9592.7815    170.07392    379.02694    493.57618   -7188.6496 
25268000    135.84025   -9630.6639   -9112.7789   -9630.6639            0    8858.9222    24.748609     24.71826    22.850678    13978.732    8913.9239    9467.9465    8194.8962   -284.73854   -182.98253    360.00326   -7306.7506 
25269000    139.86386   -9636.0865   -9102.8617   -9636.0865            0    8356.5343    24.845481    24.769566    22.738851    13993.757    8246.6581    8358.5273    8464.4175    624.48115   -392.70745   -116.72998   -7397.4218 
25270000    139.34466   -9640.9327   -9109.6873   -9640.9327            0    8993.7916    24.736009    24.669818    22.871682    13957.051    8452.3725    9289.7655    9239.2369   -748.78326   -92.584279   -117.55329   -7279.0076 
25271000     140.1981   -9645.0066   -9110.5075   -9645.0066            0    8212.9667    24.788125    24.841977    22.716271    13988.362    8328.7976    7449.9106    8860.1919   -113.63846    312.48121   -49.521808   -7435.0137 
25272000    137.95854    -9612.162   -9086.2011    -9612.162            0    7980.2889    24.651699    24.812772    22.902549    14008.962    8660.6728    8234.4682    7045.7257   -46.247322    15.869164   -714.73364   -7455.7775 
25273000    136.54927   -9646.4475   -9125.8594   -9646.4475            0    8415.6388    24.741291      24.8195    22.761021     13976.78    8185.5753    8277.1204    8784.2207    339.95668     357.8714   -268.88905   -7410.4408 
25274000    142.13232   -9603.6688   -9061.7956   -9603.6688            0    9311.0066    24.734717    24.672338    22.887322    13967.293    9836.4871     9784.365    8312.1677   -95.293366   -614.44693    514.05622   -7165.1562 
25275000    140.55576   -9627.2531   -9091.3904   -9627.2531            0    8770.9177    24.826172    24.780125    22.722511     13978.79     8330.834    9154.1954    8827.7236    546.80609    393.21942   -278.90536   -7303.2958 
25276000    139.94231   -9612.7929    -9079.269   -9612.7929            0    9096.6377    24.762275    24.646674    22.891235    13970.697    8444.5855    9624.0591    9221.2685    272.96081    23.413449    974.14789   -7225.8446 
25277000    141.22447   -9627.4454   -9089.0333   -9627.4454            0    8720.8647    24.779926    24.755367    22.776743    13972.078    7988.0557    9482.2187    8692.3196   -212.43404    176.29209     388.9874   -7311.9965 
25278000     135.5131   -9621.7891   -9105.1514   -9621.7891            0    8798.4168    24.744375    24.668176    22.883501    13968.056    8747.6692    9637.9998    8009.5815   -319.86439    1177.3173    135.72739   -7312.8279 
25279000    133.89668   -9624.4992    -9114.024   -9624.4992            0     7651.422    24.778052    24.827129    22.792346    14021.119    6971.8968    7805.4758    8176.8936    96.293797   -133.10866    856.66724   -7549.4334 
25280000    141.32824   -9623.6977     -9084.89   -9623.6977            0    8509.8433    24.664505    24.861288    22.799472    13980.439    9825.3704    7583.2969    8120.8627   -470.09402   -1125.2132    31.246505   -7349.8149 
25281000    137.88947   -9600.2367   -9074.5391   -9600.2367            0    8202.1714    24.641969    24.843322    22.888889    14012.312    8713.1512     8420.906    7472.4571    -263.6549    540.82464   -601.82994   -7398.3828 
25282000    140.76792   -9620.6072   -9083.9357   -9620.6072            0    8350.5349    24.804509    24.782564    22.785747    14006.839    8250.8453    8073.6269    8727.1325   -262.47887    120.89386    -984.0154    -7378.127 
25283000    138.03803   -9614.4774   -9088.2134   -9614.4774            0    8085.3264    24.800958    24.740019    22.836077    14011.673    7533.1944    9020.7101    7702.0747   -352.67767   -201.50286     512.3868   -7436.0104 
25284000    135.89993   -9643.5823   -9125.4698   -9643.5823            0     7762.978    24.814183    24.768658    22.787532    14005.537     7724.028    7849.8113    7715.0947   -580.14362   -419.44284    347.97435    -7539.832 
25285000    136.26906    -9646.207   -9126.6872    -9646.207            0    8610.6078    24.697862    24.741208    22.828944    13949.739    9172.6912    8496.5799    8162.5524   -72.860635   -451.48261   -306.90147   -7374.9224 
25286000     137.0221   -9621.2135   -9098.8228   -9621.2135            0    9343.7176    24.682018    24.827698     22.76709     13951.62    9419.9961    9036.7905    9574.3662   -874.89244    204.69586   -297.09281   -7197.6559 
25287000    139.38162   -9634.2715   -9102.8852   -9634.2715            0    7783.7165    24.746652    24.888205    22.760701     14018.31     8309.816    6464.6805     8576.653    790.07715    192.97905   -71.438024   -7511.5614 
25288000    139.25619   -9618.8869   -9087.9788   -9618.8869            0    7784.7997    24.752608    24.716598    22.891081     14004.77    7644.7317    9299.0225    6410.6449   -286.17672   -808.37325   -183.70088   -7497.9708 
25289000    137.56198   -9634.7025   -9110.2535   -9634.7025            0    8443.6325    24.822582     24.72655    22.773643    13977.934    7864.2463    9043.7234    8422.9279   -131.89626   -390.43531   -242.52174   -7388.9866 
25290000    137.55078   -9635.2634   -9110.8571   -9635.2634            0    8123.7592    24.802836    24.732681    22.830115     14004.92    8196.6351    8365.4438    7809.1986     307.2139   -820.47155    261.68084   -7451.6005 
25291000    135.36733   -9646.9069   -9130.8249   -9646.9069            0    8251.9443      24.7643    24.772976    22.837847    14010.686    7931.5904    9179.3015     7644.941    373.78012    -164.9427    519.66356   -7444.6928 
25292000    137.54003   -9633.8517   -9109.4864   -9633.8517            0    7770.7891    24.763068    24.859057    22.770836    14017.419     7478.255    7343.4401     8490.672   -308.97841   -762.30986   -419.66197   -7520.9065 
25293000    140.72214   -9624.9073   -9088.4103   -9624.9073            0    8281.5841    24.706469    24.775954    22.885377    14008.742    8778.5719    8541.6322     7524.548   -508.44067   -457.99039    447.83252   -7396.4568 
25294000      135.465   -9620.2595   -9103.8052   -9620.2595            0    8309.9089    24.796049    24.876023     22.72141    14015.181    8783.0186    7276.2467    8870.4613   -16.400293   -350.66528    563.02106   -7405.2844 
25295000    134.80749   -9651.8441   -9137.8964   -9651.8441            0     8603.762    24.700758    24.754605    22.867659    13982.602    8808.7899      9133.71    7868.7862   -66.118404   -114.17323     954.6083   -7383.4009 
25296000    144.02779   -9617.3274   -9068.2278   -9617.3274            0    9698.5296    24.775629    24.716216    22.740089    13925.116    9160.2641    10208.307    9727.0178    334.32071    532.23809    478.95802   -7098.6161 
25297000    137.48513   -9637.2437   -9113.0877   -9637.2437            0    8404.2364    24.815608    24.749414    22.770024    13984.706    8086.8537    8804.4434    8321.4121    114.37876   -371.33327   -790.37945    -7399.022 
25298000    137.81752   -9627.1092    -9101.686   -9627.1092            0    8105.8175    24.798131    24.726161    22.836461    14002.464    7763.3996    8456.1452    8097.9076   -595.08972   -535.50655    187.40155   -7446.3842 
25299000    140.10588   -9622.6468   -9088.4993   -9622.6468            0    7114.6212    24.774673    24.887055    22.773525    14041.442    7196.4297    6450.9091     7696.525   -540.82333    -873.8172   -776.31506    -7631.567 
25300000    140.04495   -9619.5866   -9085.6714   -9619.5866            0    8279.0615    24.703126    24.821631    22.837961    14003.595    8444.4677    8243.0448    8149.6721   -438.91724   -615.76123   -302.37643   -7394.8546 
25301000    138.01487   -9622.0541   -9095.8785   -9622.0541            0    8826.5953    24.715589    24.781241    22.802116    13965.908    8748.4677    8605.5689    9125.7491    302.25667    51.730266    620.33058   -7298.0913 
25302000    140.64582   -9634.6073   -9098.4013   -9634.6073            0    8081.1058    24.763866    24.804051    22.780095    13992.541    7285.0102    8005.9059    8952.4013   -170.00401    51.461035   -367.51354   -7449.3154 
25303000    139.50881   -9633.1346   -9101.2634   -9633.1346            0    7886.5771    24.729218      24.7907     22.84931    14007.875    8469.8137    7834.7408    7355.1767   -306.28526   -923.35839   -171.05138   -7490.1107 
25304000    138.46528   -9615.0746   -9087.1818   -9615.0746            0    8943.4954    24.812263    24.769383    22.731793    13970.607    8598.4048    7696.9011     10535.18    482.93579   -336.00492    382.02664   -7264.9717 
25305000    137.48589   -9605.2842   -9081.1253   -9605.2842            0     8896.322    24.707767    24.766842    22.844006    13979.009    9023.1783    9103.7434    8562.0443   -545.63592    96.560894    836.32656   -7267.4365 
25306000    142.90205   -9626.8835   -9082.0757   -9626.8835            0    7688.1375    24.865906    24.744498    22.797644    14027.262     8086.811     7453.831    7523.7704    296.80083   -622.51637   -177.42166   -7509.2886 
25307000    139.75194   -9635.0358   -9102.2376   -9635.0358            0    7047.1394    24.866622    24.766841    22.793312    14037.664    7818.6645     6084.949    7237.8047   -835.26287   -659.77455    698.19869   -7659.5125 
25308000     135.7568   -9623.9606   -9106.3938   -9623.9606            0    8571.9666    24.721265    24.741208     22.85722    13980.252    9018.9523    8348.6135     8348.334    195.97839   -346.69361    108.70685   -7358.6758 
25309000     139.3823   -9628.6731   -9097.2842   -9628.6731            0    8386.3933    24.780036    24.847674    22.710391    13983.384    8561.2133     7821.104    8776.8626    494.47623   -1515.0619   -55.530384   -7387.0193 
25310000    138.54913   -9653.9251   -9125.7126   -9653.9251            0    8255.6997    24.730578     24.77784    22.817615    13981.957    8970.0743    7959.5651    7837.4597    119.89453    51.055747     411.5338   -7442.2723 
25311000    135.49292   -9629.4065   -9112.8457   -9629.4065            0    8359.2333    24.712452    24.775143    22.844623    13986.724    8913.7904    8022.0152    8141.8943    365.27998   -537.50293   -325.98662   -7407.7124 
25312000    137.13546   -9628.3952   -9105.5723   -9628.3952            0    7591.3559     24.78748    24.832414    22.796072    14031.734    7561.9482    7335.2857    7876.8339    288.10631   -420.57237    57.779149    -7552.089 
25313000    142.30457    -9619.349   -9076.8191    -9619.349            0    7795.9468    24.840435    24.767693    22.807836    14032.299    7304.5018    8028.1713    8055.1673   -341.03119    516.74131    55.057908   -7481.4045 
25314000    142.03591   -9639.3505   -9097.8448   -9639.3505            0    7743.0826    24.783452    24.724233    22.874628    14016.471    7690.9797    8225.7236    7312.5446    278.96569    304.93044    267.07273   -7515.0361 
25315000    134.27594   -9640.2888   -9128.3677   -9640.2888            0    8239.6571    24.759609    24.808896    22.785717    13996.322    8286.6346    7826.4059    8605.9308   -495.94727   -608.53033    398.30677   -7446.4724 
25316000     143.9587    -9608.524   -9059.6878    -9608.524            0    9444.2286    24.775864    24.761564    22.750036      13956.9    8919.9036    9466.3317    9946.4504   -406.17847   -783.99564   -468.84859   -7137.3427 
25317000    133.85696   -9628.6183   -9118.2946   -9628.6183            0    8611.5626    24.742312    24.703655    22.876217    13982.528    8482.5667    8863.7408    8488.3803    502.98989    224.13374    477.41378   -7362.2176 
25318000    138.10646    -9640.776   -9114.2512    -9640.776            0    9024.6336    24.770947    24.727192    22.766858    13945.064    8510.6665    9643.3344    8919.8998    28.875516   -562.02104    129.66901   -7278.8713 
25319000     138.1131   -9645.7872   -9119.2371   -9645.7872            0    8289.1483    24.778011    24.811644    22.758192    13991.354    8610.0223    7570.3977    8687.0248    -504.5018   -139.44274   -371.04588   -7427.8401 
25320000    136.60602   -9631.1212   -9110.3167   -9631.1212            0    9184.1873    24.649837    24.751886    22.865983    13951.221    9971.2396    9066.6643    8514.6581    168.24509   -333.83482    305.53785    -7241.663 
25321000    140.77631   -9631.4202   -9094.7167   -9631.4202            0     8772.987    24.749511    24.817132    22.737425    13965.597    8892.4047    8071.3043     9355.252    119.19198   -539.02084    -135.3646   -7307.8882 
25322000    137.43222   -9612.8614   -9088.9071   -9612.8614            0    7647.2319    24.682628     24.84948    22.867426    14025.747      8338.48    7365.3308    7237.8851    119.62096    278.52413   -58.715869   -7524.6571 
25323000    136.65318   -9658.5822   -9137.5979   -9658.5822            0    7634.0728    24.757731    24.766175    22.822784    13993.888    7763.9162    8499.6475    6638.6548   -114.85156   -95.341184    238.86419   -7579.5867 
25324000     139.7273   -9625.0115   -9092.3073   -9625.0115            0    7744.0497    24.836956    24.824348    22.718101      14007.1     7416.742     6839.735    8975.6721    571.11177    229.39197    764.50161   -7510.3591 
25325000    143.25916   -9623.2877   -9077.1184   -9623.2877            0    8545.6377    24.738623    24.693013    22.908447    13994.109    7496.9329    9411.6676    8728.3125   -325.00926   -298.71492   -491.47895   -7333.0415 
25326000    140.05206   -9633.3043    -9099.362   -9633.3043            0    8599.2611    24.773988    24.779318    22.793849    13992.746    9017.6034    8543.6279    8236.5519    187.36317   -761.05787    622.45298   -7344.5121 
25327000    133.96045   -9633.3919   -9122.6735   -9633.3919            0      7679.71    24.821233    24.742717    22.837696     14025.65    7181.7041    7741.7981    8115.6278    710.60444   -575.70087   -705.48856    -7551.791 
25328000    137.83441   -9609.6027    -9084.115   -9609.6027            0    7782.8232    24.771648      24.7651    22.890247    14042.533    7460.4674    8345.2031     7542.799   -376.33507   -58.110034    430.43167   -7490.2244 
25329000    134.64976   -9622.9591   -9109.6128   -9622.9591            0    7981.7167    24.723621    24.921451    22.735649    14008.536    8463.0895     6931.867    8550.1936   -522.10513   -389.96791   -56.857605   -7478.9471 
25330000    138.12608   -9633.5794   -9106.9798   -9633.5794            0    7410.9524    24.702724    24.842276     22.86083    14029.049    7303.3864    7449.5884    7479.8824   -55.379398   -399.18659    365.21034   -7590.7042 
25331000    144.66385   -9639.7904   -9088.2658   -9639.7904            0    7788.7191    24.736066    24.860471    22.783023    14010.426    8032.3695    6982.7245    8351.0633   -593.47583     384.1614    82.468836   -7496.8149 
25332000    139.14898   -9631.4336   -9100.9342   -9631.4336            0    8731.0078    24.594772    24.694169    23.002755    13970.665    10179.285    8864.9296    7148.8088    150.87319    149.97962   -742.59213   -7322.0104 
25333000    133.29288    -9637.905   -9129.7317    -9637.905            0    8973.4885    24.768187     24.80251    22.712603    13952.652    8757.9729    8782.4249    9380.0677    -678.1046   -226.20293    98.347568   -7303.7604 
25334000    136.91128   -9600.4929   -9078.5247   -9600.4929            0    8121.4532    24.781844    24.780174    22.821883    14014.882    8347.9729    7535.8448    8480.5418    192.78234   -308.04427   -425.14351   -7418.5591 
25335000    136.51999   -9631.7064   -9111.2299   -9631.7064            0    8247.3619    24.777078    24.701893    22.884709    14006.374    8133.4953    9137.6012    7470.9892    243.02896   -1042.4986   -683.77927   -7426.5529 
25336000    140.32411   -9629.0932   -9094.1137   -9629.0932            0    8061.3739    24.810835    24.727631    22.804214    13990.686    7868.0529    8343.7646    7972.3042    152.89184    505.79742   -57.783661   -7449.2726 
25337000     140.7416   -9638.7002   -9102.1291   -9638.7002            0    8274.2995    24.760517    24.789814    22.818645    14006.281     7937.075    8403.0177    8482.8057    83.677363    196.02391   -423.38524   -7411.9607 
25338000    137.80054   -9607.4935    -9082.135   -9607.4935            0    7975.8095    24.696434    24.892768     22.82859    14034.164    8562.2334    6935.5375    8429.6576   -654.78843   -1324.9199    796.48679   -7449.6952 
25339000    136.67197   -9652.8536   -9131.7977   -9652.8536            0     7934.564    24.719875    24.871453    22.759369    13992.897     8644.231    6987.0464    8172.4146    193.15889    157.06094   -109.39868   -7512.5749 
25340000    141.02434   -9631.3145   -9093.6654   -9631.3145            0    8682.0456    24.732726    24.745644    22.842823     13980.43    8710.1538    9072.3021    8263.6808    81.730461    12.587655   -183.68864   -7323.4811 
25341000    130.93923   -9613.7233   -9114.5233   -9613.7233            0     8481.152    24.763078    24.751855    22.827292    13991.581    8294.1918    8749.4361     8399.828    541.81976    12.669369    1273.3301   -7383.9201 
25342000    137.19301   -9619.1564   -9096.1141   -9619.1564            0    7978.1566    24.821603    24.722138    22.819357    14002.941    7558.2141    8293.3802    8082.8753    111.98083     28.59863   -6.9271202   -7466.8267 
25343000    139.95852   -9630.8175   -9097.2318   -9630.8175            0    7508.8346     24.89313    24.742573    22.779363    14030.267    7600.2004     7595.598    7330.7053   -449.97268     117.2015    644.83642   -7560.7962 
25344000    138.81199   -9636.2562   -9107.0416   -9636.2562            0    7993.1402    24.753557    24.788611    22.824097     14005.01    7905.5499    8428.4736    7645.3972    86.354707    -1253.603   -256.71547   -7474.4531 
25345000    135.85905   -9651.6681   -9133.7114   -9651.6681            0    8520.5465    24.627899     24.79502    22.886879    13975.855    10090.191     8039.899    7431.5492    371.57162    294.44712   -286.69522   -7397.0237 
25346000     140.4166   -9631.6267   -9096.2946   -9631.6267            0    8189.3486    24.760209    24.855029    22.758375    14005.861    8252.6651    7743.7354    8571.6453    16.939905    949.91736    70.505764   -7423.5291 
25347000    136.03009   -9613.6178    -9095.009   -9613.6178            0    7522.2044    24.770664    24.764979    22.900561    14048.234    6395.8375     8650.692    7520.0837    57.618769   -837.29691    194.94492   -7553.8667 
25348000    137.36758    -9660.932   -9137.2242    -9660.932            0    7578.6132    24.862243    24.778571    22.739365    14008.605    6692.9384    7348.8711      8694.03    159.24211    86.497366    501.03429   -7588.9049 
25349000    139.96722   -9622.1219    -9088.503   -9622.1219            0    8660.6949    24.767112    24.655188    22.909215    13989.233    8506.8054    9605.7542    7869.5252   -193.36891    119.37841    818.78729   -7321.5601 
25350000    136.26868   -9637.0768   -9117.5584   -9637.0768            0    8646.3717    24.767491    24.814058     22.71319    13959.117    8524.2531    7882.5167    9532.3452     483.1333   -124.80695    58.589532   -7357.3352 
25351000    138.78025   -9645.5869   -9116.4933   -9645.5869            0      7838.92    24.686134    24.879449    22.821929    14016.714    8728.2261    6846.5308     7942.003     789.1812    290.73781   -104.95045    -7514.066 
25352000    143.17824   -9632.4708   -9086.6101   -9632.4708            0    8098.7846    24.680309    24.820381    22.888202    14020.732     7308.346    9207.7042    7780.3036    -426.0653   -1181.6978    352.17384   -7430.5868 
25353000    134.84483     -9606.95     -9092.86     -9606.95            0    8278.8947    24.838649    24.842186    22.672684    13990.096    7636.4973    8030.3535    9169.8333    572.82572    202.31048   -86.060121   -7403.7072 
25354000    137.21416   -9626.4968   -9103.3738   -9626.4968            0      8175.76     24.75585    24.770559    22.837426     14004.28    7768.8206    8586.8155     8171.644   -529.31355    -138.3029   -923.37654   -7433.5724 
25355000    140.12991   -9623.4506   -9089.2115   -9623.4506            0    8684.0741    24.786969    24.713858    22.809922    13972.939    7883.1763     9578.385    8590.6609   -671.98673   -387.69006    381.73859   -7319.5624 
25356000    139.31186   -9649.8359   -9118.7156   -9649.8359            0    8305.5632    24.842491    24.707838    22.806497    13998.724    7178.8935    9855.2034    7882.5926   -39.540906    -180.8388    98.334967   -7423.0764 
25357000    140.27893   -9633.1237   -9098.3164   -9633.1237            0    8679.1494    24.789413    24.733976    22.814609    13988.566    8044.7876     8773.503    9219.1577    303.34714   -588.30253   -533.68646   -7327.6928 
25358000    139.14217   -9635.0574    -9104.584   -9635.0574            0     7290.761    24.743656    24.846128    22.837509    14040.136    7097.2985    7513.5633    7261.4214   -275.54094    44.958467   -271.25782   -7611.7206 
25359000    138.21576   -9637.0279   -9110.0864   -9637.0279            0    8118.0274    24.756509    24.807236    22.814336     14011.21    8644.1158    7844.6833     7865.283     789.6422     980.4664    508.08913   -7451.2558 
25360000    133.23518   -9633.7709   -9125.8176   -9633.7709            0    6056.0881    24.846042    24.786081    22.890254    14096.643    5707.8137    7090.2927    5370.1581    591.66661   -259.92523    179.58646   -7880.7762 
25361000    139.73683   -9635.1762   -9102.4357   -9635.1762            0     7445.542    24.824139    24.861069    22.751483    14041.183    7626.4121    6397.7747    8312.4392     492.2527    102.49145    112.41322   -7577.7655 
25362000    138.14127   -9622.5679   -9095.9104   -9622.5679            0    7840.6167    24.726638     24.74486     22.92988    14029.812    7875.2864    9110.0897    6536.4739   -110.17257   -768.43109   -59.885807   -7491.6386 
25363000    137.65728    -9625.777   -9100.9647    -9625.777            0    8651.2067    24.759336    24.853948    22.710671    13975.403    8819.6686    7739.6803    9394.2713   -870.72476   -374.73051    401.72162   -7337.7024 
25364000    141.19556   -9594.1305   -9055.8286   -9594.1305            0      9619.02    24.688738    24.723725    22.885043    13968.974    9793.6637    9999.0046    9064.3916    701.72718   -121.45151    130.76655   -7096.2115 
25365000    139.78903   -9611.5066   -9078.5671   -9611.5066            0    7746.0614    24.846694    24.853892    22.719275    14029.994    6808.8042    7976.6716    8452.7085   -597.43818    170.67548    16.613896   -7493.6216 
25366000     134.4951   -9627.4227    -9114.666   -9627.4227            0    8735.4974    24.660191    24.825391    22.841959    13983.822    10325.568    7426.5727    8454.3512    155.51753   -85.728646   -480.37277   -7333.1513 
25367000    138.44969   -9658.0807   -9130.2474   -9658.0807            0    8491.0876    24.719568    24.816767    22.777553    13973.112    8721.8347    7905.0246    8846.4035   -418.00828    268.46942    292.21126   -7399.9037 
25368000    134.69523   -9642.6406    -9129.121   -9642.6406            0    8152.0153    24.690166    24.769819    22.896347    14002.741    8577.9379    8439.7491     7438.359     240.7058   -24.399117    326.11315   -7464.3522 
25369000    133.30334   -9610.7244   -9102.5113   -9610.7244            0     8180.414    24.852156    24.789774    22.754488    14018.569    7832.9246    8248.7902    8459.5272   -672.08554    1015.5031    868.16557   -7430.0546 
25370000    136.87696   -9630.0269   -9108.1894   -9630.0269            0    8605.8615    24.844422    24.652355    22.853348     13997.07    7568.4344    9902.2184    8346.9316    79.076242    1126.0418   -372.46086   -7351.4499 
25371000    137.23109   -9634.5009   -9111.3134   -9634.5009            0    8258.5538    24.787548    24.792881    22.767977    13992.167    8110.2304    7970.2316    8695.1996   -106.21827   -326.02495    111.23333   -7426.0613 
25372000     141.0429    -9629.993   -9092.2732    -9629.993            0    8057.3052    24.732839    24.785485    22.883243    14027.781      8794.53    7403.8485     7973.537   -210.01221   -658.37069    98.864961   -7443.9033 
25373000     132.7233   -9623.1571   -9117.1554   -9623.1571            0    8779.5642    24.704769    24.899288    22.697887    13962.178    8544.2083    9057.1982    8737.2861    133.58437    359.78057    90.961167    -7329.425 
25374000     140.6051   -9616.0351   -9079.9843   -9616.0351            0    8453.8784    24.724134    24.748955    22.870575    13994.425    8658.1208    8149.1305    8554.3839    283.79356    -1212.258   -505.38913   -7354.5956 
25375000    141.31388   -9608.4239   -9069.6709   -9608.4239            0     8931.288    24.775292    24.830789     22.72206    13978.385    8618.2124    8565.9852    9609.6663    84.554374   -218.17222    318.92279   -7248.9349 
25376000    144.91303   -9656.2338   -9103.7592   -9656.2338            0    7946.0224    24.773602     24.77986    22.810499    14003.055    7248.9825    8171.6425    8417.4422    319.19581    172.14138   -142.49283    -7481.021 
25377000    140.78711   -9638.5946     -9101.85   -9638.5946            0    7540.5072     24.70152    24.816222    22.898134    14036.519     7531.272    7444.2503    7645.9993   -603.17952   -237.74459    398.54039    -7558.246 
25378000    141.27557   -9644.7706   -9106.1637   -9644.7706            0     8996.662    24.711161    24.794951     22.77669    13955.552    9323.1783    8860.2285    8806.5792   -463.48417    377.68117    765.86054   -7275.0963 
25379000    137.72784   -9620.7977   -9095.7164   -9620.7977            0    8176.6811    24.684488    24.762206    22.921749    14010.744    9180.9321    8360.3081    6988.8031   -189.58422   -562.18248    287.91319   -7424.9561 
25380000    135.90441   -9647.4415   -9129.3119   -9647.4415            0    7678.6444    24.826688    24.811135    22.756611    14017.579    7345.3908    7460.0295    8230.5129   -1.0096396    919.54784   -52.545859   -7559.5512 
25381000    139.09747    -9649.266    -9118.963    -9649.266            0    8632.5457    24.760792    24.663176    22.897094    13982.792    8002.8291    8873.6939    9021.1142    582.83313   -715.96595   -21.032422   -7358.5739 
25382000     143.3481   -9652.4825   -9105.9741   -9652.4825            0    8490.0724    24.742894    24.772655    22.822636     13989.07    8517.0154    7830.2068    9122.9951   -840.33673   -203.48918    1019.3207   -7373.8615 
25383000    136.29665   -9624.6731   -9105.0482   -9624.6731            0    8848.6864    24.630286    24.778607    22.888693    13969.065    10373.585    8220.3815    7952.0929    86.590503    480.90727    258.73747    -7302.354 
25384000    136.35852   -9642.8948   -9123.0339   -9642.8948            0    8748.7545    24.723356    24.783539    22.802288    13971.698    8382.6682     9512.931    8350.6645   -55.556921    379.93833    52.627723   -7340.3625 
25385000    139.15828   -9659.1338    -9128.599   -9659.1338            0    7762.7218    24.737254    24.833487    22.786751    13998.181    7368.0417    8094.8622    7825.2616   -372.40367   -1051.4314   -471.78167   -7543.8463 
25386000    137.38718    -9619.896   -9096.1134    -9619.896            0    8294.5864    24.772112    24.712512    22.852654    13989.963     8602.465    8728.2714    7553.0226    76.276887   -388.38877   -501.02372   -7403.7751 
25387000    142.65682    -9653.878   -9110.0051    -9653.878            0    8141.4437    24.776286    24.741335    22.809015    13981.889    8456.2578    7662.8573    8305.2161    53.677527    279.65884    730.40275    -7449.871 
25388000    140.62685   -9634.8607    -9098.727   -9634.8607            0    8280.4397    24.730632    24.806319    22.816424    13997.328    7955.5633    8344.7058      8541.05   -207.52101   -994.76393    88.176954   -7408.3856 
25389000    136.78547   -9644.0008   -9122.5122   -9644.0008            0    8252.3081    24.680334    24.811229    22.859747    13998.153    9376.6028    7662.4127    7717.9088   -168.01018    551.96912    317.23046   -7437.8142 
25390000    137.76102   -9626.3999   -9101.1921   -9626.3999            0    8370.7917    24.713777    24.850686      22.7952    13999.771    8152.2699    7570.9189    9389.1862    210.24671   -836.74159   -827.14925   -7392.1083 
25391000    136.65549   -9640.9389   -9119.9459   -9640.9389            0    8762.1359    24.682199    24.828396    22.833609    13992.879    8999.3223    7807.6003    9479.4852   -877.58366   -1244.5093     952.1527   -7331.8411 
25392000     132.6738   -9634.6915   -9128.8785   -9634.6915            0    7957.0915    24.787227    24.810124    22.795232    14018.479    7969.9954    7851.4542    8049.8249   -119.54828   -863.97811    805.51171   -7502.0898 
25393000    138.79592   -9633.0501   -9103.8967   -9633.0501            0    8126.2735    24.774654    24.700764    22.866664    13993.321     6995.173    9554.7031    7828.9445    68.562639   -457.64119     165.2208   -7445.5012 
25394000    137.27627   -9633.1662   -9109.8065   -9633.1662            0    7869.7004    24.821587    24.759275    22.812986    14020.051    7277.5495    8650.7234    7680.8283   -58.280305   -325.71517   -476.40475    -7500.704 
25395000    142.80061   -9617.6329   -9073.2119   -9617.6329            0    7566.9244      24.8128    24.798817    22.813904    14038.036     7559.639    7801.9303    7339.2039    407.11692    -414.5444   -906.89756   -7524.0328 
25396000    140.50658   -9639.5907   -9103.9156   -9639.5907            0    8874.0625    24.660676    24.710618    22.901274    13955.591    9287.4083    9898.6179    7436.1612    192.05291    10.580747   -123.35112   -7297.7956 
25397000    136.05229   -9623.9532   -9105.2598   -9623.9532            0    9514.7219    24.736196    24.804208    22.716708    13938.103    10544.089    8428.2876    9571.7891     51.12716   -556.18477    788.63309   -7171.1743 
25398000    136.47019   -9641.5899   -9121.3033   -9641.5899            0    8591.1793    24.755499    24.675092      22.8965    13986.195    8309.7138    9372.5918    8091.2324   -537.62405   -787.61434   -157.50239   -7368.9234 
25399000     138.6102   -9628.7109   -9100.2656   -9628.7109            0     8183.738     24.83657    24.771825    22.750677     13997.29    6868.0279     8987.914    8695.2721     755.5317    164.02423    448.86132   -7429.6692 
25400000    135.28363   -9634.0382   -9118.2754   -9634.0382            0    7357.0689    24.831476    24.781524    22.811186    14037.133    7295.5119     7881.425    6894.2698    158.56948    434.55468   -189.21241   -7612.1569 
25401000    140.31589   -9639.4074   -9104.4593   -9639.4074            0    7316.5205    24.820439    24.767231    22.853121     14048.58    6803.0931    7323.9071    7822.5612   -767.60015    239.71323    96.832564   -7605.4203 
25402000    136.94432   -9644.9446   -9122.8504   -9644.9446            0    7697.5451    24.819072     24.79767    22.796521    14030.236    6882.9892    8156.5143     8053.132   -274.55125   -125.74676    10.955303   -7547.8048 
25403000    141.99821   -9637.4639    -9096.102   -9637.4639            0    8525.0887    24.694501    24.809315     22.83371    13989.156    9517.1386     8147.666    7910.4615   -225.90449    -360.8348    345.26506   -7356.8348 
25404000    134.70905   -9639.5122   -9125.9398   -9639.5122            0    7723.6427     24.73084    24.870897    22.822867    14037.847    7908.5841    7386.1099     7876.234    161.09331    101.25945     316.5767    -7544.697 
25405000    142.42135   -9650.7606   -9107.7855   -9650.7606            0    8266.4485    24.711207    24.801658    22.808432    13978.807    8281.9059    7815.4059    8702.0336    44.597333   -357.48976   -707.40879   -7422.5331 
25406000    133.60992    -9664.428    -9155.046    -9664.428            0     7826.528    24.768914    24.747671     22.82837    13993.173     7484.201     8180.047    7815.3358   -888.98025   -418.72498    802.96842   -7557.8389 
25407000    138.63229   -9638.0152   -9109.4856   -9638.0152            0    9028.2437    24.818983    24.727558     22.75274    13963.649    8175.6236     9746.573    9162.5346   -4.0713694   -425.30437    128.51036   -7270.9245 
25408000    137.83272   -9626.2824   -9100.8013   -9626.2824            0    7957.2002    24.681824    24.786224    22.887684    14001.981    8835.2825    8105.9918    6930.3263   -163.00743   -332.71211    108.11389    -7475.905 
25409000    140.69029   -9618.3313   -9081.9558   -9618.3313            0    8905.1066    24.712796    24.798942    22.766504    13952.479    7945.8145    9349.4823    9420.0229   -96.649732   -380.61837    509.11511   -7269.9216 
25410000    140.24379    -9638.225   -9103.5517    -9638.225            0    8500.0246    24.683919    24.834566     22.78334    13966.516    9786.1261    7407.9778    8305.9699   -324.14087    322.47033   -442.74493   -7372.2045 
25411000    134.03851    -9638.228    -9127.212    -9638.228            0    8090.0057    24.723647    24.728381     22.86204    13977.297    8337.3747    8377.9602    7554.6821    -396.4178   -502.39108   -214.71024   -7478.1085 
25412000      136.351   -9626.4031   -9106.5709   -9626.4031            0    8812.9644    24.857801    24.764752    22.715661    13983.699    7679.7486    9181.4475    9577.6969   -793.84202   -68.141673   -265.08529   -7309.2734 
25413000    136.90817   -9621.2688   -9099.3124   -9621.2688            0    7929.9574      24.7417    24.726752    22.917373    14020.434    7402.6536    8195.9911    8191.2274    108.68237   -416.82481   -295.60913   -7477.8451 
25414000    134.76502   -9631.8877    -9118.102   -9631.8877            0    8546.6645    24.804584    24.806906    22.726202    13984.001    8558.0169    8041.8535    9040.1231   -548.57959   -139.81387    58.894711   -7375.0756 
25415000    135.97126   -9622.0893   -9103.7048   -9622.0893            0    8408.1498    24.719519      24.7359     22.89006    13996.345    7921.1411    9124.9336    8178.3749    6.9440032    423.63898     321.5076   -7387.4136 
25416000     144.4283   -9635.6654   -9085.0389   -9635.6654            0    8072.7581     24.75135    24.896406    22.707551     13992.84    8638.0714    6641.0217    8939.1812   -347.85024   -3.6776835    419.35302   -7437.6213 
25417000    135.38089   -9654.5791   -9138.4454   -9654.5791            0    7857.1146    24.671731     24.78528    22.911601    14010.347    8326.5257    8165.3418    7079.4764   -37.414133    -591.7742    291.77462   -7533.0283 
25418000    140.36451   -9609.4274   -9074.2939   -9609.4274            0    8652.6247    24.746855      24.8182    22.763446     13980.68     9094.856    8000.1644    8862.8537   -621.27106    510.55575    796.70578   -7310.0767 
25419000    137.28619   -9623.1268   -9099.7293   -9623.1268            0     9200.237    24.732541     24.73969    22.826505    13966.977    8727.0603    9625.6198     9248.031   -1033.0271    169.35383   -11.448491   -7225.6959 
25420000    135.42436   -9624.0751   -9107.7757   -9624.0751            0    8991.3174    24.749333    24.902931     22.67225    13973.609    9153.0366    7897.5796     9923.336   -74.178265    -80.86416    600.42394   -7275.4283 
25421000      138.803    -9643.587   -9114.4067    -9643.587            0    7763.5083    24.713438    24.774217    22.887161    14012.803    8423.1305    8036.6584    6830.7359    21.528534   -665.51029    679.07228   -7527.8378 
25422000    138.78895   -9631.0734   -9101.9466   -9631.0734            0    9086.3816    24.831341    24.750563    22.690562    13945.386    8114.9202    9365.1098    9779.1147     206.3528   -454.51678    180.26003   -7253.9661 
25423000    139.20134    -9634.296    -9103.597    -9634.296            0     8425.198    24.803794    24.714546    22.805565    13980.142     7599.888    9371.5864    8304.1196   -57.150651    1060.4354   -371.51259   -7385.8168 
25424000     136.1006   -9638.0393   -9119.1618   -9638.0393            0    8032.9713    24.862102    24.702145     22.80709    14006.912    7256.7896    8829.5518    8012.5725   -239.25481   -872.06967    488.09623   -7478.2149 
25425000    133.53716    -9616.702   -9107.5975    -9616.702            0    7978.3159    24.771855    24.763357    22.833515    14006.861    7925.8287    7918.2532    8090.8658    678.53277   -1106.4248    905.41853   -7477.8214 
25426000    134.04761   -9624.3042   -9113.2536   -9624.3042            0    8755.5259     24.73821    24.728085    22.817557    13958.152    8731.0433     8692.284    8843.2505    -125.4306    328.85234    86.657866   -7330.9321 
25427000    137.30633   -9624.4421   -9100.9677   -9624.4421            0    8237.4865    24.775482    24.832873    22.744628     13993.55    8108.3124    8113.0268    8491.1204   -370.72714    103.02768    726.84851   -7419.8485 
25428000    136.51503   -9624.5649   -9104.1073   -9624.5649            0    9205.9103    24.627668    24.809349    22.850842    13961.782    9902.8531    8733.3609    8981.5169    299.55338   -374.79963   -387.67654   -7229.6157 
25429000    137.32458   -9632.6692   -9109.1252   -9632.6692            0    8413.4816    24.749792    24.866856    22.735814    13992.745    8910.9444    6742.6622    9586.8381   -90.938418    79.115464   -410.99215   -7392.1874 
25430000    136.19535    -9645.471   -9126.2323    -9645.471            0      7766.75    24.740057    24.756156    22.896573    14023.435    7422.2064    7931.1633    7946.8803    303.87258   -91.084002   -392.85198   -7537.7967 
25431000    138.10738   -9631.4266   -9104.8983   -9631.4266            0    8525.8478    24.860865    24.842979    22.628331    13975.664    7940.5488    7924.6625    9712.3322   -648.74951   -291.88277     683.4846   -7367.1539 
25432000    140.69138   -9624.0937    -9087.714   -9624.0937            0     7925.936    24.761654    24.758178    22.860078     14014.45    7690.6899    8296.4682    7790.6498    366.96161    342.13252   -102.15759   -7467.7607 
25433000    137.76878   -9627.8542   -9102.6168   -9627.8542            0    9003.8205    24.754127    24.813132    22.709622    13948.873    8368.7342     8738.607    9904.1203   -391.41555   -572.31137   -1023.0854   -7270.9695 
25434000    135.37744   -9616.6539   -9100.5333   -9616.6539            0    8262.6812    24.743673    24.776383    22.869986    14020.644     8279.451    9305.7304    7202.8623   -217.58263   -1056.9298    759.40495   -7411.0074 
25435000     140.8019   -9617.7838   -9080.9828   -9617.7838            0    7623.9368    24.702656    24.857894    22.860855    14037.845    8653.2788    6789.3466    7429.1849   -54.773828    137.46509    87.070778   -7520.1527 
25436000    137.72587   -9610.1781   -9085.1043   -9610.1781            0    8011.2749     24.76395    24.922481    22.724379    14025.011    8008.0794    7047.4203    8978.3249   -975.04988    852.28537   -234.34541   -7446.4749 
25437000    137.21309   -9659.1647   -9136.0458   -9659.1647            0    7635.9815    24.661393    24.819656    22.892858    14012.428    8957.0927    7207.0385    6743.8134    165.37563    497.07049   -59.967046   -7575.5803 
25438000    139.61085    -9615.193   -9082.9327    -9615.193            0    8395.1831    24.814148    24.794597     22.76051    14003.558    8125.7287    7973.8928    9085.9277    240.94247     -676.055   -935.55022   -7368.4052 
25439000    136.84044   -9650.3039   -9128.6058   -9650.3039            0    8167.3033    24.768544    24.707194    22.873653    13997.789    8026.0275     8810.453    7665.4294   -71.798592   -1187.1252    21.616949   -7461.3048 
25440000    142.59201   -9626.3794   -9082.7536   -9626.3794            0    7953.2782     24.80327    24.797883    22.821343    14036.691    7234.5471    7753.7207    8871.5669    197.54581    462.37863    9.2848156   -7454.6321 
25441000    136.31798   -9622.9045   -9103.1982   -9622.9045            0    7144.6358    24.791392    24.833492    22.842275    14063.003     7353.391     7297.119    6783.3972     48.93261   -208.62387    233.56663   -7637.8729 
25442000     139.0028   -9626.2344   -9096.2923   -9626.2344            0    7212.7037    24.774413    24.804607    22.858789    14047.173    6975.4029    7475.8387    7186.8694   -492.93475   -823.04184     20.87058   -7618.6718 
25443000    137.83696   -9630.3478   -9104.8505   -9630.3478            0     8526.829    24.801707     24.78344    22.743236    13979.622    7978.7199    8651.0235    8950.7436    37.794369   -484.47712   -695.52255   -7366.4138 
25444000    136.32353   -9623.8359   -9104.1084   -9623.8359            0    9012.5718    24.624128    24.747973    22.909928    13961.247    9434.1483    9654.6911    7948.8761    -356.4541    475.28149    601.60771   -7269.0544 
25445000    138.60656   -9627.2952   -9098.8638   -9627.2952            0    8118.5312    24.754606     24.82466    22.779383    13998.493     8220.766    8378.9275    7755.9001   -43.856218    141.28481   -276.85371   -7441.4359 
25446000    139.46138     -9628.39   -9096.6996     -9628.39            0    8272.1828    24.753232    24.751448    22.871342    14012.776    8450.9555    8520.5466    7845.0465    -436.9377   -363.54233   -90.247774   -7406.1801 
25447000    139.06626   -9632.3421   -9102.1581   -9632.3421            0    8628.0817    24.764216    24.785992    22.772592    13977.946    8741.3153    8676.3381    8466.5918    290.55613   -894.08788   -298.31396    -7343.289 
25448000    143.92784   -9639.5825   -9090.8639   -9639.5825            0    8901.9306    24.640354    24.754712    22.884974     13959.03    9855.2933    8735.4031    8115.0953   -29.454797   -184.92803   -179.50004   -7278.6255 
25449000    142.47444   -9629.1103   -9085.9328   -9629.1103            0     8287.379     24.71719    24.848118    22.790722    13997.506    8722.3248    7160.0432    8979.7692   -228.46138    258.61917    -172.5609   -7394.1533 
25450000    138.07246   -9629.3665   -9102.9713   -9629.3665            0    7821.1972    24.784479    24.779276    22.837196    14025.269     7974.599    7424.3251    8064.6674    118.84872    158.31001    493.14345   -7503.1911 
25451000     139.2479   -9618.7853   -9087.9088   -9618.7853            0     6745.969    24.835183    24.837577    22.811737    14071.323    6592.3683    6893.0008    6752.5379    -735.9147    145.46314    259.26712   -7703.5293 
25452000    136.79699   -9638.0264   -9116.4938   -9638.0264            0    7932.9925    24.771848    24.746486    22.834577    13997.965     7567.466    8202.3824    8029.1291   -161.97356   -854.03447   -165.53849   -7497.0054 
25453000    136.32403     -9648.73   -9129.0006     -9648.73            0    8789.8982    24.754098    24.817774    22.731083     13964.65    8955.3653    8266.0479    9148.2815    55.666673   -34.131103    122.37474   -7338.8491 
25454000    142.51224   -9628.7512   -9085.4296   -9628.7512            0    8971.9334    24.663008      24.7194    22.909116    13966.652    9054.1432    10091.639    7770.0185   -363.02358    495.89817    516.16327   -7257.9428 
25455000    133.14193   -9626.1572   -9118.5594   -9626.1572            0    8298.9187    24.748668    24.852221    22.748149    13991.463    8408.8249    7697.1043    8790.8269   -772.39247    315.52959    734.68549   -7425.1557 
25456000    131.63701   -9656.2383    -9154.378   -9656.2383            0    7269.8268    24.801416    24.731189    22.904334    14048.797    6695.7058    8124.9819    6988.7926   -8.5656178      -1346.5    105.14234   -7664.8828 
25457000    135.18111   -9623.4135   -9108.0414   -9623.4135            0     7996.171    24.849246     24.71392    22.844579    14029.365    8109.4181    8836.4786    7042.6161   -50.885525   -1131.8532    684.27753   -7471.9937 
25458000    138.14803   -9628.4143    -9101.731   -9628.4143            0    8887.5764    24.786323    24.669647    22.853449    13974.195    8291.9687    9416.7225    8954.0381   -1109.0263   -349.15526   -181.57483   -7290.4491 
25459000    136.54339   -9601.6936   -9081.1279   -9601.6936            0    9191.1275    24.808176    24.798225    22.710276    13971.333     9215.123    9186.4772    9171.7823   -276.77385    242.14971    313.77088   -7208.3662 
25460000    141.88132   -9637.3857   -9096.4694   -9637.3857            0    8467.7185    24.688363    24.757902    22.877332    13983.359    9375.5554    7960.1585    8067.4416    312.97889    306.25763    430.83313   -7369.6226 
25461000    139.66912   -9622.2646   -9089.7822   -9622.2646            0    8203.7765    24.713942    24.830779    22.818563    14002.986     8216.442    7606.8945    8787.9929   -287.15997    346.79887   -308.07479   -7414.4136 
25462000    139.90085   -9645.1759     -9111.81   -9645.1759            0    7502.6423    24.601883    24.918608    22.885478    14029.821    8628.2564     6954.913    6924.7575   -4.0799301   -167.25067    894.62352   -7576.6903 
25463000     137.0353    -9638.854   -9116.4129    -9638.854            0     7757.891    24.718197    24.830752    22.833109     14014.31     8386.226    6839.4196    8048.0274   -88.761132   -664.50148    -302.9408   -7530.8215 
25464000    137.21459   -9618.8544   -9095.7298   -9618.8544            0    8132.3523    24.782111    24.729399    22.871436    14016.685    7900.0947    8405.2024    8091.7599   -829.29577       252.18   -30.398933   -7433.3227 
25465000    136.94391   -9636.6624   -9114.5698   -9636.6624            0    8121.7191    24.804504    24.757783    22.792069    13996.713    7908.7144    8283.9747    8172.4682    183.19895    584.16374    90.017357   -7456.7019 
25466000    135.53296   -9640.0163   -9123.3028   -9640.0163            0    7756.6956    24.728821     24.73931    22.913424    14017.836    7174.8066    8405.9753     7689.305    306.45824    521.67645   -137.80929   -7537.5568 
25467000    140.92609    -9630.077   -9092.8025    -9630.077            0    8148.8511    24.745921    24.842054    22.787389    14008.308     8342.096    7571.9057    8532.5515    346.22935   -252.04377   -45.467608   -7428.0182 
25468000    137.90872   -9630.6554   -9104.8845   -9630.6554            0    7611.1269    24.758689    24.723729    22.938527    14041.295    6914.4164    7992.4092    7926.5553    302.21686   -461.92639    444.57295    -7546.294 
25469000    132.93598    -9634.884   -9128.0714    -9634.884            0    7971.8606    24.822444     24.84868    22.704988    14004.549    8038.0824    7187.8935    8689.6059    501.31039    711.39949    132.67523   -7499.8828 
25470000    137.17293   -9628.1638    -9105.198   -9628.1638            0    7838.8815     24.72724     24.78255    22.887022     14025.26    7336.6528    8187.5142    7992.4775    270.57909   -440.17784    1582.7271   -7501.8016 
25471000    139.01885   -9635.2827   -9105.2794   -9635.2827            0    8426.6244    24.683651    24.889414    22.767868    13987.704     8965.022    7342.9876    8971.8637    363.25673      147.098    199.62666   -7386.2791 
25472000    132.53148   -9621.4213   -9116.1509   -9621.4213            0    8944.5445    24.716726    24.718115    22.864158    13968.878    9836.5889    8830.3365    8166.7082    22.582737   -484.05295    637.13668   -7293.9526 
25473000     135.0195   -9614.2763   -9099.5203   -9614.2763            0      9189.23    24.823597    24.799423    22.672039    13957.154    7964.3936    9751.7099    9851.5865   -293.07884    100.64231    479.28803   -7229.0455 
25474000    142.54846   -9607.5903   -9064.1305   -9607.5903            0    9212.2783    24.669228    24.735248    22.872068    13956.524    9464.5474    8452.6067    9719.6809   -136.77866    459.03198    601.24833   -7189.0488 
25475000    135.20619   -9626.3362   -9110.8686   -9626.3362            0    9087.9272    24.727356    24.840998     22.71156    13950.626    8564.5762    9196.1142    9503.0911   -430.96502   -64.085175   -215.97664   -7261.8791 
25476000    136.00351    -9629.159   -9110.6516    -9629.159            0    7837.5745    24.722237    24.789127    22.902533     14035.65    7883.6601     8004.054    7625.0095    115.49908    32.137028    108.46734   -7506.3349 
25477000    141.84265   -9633.9107   -9093.1419   -9633.9107            0     7780.005    24.782335    24.805439    22.795924    14013.491    7564.7692    7533.4398     8241.806    511.14326   -1112.9369     58.68814   -7503.1236 
25478000    141.58882   -9627.2818   -9087.4807   -9627.2818            0    8735.7661    24.725676    24.804587    22.784604     13974.03    8932.2696    7923.0238    9352.0048   -303.61344   -1170.9656   -401.66787   -7307.1587 
25479000    134.78918   -9626.9711   -9113.0933   -9626.9711            0    9229.4303    24.714352    24.759589     22.82406    13966.434     9722.903    9065.7717    8899.6161    268.81427   -556.00396    633.33927   -7233.1864 
25480000    140.53772    -9626.722   -9090.9282    -9626.722            0    9942.2112    24.684512    24.785172    22.748103    13917.514    9917.5232    9332.3155    10576.795    352.38948    627.71327    640.30263    -7072.931 
25481000    138.90694   -9611.1296    -9081.553   -9611.1296            0    7942.5786    24.741312    24.746701    22.910396    14027.253    8084.4146    8209.3883    7533.9329   -256.63178   -299.11545    251.96798   -7456.7151 
25482000     138.4257   -9628.1368   -9100.3949   -9628.1368            0    7262.8077    24.825312      24.8515    22.772798    14049.592    6755.2705    7156.0193    7877.1334    -87.57212    -41.11423    404.24579   -7612.2536 
25483000    140.61534    -9624.779   -9088.6892    -9624.779            0    7992.4357    24.731362    24.734305    22.916748    14018.474    8500.8815    8975.5192    6500.9062   -436.02796    1050.9243    631.98093   -7454.6752 
25484000     139.1039   -9620.7738   -9090.4463   -9620.7738            0    8711.4756    24.737893    24.824074    22.776748    13987.093    9041.6272    7787.3905    9305.4092   -97.208821   -83.332979     102.3841   -7313.4149 
25485000    138.36459   -9644.7038   -9117.1948   -9644.7038            0    8864.8506    24.668056    24.738819    22.870191     13956.73    9179.3322    9293.4748    8121.7448   -337.42647     837.5657   -229.19529   -7312.8024 
25486000    142.02436   -9638.2237    -9096.762   -9638.2237            0    7910.0204    24.805908    24.805319    22.779832    14016.851    7061.8065    8169.8547    8498.3999    645.53379    103.29202    36.034077   -7479.7846 
25487000    137.61323   -9639.4843   -9114.8399   -9639.4843            0     7648.234    24.734147     24.73525    22.886525    14002.098    7385.5317    7981.6375    7577.5327    189.60315   -174.83917    256.48688   -7553.0228 
25488000    139.91852   -9601.2257   -9067.7925   -9601.2257            0     9484.466    24.814241    24.743112    22.751227    13968.834     9542.547    9313.4067    9597.4442    496.48752   -184.15295   -257.13872   -7135.6065 
25489000     136.3383   -9610.6626   -9090.8789   -9610.6626            0    9207.5449    24.810822    24.702153    22.769003    13954.683    8235.8767    9847.7282    9539.0299    -906.8536    -271.5305    359.25044   -7217.0078 
25490000    142.78743   -9631.9863   -9087.6154   -9631.9863            0    7482.9362    24.789315    24.748279    22.890476    14043.144    6984.7527    7957.1235    7506.9325    366.45454    330.80288   -752.04359   -7555.0738 
25491000    139.96122   -9626.1788   -9092.5828   -9626.1788            0    8398.8202    24.742958    24.837967    22.750505    13981.659     8735.558    7555.3769    8905.5256    670.49099    -196.5938    315.71827   -7379.9949 
25492000     143.0779   -9625.6937   -9080.2155   -9625.6937            0     9450.868    24.652512    24.786543    22.813019    13939.908    9399.1086    9986.6079    8966.8876   -825.54115   -467.56509   -498.15488   -7158.8611 
25493000     137.4808   -9627.4541   -9103.3146   -9627.4541            0    9270.6922    24.693364     24.76263    22.795177    13938.627    9790.8162    9130.9399    8890.3206   -184.10733    340.14872   -491.83513   -7218.7629 
25494000    135.06853   -9625.6749   -9110.7321   -9625.6749            0    8995.9848    24.761165    24.663994    22.858373     13959.82    8457.7332    10153.917    8376.3045   -365.32092    216.29382    342.01444   -7279.2427 
25495000    141.38646   -9632.7481   -9093.7184   -9632.7481            0    8490.8638    24.784134    24.709103     22.80485    13965.547    8024.9243    9429.0775    8018.5897    244.88387    81.417468   -33.683503   -7364.3572 
25496000    139.63946   -9638.0391   -9105.6698   -9638.0391            0    9163.9325     24.78555    24.690249    22.796941    13950.848    8819.3207     10145.52    8526.9566    482.50746   -463.69539    301.32117    -7241.187 
25497000    142.62879   -9615.9114   -9072.1454   -9615.9114            0    8724.9397    24.752653    24.733451    22.833996    13979.396    8355.8855    9484.7818    8334.1519   -159.10444   -453.09913   -36.402838    -7293.347 
25498000    131.97636   -9625.8445   -9122.6905   -9625.8445            0    8064.8464    24.829058    24.770619    22.766869    14002.333    7300.8982    8386.9851    8506.6559    355.12484    218.17889   -211.21496   -7475.7709 
25499000    131.13159   -9637.4104    -9137.477   -9637.4104            0    7766.0762     24.80109    24.758425    22.852668    14032.359    7593.5121    7963.1596    7741.5569   -722.04146    12.657512   -419.38379   -7548.1684 
25500000    143.32785   -9632.2581    -9085.827   -9632.2581            0    8447.3452    24.820922     24.70635    22.830196    14000.261    7870.7957    8608.5631    8862.6769    208.58047   -155.91391   -735.72804   -7361.0527 
Loop time of 541.258 on 64 procs for 250000 steps with 1920 atoms

Performance: 79.814 ns/day, 0.301 hours/ns, 461.887 timesteps/s
378.9% CPU use with 16 MPI tasks x 4 OpenMP threads

MPI task timing breakdown:
Section |  min time  |  avg time  |  max time  |%varavg| %total
---------------------------------------------------------------
Pair    | 75.232     | 76.343     | 78.116     |   8.9 | 14.10
Bond    | 1.5533     | 1.8093     | 2.7388     |  23.4 |  0.33
Kspace  | 265.63     | 269.8      | 274.15     |  16.1 | 49.85
Neigh   | 0.91005    | 0.96315    | 1.0032     |   3.4 |  0.18
Comm    | 68.136     | 72.784     | 77.938     |  32.3 | 13.45
Output  | 0.60339    | 0.60371    | 0.60532    |   0.1 |  0.11
Modify  | 84.037     | 92.793     | 96.164     |  34.3 | 17.14
Other   |            | 26.16      |            |       |  4.83

Nlocal:        120.000 ave         122 max         117 min
Histogram: 1 0 1 0 2 0 6 0 5 1
Nghost:        4211.38 ave        4247 max        4172 min
Histogram: 2 0 0 1 4 2 4 1 1 1
Neighs:        43440.2 ave       44533 max       42620 min
Histogram: 4 2 1 1 2 0 1 1 2 2

Total # of neighbors = 695043
Ave neighs/atom = 362.00156
Ave special neighs/atom = 2.0000000
Neighbor list builds = 1918
Dangerous builds = 0

unfix		3
unfix		2
unfix		1

write_data	data.final.${pid}
write_data	data.final.0
System init for write_data ...
PPPM initialization ...
  extracting TIP4P info from pair style
  using 12-bit tables for long-range coulomb (../kspace.cpp:340)
  G vector (1/distance) = 0.37501269
  grid = 30 30 30
  stencil order = 5
  estimated absolute RMS force accuracy = 0.0032060506
  estimated relative force accuracy = 9.654926e-06
  using double precision FFTW3
  3d grid and FFT values/proc = 7920 1800
Last active /omp style is kspace_style pppm/tip4p/omp
WARNING: Not all mixed pair coeffs generated from mixing. Use write_data with 'pair ij' option to store all pair coeffs. (../write_data.cpp:312)

write_restart   restart.lmp.${pid}
write_restart   restart.lmp.0
System init for write_restart ...
PPPM initialization ...
  extracting TIP4P info from pair style
  using 12-bit tables for long-range coulomb (../kspace.cpp:340)
  G vector (1/distance) = 0.37501269
  grid = 30 30 30
  stencil order = 5
  estimated absolute RMS force accuracy = 0.0032060506
  estimated relative force accuracy = 9.654926e-06
  using double precision FFTW3
  3d grid and FFT values/proc = 7920 1800
Last active /omp style is kspace_style pppm/tip4p/omp
Total wall time: 0:09:01
