#include		in.partitions
include		in.temp
variable        temperature equal 200.22
variable	tempDamp equal 100.0
include		in.pressure
variable        pressure equal 1689.4
variable        pressureDamp equal 1000.0 # This is 1 ps
include		in.seed
variable        seed equal 745823

units		real
atom_style	full
#include		in.box
read_restart	restart.lmp.${pid}
read_restart	restart.lmp.0
Reading restart file ...
  restart file = 30 Jul 2021, LAMMPS = 30 Jul 2021
  restoring atom style full from restart
  orthogonal box = (0.10383288 0.077020999 0.17577638) to (18.103740 23.552157 22.037419)
  2 by 4 by 4 MPI processor grid
  restoring pair style lj/cut/tip4p/long/omp from restart
  restoring bond style harmonic/omp from restart
  restoring angle style harmonic/omp from restart
  864 atoms
  576 bonds
  288 angles
Finding 1-2 1-3 1-4 neighbors ...
  special bond factors lj:    0        0        0       
  special bond factors coul:  0        0        0       
     2 = max # of 1-2 neighbors
     1 = max # of 1-3 neighbors
     1 = max # of 1-4 neighbors
     2 = max # of special neighbors
  special bonds CPU = 0.002 seconds
  read_restart CPU = 0.006 seconds
include 	in.setup
variable	out_freq equal 1000
variable	out_freq2 equal 10000
variable	out_freq3 equal 1000

timestep	2.0

neigh_modify    delay 7 every 1

include		in.tip4p
# This is TIP4P/Ice

# create groups ###
group ox type 2
288 atoms in group ox
group hy type 1
576 atoms in group hy

# set charges - beside manually ###
set group ox charge -1.1794
Setting atom values ...
  288 settings made for charge
set group hy charge 0.5897
Setting atom values ...
  576 settings made for charge

# ### TIP3P Potential Parameters ###
pair_style lj/cut/tip4p/long/omp 2 1 1 1 0.1577 8.5
pair_coeff 1 1*2 0.000 0.000
pair_coeff 2 2 0.21084 3.1668
bond_style  harmonic
bond_coeff  1 450 0.9572
angle_style harmonic
angle_coeff 1 55 104.52
kspace_style pppm/tip4p/omp 1.0e-5
pair_modify tail yes

thermo          ${out_freq}
thermo          1000
thermo_style    custom step temp pe etotal epair emol press lx ly lz vol pxx pyy pzz pxy pxz pyz enthalpy

restart 	${out_freq3} restart.lmp.${pid} restart2.lmp.${pid}
restart 	1000 restart.lmp.${pid} restart2.lmp.${pid}
restart 	1000 restart.lmp.0 restart2.lmp.${pid}
restart 	1000 restart.lmp.0 restart2.lmp.0


include         in.dump
dump            myDump all atom ${out_freq2} dump.water.${pid}
dump            myDump all atom 10000 dump.water.${pid}
dump            myDump all atom 10000 dump.water.0
dump            myDump2 all dcd ${out_freq2} dump.dcd
dump            myDump2 all dcd 10000 dump.dcd
dump_modify     myDump append yes
dump_modify     myDump2 append yes


variable natoms 	equal  "count(all)"                        # NUMBER ATOMS
variable H      	equal  "enthalpy/v_natoms"                 # ENTHALPY-per-atom
variable Vol      	equal  "vol/v_natoms"                 # volume-per-atom
fix AVG all 		ave/time ${out_freq} 1 ${out_freq} v_Vol v_H file vol_enthalpy.dat
fix AVG all 		ave/time 1000 1 ${out_freq} v_Vol v_H file vol_enthalpy.dat
fix AVG all 		ave/time 1000 1 1000 v_Vol v_H file vol_enthalpy.dat


timer           timeout 23:50:00 every 1000
New timer settings: style=normal  mode=nosync  timeout=23:50:00

fix 		1 all shake 1e-6 200 0 b 1 a 1
       0 = # of size 2 clusters
       0 = # of size 3 clusters
       0 = # of size 4 clusters
     288 = # of frozen angles
  find clusters CPU = 0.000 seconds
fix             2 all nph aniso ${pressure} ${pressure} ${pressureDamp}
fix             2 all nph aniso 1689.4 ${pressure} ${pressureDamp}
fix             2 all nph aniso 1689.4 1689.4 ${pressureDamp}
fix             2 all nph aniso 1689.4 1689.4 1000
fix             3 all temp/csvr ${temperature} ${temperature} ${tempDamp} ${seed}
fix             3 all temp/csvr 200.22 ${temperature} ${tempDamp} ${seed}
fix             3 all temp/csvr 200.22 200.22 ${tempDamp} ${seed}
fix             3 all temp/csvr 200.22 200.22 100 ${seed}
fix             3 all temp/csvr 200.22 200.22 100 745823


run             250000
PPPM initialization ...
  extracting TIP4P info from pair style
  using 12-bit tables for long-range coulomb (../kspace.cpp:340)
  G vector (1/distance) = 0.37187673
  grid = 24 27 25
  stencil order = 5
  estimated absolute RMS force accuracy = 0.003135393
  estimated relative force accuracy = 9.442143e-06
  using double precision FFTW3
  3d grid and FFT values/proc = 4410 672
Last active /omp style is kspace_style pppm/tip4p/omp
Neighbor list info ...
  update every 1 steps, delay 7 steps, check yes
  max neighbors/atom: 2000, page size: 100000
  master list distance cutoff = 10.8154
  ghost atom cutoff = 10.8154
  binsize = 5.4077, bins = 4 5 5
  1 neighbor lists, perpetual/occasional/extra = 1 0 0
  (1) pair lj/cut/tip4p/long/omp, perpetual
      attributes: half, newton on, omp
      pair build: half/bin/newton/omp
      stencil: half/bin/3d
      bin: standard
Per MPI rank memory allocation (min/avg/max) = 10.19 | 10.21 | 10.23 Mbytes
Step Temp PotEng TotEng E_pair E_mol Press Lx Ly Lz Volume Pxx Pyy Pzz Pxy Pxz Pyz Enthalpy 
10750000    202.22869   -4342.8699   -3996.2569   -4342.8699            0    2911.2851    17.999907    23.475136    21.861643    9237.6428    1878.2806    2949.6254    3905.9494   -523.03466   -647.74826    154.35405    -3604.044 
10751000    201.98694   -4362.0989   -4015.9002   -4362.0989            0    1245.2389    18.006123      23.2876    22.233987    9323.1415    2612.8436    80.548223    1042.3248   -6.7647909   -279.51007    477.87994    -3846.587 
10752000    203.95001   -4369.2082   -4019.6448   -4369.2082            0      1966.44    18.005575    23.385652    21.962663    9247.8649    1952.4211    3604.0515    342.84749    733.00898    489.65139   -437.69414   -3754.4298 
10753000    199.75357   -4367.2304   -4024.8597   -4367.2304            0    2541.1403    17.908598    23.488576    21.996059    9252.5866    3373.6451    1738.0607    2511.7152    423.32039    55.613975    317.34413   -3681.9595 
10754000    178.39355   -4356.7629   -4051.0025   -4356.7629            0    1186.5425    18.152897    23.405824    21.963882    9332.0912    618.79458    1792.2662    1148.5666    341.54271   -196.68088    561.29741   -3889.5152 
10755000    197.49256    -4350.751   -4012.2555    -4350.751            0    1654.9751    17.844885    23.550827    22.162566    9314.0798    3772.6836    1255.1052   -62.863345   -265.90075   -245.96816    268.96633   -3787.4498 
10756000    202.87021   -4353.4278   -4005.7152   -4353.4278            0    930.64012    18.083727    23.358811    22.051796    9314.9955    2370.7102    -1461.417    1882.6271    -949.8679    585.68677    73.876626    -3879.288 
10757000    203.03162   -4364.7106   -4016.7213   -4364.7106            0    1025.5019    18.174408    23.391199    21.856795    9291.7869    741.87028    536.00198    1798.6336   -889.56766    -76.52868   -302.83318   -3877.7543 
10758000    198.39089   -4347.6806   -4007.6454   -4347.6806            0    1805.6695    17.865365    23.568751    22.111209    9310.2418    2561.9701    481.04348     2373.995    1832.5961   -26.879167    539.85463    -3762.471 
10759000    209.20796   -4354.3004   -3995.7251   -4354.3004            0    2044.0203    18.266511    23.157737    21.881911    9256.2903    1341.3374    2167.8117    2622.9117    553.89283    780.46093    576.38479   -3719.7956 
10760000    204.60953   -4363.7428   -4013.0491   -4363.7428            0    2013.4494    17.969526    23.318733    22.047892    9238.6531    2010.5951    3039.9415    989.81157    344.79856    -117.7305     447.6485   -3741.7644 
10761000    201.86083   -4365.0017   -4019.0192   -4365.0017            0    1931.1831     18.00125    23.509302    21.974448    9299.5161    1957.1082    1017.1151     2819.326   -662.08718    460.78031   -230.56808   -3757.1046 
10762000    217.10153   -4354.8885   -3982.7839   -4354.8885            0    1133.4117     18.12158    23.399531    22.022958    9338.5376    127.00328     1321.131    1952.1009    233.42355    182.40092   -168.99078   -3828.4211 
10763000     204.6627    -4345.203   -3994.4181    -4345.203            0    2882.4402     17.99254    23.186767    22.117771    9227.2873    3944.2675    2591.6786    2111.3746   -243.67309    199.23399     345.1668   -3606.5266 
10764000    187.17662   -4361.2661   -4040.4518   -4361.2661            0    880.76591    18.011969    23.643415    21.954844    9349.7877    191.99146    1232.1594    1218.1469    135.06328   -151.01338     61.97191   -3920.3532 
10765000    206.61084   -4374.0747   -4019.9508   -4374.0747            0    375.83062    17.994791    23.328892    22.233585    9333.6266    840.03473    -433.5656    721.02273    686.01745    -527.2987    134.99986   -3968.7923 
10766000    195.61955   -4355.6024   -4020.3172   -4355.6024            0     2524.914    18.036182    23.467429    21.831738    9240.5634    2403.9488    2802.1617    2368.6314     779.7068    105.66007    676.20481   -3680.0493 
10767000    200.98747   -4358.2284   -4013.7428   -4358.2284            0    1175.7575      18.0029    23.390082    22.179905    9339.7211    1990.5547    762.13463    774.58315   -745.74176   -60.331051    435.72482   -3853.5926 
10768000    190.72122   -4366.8067   -4039.9171   -4366.8067            0    1334.1463      18.2385    23.246881    21.932048    9298.9305   -159.56608    2092.6288    2069.3761   -925.62574    134.98973   -315.10616   -3858.9863 
10769000    194.53906   -4354.5805   -4021.1472   -4354.5805            0    1630.2544    17.813532     23.54673    22.194927    9309.6715    2385.4508    1600.3562    904.95627     6.815418   -1107.4547     101.2648   -3799.8043 
10770000    198.57931   -4375.4695   -4035.1114   -4375.4695            0    783.38221    18.040078     23.43972    22.091663    9341.5565    405.95623   -850.09981    2794.2902   -81.360848    575.80629    739.34227   -3928.3857 
10771000    200.43126   -4382.1604    -4038.628   -4382.1604            0    258.78454    18.164779    23.491881     21.99814    9387.1527   -216.66699    273.78413    719.23647    221.45788    321.08198    273.69296   -4003.1999 
10772000    207.26209   -4363.0571   -4007.8169   -4363.0571            0    668.40665     17.97186    23.623063     22.07967    9373.9325    960.73603     1228.276   -183.79207   -513.47617    19.120455    155.83674   -3916.4396 
10773000    191.49072   -4366.8326    -4038.624   -4366.8326            0    1082.0763    18.053996    23.238873    22.185636     9308.084    1053.9474    2858.5407   -666.25908    217.20592    408.24505    876.96212   -3891.7334 
10774000    210.83802   -4337.8527   -3976.4835   -4337.8527            0    1262.8056    18.077967     23.37798    21.956305    9279.3131    108.32763    245.04981    3435.0395   -434.68693   -622.54414   -595.39944   -3805.5889 
10775000      196.459   -4352.5728   -4015.8488   -4352.5728            0    1306.8291    17.882943    23.605699    22.071971    9317.4479    2470.0778    1613.2151   -162.80568    80.689162    48.279758     185.5727   -3838.2697 
10776000    210.86583   -4352.3962   -3990.9794   -4352.3962            0     2310.139    18.121392    23.238344    21.988812    9259.7335    1962.8523    3269.7062    1697.8586   -416.47279    218.73847    296.69121   -3679.0096 
10777000    206.20075   -4354.5228   -4001.1018   -4354.5228            0    2171.6781    17.910654    23.537025    21.982931    9267.2015    1955.0421    2633.2832    1926.7091    205.74985    -801.3897    300.48396   -3707.5938 
10778000    196.73869   -4371.5677   -4034.3643   -4371.5677            0    2285.2867    18.037714    23.301127    22.028042    9258.3657    2616.7848    1324.0302     2915.045   -653.74764    573.52756    -24.99863   -3725.7963 
10779000    181.91563   -4359.5112    -4047.714   -4359.5112            0    2010.5617    18.081708    23.392715    21.860428     9246.529    1420.1827    1354.8857    3256.6168   -339.58984   -602.71742    173.03768   -3776.5875 
10780000    211.25654   -4358.8885    -3996.802   -4358.8885            0    1996.4773    17.791948    23.419371    22.151889    9230.1661    2255.8103    1859.5607     1874.061    495.43005    223.80373   -332.76114   -3728.0512 
10781000    209.29355   -4351.8066   -3993.0847   -4351.8066            0    1913.4522     18.12958    23.364585    21.845226    9253.4216    891.15236    1993.6064    2855.5977     597.5142    83.044889   -180.04068   -3734.8611 
10782000    214.66222   -4378.5573   -4010.6336   -4378.5573            0    470.90221    17.970354    23.479541    22.166538    9352.8529    1798.9548   -54.976703   -331.27151   -210.31286   -110.53472    591.90333   -3946.4017 
10783000    210.04781   -4374.9382   -4014.9234   -4374.9382            0    1533.7467    18.188552    23.562907    21.727857    9312.0198    133.30548    1370.1817    3097.7529    425.87229     252.2192   -261.76618    -3806.631 
10784000    193.18369   -4368.4512    -4037.341   -4368.4512            0    3007.2949    17.965154    23.285138    22.082735    9237.6735    2587.6168    3587.1387    2847.1293    822.95034    622.44902   -516.05672   -3632.1922 
10785000    200.03229   -4390.0582   -4047.2096   -4390.0582            0    2063.3316    17.911292    23.603315    21.896513    9257.0986    2492.2283    2131.8402    1565.9264   -242.43919    146.11625    123.07155    -3768.649 
10786000    193.26824   -4368.4976   -4037.2425   -4368.4976            0    1414.8195    18.164958    23.275062    22.083705    9336.7812    840.19325    558.89827    2845.3671   -1044.2785    409.06177   -328.81337   -3844.5902 
10787000    205.51428   -4365.1378   -4012.8934   -4365.1378            0    1199.3308    17.916517    23.582718    22.059956    9320.7763    1231.6731    1620.6417    745.67773    103.17015    255.32944   -74.410313   -3849.8636 
10788000    197.47509   -4356.3813   -4017.9157   -4356.3813            0    1164.1079    17.983784    23.479821    22.050019    9310.7535     1911.892    1289.3312    291.10041    125.15412   -557.51619    749.26607   -3859.8441 
10789000    195.34337   -4347.9159    -4013.104   -4347.9159            0    1284.5026    18.194072     23.12819    22.125446    9310.2984    1096.1092    1713.5864    1043.8123   -177.16098   -379.01302    565.12306   -3838.6928 
10790000    196.71614    -4367.495   -4030.3303    -4367.495            0    1793.5098     17.92607     23.58842    21.933432    9274.5007    2087.8017    380.81446    2911.9134    875.55303     98.54042   -113.85311   -3787.7418 
10791000    199.83675   -4368.5346   -4026.0213   -4368.5346            0    1552.3707    18.132352     23.24114    22.059507    9296.2406     1156.841    2491.6463    1008.6248   -206.58874    373.64189    268.51984   -3815.5569 
10792000    199.43732   -4364.4747   -4022.6459   -4364.4747            0    1251.1072    18.110589    23.370214    22.107144     9356.812    1099.6643    1476.9055    1176.7518       784.89   -542.61619   -397.64714   -3851.9205 
10793000     208.9797   -4365.2199   -4007.0359   -4365.2199            0    2286.0381    17.873381    23.564695    22.046573    9285.5927    4060.1943    909.30114    1888.6189   -557.21592   -221.05812   -364.99647   -3697.4586 
10794000    190.02712   -4337.2826   -4011.5827   -4337.2826            0    1680.8647    18.148195    23.205306    21.983191    9257.8783     996.2001    1191.9553    2854.4387    13.889968    37.131056    265.16779   -3784.6379 
10795000    187.66816   -4378.7124   -4057.0556   -4378.7124            0    610.78234    18.033799    23.511734    22.014361    9334.2186   -87.566165   -13.974862    1933.8881   -570.27772   -29.912165    319.14732   -3973.9098 
10796000    206.86175   -4368.1958   -4013.6419   -4368.1958            0    1125.8045    18.053846    23.473953    22.102335    9366.8616      2681.82    1308.1633   -612.56967   -71.309279    783.99061   -438.34733   -3859.8501 
10797000    189.50331   -4359.9782    -4035.176   -4359.9782            0    1339.3834    18.186398    23.148215    22.075574     9293.434    911.03068    1351.6178    1755.5016    591.16276   -359.68117   -477.19273   -3853.6424 
10798000    205.38285   -4366.4197   -4014.4005   -4366.4197            0    1662.9478    17.946626    23.499225    22.049792    9299.0983    1880.2067    1504.0543    1604.5823    119.82497   -77.404218    176.78735   -3788.8752 
10799000     211.3736   -4365.8059   -4003.5188   -4365.8059            0    1405.2652    18.063702    23.226751    22.163581    9298.9766    2822.2996    1428.8055   -35.309572   -265.33783    466.83814   -562.29133   -3812.9423 
10800000     197.7354   -4367.6131   -4028.7014   -4367.6131            0    1181.6764    18.122578    23.418774    22.003928    9338.6557    2581.4938    1133.8519   -170.31658    435.19107    137.58899   -16.584998   -3867.7633 
10801000    202.55399   -4345.8859   -3998.7153   -4345.8859            0    1548.8189    17.899821    23.494124    22.060347    9277.2721    1708.3278    1981.3822    956.74662    133.02499    370.94904    -167.6718   -3789.1609 
10802000    202.41033   -4373.5464    -4026.622   -4373.5464            0    1489.1122    18.289933    23.090377    22.124085    9343.4752    1556.4985    1864.9972    1045.8408    413.66934   -523.38909    224.66984   -3823.7081 
10803000    192.32162   -4362.4649   -4032.8323   -4362.4649            0    1733.7661    17.964395    23.644014    21.955516    9325.6147    1266.2126    2038.4664    1896.6194   -355.23238   -388.68604   -177.82993   -3797.0322 
10804000    211.72818   -4367.4896   -4004.5948   -4367.4896            0    1289.9011    18.036291     23.42688    22.040273    9312.7655    2447.1352    1186.1801    236.38793    -2.111467   -418.04398   -13.044931   -3829.4041 
10805000    195.39692   -4350.8389   -4015.9353   -4350.8389            0    3073.3364    18.048171    23.241939    21.916379    9193.3614    2188.7261    3695.3015    3335.9815    836.35155   -229.05355   -157.77675   -3603.8754 
10806000    208.35057   -4346.1462   -3989.0404   -4346.1462            0    2317.8131    17.925931    23.498988    21.960664    9250.7374    1238.6701    2080.3776    3634.3916    69.895073    161.88091   -9.5695784   -3676.3384 
10807000    208.14854   -4372.4745    -4015.715   -4372.4745            0    2209.7462     18.16539    23.176477    22.034096    9276.5688    1965.3939    2102.7249    2561.1199   -174.72696   -646.34707    279.22429   -3716.7601 
10808000    191.10642   -4343.1127   -4015.5629   -4343.1127            0    2060.7466    17.997526    23.481758    21.957217    9279.4171    1447.2624    1955.7957    2779.1817    238.05714   -128.47227    262.54157   -3736.6804 
10809000    205.03454   -4368.2014   -4016.7792   -4368.2014            0   -153.56279    17.994305    23.510275    22.150918    9370.9698    747.40136   -1059.9517   -148.13804   -438.29036    793.08974    135.99594    -4037.766 
10810000    193.29838   -4377.5298    -4046.223   -4377.5298            0    1068.0925    18.155699    23.304458    21.997726      9307.43    1055.6694    768.84133    1379.7667   -245.42488   -450.51229    169.71222   -3901.2408 
10811000    196.97078   -4360.1561   -4022.5549   -4360.1561            0    1451.2553    17.853186    23.628967    22.027744    9292.4555    2968.8958    63.826566    1321.0437   -28.482878      781.273    623.65883   -3825.8795 
10812000     186.5307   -4329.0214   -4009.3142   -4329.0214            0    838.65938    18.181763    23.274431    22.112253    9357.2457    413.44417    2228.9618   -126.42781    831.69227   -258.64539    442.60017   -3894.8658 
10813000    206.48147   -4337.6198   -3983.7177   -4337.6198            0    2610.4208    18.020103    23.285744    21.971258    9219.3924    1180.3165    2104.2328    4546.7132    104.61198   -451.27777    229.60046   -3632.7325 
10814000    192.17228   -4351.5755   -4022.1988   -4351.5755            0    1694.9838     17.95537    23.428529    22.119053    9304.7755    3415.3649    2053.2657   -383.67923   -277.40109   -33.237506   -59.844228   -3792.1885 
10815000    189.73452   -4371.5867   -4046.3883   -4371.5867            0    1631.7849    18.227703    23.400627    21.791266    9294.8398    1810.1534    953.69914    2131.5022    419.90475     578.6844   -160.70561   -3825.1905 
10816000    216.23399   -4367.2413   -3996.6236   -4367.2413            0    1926.9469    17.918859    23.367147    22.156089    9277.0337    3943.9579    443.49312    1393.3898    1546.3172     586.4405    911.69808   -3735.9154 
10817000    194.00719   -4385.0674   -4052.5457   -4385.0674            0    2397.6794     17.93118    23.627587    21.827691    9247.7494    1157.0647    2272.4465    3763.5271   -479.62002    635.92818   -591.43795   -3729.1732 
10818000    196.33115   -4359.4268    -4022.922   -4359.4268            0    1245.5643    18.136061    23.104439    22.161874     9286.346      648.244    1436.5808    1651.8681    934.85893   -1170.1855   -330.29198   -3854.2329 
10819000    189.51342   -4379.2768   -4054.4573   -4379.2768            0    1470.3576    18.008322    23.500195      22.0477    9330.5663     1162.229    2494.8508    753.99313    847.00707    -208.3522   -2.1537917   -3854.3758 
10820000    203.43037   -4363.2386   -4014.5659   -4363.2386            0    3112.2084    18.004913    23.198403    22.035051    9203.7155    4230.0223    2650.2795    2456.3235   -4.6307447    143.11543   -8.5983893   -3596.8243 
10821000    203.52557   -4376.8278    -4027.992   -4376.8278            0    785.53944    18.125878    23.357445    21.995648    9312.3902    347.73235     907.3147    1101.5713    307.77416   -793.33203    124.77485   -3921.3065 
10822000     222.2874   -4356.5053   -3975.5123   -4356.5053            0    2637.8259    17.917477    23.518057    22.018713     9278.339    2473.7859    3318.2905    2121.4012   -805.17691   -398.41713    412.10641   -3618.5747 
10823000      192.848    -4377.226   -4046.6911    -4377.226            0    1806.8435     18.18077    23.134637     22.05429    9276.1561    1070.3994    1382.7897    2967.3416    595.14196    66.280346    -188.0848   -3802.2555 
10824000    199.32454   -4369.1647   -4027.5292   -4369.1647            0    2643.1615    17.943305     23.43284    21.982953    9243.0094    3368.4269    2563.3896     1997.668   -832.02799   -48.863837    376.63201   -3671.2316 
10825000    194.91092   -4358.0029   -4023.9323   -4358.0029            0    1901.4902    17.899324    23.542688    22.060118    9296.0941    2876.9842    1870.2527    957.23372    478.00423   -460.53067    198.31995   -3766.1396 
10826000    202.77454   -4371.1436    -4023.595   -4371.1436            0    1655.6985    18.206338    23.268542    21.968928    9306.8058    1237.5798    2362.1979     1367.318   -836.38879   -58.563523   -80.753639   -3798.8667 
10827000    195.46667   -4372.0663   -4037.0431   -4372.0663            0    1595.0861    17.838848    23.565917     22.14301    9308.6739    1166.6873    1445.1504    2173.4204    272.18327   -186.71705   -412.36706   -3820.4983 
10828000     200.3501    -4331.246   -3987.8528    -4331.246            0    1728.4238    18.016785    23.492453     21.92051    9278.0417    1179.8046    1556.9129     2448.554   -509.06613    551.27344    55.928185   -3753.9785 
10829000    195.20426   -4366.1614    -4031.588   -4366.1614            0    1626.7377    18.106434    23.321322    22.041404    9307.3349      1811.18    1352.5691    1716.4641   -100.06324    321.79936    271.30435    -3810.778 
10830000    209.93259   -4350.8121   -3990.9948   -4350.8121            0    1863.4136    17.938755    23.636573    21.968634    9314.9361     2480.492    1474.1575    1635.5911   -261.40952    824.00744   -508.93794   -3737.8523 
10831000    203.79626   -4367.2396   -4017.9398   -4367.2396            0    1866.0863    17.972114     23.38151    22.047779    9264.8111     1862.225    3398.3747    337.65927  -0.34719282    199.47018    135.76431   -3765.7983 
10832000    189.15347   -4365.1276    -4040.925   -4365.1276            0    2697.6319    18.086866    23.317797    21.895068    9234.1545    2897.9913    2389.9655    2804.9391   -26.682681    557.97911   -448.34863   -3677.6331 
10833000    190.38618   -4365.9896   -4039.6742   -4365.9896            0    2724.3179    17.889541    23.552201    21.978945    9260.5661    3398.2661    1502.7158    3271.9719   -314.87256    591.72587   -230.13842   -3671.7391 
10834000    206.30338   -4341.5052   -3987.9083   -4341.5052            0    610.11922    18.080087    23.339874    22.064099    9310.7615    1873.2993    162.16419   -205.10588    253.97292    675.21348   -312.19964   -3905.0615 
10835000    203.77217   -4369.3549   -4020.0964   -4369.3549            0    2066.7885     18.02856    23.441545    21.882219    9247.8043     609.4153     1796.754    3794.1962   -311.98994    306.14908   -341.96267   -3741.3492 
10836000    201.81864    -4366.169   -4020.2587    -4366.169            0    3374.2961    17.870794    23.355924    22.069495    9211.5623    3345.2887    4775.9637    2001.6359    139.83773    -252.5291   -170.32359   -3566.9518 
10837000    198.59107   -4368.7915   -4028.4132   -4368.7915            0    2413.3539    18.106507    23.314959    21.835835    9218.0515    1976.7822    3924.2739    1339.0057    304.13309    57.002875   -182.93236    -3703.972 
10838000     209.3882   -4351.3643   -3992.4801   -4351.3643            0    2607.6513    17.907819    23.292977    22.117184    9225.6614    3068.0088    2859.3628    1895.5824    -618.9298   -397.92807    612.33722    -3641.629 
10839000    191.55099   -4377.8853   -4049.5734   -4377.8853            0    2320.0444    18.020943    23.418901    21.949986    9263.5674    1986.1187    2795.5071    2178.5075    419.63915   -658.74103   -350.55964   -3736.1363 
10840000     198.3994   -4355.4087   -4015.3589   -4355.4087            0    2499.1139    18.161338    23.151706     22.04836    9270.5847     2138.058    3993.0655    1366.2181   -777.92425   -138.35349   -409.18363   -3677.4738 
10841000    199.32018   -4386.6805   -4045.0525   -4386.6805            0    391.34632    18.036366     23.57124    22.078191    9386.3115     41.81435    1328.7363   -196.51168    935.32461    134.41526   -348.84388   -3991.4812 
10842000     201.1065   -4348.3839   -4003.6942   -4348.3839            0    1550.6985      18.1038    23.401826    21.991229    9316.8475    706.76986    1956.5814    1988.7442   -149.38332   -513.91873    592.73515   -3792.9905 
10843000    200.06471   -4388.4159   -4045.5118   -4388.4159            0    1297.3805    18.006683    23.412044    22.133485    9330.8856    903.43336    1575.0161    1413.6919   -810.91069   -76.415278   -37.618727   -3868.9625 
10844000     195.7182   -4361.9707   -4026.5164   -4361.9707            0    784.58941    18.033106    23.570326    21.996099    9349.3579    740.23508    -415.8235    2029.3566    686.54561   -330.75069    1178.1315   -3919.5371 
10845000    199.10673   -4379.6163   -4038.3541   -4379.6163            0    1361.8957    18.092623    23.413171    21.931852    9290.4571    1933.4365    732.85329    1419.3971    8.1195658    923.58722    151.12143   -3853.8285 
10846000      205.213   -4363.2178   -4011.4897   -4363.2178            0    2262.2939    18.029784    23.369904    22.024507    9280.1214    2731.3901     1885.365    2170.1267    -1021.639   -202.93097    255.96457   -3705.3085 
10847000    201.13484   -4364.3111   -4019.5728   -4364.3111            0    730.87872    17.906529    23.648212    22.131131     9371.591    1890.1094    153.18294    149.34384   -72.214833    313.71172    14.954083   -3919.6799 
10848000    193.37172   -4375.9852   -4044.5527   -4375.9852            0     1345.086    18.092122    23.350568    21.966901    9280.1662    1112.2293    1843.4494    1079.5793    403.62379   -67.991844   -256.13463   -3862.5065 
10849000    204.58712    -4368.009   -4017.3537    -4368.009            0     1714.567    17.949729    23.377344    22.138516    9289.6974    1465.0093    2673.6601    1005.0315    517.69267   -149.77989    586.97638    -3785.063 
10850000     197.5329   -4373.5577    -4034.993   -4373.5577            0    3220.4873      18.0149    23.422293    21.709319    9160.2528     2982.712    3971.2888    2707.4612     467.3497    209.10788   -555.12828   -3604.7588 
10851000    193.44361   -4380.7368    -4049.181   -4380.7368            0    1228.5152     17.93623    23.304288    22.273662     9310.192    2133.6566    319.34236    1232.5468    204.38858   -1050.7311    249.89527   -3882.3737 
10852000    211.43136   -4369.6748   -4007.2887   -4369.6748            0    1984.8581    18.050139    23.408974     21.95202     9275.502    1087.3298    3540.1243    1327.1202   -337.02209   -346.69084     -238.331   -3738.7897 
10853000    198.33021   -4346.3264   -4006.3952   -4346.3264            0    980.45185     17.89611    23.370599    22.107366     9246.247    358.30583    1961.5175    621.53225    601.37546    1326.9539   -324.19865   -3874.1842 
10854000    198.94354   -4361.6423   -4020.6599   -4361.6423            0    1393.8656    18.094554    23.422216    21.953469    9304.1997    1255.1431    1187.2724    1739.1814   -564.77247    206.23835    511.93793   -3831.5232 
10855000    204.04348   -4352.5821   -4002.8585   -4352.5821            0    1353.6437     17.90034    23.526942    22.063308    9291.7473    1889.9315    380.68369    1790.3158    77.707217    327.87763   -266.02427   -3819.4255 
10856000    196.77354   -4386.1783   -4048.9152   -4386.1783            0    1748.8317    18.033419    23.438008     22.00954    9302.7154    1563.0982     1396.835    2286.5621   -414.84649    790.70365    46.000465   -3811.6502 
10857000      192.637    -4364.615   -4034.4418    -4364.615            0    -86.27515     18.34996    23.321401    21.950738    9393.7475    28.103992   -571.88033    284.95088   -114.42822   -130.74605    608.88865   -4046.2614 
10858000    200.25734   -4361.6257   -4018.3915   -4361.6257            0    1595.8179    17.905827    23.489399    22.175044    9326.7596    2410.1458    2394.9914   -17.683528    217.89121   -734.50047    270.87826   -3801.3264 
10859000     201.5907   -4373.0693   -4027.5498   -4373.0693            0    1726.6926     18.13517    23.500985    21.792885    9288.0044    1885.0422    866.97906    2428.0566   -184.49814    510.10793    25.596693   -3793.6589 
10860000    190.39231   -4354.7741   -4028.4482   -4354.7741            0     1805.419    18.021833    23.177854    22.107828    9234.6037     6.477531    2701.1495    2708.6301    395.02703    472.19741    -299.7837   -3785.2994 
10861000    196.42973   -4350.9688   -4014.2949   -4350.9688            0    1675.8066    17.912691    23.620216     21.89684     9264.589    1439.6363    493.90297    3093.8806   -536.47291    432.63502    148.42035   -3787.8691 
10862000    199.45183    -4363.359   -4021.5054    -4363.359            0    2299.1755    17.983618    23.277235    22.105239    9253.4503    2887.1536     2545.481     1464.892    -1275.683    232.07509    -186.2112   -3711.2269 
10863000    201.54169   -4369.5765   -4024.1409   -4369.5765            0    2578.0414    18.222231    23.250544    21.795035    9234.0506    1279.7092    2566.6032    3887.8118    316.13702   -647.44612    235.10762   -3676.9583 
10864000    205.93439   -4344.5504   -3991.5859   -4344.5504            0    2870.9482    17.911242    23.436214    22.057547    9259.1342    4728.9071    1816.4197    2067.5179    518.05736    923.43075    244.99816   -3603.9074 
10865000    207.24536   -4354.8103   -3999.5989   -4354.8103            0    2118.8359    18.062431    23.378443    21.943393    9266.0694    1295.3519    1994.7558    3066.3999    265.20396   -443.99858   -154.46675   -3713.2676 
10866000    199.88705   -4376.3773   -4033.7777   -4376.3773            0    2344.0206    17.966738    23.368724    22.052642    9259.0165    2622.4298    4043.5362    366.09567   -1172.7227   -45.508027   -383.64383    -3717.257 
10867000    190.85923   -4370.3048   -4043.1786   -4370.3048            0    3112.1413    17.993303    23.253973    22.025165    9215.6769    2363.3039    4112.2305    2860.8896   -1267.0686   -88.781142    423.89615   -3624.9031 
10868000    199.84189   -4383.6996   -4041.1774   -4383.6996            0    1526.5657     18.21704    23.393769    21.875303    9322.4936    473.40597    397.72024    3708.5709   -773.46209   -71.003269   -425.95416   -3833.6271 
10869000    199.10706   -4352.2856   -4011.0229   -4352.2856            0    2907.7299    17.904975    23.423001    22.090368    9264.4407    2696.5095    3730.7768    2295.9033   -197.67853   -269.86129   -425.90843   -3618.1526 
10870000    192.13806   -4362.9471    -4033.629   -4362.9471            0    1325.5355    18.033853    23.505182    21.874102    9272.1912    1261.5362    1654.7486    1060.3218    206.46481    42.215931   -122.02125    -3854.383 
10871000    201.85037   -4384.3776    -4038.413   -4384.3776            0    1999.3181    18.001018    23.301723    22.089543    9265.5634    2140.4136    3335.9126    521.62823    78.597209    376.83325    141.51461   -3768.2476 
10872000    208.02972   -4347.8943   -3991.3385   -4347.8943            0    2382.1537    17.866215    23.645657     21.89192     9248.425    2313.4895    1768.5293    3064.4423      273.153   -355.30221   -92.986354   -3670.0365 
10873000    187.72558   -4372.0462    -4050.291   -4372.0462            0    2336.5504     18.09126    23.214796    22.086994    9276.2041    2301.8117    3089.4853    1618.3542    528.72312   -25.146443     663.8447   -3734.1933 
10874000    205.18469   -4359.9587   -4008.2792   -4359.9587            0    807.44744    18.134169    23.480343    22.018291    9375.3112    1220.8061    582.08787     619.4484   -588.62272    225.95994    -218.9968   -3897.8774 
10875000    212.55489   -4356.3869   -3992.0751   -4356.3869            0    2297.9967    17.936751    23.467908    22.025098    9271.2013    2286.4952    2418.4305    2189.0644   -235.22746   -133.83738   -311.84013   -3681.3608 
10876000    198.65254   -4365.2998   -4024.8161   -4365.2998            0    1397.4792    18.087362    23.335356     22.06198     9311.811    1912.7121    1447.1785    832.54699   -484.84387    -65.70045    404.33275    -3835.034 
10877000      205.958   -4366.9451   -4013.9402   -4366.9451            0    1919.9968    18.017578    23.498522    21.962608    9298.6709    2312.9649    1540.8836    1906.1419   -585.87303   -269.65857    415.86841   -3753.5664 
10878000    198.93002   -4358.5266   -4017.5673   -4358.5266            0    1502.5082    18.017488    23.346634    22.143792    9314.7351    1676.3144    1040.9746    1790.2355    -441.3413    1421.5511    346.01527   -3813.4578 
10879000    205.17419   -4355.5124   -4003.8508   -4355.5124            0    1400.5722    17.976053    23.718441    21.835639    9309.9292    552.04705    281.01418    3368.6554    98.091082    573.16013   -329.88938   -3813.6871 
10880000     204.1669    -4395.151   -4045.2159    -4395.151            0     1582.252     18.13256    22.901039    22.323465    9269.9187    346.23915    3541.8356    858.68121    418.30364     479.9186   -449.55223   -3831.3077 
10881000    195.65197   -4382.9494   -4047.6087   -4382.9494            0    1089.7928    18.059374    23.482927    21.867145    9273.5707    765.06089    1101.2903    1403.0272   -176.70969   -196.21682   -798.33738   -3900.2191 
10882000    209.09898   -4363.0673   -4004.6788   -4363.0673            0    969.96322    17.823116    23.650137    22.139112    9332.0597    2352.7917    845.80266   -288.70467     202.3341    302.57948    595.93669   -3872.6682 
10883000    191.44352   -4357.2346    -4029.107   -4357.2346            0    1937.9364    18.133396    23.325369    21.942337    9280.9097    1095.7178    3046.8997    1671.1917    894.38398    42.928526    141.61959   -3766.8024 
10884000    194.98323   -4379.0849   -4044.8903   -4379.0849            0    1186.7063    18.111328    23.433745    21.964257    9321.9877    1754.0327    609.50638    1196.5799   -266.74604    -596.5269   -303.76616   -3883.5557 
10885000    192.06988   -4382.1901    -4052.989   -4382.1901            0    397.26062    17.929591    23.459505    22.200276    9337.8648    1452.5263   -55.161936    -205.5825   -814.88492   -398.18051    105.82148   -3998.8887 
10886000     207.0488   -4372.1029   -4017.2284   -4372.1029            0    1815.2128    18.114365    23.299836    21.843895    9219.4718    1123.0874    2102.1285    2220.4225   -319.73906    120.05362    355.95712   -3773.1611 
10887000     194.3308   -4372.4247   -4039.3483   -4372.4247            0     2092.511    17.851582    23.458119    22.154858    9277.6689    1697.6417    2298.7044    2281.1868   -206.84316   -153.53138   -151.06472   -3756.2205 
10888000    199.54947    -4361.458    -4019.437    -4361.458            0    2137.7451    18.162701    23.352581    21.855145    9269.7712     1682.395    4037.0933    693.74699   -1145.9516   -141.17713    199.42004   -3730.4351 
10889000    190.64799   -4387.6255   -4060.8613   -4387.6255            0    1417.8868    17.846029    23.514742      22.1781    9306.9236    1952.7115   -64.578925    2365.5279    555.12213        382.7   -19.332877   -3868.4088 
10890000    190.97954   -4355.4819   -4028.1495   -4355.4819            0    1678.8042    17.985366    23.526581    22.050037    9330.1238    458.48871    2455.8587    2122.0652    448.17595   -523.57964    237.72007   -3799.7142 
10891000    200.77585   -4388.9587   -4044.8358   -4388.9587            0    1915.8873    18.117259    23.214371    22.106301    9297.4855    1860.6935    2204.8519    1682.1163   -3.6096024    79.643974    162.55674   -3785.0524 
10892000    190.54566   -4361.5505   -4034.9618   -4361.5505            0     1180.866     17.93099     23.45339     22.13943    9310.5714    883.50204     1884.785     774.3111   -637.09775   -486.49496   -58.734876   -3874.6178 
10893000    194.24921   -4364.2442   -4031.3077   -4364.2442            0    1930.1631    18.032534    23.536752    21.846288    9272.1603    2503.1059    1264.1316    2023.2517    134.95487   -612.03039   -264.43805   -3770.3015 
10894000    186.54451   -4348.4007   -4028.6698   -4348.4007            0    2729.1075    17.964704    23.207469    22.167737    9242.0686    3412.5895    2584.2744    2190.4585   -956.48731   -560.62233     765.8837    -3660.824 
10895000    201.83681   -4348.7967   -4002.8553   -4348.7967            0    1048.9066    18.051973    23.397663    22.073651    9323.3361     737.2759    1948.8888    460.55499   -12.343578    102.59578   -423.04798   -3860.2341 
10896000    195.84864   -4368.8066   -4033.1287   -4368.8066            0    1051.4917    17.896113    23.543177    22.129795    9323.9766    1324.5235    794.73347    1035.2183    692.47113   -229.54845    493.99669   -3890.1462 
10897000    186.30906   -4371.2335   -4051.9061   -4371.2335            0    2370.1581    18.108238      23.4637    21.857246    9286.8431    1536.0606    3385.2975    2189.1161   -202.54454   -313.87093   -9.6334152   -3730.8941 
10898000    191.07667   -4377.7145   -4050.2156   -4377.7145            0    1522.0723    18.024869    23.418165    21.836739    9217.4916    1437.9014    947.60812    2180.7073   -330.51549    650.71471    661.66075    -3845.607 
10899000    216.02274   -4360.6764   -3990.4208   -4360.6764            0    2358.3781    17.875455    23.257257     22.18893    9224.6941    3299.7548    2580.7138    1194.6657   -698.21534    299.63388    1059.9062   -3673.1419 
10900000    202.04796   -4375.0308   -4028.7275   -4375.0308            0    1689.6577    18.020865    23.581544    21.826847    9275.5336    1252.8229    1586.4991     2229.651    123.46474    86.185804    142.02579   -3800.1605 
10901000    209.77973   -4359.4295   -3999.8742   -4359.4295            0    2744.4399    17.951042    23.190606    22.139361    9216.5173    3780.4247    3118.1816    1334.7135    226.27505   -307.37319   -271.78076   -3630.9845 
10902000    188.38595   -4371.4128   -4048.5257   -4371.4128            0    1044.5685    18.101913    23.300959    22.029729    9291.9619     1201.648    167.89044    1764.1672    538.97067   -336.41554   -135.07911   -3906.9724 
10903000    202.89382   -4360.6378   -4012.8847   -4360.6378            0    2076.0178    17.741238    23.594765    22.130559    9263.8594    2576.4298    829.58554     2822.038    361.39508    135.28862    1014.4959   -3732.4067 
10904000    181.96193   -4351.1664   -4039.2898   -4351.1664            0    2019.6533     18.10249    23.228969    21.921103    9217.8714    1879.7704     3008.641    1170.5486    181.59844   -209.98602    190.82627   -3767.7814 
10905000     210.7539     -4390.45    -4029.225     -4390.45            0    2562.4715    17.926019     23.35521    21.983195    9203.6148    2107.8832    3242.5423    2336.9889    259.15094   -533.32609    309.90657   -3685.2766 
10906000    193.92252   -4394.1901   -4061.8136   -4394.1901            0    2081.0999    17.937329    23.347385     22.02169    9222.4577    2260.6158    1706.4419     2276.242   -274.36347    502.83496    439.30566   -3781.9054 
10907000    193.40975   -4371.3191   -4039.8214   -4371.3191            0    1556.5549    18.136386    23.259768     21.92194    9247.7293    1350.5998    2239.4829    1079.5821    1192.9559   -881.35817    1004.7878    -3829.891 
10908000    194.71919   -4371.8632   -4038.1212   -4371.8632            0    1623.8708    17.869774    23.629074    22.049231     9310.204    3062.2834    433.80471    1375.5243     970.8843    -30.67949    18.139564   -3817.6323 
10909000     189.2132   -4356.8044   -4032.4995   -4356.8044            0    1776.5012    18.225187    23.242522     21.92682    9288.1859    1286.7893    1792.8148    2249.8995    652.66656   -285.56279   -460.06571    -3791.857 
10910000    217.66093   -4370.6654   -3997.6021   -4370.6654            0    2143.2776    17.945931    23.452371    21.999386    9258.9832    2558.8837    2010.2442    1860.7051    244.50061    398.48664   -317.81787   -3708.1893 
10911000    185.51569    -4367.673   -4049.7054    -4367.673            0    1665.3498    17.951551    23.509351    21.973378      9273.41    1885.4654    739.94035    2370.6435   -314.40765   -127.18769    671.54427   -3824.4783 
10912000    193.40343   -4363.6178   -4032.1309   -4363.6178            0    2772.4321     18.06665     23.29166    21.958808    9240.3165     3161.021    3271.6464     1884.629    141.35545    388.68789     409.8871   -3658.5165 
10913000    200.71405   -4362.7941   -4018.7771   -4362.7941            0    2103.4139    17.790272    23.818144     21.83715    9253.0829    2228.6767   -96.269491    4177.8345   -346.54512   -103.80731   -143.30845   -3734.9283 
10914000    196.44415   -4372.2126    -4035.514   -4372.2126            0    1845.0691    18.110847     23.20108    22.013424    9249.8473    1980.4896    1152.5608     2402.157    949.57924   -1165.1605    680.37229   -3786.6151 
10915000    196.80548   -4363.6503   -4026.3324   -4363.6503            0    1875.7333    18.062033    23.364616    21.944069    9260.6705     1393.917    1340.6282    2892.6548   -893.31676    5.8855976    383.48179   -3773.0008 
10916000    199.78452   -4353.5908    -4011.167   -4353.5908            0    1523.0701    17.905859     23.50582    22.011959    9264.6555    1409.0082    824.85468    2335.3473   -668.32957   -215.02284   -885.61797   -3805.3766 
10917000    204.67448   -4398.5424   -4047.7373   -4398.5424            0    782.28849     18.24922    23.261142    21.981867     9331.252   -646.07689    2066.8823    926.06012    252.48214    -25.02132    435.92322   -3941.2783 
10918000    209.66564   -4351.1568   -3991.7971   -4351.1568            0    3031.6868    17.850226     23.56408      21.9016    9212.3423    3850.9064    1769.3628    3474.7911    459.88993    592.84081   -373.26042   -3584.4822 
10919000    203.89278   -4347.2316   -3997.7664   -4347.2316            0    1275.9902    18.101118    23.421033    22.003468    9328.3018    1345.9373     608.7813     1873.252    558.53358   -565.58013    44.153995   -3824.1759 
10920000    205.70198   -4376.4999   -4023.9338   -4376.4999            0    3151.1887    18.044954    23.203917     22.09018    9249.4589    4045.8233    2977.8146    2429.9281    273.79563   -35.914536   -516.76066   -3598.8577 
10921000    201.76404   -4371.1221   -4025.3055   -4371.1221            0    1702.3305    17.956237    23.492486    21.963222    9264.8918    1664.8639    1567.0387     1875.089    92.836592    565.96295    111.05351   -3795.2884 
10922000    205.00606   -4382.6949   -4031.3215   -4382.6949            0    2097.5063    18.129832    23.167161    22.018702    9248.2233    2705.9667    2273.1385    1313.4135   -313.00988   -287.90941    256.30967   -3748.4186 
10923000    206.49582   -4388.7259   -4034.7991   -4388.7259            0    2924.1926    17.950937     23.44133    21.969612    9244.6775    3122.2411    2094.3123    3556.0244    140.25613    593.15069    309.84113   -3640.5474 
10924000    199.74767   -4379.9917    -4037.631   -4379.9917            0    2454.7965    17.945606    23.387559    22.048177    9253.7065    2590.9246     3278.764    1494.7009   -92.318812   -234.13457    -516.2163    -3706.342 
10925000    204.16405   -4363.7026   -4013.7724   -4363.7026            0    2468.6607    18.123387    23.227783    21.998573    9260.6537    1752.4581    2893.3345    2760.1896    370.90264    451.06196    634.98536   -3680.3622 
10926000    192.07167   -4365.5306   -4036.3263   -4365.5306            0    1557.4485    17.804165    23.722982    22.043658    9310.5331    1866.5199    880.40088    1925.4249   -1085.7988   -876.08517    437.29344   -3824.8489 
10927000    209.48091   -4356.3406   -3997.2974   -4356.3406            0    1522.5782    18.135162     23.21983    22.052139    9286.0538    1395.7749    2306.7045     865.2553   -155.72516   -933.44303    405.30373   -3791.0984 
10928000    206.46537   -4359.5457   -4005.6711   -4359.5457            0    2646.3733    17.972303    23.356939    22.017753    9242.5678    3535.1976    2147.0491    2256.8733   -1080.3036   -308.74993   -330.26808   -3648.9575 
10929000    188.39699   -4345.5439   -4022.6379   -4345.5439            0    1870.1906    17.911077    23.498308     22.04614    9278.7793    1063.1154    2261.2034    2286.2529    368.88478    540.97987    448.42481    -3769.561 
10930000    205.65811   -4381.2815   -4028.7905   -4381.2815            0    976.39197    18.157213    23.187403    22.054686    9285.4334    735.28696    305.16574    1888.7232    -789.9915    999.21012   -487.46345    -3896.569 
10931000    206.25546   -4366.1123   -4012.5975   -4366.1123            0    2521.8018    17.946619    23.377176     21.97579    9219.7505    4329.9244    2471.2321    764.24901   -1255.6848    224.93432   -515.25794   -3673.5145 
10932000    206.69958   -4347.1084   -3992.8324   -4347.1084            0    1519.7954    17.959895    23.585559    21.893358    9273.8988    1523.6436    647.92499    2387.8176   -1211.6804   -346.26203    333.23357   -3787.2796 
10933000    190.98813   -4364.6619   -4037.3148   -4364.6619            0      2411.08    18.165744    23.051713    22.086626    9248.8078     2568.154    1342.2879    3322.7983    364.64967    -625.0292   -129.70338   -3712.0977 
10934000    206.54968   -4392.7843   -4038.7652   -4392.7843            0    1328.7525    17.935009    23.509816    22.006543    9279.0313    1572.0067    387.67966    2026.5712   -377.06645   -870.10574    346.68446   -3858.9516 
10935000    205.71615   -4360.2332   -4007.6428   -4360.2332            0    1342.7692     18.15244    23.383254    22.024806    9348.7176    532.71182    1565.4928    1930.1031   -55.107952    693.57768   -1228.0603   -3824.5677 
10936000    202.55705   -4352.6521   -4005.4763   -4352.6521            0    1925.3941    17.995679    23.374945     22.06279    9280.6685     1751.488    1912.7901    2111.9041   -446.10655    820.55353   -660.37665   -3744.8761 
10937000    192.65418   -4362.5674   -4032.3648   -4362.5674            0    996.60261    17.875145    23.599215    22.146011    9342.0599    1787.1372   -24.670319     1227.341    591.11303    521.59582     440.1435   -3896.5833 
10938000    208.33639   -4355.9691   -3998.8877   -4355.9691            0    1944.1374    18.081566    23.401036    22.060426    9334.3703    560.13945    1554.1705    3718.1023   -761.94639    36.702454   -660.64469    -3734.228 
10939000    195.73851   -4384.6612   -4049.1721   -4384.6612            0    2090.4865    18.161272    23.245226    21.882182    9237.8447    1644.6834    1829.9101     2796.866     556.0529    450.51796    96.395597   -3767.5324 
10940000     203.7011     -4340.17   -3991.0332     -4340.17            0    2015.2894    17.979112    23.376638    22.024777    9256.8199    588.51431    2185.1235    3272.2304   -1183.7376    895.12927    57.901262   -3718.9667 
10941000    198.40806   -4359.6006   -4019.5359   -4359.6006            0    1358.2063    18.162824    23.310263     22.07571    9346.4188    2457.4821    1515.1378    101.99916   -322.73696   -102.37746   -44.473138   -3834.4016 
10942000    207.45993   -4368.2461   -4012.6668   -4368.2461            0    2053.9744    17.948338    23.453822    22.087878    9298.0498    3297.4806    1122.9626      1741.48    177.79136    -801.5739     472.4226   -3734.1427 
10943000    204.44288   -4369.3197   -4018.9116   -4369.3197            0    1451.6354    18.157972    23.578045    21.672874    9278.7958    304.33441    1868.3032    2182.2687   -236.27915    346.99771   -63.916227   -3822.4738 
10944000    196.47479   -4338.2521    -4001.501   -4338.2521            0    1663.9381    18.039452    23.285018    22.172212    9313.4147    172.52548    2225.8769    2593.4117    1362.6764   -396.40205    -1149.944    -3775.494 
10945000    190.13373   -4354.3094   -4028.4267   -4354.3094            0    1012.2638    18.019657    23.700801    21.783402    9303.2622    1088.2957   -137.44967    2085.9454   -332.86815   -77.653621   -217.94698   -3891.0842 
10946000    194.80977   -4357.7524   -4023.8551   -4357.7524            0    1014.1233    18.096968    23.311056    22.105944    9325.6009    1157.9655    2195.0279   -310.62347    546.73744   -688.67935    576.23519     -3885.93 
10947000    200.96326   -4364.8797   -4020.4355   -4364.8797            0    1828.2814    17.988865    23.360174    22.044371    9263.5522     994.3125    1633.9811    2856.5505   -770.95978   -35.192843   -831.26673   -3773.4358 
10948000    191.09354   -4345.0842   -4017.5564   -4345.0842            0     2123.744     17.97223    23.675289    21.868453    9304.9773    2953.7552    47.320274    3370.1564    -1119.456    944.69282   -50.495193   -3729.3568 
10949000    204.34557   -4352.1283    -4001.887   -4352.1283            0    865.66799    18.138018    23.255249    22.154402    9344.8183    1378.8277    236.65167    981.52462   -151.30325   -258.59676   -180.93253   -3883.9098 
10950000    193.79967   -4361.2961     -4029.13   -4361.2961            0    615.42125    18.017874    23.688797    21.887224    9341.9433    1614.7994   -665.42509    896.88948   -357.21567   -37.827411    246.22596   -3945.2834 
10951000    205.46449   -4369.4726   -4017.3135   -4369.4726            0    2800.4627    17.871377     23.29987    22.162923    9228.6582    3790.1508    3489.3066    1121.9305    147.75585    545.06762    1061.9969   -3640.3978 
10952000    199.34828    -4357.578   -4015.9019    -4357.578            0    1447.3744    18.248903    23.308991    21.887699    9310.2284    563.26603    2560.7738    1218.0834   -176.21476    206.80423   -790.79389   -3819.3772 
10953000    202.41757   -4386.9611   -4040.0243   -4386.9611            0    3081.5239    17.912904    23.413453     22.06874    9255.6949    3341.7644    2819.4816    3083.3258    919.24729   -177.67638    -305.1991   -3624.0653 
10954000    189.34746   -4359.7949   -4035.2598   -4359.7949            0    1837.4529    18.159826     23.18242    22.023949    9271.8337    1625.0357    3098.7186    788.60457    165.05569   -1324.8629    739.79555   -3786.7991 
10955000    190.32814    -4372.026   -4045.8101    -4372.026            0    1181.9587    18.008653    23.447787    22.024697     9300.216   -633.17803    1460.3783     2718.676    111.82651   -193.96874    84.552063   -3885.4962 
10956000    191.95631     -4368.89   -4039.8834     -4368.89            0    725.33192     18.01488    23.476627    22.094212    9344.2747    1235.2991    1502.9507   -562.25401   -547.00302   -992.38824    431.11557   -3941.0376 
10957000    194.38611   -4364.4616   -4031.2904   -4364.4616            0    3126.7758    18.126975    23.270306    21.898129    9237.0742    1570.8658    3504.6752    4304.7863   -144.87502   -52.142767    16.720927   -3610.0723 
10958000    207.48417   -4371.7872   -4016.1664   -4371.7872            0    1314.7053    17.909521    23.550323    22.071335    9309.1375    1289.3662    666.09346    1988.6562    311.39763    112.15032   -483.89833   -3837.6765 
10959000    201.55819   -4372.6515   -4027.1877   -4372.6515            0    1145.7227    18.225223     23.28657    22.005995    9339.4086   -142.58664    1258.4431    2321.3116   -46.355422    172.81709    274.19063   -3871.1337 
10960000    206.30564   -4356.9829   -4003.3821   -4356.9829            0    1542.5024    18.060964    23.422504    21.993145    9303.8261    2295.9517    2415.8833   -84.327924   -405.07449    800.95675   -66.971747   -3794.0849 
10961000    201.49542    -4372.979   -4027.6227    -4372.979            0    2869.5581    17.810737     23.43095    22.064904    9208.1804    2541.3282    2844.2296    3223.1166   -326.86728    25.465711   -597.93312   -3642.2644 
10962000    199.06144   -4362.1749   -4020.9904   -4362.1749            0    890.81893    18.139628    23.347633    22.024966    9327.9556   -100.04744    2142.5287    629.97556   -59.419843   -354.80838   -595.43731   -3899.8046 
10963000    205.83918     -4364.23   -4011.4287     -4364.23            0    1691.7331     18.04055     23.49959    21.954939    9307.6979    1302.2141    1134.4558    2638.5295   -625.70346    671.65122    770.96881   -3781.7874 
10964000    198.80519   -4369.3302   -4028.5849   -4369.3302            0    940.31282    17.997171    23.463617    22.067232    9318.5227    1677.2787    1160.1127    -16.45286    500.62875    534.92706   -52.365494   -3900.7953 
10965000    196.50359   -4400.3569   -4063.5565   -4400.3569            0    1886.3165    18.201191    23.144486    22.020292    9276.2068      1798.03    2591.7421    1269.1773   -326.95527     155.6741    172.28965   -3808.3681 
10966000    192.06463   -4362.1848   -4032.9926   -4362.1848            0    1148.6415    17.874447    23.621326    22.076542    9321.1164    1423.1353    981.18839    1041.6008    132.40154    576.71133    129.91911   -3876.8475 
10967000    186.49371   -4366.8551   -4047.2112   -4366.8551            0    1771.5679    18.088048    23.330914    21.991108    9280.4824    570.23732    2725.5937    2018.8728     203.1038   -69.897232   -212.26618    -3807.436 
10968000    198.39698   -4361.2949   -4021.2493   -4361.2949            0    3129.1292    18.091527    23.276959    22.013081    9270.0547     2669.536    3894.4313    2823.4202   -387.15128    90.459741    1012.4453    -3598.209 
10969000    192.70783   -4340.3975   -4010.1029   -4340.3975            0    2760.4647     17.88764    23.604024    21.960999    9272.3791    3026.4509     2831.407    2423.5362    73.630779    301.77219    316.66747   -3636.8104 
10970000    202.49068   -4392.1499   -4045.0878   -4392.1499            0    2922.0982    18.035928    23.190342    22.032438     9215.273    2805.3508    4073.8461    1887.0977   -0.3763972   -1310.9326   -159.78062   -3652.3715 
10971000    205.37124   -4376.8774   -4024.8781   -4376.8774            0    2588.0559    17.930599    23.386853    22.064214    9252.4138    3461.9276    2497.2831     1804.957    65.916682    1008.7985    107.41253   -3675.6537 
10972000    207.50503   -4391.7123   -4036.0558   -4391.7123            0    2275.5823    17.999924    23.518731    21.795664    9226.8758    1639.9432    2442.8832    2743.9204     103.9149   -688.56373    11.012928   -3729.8431 
10973000    193.28954   -4366.2317     -4034.94   -4366.2317            0    1820.8404    18.052401     23.26145    22.048826    9258.8537    1620.9169    2183.8468    1657.7576    310.95291   -1594.4618   -386.58101   -3789.0703 
10974000    199.95658   -4366.2925   -4023.5738   -4366.2925            0    2581.1829     17.89207    23.553014    21.977328    9261.5134    3652.7302    1859.8065    2231.0121   -874.53232   -406.94156   -573.14734   -3674.9342 
10975000    197.98604   -4379.2589   -4039.9176   -4379.2589            0    1735.4405    18.274357    23.159259    22.006393    9313.5584    1573.9541    3107.3415      525.026    462.73649    480.13317    114.84364   -3804.1949 
10976000    197.58043   -4353.6325   -4014.9864   -4353.6325            0    2203.4789    17.975736     23.34865    22.052751    9255.7417    2630.1394    1884.4957    2095.8017    462.18733   -30.909308    696.37084   -3717.5487 
10977000    213.41396   -4341.7353    -3975.951   -4341.7353            0    2585.3924    17.867449    23.542491    21.947691    9232.1705    3168.7103    693.11647    3894.3504   -44.067222   -1066.2096   -591.17854   -3627.8493 
10978000    206.16772   -4359.0843   -4005.7199   -4359.0843            0    1358.4892    18.108572    23.399296    22.013161    9327.5891    1877.6545    1711.4635    486.34952   -310.53791   -31.935298    86.696513   -3820.9201 
10979000    197.24094   -4349.7121   -4011.6479   -4349.7121            0    2132.0076    17.810183    23.401021     22.27293    9282.8332    2462.1574    1787.0374    2146.8282    35.582585    -516.8459    976.68787   -3723.0154 
10980000    206.73508   -4349.8006   -3995.4637   -4349.8006            0     1279.844     18.21275    23.556237     21.77653    9342.6508    201.90239    986.56295    2651.0666   -398.93301   -706.66109   -844.30239   -3821.0811 
10981000    197.69108   -4349.3405   -4010.5048   -4349.3405            0     1402.187    17.985296     23.35623    22.127924    9295.2487    1266.6313    1374.1908     1565.739   -479.68237    228.99409   -19.285116    -3820.422 
10982000    200.17522   -4360.8198   -4017.7263   -4360.8198            0     3508.134    18.034334    23.507227    21.732684    9213.2932    1990.3116    3791.8203    4742.2701    1638.5632    130.72011    -732.7832   -3546.3509 
10983000    197.50352   -4367.9615   -4029.4472   -4367.9615            0    2134.5178       18.113    23.056643    22.236284    9286.4275    2169.9691    3162.4731    1071.1112   -561.29991   -996.75937   -303.91489    -3740.363 
10984000    197.04151   -4346.2604    -4008.538   -4346.2604            0    1303.2309    17.937797    23.633933    22.010573    9331.1774    2268.9122      1109.27    531.51036    451.49359   -668.82965    153.43074    -3831.187 
10985000    188.85172   -4364.1229   -4040.4375   -4364.1229            0    1820.8019    18.022902    23.119866     22.25297    9272.5249     838.5086    2614.1963    2009.7006     338.8534   -1114.3747    1518.7683     -3794.21 
10986000    199.07957   -4371.1308   -4029.9152   -4371.1308            0    2640.8751    18.121251    23.337138     21.85357    9241.8341    1756.1195    3169.8743    2996.6314    597.65042   -108.51319     350.8817   -3673.9711 
10987000    199.54832    -4367.871   -4025.8521    -4367.871            0    2306.8805    17.867321     23.38607     22.13454    9248.8383    3115.6133     1307.521    2497.5072   -876.54469   -93.827818    866.47489   -3714.6889 
10988000     208.3997    -4364.041   -4006.8511    -4364.041            0    2069.0473    18.081058    23.272049    21.927185    9226.5922    1960.9014    1935.2074     2311.033    1099.6545   -558.67775   -639.82473   -3728.4393 
10989000    196.21039   -4356.4302   -4020.1323   -4356.4302            0    980.99713    17.953735    23.570135    22.032564    9323.5632    1626.0058    1131.4108     185.5748    598.18044   -630.33328   -345.30932   -3886.7416 
10990000    197.83723   -4360.6516   -4021.5654   -4360.6516            0    2058.8346    18.085839     23.36733    21.974365    9286.7566    1334.6489     2578.076    2263.7788     37.28536   -259.44813    534.18899   -3742.7213 
10991000    201.62335   -4388.7181   -4043.1426   -4388.7181            0    954.44517    18.173119    23.338441    21.986181    9325.0488    713.82324    1614.6373    534.87499    132.58349    297.84649    377.87505   -3913.3416 
10992000    209.80982    -4381.252   -4021.6452    -4381.252            0     916.6926    17.726601    23.767636    22.157498     9335.384    2198.3683    418.95511    132.75438    503.89071   -194.43662    162.48853   -3896.8403 
10993000    207.04017   -4360.0232   -4005.1634   -4360.0232            0    1027.2677    18.144094    23.313434    22.061933     9332.223    55.260484    3194.4599   -167.91726   -828.87138   -369.47917   -128.98334   -3865.3514 
10994000    196.19371   -4342.7966   -4006.5273   -4342.7966            0    2504.3537    17.944234    23.400901    22.057519    9262.2005    3664.0593    1558.4967    2290.5051   -372.84505   -61.812907   -849.75415   -3668.2399 
10995000    209.07074   -4356.0886   -3997.7485   -4356.0886            0    1800.5705    18.044078    23.487226    21.959988    9306.7603     2867.832    1749.6363    784.24327   -804.79004    520.15304   -16.559478   -3753.3578 
10996000    204.00658   -4375.0384   -4025.3782   -4375.0384            0    1892.6571    18.145351    23.195709    22.028044    9271.4783     1257.686     2317.896    2102.3891   -53.198222   -56.259951    355.46745   -3769.4625 
10997000    189.21341   -4352.0785   -4027.7732   -4352.0785            0    1213.0647    17.885327    23.671228    22.023485    9324.0312    794.12643    836.97306    2008.0948     1512.348    397.03575    -373.3017   -3862.8189 
10998000     208.1669   -4356.3891   -3999.5981   -4356.3891            0    910.83686    18.055123    23.388252    22.030719    9303.0829    727.44611    705.08794    1299.9765     138.6198     258.5074      131.419   -3876.0195 
10999000    198.84713   -4380.1369   -4039.3197   -4380.1369            0    1199.5984    18.065837    23.303465     22.04541    9281.0425    2176.4757    472.94874    949.37067     987.2125   -266.23912   -1136.8502   -3876.9487 
11000000    207.17235   -4347.1011   -3992.0148   -4347.1011            0     776.2727    17.993925    23.750908    21.892982    9356.4491    116.29663   -256.10005    2468.6215    52.046984   -512.55748    333.01365   -3886.0891 
Loop time of 364.601 on 64 procs for 250000 steps with 864 atoms

Performance: 118.486 ns/day, 0.203 hours/ns, 685.682 timesteps/s
194.2% CPU use with 32 MPI tasks x 2 OpenMP threads

MPI task timing breakdown:
Section |  min time  |  avg time  |  max time  |%varavg| %total
---------------------------------------------------------------
Pair    | 17.654     | 25.16      | 33.319     | 102.7 |  6.90
Bond    | 1.0834     | 1.2405     | 1.9068     |  15.7 |  0.34
Kspace  | 182.71     | 191.9      | 199.94     |  38.6 | 52.63
Neigh   | 1.0994     | 1.2122     | 1.3261     |   5.5 |  0.33
Comm    | 54.149     | 58.294     | 61.555     |  24.8 | 15.99
Output  | 0.61825    | 0.61872    | 0.62038    |   0.1 |  0.17
Modify  | 66.088     | 68.39      | 72.627     |  20.2 | 18.76
Other   |            | 17.79      |            |       |  4.88

Nlocal:        27.0000 ave          39 max          17 min
Histogram: 3 7 4 1 3 2 5 0 5 2
Nghost:        2105.19 ave        2203 max        1999 min
Histogram: 5 11 0 0 0 0 0 0 4 12
Neighs:        6500.81 ave        9417 max        3987 min
Histogram: 2 5 5 3 3 1 5 3 4 1

Total # of neighbors = 208026
Ave neighs/atom = 240.77083
Ave special neighs/atom = 2.0000000
Neighbor list builds = 4264
Dangerous builds = 0

unfix		3
unfix		2
unfix		1

write_data	data.final.${pid} nocoeff
write_data	data.final.0 nocoeff
System init for write_data ...
PPPM initialization ...
  extracting TIP4P info from pair style
  using 12-bit tables for long-range coulomb (../kspace.cpp:340)
  G vector (1/distance) = 0.371471
  grid = 24 27 25
  stencil order = 5
  estimated absolute RMS force accuracy = 0.0031843336
  estimated relative force accuracy = 9.5895261e-06
  using double precision FFTW3
  3d grid and FFT values/proc = 4410 672
Last active /omp style is kspace_style pppm/tip4p/omp

write_restart   restart.lmp.${pid}
write_restart   restart.lmp.0
System init for write_restart ...
PPPM initialization ...
  extracting TIP4P info from pair style
  using 12-bit tables for long-range coulomb (../kspace.cpp:340)
  G vector (1/distance) = 0.371471
  grid = 24 27 25
  stencil order = 5
  estimated absolute RMS force accuracy = 0.0031843336
  estimated relative force accuracy = 9.5895261e-06
  using double precision FFTW3
  3d grid and FFT values/proc = 4410 672
Last active /omp style is kspace_style pppm/tip4p/omp
Total wall time: 0:06:04
