LAMMPS (30 Jul 2021)
  using 1 OpenMP thread(s) per MPI task
package omp 0
using multi-threaded neighbor list subroutines
echo both

include		in.partitions
variable        pid world 0
include		in.temp
variable        temperature equal 220.92
variable	tempDamp equal 100.0
include		in.pressure
variable        pressure equal 2250.0
variable        pressureDamp equal 1000.0 # This is 1 ps
include		in.seed
variable        seed world 745823

units		real
atom_style	full
read_restart    restart.lmp.${pid}
read_restart    restart.lmp.0
Reading restart file ...
  restart file = 30 Jul 2021, LAMMPS = 30 Jul 2021
  restoring atom style full from restart
  triclinic box = (-3.2613349 -0.22469128 -0.12111561) to (14.871334 22.804690 19.351114) with tilt (0.26445307 -6.7405939 0.15924783)
  4 by 4 by 4 MPI processor grid
  restoring pair style lj/cut/tip4p/long/omp from restart
  restoring bond style harmonic/omp from restart
  restoring angle style harmonic/omp from restart
  1008 atoms
  672 bonds
  336 angles
Finding 1-2 1-3 1-4 neighbors ...
  special bond factors lj:    0        0        0       
  special bond factors coul:  0        0        0       
     2 = max # of 1-2 neighbors
     1 = max # of 1-3 neighbors
     1 = max # of 1-4 neighbors
     2 = max # of special neighbors
  special bonds CPU = 0.592 seconds
  read_restart CPU = 0.920 seconds

include 	in.setup
variable	out_freq equal 1000
variable	out_freq2 equal 10000
variable	out_freq3 equal 1000

timestep	2.0

neigh_modify    delay 7 every 1

include		in.tip4p
# This is TIP4P/Ice

# create groups ###
group ox type 2
336 atoms in group ox
group hy type 1
672 atoms in group hy

# set charges - beside manually ###
set group ox charge -1.1794
Setting atom values ...
  336 settings made for charge
set group hy charge 0.5897
Setting atom values ...
  672 settings made for charge

# ### TIP3P Potential Parameters ###
pair_style lj/cut/tip4p/long/omp 2 1 1 1 0.1577 8.5
pair_coeff 1 1*2 0.000 0.000
pair_coeff 2 2 0.21084 3.1668
bond_style  harmonic
bond_coeff  1 450 0.9572
angle_style harmonic
angle_coeff 1 55 104.52
kspace_style pppm/tip4p/omp 1.0e-5
pair_modify tail yes

thermo          ${out_freq}
thermo          1000
thermo_style    custom step temp pe etotal epair emol press lx ly lz vol pxx pyy pzz pxy pxz pyz enthalpy

restart 	${out_freq3} restart.lmp.${pid} restart2.lmp.${pid}
restart 	1000 restart.lmp.${pid} restart2.lmp.${pid}
restart 	1000 restart.lmp.0 restart2.lmp.${pid}
restart 	1000 restart.lmp.0 restart2.lmp.0


include         in.dump
dump            myDump all atom ${out_freq2} dump.water.${pid}
dump            myDump all atom 10000 dump.water.${pid}
dump            myDump all atom 10000 dump.water.0
dump            myDump2 all dcd ${out_freq2} dump.dcd
dump            myDump2 all dcd 10000 dump.dcd
dump_modify     myDump append yes
dump_modify     myDump2 append yes


variable natoms 	equal  "count(all)"                        # NUMBER ATOMS
variable H      	equal  "enthalpy/v_natoms"                 # ENTHALPY-per-atom
variable Vol      	equal  "vol/v_natoms"                 # volume-per-atom
fix AVG all 		ave/time ${out_freq} 1 ${out_freq} v_Vol v_H file vol_enthalpy.dat
fix AVG all 		ave/time 1000 1 ${out_freq} v_Vol v_H file vol_enthalpy.dat
fix AVG all 		ave/time 1000 1 1000 v_Vol v_H file vol_enthalpy.dat



fix 		1 all shake 1e-6 200 0 b 1 a 1
       0 = # of size 2 clusters
       0 = # of size 3 clusters
       0 = # of size 4 clusters
     336 = # of frozen angles
  find clusters CPU = 0.798 seconds
fix             2 all nph tri ${pressure} ${pressure} ${pressureDamp}
fix             2 all nph tri 2250 ${pressure} ${pressureDamp}
fix             2 all nph tri 2250 2250 ${pressureDamp}
fix             2 all nph tri 2250 2250 1000
fix             3 all temp/csvr ${temperature} ${temperature} ${tempDamp} ${seed}
fix             3 all temp/csvr 220.92 ${temperature} ${tempDamp} ${seed}
fix             3 all temp/csvr 220.92 220.92 ${tempDamp} ${seed}
fix             3 all temp/csvr 220.92 220.92 100 ${seed}
fix             3 all temp/csvr 220.92 220.92 100 745823


run             250000
PPPM initialization ...
  extracting TIP4P info from pair style
  using 12-bit tables for long-range coulomb (../kspace.cpp:340)
  G vector (1/distance) = 0.38230849
  grid = 24 30 36
  stencil order = 5
  estimated absolute RMS force accuracy = 0.0020461091
  estimated relative force accuracy = 6.1617967e-06
  using double precision FFTW3
  3d grid and FFT values/proc = 4320 480
Last active /omp style is kspace_style pppm/tip4p/omp
Neighbor list info ...
  update every 1 steps, delay 7 steps, check yes
  max neighbors/atom: 2000, page size: 100000
  master list distance cutoff = 10.8154
  ghost atom cutoff = 10.8154
  binsize = 5.4077, bins = 5 5 4
  1 neighbor lists, perpetual/occasional/extra = 1 0 0
  (1) pair lj/cut/tip4p/long/omp, perpetual
      attributes: half, newton on, omp
      pair build: half/bin/newton/tri/omp
      stencil: half/bin/3d/tri
      bin: standard
Per MPI rank memory allocation (min/avg/max) = 9.351 | 9.359 | 9.366 Mbytes
Step Temp PotEng TotEng E_pair E_mol Press Lx Ly Lz Volume Pxx Pyy Pzz Pxy Pxz Pyz Enthalpy 
 7250000    232.36825   -4891.9829   -4427.2177   -4891.9829            0    2742.1039    18.132669    23.029382    19.472229    8131.2942    1588.5942    3205.6363    3432.0813   -1845.8084    784.81057    -254.6225    -4102.041 
 7251000     220.7981   -4908.6897   -4467.0663   -4908.6897            0    416.94002    18.230643    22.950585    19.536134     8173.995    1069.5564    392.45986   -211.19623    954.51532   -452.45632    1851.9467   -4417.3631 
 7252000    227.52079   -4909.5351   -4454.4654   -4909.5351            0    1968.8639    18.251212    22.761496    19.644549    8160.8345    3639.3986    1416.6935    850.49961   -374.89745   -1412.2254   -1554.0254   -4220.1363 
 7253000    221.73524   -4902.9116   -4459.4138   -4902.9116            0    4310.9522     18.12908    22.920932    19.478504    8094.0082    4311.0389    3244.7965     5377.021   -520.82357   -467.87492   -639.38241   -3950.5369 
 7254000     206.0134   -4904.1412   -4492.0889   -4904.1412            0    2022.1786    18.184338    23.144587    19.419293    8172.9784    1233.5881    1853.6231    2979.3247   -233.84709    1158.7168   -1122.9944   -4251.0563 
 7255000    218.07098   -4897.9362   -4461.7673   -4897.9362            0   -301.76802    17.860214    23.521898    19.574372    8223.3137    1630.5103    -1177.159   -1358.6554     -524.685    110.13283   -1202.3993   -4497.9579 
 7256000    226.62264   -4904.8692   -4451.5959   -4904.8692            0     3409.094      18.0512      23.1278    19.371603    8087.3449    3728.2368    2372.4047    4126.6405    72.150769    737.44852   -1396.7205   -4049.5082 
 7257000    222.23632   -4909.7855   -4465.2854   -4909.7855            0    1585.1452    18.296722    23.102062    19.311936    8163.0007    793.71222    428.86842     3532.855   -1251.6086    277.01476    176.43428   -4276.5754 
 7258000    223.71163   -4905.4944   -4458.0435   -4905.4944            0    2500.2116    18.156561    22.878755    19.644055     8160.131    2520.2582    2681.8881    2298.4885    710.21675    1790.7114    931.32577   -4160.5005 
 7259000    230.98337   -4897.5685   -4435.5732   -4897.5685            0    3891.6024    18.252372      22.7802    19.434204    8080.5998     3457.349    4302.1978    3915.2602   -1642.8066   -356.91925   -349.21555   -3976.9586 
 7260000    222.28371   -4889.6259   -4445.0311   -4889.6259            0    2102.5971    18.260447    22.901124    19.557215    8178.5291     1482.877    2520.3881    2304.5261    410.32403   -111.05533    1167.5017   -4194.2428 
 7261000     225.3057   -4918.6113   -4467.9721   -4918.6113            0    4167.8808    18.161366    22.874014    19.415331    8065.5818     2101.623    4589.9737    5812.0456   -868.98548    123.79242   -1966.5441   -3977.7116 
 7262000    229.73994   -4880.8105   -4421.3022   -4880.8105            0    3031.8831    18.069647    23.110048    19.464605    8128.2323    2548.6886    2391.8747    4155.0861    1132.8438    221.55912    313.14157    -4061.897 
 7263000    233.36712   -4890.9478   -4424.1848   -4890.9478            0    2424.3105    18.017204    23.201081    19.428754    8121.5811    3270.8964    1142.7573    2859.2779     259.7515   -1155.4784   -501.20607   -4137.0375 
 7264000    216.54492   -4894.3111   -4461.1945   -4894.3111            0    1176.5886    18.334917    22.869466    19.442513    8152.4354    46.295769    1913.7326    1569.7374   -462.59658  -0.49324379    1969.2668   -4321.3041 
 7265000    214.42204   -4891.1206     -4462.25   -4891.1206            0    1901.2052     18.21818    22.870993     19.54929    8145.5612    811.18751    3472.5349    1419.8931   -6.3742195   -250.73821   -411.72932    -4236.397 
 7266000    237.90933   -4933.1959   -4457.3479   -4933.1959            0    2692.2921     18.31375     22.75636    19.466024    8112.5488    2166.9542    3070.4071    2839.5151    425.28736   -265.90133    886.99586   -4138.8142 
 7267000    221.33214   -4897.0719   -4454.3802   -4897.0719            0    4394.4543    18.200025    23.008922    19.307315    8085.1879    4211.9703    3631.2213    5340.1714    332.67109    45.895697    -1578.604   -3936.2118 
 7268000    211.34768   -4899.1203   -4476.3988   -4899.1203            0    3385.7103    18.038574    22.960703    19.559184    8100.9903    4197.4698    3574.1105    2385.5507     159.9412    1295.3187   -857.26257   -4076.3953 
 7269000    213.84803   -4885.4279   -4457.7054   -4885.4279            0    2854.4461    18.290788    22.825159    19.431976    8112.6588    4355.4893    2068.3689    2139.4801    1435.3837   -440.22017   -540.58445   -4119.9822 
 7270000    224.36258   -4912.8688   -4464.1159   -4912.8688            0    3136.5176    18.159707    22.759596    19.594422    8098.5232    2240.6507    4126.7378    3042.1643   -2210.3261   -214.04727   -254.74006    -4093.666 
 7271000    212.71325   -4908.7199   -4483.2672   -4908.7199            0    2373.1866    18.234469    22.848014    19.511487    8128.9034    2938.5089    2670.0232    1511.0277    714.88266   -937.88836    1956.8556   -4201.9218 
 7272000    217.43581   -4893.6616   -4458.7632   -4893.6616            0    3235.2409    18.095183     22.95052    19.463827    8083.2079    3268.6114    3445.7751     2991.336   -563.99001    526.11381    968.96394   -4077.3758 
 7273000    216.75659   -4922.1774   -4488.6375   -4922.1774            0    2024.5824    18.111827    23.163458    19.351968    8118.7803    787.88523    2576.2479     2709.614    1399.3393    1391.3605    3231.6922   -4248.9187 
 7274000    237.12096   -4897.2935   -4423.0223   -4897.2935            0    897.28931    18.212595    23.166666    19.386271    8179.5546    340.49041    1604.7885    746.58902    264.00724    267.33097    999.76218   -4315.9843 
 7275000    225.50282   -4883.2855    -4432.252   -4883.2855            0    655.71313    18.101789    23.081735     19.58118    8181.4222    2692.8714   -132.79999   -592.93198    740.74577   -104.81697   -1025.3519   -4354.0139 
 7276000    237.51336   -4910.8659   -4435.8098   -4910.8659            0    1939.2218    18.225263    22.955408    19.514329    8164.1777    2227.8225    1378.2962    2211.5465    1418.3812   -375.40525   -1464.7526   -4204.9141 
 7277000    231.29113   -4901.2942   -4438.6833   -4901.2942            0    2994.2586    18.240147    22.899529    19.497191    8143.7968    2532.6714    3882.5641    2567.5404    1342.6647   -581.85748   -871.18561   -4083.0585 
 7278000    220.88261   -4916.5633   -4474.7708   -4916.5633            0    2890.6538    18.078754    22.901314    19.566791    8101.1843      2475.29    2962.2416    3234.4298   -19.376975   -48.744377    136.70836   -4133.2474 
 7279000    217.49094   -4895.2154   -4460.2067   -4895.2154            0     1890.789    18.231633    23.043412    19.448816    8170.8176    1608.5168    1709.3442    2354.5061    320.74118   -172.10938   -732.16887   -4234.8946 
 7280000    223.85096   -4884.3377   -4436.6081   -4884.3377            0    1803.6822    18.151974    23.058689    19.437114    8135.6127    3498.0218    726.75923    1186.2656   -1547.2218   -60.601362    1465.0412    -4222.602 
 7281000    222.99942   -4888.7528   -4442.7265   -4888.7528            0    1172.8791    18.217275    22.955197    19.571093     8184.262    2253.8468    1148.4843    116.30608   -1321.6463    321.83562   -900.39972   -4302.7327 
 7282000    222.62632   -4892.3562   -4447.0761   -4892.3562            0    3594.7988    18.197134    22.912949    19.484293     8123.976    3346.1163    3920.8791     3517.401   -382.43233   -120.28586    443.98057   -4021.1648 
 7283000    225.97073   -4902.3904    -4450.421   -4902.3904            0    2144.3584    18.117564    23.137768    19.407546    8135.6428    1296.9296     2572.209    2563.9365    1165.7945    1264.6212    625.50902   -4195.9929 
 7284000    218.07315    -4919.837   -4483.6638    -4919.837            0    3502.0529    17.970245    23.286107    19.313063    8081.6874    3953.8444    2724.7106    3827.6038    1064.8828   -1.3462014   -2048.5904   -4070.9009 
 7285000    216.37472   -4915.5487   -4482.7725   -4915.5487            0    4888.1218    17.997033    23.052398     19.38884    8043.9406    6250.7778    3965.8097    4447.7779    170.41941   -853.15947    45.160401   -3909.3341 
 7286000    212.28164   -4913.4488   -4488.8593   -4913.4488            0    4009.5446    18.185916    22.858598     19.45967    8089.4731    3228.1351    4331.3793    4469.1193    1971.4532   -439.79687   -420.33347   -4015.8266 
 7287000    225.42711   -4909.7397   -4458.8576   -4909.7397            0    1519.3209     18.22146     22.80417    19.546181    8121.9322    1502.5551    1890.5327    1164.8748   -889.64574    378.79476   -1421.7479    -4278.894 
 7288000    216.71733    -4894.142   -4460.6805    -4894.142            0    2829.1075    18.049296    23.008593    19.603531    8141.1287    2821.8885    2214.5278    3450.9063    590.64294    67.078804    1440.4448   -4124.7806 
 7289000    211.46793   -4891.8585   -4468.8965   -4891.8585            0    1726.4061      18.3439    23.034173    19.295962    8153.2498   -405.06439    2149.6093    3434.6734   -1673.5785   -182.41748   -223.53538   -4263.6151 
 7290000    222.54049   -4899.9275    -4454.819   -4899.9275            0    2713.9268    18.157019    22.880346    19.562251    8126.9195     3218.297    3157.7548    1765.7286    360.59992   -577.88823    170.40109   -4133.1568 
 7291000    214.57913   -4883.5767   -4454.3919   -4883.5767            0    3587.0702    18.116664    22.877324    19.569608    8110.8351    4161.3825     3347.442    3252.3862   -370.68297   -1042.9149    102.93957   -4030.0838 
 7292000     227.5578   -4912.5809   -4457.4372   -4912.5809            0    4424.9616     18.10663    22.902493     19.42559     8055.539    4235.3783    3944.3815     5095.125    93.079673   -804.39395   -1510.2621   -3937.5848 
 7293000    222.39994   -4887.0356   -4442.2083   -4887.0356            0    962.11076    18.150105    23.032742    19.571966    8181.9957    1200.1661    1364.0256    322.14056   -345.75562   -725.50336     79.91511   -4327.4034 
 7294000    220.36693    -4928.147   -4487.3859    -4928.147            0     2036.145    18.090605     23.00359     19.57062    8144.2913    2414.7945    1607.2859    2086.3547   -2004.4995   -1110.0515   -743.48206   -4245.5405 
 7295000     211.7583   -4914.2585   -4490.7158   -4914.2585            0    2494.1372    18.221653    22.869145     19.44993    8105.0509    3530.6631     1940.119    2011.6294   -289.38627   -363.03119    341.59496   -4195.8991 
 7296000     225.4848   -4928.7895   -4477.7921   -4928.7895            0    2357.0326    18.134125    22.925722    19.556002    8130.1713    2184.4497    2887.1585    1999.4897    -790.0636    1232.0444   -461.30421   -4198.3182 
 7297000    219.25665    -4899.846   -4461.3056    -4899.846            0    1558.3161    18.301808    22.983171    19.500126    8202.4078    2527.8691    1335.5244    811.55483   -64.896264    1028.4447      682.555   -4274.8941 
 7298000     217.2148    -4916.826   -4482.3696    -4916.826            0    2229.5301    18.208118     22.92117    19.342008    8072.4137     736.6107    2194.2248    3757.7547   -223.99995    172.99559   -1563.6088   -4219.8918 
 7299000     230.1569   -4901.1021   -4440.7599   -4901.1021            0    2561.6665    18.283527    22.735196     19.56315    8132.0018    1525.2364    3764.5961     2395.167    274.84002     975.0291   -947.60652   -4136.9542 
 7300000    222.01762   -4925.7685   -4481.7059   -4925.7685            0    1762.8539    18.234516    22.725077    19.652249    8143.5143    1007.7467    1814.3234    2466.4914    1130.9977    -1610.961    1167.2275   -4272.3409 
 7301000    227.31304   -4856.0601   -4401.4059   -4856.0601            0    2057.4724    18.214708    22.894715    19.585985    8167.7583    1274.3987    3748.2617    1149.7567   -224.94067    379.22226   -525.88916   -4156.3232 
 7302000    221.41047    -4922.934   -4480.0857    -4922.934            0    3586.1923    17.997444    23.201078     19.30422    8060.6723    3612.6306    2362.1525    4783.7938     554.8817    61.765158    2027.3304    -4058.505 
 7303000    214.05516   -4918.7786   -4490.6418   -4918.7786            0    1477.9316    17.897082    23.352867    19.511131    8154.6417    2173.4176    935.98708    1324.3903    33.074427    1247.8989    -98.27042   -4314.8757 
 7304000    230.91256   -4900.1762   -4438.3226   -4900.1762            0    3184.5604    18.269493    23.100568    19.259301     8128.112    2468.8463     3045.327    4039.5079    103.71169    72.619816    4.9675586   -4060.8242 
 7305000     228.2775    -4902.891   -4446.3078    -4902.891            0    1645.4115    18.157899      22.9294    19.612268    8165.5625    2410.0112    1468.2555    1057.9678    434.53549   -629.03495    853.94362   -4250.3618 
 7306000    227.60283   -4874.6917   -4419.4579   -4874.6917            0    2067.2615    18.246012    22.960143    19.503406    8170.5821    403.15162    3442.2801    2356.3527   -723.55357   -108.72134    464.29424   -4173.1239 
 7307000    218.64129   -4931.4112   -4494.1016   -4931.4112            0    2316.8472    18.315329    22.812073    19.437706      8121.28    1328.8245    3398.8207    2222.8966    920.02942    132.71026    1171.6665   -4219.6929 
 7308000    224.75215   -4904.1122   -4454.5801   -4904.1122            0    3072.4816    18.135443    22.740697    19.593204    8080.4847     2064.573    4805.1363    2347.7355    686.54096    568.18542    1082.5679   -4092.5017 
 7309000    221.37486   -4906.3148   -4463.5378   -4906.3148            0    733.67163    18.195102    22.879452    19.656033    8182.6878    1926.9622   -196.94455    470.99725    506.26533   -917.15605    183.88917   -4375.9842 
 7310000    224.08797   -4913.6248   -4465.4212   -4913.6248            0    1157.4323    18.257802    22.922792     19.47164     8149.267    116.28052    1978.8351    1377.1814   -1043.1015    286.96165    83.714513   -4327.8618 
 7311000    227.70043    -4904.357    -4448.928    -4904.357            0     2157.631     18.19907    23.175059    19.332083    8153.5868    820.24794    2222.5827    3430.0624    965.02036    900.78891    1241.5024   -4192.3604 
 7312000    238.14811   -4897.0491   -4420.7235   -4897.0491            0    1479.2674    18.163472    23.053198    19.560119    8190.3324    587.38557    2123.8845    1726.5321    -871.8028    1541.3759   -858.14535   -4244.0286 
 7313000    235.29562   -4901.4934   -4430.8731   -4901.4934            0    3009.5919    18.206101    23.124997    19.250651     8104.833    1209.1438    3177.9805    4641.6515    326.54152     474.3685    274.96574   -4075.1373 
 7314000    218.52099   -4903.8333   -4466.7644   -4903.8333            0    2188.5281    18.029879    23.106911    19.514396    8129.9864    2629.0133    1361.3492    2575.2217   -377.50776   -662.41638    335.08232    -4207.276 
 7315000    221.32999   -4926.5822   -4483.8948   -4926.5822            0     1997.296    18.179988    22.906184    19.535671    8135.3205    1841.4269    2924.1242     1226.337    160.22208   -79.839992   -1154.6229   -4246.9251 
 7316000    231.58035   -4892.0138   -4428.8245   -4892.0138            0     3136.671    18.338548    22.720904    19.502748    8126.1788    1925.0016    4651.4276    2833.5838    1914.7707    1126.8909    816.42612   -4057.0914 
 7317000    218.80874   -4905.5273   -4467.8828   -4905.5273            0     867.1919    18.264762    22.964837     19.54888    8199.7245     1312.987    809.01523    479.57346   -1115.2752    412.14413   -1705.9765     -4364.18 
 7318000    223.41102   -4904.8984   -4458.0487   -4904.8984            0    2692.4545    18.182703    23.029623    19.353851     8104.247    2785.7254    2098.1465    3193.4916    662.91288    258.53676     652.9994   -4139.8218 
 7319000    218.86624   -4939.5111   -4501.7516   -4939.5111            0    1306.6851    18.167862    23.139572    19.358181    8138.1124    1186.3977    706.48616    2027.1713   -304.59504   -137.73498    136.99642   -4346.6663 
 7320000    234.40364   -4917.8054   -4448.9692   -4917.8054            0    647.64352    18.080455    23.164168    19.514045    8172.8469    816.39541    615.61613    510.91902    79.589541   -574.29601      1189.89   -4371.7749 
 7321000    227.60052   -4910.0831   -4454.8539   -4910.0831            0     1178.224    18.230624    23.140818    19.335856    8157.2478   -50.719387    1525.3958    2059.9955   -65.655466   -628.14317   -588.30682   -4314.6864 
 7322000    228.99711   -4871.5139   -4413.4914   -4871.5139            0    1410.1043    18.057029    23.201671    19.491677    8166.1013     508.4176    1155.8221    2566.0732   -191.33386   -1227.4928   -608.14657   -4245.5561 
 7323000    212.67112   -4919.0421   -4493.6736   -4919.0421            0    103.29827    18.137507    23.067321    19.536326    8173.6801   -1516.3056    475.70104    1350.4994    901.86535   -367.67664    445.38187   -4481.3599 
 7324000    208.81279    -4915.132   -4497.4806    -4915.132            0    1583.4811    18.344363    22.809678    19.498713     8158.827   -422.35402     1854.733    3318.0644   -500.41122    642.85427   -828.41613   -4309.0652 
 7325000    219.12607    -4908.103   -4469.8238    -4908.103            0    3384.8264    18.218698    22.753462    19.520143    8091.8498    2910.3835    4403.1578     2840.938   -121.23428    861.57562   -614.50098    -4070.376 
 7326000    219.07533   -4891.1723   -4452.9946   -4891.1723            0    2923.8068    18.254055    22.931881    19.472091    8151.0138    3293.6373    2225.5089    3252.2741   -993.30882   -84.452018   -422.77931   -4105.4295 
 7327000     210.1511    -4922.421   -4502.0928    -4922.421            0    2268.2839     18.30011    22.770162    19.540619    8142.5069     1685.862    2951.4349    2167.5547    248.59474   -493.69057   -486.30075   -4232.7339 
 7328000    226.79675   -4880.3252   -4426.7037   -4880.3252            0    2900.7747    18.151223    22.927166    19.573838    8145.7723    4376.0706    2675.6912    1650.5623     1356.849    143.47568   -861.27365   -4082.0982 
 7329000    222.63555   -4916.5233   -4471.2247   -4916.5233            0    2543.0928    18.120831     23.12544    19.376445    8119.7417    2258.8989    1617.9538    3752.4257    1006.1471   -166.26143    92.758783   -4170.0765 
 7330000    218.07694   -4871.7675   -4435.5867   -4871.7675            0    1760.7439    18.114496    23.255778    19.372561     8161.015    2723.1566    694.83021    1864.2448   -385.56172   -344.49775   -557.08215   -4226.0229 
 7331000    224.24859   -4907.9833   -4459.4585   -4907.9833            0    739.15816    18.135731    23.071114    19.514482    8165.0842    1006.5618    860.55073    350.36193   -91.370218    359.98202    186.09578     -4371.44 
 7332000    223.79732   -4933.7827   -4486.1604   -4933.7827            0    1605.6277    18.244602    22.908243    19.446973    8127.8966   -157.10426    2420.6524    2553.3351   -1179.2666    448.66454    1162.7373   -4295.8341 
 7333000    221.75317   -4884.6292   -4441.0955   -4884.6292            0    1835.1439    18.219206    23.130764     19.39545     8173.711    2268.1362    1727.5897    1509.7058   -2188.4263    638.06924   -477.58671   -4222.3368 
 7334000    224.00366   -4876.9003   -4428.8653   -4876.9003            0    1576.8262    18.307053    23.006225    19.411079    8175.4845    1039.3115    882.62163    2808.5455    1521.6443   -1080.2209    2593.6389   -4240.8586 
 7335000    224.63134    -4926.775   -4477.4846    -4926.775            0    1432.0904    18.182475     22.80402    19.657316    8150.5822    2288.9617    1661.8395    345.47018    129.87319   -293.04626     131.5346    -4307.255 
 7336000    215.87821   -4911.7739   -4479.9908   -4911.7739            0    1704.1873    18.213884     22.87899    19.490317    8121.9125    1216.5714    2178.2246    1717.7657    1858.6616   -979.60411   -973.74607   -4278.1302 
 7337000    211.19538   -4896.5131   -4474.0963   -4896.5131            0    2134.4485    18.214674    23.153752     19.33392    8153.8497    1818.6274    1204.2908    3380.4271   -29.246795   -899.29291    1484.2261   -4220.2772 
 7338000     226.5169   -4918.3246   -4465.2629   -4918.3246            0    1685.6067    18.075028    23.078328    19.585837     8170.064    2669.0098    1221.4253    1166.3852    205.37344   -840.94819   -43.893298   -4264.4194 
 7339000    214.64122   -4933.5877   -4504.2788   -4933.5877            0    4244.0524     18.09167    22.803068     19.56879     8073.018    4672.0028    2943.1275    5117.0271    270.05819    187.07707   -65.814254   -4004.5981 
 7340000    221.96265   -4916.8257    -4472.873   -4916.8257            0    2012.1727    18.426005    22.716255    19.430682    8133.0971   -259.57673    3078.4025    3217.6923    109.29178   -630.66029   -17.845593   -4234.2034 
 7341000    204.67146   -4884.5211   -4475.1529   -4884.5211            0    2531.6641     18.28247    22.813457    19.561579    8158.8677    1965.2355    2580.1533    3049.6034   -331.89943   -854.93793   -285.07002   -4173.9135 
 7342000    220.61873   -4909.1891   -4467.9244   -4909.1891            0    1963.7354    18.105534    22.841444    19.656802    8129.1991    1299.3747    3513.8998    1077.9317    1270.7126    179.13478    1174.9832   -4235.1117 
 7343000    221.98946   -4882.7289   -4438.7225   -4882.7289            0    3172.7421    18.085182    23.138077    19.333329    8090.1538    4292.7389    2018.0883     3207.399   -180.68934   -1077.4661   -481.61903   -4064.3815 
 7344000    223.26418    -4907.102   -4460.5461    -4907.102            0    3009.9731    18.126111    22.811528    19.599131    8103.9326     3145.935    2944.7937    2939.1905   -228.52142    629.34939   -746.31622   -4104.8048 
 7345000    212.47455   -4924.6638   -4499.6885   -4924.6638            0    2343.9612    18.150708      22.9196    19.566516    8139.8069    2369.9863    3293.6084    1368.2888    170.72941    993.06862   -1016.1347   -4221.4351 
 7346000    225.10981   -4897.4062   -4447.1588   -4897.4062            0    2904.7176    18.303463    22.904309    19.371596     8121.119    2120.9474    3485.9482    3107.2572    1229.4907    1982.0811     633.3115   -4103.1293 
 7347000    221.83176   -4909.1556   -4465.4647   -4909.1556            0    2136.0423    18.078655     23.06847    19.557636    8156.4518    4374.8251    1916.7845    116.51729   -2327.7584    54.538726   -1192.1336    -4211.375 
 7348000    211.44347   -4887.8013   -4464.8882   -4887.8013            0    2611.2325    18.058498    22.948617    19.583737    8115.8441    1338.2357    3173.6237    3321.8382    609.68302    119.70695    1791.4546   -4155.8195 
 7349000    227.26379   -4925.3054   -4470.7498   -4925.3054            0    1627.6875    18.159034     23.15892    19.285127    8110.2369    1760.7921      653.031    2469.2393   -506.11676   -482.45403   -1786.3205   -4278.2277 
 7350000    223.19797   -4907.1356   -4460.7121   -4907.1356            0    2581.3863    18.200569    23.122302    19.294997    8120.0884    973.06223     2976.333    3794.7637    1109.4736    1191.9652     -1071.67   -4155.0162 
 7351000    213.48468   -4928.8284   -4501.8327   -4928.8284            0    1089.0314    18.212388    22.928693    19.507717    8146.1546    608.89585    1919.7159    738.48255     1359.831    411.75557    528.19458   -4372.4521 
 7352000    216.84089   -4894.2598   -4460.5513   -4894.2598            0    516.95998    18.265497    22.919118    19.564061     8190.085    373.54405    912.73995    264.59593    848.01549   -270.20777    32.322722   -4398.8035 
 7353000    230.21747   -4905.1802   -4444.7169   -4905.1802            0     1843.997    18.114118    22.828037    19.608367    8108.2512    2318.5421    1837.0095    1376.4395    252.09678   -646.43919   -487.71178   -4226.6633 
 7354000    216.92729   -4881.8787   -4447.9973   -4881.8787            0    3618.6859    18.298681    22.800497     19.35939    8077.1058    3769.5359     3677.358    3409.1638    1391.4151   -1499.2693    2484.9335   -4021.7295 
 7355000    222.98382   -4869.1716   -4423.1764   -4869.1716            0    1788.8887    18.257307    22.999867    19.490489    8184.3606    1266.0036     2141.299    1959.3636   -397.42163   -20.954649   -687.96237   -4209.6538 
 7356000     208.9526   -4907.5708   -4489.6398   -4907.5708            0    2109.5936    18.058118    23.136386    19.506272    8149.7126    2716.4324    763.74967    2848.5988    244.75116   -1248.5334    793.32818   -4238.9036 
 7357000    224.03571   -4899.5637   -4451.4646   -4899.5637            0    3372.5029    17.919019    23.205004    19.370305    8054.3838    3599.0287    2777.3219    3741.1581   -623.57922     53.11114   -672.60681   -4055.3138 
 7358000    229.05678   -4905.7913   -4447.6494   -4905.7913            0    700.90829    18.328788    22.911175    19.500157    8188.7801    296.79193    73.735787    1732.1972   -612.63055   -407.24365   -1389.8437   -4363.9435 
 7359000    208.17949   -4890.5225   -4474.1378   -4890.5225            0    2350.5245    18.309125     22.74959    19.587637    8158.7423    2724.8841    1677.4069    2649.2825     509.0229    -14.23633    831.88542   -4194.4562 
 7360000     220.8958      -4877.3   -4435.4811      -4877.3            0    3323.9595     18.07462    22.806276    19.673161    8109.5676    2648.6115    3910.2195    3413.0475    737.47241     461.4273   -2089.7745   -4042.3574 
 7361000    226.83052    -4878.857    -4425.168    -4878.857            0    2909.1954    18.170065    22.994994    19.452903    8127.8222     1687.116     3159.082    3881.3881   -1481.4798   -192.47669   -283.36496   -4080.3237 
 7362000    219.49199   -4897.1623   -4458.1512   -4897.1623            0    1637.6811    18.206223    23.103541    19.364007     8145.048    1800.1567    418.53359    2694.3529   -762.69615   -896.93062   -611.85106   -4263.6157 
 7363000    222.43741   -4922.8617   -4477.9594   -4922.8617            0    3184.6197    18.031766    22.958983    19.512048    8077.8124     4797.536    2324.2477    2432.0752   -1219.5964   -617.06826     -1295.64   -4102.7901 
 7364000    222.16094   -4890.0664    -4445.717   -4890.0664            0    1097.4796    18.253775    22.938565    19.624352    8217.0187    1943.8841     612.1402    736.41453    962.70321    -254.8306    385.42933   -4314.1986 
 7365000    223.84028   -4912.5331   -4464.8248   -4912.5331            0    1841.4635    18.212573    22.927965    19.494853    8140.6064    636.99708    2194.7665    2692.6268    250.44143    552.10402    301.50203   -4246.2019 
 7366000    215.67497   -4921.8559   -4490.4793   -4921.8559            0    1344.2227    18.403083    22.770237     19.50288    8172.5366    812.32028    1095.0651    2125.2827   -556.39992   -192.70256   -385.82114    -4330.264 
 7367000    217.76408   -4927.1942   -4491.6392   -4927.1942            0    1994.2611    18.204994    22.655209    19.641054     8100.716    2962.4682    1966.1572    1054.1578    492.35892    17.544513    908.84703   -4256.0359 
 7368000    213.70743   -4911.3241   -4483.8829   -4911.3241            0    1645.3308    18.301456    23.042322    19.330398    8151.7845    523.97436    2422.6532    1989.3649    1193.9173    324.74533   -105.90006    -4288.277 
 7369000    215.00443   -4916.3746   -4486.3392   -4916.3746            0    1989.2062    18.020088    23.169022     19.47765    8132.0712    1004.5688    2563.7279    2399.3219    445.96381    391.04103    76.138839   -4250.4235 
 7370000    216.07268   -4898.4295   -4466.2575   -4898.4295            0    1713.6107    17.959122     23.40789    19.382445    8148.0922    2314.5294    939.38799    1886.9148   -911.30727    577.33095    966.20789   -4262.6264 
 7371000    205.74931   -4892.3403   -4480.8163   -4892.3403            0    3707.5226    18.133785    22.918047    19.457527    8086.3718    3532.4175    2847.2419    4742.9084    107.16438   -1318.8732   -736.56306   -4043.5828 
 7372000    230.26146   -4897.2836   -4436.7322   -4897.2836            0    4688.4773     18.21066    22.603002    19.660606    8092.6119    4331.2813    5540.6258    4193.5248   -501.83527    562.58676   -563.47583   -3883.3866 
 7373000    215.16548   -4892.6552   -4462.2976   -4892.6552            0    1744.8037    18.157884    22.867689    19.660588    8163.6436    4388.3377    2564.9312   -1718.8579    1148.2939   -465.04125    314.25518   -4254.5642 
 7374000    226.24855   -4901.3524   -4448.8273   -4901.3524            0    1701.1368     18.25617    23.090659     19.34896     8156.496    1221.7591     1295.486    2586.1654    75.381736   -1158.3377    1074.2121   -4246.4701 
 7375000    224.23785   -4886.3812   -4437.8778   -4886.3812            0    2927.1022    18.006861    23.259941    19.348628    8103.9505    2484.2646    2606.4617    3690.5802   -582.04085     53.76575    158.75568     -4091.93 
 7376000    228.11511   -4928.4795   -4472.2211   -4928.4795            0    2206.9655    17.937062    23.120764    19.589389    8124.0835    2636.1306    2817.8004    1166.9655   -187.27735    1417.5903    2950.2603   -4210.7367 
 7377000    219.04838   -4919.1725   -4481.0487   -4919.1725            0    1210.3665    18.243409    23.104336    19.350563    8156.2983    1698.0077    1281.5699    651.52197   -124.78386    712.24622    565.68928   -4337.0741 
 7378000     214.9395   -4908.3532   -4478.4477   -4908.3532            0    2657.8792    18.359541    22.645499    19.563477    8133.7301    2240.6379     2627.673    3105.3267    317.33931    -561.5984     356.1577   -4163.1644 
 7379000    219.90829   -4865.7047    -4425.861   -4865.7047            0    2055.1803    18.151616    22.869971    19.699265    8177.6954    1498.5128    3852.7117     814.3164    1715.3256    575.17569    1875.5189   -4180.7534 
 7380000    214.39406   -4923.0786    -4494.264   -4923.0786            0    4082.5717    18.190608    22.973934    19.304097    8067.3717    2702.0444    4517.5926    5028.0782   -284.52236    52.197671    2497.3596   -4013.9317 
 7381000      211.994   -4919.7985   -4495.7843   -4919.7985            0     2341.497    17.938817     23.26757    19.419944    8105.7425    2331.4556    2093.0904    2599.9449    557.12589    1722.6267    253.24066   -4218.9867 
 7382000    221.14697    -4882.311   -4439.9897    -4882.311            0    965.68745    18.115505    23.120277    19.614746    8215.3517    2013.1485    699.26337    184.65046   -79.923933    703.76165    866.35529   -4324.2883 
 7383000     225.2522   -4888.4569   -4437.9247   -4888.4569            0    2097.1486    18.411501    23.106834     19.18719    8162.8348    1314.7911     922.7006     4053.954   -29.614656     325.8688    59.661824   -4188.2663 
 7384000    211.05529    -4911.792   -4489.6554    -4911.792            0    2033.4523    18.102411    22.804629    19.670746     8120.453    2553.7355     1989.205    1557.4165    116.33879    666.64139   -95.226242   -4248.8367 
 7385000    217.18014   -4907.5794   -4473.1923   -4907.5794            0    2988.1266    18.210423    22.635012    19.652682     8100.701    1930.2604    4641.8207    2392.2987    313.29136    189.65923    724.63604   -4120.1738 
 7386000    222.64051   -4892.2891   -4446.9805   -4892.2891            0     3839.358    18.261625    22.912172    19.356345    8098.9562    3159.0507    3652.8829    4706.1404     -144.369   -825.49803    -246.3882   -3993.4949 
 7387000     216.1948   -4905.4815   -4473.0652   -4905.4815            0    2419.0744    17.915049      23.2643     19.43201    8098.8937     2006.153    2369.8378    2881.2323   -729.14151   -428.48185    282.28529   -4187.3386 
 7388000    223.82701   -4912.4238   -4464.7421   -4912.4238            0     3237.553    17.961704    23.078461    19.449202    8062.2483    5663.0132    2078.4595    1971.1863    136.99917   -1442.0678    -504.7697   -4084.0719 
 7389000    210.44768   -4908.7732   -4487.8518   -4908.7732            0    3429.8864    18.250955    22.869768    19.399432    8097.2281    1557.7673    4216.9362    4514.9557   -405.42835    260.97275   -152.92602   -4082.8173 
 7390000    224.77494   -4901.3836   -4451.8059   -4901.3836            0    2334.7209    18.257684    22.689631    19.613019    8124.8919    1353.5063    3324.2071    2326.4493     454.2501    1138.9067    1393.4617   -4175.1573 
 7391000    218.98262   -4908.5238   -4470.5315   -4908.5238            0     2839.189    18.301056    22.645524    19.552304    8103.1983      2887.31    2986.4989    2643.7581   -45.430502    -504.2774   -193.36092   -4135.0051 
 7392000    222.36469   -4906.0524   -4461.2956   -4906.0524            0    3399.3315    18.165856    22.877444     19.50013    8104.0269    3269.7999     4099.807    2828.3877   -1055.3712    383.50986   -1199.4854   -4059.5323 
 7393000    217.09378   -4913.6686   -4479.4543   -4913.6686            0    2139.9029     18.18236    23.099181    19.367055    8134.1173    1912.3847    1722.4226    2784.9015    35.694427    419.94889    592.86236   -4225.6024 
 7394000    232.34444   -4922.7901   -4458.0725   -4922.7901            0     1906.908    18.103217    23.128076    19.468504    8151.3181    1656.5167    1376.8185    2687.3888    478.82787    -375.5077   -8.6382077   -4231.3819 
 7395000    214.38809    -4895.971   -4467.1683    -4895.971            0    2406.0066    18.186612    23.039118    19.355496    8110.0205    1875.2182    2579.3349    2763.4668    251.11285     941.9871     1800.274   -4182.5947 
 7396000    217.92275   -4906.5451   -4470.6727   -4906.5451            0    3178.6185    18.122692    22.798843    19.659724     8122.934    3767.0437    3615.4722    2153.3398    159.03979   -67.241416    4.4390646   -4094.1187 
 7397000    210.32678   -4910.6942   -4490.0147   -4910.6942            0     1591.761    18.206988    22.769568     19.61732    8132.6594    1537.3235    3246.3562   -8.3965889   -750.57965    665.66697   -848.01547   -4301.2215 
 7398000    211.38035   -4894.8967   -4472.1099   -4894.8967            0    2541.2479    18.262457    22.944678    19.382129    8121.6197    1622.1591    3144.5828    2857.0019    332.51252   -1044.2479    1319.3767   -4171.1105 
 7399000    225.04475   -4883.3204   -4433.2031   -4883.3204            0    1524.7229     18.00739    23.155403     19.48045    8122.7316    1581.7457    1040.7753    1951.6476    478.97406   -560.75298    828.86519   -4252.5819 
 7400000    223.15666   -4919.9122   -4473.5713   -4919.9122            0    1000.1139    18.156056     23.12593    19.362276    8129.7488    1929.1175    250.07721    821.14699    681.47491    336.03864   -475.04352   -4354.9938 
 7401000    229.63697    -4884.892   -4425.5897    -4884.892            0    2341.9656    18.248138    23.001002    19.430381    8155.4256    1036.4888    2822.4642    3166.9437    943.47136    1124.4135    610.61563   -4147.0398 
 7402000    224.08865   -4906.4478   -4458.2428   -4906.4478            0    4129.4036    18.143345    22.828209    19.498688    8075.9681    4068.3039    3687.6998     4632.207    -962.6156   -104.95247   -1584.9353   -3971.8829 
 7403000    215.94574   -4879.4841    -4447.566   -4879.4841            0    1244.6904    18.359281    22.992113    19.376372    8179.1281     106.7417    1635.3493    1991.9803     1529.267    370.13715    1138.1909   -4299.0941 
 7404000    221.82082   -4910.4354   -4466.7663   -4910.4354            0    4293.8271    18.224737    22.871637    19.312653    8050.0849    3590.8207    4512.1996     4778.461    80.926714    525.75388    523.21313   -3962.6614 
 7405000    226.00509   -4930.7173   -4478.6792   -4930.7173            0    1775.8179    18.142782    22.985347    19.569346    8160.7721    2498.8914     2214.984    613.57816   -279.15133      -518.14   -243.56192   -4267.3276 
 7406000     209.2459   -4911.0077     -4492.49   -4911.0077            0   -238.19123    18.299444    22.951769    19.609196    8235.9526   -231.07136    523.36009   -1006.8624   -1473.2623    611.82374   -537.94482   -4521.0999 
 7407000    215.68988   -4898.0474    -4466.641   -4898.0474            0    2016.0326    18.311603    22.985893    19.308322    8127.0381    485.92676    1921.9995    3640.1715   -532.17614    238.36223   -1228.9293   -4227.6917 
 7408000    218.63535   -4929.7766   -4492.4789   -4929.7766            0    2862.8699    18.032822    23.166484    19.366115     8090.332    2325.3672    2525.5342    3737.7084   -516.10727   -322.08173   -551.43072   -4154.6912 
 7409000    224.56634   -4934.4352   -4485.2748   -4934.4352            0   -570.05617    17.953667     23.28362    19.614372    8199.3243    1504.5229   -1770.1801   -1444.5114   -561.46443   -466.00192    1515.7878   -4553.4414 
 7410000    226.95202    -4907.106   -4453.1739    -4907.106            0    159.56044    18.280584     23.08014      19.4331    8199.1831   -27.969015   -552.99925    1059.6496    463.80931   -423.11749   -1786.2053   -4434.0942 
 7411000    208.86449   -4905.5688    -4487.814   -4905.5688            0    2248.8498    18.071298    22.984568     19.57258    8129.6861     2553.204    2389.1254    1804.2199    1310.8098   -136.13914    136.54489   -4221.1833 
 7412000    214.69224   -4890.9937   -4461.5827   -4890.9937            0    1781.0586    18.217754    22.835838    19.611621    8158.7808    2939.8825    1539.8892    863.40415    683.22947    686.73015   -456.04049    -4249.659 
 7413000    213.11467   -4902.5427    -4476.287   -4902.5427            0    2398.1545    18.241576    22.978158    19.411148    8136.3343    3117.9991    1698.1559    2378.3085    1652.9764    28.947629   -578.80215   -4191.7218 
 7414000    216.10337   -4911.5152   -4479.2818   -4911.5152            0    2269.8462    18.245624    22.892363    19.417285    8110.3173    3051.9627     2067.671    1689.9048   -1040.4803    1177.4688     -431.434   -4210.8029 
 7415000    214.33204   -4906.2245    -4477.534   -4906.2245            0    396.73176    18.171356    22.877157    19.675513    8179.2871     1624.428    996.30172   -1430.5345    612.16165    843.57628    1716.3594   -4430.2092 
 7416000    227.42443   -4884.4421   -4429.5651   -4884.4421            0    2554.9894    18.120149    22.923732    19.563412    8126.2786    2516.1378    1769.0394    3379.7909   -699.23549    420.67821   -15.525818   -4126.7645 
 7417000     212.8451   -4900.2464   -4474.5299   -4900.2464            0    2488.6615    18.294999    23.007832    19.311162    8128.6138    2761.7116    1198.0028    3506.2702   -403.71594    -770.9233    968.22178   -4179.5054 
 7418000    222.33312   -4888.5694   -4443.8757   -4888.5694            0     2511.827    18.164649    23.064407    19.308541    8089.4455     1849.388    2643.9744    3042.1185    98.360989   -135.15235   -528.09364   -4147.5398 
 7419000    233.46758   -4898.1076   -4431.1436   -4898.1076            0    2299.2582    18.202174    22.924379      19.4257    8105.8303    2666.9848     1748.132    2482.6579   -179.19327    199.18488   -546.78287   -4159.3363 
 7420000    228.99772   -4909.8741   -4451.8503   -4909.8741            0    1541.1411    18.185759     22.98251    19.546406     8169.506    1070.6258    996.57629    2556.2211    1543.9888   -482.62353    382.91706   -4268.2328 
 7421000    217.38374   -4882.8581   -4448.0638   -4882.8581            0    3288.2707    18.156173    22.783975    19.564126    8093.0882    2987.8985    4268.8048    2608.1087    1333.4858    1426.1015   -2159.5436   -4059.9512 
 7422000    210.88036   -4899.7297   -4477.9429   -4899.7297            0    2528.3681    18.289139    22.861569    19.444978    8130.3034    2375.2559    3040.3627    2169.4858     641.5933    1057.0425   -297.81618   -4178.1489 
 7423000    221.98432    -4931.494   -4487.4979    -4931.494            0    2697.4418    18.252198    22.976552    19.352004    8115.6999    3223.3876    2228.3265    2640.6111   -402.62371    281.04463    589.97222    -4168.231 
 7424000    216.26064   -4907.5263   -4474.9783   -4907.5263            0    1012.2791    18.047649    23.194105    19.578016    8195.3396    1857.4698   -218.74842    1398.1158     794.7272   -668.63728    851.12747   -4353.9901 
 7425000    212.09344   -4895.8137   -4471.6006   -4895.8137            0    1381.0946    18.014247    23.250442    19.485527    8161.3027    3428.2882   -885.30045    1600.2961   -509.11155   -1173.7799   -858.23996   -4307.2169 
 7426000    220.32339   -4910.8287   -4470.1547   -4910.8287            0    4054.6953    18.024353    23.061753    19.395433    8062.1611     4795.759    3895.7892    3472.5377   -573.00211   -1062.8162    127.65048   -3993.4103 
 7427000    233.49019   -4911.1598   -4444.1506   -4911.1598            0     2838.628    18.195197    22.991752    19.378947    8106.9783    2742.6091     3381.543     2391.732   -1055.4969    237.15974    -349.6221   -4108.5341 
 7428000    230.88105    -4910.656   -4448.8654    -4910.656            0    2564.9369    17.981304    22.975934     19.58262    8090.3094    2122.7342    3618.9465    1953.1299   -304.08389    760.41783   -171.82248   -4146.2314 
 7429000    219.02763   -4884.1155   -4446.0332   -4884.1155            0    2976.3081    18.182561    22.940335    19.482274    8126.3301    4459.5296    1833.6994    2635.6954   -987.04307   -76.491311    161.60855   -4093.2985 
 7430000     222.5503   -4902.3624   -4457.2343   -4902.3624            0    3344.7451    18.310153     22.81357    19.414557     8109.848    3651.8025    2503.1093    3879.3235    310.12068    97.371794   -54.873544   -4061.6386 
 7431000    217.25614   -4914.3214   -4479.7823   -4914.3214            0    992.49882    18.211556    22.846389    19.659995    8179.9004    680.79382     1340.485    956.21766   -109.07674    159.08724    39.240787   -4361.3817 
 7432000    226.44821   -4904.6361   -4451.7117   -4904.6361            0    1984.5262    18.156489    23.198024    19.392331    8167.9467    832.33879    2163.0093    2958.2303    598.58244   -562.12023   -736.06056   -4215.3127 
 7433000    223.76476    -4931.367   -4483.8098    -4931.367            0    1871.1705    18.045814    23.355549    19.230295    8104.9904    1557.4799    916.64187    3139.3896    841.95271   -224.80955   -957.01138   -4262.6319 
 7434000    217.96045   -4926.2704   -4490.3225   -4926.2704            0    2471.3761    18.076134    23.153307    19.390096     8115.187    2110.1911    2675.4503    2628.4868   -837.99663     35.36961   -795.47399    -4197.831 
 7435000    232.93476   -4911.6487   -4445.7504   -4911.6487            0    1501.8498      18.1324    22.948744    19.622739    8165.3321    689.33842    2020.2349     1795.976   -611.55308    980.83708    3.5610763   -4266.9057 
 7436000    220.59555   -4894.0746   -4452.8562   -4894.0746            0    1915.1583    18.332546    22.758457    19.581064    8169.6203    1568.3262     1811.898    2365.2506   -362.97236   -66.457428    1554.6108   -4224.6737 
 7437000    220.04542   -4911.5516   -4471.4336   -4911.5516            0    3378.4504    18.211385    22.815233    19.515553    8108.6533    4401.6912    2068.9823    3664.6778   -1348.3844   -1240.3457    31.955342   -4071.9102 
 7438000    230.30255   -4904.7707   -4444.1372   -4904.7707            0    3928.9163    18.164141    22.931926    19.328919    8051.2437    3490.0182    4925.9888    3370.7418   -62.506799    1464.6794   -41.985816   -3982.8072 
 7439000    215.10014   -4922.8485   -4492.6217   -4922.8485            0    1929.3023    17.968943    23.230865    19.505061    8142.0773    2158.3261    1566.0269    2063.5539   -180.23821    1496.6376   -831.32681   -4263.5289 
 7440000     231.1054   -4886.6711   -4424.4318   -4886.6711            0     3558.347    18.152706    23.080998     19.38343    8121.3194    3086.1964     3741.854    3846.9905   -512.48899    510.57349   -1248.4367   -4002.9772 
 7441000    229.78021   -4914.0524   -4454.4636   -4914.0524            0    1762.2828    18.298453    23.135167    19.226578    8139.3368    493.39243     1544.034     3249.422   -1441.5299    -559.1351    282.85065   -4245.2738 
 7442000     228.3407   -4910.4773   -4453.7676   -4910.4773            0    1856.0343     17.95715    23.111098    19.621472    8143.0962    3190.3077    1563.1211    814.67406      279.676   -512.05316    235.00055   -4233.3474 
 7443000    231.72489   -4938.9672   -4475.4888   -4938.9672            0    1605.7936    18.148712    23.058968    19.450642    8139.9102    2942.5924    170.53124    1704.2571    267.91381   -868.53427    194.13323   -4284.8615 
 7444000    219.00815   -4890.5065   -4452.4631   -4890.5065            0    4139.2566    18.183007    22.925849    19.370871    8074.9582    3909.3495    4373.6551    4134.7651    773.62383   -17.621173    693.28245   -3965.0036 
 7445000    229.26168   -4916.8384   -4458.2868   -4916.8384            0    1531.1801    17.945633    22.832288    19.885266    8147.7863    3016.3169    2521.7751   -944.55179   -308.30139    643.27113    479.77629   -4276.3411 
 7446000    218.10014   -4915.4019   -4479.1747   -4915.4019            0     1541.326    18.269534    23.036859    19.350536    8144.1117   -648.78947    2055.6964     3217.071    124.44465   -225.90618   -1932.8692    -4296.106 
 7447000    223.79983    -4907.184   -4459.5567    -4907.184            0    1948.2613    18.181468    23.073003    19.379692    8129.8014    1721.3406    1496.7438    2626.6995   -1303.3536    1243.0663    410.00752   -4228.5614 
 7448000    225.28733    -4910.033   -4459.4305    -4910.033            0    1347.2457    18.018335    22.992887    19.682792    8154.4537     1468.034    1630.8608    942.84234    600.15511   -91.629828    582.97932   -4299.2102 
 7449000    226.92137   -4898.0247   -4444.1539   -4898.0247            0    3401.3397    18.334259     22.92154    19.289802    8106.5286     2667.692    3225.0893    4311.2378   -1439.5666   -681.44812   -555.10174   -4042.0291 
 7450000    227.85127   -4924.7674   -4469.0367   -4924.7674            0    2363.6171     17.99865    22.967993    19.635822    8117.3088    3504.2134    2808.1054    778.53254   -157.34387   -247.34411    10.305699   -4189.2255 
 7451000    217.36282    -4900.162   -4465.4095    -4900.162            0    2283.7955    18.168052    22.977623    19.548974    8160.8881    2820.5069    2118.7394    1912.1402   -398.98805    94.493317   -1660.5011   -4193.5964 
 7452000    219.18777   -4907.5585   -4469.1559   -4907.5585            0    2669.7943    18.195944    22.841251    19.471191    8092.5797    3716.5485    2329.4045      1963.43   -999.87082   -874.51836     626.5793   -4154.0615 
 7453000    210.18352   -4909.9851   -4489.5921   -4909.9851            0    4476.6586    18.238907    22.911555    19.266216    8050.9995    4610.4475    4478.9542    4340.5741   -476.22043    106.63746    1573.4129   -3963.9627 
 7454000    211.96172   -4914.8214   -4490.8718   -4914.8214            0    1040.2676    18.193161    22.939607     19.58491    8173.6438     1597.709    1302.4529    220.64093   -228.57455   -129.12442    -230.8943   -4366.8675 
 7455000    212.82474   -4918.2968    -4492.621   -4918.2968            0    683.33579    18.060676    23.085579     19.56222    8156.2949   -72.404986    1753.8857    368.52662    1353.8263   -145.39994    1438.2429   -4411.3374 
 7456000    221.30621   -4920.5005   -4477.8607   -4920.5005            0    746.36563    18.177324    23.067411    19.449961    8155.4428    706.74802    698.35829    833.99059     305.8356   -261.56088   -145.56723   -4389.0889 
 7457000    212.05871   -4891.8828   -4467.7392   -4891.8828            0    1282.6611    17.950713    23.147659    19.684467    8179.2304    2963.7423    1406.0404   -521.79929    409.85241    382.88002   -262.63394   -4314.7361 
 7458000    229.23259    -4906.929   -4448.4355    -4906.929            0     4543.138    18.043326    22.864603    19.423344    8013.1682    4167.5389    5180.5958    4281.2793    684.29567    129.20563   -459.89131   -3917.5069 
 7459000    212.67827   -4888.1093   -4462.7265   -4888.1093            0    1310.0628    18.291552    23.041542    19.417659    8183.8743    667.09666    1452.3829    1810.7089     1069.547     173.8738    669.09831   -4306.3661 
 7460000    218.17718   -4887.9842   -4451.6029   -4887.9842            0    2098.9667    18.354127    22.909929    19.415814    8164.1895     715.0778    2889.2242    2692.5982   -350.53038    106.88125     -1346.12   -4201.6866 
 7461000    224.85816   -4909.4289   -4459.6848   -4909.4289            0    2708.5469    18.267857    22.736245    19.576959    8131.1425    1713.1359     3683.052     2729.453    1844.7903    726.61793     1365.624   -4138.4934 
 7462000     231.5617   -4926.8203   -4463.6683   -4926.8203            0     2368.325    18.225487     22.80629    19.488034    8100.3133    1056.0062    4082.3423    1966.6263   -345.83007    898.18564   -817.09407   -4183.8868 
 7463000     214.6371   -4892.6152   -4463.3145   -4892.6152            0    2324.4884    18.059208    23.115602    19.448728    8118.8611    3124.0502    1821.6318    2027.7833   -376.67265    80.839144    447.44106   -4188.0828 
 7464000     213.9657   -4891.3279     -4463.37   -4891.3279            0     2478.308    18.131851    23.365957    19.278755    8167.7924    2874.4196    1291.6905    3268.8139    935.81219    8.0886542    377.90772   -4168.1568 
 7465000    209.78386   -4926.5217   -4506.9281   -4926.5217            0    1869.1459    18.031928    23.113854    19.433229    8099.5242     870.3444    1966.4926    2770.6007   -187.46009    290.86748   -489.41993   -4286.1385 
 7466000    217.06385   -4899.8591   -4465.7045   -4899.8591            0    2624.6991    18.103277    22.981498    19.511215    8117.4545    4486.0352    1865.8699    1522.1923   -219.63132   -670.65523   -19.165235   -4154.9802 
 7467000    207.66811   -4914.4708   -4499.1089   -4914.4708            0    2511.9091    18.143464    22.943999     19.49813    8116.7519     3250.202     2679.955    1605.5703   -578.33994    260.15234   -1485.7142   -4201.7629 
 7468000    216.19842   -4879.1882   -4446.7647   -4879.1882            0    3239.6799    18.179478    22.971724    19.436512    8116.9584    2408.5601    3509.8927    3800.5868    524.24282   -578.48001    862.67204   -4063.2594 
 7469000    212.76368   -4890.5987    -4465.045   -4890.5987            0    2185.5707    18.180131    22.854867    19.580005    8135.5799    1124.2983     4438.801    993.61268     105.4701    1007.9089   -1216.7022   -4205.7291 
 7470000    213.23926   -4925.0958   -4498.5909   -4925.0958            0    1892.7015    18.153474    22.895299    19.495844    8103.0423    2253.0591     1657.779    1767.2664     1136.307   -410.85571    152.74679   -4274.9218 
 7471000    217.78424    -4906.881   -4471.2856    -4906.881            0    2771.4264    18.071632    22.911022    19.581593    8107.5542     2022.167    4034.8599    2257.2524    1094.6161    315.31253    1282.0395   -4143.5912 
 7472000     214.3664   -4928.8741   -4500.1148   -4928.8741            0    2066.4484    18.233833    22.915031      19.4568    8129.6125     2605.366    1469.5104    2124.4687   -416.16979    505.60898    283.42447   -4255.1125 
 7473000    211.50585   -4915.5417   -4492.5039   -4915.5417            0     2467.835    18.126387     23.10295    19.349763    8103.1586    1271.9169    2361.6579    3769.9301    507.79182   -399.87373    1368.9712   -4200.8644 
 7474000     220.0538   -4899.7519   -4459.6171   -4899.7519            0    1241.2199    18.115037    23.155254     19.50067    8179.7176    2014.6687    474.62368    1234.3674   -1075.3171    217.49373   -488.90725   -4311.5485 
 7475000     217.3486   -4919.1216   -4484.3975   -4919.1216            0    3656.7089    18.157096    22.758645    19.543272    8075.8837    3421.1453    3619.6658    3929.3155    1497.1423   -452.73187    955.14326   -4053.7159 
 7476000    218.23444   -4906.3439   -4469.8481   -4906.3439            0    2123.0978    18.257141    22.752907    19.615536    8148.3532    1365.0399    3367.2673    1636.9861   -861.50295   -383.33517   -637.47869    -4217.549 
 7477000    241.75763   -4893.1994   -4409.6542   -4893.1994            0    2200.7648     18.17116    23.054328    19.434854    8141.7247    2375.0843     3561.558    665.65209    1046.9446    368.17708   -550.23421   -4148.3383 
 7478000    225.77163   -4899.2787   -4447.7075   -4899.2787            0    2104.6587     17.95898    23.280919    19.450333    8132.2148    3562.8951    1186.1881    1564.8928    865.65406   -391.70781    -957.2012    -4198.095 
 7479000    231.38545   -4912.7065    -4449.907   -4912.7065            0    1477.2581    18.105483    23.291842    19.343633    8157.4043    268.35882    1560.9227    2602.4928   -1028.7855    188.68771   -2009.0049   -4274.1615 
 7480000    231.89518    -4894.593    -4430.774    -4894.593            0    1393.2677    18.280133    22.916624    19.506085    8171.4681    565.62402    1644.5569    1969.6222   -860.33027    1820.4376    393.31906   -4264.7348 
 7481000    225.78945     -4892.14   -4440.5332     -4892.14            0    2872.6648    18.247678    22.842855    19.515765    8134.7379    4829.6792    1274.1749    2514.1403    540.63249   -108.04093    1341.7528   -4099.7294 
 7482000    223.08036    -4905.567   -4459.3787    -4905.567            0    3434.3155    18.292599    22.933934    19.355829    8120.1815    1872.8256    3094.1943    5335.9266    977.92444   -821.19211   -284.34984   -4052.6715 
 7483000    213.08924   -4902.1949   -4475.9901   -4902.1949            0    936.51571    18.288536    22.924873    19.490539    8171.6494     -95.6095     1654.012    1251.1446     -893.821    714.93518   -725.55336   -4364.3807 
 7484000    225.04669   -4895.0644   -4444.9433   -4895.0644            0    2989.5661    18.055054    22.946777    19.607502    8123.4917    3301.3042     2773.563     2893.831   -198.85503   -73.572977    1024.3127    -4090.761 
 7485000    218.86377   -4918.1632   -4480.4086   -4918.1632            0    2871.5951    17.949814    23.246592    19.381567    8087.3854     2477.836     3369.698    2767.2512    550.39112    966.18549    94.561168   -4141.7148 
 7486000    215.40783   -4904.0976   -4473.2553   -4904.0976            0    2367.5034    18.043397    23.225224    19.331601    8101.1383    2600.8354    1586.7739     2914.901    1037.3057   -1175.1793    1508.9087   -4193.5424 
 7487000    217.47228   -4912.6154    -4477.644   -4912.6154            0    1997.4272    18.140776    22.982202    19.500243    8129.9431    4358.4194    1535.9446    97.917566   -402.93999    5.3487008   -583.49785   -4240.8153 
 7488000    223.36798   -4893.3843   -4446.6207   -4893.3843            0    1772.8447    18.255258    22.862903    19.559322    8163.4393    760.78858    2825.0408    1732.7047    801.92075    -24.02939    -802.7732    -4235.554 
 7489000    222.76155   -4914.0943   -4468.5437   -4914.0943            0    1600.2402    18.323862     22.64684    19.603466    8134.9989    1230.5744     2628.904    941.24224    1008.0287     441.4513    213.91032   -4278.6902 
 7490000    216.21602   -4887.1613   -4454.7025   -4887.1613            0    2836.1975    18.167571    22.959059    19.446364    8111.2796    2923.3134    2936.5982     2648.681    1242.6939    173.35805    1057.5914   -4119.1954 
 7491000    212.74329   -4912.1771   -4486.6642   -4912.1771            0     1694.192    18.060293    23.200138    19.402147    8129.5249    2200.8129    345.12262    2536.6405   -1054.8804   -324.59208   -2165.8163   -4285.7995 
 7492000    228.71409   -4932.2046   -4474.7482   -4932.2046            0    2157.6883     18.12936     23.05622    19.436468    8124.3369    2201.9204    2704.4127    1566.7317    -2004.988   -344.42697    -534.0898   -4219.0942 
 7493000    236.24351    -4912.852   -4440.3358    -4912.852            0    1016.8966    18.199568    22.787639    19.754474    8192.6778    542.39944     1424.033    1084.2575   -946.50351   -758.21624   -145.51772   -4318.8351 
 7494000    227.63091   -4901.3306   -4446.0407   -4901.3306            0    2798.2073    18.209787    22.726498      19.5825    8104.1139    2008.3732    3896.5208    2489.7279   -485.08399   -175.35158   -1145.6685     -4115.32 
 7495000    229.59988   -4892.8104   -4433.5822   -4892.8104            0    3011.5568    18.247886    22.921332     19.47834    8147.1246    3907.9926    2143.4109    2983.2669   -1036.3273    373.79848    833.27785   -4075.7567 
 7496000    215.58785   -4897.7122   -4466.5099   -4897.7122            0    1476.9996    18.176502    23.132808    19.409183    8161.0479    2554.7313    102.62938    1773.6381    697.81013    554.14032    1180.4412   -4290.7166 
 7497000    224.87257   -4912.7483   -4462.9753   -4912.7483            0    2303.1608    18.061361    23.179795    19.356495    8103.7639    763.52474    1905.2189    4240.7386    101.68283    351.61337   -128.68885   -4190.7761 
 7498000     234.8541   -4913.4904   -4443.7532   -4913.4904            0     2260.912    18.049133    23.151476     19.46763    8134.8232    4244.1829    1907.4722    631.08101    1932.6657    1095.2424    -626.2692    -4175.523 
 7499000    213.91754   -4900.6378   -4472.7763   -4900.6378            0    72.713489     18.32239    22.962885    19.450497    8183.5036   -908.65748   -415.83515    1542.6331   -631.21661    -997.5665   -140.79529   -4464.0981 
 7500000    228.89514   -4892.6912   -4434.8727   -4892.6912            0    1643.1696     18.23037    22.883432    19.603301    8177.9764    906.24168     2333.802     1689.465   -742.68631   -638.26686    800.39806   -4238.8961 
Loop time of 520.434 on 64 procs for 250000 steps with 1008 atoms

Performance: 83.008 ns/day, 0.289 hours/ns, 480.369 timesteps/s
99.2% CPU use with 64 MPI tasks x 1 OpenMP threads

MPI task timing breakdown:
Section |  min time  |  avg time  |  max time  |%varavg| %total
---------------------------------------------------------------
Pair    | 27.029     | 31.333     | 35.526     |  33.6 |  6.02
Bond    | 0.27113    | 0.28002    | 0.30059    |   1.2 |  0.05
Kspace  | 246.11     | 253.74     | 268.1      |  28.5 | 48.76
Neigh   | 3.1644     | 3.521      | 4.5353     |  16.2 |  0.68
Comm    | 94.293     | 108        | 115.51     |  42.8 | 20.75
Output  | 1.0349     | 1.0354     | 1.0388     |   0.0 |  0.20
Modify  | 108.51     | 113.9      | 119.34     |  27.5 | 21.89
Other   |            | 8.622      |            |       |  1.66

Nlocal:        15.7500 ave          19 max          12 min
Histogram: 2 2 12 0 10 17 0 13 5 3
Nghost:        2456.83 ave        2495 max        2419 min
Histogram: 6 2 4 10 9 12 6 8 5 2
Neighs:        5117.20 ave        6154 max        3856 min
Histogram: 2 2 8 4 10 11 7 12 5 3

Total # of neighbors = 327501
Ave neighs/atom = 324.90179
Ave special neighs/atom = 2.0000000
Neighbor list builds = 7191
Dangerous builds = 0

unfix		3
unfix		2
unfix		1

write_data	data.final.${pid}
write_data	data.final.0
System init for write_data ...
PPPM initialization ...
  extracting TIP4P info from pair style
  using 12-bit tables for long-range coulomb (../kspace.cpp:340)
  G vector (1/distance) = 0.37872353
  grid = 24 27 36
  stencil order = 5
  estimated absolute RMS force accuracy = 0.0024847102
  estimated relative force accuracy = 7.4826309e-06
  using double precision FFTW3
  3d grid and FFT values/proc = 4050 480
Last active /omp style is kspace_style pppm/tip4p/omp
WARNING: Not all mixed pair coeffs generated from mixing. Use write_data with 'pair ij' option to store all pair coeffs. (../write_data.cpp:312)

write_restart   restart.lmp.${pid}
write_restart   restart.lmp.0
System init for write_restart ...
PPPM initialization ...
  extracting TIP4P info from pair style
  using 12-bit tables for long-range coulomb (../kspace.cpp:340)
  G vector (1/distance) = 0.37872353
  grid = 24 27 36
  stencil order = 5
  estimated absolute RMS force accuracy = 0.0024847102
  estimated relative force accuracy = 7.4826309e-06
  using double precision FFTW3
  3d grid and FFT values/proc = 4050 480
Last active /omp style is kspace_style pppm/tip4p/omp
Total wall time: 0:08:43
