#include		in.partitions
include		in.temp
variable        temperature equal 123.63
variable	tempDamp equal 100.0
include		in.pressure
variable        pressure equal 5293.8
variable        pressureDamp equal 1000.0 # This is 1 ps
include		in.seed
variable        seed equal 745823

units		real
atom_style	full

read_restart	restart.lmp.${pid}
read_restart	restart.lmp.1
Reading restart file ...
  restart file = 30 Jul 2021, LAMMPS = 30 Jul 2021
  restoring atom style full from restart
  orthogonal box = (0.080059448 0.071344338 0.083666450) to (19.919942 19.928657 20.616332)
  4 by 4 by 4 MPI processor grid
  restoring pair style lj/cut/tip4p/long/omp from restart
  restoring bond style harmonic/omp from restart
  restoring angle style harmonic/omp from restart
  972 atoms
  648 bonds
  324 angles
Finding 1-2 1-3 1-4 neighbors ...
  special bond factors lj:    0        0        0       
  special bond factors coul:  0        0        0       
     2 = max # of 1-2 neighbors
     1 = max # of 1-3 neighbors
     1 = max # of 1-4 neighbors
     2 = max # of special neighbors
  special bonds CPU = 0.005 seconds
  read_restart CPU = 0.015 seconds
include 	in.setup
variable	out_freq equal 1000
variable	out_freq2 equal 10000
variable	out_freq3 equal 1000

timestep	2.0

neigh_modify    delay 7 every 1

include		in.tip4p
# This is TIP4P/Ice

# create groups ###
group ox type 2
324 atoms in group ox
group hy type 1
648 atoms in group hy

# set charges - beside manually ###
set group ox charge -1.1794
Setting atom values ...
  324 settings made for charge
set group hy charge 0.5897
Setting atom values ...
  648 settings made for charge

# ### TIP3P Potential Parameters ###
pair_style lj/cut/tip4p/long/omp 2 1 1 1 0.1577 8.5
pair_coeff 1 1*2 0.000 0.000
pair_coeff 2 2 0.21084 3.1668
bond_style  harmonic
bond_coeff  1 450 0.9572
angle_style harmonic
angle_coeff 1 55 104.52
kspace_style pppm/tip4p/omp 1.0e-5
pair_modify tail yes

thermo          ${out_freq}
thermo          1000
thermo_style    custom step temp pe etotal epair emol press lx ly lz vol pxx pyy pzz pxy pxz pyz enthalpy

restart 	${out_freq3} restart.lmp.${pid} restart2.lmp.${pid}
restart 	1000 restart.lmp.${pid} restart2.lmp.${pid}
restart 	1000 restart.lmp.1 restart2.lmp.${pid}
restart 	1000 restart.lmp.1 restart2.lmp.1


include         in.dump
dump            myDump all atom ${out_freq2} dump.water.${pid}
dump            myDump all atom 10000 dump.water.${pid}
dump            myDump all atom 10000 dump.water.1
dump            myDump2 all dcd ${out_freq2} dump.dcd
dump            myDump2 all dcd 10000 dump.dcd
dump_modify     myDump append yes
dump_modify     myDump2 append yes


variable natoms 	equal  "count(all)"                        # NUMBER ATOMS
variable H      	equal  "enthalpy/v_natoms"                 # ENTHALPY-per-atom
variable Vol      	equal  "vol/v_natoms"                 # volume-per-atom
fix AVG all 		ave/time ${out_freq} 1 ${out_freq} v_Vol v_H file vol_enthalpy.dat
fix AVG all 		ave/time 1000 1 ${out_freq} v_Vol v_H file vol_enthalpy.dat
fix AVG all 		ave/time 1000 1 1000 v_Vol v_H file vol_enthalpy.dat


timer           timeout 02:55:00 every 1000
New timer settings: style=normal  mode=nosync  timeout=02:55:00

fix 		1 all shake 1e-6 200 0 b 1 a 1
       0 = # of size 2 clusters
       0 = # of size 3 clusters
       0 = # of size 4 clusters
     324 = # of frozen angles
  find clusters CPU = 0.001 seconds
fix             2 all nph aniso ${pressure} ${pressure} ${pressureDamp}
fix             2 all nph aniso 5293.8 ${pressure} ${pressureDamp}
fix             2 all nph aniso 5293.8 5293.8 ${pressureDamp}
fix             2 all nph aniso 5293.8 5293.8 1000
fix             3 all temp/csvr ${temperature} ${temperature} ${tempDamp} ${seed}
fix             3 all temp/csvr 123.63 ${temperature} ${tempDamp} ${seed}
fix             3 all temp/csvr 123.63 123.63 ${tempDamp} ${seed}
fix             3 all temp/csvr 123.63 123.63 100 ${seed}
fix             3 all temp/csvr 123.63 123.63 100 745823


run             250000
PPPM initialization ...
  extracting TIP4P info from pair style
  using 12-bit tables for long-range coulomb (../kspace.cpp:340)
  G vector (1/distance) = 0.37198479
  grid = 24 24 24
  stencil order = 5
  estimated absolute RMS force accuracy = 0.0035349034
  estimated relative force accuracy = 1.0645257e-05
  using double precision FFTW3
  3d grid and FFT values/proc = 2197 216
Last active /omp style is kspace_style pppm/tip4p/omp
Neighbor list info ...
  update every 1 steps, delay 7 steps, check yes
  max neighbors/atom: 2000, page size: 100000
  master list distance cutoff = 10.8154
  ghost atom cutoff = 10.8154
  binsize = 5.4077, bins = 4 4 4
  1 neighbor lists, perpetual/occasional/extra = 1 0 0
  (1) pair lj/cut/tip4p/long/omp, perpetual
      attributes: half, newton on, omp
      pair build: half/bin/newton/omp
      stencil: half/bin/3d
      bin: standard
Per MPI rank memory allocation (min/avg/max) = 9.226 | 9.227 | 9.230 Mbytes
Step Temp PotEng TotEng E_pair E_mol Press Lx Ly Lz Volume Pxx Pyy Pzz Pxy Pxz Pyz Enthalpy 
13250000    130.95662    -4991.846   -4739.2851    -4991.846            0    5177.2733    19.839882    19.857312    20.532665     8089.187    4975.4867    5096.1089    5460.2243   -520.40524    929.77759   -603.62833   -4128.5093 
13251000    120.80695   -4997.4692   -4764.4829   -4997.4692            0    5090.5266    19.849852    19.847771    20.590696    8112.2256    6089.0189     4305.969    4876.5918    148.85988    1141.5791    1230.6131   -4162.2303 
13252000    127.10522   -5006.1643   -4761.0312   -5006.1643            0    5205.8164    19.714085    19.855069     20.67795    8093.8564    6773.7376     4298.756    4544.9557    144.40002    222.10307   -941.98776   -4146.5335 
13253000    125.77992   -5006.5453   -4763.9681   -5006.5453            0    5076.0601    19.833185    19.834687    20.613817     8109.167    5880.0068    4645.8219    4702.3516     347.8001   -18.149392     712.0598   -4163.6535 
13254000    117.39848   -5003.1117   -4776.6989   -5003.1117            0    5162.3028    19.944132    19.742632    20.574136    8101.0591    5799.6998    5077.2719    4609.9367   -504.32117   -382.82463   -180.09688   -4166.7953 
13255000    117.44302   -4983.8786   -4757.3799   -4983.8786            0    4731.6944    19.828798    19.796885     20.60121    8086.9724    4520.1027    5001.3165    4673.6641   -128.06016    30.699264    86.210781   -4199.3229 
13256000    130.51929   -5002.7391   -4751.0217   -5002.7391            0    4393.1287    19.868527    19.870436    20.489589     8089.214    4630.2907    4313.4312    4235.6644    -3.256426   -197.57541   -365.24643   -4232.7516 
13257000    124.28236   -5001.2245   -4761.5355   -5001.2245            0    4211.9062     20.00463    19.842835    20.438543    8113.0505    2609.2244    5303.1762    4723.3181    315.03656     526.3758    98.442824   -4263.1806 
13258000    124.89582   -4996.1883   -4755.3162   -4996.1883            0    5908.0345    19.945094    19.927873    20.336597     8083.051    5271.4095    5246.6013    7206.0928   -356.43822   -382.57375     227.6846   -4058.8594 
13259000    128.66623   -4998.3604   -4750.2168   -4998.3604            0      4102.69    19.824164    19.941426    20.584966     8137.692    4307.7939    4053.3513    3946.9248    31.238911    834.44884   -562.44104     -4263.31 
13260000    121.68024   -4987.6632   -4752.9926   -4987.6632            0    5967.0535    19.765007    19.841551    20.603009    8079.8489    6120.5928    6330.3663    5450.2012   -542.29446   -26.821089     61.67164   -4049.8571 
13261000    118.01262   -4989.2806   -4761.6834   -4989.2806            0    5516.3137    20.022579    19.624399    20.617521     8101.265    5116.2809    5728.2993    5704.3611   -169.64455     514.7696   -1091.3983   -4109.9384 
13262000    128.49237   -4985.1773   -4737.3689   -4985.1773            0    5582.5405    19.838753     19.88347    20.561854    8110.8956    6409.9208    4797.2519    5540.4489    -24.91198   -99.917261    464.33199   -4077.0153 
13263000    128.63561    -4983.595   -4735.5105    -4983.595            0    6926.4883    19.735767    19.915781    20.443361    8035.3286    6680.3851    5037.3067     9061.773   -652.73215   -140.00975    730.76959   -3923.8159 
13264000    123.05244   -5002.8362   -4765.5193   -5002.8362            0    4702.9543    19.900168    19.834768    20.602482    8132.1132    5521.5629    3849.7224    4737.5775    63.626312    427.26532    1071.5501   -4207.7558 
13265000    123.62894   -4999.0535   -4760.6247   -4999.0535            0    6755.0967    19.881345    19.631201    20.636559    8054.3391    5769.1731    8005.9102    6490.2067     -531.347    303.59168    203.46801   -3967.1422 
13266000    114.88648   -4985.1367   -4763.5685   -4985.1367            0    4707.6694     19.85899    19.924419    20.572017    8139.9119    5029.7678    4834.7102    4258.5302   -121.81682   -564.30833    134.75064   -4204.7104 
13267000    127.98494   -5006.5874   -4759.7576   -5006.5874            0    4919.2661    19.891351    19.865576    20.486356    8095.2484     3928.782    5908.1465    4920.8699   -166.45639    113.20743    67.634966   -4178.9847 
13268000    120.95264   -5007.6967   -4774.4293   -5007.6967            0    4721.2432    20.025705    19.795708    20.512645    8131.6847    3648.8957    5622.3528     4892.481   -9.4381249    191.43026   -224.52453   -4214.5263 
13269000    121.76048   -4994.8952   -4760.0699   -4994.8952            0    5029.3202     19.87318     19.75786    20.578039     8079.998    4399.0664    5781.5352     4907.359   -188.48963    233.69092    272.98766   -4167.4224 
13270000    124.49947   -5003.0569   -4762.9492   -5003.0569            0     4916.936    19.750524    19.924327    20.577125     8097.426    5452.4624     4103.463    5194.8824   -385.69841    1198.4548    215.68096   -4182.2952 
13271000    119.14746   -5005.6143   -4775.8284   -5005.6143            0    5685.5114    19.915629    19.898667    20.485354    8118.2324    4315.1161     6722.332    6019.0862    -82.87909   -215.29818   -323.10472    -4102.686 
13272000    129.34115   -5009.2564   -4759.8111   -5009.2564            0    5396.9774    19.732692    19.960718    20.548318    8093.5446    7254.2272    3750.5831     5186.122   -65.512055    322.27365    322.57594   -4122.7732 
13273000    115.75581   -5002.5376   -4779.2927   -5002.5376            0    3961.5937    19.790676    20.033315    20.565227     8153.554    5932.9647    2172.7718    3779.0445    -297.3176    990.81424   -170.24256   -4308.2148 
13274000    125.80206   -4982.9086   -4740.2888   -4982.9086            0      5085.66    19.946147    19.886438    20.537332    8146.2929    4267.6602    6188.1639     4801.156   -357.21722    44.012973    -601.2048   -4136.0853 
13275000    128.71366    -4993.545   -4745.3099    -4993.545            0    6340.5763    19.828506    19.823295    20.542168    8074.4343     6898.992    5705.2593    6417.4776    28.176205     442.1259   -218.99893   -3998.6605 
13276000    126.11147   -4989.9545   -4746.7379   -4989.9545            0    4488.4455     19.88333    19.964628    20.505075    8139.7619     3466.946    4804.1221    5194.2684    533.80864    805.34052   -288.95835   -4213.9142 
13277000    124.80683   -4984.1285    -4743.428   -4984.1285            0    6581.1285    19.865258    20.023467    20.333171    8087.9526      7532.53    5836.3531    6374.5024    99.989611   -279.52384   -12.412371   -3967.1543 
13278000    124.07345   -5003.9961     -4764.71   -5003.9961            0    5680.7435    19.793293    20.026908    20.382094    8079.4306    4229.9565    5874.1578     6938.116    214.76949     739.6025    265.10344   -4095.3468 
13279000    130.22461   -5008.9495   -4757.8004   -5008.9495            0    5341.4305     19.99796    19.753318    20.523443    8107.2947    4644.4005    5678.1748    5701.7161   -502.03578    564.06116   -566.24995    -4126.248 
13280000     129.0911   -4996.6918   -4747.7288   -4996.6918            0    5257.7185    19.826231    19.766109    20.605257    8074.9417     4546.062     5845.252    5381.8415   -290.99784   -158.95118    587.38433   -4128.5549 
13281000    126.74319   -4987.2068   -4742.7719   -4987.2068            0    6140.1307    19.863286    19.837843     20.45564    8060.4377    6791.1614    5712.3263    5916.9043     238.5567    167.92775    286.65018   -4020.9798 
13282000    125.74315   -4994.3164   -4751.8102   -4994.3164            0    5028.1404     20.02208    19.788322     20.46915    8109.9458    4687.8904    5347.9073    5048.6234    165.30908    479.15534    251.58766   -4157.1057 
13283000     126.9355   -5003.0173   -4758.2115   -5003.0173            0    5224.1308    19.844517    19.846705    20.546799    8092.3214    5562.6002    4877.5666    5232.2257    225.66996   -382.42536   -154.32067    -4141.669 
13284000      120.709   -5001.2097   -4768.4123   -5001.2097            0    6700.6851    19.649322    19.921216    20.609923     8067.515    7359.7742      5305.03     7437.251   -356.21766    1039.0356    1088.9391   -3980.0336 
13285000      120.768   -5015.5952    -4782.684   -5015.5952            0    5438.8778    19.898705    19.851849     20.48847    8093.4799     5282.454    5735.7925     5298.387   -513.79924   -315.59065    48.501995   -4140.7055 
13286000    118.96806   -5005.8203   -4776.3804   -5005.8203            0    5026.7471    19.840383     19.77609     20.64772    8101.4468    5038.4217    5413.3051    4628.5144   -433.52262     -123.935    353.92829   -4182.4638 
13287000    123.85898   -4999.7564    -4760.884   -4999.7564            0    5948.7933    19.790045    19.856285    20.516263    8062.0044     6776.373    6214.1805    4855.8262    140.24298    1545.0894    -488.7858   -4061.4483 
13288000    127.15789   -4998.3485   -4753.1138   -4998.3485            0    4793.0989    19.939836    19.881848     20.53278    8140.0315     4624.863    4344.2456    5410.1882     -334.143    1094.4593     980.7824   -4184.1058 
13289000    121.40051   -5005.3756   -4771.2445   -5005.3756            0    3942.4924    19.923622    19.837568    20.532171    8115.0575    2679.5739     4052.171    5095.7324    -501.8726   -202.30364   -286.69608   -4304.6513 
13290000    120.63379   -4987.5773   -4754.9249   -4987.5773            0    6984.2464    19.735434    19.773039    20.645325     8056.415    7438.3261    6587.2185    6927.1948    109.84768   -338.43386   -1042.3533    -3934.314 
13291000    121.93338   -4994.1091   -4758.9503   -4994.1091            0    3943.8594    19.798967    19.831462    20.707581    8130.6753    3983.4454    4242.6692    3605.4637    -54.94644    201.04376    75.654257   -4291.2971 
13292000    123.85124   -5003.7095   -4764.8519   -5003.7095            0    5727.5462    19.874504    19.832483    20.526837    8090.8734    6984.4303    3962.0409    6236.1673    -750.3732   -810.15649   -77.617488   -4089.0182 
13293000    133.56653   -5008.4946   -4750.9003   -5008.4946            0    4779.0091    19.904636    19.814471    20.553966    8106.4811    3788.0793    5317.8215    5231.1263   -122.98872    351.49888    931.30026   -4185.9034 
13294000    119.59138   -5004.7148   -4774.0728   -5004.7148            0    5407.8752    19.806747    19.975065    20.418106    8078.2409    4853.8856    5565.7332    5804.0069    131.43135     57.98452   -574.49024   -4136.9555 
13295000     120.5341   -5010.8641    -4778.404   -5010.8641            0    6145.7301    19.855036    19.890455    20.389943    8052.5124    6429.2584    6020.8094    5987.1224   -111.93444    220.86432    252.96951    -4056.664 
13296000    126.77007   -5016.3493   -4771.8625   -5016.3493            0    5762.6607     19.81614    19.900031    20.518646    8091.3596    5945.9384     5543.656    5798.3877   -354.95662    217.38321   -472.93346   -4091.8445 
13297000    124.91468   -5004.4338   -4763.5253   -5004.4338            0     6029.021    19.884562    19.915506    20.437986    8093.6694    6612.7383    4802.8289    6671.4957    -276.6437    1121.4229    830.38595   -4051.8725 
13298000    118.01161    -4997.147   -4769.5517    -4997.147            0    6212.3729     19.91339    19.824156    20.353239    8034.7697     5940.514    6011.2326    6685.3719    335.86852    893.62386     495.4938   -4041.5929 
13299000    126.15092   -5002.0481   -4758.7554   -5002.0481            0    4150.9441    19.814232    19.916576    20.594364    8127.1883    4286.0385    4032.7313    4134.0626   -71.229869   -241.65486   -506.87841   -4266.7577 
13300000    117.99849   -4998.7972   -4771.2272   -4998.7972            0    5563.2318    19.739324    19.778625    20.665104    8068.0014    4513.5117    7114.7415    5061.4424    313.61741    173.73608    367.58461   -4116.6378 
13301000    133.97615   -4987.1173   -4728.7331   -4987.1173            0    5504.8237    19.905163    19.789073    20.608418    8117.7528     5680.804    5960.4992    4873.1679    179.59725    716.48273     31.54425    -4077.022 
13302000    121.65216    -5011.526   -4776.9096    -5011.526            0    4523.2932    19.849733    19.748455    20.845433    8171.4421    4868.4854    4589.3042    4112.0901   -237.39333   -947.66904   -120.30742   -4237.8592 
13303000     118.5395   -5004.8341   -4776.2207   -5004.8341            0    5853.4721    19.765815    19.923521    20.536552    8087.3894    4668.3592    6174.1192    6717.9378    11.352216    624.61083    381.54881   -4085.8255 
13304000    125.25212    -4991.257   -4749.6978    -4991.257            0    5102.4424    19.833825    19.951353    20.504578    8113.9001    6491.0897     3318.452    5497.7854    167.12387    767.76577   -353.54314   -4145.9109 
13305000    122.97278   -4997.3232   -4760.1599   -4997.3232            0    4364.2935    19.908224    19.877054    20.581701    8144.5259    2828.4085    5423.8541    4840.6179    466.18901    1242.3298    769.33159    -4241.771 
13306000    125.87213   -4982.8113   -4740.0563   -4982.8113            0    4419.5026    19.914933    19.799896    20.606339    8125.3594    3056.8912    6249.1544    3952.4621   -225.12636    469.46444   -498.03007   -4216.3451 
13307000    122.36329   -5011.0311   -4775.0432   -5011.0311            0    5829.2957    19.801324    19.831127    20.559129    8073.2116    7176.3479    3844.7734    6466.7657    198.84509    893.90354    490.26287   -4088.7048 
13308000    126.40637   -5000.0377   -4756.2524   -5000.0377            0    5918.2952    20.134477    19.656799    20.412604    8078.8875     5167.387    6219.9282    6367.5704   -454.41386   -278.66777    812.69604   -4058.9453 
13309000    119.38078    -4990.033   -4759.7971    -4990.033            0    6033.2864    19.844917    19.862365    20.465738    8066.9184    6895.8442    5255.4687    5948.5462    257.58937    35.027179   -971.76649   -4049.9946 
13310000    120.08319   -4997.7691   -4766.1786   -4997.7691            0    4919.2229    19.852346    19.932812    20.519881    8119.9853    6075.0919    4271.2739    4411.3029   -873.76984    474.45469   -990.58295   -4183.6361 
13311000    125.19074   -4998.3297   -4756.8889   -4998.3297            0    4880.6709    19.877585    19.964765    20.486295    8130.0131    5253.3242    3844.5756    5544.1128   -331.97522   -1129.6715    1347.6944   -4178.1979 
13312000    130.26809   -4993.7312   -4742.4983   -4993.7312            0    4787.7942    20.048518      19.8992    20.398575    8138.0008    4962.2462    3092.5239    6308.6125    150.71296    -1054.931     953.4272   -4174.2618 
13313000    123.67191   -4982.5596    -4744.048   -4982.5596            0    5369.9402    19.762678    19.824763    20.598837     8070.427    4566.7343    5760.3276    5782.7589   -164.60836    435.25003    1667.7488   -4112.0119 
13314000    116.72052    -4984.073   -4758.9677    -4984.073            0    6216.6815    19.907115    19.757208      20.5418    8079.2752    5681.6591    6862.1469    6106.2384   -153.66915   -839.51021    220.56535   -4026.4689 
13315000    121.73017   -4999.6438    -4764.877   -4999.6438            0    5891.1108    19.882965    19.838933    20.493276    8083.7125    5775.8621    6178.7561    5718.7142    122.98587    367.36514   -898.80653   -4070.3583 
13316000    128.54902   -4988.3137   -4740.3961   -4988.3137            0     5163.025    19.952861    19.773761    20.491898     8084.937    4568.9368     5501.613    5418.5251   -365.81385    704.01176   -1297.1591   -4131.6211 
13317000    116.89019   -4992.3784   -4766.9459   -4992.3784            0    5881.5066    19.944371    19.793198    20.464318    8078.5534    4394.1901    6467.4071    6782.9224     48.67244    1296.2379   -543.03932    -4074.002 
13318000    124.60416   -4997.0407   -4756.7311   -4997.0407            0      5801.64    19.977717    19.698453    20.520603    8075.4757    4901.8899    6923.0243    5580.0058   -259.96057    685.01875    57.263017   -4073.4573 
13319000    115.88989   -5004.4157   -4780.9123   -5004.4157            0    5315.9675    19.890443    19.819936    20.570632    8109.5053    6802.9892    3515.2535    5629.6597   -539.92876    1977.1012   -217.68028   -4152.1991 
13320000     123.9044   -4990.7296   -4751.7696   -4990.7296            0    4507.4041    19.769427    19.964757    20.457066    8074.2359    4306.0688    4266.3313    4949.8121    303.62127    247.32063    425.13196   -4221.0027 
13321000    124.12862    -4997.517   -4758.1245    -4997.517            0    5896.3689    19.970045    19.973112    20.359856    8120.8124    6036.6988    5254.2132    6398.1946   -482.54592    734.43776   -657.14031   -4059.7956 
13322000    128.83001   -4978.2789   -4729.8194   -4978.2789            0    6963.1162    19.891856    19.849942    20.433741    8068.3076    6393.3716    6763.8436    7732.1334    -98.10923   -320.42453    2170.2931   -3910.4835 
13323000    115.47633   -5000.6649   -4777.9591   -5000.6649            0    5331.3689    20.025699    19.742571    20.483828    8098.4615    4609.1465    6234.8057    5150.1545    374.95479    -190.4844    149.43836   -4148.2831 
13324000    119.64068   -5005.5476   -4774.8105   -5005.5476            0    5259.1161    20.036191    19.718694    20.515973    8105.6048    5301.4666    5322.8964    5152.9854    413.17189   -12.877115   -7.8937473   -4153.1202 
13325000    126.74931   -5004.8493   -4760.4026   -5004.8493            0    6262.2605    19.788001    19.892194    20.481445    8062.0445    6133.8404    6293.9558    6358.9852   -54.776145    -224.4535    552.54705    -4024.107 
13326000    128.11067   -5011.0405   -4763.9683   -5011.0405            0    4715.8496    19.842856    19.894546    20.570142    8120.3643    4166.7776    4721.8423     5258.929   -427.79802   -146.00558   -1347.6195   -4205.4835 
13327000    119.31637   -5012.6199   -4782.5082   -5012.6199            0    4670.0774    19.846018    19.875274    20.603239    8126.8453    6641.6531    3332.7135    4035.8657   -72.534361    896.43051   -182.58335   -4229.0027 
13328000    128.74067    -4989.824   -4741.5368    -4989.824            0    6350.1007    19.765703     19.84074    20.552674    8060.0636    6439.4975    6477.7677    6133.0368   -456.98422    722.54741   -275.99552   -3995.0966 
13329000    121.04685    -5003.863    -4770.414    -5003.863            0    5737.5832    19.843251    19.883929    20.475815    8078.9746    5586.9268    5722.9179    5902.9049   -138.57476    377.53266   -195.48729   -4094.3915 
13330000    123.04428   -4986.9882   -4749.6869   -4986.9882            0    6092.1781    20.056775    19.830597    20.339622    8089.8371    5038.2177    6817.7248    6420.5918   -595.47582    718.11582    190.79008   -4030.9197 
13331000     125.9484   -4999.3637   -4756.4616   -4999.3637            0    5307.1782    19.826306    19.881339    20.533141    8093.6204    5754.0161    5563.0193    4604.4993   -777.65847    123.49026    733.71894   -4130.0174 
13332000    118.32593   -4999.0534   -4770.8519   -4999.0534            0     5971.937     19.85948    19.942536    20.337811    8054.7576    5961.9003    4804.9875    7148.9231   -235.95315    246.01105   -433.38062   -4069.3262 
13333000    129.96125   -5002.3265   -4751.6853   -5002.3265            0    6202.2923    19.881656    19.867772    20.382851    8051.3117    6098.0845    4812.4087    7696.3837   -637.31404    252.48775   -343.49527   -4023.4114 
13334000    124.23972   -4984.6991   -4745.0924   -4984.6991            0    4945.6939    19.966691    19.918268    20.420007    8121.0758    4262.4747    5250.4587    5324.1484   -218.72905    88.044934   -69.758115   -4159.3364 
13335000    121.41776   -5005.7514   -4771.5871   -5005.7514            0    5911.7989    19.821719    19.911442    20.539109    8106.3552    5326.6467    5300.5367    7108.2133   -188.96917   -535.93862    679.23784   -4072.6772 
13336000    117.95736    -4997.412   -4769.9214    -4997.412            0    4139.0225    19.959475    19.801058    20.510711    8106.2172    3983.8071    4448.3792    3984.8811   -580.52746   -305.93251      727.385   -4280.6025 
13337000     118.6996   -4998.3885   -4769.4663   -4998.3885            0    4095.0444    20.012827    19.890811    20.428872     8132.149    3617.4685      3933.27    4734.3949    264.22852    333.45655   -635.31063   -4283.7979 
13338000    119.22367   -4992.1517   -4762.2189   -4992.1517            0    6126.2206    19.882522    19.852275    20.532304    8104.3732    6965.3959    5741.3584    5671.9076   -503.98897    365.43554    170.46413   -4038.1365 
13339000    115.98162   -5010.7282   -4787.0479   -5010.7282            0    3728.5271    19.687188     20.00881    20.652326    8135.3062    3525.5361    4396.8553    3263.1898   -351.95603    909.32877   -833.56586   -4344.6764 
13340000    124.29254   -5007.2247   -4767.5161   -5007.2247            0    6047.5612    19.853598    19.752819    20.646204    8096.7091    5699.4797    6630.2415    5812.9625      241.962   -565.22481    928.85717   -4053.4068 
13341000    117.39368   -4994.8266    -4768.423   -4994.8266            0    4632.1101    19.947954    19.824379    20.569323    8134.2586    3956.5289    4885.8291    5053.9722   -137.79128    833.11401     234.7853   -4218.9166 
13342000    123.48128   -5000.4929   -4762.3488   -5000.4929            0    5800.7401    19.940963    19.770652    20.487264    8077.0187    5787.9008    5802.0615     5812.258   -46.050608    169.71329   -56.183103   -4079.0505 
13343000    129.15535   -4996.0838   -4746.9968   -4996.0838            0    5558.5916    19.843634    19.815717    20.493104     8058.213    3476.6829    7084.4331    6114.6587   -167.37865   -415.60118   -520.20227   -4093.7469 
13344000    125.85312   -4997.5486   -4754.8303   -4997.5486            0    6346.3671    19.654927    19.792664     20.65745    8036.2307    6439.9169    5918.6067    6680.5778   -381.00001   -88.742822   -480.81486   -4011.0349 
13345000     116.9245   -5002.4351   -4776.9364   -5002.4351            0    5663.1076    19.890545    19.723325     20.56925    8069.4747    5494.6099    6364.6172    5130.0957   -116.07842   -375.05261   -143.20548   -4110.4735 
13346000     127.6392   -5000.2856   -4754.1226   -5000.2856            0    5545.6379    19.949345    19.814011    20.479172    8094.9364    5236.0501    4719.7738    6681.0899   -296.07347   -599.32474   -171.21876   -4099.4249 
13347000    125.62829   -5001.2256   -4758.9409   -5001.2256            0    5459.1703    19.890539    19.935007    20.372074    8077.8947    5564.8684    5337.7866    5474.8559    351.84834    948.05824    760.22959    -4115.808 
13348000    123.46132   -5002.2688   -4764.1633   -5002.2688            0    4673.7211    19.873068    19.833832    20.600083    8119.7101    4091.1237     5693.648    4236.3916   -105.99422    1494.1362    951.06141   -4210.7122 
13349000    126.10341    -5007.125    -4763.924    -5007.125            0    4646.7848    19.775895    19.734984    20.682179    8071.7784    3909.6185    5623.5661    4407.1697   -521.63021    381.31861     71.45013    -4216.911 
13350000    124.13628   -4999.1807   -4759.7735   -4999.1807            0    6124.4504    19.852562    19.778247    20.530028     8061.092    6404.9734    5998.2435    5970.1342   -663.36896    205.84106    965.91269   -4039.7662 
13351000    119.86584   -5014.4696   -4783.2982   -5014.4696            0    5541.7365    19.945347    19.819941    20.483759     8097.549    5519.2594    5304.3622    5801.5879    2.1880412    838.04099    694.11794   -4128.8499 
13352000    123.80205   -4990.2647   -4751.5021   -4990.2647            0    6833.3668     19.75113    19.726792    20.593948    8023.9463    7816.8148    6123.3682    6559.9176    322.41482    139.48386   -231.54088   -3951.8545 
13353000    122.65786   -4991.5239   -4754.9679   -4991.5239            0     3951.822    20.041363    19.758327    20.536533    8132.1346    2990.4597    5015.2035    3849.8027   -149.04184   -246.37341    -280.7924   -4286.2864 
13354000    127.15976   -4999.4624   -4754.2241   -4999.4624            0    4744.3558    19.861354    19.781716    20.654698    8115.0588    5248.6998    3979.8072    5004.5605   -2.4943074     430.5768    954.89928   -4192.7305 
13355000    126.15544   -4981.0776   -4737.7763   -4981.0776            0    5727.0429    19.794394    19.763536    20.614087      8064.38    5457.7608    6282.9734    5440.3945   -42.796732    56.233139   -542.83035   -4064.2147 
13356000    121.82636   -5008.7637   -4773.8113   -5008.7637            0    5605.0932    19.940428    19.792584    20.506782    8093.4652      6538.79    4760.9349    5515.5547   -229.40796   -266.01747    545.93818   -4112.2147 
13357000    125.94515   -5002.1973   -4759.3015   -5002.1973            0     5746.643    19.913622    19.930219    20.317359    8063.6113    5951.7889    5028.9266    6259.2134   -189.79411    153.68244   -426.47047   -4083.4992 
13358000    122.32269   -4991.6573   -4755.7477   -4991.6573            0     3889.966    19.834874    20.052849    20.504294    8155.4956    5104.0594    2572.4475    3993.3909   -240.64858    519.02798   -282.65957    -4293.077 
13359000    127.31842    -5011.647   -4766.1028    -5011.647            0    4346.3728    19.989265    19.980354    20.442933    8164.7558    2846.9137    4748.4433    5443.7614    82.527775    73.528503    692.41353   -4248.5602 
13360000    126.17248   -4995.1133    -4751.779   -4995.1133            0     4606.846    19.877151    19.856202    20.617953    8137.5909    3144.5805     4871.471    5804.4866   -202.87922   -482.40127    1334.3954   -4205.0459 
13361000    126.40977   -4990.7208   -4746.9289   -4990.7208            0    6033.9969    19.827527     19.83431    20.593886    8098.8609    7345.3331    5406.4642    5350.1933   -80.165602    195.44849   -14.905066   -4034.2319 
13362000    122.34865   -4989.4773   -4753.5176   -4989.4773            0    5882.1374    19.848768    19.748635    20.654909    8096.4369    5345.0293    7020.8476    5280.5353   -298.06998   -75.153603    270.12035   -4058.9652 
13363000     120.8357   -5004.4021   -4771.3603   -5004.4021            0    5063.5065    19.981748    19.831406    20.423574    8093.1715    3818.7098     5868.565    5503.2447    -170.4196   -253.44553   -298.98097   -4173.7116 
13364000    119.58577   -4980.4631   -4749.8319   -4980.4631            0    7043.0733    19.962274    19.810483    20.367035    8054.3946    4776.0921    8110.6281    8242.4998    287.82237    748.73992   -433.94961   -3922.5167 
13365000    123.23802   -5001.3137   -4763.6389   -5001.3137            0    4706.6225    19.814333     19.95325    20.574685    8134.4144    4213.5643    4283.5036    5622.7996   -215.65764    418.08773    175.15021   -4205.2824 
13366000    118.90254   -5010.0821   -4780.7686   -5010.0821            0    5006.4597    19.768213    19.874015    20.707897    8135.5892    5500.3833    4923.7463    4595.2494   -927.74771     527.0418   -911.68995    -4186.756 
13367000    116.99207   -5005.7323   -4780.1032   -5005.7323            0    3963.8943    19.867413    19.928764    20.584059    8149.9076    4671.4728    3579.4033    3640.8067    411.54109   -10.130806    1222.2585   -4308.9625 
13368000    119.78223   -4999.5731    -4768.563   -4999.5731            0    5789.7887    19.753181    19.911846    20.613915    8107.9126    7511.0112    4352.4568     5505.898   -25.020409    574.76798   -511.78988    -4083.946 
13369000    118.54441   -5002.2483   -4773.6255   -5002.2483            0    5602.3884    19.807065    19.859413    20.598594    8102.5945    5515.8393    6690.2757    4601.0503    210.82474    203.76967    188.48917   -4111.6023 
13370000    121.95226   -4993.1943   -4757.9991   -4993.1943            0    5146.2289    20.002428    19.801628    20.410311    8084.1289    5254.1483    4834.2081    5350.3304   -17.202122   -925.77238    956.11222   -4151.2653 
13371000    114.44033   -4995.5449   -4774.8371   -4995.5449            0     6393.822     19.83481    19.866401      20.4322    8051.2326    6447.5526    6298.6433      6435.27   -421.01019     472.8138    -192.3559   -4024.0811 
13372000    126.11973   -4988.3558   -4745.1233   -4988.3558            0    5117.0556    19.964265    19.827449    20.426342    8085.5721    4558.3157    5388.0885    5404.7627   -6.9562016    -12.04618   -380.86223   -4141.7212 
13373000      124.779   -4999.8251   -4759.1783   -4999.8251            0    6561.4305    19.812019    19.889275    20.450149    8058.3136    7232.1283    6516.3888    5935.7745   -289.92315   -353.46476    481.42114   -3988.0643 
13374000    122.44548   -4995.2108   -4759.0644   -4995.2108            0    4481.8516    19.897788    19.754588    20.658139    8120.1487    3638.4687    6165.3821    3641.7039   -340.93078   -31.755964    678.96636   -4228.3055 
13375000    126.16295   -4990.6648   -4747.3489   -4990.6648            0    5780.4797    19.912781    19.796876    20.533257     8094.433    6204.9827    5563.2278    5573.2285   -645.83467   -358.14717   -102.78252    -4064.969 
13376000    118.91714   -5009.1984   -4779.8567   -5009.1984            0     4726.641    19.741343    19.876906    20.676824      8113.52    4725.9805    5195.6514     4258.291    -147.0087    223.21075   -499.80072   -4220.5657 
13377000    122.10338   -5006.2461   -4770.7594   -5006.2461            0    4304.6602    19.895856    19.844379    20.692429    8169.8039    5894.1624    3690.3971    3329.4211    -117.1553    200.17763   -283.62153   -4257.8669 
13378000    121.10425   -5002.4774   -4768.9176   -5002.4774            0    5655.6612    19.884213    19.831679    20.555623    8105.8494    5883.9521    5560.4111    5522.6203    7.4725854    311.09353    265.39513   -4100.3308 
13379000    131.38719   -4988.3918   -4735.0006   -4988.3918            0    7197.1618     19.80804    19.757438    20.599172    8061.6118    6613.1032    7919.5209    7058.8614   -331.34473   -242.88211   -571.13861   -3888.8278 
13380000    122.92731   -5022.8322   -4785.7566   -5022.8322            0    4569.1639    19.833334    19.898574    20.644996    8147.6521    4514.4169    4553.7253    4639.3494   -548.70428    584.54915   -618.44432    -4242.825 
13381000    119.05378   -5009.2743    -4779.669   -5009.2743            0    4481.8808    19.699706    19.773067    20.760148    8086.5676    4535.1285     5516.234    3394.2799   -291.98254   -640.09133      750.801   -4251.1016 
13382000    122.65602   -4982.9086   -4746.3561   -4982.9086            0    6118.7608    19.838886    19.877795    20.503515     8085.629    7261.1638    5140.3892    5954.7294   -441.47083    302.40235    431.06773   -4024.8281 
13383000    129.42417   -4995.8156   -4746.2102   -4995.8156            0    5502.4711    19.907356    19.861553    20.510872    8109.8146    5681.6831    5620.0691    5205.6611    94.199119    58.870242   -231.55538   -4095.4146 
13384000    124.64077    -5010.942   -4770.5618    -5010.942            0     4277.312    19.736868     19.90994    20.665427    8120.6831    4971.8236    3476.1178    4383.9947   -67.209572    487.41588   -63.959239   -4263.9919 
13385000    123.05674   -4998.7509   -4761.4257   -4998.7509            0    6330.9383    19.685417    19.831115    20.650749    8061.7174    6572.7075    7057.1564    5362.9512   -155.49413    166.51027    477.28789   -4017.0853 
13386000    123.23884   -4994.4409   -4756.7645   -4994.4409            0    5193.9204    19.894294    19.814912    20.540965    8097.3242    4016.1427     6988.993    4576.6255   -57.019706   -111.97294   -327.24589   -4143.4084 
13387000    121.55009   -5000.3515   -4765.9319   -5000.3515            0    6881.8423    19.813701    19.693279    20.604656    8039.8699     6704.162    7725.0359    6216.3291   -256.33762    1553.0206    240.46423   -3959.0135 
13388000    121.51933   -4998.9163   -4764.5561   -4998.9163            0    6114.9118    19.885254    19.707454    20.629654    8084.5083    7221.3017    5483.1855    5640.2482   -356.76346   -84.853923     57.12953   -4043.5819 
13389000     120.1562   -5013.0925   -4781.3612   -5013.0925            0     6756.103    19.903494    19.864027    20.360782    8049.9111    6740.8211    6341.3172    7186.1707   -408.86495    570.58408    -666.2675   -3988.1967 
13390000    122.77595   -4986.1268    -4749.343   -4986.1268            0    5714.3865    19.817082    19.796216    20.485511    8036.5321    5768.4725    4901.4738    6473.2131    266.32389   -641.15523   -508.97773   -4079.5908 
13391000    121.89793   -4999.9665    -4764.876   -4999.9665            0    5217.2884    20.048087    19.853181    20.389191    8115.2711    4268.5261    6111.7968    5271.5423   -652.09903   -236.82624   -1217.0433   -4147.3948 
13392000      120.334   -4998.9339   -4766.8597   -4998.9339            0    4823.2257    19.868697    19.878189    20.607406    8138.9716    5030.5252    4597.0405    4842.1114    -262.6787   -468.42953   -639.94736   -4194.3498 
13393000    120.73737   -5001.2127   -4768.3606   -5001.2127            0    4404.7466    19.690375    20.067558    20.575696    8130.2341    4802.2046     4915.576    3496.4593   -106.23454    1082.7053    434.64565   -4246.0848 
13394000    124.23288   -5000.5798   -4760.9863   -5000.5798            0    5537.1713    19.938198    19.817266    20.496918    8098.7538    6441.3518    4515.6513    5654.5109    268.71567   -250.12991   -249.19175   -4106.9798 
13395000     118.7473   -4995.6942     -4766.68   -4995.6942            0    3888.5125    19.811242    20.060834    20.518336    8154.6029    4830.3389    2565.6244    4269.5742     9.156763    819.29932    67.731187   -4304.2328 
13396000     128.0309   -5016.7215   -4769.8032   -5016.7215            0    4744.1469    19.823239    19.949636    20.431933    8080.1431    4145.9845    4662.3969    5424.0593   -242.64711   -492.73344    1162.4268   -4210.7501 
13397000    119.89854   -5007.9071   -4776.6727   -5007.9071            0    5213.5608    19.963366    19.865378    20.423619    8099.5947    5757.0198    3983.4966    5900.1659   -27.258097   -192.63998   -1028.6311   -4160.8246 
13398000    121.68752   -5004.9798   -4770.2952   -5004.9798            0    4521.8179    19.778441    19.974381    20.448191    8078.3059    4284.9918    3970.9477     5309.514   -574.94491    696.14802    176.79319   -4237.5626 
13399000    124.50904    -4985.246   -4745.1199    -4985.246            0    6150.0852    19.874674    19.908683    20.347982     8051.261    7327.4401    4083.5468    7039.2687   -450.54963    343.28677    124.27596   -4022.9806 
13400000    121.94779   -5000.7582   -4765.5716   -5000.7582            0    5623.6877    19.902217    19.842401    20.476669    8086.3955    4964.3239    6267.6971     5639.042    7.4209119    590.74336    280.74234   -4102.3601 
13401000     132.0095   -4993.0709   -4738.4795   -4993.0709            0    5198.7307    19.842314    19.914755    20.408543    8064.5343    5554.6905    4242.6497     5798.852   -245.34658    682.38376   -482.66222   -4127.0414 
13402000    126.17062   -4996.9591   -4753.6284   -4996.9591            0    6017.5771    19.858912     19.82689    20.597239    8109.9665    5632.7731     6602.851    5817.1072   -582.37514     1133.647    453.45369   -4041.8962 
13403000    122.30303   -4999.5195   -4763.6479   -4999.5195            0    6018.4784      19.9674    19.785222    20.524446    8108.3765    4402.3727    7136.3345    6516.7281    58.921794   -91.208292   -449.96261   -4051.9486 
13404000    128.36361   -5007.5812   -4760.0211   -5007.5812            0     4938.214    19.743932    19.900217    20.568989    8081.7311    4498.0856    5608.0289    4708.5275    533.94524    72.712182    966.35093   -4177.9847 
13405000    120.89137   -4995.0464   -4761.8972   -4995.0464            0    5737.5981    19.755975    19.891351    20.541888    8072.4079     6804.365    5190.8102    5217.6192   -680.70475   -218.66123    381.23064   -4086.4224 
13406000    114.79149   -4995.1391   -4773.7541   -4995.1391            0    4004.8603    19.733578    19.960294    20.556244    8096.8581    4626.6085    3136.2549    4251.7175   -227.00456    258.53035     388.4125   -4300.8426 
13407000    131.22435   -5005.4524   -4752.3752   -5005.4524            0    6976.6847    19.933172    19.640052    20.523178    8034.5889    6003.3242    8150.1672    6776.5629   -620.06237   -393.72039     1042.395   -3934.8735 
13408000    114.85797   -4998.5314   -4777.0182   -4998.5314            0    5679.6608    19.784678    19.859872     20.52911    8066.3222    5798.8756    5020.4535    6219.6533   -130.47068    137.25942    644.76323   -4108.8684 
13409000    122.43332   -5007.0577   -4770.9347   -5007.0577            0    4183.1782    19.785028    20.061084    20.457579    8119.7996    5383.3009    2382.5518    4783.6818   -53.713654     1062.971      1074.46   -4275.5672 
13410000    131.12324   -5011.7725   -4758.8903   -5011.7725            0     5108.806    19.830729    19.949409    20.481354    8102.6556    4382.4787    4641.4256    6302.5138   -543.28164   -871.56927   -4.3459709   -4155.1882 
13411000    124.33153   -5009.8315   -4770.0477   -5009.8315            0    6459.7172    19.986583    19.734506    20.508655    8089.1335    5833.8409    6790.6712    6754.6396   -437.99238   -509.13729   -251.99667   -4007.9838 
13412000    123.13386   -4996.3226   -4758.8486   -4996.3226            0    5260.1616    19.853477     19.96396    20.474147    8115.0106    4492.4605    5097.7926    6190.2316   -241.04442    223.86988    -749.0264   -4136.3132 
13413000     123.5863   -4998.2885   -4759.9419   -4998.2885            0    4667.6869    19.927443    19.935425    20.433822    8117.5824    4260.5418    4059.4987    5683.0201   -428.55094    850.12559     242.8688   -4207.3503 
13414000    122.44804   -5005.1654   -4769.0141   -5005.1654            0    5934.5788    19.819008    19.940862    20.447913    8081.1811     6598.073    5446.3384     5759.325   -155.64236   -432.05806   -288.16598   -4069.5899 
13415000    129.10182   -5018.5939   -4769.6101   -5018.5939            0    4770.4602    19.907902    19.834326    20.600373    8134.2597    3861.8443    5121.4338    5328.1024   -742.95986   -282.00801   -599.71121   -4203.6912 
13416000    121.48977   -4989.7252   -4755.4219   -4989.7252            0    5439.6068     19.68596    19.947063    20.684147    8122.1905    5046.1702    5888.0623    5384.5879    144.67269    1364.0551    399.53557   -4111.0797 
13417000    125.57638    -5003.017   -4760.8324    -5003.017            0    5608.4476    19.736174    19.840452    20.666853    8092.6148     6147.787    5433.5171    5244.0386   -3.5689936    -18.34907   -541.56058   -4098.9095 
13418000    135.17526   -5006.7448    -4746.048   -5006.7448            0     5221.945    19.873341    19.720475    20.717651    8119.4905    4210.6059    6477.2746    4977.9545    66.520287   -632.36304    359.25232   -4127.6943 
13419000    128.75532   -4999.1313   -4750.8158   -4999.1313            0    5938.9651    19.838434    19.861599    20.597608    8115.9318     5687.021    5323.9976    6805.8766    -160.5418   -247.41916     600.6405   -4047.8648 
13420000    122.69771   -4992.9575   -4756.3246   -4992.9575            0    6300.3231    19.909165    19.880524    20.381631     8067.144    6766.6167    5841.5913    6292.7613   -183.75203    393.76021   -1019.7751   -4015.0852 
13421000    128.64549   -5004.1849   -4756.0813   -5004.1849            0    4748.3916    19.917861    19.949794    20.467467    8132.8959    4581.0981    4288.1801    5375.8964    236.03449   -466.92384    446.96327   -4192.8748 
13422000    122.56176   -5005.5206     -4769.15   -5005.5206            0    5628.4696    19.820399    19.831428     20.58107    8089.7357    5708.7784    5567.4061    5609.2243   -289.38892    124.88944   -1196.9198   -4105.1003 
13423000    119.62031   -4998.9711   -4768.2733   -4998.9711            0     6219.205    19.894047    19.823068    20.403409    8046.3097    4184.9352    7633.1822    6839.4976    630.31497    380.61243   -119.43638   -4038.4672 
13424000    126.46321   -5004.5173   -4760.6224   -5004.5173            0    6255.0096    19.801542    19.827405    20.569873    8076.0036    7323.0681    5706.5725    5735.3882   -263.04743    601.93675     771.4583   -4023.9059 
13425000    125.77554    -5007.175   -4764.6063    -5007.175            0    5631.4234    19.846947    19.788104    20.600609    8090.5482    5962.2418    5828.6781    5103.3503    403.91473   -528.74559    196.10418   -4100.1414 
13426000    119.70541   -5006.6619   -4775.7999   -5006.6619            0    4671.0668    19.932106    19.918469    20.426528    8109.6795    3763.6996    3885.4661    6364.0347   -63.191932    32.963427    301.21241   -4223.3465 
13427000    122.68849   -4996.2382   -4759.6232   -4996.2382            0    5302.9329    19.861896    19.921518    20.440084    8087.7145    6702.8614    4407.6752    4798.2621   -166.84296   -355.54867   -528.31211   -4134.1368 
13428000    121.52977   -4992.8397   -4758.4593   -4992.8397            0    6051.3752    19.857535    19.909177    20.513033    8109.7698    6142.9816    4761.3292    7249.8149   -310.95228    220.22055   -139.49314    -4042.747 
13429000     125.8801   -4992.3413    -4749.571   -4992.3413            0    5246.3926    19.879627    19.916853    20.474778    8106.7756    4493.7794    5989.4266    5255.9717    151.28166     100.3813     519.2779   -4129.2952 
13430000    128.90613   -5002.9068   -4754.3004   -5002.9068            0    5148.0582    19.858977    19.900153    20.462867    8086.8568     4942.241    5039.5442    5462.3894    -425.8232     1305.777   -941.49867   -4147.1461 
13431000    120.77987    -4997.733   -4764.7989    -4997.733            0    5404.7725    19.695855    19.915117    20.644352    8097.6492    7260.0795    4409.5276    4544.7103    248.57181    1992.4354    77.286816   -4126.5174 
13432000    122.11908   -5000.7323   -4765.2154   -5000.7323            0    5511.4161    19.753767    19.949527    20.596939    8116.8065    6287.7525    4881.0411    5365.4547    2.8240401    -280.7857   -470.59682   -4112.7998 
13433000    118.91184   -5004.2651   -4774.9336   -5004.2651            0    5511.3996    19.973587    19.756889    20.545108    8107.4273    5773.1806     5636.284    5124.7343    -211.9652   -76.680047    96.127808   -4123.2739 
13434000    116.84839   -4999.7077   -4774.3557   -4999.7077            0    4202.3169    19.882894    19.841734     20.52886    8098.8633    4469.3814    4045.5868    4091.9825    314.28037    444.82988   -474.35644   -4278.0049 
13435000     124.9343   -4988.8925   -4747.9462   -4988.8925            0    4954.5189    19.938741    19.783429    20.446378      8065.21    3554.8779    6083.4512    5225.2275    -113.4809    592.14573   -856.45488   -4165.1817 
13436000    124.84259   -4993.7497   -4752.9803   -4993.7497            0     4729.907    19.790983    19.934493    20.619057    8134.6966      3691.25    5213.4696    5285.0015   -274.17892    844.23543     -712.601    -4191.842 
13437000    119.29009   -4999.6988   -4769.6378   -4999.6988            0    5077.3297    19.940205    19.656728    20.721117    8121.8323     6030.857    4503.3581    4697.7741   -746.89006   -154.19668    457.45315   -4168.2353 
13438000    125.01762   -4995.3766   -4754.2696   -4995.3766            0    6028.4364    19.928178    19.826033    20.473332     8088.946    5779.6284    5853.0937     6452.587    46.531922   -370.47596    472.76321   -4043.1011 
13439000    126.07155   -5017.4917   -4774.3521   -5017.4917            0    5523.4599    19.912073     19.76795    20.503729    8070.6953    5746.6696    5831.6958    4992.0144     31.63525    266.28076   -711.53039   -4124.2253 
13440000    128.87793   -4992.0103   -4743.4583   -4992.0103            0     5662.637     19.89869    19.774494      20.5673    8092.9556      5043.69    6392.9164    5551.3047    399.42839    485.15299    805.81225   -4075.1117 
13441000    124.29439   -4998.2355   -4758.5233   -4998.2355            0    4984.6765    19.861476    19.775285     20.60277    8092.0749    4138.4501     5813.779    5001.8003   -36.144278    470.16184   -219.89126   -4170.2587 
13442000    130.49779    -5007.633   -4755.9571    -5007.633            0    4741.8585    19.868567    19.894999    20.533038    8116.4042     6377.861    3025.4077     4822.307    644.59452    168.55534    73.569512    -4194.666 
13443000    123.77766   -4993.8287    -4755.113   -4993.8287            0    5577.0125     19.76803    20.015962    20.393985    8069.4134    5193.9231     6186.432    5350.6825   -505.06518    564.89852     423.6932   -4098.7872 
13444000    122.85463   -4994.3645    -4757.429   -4994.3645            0    4239.9685    19.997059     19.90034    20.567552     8184.822    4263.4262    3590.3281    4866.1511   -305.35958    952.17787   -681.11401   -4251.3157 
13445000    120.39951   -4997.0019   -4764.8013   -4997.0019            0     4095.793     19.82643    19.932221    20.652577    8161.5838    4350.0049     4185.981    3751.3932   -36.282888    397.59812     1396.071   -4277.2859 
13446000    120.36507   -4997.8381   -4765.7039   -4997.8381            0     4764.284    19.833663     19.83204    20.629298    8114.3692    4487.3806    5171.8967    4633.5747    -255.2018    1237.9939    163.52251   -4201.8997 
13447000     119.5903   -4991.3307   -4760.6907   -4991.3307            0    4814.2045     19.94254    19.911666    20.370023    8088.7162    3566.0201    4542.3471    6334.2463   -970.07892   -289.06036   -689.80928   -4192.7801 
13448000    124.74761   -4998.3887   -4757.8024   -4998.3887            0    6165.7032    19.884417    19.944221    20.360081    8074.3849    5906.5178     6231.467    6359.1247   -62.384122    979.16389    1114.7369   -4031.7501 
13449000    127.40073   -4990.7581   -4745.0551   -4990.7581            0    6444.1098    19.876541    19.901479    20.466719    8096.0724    7197.3428     5517.745    6617.2416   -366.61736    763.64832     195.2026   -3984.1802 
13450000    121.53724   -5007.1084   -4772.7136   -5007.1084            0    4838.4714    19.835167    19.908673    20.607989    8137.9272    5331.5296    4579.5923    4604.2923    35.364979   -68.413978    -652.1303   -4198.4677 
13451000    120.45662   -5000.9843   -4768.6736   -5000.9843            0    4813.3367    19.897268    19.862904    20.571921     8130.384    3844.9541    5460.4718    5134.5842      5.24789    7.2251714    140.91661   -4197.9403 
13452000    120.63612   -4996.7049    -4764.048   -4996.7049            0    3930.5956    19.921636    19.710047    20.792931    8164.4774    3878.4384    4853.0931    3060.2553   -238.18094   -363.03093    -26.68698   -4296.0299 
13453000    121.20134   -5009.7341   -4775.9871   -5009.7341            0    5216.5778    19.900871    19.743692    20.603004    8095.2635    3702.5922     6010.035    5937.1061   -580.64627   -458.13865    930.20846   -4160.1121 
13454000    119.45951   -5004.8658   -4774.4781   -5004.8658            0    5087.4311    19.843773    19.898177    20.525517    8104.6012    5468.6294    4410.8711     5382.793   -444.76524   -585.19219    63.068476   -4173.1575 
13455000    122.15695   -5006.1493   -4770.5594   -5006.1493            0    6491.3227     19.75834    19.906991    20.458599    8046.9623    6319.9591    6513.8917    6640.1174   -178.17943    223.12461     921.9895   -4008.7592 
13456000    119.62857    -5004.801   -4774.0873    -5004.801            0    5258.7213    19.766286    19.965001    20.463974    8075.7783    5841.5004    4210.4232    5724.2401    146.37592   -350.59047    47.711135   -4154.7312 
13457000    122.28202   -5001.0228   -4765.1916   -5001.0228            0    4732.3532    19.800054    19.966323    20.486709    8099.0977    3926.7537    4686.5659      5583.74   -331.20051     71.75782   -531.13392   -4206.2201 
13458000    126.97844   -5002.8605   -4757.9719   -5002.8605            0    4757.3643    19.849508    19.879633    20.509866    8093.2121     3990.893    4826.4405    5454.7594   -318.58054   -121.18945    253.53512   -4196.4545 
13459000    125.60632   -5003.8279   -4761.5856   -5003.8279            0    5481.3114    19.838706    19.802682    20.561044    8077.6034    5318.0627    5432.5746    5693.2968   -39.618809    627.84435   -1881.8614   -4115.8676 
13460000    127.48513   -4994.3384   -4748.4726   -4994.3384            0    5424.4274    19.864889     19.82004    20.623163    8119.8114    5373.9501    5668.3334    5230.9985    107.17878   -758.04094   -1234.1475   -4106.1167 
13461000    121.53646   -4992.8489   -4758.4556   -4992.8489            0    6844.5435    19.926523    19.765767    20.468415    8061.7514    6192.3398    7790.0088     6551.282    25.565766   -612.17637   -778.88939   -3953.7264 
13462000    122.84989   -5000.6367   -4763.7104   -5000.6367            0    4255.4933    19.930428    19.891304    20.534738    8140.8371     4382.454    4724.3406    3659.6852    10.960299   -199.52793   -424.33882   -4258.4737 
13463000    129.15537   -5002.8121   -4753.7251   -5002.8121            0    5031.4711    19.880506    19.982961    20.412494    8109.2995    5098.8797    4585.2076    5410.3259   -242.23501    779.81858     785.0685   -4158.6741 
13464000    122.46967   -4989.1702   -4752.9772   -4989.1702            0    7076.9464    19.818524    19.753978    20.561655    8049.7789    6733.7376    7937.2353    6559.8665   -592.30142    111.12038    301.29032   -3922.1595 
13465000    113.46808   -5001.1193   -4782.2866   -5001.1193            0    5589.8462    19.842022    19.929348    20.443281    8084.0618    6691.6844    4707.3119    5370.5424   -17.749178    1170.9738   -187.93305   -4123.2563 
13466000    118.48659   -4995.7818   -4767.2704   -4995.7818            0    5153.1109    20.023792    19.884891    20.320278    8090.9435    5817.4058    3955.4104    5686.5164   -298.92015   -338.64481   -115.20875    -4159.213 
13467000    122.46102   -5017.1683   -4780.9919   -5017.1683            0    5818.6392    19.917618     19.89828    20.407816    8088.1549     5720.254    4991.6001    6744.0635   -406.18471   -243.95129    54.334847   -4094.6401 
13468000    127.86571   -5002.2216   -4755.6218   -5002.2216            0    4210.9051    19.972579    19.973329    20.453435    8159.2613    4031.5314    3704.7709    4896.4131   -130.78183    846.27767    179.96321   -4254.5475 
13469000    122.88974   -4994.3129   -4757.3097   -4994.3129            0    4936.4908    19.917289    19.694462     20.69421    8117.5165    4783.6729    6255.6955    3770.1041   -465.00781   -281.32594    526.64358      -4172.9 
13470000    121.80933   -5010.0823   -4775.1628   -5010.0823            0    5114.1837    19.758171    19.836243    20.649487    8093.1098    4906.6985    5571.2305     4864.622   -963.67163    225.41048    663.47702   -4171.5372 
13471000    121.24147    -4998.881   -4765.0566    -4998.881            0     4720.721      19.7284     19.81306    20.765892    8116.9712    5112.1916    4675.5042    4374.4671    83.838777    609.12607   -1109.7263   -4206.2285 
13472000    124.96481   -5014.9619   -4773.9568   -5014.9619            0    4742.4925    19.853713    19.850248    20.617664    8125.4447    3274.1981    6167.9942    4785.2852   -138.48741    1239.4864    929.93619   -4211.9654 
13473000     124.2525   -5006.0058   -4766.3744   -5006.0058            0    6389.8356     19.74477    19.746663    20.662525    8056.1802     6145.932    7014.1954    6009.3796   -291.22032   -431.35932    -1519.698   -4015.6254 
13474000    127.21821   -5007.9319   -4762.5809   -5007.9319            0    5957.9467    19.807864    19.801737    20.494691    8038.6351    6705.5129    5114.7623     6053.565   -461.84396    1188.7078   -220.62422   -4064.0995 
13475000    118.71965   -4996.7539   -4767.7931   -4996.7539            0    6024.3217    20.022521    19.589678    20.528851    8052.1286    3617.8664    8417.6725    6037.4261   -369.96936     597.2364   -83.904836   -4060.3447 
13476000    125.08265   -5001.1306   -4759.8982   -5001.1306            0     6183.366    19.863562    19.915095    20.370407     8058.222    6769.9345    5987.1646    5792.9988   -193.47712   -596.30531    176.39044   -4033.2234 
13477000    132.86057   -4997.6792   -4741.4464   -4997.6792            0    3382.2941    19.954431    19.990238    20.533333    8190.6195    2368.7487    3913.7283    3864.4053    -937.8361    697.34025   -416.51794   -4337.4253 
13478000    128.25501   -4995.8284   -4748.4779   -4995.8284            0    5273.2625    19.877706    19.823035    20.552728    8098.5241    5349.9301    5304.9041    5164.9532    137.55322     443.8639    550.72299   -4125.6599 
13479000    128.70801   -4998.9196   -4750.6954   -4998.9196            0    6304.6656    19.799673    20.020693     20.38645    8081.2538     8016.216    4604.3209    6293.4599   -152.92618    562.27868   -288.12947   -4007.6477 
13480000    127.38057   -4994.8658   -4749.2017   -4994.8658            0    4513.9868    19.925289    19.926701    20.516359    8145.9234    4592.2659    3790.8396    5158.8547    302.35403   -542.07971   -46.097275   -4212.9404 
13481000    126.43392   -4999.1139   -4755.2754   -4999.1139            0    4475.4826    19.949235    19.964394    20.525996    8174.9783    4574.6357    3846.0746    5005.7374   -245.96687   -254.33296    1143.5828    -4221.692 
13482000    124.35118   -4995.5855   -4755.7638   -4995.5855            0    5685.7974    19.788774    19.804417    20.604999    8075.2044    4410.1513    7500.3602    5146.8805   -514.98232   -660.77741   -192.94637   -4086.1556 
13483000    118.91862   -4998.5661   -4769.2216   -4998.5661            0    4651.6485    19.836606    19.771543    20.687691     8113.719    4252.1389    6120.0184     3582.788   -158.74754    389.56016   -744.83715   -4218.7908 
13484000    125.46763   -4993.8565   -4751.8816   -4993.8565            0    5952.4123    19.681817    19.965497    20.640747    8110.9315    6951.8715    6493.8815    4411.4839   -182.22932    172.66661   -778.36997   -4047.7731 
13485000    118.32265   -5000.5326   -4772.3374   -5000.5326            0    5693.8077       19.934     19.76555    20.548299    8096.1628    5760.8985    6346.6976    4973.8271   -375.62801    767.99856   -58.129805   -4100.0454 
13486000    119.94041   -5003.6571   -4772.3419   -5003.6571            0     4419.567     19.86729    19.843974    20.666689    8147.7592     2771.916    5689.1366    4797.6486    195.82698   -531.71163    799.01039   -4247.1793 
13487000    121.91152   -4998.1149   -4762.9983   -4998.1149            0    5876.1003    19.863552    19.681616    20.600209    8053.5858    5863.4308    5564.6842    6200.1859    9.5630723    717.24545    375.16202    -4072.831 
13488000    127.59726   -5003.7369   -4757.6549   -5003.7369            0    4244.2703    19.884926    19.876552    20.565827    8128.5146    4014.0807    4620.2273    4098.5029   -172.76779    1404.4587   -1.7431725   -4254.5134 
13489000    121.85252   -5001.1559    -4766.153   -5001.1559            0    4955.0104    19.809634    19.958896    20.483209    8098.6189     6415.362    3849.7787    4599.8905   -271.77651    1157.2977    732.02055   -4180.9165 
13490000    130.20303   -5006.6551   -4755.5476   -5006.6551            0    4961.9336    19.878652    19.971066    20.354677    8080.7635    4132.0855    4960.5283    5793.1869    254.07543    1276.9775   -672.06669   -4170.7855 
13491000    119.51011   -5002.4555   -4771.9702   -5002.4555            0    6085.9192    19.880946    19.895921    20.439721    8084.9264     6435.156    5291.8639    6530.7376   -225.82154    706.02392    1384.6062   -4054.3773 
13492000    122.75363   -4997.0699   -4760.3292   -4997.0699            0    6884.8871    19.992528    19.691361    20.520339    8078.4489    6686.2455    8582.3457    5386.0701   -610.01615    293.72466    4.0596553   -3949.1801 
13493000    123.50048   -4991.1011   -4752.9201   -4991.1011            0    5977.8234    19.819502    19.911265     20.47602    8080.4794    5994.8035    5269.1687    6669.4981   -50.897137    35.762312    298.53054   -4048.4605 
13494000     127.6548   -4997.0525   -4750.8595   -4997.0525            0    6020.8037    19.842114    19.830569    20.513297    8071.5806     6626.281    5579.8663    5856.2637   -160.79419    1085.5104    154.86732   -4042.1162 
13495000    128.44598   -4991.4957   -4743.7768   -4991.4957            0    5105.8544    19.818509     19.83814    20.652621    8119.8333     4928.464    6594.2369    3794.8622    135.51542   -1037.7969    1279.9283   -4139.1444 
13496000     122.6705   -4989.8872   -4753.3068   -4989.8872            0    6237.7518    19.879063    19.807809    20.563237    8096.9939    7378.4302    6383.7288    4951.0965   -378.35233    -399.8542     812.2806   -4016.7134 
13497000    127.66808   -5011.8598   -4765.6411   -5011.8598            0    4765.5428    19.924398     19.85843    20.468969    8098.9013    3557.4011    5233.0825    5506.1448   -146.70572     324.5753    1203.9372    -4202.763 
13498000    124.77528    -4985.217   -4744.5774    -4985.217            0    5595.6869    19.672349    19.890359    20.551306    8041.5222    5521.6355    5047.0834    6218.3418   -776.04024    723.23364    344.73917     -4088.33 
13499000    124.22102   -5010.9217    -4771.351   -5010.9217            0      5358.35    19.924386     19.69701    20.658152    8107.3092    5544.2832    5316.6886    5214.0782   -373.36063    773.46236   -9.0880432   -4137.7969 
13500000    129.22283   -4995.7963   -4746.5792   -4995.7963            0    4833.7498    19.974437    19.725669    20.696968    8154.7944    4361.2511    5109.2877    5030.7107   -101.88673   -172.92378    -466.3719   -4171.7047 
Loop time of 346.34 on 64 procs for 250000 steps with 972 atoms

Performance: 124.733 ns/day, 0.192 hours/ns, 721.835 timesteps/s
99.1% CPU use with 64 MPI tasks x 1 OpenMP threads

MPI task timing breakdown:
Section |  min time  |  avg time  |  max time  |%varavg| %total
---------------------------------------------------------------
Pair    | 19.16      | 28.195     | 38.676     |  86.6 |  8.14
Bond    | 0.25676    | 0.27419    | 0.28529    |   1.1 |  0.08
Kspace  | 133.89     | 144.43     | 153.64     |  38.9 | 41.70
Neigh   | 0.91284    | 0.92506    | 0.94106    |   0.6 |  0.27
Comm    | 82.39      | 83.217     | 84.588     |   6.7 | 24.03
Output  | 0.61334    | 0.61416    | 0.61559    |   0.0 |  0.18
Modify  | 82.456     | 83.703     | 84.368     |   5.1 | 24.17
Other   |            | 4.982      |            |       |  1.44

Nlocal:        15.1875 ave          20 max          11 min
Histogram: 1 5 13 5 12 10 6 9 2 1
Nghost:        2288.38 ave        2329 max        2260 min
Histogram: 5 10 7 10 10 9 4 6 2 1
Neighs:        4826.83 ave        7086 max        3450 min
Histogram: 7 8 9 15 7 8 5 2 2 1

Total # of neighbors = 308917
Ave neighs/atom = 317.81584
Ave special neighs/atom = 2.0000000
Neighbor list builds = 2638
Dangerous builds = 0

unfix		3
unfix		2
unfix		1

write_data	data.final.${pid}
write_data	data.final.1
System init for write_data ...
PPPM initialization ...
  extracting TIP4P info from pair style
  using 12-bit tables for long-range coulomb (../kspace.cpp:340)
  G vector (1/distance) = 0.37294303
  grid = 24 24 25
  stencil order = 5
  estimated absolute RMS force accuracy = 0.0033431789
  estimated relative force accuracy = 1.0067884e-05
  using double precision FFTW3
  3d grid and FFT values/proc = 2366 288
Last active /omp style is kspace_style pppm/tip4p/omp
WARNING: Not all mixed pair coeffs generated from mixing. Use write_data with 'pair ij' option to store all pair coeffs. (../write_data.cpp:312)

write_restart   restart.lmp.${pid}
write_restart   restart.lmp.1
System init for write_restart ...
PPPM initialization ...
  extracting TIP4P info from pair style
  using 12-bit tables for long-range coulomb (../kspace.cpp:340)
  G vector (1/distance) = 0.37294303
  grid = 24 24 25
  stencil order = 5
  estimated absolute RMS force accuracy = 0.0033431789
  estimated relative force accuracy = 1.0067884e-05
  using double precision FFTW3
  3d grid and FFT values/proc = 2366 288
Last active /omp style is kspace_style pppm/tip4p/omp
Total wall time: 0:05:46
