LAMMPS (30 Jul 2021)
  using 1 OpenMP thread(s) per MPI task
package omp 0
using multi-threaded neighbor list subroutines
echo both

include		in.partitions
variable        pid world 0
include		in.temp
variable        temperature equal 267.50
variable	tempDamp equal 100.0
include		in.pressure
variable        pressure equal 10125.0
variable        pressureDamp equal 1000.0 # This is 1 ps
include		in.seed
variable        seed world 745823

units		real
atom_style	full
read_restart	restart.lmp.${pid}
read_restart	restart.lmp.0
Reading restart file ...
  restart file = 30 Jul 2021, LAMMPS = 30 Jul 2021
  restoring atom style full from restart
  orthogonal box = (0.66654892 1.8766379 0.81318813) to (17.541023 21.752540 21.400008)
  4 by 4 by 4 MPI processor grid
  restoring pair style lj/cut/tip4p/long/omp from restart
  restoring bond style harmonic/omp from restart
  restoring angle style harmonic/omp from restart
  864 atoms
  576 bonds
  288 angles
Finding 1-2 1-3 1-4 neighbors ...
  special bond factors lj:    0        0        0       
  special bond factors coul:  0        0        0       
     2 = max # of 1-2 neighbors
     1 = max # of 1-3 neighbors
     1 = max # of 1-4 neighbors
     2 = max # of special neighbors
  special bonds CPU = 1.983 seconds
  read_restart CPU = 2.493 seconds
include 	in.setup
variable	out_freq equal 1000
variable	out_freq2 equal 10000
variable	out_freq3 equal 1000

timestep	2.0

neigh_modify    delay 7 every 1

include		in.tip4p
# This is TIP4P/Ice

# create groups ###
group ox type 2
288 atoms in group ox
group hy type 1
576 atoms in group hy

# set charges - beside manually ###
set group ox charge -1.1794
Setting atom values ...
  288 settings made for charge
set group hy charge 0.5897
Setting atom values ...
  576 settings made for charge

# ### TIP3P Potential Parameters ###
pair_style lj/cut/tip4p/long/omp 2 1 1 1 0.1577 8.5
pair_coeff 1 1*2 0.000 0.000
pair_coeff 2 2 0.21084 3.1668
bond_style  harmonic
bond_coeff  1 450 0.9572
angle_style harmonic
angle_coeff 1 55 104.52
kspace_style pppm/tip4p/omp 1.0e-5
pair_modify tail yes

thermo          ${out_freq}
thermo          1000
thermo_style    custom step temp pe etotal epair emol press lx ly lz vol pxx pyy pzz pxy pxz pyz enthalpy

restart 	${out_freq3} restart.lmp.${pid} restart2.lmp.${pid}
restart 	1000 restart.lmp.${pid} restart2.lmp.${pid}
restart 	1000 restart.lmp.0 restart2.lmp.${pid}
restart 	1000 restart.lmp.0 restart2.lmp.0


include         in.dump
dump            myDump all atom ${out_freq2} dump.water.${pid}
dump            myDump all atom 10000 dump.water.${pid}
dump            myDump all atom 10000 dump.water.0
dump            myDump2 all dcd ${out_freq2} dump.dcd
dump            myDump2 all dcd 10000 dump.dcd
dump_modify     myDump append yes
dump_modify     myDump2 append yes


variable natoms 	equal  "count(all)"                        # NUMBER ATOMS
variable H      	equal  "enthalpy/v_natoms"                 # ENTHALPY-per-atom
variable Vol      	equal  "vol/v_natoms"                 # volume-per-atom
fix AVG all 		ave/time ${out_freq} 1 ${out_freq} v_Vol v_H file vol_enthalpy.dat
fix AVG all 		ave/time 1000 1 ${out_freq} v_Vol v_H file vol_enthalpy.dat
fix AVG all 		ave/time 1000 1 1000 v_Vol v_H file vol_enthalpy.dat


timer           timeout 23:50:00 every 1000
New timer settings: style=normal  mode=nosync  timeout=23:50:00

fix 		1 all shake 1e-6 200 0 b 1 a 1
       0 = # of size 2 clusters
       0 = # of size 3 clusters
       0 = # of size 4 clusters
     288 = # of frozen angles
  find clusters CPU = 1.668 seconds
fix             2 all nph iso ${pressure} ${pressure} ${pressureDamp}
fix             2 all nph iso 10125 ${pressure} ${pressureDamp}
fix             2 all nph iso 10125 10125 ${pressureDamp}
fix             2 all nph iso 10125 10125 1000
fix             3 all temp/csvr ${temperature} ${temperature} ${tempDamp} ${seed}
fix             3 all temp/csvr 267.5 ${temperature} ${tempDamp} ${seed}
fix             3 all temp/csvr 267.5 267.5 ${tempDamp} ${seed}
fix             3 all temp/csvr 267.5 267.5 100 ${seed}
fix             3 all temp/csvr 267.5 267.5 100 745823

run             250000
PPPM initialization ...
  extracting TIP4P info from pair style
  using 12-bit tables for long-range coulomb (../kspace.cpp:340)
  G vector (1/distance) = 0.3747508
  grid = 24 24 24
  stencil order = 5
  estimated absolute RMS force accuracy = 0.0031056337
  estimated relative force accuracy = 9.3525236e-06
  using double precision FFTW3
  3d grid and FFT values/proc = 2535 216
Last active /omp style is kspace_style pppm/tip4p/omp
Neighbor list info ...
  update every 1 steps, delay 7 steps, check yes
  max neighbors/atom: 2000, page size: 100000
  master list distance cutoff = 10.8154
  ghost atom cutoff = 10.8154
  binsize = 5.4077, bins = 4 4 4
  1 neighbor lists, perpetual/occasional/extra = 1 0 0
  (1) pair lj/cut/tip4p/long/omp, perpetual
      attributes: half, newton on, omp
      pair build: half/bin/newton/omp
      stencil: half/bin/3d
      bin: standard
Per MPI rank memory allocation (min/avg/max) = 9.238 | 9.240 | 9.242 Mbytes
Step Temp PotEng TotEng E_pair E_mol Press Lx Ly Lz Volume Pxx Pyy Pzz Pxy Pxz Pyz Enthalpy 
12500000    288.15851   -3861.5742   -3367.6804   -3861.5742            0    10114.137    16.874475    19.875902     20.58682    6904.7247    9874.4815     10207.42    10260.509   -591.80317   -1248.8925   -1824.7767   -2349.2037 
12501000    259.48151   -3832.6921   -3387.9497   -3832.6921            0    9221.8095    16.885236    19.888577    20.599948     6917.943    11492.005    7176.7643    8996.6596   -228.31735    1213.5174   -995.07424   -2457.5511 
12502000    261.60289   -3836.7334    -3388.355   -3836.7334            0     10838.52    16.863412    19.862872    20.573324    6891.1542    9949.6421    10807.678    11758.238   -468.64932    1436.0646   -285.13923   -2299.0793 
12503000    270.32105   -3849.8263   -3386.5053   -3849.8263            0    10137.447    16.841578    19.837154    20.546685     6864.421    10477.267    8564.4698    11370.603   -56.987536   -526.69651   -954.38907     -2371.64 
12504000    260.21467   -3867.2167   -3421.2177   -3867.2167            0    8000.3601    16.874566     19.87601    20.586931    6904.8373    7742.3061    7389.4785    8869.2957   -913.67782    -1473.315    693.42595   -2615.5817 
12505000    266.75004    -3822.962   -3365.7615    -3822.962            0    11270.199    16.841567    19.837141    20.546672    6864.4078    11526.463    10558.201    11725.935   -621.08562   -809.06829    1070.3706   -2237.4979 
12506000    266.02569   -3827.3138   -3371.3549   -3827.3138            0    9875.2946    16.906498    19.913621    20.625888    6944.1094    12155.894    7992.1085    9477.8809   -1335.1269    -35.60281    -844.8528    -2371.257 
12507000    266.57827   -3808.6554   -3351.7493   -3808.6554            0    11969.751    16.775451    19.759266    20.466011    6783.8809    13120.866    12385.295    10403.092   -896.58405    1064.3695    214.83188   -2167.5107 
12508000    273.80568   -3821.3767   -3352.0831   -3821.3767            0    9742.5801    16.829777    19.823254    20.532289    6850.0017    10092.615    9777.2174     9357.908     1951.327    1020.5839    1030.5551   -2378.7969 
12509000    272.54221   -3811.6741   -3344.5461   -3811.6741            0    10073.247    16.905264    19.912168    20.624382    6942.5886    9529.2213    11827.238    8863.2811    1381.8593    2066.1371   -214.76244   -2324.6245 
12510000    270.14313   -3828.9618   -3365.9457   -3828.9618            0    8752.1557    16.939371    19.952342    20.665993    6984.6949    7119.2582    11000.073    8137.1355   -793.97356    242.04025   -814.97701   -2474.4108 
12511000    265.91956   -3850.0016   -3394.2246   -3850.0016            0    9692.7372    16.912878    19.921136    20.633671    6951.9735    10373.698    9542.7144    9161.7987   -1224.7974    723.90617   -344.73507   -2411.5031 
12512000    290.96303   -3846.0004   -3347.2997   -3846.0004            0    10244.346    16.937524    19.950166    20.663739    6982.4099    10055.971     10081.05    10596.017   -193.07123   -548.50758    1218.1227   -2304.1048 
12513000    271.65551   -3827.1774   -3361.5691   -3827.1774            0    10015.427    16.863205    19.862628    20.573071    6890.9002    11492.112    10188.592    8365.5786   -56.519343   -679.03042   -834.41718   -2355.0516 
12514000    249.75055   -3859.6096   -3431.5457   -3859.6096            0    8872.9061    16.911757    19.919816    20.632305    6950.5923     9752.601    9794.0294     7072.088    2212.4846    370.14169    459.65586   -2532.1235 
12515000     268.0595   -3852.9212   -3393.4764   -3852.9212            0    10773.654    16.858602    19.857206    20.567455    6885.2587    10814.356    9454.5451    12052.059    753.40019    266.20867    804.64374   -2311.6461 
12516000    280.72624   -3874.3962    -3393.241   -3874.3962            0    8785.2076     16.91973    19.929207    20.642031    6960.4265    8014.6271    9345.8856    8995.1102   -735.44887    751.20506    689.75222   -2501.4486 
12517000    269.98447   -3854.6665   -3391.9224   -3854.6665            0    12014.902    16.869371    19.869891    20.580594    6898.4621    10134.246    13874.338    12036.121   -1374.2482    193.32516   -1310.1568   -2183.1392 
12518000    251.43859   -3875.3106   -3444.3535   -3875.3106            0    9281.7641     16.94413    19.957946    20.671798    6990.5827    7209.3965    9615.1438    11020.752    927.98739    728.08922    352.05312   -2498.0732 
12519000    260.43825   -3857.9953   -3411.6131   -3857.9953            0    9374.9443    16.894643    19.899657    20.611424    6929.5114    10381.624    8185.4953    9557.7137   -455.12762    1095.4856    1009.6022   -2464.1829 
12520000    269.03517   -3902.4049   -3441.2879   -3902.4049            0    8441.8949    16.925075    19.935503    20.648552    6967.0254    8303.4261    8055.6976    8966.5611    222.07873   -688.09327   -2481.0976   -2583.5329 
12521000    252.71293   -3864.4604   -3431.3191   -3864.4604            0    8902.2405    16.936014    19.948388    20.661898    6980.5432    8372.7793    10251.811    8082.1315   -864.23471   -718.79106   -49.488617   -2525.0348 
12522000    276.57551   -3861.4286   -3387.3876   -3861.4286            0    8644.8771    16.929741    19.940998    20.654244    6972.7886    9849.0578     8986.942    7098.6315    54.243515   -1637.3306   -1457.2399   -2508.2817 
12523000    269.05583   -3877.3736   -3416.2211   -3877.3736            0    10560.382     16.88045     19.88294    20.594109    6912.0623    10084.191    9361.7277    12235.227   -1371.1279     1381.196    227.68219   -2351.6782 
12524000     272.9188   -3811.4119   -3343.6384   -3811.4119            0    9576.2253    16.907259    19.914517    20.626816    6945.0467    8410.9571    11517.573    8800.1455   -1544.9495    882.46229   -829.98127   -2373.6972 
12525000    266.68959    -3821.909   -3364.8122    -3821.909            0    9436.2037    16.893365    19.898152    20.609865    6927.9389    10384.958    9322.3048    8601.3478    556.56555    425.89979    384.54465   -2411.4075 
12526000    279.81801   -3839.4079   -3359.8094   -3839.4079            0    9100.9493    16.989606    20.011512    20.727279    7047.0199    8554.6086    8572.9597     10175.28   -162.92041    545.16894   -412.77873   -2424.4725 
12527000     271.0029   -3830.0402   -3365.5505   -3830.0402            0    11683.801     16.88584    19.889289    20.600685    6918.6855    11773.327     13360.33    9917.7463   -1916.5416    1645.9206   -984.02636   -2186.6324 
12528000    258.98209    -3832.392   -3388.5056    -3832.392            0    11228.304    16.791281    19.777911    20.485324    6803.1037    11065.305    10969.871    11649.736   -339.53288    1630.9469   -722.25491   -2274.4749 
12529000    268.58311   -3864.0937   -3403.7515   -3864.0937            0    8848.4853    16.828185     19.82138    20.530347    6848.0583     9701.131    6597.9495    10246.375   -1260.9024   -1270.8904   -1098.5173   -2520.0364 
12530000    282.32576   -3836.3143   -3352.4176   -3836.3143            0    9143.3354     16.84853    19.845343    20.555167    6872.9254    9441.4859    9919.2715    8069.2488    159.63344   -145.49486    -18.04453   -2435.9394 
12531000    274.00252   -3839.5438   -3369.9129   -3839.5438            0      9249.84    16.848763    19.845617    20.555451    6873.2102    8791.9482    9264.5323    9693.0396   -2083.6543    248.14414    286.24153   -2442.7207 
12532000    266.39787   -3839.5214   -3382.9245   -3839.5214            0    11853.468    16.842807    19.838602    20.548185    6865.9245    11882.785    11788.537    11889.081   -8.4027009   -26.927694   -564.45706   -2196.0076 
12533000    270.09802   -3883.9607    -3421.022   -3883.9607            0    7653.9895    16.923018     19.93308    20.646042    6964.4854    6492.6108    8708.8113    7760.5463     632.7572    -158.5403    837.15513   -2643.6072 
12534000    251.89021   -3874.0991   -3442.3679   -3874.0991            0     10718.68    16.834977    19.829379    20.538632    6856.3525    12883.187    9319.9728    9952.8789    901.77039    1826.0549    637.82964   -2370.5763 
12535000    253.12999   -3901.3537   -3467.4976   -3901.3537            0    10070.559    16.863123    19.862532    20.572971    6890.7999    10606.387    10587.131    9018.1585   -2046.6663   -680.80315    771.05834   -2455.4543 
12536000    254.72471   -3880.2438   -3443.6544   -3880.2438            0    8231.2867    16.912232    19.920375    20.632883    6951.1772    8042.9121    7505.5447    9145.4034    1487.4253   -814.00713    1940.5019   -2609.2012 
12537000    276.89172    -3884.818    -3410.235    -3884.818            0    8313.6369    16.908302    19.915746    20.628089    6946.3324    7551.3826    8807.6854    8581.8427   -31.959491    1161.5475   -489.31724   -2568.0209 
12538000    269.47502   -3861.6826   -3399.8117   -3861.6826            0    10286.607    16.882584    19.885453    20.596712    6914.6836     10359.22    10637.371    9863.2297    1127.9095   -202.05756    315.99497   -2362.4735 
12539000    275.64428   -3867.3029    -3394.858   -3867.3029            0    10353.216    16.891869     19.89639     20.60804    6926.0987    10617.518    10649.257    9792.8731   -38.127298    1024.3523   -937.79122   -2349.0792 
12540000    260.89515   -3849.6649   -3402.4995   -3849.6649            0    11444.535    16.852447    19.849956    20.559946    6877.7199    12894.604    9272.2321     12166.77    1244.2667    1274.9956     459.0064   -2254.5612 
12541000    256.32606   -3837.1656   -3397.8315   -3837.1656            0    8498.3066    16.941073    19.954346    20.668069    6986.7998    8826.1733    6922.7417    9746.0048    2525.5065   -9.8639673     692.9894   -2531.8939 
12542000    271.07684   -3868.1842   -3403.5678   -3868.1842            0    11722.926     16.87971    19.882068    20.593206     6911.153    10900.331    12974.216    11294.232    1681.1436   -1417.7038   -477.01056   -2221.9897 
12543000    268.49639   -3855.1278   -3394.9342   -3855.1278            0    6569.7925    16.948815    19.963465    20.677515    6996.3834    7095.2907    6762.7798    5851.3069   -420.93305   -101.94207   -290.79945   -2724.5849 
12544000    280.61064   -3865.7859   -3384.8288   -3865.7859            0    11994.688    16.819797    19.811499    20.520113    6837.8228    13637.611    9399.3635     12947.09   -2030.6572   -731.64562   -1383.6067    -2188.687 
12545000     246.3964   -3851.2028   -3428.8878   -3851.2028            0    10288.959    16.817819    19.809169      20.5177    6835.4107    11211.594    10604.684    9050.5999   -1660.2753    506.63523   -1342.6548   -2403.2076 
12546000    279.21778   -3855.0711   -3376.5013   -3855.0711            0    10472.841    16.848364    19.845148    20.554965    6872.7227      11523.4    10287.572    9607.5501    185.35208   -1054.2098   -904.62629   -2326.7916 
12547000    255.47299    -3847.161    -3409.289    -3847.161            0    10663.541    16.882621    19.885498    20.596759    6914.7299    11962.822    9805.3353    10222.467   -826.01276   -763.63835   -77.954985   -2333.9322 
12548000    274.38643    -3830.575    -3360.286    -3830.575            0    10090.643    16.873867    19.875187    20.586079    6903.9793    12404.942    8408.9358    9458.0506    106.75502   -551.56566      3.05267   -2344.2849 
12549000    273.21652   -3855.5052   -3387.2214   -3855.5052            0    8682.1986    16.931221    19.942741     20.65605    6974.6174     11082.99    7230.5814     7733.024   -814.60764    58.117409    367.06296   -2504.0887 
12550000    266.06186   -3833.9723   -3377.9514   -3833.9723            0    11288.074    16.828713    19.822001     20.53099    6848.7024    9935.3078    12634.628    11294.287   -600.78798   -25.488188   -264.88363   -2250.4839 
12551000    271.14982    -3838.108   -3373.3665    -3838.108            0    9446.2898    16.910935    19.918848    20.631301    6949.5785    10607.606    9802.7023     7928.561    88.214836    1127.9348    210.70841   -2415.9617 
12552000    264.91903   -3873.5571    -3419.495   -3873.5571            0    9307.4084    16.941936    19.955363    20.669123    6987.8687    10507.127    8647.8686    8767.2298   -484.35448   -747.81458    68.928873   -2470.9687 
12553000    264.54643    -3860.792   -3407.3684    -3860.792            0    11172.941    16.851844    19.849246     20.55921    6876.9816     10841.48    12511.961    10165.381     957.3862   -834.60366    1247.8278   -2286.7926 
12554000    272.98366   -3853.6384   -3385.7538   -3853.6384            0    7292.5216    16.932383     19.94411    20.657467    6976.0538    6134.0509    10031.385    5712.1287    785.78356    262.13208    197.18544   -2643.8229 
12555000    271.41935   -3855.8366   -3390.6331   -3855.8366            0    7803.7517    16.931702    19.943308    20.656637    6975.2125    7399.6638    6917.3402    9094.2513    -2059.755    285.75129   -348.36786   -2596.7862 
12556000    279.04225   -3812.4249    -3334.156   -3812.4249            0    12111.484    16.916415    19.925302    20.637986    6956.3359    13057.848    12335.776    10940.827   -204.54239   -323.97746   -633.85842   -2105.4336 
12557000    274.83027   -3845.3469   -3374.2973   -3845.3469            0    12519.113    16.800598    19.788885     20.49669    6814.4341     12063.57    12155.454    13338.317    2112.6507    -581.3169   -314.14299   -2130.1286 
12558000    275.68154   -3866.5558   -3394.0471   -3866.5558            0     8929.908    16.894969    19.900041    20.611822    6929.9126    9210.9449    8162.4278    9416.3513    740.50551   -797.12675   -951.55719     -2491.54 
12559000    253.82549    -3813.914   -3378.8658    -3813.914            0     9992.004     16.93733    19.949938    20.663503    6982.1707    8017.8905     10866.84    11091.282   -1103.5372   -327.36477   -926.60412    -2361.402 
12560000    257.31073   -3858.1416   -3417.1198   -3858.1416            0    9154.4767    16.899141    19.904956    20.616913    6935.0487    8750.7455    9444.0495     9268.635   -1615.3683   -614.17361    -430.4295   -2491.2308 
12561000    269.50116   -3854.4682   -3392.5524   -3854.4682            0    13201.085    16.842978    19.838803    20.548394    6866.1331    13916.972    12948.067    12738.216   -363.25253     -491.882   -781.17133    -2070.655 
12562000    267.09463   -3835.9414   -3378.1504   -3835.9414            0    7733.2848    17.063138    20.098123    20.816988    7138.9164    7408.2116    8293.1316    7498.5111   -1591.2815    43.670374    817.52307   -2573.0089 
12563000    272.95008   -3799.9034   -3332.0763   -3799.9034            0    8749.6667    16.993308    20.015872    20.731796    7051.6276    11143.851    7338.8671    7766.2816   -1548.6664   -290.41609   -471.93902    -2432.254 
12564000    259.52522   -3807.9894   -3363.1721   -3807.9894            0    10361.305    16.895837    19.901064    20.612881     6930.981    10525.006    10880.734    9678.1767   -940.45906    1785.4144   -117.15085   -2315.8384 
12565000    247.23657   -3824.0725   -3400.3175   -3824.0725            0    9954.1596    16.850384    19.847527    20.557429    6875.1946    9326.9047    9527.5179    11008.056   -1289.2118     848.9799    1479.3622   -2402.2372 
12566000    278.67876   -3820.4596   -3342.8138   -3820.4596            0    9735.9159    16.875415     19.87701    20.587967    6905.8791    10118.768    10214.077    8874.9027    320.33994    780.47412    548.76167   -2362.2594 
12567000    255.00261   -3845.5256   -3408.4599   -3845.5256            0    9902.9308    16.836476    19.831145    20.540462     6858.185    8774.7894    11197.279     9736.724   -85.601238   -229.62164    982.46252   -2417.9728 
12568000    264.36222   -3824.2208    -3371.113   -3824.2208            0    8600.7272    16.868412    19.868761    20.579423    6897.2852    7715.0859    8789.8398    9297.2559   -1242.7557    269.11879   -664.56124   -2505.9674 
12569000    262.27729   -3876.3858   -3426.8515   -3876.3858            0    11495.546    16.811018    19.801158    20.509402     6827.121    10733.727    10724.177    13028.733    604.40147    -211.6756    77.746238   -2282.2796 
12570000    259.82156     -3843.24   -3397.9148     -3843.24            0    9707.6963    16.883186    19.886163    20.597447    6915.4238    10107.468    10910.729    8104.8926   -497.56419    -1294.222   -598.85456   -2418.8512 
12571000    262.58136   -3839.9675    -3389.912   -3839.9675            0    9308.9378    16.882114      19.8849    20.596139    6914.1061    9802.3397     9857.852    8266.6216   -883.51265    375.73505     1442.309   -2451.2439 
12572000    282.49317   -3819.1208   -3334.9372   -3819.1208            0    8743.8457    16.995594    20.018564    20.734585    7054.4734    8404.8247    8259.8781    9566.8344   -2559.3218    350.01436   -882.15752   -2435.3506 
12573000    248.64517   -3841.1798   -3415.0105   -3841.1798            0     12530.99    16.789167    19.775421    20.482744    6800.5339    11399.528     12693.62    13499.823   -1589.9995     818.2147    809.32259   -2172.2018 
12574000    281.50092   -3897.0765   -3414.5935   -3897.0765            0    8364.1253    16.942249    19.955732    20.669504    6988.2557    8973.8798    7876.0085    8242.4878    27.205292    657.30266   -1613.0032   -2562.1508 
12575000    265.37776   -3838.3908   -3383.5424   -3838.3908            0    11674.782    16.879555    19.881886    20.593017    6910.9628    9645.8782    11901.348     13477.12   -417.03261    1912.8081   -286.08671   -2206.8492 
12576000    261.91651   -3823.6792   -3374.7633   -3823.6792            0    9290.6708    16.861137    19.860192    20.570547    6888.3648    10205.837    10335.612    7330.5624      1227.69    893.38434   -920.97258   -2441.4249 
12577000    262.39769   -3841.6891   -3391.9484   -3841.6891            0    11087.129    16.814752    19.805556    20.513958    6831.6712    10644.816    11399.665    11216.905    223.47869    809.00934    1505.5342   -2287.3054 
12578000    266.64596   -3805.1557   -3348.1337   -3805.1557            0    9589.4731    16.889184    19.893228    20.604765    6922.7968    10839.876    10282.767    7645.7765    1493.1599   -266.73891   -148.21103   -2379.9624 
12579000     265.4401   -3849.2045   -3394.2492   -3849.2045            0    10835.932    16.781953    19.766924    20.473943    6791.7716    11686.236     12164.65    8656.9107      635.393    383.69329   -1404.8557   -2320.9391 
12580000    273.42361   -3818.8424   -3350.2037   -3818.8424            0    9885.7979    16.892965    19.897682    20.609378    6927.4476    11399.969    10038.536     8218.888    1149.9947    74.655224    891.44545   -2351.4444 
12581000    258.79657   -3820.1563   -3376.5878   -3820.1563            0    8652.7786     16.95689    19.972977    20.687366    7006.3884    8615.0651    8588.1591    8755.1117    1613.6656   -2079.4254   -841.99885   -2492.4383 
12582000    261.24062   -3859.8503   -3412.0928   -3859.8503            0    10178.748    16.872245    19.873275    20.584099    6901.9876    11301.473    9465.8048    9768.9677    126.37246   -373.84879    739.17416   -2387.5162 
12583000    259.64957   -3853.7597   -3408.7292   -3853.7597            0    8579.2561    16.954516    19.970181     20.68447    7003.4463    9865.7935     6610.581    9261.3939   -2793.1054    282.42902   -472.25145   -2532.4605 
12584000    270.91275   -3816.9969   -3352.6618   -3816.9969            0    9463.3818    16.918814    19.928129    20.640914    6959.2971    8705.1794    9409.4199    10275.546    479.34017    -948.8957   -971.83133   -2392.1833 
12585000    273.62833   -3840.7296     -3371.74   -3840.7296            0     10748.19    16.786732    19.772552    20.479773    6797.5752    8949.6899    13326.409    9968.4723   -490.34274   -188.09275   -1038.4008    -2306.211 
12586000    269.90099   -3825.5077   -3362.9066   -3825.5077            0    9064.4752       16.853    19.850608    20.560621    6878.3972    10373.063    7679.9724    9140.3907    -1004.351    379.90536    158.60111   -2453.6095 
12587000    263.99322   -3875.4286   -3422.9533   -3875.4286            0    9246.1825    16.868221    19.868537    20.579191    6897.0514    7953.9269      9959.26    9825.3606    351.24228    1548.7763   -279.04241   -2492.9129 
12588000    276.15461   -3823.6321   -3350.3126   -3823.6321            0    10801.924    16.839553    19.834769    20.544215    6861.9456     11824.17    9191.2109    11390.393    1059.1808   -1588.4373   -176.46371   -2269.3161 
12589000    265.54519   -3886.5925   -3431.4571   -3886.5925            0    10720.986    16.803334    19.792108    20.500028    6817.7641    9774.7693    9837.7168    12550.472    1678.1938   -462.30409    821.44365   -2365.4684 
12590000    265.57446   -3835.3518   -3380.1663   -3835.3518            0    11298.096    16.862501    19.861799    20.572212     6890.037    11883.889    11665.154    10345.246   -3718.5753   -166.18056    556.88544    -2244.887 
12591000    267.95175    -3866.416   -3407.1559    -3866.416            0    8420.8275    16.851248    19.848545    20.558483    6876.2525    7987.0583    9202.5962     8072.828    523.34462   -896.84034   -1142.8797   -2562.6893 
12592000    279.01082   -3838.8981   -3360.6831   -3838.8981            0    9883.5236    16.826223    19.819068    20.527953    6845.6629    11757.215    8400.2066    9493.1496    758.93197   -822.70279    588.54476    -2373.942 
12593000    257.45393   -3853.8346   -3412.5673   -3853.8346            0    8573.0417    16.911984    19.920083     20.63258    6950.8711    8459.1711    9462.9593    7796.9946    -490.3565    545.74417    -1722.289   -2543.5067 
12594000    255.43722   -3839.3409   -3401.5303   -3839.3409            0    8425.6894    16.913128    19.921431    20.633977    6952.2826     9583.221    9006.3692    6687.4781    1155.2965    924.36484   -100.91638   -2547.2335 
12595000    262.21933   -3849.2043   -3399.7694   -3849.2043            0    9871.9645    16.870366    19.871063    20.581807    6899.6822    7865.0287    11882.896    9867.9685   -17.270256   -1264.7941    1193.6432    -2406.405 
12596000    255.33621   -3793.9227   -3356.2852   -3793.9227            0    12518.089    16.845173    19.841388    20.551071    6868.8179    12886.155    12645.387    12022.724   -890.77505   -343.55672   -474.87269   -2102.2899 
12597000    269.41131   -3839.0297   -3377.2679   -3839.0297            0    10587.417    16.887648    19.891418    20.602891    6920.9081    8678.1856    11987.012    11097.055    1302.8379   -408.53434     1556.532   -2308.6339 
12598000    264.22823   -3861.8913   -3409.0132   -3861.8913            0    10433.245    16.887587    19.891347    20.602816     6920.833    10805.693    10104.231    10389.812   -1022.2273   -524.21039   -156.79738   -2355.9518 
12599000    278.79966   -3863.7951    -3385.942   -3863.7951            0    8252.2211    16.835258     19.82971    20.538976    6856.6965    7445.9992    9339.2201     7971.444     314.6285   -988.73055    1116.1826   -2560.7373 
12600000    262.44484   -3850.9698   -3401.1483   -3850.9698            0    12454.984    16.756932    19.737453    20.443418    6761.4388     13333.12    11514.357    12517.475    919.75913    -2.333314    624.59444   -2172.9792 
12601000    266.92897   -3900.7056   -3443.1985   -3900.7056            0    10489.623    16.766602    19.748843    20.455215    6773.1511    9765.2341    11666.341    10037.294    443.33531   -1732.4567    694.10686   -2407.0392 
12602000    275.68705   -3854.2128   -3381.6947   -3854.2128            0    9380.3414    16.859353    19.858091    20.568372    6886.1793    8714.3421    8815.4829    10611.199   -625.55183   -2198.0755   -1074.3406    -2439.647 
12603000    286.13418   -3880.9621   -3390.5379   -3880.9621            0    10797.417    16.847699    19.844365    20.554154    6871.9091    8365.7472    12660.075    11366.428    456.40702   -389.83041   -787.57155   -2308.4235 
12604000    261.35822   -3869.0968   -3421.1377   -3869.0968            0    9310.3723     16.89981    19.905744    20.617729    6935.8717    10460.193    9296.1678    8174.7562   -911.86516    940.85034   -297.06102   -2479.3696 
12605000    280.00659   -3860.0469   -3380.1252   -3860.0469            0    10677.298    16.854143    19.851954    20.562015    6879.7968    10530.567    10201.352    11299.974    -2702.247     87.66181   -1840.8669   -2308.8209 
12606000    258.33015   -3851.3427   -3408.5737   -3851.3427            0    10123.986    16.905332    19.912248    20.624466    6942.6729    8620.9867     11134.08    10616.892   -953.48242    848.24048    1408.2531   -2383.5022 
12607000    261.67097   -3851.3903   -3402.8952   -3851.3903            0    11124.182    16.862249    19.861502    20.571904    6889.7277    13710.065    10337.977    9324.5043     1264.147   -590.62708   -80.567331   -2285.1417 
12608000    262.04707   -3821.0925   -3371.9528   -3821.0925            0    10664.797    16.852344    19.849836    20.559821    6877.5945    12295.047    11127.432    8571.9111   -478.05874    996.99027   -527.32527   -2302.2453 
12609000    265.09227   -3862.0098   -3407.6507   -3862.0098            0     9404.777    16.882659    19.885543    20.596805    6914.7765    9520.1746    10873.309    7820.8474   -2242.2319    559.16754    606.45437   -2459.2267 
12610000     257.1097   -3857.1519   -3416.4747   -3857.1519            0    8975.1046    16.906245    19.913324     20.62558    6943.7979    9405.0227    10207.797     7312.494    490.74795    696.55772    75.326302   -2507.5822 
12611000    271.31833   -3867.6516   -3402.6213   -3867.6516            0    10224.918    16.914621    19.923189    20.635798    6954.1235    10998.325    11303.349    8373.0798   -686.92955    1128.2782   -247.41091   -2365.6228 
12612000    268.68567   -3863.6565   -3403.1385   -3863.6565            0    8808.4708    16.892706    19.897376    20.609062    6927.1289    9243.7231    8487.5548    8694.1345   -1491.6806   -801.56371   -225.82698   -2513.2621 
12613000    265.15031   -3856.9022   -3402.4437   -3856.9022            0    10130.736    16.824992    19.817618    20.526451    6844.1609    10287.976    10188.641    9915.5912    797.04953   -1569.2206    546.29654   -2391.2436 
12614000    270.18323   -3820.9421   -3357.8572   -3820.9421            0    9720.1118    16.889059     19.89308    20.604612    6922.6426    10982.855     8585.917    9591.5632    -897.0829    660.04407   -1008.2344   -2376.5182 
12615000    294.09435    -3880.249   -3376.1814    -3880.249            0    8331.9608     16.92046    19.930066    20.642921    6961.3274    8011.6674    8305.6009    8678.6141    310.84483   -391.47636   -915.26913   -2530.2889 
12616000    258.84512   -3835.8337    -3392.182   -3835.8337            0    11733.235    16.828639    19.821914      20.5309    6848.6121    10547.885    11867.178    12784.642   -1335.2639    416.97607   -720.46866   -2220.2667 
12617000    257.09372   -3864.6302   -3423.9804   -3864.6302            0    8595.7875    16.902685     19.90913    20.621236    6939.4119    8322.0013    8827.9515    8637.4095      1934.94    2032.2149    341.00474   -2554.0506 
12618000    268.06273   -3864.8006   -3405.3503   -3864.8006            0    12292.098    16.833435    19.827563    20.536751     6854.469    12603.948    10993.942    13278.405   -680.95229    300.65238   -221.56211   -2176.5657 
12619000    271.22721   -3849.8201    -3384.946   -3849.8201            0    11543.313    16.829257    19.822642    20.531654    6849.3667    12206.586    10394.477    12028.877    -698.0915    934.82929    1792.2849    -2231.873 
12620000      262.675   -3853.6292   -3403.4132   -3853.6292            0    9967.9048    16.822345      19.8145    20.523221    6840.9304    9135.2545    9484.1052    11284.355   -467.54935    195.33125   -563.28062   -2408.9358 
12621000    268.33689   -3849.1551   -3389.2349   -3849.1551            0    10309.414    16.813024    19.803521     20.51185    6829.5656    8773.7609    12102.866    10051.616   -83.020039    114.02427     186.9822   -2362.3945 
12622000    270.34224   -3815.2755   -3351.9181   -3815.2755            0    10211.782    16.901886    19.908189    20.620261    6938.4277     11313.57    8468.6729    10853.104   -4.1237136   -282.10001   -348.11189   -2318.5894 
12623000    257.73622   -3841.6325   -3399.8815   -3841.6325            0    10265.567    16.876773     19.87861    20.589624     6907.547    11272.433    9899.1515    9625.1171    57.641515   -208.03044   -58.443708   -2365.7335 
12624000    274.41538   -3831.4181   -3361.0795   -3831.4181            0    9501.3973    16.946763    19.961048    20.675011    6993.8425    11319.372    7827.6582    9357.1623   -156.68194    96.389009   -667.22459   -2391.9558 
12625000    283.10573   -3799.9025    -3314.669   -3799.9025            0    10864.955    16.913093     19.92139    20.633934    6952.2392    11181.807    11686.079    9726.9782   -674.47409   -37.431379    211.26059   -2213.0573 
12626000     273.6368    -3847.185   -3378.1809    -3847.185            0    8804.3751    16.914059    19.922527    20.635112    6953.4299    7551.0842    10123.243    8738.7985   -2635.7873   -1052.6716    1536.6903   -2485.3411 
12627000    259.55176   -3819.2888    -3374.426   -3819.2888            0    12100.747    16.885274    19.888623    20.599995    6917.9901    12161.206    11690.645     12450.39    549.69928    621.47104    203.01834     -2153.56 
12628000    257.56366   -3840.2246   -3398.7693   -3840.2246            0    9860.2912    16.935984    19.948352     20.66186    6980.5053    8634.7936    11333.775     9612.305    -464.8719    363.51131   -1.0659945   -2394.9571 
12629000    270.85761   -3843.7966   -3379.5559   -3843.7966            0    8370.1721    16.956994    19.973099    20.687493    7006.5172     7912.384    8770.2727    8427.8594   -285.83532   -183.89157   -542.28603   -2524.2677 
12630000    244.43857   -3843.1781   -3424.2188   -3843.1781            0    9326.2458    16.926817    19.937555    20.650677    6969.1771    8549.5032    9377.3741     10051.86   -539.86787   -1094.3116    49.456371    -2476.315 
12631000    255.51254   -3858.9628   -3421.0231   -3858.9628            0    10200.093    16.874764    19.876243    20.587172    6905.0797    8664.7481    11098.316    10837.216    127.11102   -201.79936    1661.8112   -2393.8379 
12632000    275.65374   -3824.4405   -3351.9794   -3824.4405            0    11218.741     16.95787    19.974131    20.688562    7007.6036    11951.265    10322.992    11381.965   -144.71289    -754.3905   -950.32278   -2205.4385 
12633000     262.6075    -3852.742   -3402.6417    -3852.742            0    9195.3561    16.892095    19.896657    20.608317    6926.3777    8474.3302    9307.6855    9804.0526   -836.45714   -338.49982     374.6832    -2473.781 
12634000    251.77433   -3858.9041   -3427.3715   -3858.9041            0     9252.344    16.881272    19.883909    20.595113    6913.0726    9345.4894    9545.1918    8866.3507    477.82297   -328.15799   -1407.3391   -2494.5495 
12635000    249.71911    -3849.436    -3421.426    -3849.436            0    9751.5467    16.898872    19.904639    20.616585    6934.7173    10825.556    9399.4794    9029.6047    1583.1478   -298.58348   -1535.0847   -2435.1961 
12636000    258.88384   -3819.1699   -3375.4519   -3819.1699            0    9545.7204    16.870699    19.871455    20.582213    6900.0911     9723.205    9149.1711    9764.7851   -188.07615    -649.8421   -170.07313   -2414.8588 
12637000    263.80282   -3853.0952   -3400.9462   -3853.0952            0    11035.702    16.851649    19.849017    20.558973    6876.7436    9803.9284    10597.544    12705.634    447.27036    843.91072     858.2362   -2294.1729 
12638000     284.5521   -3866.5841   -3378.8716   -3866.5841            0    9425.3038     16.91603    19.924849    20.637518    6955.8621    10128.776    10288.739    7858.3963   -2936.1363    764.56615    -436.7944     -2422.73 
12639000    245.76505   -3873.4621   -3452.2292   -3873.4621            0    9860.0514    16.894299    19.899253    20.611006    6929.0891    7848.4123     9910.183    11821.559    71.804347   -296.12129    129.18822    -2455.835 
12640000    271.47882   -3856.7507   -3391.4453   -3856.7507            0    7113.0261    16.915522    19.924251    20.636898    6955.2354    7950.0788    6051.8445    7337.1548    556.23424     943.2324    112.08438   -2669.9356 
12641000    264.48175   -3868.7218   -3415.4091   -3868.7218            0    10661.364    16.844256    19.840308    20.549953    6867.6961    11026.111    9922.6239    11035.358   -519.45037   -168.87027    925.15756    -2347.585 
12642000    261.31028   -3853.7991   -3405.9222   -3853.7991            0    9468.7275    16.944535    19.958424    20.672293    6991.0847    9482.2729    9723.8956    9200.0141   -1417.2683   -1105.6672     76.26739   -2440.5116 
12643000    263.57629   -3845.3765   -3393.6158   -3845.3765            0    10349.883    16.866298    19.866272    20.576845     6894.693    8642.0108    12119.583    10288.054   -1065.8798    786.22767   -271.20836   -2352.9141 
12644000     267.5579   -3855.2403   -3396.6552   -3855.2403            0    9877.9544    16.856595    19.854843    20.565007    6882.8004    10056.763    9519.5469    10057.553    680.82425    -1746.655   -122.82457   -2405.1202 
12645000    277.98194   -3812.0941   -3335.6426   -3812.0941            0    10894.327    16.855616    19.853689    20.563812     6881.601    11372.521    11293.018    10017.442    1256.7881    1663.6507    1186.3253    -2242.276 
12646000    270.11463   -3855.1978   -3392.2306   -3855.1978            0    10134.259     16.80603    19.795283    20.503317    6821.0462    8919.8461    10123.977    11358.954   -766.72749   -541.68076    973.67578   -2384.0952 
12647000    254.71019   -3855.0137   -3418.4492   -3855.0137            0    10811.553    16.862602    19.861918    20.572336    6890.1614    9889.9398     10811.06    11733.659    521.94608    1368.1018   -125.70113   -2332.0402 
12648000    246.98924   -3827.6495   -3404.3184   -3827.6495            0    13794.117    16.811564    19.801802    20.510069    6827.7865    13766.659    12317.385    15298.306    1291.7423   -509.10204   -517.51625   -2030.7518 
12649000    284.91331   -3851.0444   -3362.7128   -3851.0444            0    12143.299    16.885215    19.888553    20.599923    6917.9178    10988.319    12815.806    12625.772    31.960855    1806.2253    651.51133   -2137.5664 
12650000    264.98073   -3873.9386   -3419.7707   -3873.9386            0    9431.8146    16.906247    19.913325    20.625582    6943.7999    7225.3323    11802.293    9267.8187   -183.29601    -1225.017   -653.71014   -2464.6278 
12651000    276.73188   -3833.6123   -3359.3034   -3833.6123            0    9041.3062    16.905455    19.912393    20.624616    6942.8243    8948.2749    9484.1144    8691.5292   -2025.7417    470.73817    688.39066   -2443.8352 
12652000     253.5581   -3834.9919    -3400.402   -3834.9919            0     9287.577    16.893438    19.898239    20.609955    6928.0299    8546.9336    9830.0868    9485.7106   -1478.1332   -1061.3548   -394.68576   -2462.0018 
12653000    275.39386   -3821.7046   -3349.6889   -3821.7046            0    8996.7466    16.888269    19.892151    20.603649    6921.6722    9551.0284    7776.5782    9662.6332   -470.42529    994.94878   -453.34812   -2441.5079 
12654000    253.56188   -3855.0478   -3420.4515   -3855.0478            0    9765.4861    16.914191    19.922683    20.635274    6953.5935    11971.513    8230.9177    9094.0279    424.48799    553.70067   -1547.9618   -2430.1235 
12655000    255.40742   -3824.0136    -3386.254   -3824.0136            0    10647.922    16.887015    19.890673    20.602118    6920.1296    10995.722    11430.892    9517.1515    976.77365    515.69573   -657.28669   -2311.6339 
12656000    256.98399   -3898.1148    -3457.653   -3898.1148            0    10202.642    16.876917    19.878779    20.589799    6907.7229    7553.4001    11870.024    11184.503   -1362.5555    1256.2091   -782.67788   -2429.8179 
12657000    262.36364   -3848.6274   -3398.9451   -3848.6274            0    8976.9482     16.95994    19.976569    20.691087    7010.1695    7737.1502     10461.15    8732.5441    1082.3094   -1915.9595    1426.0412   -2481.1766 
12658000    269.74343   -3852.8896   -3390.5586   -3852.8896            0    10017.322    16.846251    19.842659    20.552387     6870.137    10013.584    10722.954     9315.428    637.69398     995.0622    664.08014    -2386.884 
12659000    264.92986    -3837.091   -3383.0103    -3837.091            0    10554.644    16.840098    19.835412    20.544881    6862.6124    11436.367    9547.2754    10680.291    709.76772   -1024.1072    514.50552   -2326.6575 
12660000    281.30141   -3829.1728   -3347.0318   -3829.1728            0    10488.953    16.910128    19.917897    20.630316    6948.5832    9440.4744    11217.327    10809.058   -1822.4926   -954.91162    664.58593   -2284.1027 
12661000     236.4345   -3836.2542   -3431.0135   -3836.2542            0    9207.2952    16.895783    19.901001    20.612816    6930.9153    9299.8712    8675.6753    9646.3392    1139.0117    749.38347   -1174.0929   -2500.3375 
12662000    272.98945   -3868.7368   -3400.8422   -3868.7368            0    9360.6766    16.839663    19.834899     20.54435    6862.0802    10351.356    11389.446    6341.2276    660.32005    600.29643   -391.70502   -2464.0594 
12663000    269.97184   -3841.5799   -3378.8574   -3841.5799            0    10555.495    16.819984    19.811719    20.520341    6838.0505    10065.282    11496.933     10104.27    193.48452    1548.9178   -1296.4003   -2326.2006 
12664000    274.38268   -3870.8555    -3400.573   -3870.8555            0    11858.483    16.791346    19.777988    20.485403    6803.1829    12658.428    11899.435    11017.586   -1040.0859   -2817.9339    60.536776   -2224.0046 
12665000    264.77591   -3853.8671   -3400.0502   -3853.8671            0    12719.413    16.829952     19.82346    20.532502    6850.2149    12389.978    11995.415    13772.847    1486.0227   -513.47726    -923.0537   -2129.3381 
12666000     261.7913   -3824.7576   -3376.0563   -3824.7576            0    10513.806     16.82268    19.814895     20.52363    6841.3395    10645.769    11756.333    9139.3139    684.91335   -379.36699    1086.1587   -2327.0527 
12667000    255.41005   -3850.9766   -3413.2125   -3850.9766            0    10418.901    16.821033    19.812955    20.521621    6839.3304    9775.7194    10966.601    10514.382    247.04369    140.59669    327.12829   -2373.9832 
12668000    284.74163    -3843.257   -3355.2196    -3843.257            0    11833.199    16.797202    19.784886    20.492548    6810.3033    13942.341    11018.193    10539.062    2052.6556   -1487.4686    686.60976   -2179.9311 
12669000    275.52991   -3836.4608   -3364.2119   -3836.4608            0    9035.9078    16.872543    19.873627    20.584463    6902.3542    8000.3276    10441.576    8665.8195   -667.40398   -451.22322   -639.55575   -2454.6235 
12670000    275.16928   -3844.5426   -3372.9119   -3844.5426            0    9412.9246    16.841043    19.836524    20.546033    6863.7667    9609.8837    9181.1672    9447.7228    444.31702    1277.2037   -1225.5586   -2430.6688 
12671000    263.52863   -3844.8067   -3393.1276   -3844.8067            0    11395.767    16.887882    19.891695    20.603177    6921.1965     11102.82    12523.972     10560.51    -1274.545     1830.024   -1394.4926   -2242.8554 
12672000    278.88338    -3849.832   -3371.8354    -3849.832            0    10860.045    16.840951    19.836416    20.545921    6863.6549    11475.143    10278.962    10826.031   -917.40274   -143.37481    466.40241   -2284.7517 
12673000    278.14009   -3867.8886    -3391.166   -3867.8886            0    11274.271     16.84373    19.839689    20.549311    6867.0527    10716.367    10244.736     12861.71   -351.91591    918.93989    1032.8045     -2262.06 
12674000    261.92927   -3854.9992   -3406.0614   -3854.9992            0     9806.735    16.908281    19.915722    20.628064    6946.3071     10645.95    10347.652    8426.6023    619.55435    429.75167   -1849.4635   -2412.5924 
12675000    276.46036   -3844.4986    -3370.655   -3844.4986            0    9083.5482     16.89212    19.896687    20.608348    6926.4085    9042.4215    10090.347     8117.876   -1932.7458    411.88996    1650.9855   -2453.0844 
12676000    269.34317   -3844.6723   -3383.0273   -3844.6723            0    11168.271    16.853916    19.851687    20.561738    6879.5189    11422.855    11903.379    10178.578    112.18494   -1243.0243   -667.97249   -2262.5066 
12677000    265.01524   -3809.6487   -3355.4216   -3809.6487            0    9905.2242    16.919199    19.928582    20.641383    6959.7716    10538.244    10061.513     9115.916    -496.4314   -960.46437    1599.7071   -2350.0302 
12678000    259.07455   -3827.0898   -3383.0449   -3827.0898            0    8416.7734    16.883827    19.886918     20.59823    6916.2119    9531.8186    7622.9373    8095.5643   -330.42416     611.4925    609.26767   -2534.0799 
12679000    255.25434   -3839.3787   -3401.8815   -3839.3787            0      10731.2    16.770515    19.753452     20.45999    6777.8948    11228.266    11273.303    9692.0328    73.037366    1101.0964    2131.5283   -2341.1169 
12680000    261.67202   -3853.4232   -3404.9263   -3853.4232            0    10172.042    16.754932    19.735096    20.440977    6759.0175    10259.971     9562.207    10693.949   -859.58173    1699.1315    361.05465   -2402.2341 
12681000    268.05742   -3856.0403   -3396.5991   -3856.0403            0    9768.1691     16.83369    19.827863    20.537062    6854.7807    9848.7814    11968.287     7487.439   -878.36071   -887.23384   -773.62094   -2420.0758 
12682000    279.32611   -3847.3433   -3368.5879   -3847.3433            0    8227.9721    16.913205    19.921522    20.634071    6952.3778    7925.2016    8913.6729    7845.0419    1776.1459   -629.27449   -227.47196   -2534.3266 
12683000     263.7302   -3865.6527   -3413.6282   -3865.6527            0    11129.779    16.838711    19.833777    20.543188    6860.9162    13015.314    10143.292    10230.732    258.35461   -1358.8207   -2210.0593   -2299.9889 
12684000    260.61303   -3871.0922   -3424.4103   -3871.0922            0    8150.6216    16.910876    19.918778    20.631229    6949.5055    8383.6022    7935.9053    8132.3572   -976.45311   -543.70745    -905.3033   -2598.3334 
12685000    273.98362   -3830.9803   -3361.3817   -3830.9803            0    11288.322    16.850105    19.847198    20.557089    6874.8533     10844.74    9363.9684    13656.258    1036.6767    1561.7896   -1124.6636   -2229.5843 
12686000    265.69078   -3803.6445   -3348.2596   -3803.6445            0    10567.316    16.881014    19.883604    20.594797    6912.7548    11673.496    10883.766    9144.6873   -407.08894    1308.5313   -336.07007    -2282.911 
12687000     254.5904   -3822.7289   -3386.3697   -3822.7289            0    8174.5588    16.924951    19.935357    20.648401    6966.8722    7088.3351    9368.0445    8067.2967   -2819.4141   -738.32013   -1167.4144   -2555.7962 
12688000    271.03398   -3797.9238   -3333.3809   -3797.9238            0    13406.752    16.826508    19.819404      20.5283    6846.0106    14508.939     12569.15    13142.166   -348.86297   -360.94806   -2551.2542   -1994.8234 
12689000    256.00108   -3849.2992   -3410.5221   -3849.2992            0    9995.3529    16.863213    19.862637     20.57308    6890.9094    8678.6159    9658.2839    11649.159      167.441    110.59644    553.37643   -2406.0207 
12690000    285.72048   -3828.8189   -3339.1038   -3828.8189            0     8446.962    16.904436    19.911192    20.623372    6941.5687    10032.359    6867.4212    8441.1058   -344.14379    474.37486    723.86727   -2483.9701 
12691000    270.77642   -3839.1905    -3375.089   -3839.1905            0    9144.1248    16.936541    19.949008     20.66254    6981.1943    8932.4866    7762.7525    10737.135    634.17777    -1086.172    75.092114   -2444.0931 
12692000    270.09857   -3830.0294   -3367.0897   -3830.0294            0    9748.0961    16.847282    19.843873    20.553645    6871.3984    9794.4276    8042.0842    11407.777    -666.9097   -1361.1846   -581.22446   -2390.2106 
12693000     277.4634   -3849.4684   -3373.9056   -3849.4684            0    11397.036    16.820424    19.812238    20.520878    6838.5874    12469.098    10431.591     11290.42    418.64435   -256.50405    400.33681   -2237.2361 
12694000    282.32475   -3861.2572   -3377.3623   -3861.2572            0    11327.266    16.907628    19.914953    20.627267    6945.5022    10545.416    12427.398    11008.982    1296.4885   -988.98391   -485.93267   -2229.9893 
12695000    264.01516   -3856.4226   -3403.9096   -3856.4226            0    10198.712    16.885223    19.888562    20.599933    6917.9274    9811.1495    8503.8819    12281.105    289.96534   -575.00453   -2129.1345   -2374.9526 
12696000    265.22452   -3833.6596   -3379.0738   -3833.6596            0    9674.4674    16.904879    19.911714    20.623913    6942.1146    9287.0735     9447.651    10288.678   -181.77733    1079.6381   -317.98635   -2399.5957 
12697000    263.19745    -3834.778   -3383.6666    -3834.778            0    9004.7025    16.882694    19.885583    20.596847    6914.8193    9701.6729     7874.397    9438.0377   -618.12323    711.63278    2052.7297   -2475.5824 
12698000    264.11384    -3842.278   -3389.5959    -3842.278            0    9269.8271    16.916828    19.925789    20.638491    6956.8466    8148.6499     9851.258    9809.5734   -696.54942    250.20049    868.12053   -2449.0935 
12699000    271.47929   -3831.9671   -3366.6609   -3831.9671            0    10888.634    16.924305    19.934596    20.647613    6966.0749    11927.905    10283.045    10454.952    910.09347   -1322.9586    458.70241   -2260.4513 
12700000     261.6356   -3839.9111   -3391.4766   -3839.9111            0    11184.701    16.872303    19.873344     20.58417    6902.0594    11974.993    9617.1421    11961.967   -1120.4031    554.31257   -956.08052   -2265.6307 
12701000    264.63557   -3829.9192   -3376.3429   -3829.9192            0    11528.202    16.894672    19.899692    20.611461    6929.5481    10640.675    13875.407    10068.525    182.85887     783.0318    1589.7963   -2211.2987 
12702000     264.4708   -3824.4997   -3371.2058   -3824.4997            0    10173.008    16.932236    19.943937    20.657288    6975.8719    11238.571    10879.217    8401.2369    1015.6935    1777.7863   -625.73622   -2336.2453 
12703000    274.70769   -3863.6386    -3392.799   -3863.6386            0    11908.079     16.87629     19.87804    20.589034    6906.9532    14329.966    8704.1417    12690.128    2041.7844   -605.73101    960.87764   -2193.2884 
12704000     260.0056   -3861.9726   -3416.3319   -3861.9726            0     9565.824    16.915846    19.924632    20.637292    6955.6343    8723.1734    10678.408    9295.8911    137.40345    910.54245   -377.00349   -2445.9671 
12705000    260.02018    -3848.646   -3402.9803    -3848.646            0    9896.8709    16.835215    19.829659    20.538923    6856.6435    9901.0728    9480.9137    10308.626    778.27202   -244.46752    165.34596   -2413.3218 
12706000    257.28367   -3823.8487   -3382.8733   -3823.8487            0    8896.3103    16.851436    19.848765    20.558712     6876.482    6945.0724    10658.476    9085.3822   -49.140987    998.96443    368.39032    -2490.694 
12707000    256.19517    -3821.322   -3382.2122    -3821.322            0    7636.2295    16.899315    19.905161    20.617125     6935.262    8215.1902    7956.5084    6736.9898   -1462.4188   -23.608042   -348.23661   -2609.8559 
12708000    274.94397   -3839.1876    -3367.943   -3839.1876            0    10276.233     16.85688    19.855177    20.565354    6883.1485    12849.387    8881.2333    9098.0792   -1550.2915   -1074.6319   -351.70078   -2336.3771 
12709000    262.31767   -3853.0186   -3403.4151   -3853.0186            0    10230.519    16.922129    19.932032    20.644957    6963.3874    12435.658    9690.6285    8565.2716     1251.751   -1491.1631     1458.844   -2364.4663 
12710000    260.79591   -3786.2022   -3339.2069   -3786.2022            0    10442.057    16.880994    19.883581    20.594773    6912.7303    9631.0474     12045.81    9649.3143   -1016.7082   -1065.3122   -764.47423   -2286.4901 
12711000     280.6611   -3889.7607   -3408.7172   -3889.7607            0    9034.3518    16.929257    19.940428    20.653654     6972.191    8857.7605    9704.4037    8540.8913    969.71692   -182.62097    467.98203   -2490.0839 
12712000    257.00567     -3845.27   -3404.7711     -3845.27            0    11374.773    16.839635    19.834866    20.544316    6862.0459    12582.784    9612.8944    11928.642    937.10592   -1413.9732    86.350743   -2266.4304 
12713000    288.07928   -3877.4861    -3383.728   -3877.4861            0    9195.6554    16.924933    19.935336    20.648379    6966.8503    9387.9971    9874.4391    8324.5302   -787.12084    1961.7643    62.741406   -2449.4093 
12714000    264.90904   -3859.8461   -3405.8011   -3859.8461            0    8580.8119    16.928368    19.939382     20.65257    6971.0929    6464.3081    9172.8113    10105.316    1781.5485   -1017.7428    324.76953   -2533.4222 
12715000    248.60529   -3901.0002   -3474.8993   -3901.0002            0    7975.7286    16.908418    19.915883    20.628231    6946.4757    8384.6312    7873.8068    7668.7478    212.24366   -429.65892   -1062.8359   -2666.9004 
12716000    262.04568   -3893.3356   -3444.1982   -3893.3356            0    7621.6665      16.9285    19.939537     20.65273    6971.2555     6799.865    8003.2175    8061.9172   -198.88712   -575.18787   -102.67287    -2669.314 
12717000    269.14864   -3895.3262   -3434.0146   -3895.3262            0    10413.315    16.860894    19.859907    20.570252    6888.0679    9745.8985    11594.379    9899.6669    538.05902   -598.95489   -2716.4205   -2387.9409 
12718000    265.89289   -3872.1767   -3416.4454   -3872.1767            0    11102.426    16.861647    19.860793     20.57117    6888.9906    12542.188    10565.647    10199.442   -644.80314   -99.824916    643.05168   -2300.9974 
12719000    267.19667   -3876.6837   -3418.7178   -3876.6837            0    9012.2128    16.962654    19.979766    20.694399    7013.5358    9006.3647    8378.9731    9651.3007    760.67443    370.93532    897.29537   -2496.9016 
12720000    256.47224   -3877.5107    -3437.926   -3877.5107            0     12302.74    16.799842    19.787995    20.495768    6813.5145    10156.857    12749.877    14001.486    174.69279    -1496.485   -853.84364   -2215.4259 
12721000    269.84075   -3864.4055   -3401.9077   -3864.4055            0     10518.08    16.855608    19.853679    20.563802    6881.5906    8908.4937    11463.568    11182.178    500.98832   -1003.5943   -842.02627   -2346.3033 
12722000    252.02228   -3844.0605   -3412.1029   -3844.0605            0    11550.441    16.793692    19.780751    20.488265    6806.0347     13929.08    11045.816    9676.4264   -484.40641    1667.6811   -940.82421   -2265.6173 
12723000    258.06823   -3849.1876   -3406.8675   -3849.1876            0    10000.786    16.867677    19.867896    20.578527    6896.3841    9888.3163    8797.7338    11316.307    722.04024   -1331.4366    341.47114   -2401.0216 
12724000    273.35422   -3839.6217   -3371.1019   -3839.6217            0    11163.494    16.870519    19.871243    20.581994    6899.8702    10535.408    11877.326    11077.748   -595.45764    833.10501    1096.6252   -2247.7471 
12725000    253.66822   -3833.2848   -3398.5062   -3833.2848            0    9157.0026    16.898947    19.904728    20.616676    6934.8097    9014.1102    8055.1878     10401.71   -1851.0559   -806.64821   -586.86063   -2472.3936 
12726000    283.08643   -3825.9717   -3340.7712   -3825.9717            0    11116.647    16.801505    19.789954    20.497797    6815.5386    11110.903    10267.674    11971.363   -49.220798    316.40919   -40.816205   -2235.8027 
12727000    289.44797   -3828.2519    -3332.148   -3828.2519            0    9490.6584    16.876949    19.878817    20.589838    6907.7627    8335.6523    9640.6683    10495.655    637.72456   -876.65516    1082.0954    -2376.034 
12728000     274.8683   -3798.9766   -3327.8618   -3798.9766            0    8447.1367    16.866818    19.866883    20.577478    6895.3296    7814.0563    8265.3829     9261.971    111.51707   -571.92926    891.36166   -2478.4066 
12729000    271.09309   -3831.3738   -3366.7295   -3831.3738            0    11467.638    16.818573    19.810057    20.518619    6836.3295    13446.311    12916.098    8040.5051   -375.37227    1170.7326   -1282.0791   -2223.3962 
12730000    274.34573   -3814.0155   -3343.7963   -3814.0155            0    10350.726    16.872742    19.873861    20.584706     6902.598    9358.5134    11837.422    9856.2432    734.23754   -916.69386    662.63695   -2301.8165 
12731000    272.35834   -3808.7517   -3341.9388   -3808.7517            0    9876.0726    16.816536    19.807658    20.516134    6833.8461    10529.669    9068.5456    10030.003    218.84627   -1324.6297    221.82729   -2357.6436 
12732000    255.05475   -3796.6274   -3359.4723   -3796.6274            0     12560.45    16.795611    19.783011    20.490606    6808.3676    11863.267    12745.555    13072.528    948.50299   -307.79444   -585.50362   -2112.3068 
12733000    273.52252   -3842.6248   -3373.8165   -3842.6248            0    11577.583    16.829754    19.823227    20.532261    6849.9738     10355.51    11793.828    12583.411    996.63502   -403.85892    519.10691   -2217.2178 
12734000    264.48613   -3803.6666   -3350.3465   -3803.6666            0    13204.794    16.876918     19.87878      20.5898    6907.7245    13871.133    14754.096    10989.153    730.93977   -1428.4824   -1408.8528   -2020.0681 
12735000    261.51582    -3835.671   -3387.4418    -3835.671            0    11051.359    16.838957    19.834067    20.543488    6861.2164    10127.484    10763.015    12263.577   -446.79664   -1159.5566   -161.03574   -2281.6008 
12736000    265.54114   -3864.1991   -3409.0707   -3864.1991            0    6307.5639    16.924791    19.935168    20.648206    6966.6748    6759.3092    4941.8217    7221.5607   -133.27382    727.42889    1899.8046   -2768.2108 
12737000    267.44317   -3850.2925   -3391.9041   -3850.2925            0    9182.5749    16.856264    19.854453    20.564603    6882.3948    10642.277    7127.8708    9777.5768   -471.34531   -1822.2784   -451.28082   -2470.2246 
12738000    269.99939   -3834.2732   -3371.5035   -3834.2732            0     11540.99    16.885219    19.888558    20.599928    6917.9223    12130.392    11233.697    11258.881   -1283.7908    835.05997    912.39812   -2207.1238 
12739000    268.52087   -3844.3763   -3384.1407   -3844.3763            0    9661.7564    16.884437    19.887636    20.598974    6916.9611    10809.782    9373.9898    8801.4972    246.45181   -350.57728    50.457665   -2409.4938 
12740000    263.67479   -3818.9695   -3367.0399   -3818.9695            0    12362.018    16.855691    19.853778    20.563904    6881.6926    12807.597    12684.689    11593.769   -1831.4657    943.56944   -1103.8576   -2126.3578 
12741000    264.89681   -3872.2908   -3418.2668   -3872.2908            0    12307.251    16.829912    19.823413    20.532453    6850.1666    13940.451    11850.276    11131.025   -336.55398   -294.42796    1185.7678   -2188.7397 
12742000    270.75117   -3870.8425   -3406.7842   -3870.8425            0    8118.6194    16.929418    19.940618     20.65385    6972.3898    7920.4057    8096.7798    8338.6726   -865.80195    865.52234   -1053.3921   -2581.2412 
12743000    265.55635   -3832.0452   -3376.8907   -3832.0452            0    9845.8961    16.894201    19.899138    20.610886    6928.9685    11228.034    11504.372    6805.2831     610.0127   -402.12239    1573.6844   -2381.9442 
12744000    273.85726    -3836.471   -3367.0891    -3836.471            0    9587.4576    16.867544    19.867739    20.578365     6896.221    7347.7577    10238.016    11176.599   -710.96094    49.412973     409.0872   -2402.8371 
12745000    272.32497    -3829.995   -3363.2393    -3829.995            0    6583.5217    16.968179    19.986274    20.701139    7020.3912    6089.3943     7378.016    6283.1548    -567.6478    886.79682   -722.32125   -2689.1841 
12746000    267.27427   -3843.9171   -3385.8182   -3843.9171            0    10011.475     16.89861    19.904331    20.616265    6934.3946    7887.9234    11591.774    10554.728    532.25487    1040.2389    -353.3781   -2373.3473 
12747000     264.4755   -3846.8669   -3393.5649   -3846.8669            0    9131.8387    16.872008    19.872996     20.58381    6901.6969    8669.0562     9136.092    9590.3678    1639.0248     1394.146    1080.2469   -2474.4073 
12748000    278.96239   -3827.9745   -3349.8425   -3827.9745            0    12684.961    16.814072    19.804756    20.513129    6830.8434    15791.044     11717.36    10546.481    66.012312   -147.33596   -1920.7975   -2086.1559 
12749000    253.49675   -3824.1265   -3389.6417   -3824.1265            0     9695.519    16.910397    19.918213    20.630644    6948.9144    11669.109    9222.7287    8194.7192    1389.7266    -34.37028   -865.28058   -2407.0708 
12750000    272.74627   -3778.7825   -3311.3047   -3778.7825            0    9267.0374    16.918409    19.927651     20.64042    6958.7972    12290.837     7321.975    8188.2998   -894.58086    364.21533    533.92154   -2370.8217 
Loop time of 538.105 on 64 procs for 250000 steps with 864 atoms

Performance: 80.282 ns/day, 0.299 hours/ns, 464.593 timesteps/s
98.9% CPU use with 64 MPI tasks x 1 OpenMP threads

MPI task timing breakdown:
Section |  min time  |  avg time  |  max time  |%varavg| %total
---------------------------------------------------------------
Pair    | 22.291     | 27.518     | 32.853     |  48.7 |  5.11
Bond    | 0.28421    | 0.29934    | 0.31958    |   1.1 |  0.06
Kspace  | 232.55     | 243.76     | 259.59     |  38.7 | 45.30
Neigh   | 6.8232     | 7.5964     | 9.4443     |  26.7 |  1.41
Comm    | 106.79     | 124.48     | 133.89     |  56.0 | 23.13
Output  | 1.0371     | 1.0377     | 1.0394     |   0.0 |  0.19
Modify  | 124.64     | 128.01     | 131.31     |  15.9 | 23.79
Other   |            | 5.408      |            |       |  1.00

Nlocal:        13.5000 ave          19 max           8 min
Histogram: 2 3 6 11 11 7 13 6 4 1
Nghost:        2267.09 ave        2296 max        2216 min
Histogram: 1 1 2 5 11 6 7 11 12 8
Neighs:        4428.67 ave        6173 max        2474 min
Histogram: 1 4 3 7 12 17 8 4 5 3

Total # of neighbors = 283435
Ave neighs/atom = 328.04977
Ave special neighs/atom = 2.0000000
Neighbor list builds = 14608
Dangerous builds = 0

unfix		3
unfix		2
unfix		1

write_data	data.final.${pid}
write_data	data.final.0
System init for write_data ...
PPPM initialization ...
  extracting TIP4P info from pair style
  using 12-bit tables for long-range coulomb (../kspace.cpp:340)
  G vector (1/distance) = 0.37453675
  grid = 24 24 24
  stencil order = 5
  estimated absolute RMS force accuracy = 0.0031297511
  estimated relative force accuracy = 9.4251526e-06
  using double precision FFTW3
  3d grid and FFT values/proc = 2535 216
Last active /omp style is kspace_style pppm/tip4p/omp
WARNING: Not all mixed pair coeffs generated from mixing. Use write_data with 'pair ij' option to store all pair coeffs. (../write_data.cpp:312)

write_restart   restart.lmp.${pid}
write_restart   restart.lmp.0
System init for write_restart ...
PPPM initialization ...
  extracting TIP4P info from pair style
  using 12-bit tables for long-range coulomb (../kspace.cpp:340)
  G vector (1/distance) = 0.37453675
  grid = 24 24 24
  stencil order = 5
  estimated absolute RMS force accuracy = 0.0031297511
  estimated relative force accuracy = 9.4251526e-06
  using double precision FFTW3
  3d grid and FFT values/proc = 2535 216
Last active /omp style is kspace_style pppm/tip4p/omp
Total wall time: 0:09:03
