#include		in.partitions
include		in.temp
variable        temperature equal 225.10
variable	tempDamp equal 100.0
include		in.pressure
variable        pressure equal 2141.0
variable        pressureDamp equal 1000.0 # This is 1 ps
include		in.seed
variable        seed equal 745823

units		real
atom_style	full
#include		in.box
read_restart	restart.lmp.${pid}
read_restart	restart.lmp.1
Reading restart file ...
  restart file = 30 Jul 2021, LAMMPS = 30 Jul 2021
  restoring atom style full from restart
  orthogonal box = (0.12087248 0.14505786 0.051800141) to (18.086700 23.484120 22.161396)
  2 by 4 by 4 MPI processor grid
  restoring pair style lj/cut/tip4p/long/omp from restart
  restoring bond style harmonic/omp from restart
  restoring angle style harmonic/omp from restart
  864 atoms
  576 bonds
  288 angles
Finding 1-2 1-3 1-4 neighbors ...
  special bond factors lj:    0        0        0       
  special bond factors coul:  0        0        0       
     2 = max # of 1-2 neighbors
     1 = max # of 1-3 neighbors
     1 = max # of 1-4 neighbors
     2 = max # of special neighbors
  special bonds CPU = 0.002 seconds
  read_restart CPU = 0.007 seconds
include 	in.setup
variable	out_freq equal 1000
variable	out_freq2 equal 10000
variable	out_freq3 equal 1000

timestep	2.0

neigh_modify    delay 7 every 1

include		in.tip4p
# This is TIP4P/Ice

# create groups ###
group ox type 2
288 atoms in group ox
group hy type 1
576 atoms in group hy

# set charges - beside manually ###
set group ox charge -1.1794
Setting atom values ...
  288 settings made for charge
set group hy charge 0.5897
Setting atom values ...
  576 settings made for charge

# ### TIP3P Potential Parameters ###
pair_style lj/cut/tip4p/long/omp 2 1 1 1 0.1577 8.5
pair_coeff 1 1*2 0.000 0.000
pair_coeff 2 2 0.21084 3.1668
bond_style  harmonic
bond_coeff  1 450 0.9572
angle_style harmonic
angle_coeff 1 55 104.52
kspace_style pppm/tip4p/omp 1.0e-5
pair_modify tail yes

thermo          ${out_freq}
thermo          1000
thermo_style    custom step temp pe etotal epair emol press lx ly lz vol pxx pyy pzz pxy pxz pyz enthalpy

restart 	${out_freq3} restart.lmp.${pid} restart2.lmp.${pid}
restart 	1000 restart.lmp.${pid} restart2.lmp.${pid}
restart 	1000 restart.lmp.1 restart2.lmp.${pid}
restart 	1000 restart.lmp.1 restart2.lmp.1


include         in.dump
dump            myDump all atom ${out_freq2} dump.water.${pid}
dump            myDump all atom 10000 dump.water.${pid}
dump            myDump all atom 10000 dump.water.1
dump            myDump2 all dcd ${out_freq2} dump.dcd
dump            myDump2 all dcd 10000 dump.dcd
dump_modify     myDump append yes
dump_modify     myDump2 append yes


variable natoms 	equal  "count(all)"                        # NUMBER ATOMS
variable H      	equal  "enthalpy/v_natoms"                 # ENTHALPY-per-atom
variable Vol      	equal  "vol/v_natoms"                 # volume-per-atom
fix AVG all 		ave/time ${out_freq} 1 ${out_freq} v_Vol v_H file vol_enthalpy.dat
fix AVG all 		ave/time 1000 1 ${out_freq} v_Vol v_H file vol_enthalpy.dat
fix AVG all 		ave/time 1000 1 1000 v_Vol v_H file vol_enthalpy.dat


timer           timeout 23:50:00 every 1000
New timer settings: style=normal  mode=nosync  timeout=23:50:00

fix 		1 all shake 1e-6 200 0 b 1 a 1
       0 = # of size 2 clusters
       0 = # of size 3 clusters
       0 = # of size 4 clusters
     288 = # of frozen angles
  find clusters CPU = 0.001 seconds
fix             2 all nph aniso ${pressure} ${pressure} ${pressureDamp}
fix             2 all nph aniso 2141 ${pressure} ${pressureDamp}
fix             2 all nph aniso 2141 2141 ${pressureDamp}
fix             2 all nph aniso 2141 2141 1000
fix             3 all temp/csvr ${temperature} ${temperature} ${tempDamp} ${seed}
fix             3 all temp/csvr 225.1 ${temperature} ${tempDamp} ${seed}
fix             3 all temp/csvr 225.1 225.1 ${tempDamp} ${seed}
fix             3 all temp/csvr 225.1 225.1 100 ${seed}
fix             3 all temp/csvr 225.1 225.1 100 745823


run             250000
PPPM initialization ...
  extracting TIP4P info from pair style
  using 12-bit tables for long-range coulomb (../kspace.cpp:340)
  G vector (1/distance) = 0.37163938
  grid = 24 27 25
  stencil order = 5
  estimated absolute RMS force accuracy = 0.0031701649
  estimated relative force accuracy = 9.5468575e-06
  using double precision FFTW3
  3d grid and FFT values/proc = 4410 672
Last active /omp style is kspace_style pppm/tip4p/omp
Neighbor list info ...
  update every 1 steps, delay 7 steps, check yes
  max neighbors/atom: 2000, page size: 100000
  master list distance cutoff = 10.8154
  ghost atom cutoff = 10.8154
  binsize = 5.4077, bins = 4 5 5
  1 neighbor lists, perpetual/occasional/extra = 1 0 0
  (1) pair lj/cut/tip4p/long/omp, perpetual
      attributes: half, newton on, omp
      pair build: half/bin/newton/omp
      stencil: half/bin/3d
      bin: standard
Per MPI rank memory allocation (min/avg/max) = 10.19 | 10.21 | 10.23 Mbytes
Step Temp PotEng TotEng E_pair E_mol Press Lx Ly Lz Volume Pxx Pyy Pzz Pxy Pxz Pyz Enthalpy 
 3250000    231.57339   -4293.0594   -3896.1505   -4293.0594            0    2295.0619    17.965827    23.339062    22.109596    9270.6764    1675.6242    4226.2831    983.27841     762.4444   -768.74671    290.75405   -3585.8506 
 3251000    225.13666   -4304.5485    -3918.672   -4304.5485            0    2173.7667    18.100547    23.430868    21.862203    9272.0121    2889.5422    2176.0791    1455.6787   -484.28245   -55.816858    974.58954   -3624.7292 
 3252000     228.4643   -4308.8424   -3917.2624   -4308.8424            0    3194.3021    17.931218    23.222963    22.091323    9199.1805    4309.1934     2906.815    2366.8979   -1025.3972    232.95795    364.95951   -3488.7129 
 3253000     229.8864   -4327.6933   -3933.6758   -4327.6933            0    1897.3217    18.082834    23.395606    21.951129    9286.6199    2317.8443    1658.8105    1715.3102    18.430386   -435.64471   -223.94977   -3676.7105 
 3254000    205.92745    -4314.783   -3961.8304    -4314.783            0    1893.6875    17.813328    23.553374    22.163209    9298.8838    3324.4535    1458.9866    897.62246   -106.16232     -775.711    280.13395   -3705.0186 
 3255000    234.66757   -4315.5767   -3913.3645   -4315.5767            0    1294.6133    17.944502    23.495001    22.016908    9282.4628    2385.5947    878.59669    619.64837   -582.16965   -69.570969   -538.28231   -3738.1059 
 3256000    229.50291   -4301.5632    -3908.203   -4301.5632            0    2352.0551    18.133214    23.500724    21.779806    9281.3264    2307.3818    1576.4202    3172.3633    38.074442   -297.14623    83.504919   -3589.8321 
 3257000     230.8889   -4325.4655   -3929.7299   -4325.4655            0    776.01921    18.023145    23.407383     22.21677    9372.6925    984.17488    803.45684    540.42591   -1231.8709    253.07569   -90.739402   -3823.6549 
 3258000    218.12934   -4284.4323   -3910.5661   -4284.4323            0     2452.765    17.967025    23.593179    21.795533    9239.1095    2615.7205    2622.3595    2120.2149   -58.303509    871.84601    355.11441   -3580.0733 
 3259000    238.24502   -4298.6616   -3890.3178   -4298.6616            0    2554.1462    17.758209    23.483905    22.145724    9235.4778    2346.2861    3143.0615    2173.0909   -583.71013    303.24357   -143.30893   -3546.2999 
 3260000    224.80977   -4309.6253    -3924.309   -4309.6253            0    1079.3895    18.143646    23.404129    22.062874    9368.6958    301.43765    2153.9371    782.79377   -132.20308    710.86096   -104.87346    -3776.829 
 3261000    220.29287    -4304.497   -3926.9226    -4304.497            0    1605.7512    18.125899    23.345229    21.967267    9295.5206    1783.3802    2261.6722    772.20125    46.918113   -366.36613   -50.569847   -3709.2379 
 3262000    232.72621   -4283.4094   -3884.5246   -4283.4094            0    1183.5361    17.887716    23.640664    22.112295    9350.7916    2387.9334    1674.3346   -511.65969    284.58612   -94.142461    223.30759   -3723.1238 
 3263000    231.70131   -4301.0501   -3903.9219   -4301.0501            0    3138.9625     18.04363    23.537765    21.914209    9307.1117     3418.461    2945.9628    3052.4636     274.9463   -101.60382    1425.0521   -3477.8559 
 3264000     223.1545   -4324.4085   -3941.9294   -4324.4085            0    3190.9056    18.048875    23.224958    22.056738    9245.8395    3070.7834     3344.936    3156.9973   -394.97523    317.25913    581.02733   -3511.6642 
 3265000    217.91247   -4300.2232   -3926.7287   -4300.2232            0    2164.6326    18.241322    23.437876    21.904709    9365.0922    2200.0327    1656.3497    2637.5153    899.42051    104.34915   -136.80946   -3631.0826 
 3266000    226.36111   -4311.3913   -3923.4161   -4311.3913            0    2379.7246    17.763186    23.442217    22.318927    9293.7897    4017.6386    1881.5903    1239.9447   -593.76488   -62.078242    284.97143   -3600.8673 
 3267000    234.32017    -4322.006   -3920.3893    -4322.006            0    2221.3239    18.054835    23.430134     21.94824    9284.7027    3100.7138    2398.5671    1164.6909   -665.29348   -280.88048   -563.12053   -3619.6045 
 3268000    220.10382   -4323.3956   -3946.1452   -4323.3956            0    3822.1531    17.990537    23.140401    22.118168    9207.9754    3821.0621    4472.9111    3172.4861    527.75442   -173.12986    306.31147   -3432.8725 
 3269000    226.83514   -4319.9276     -3931.14   -4319.9276            0    1917.1314    18.116388    23.423493    22.017992    9343.3149    336.60657    1739.0762    3675.7115  -0.92098605   -307.34361   -112.44217   -3669.9065 
 3270000    224.66656   -4328.6832   -3943.6124   -4328.6832            0    2384.6337    17.956456    23.553891    21.935941    9277.6836    1865.5595    2072.7455     3215.596   -243.68619    132.47086    93.020096   -3620.9584 
 3271000    213.93532   -4311.2891   -3944.6113   -4311.2891            0    1742.2186    18.018662    23.488927    22.056244    9335.0635    1727.6603    2271.1577    1227.8378   -55.697124    131.03425    1040.9259   -3707.4216 
 3272000    232.13311   -4299.5253   -3901.6571   -4299.5253            0    2321.0695    18.220199    23.199861    21.959976     9282.615    534.71146    4281.6275    2146.8697    278.30854   -325.22165    259.42501   -3587.4366 
 3273000    219.75791   -4326.8709   -3950.2134   -4326.8709            0    2029.5911    18.084651    23.257913    22.097652    9294.5211    1517.6663    4370.7506    200.35636    553.77519   -522.49337   -224.24287   -3675.1002 
 3274000      241.807   -4290.2409    -3875.792   -4290.2409            0    1769.1205     17.95817    23.752289    21.762036    9282.5452    885.04083    1430.6221    2991.6985     742.5154    164.61559    662.98511   -3636.2948 
 3275000    222.26068   -4296.9066   -3915.9594   -4296.9066            0    1019.2694    17.990372    23.408726    22.163111    9333.5887    1262.4205    1142.7392    652.64854    881.56725    268.38029   -100.77938   -3777.2156 
 3276000    239.44214   -4305.5237   -3895.1281   -4305.5237            0    2150.5196    18.144524    23.287194    21.945574    9272.7743    1719.0569    2150.6516    2581.8504    2240.0326   -210.18696    355.46576   -3604.3049 
 3277000    235.65044    -4309.649   -3905.7522    -4309.649            0    2161.8567    17.814972    23.559324     22.11241    9280.7704    2266.8965    1563.1633    2655.5103   -77.997191    140.57285     767.1421   -3613.1438 
 3278000    221.69585   -4318.2523   -3938.2732   -4318.2523            0    2360.1319    17.932803    23.509773    21.995364      9273.16    2366.7224    1448.5709    3265.1024   -1203.4221   -498.63005    205.41501   -3619.0901 
 3279000    223.49631   -4338.3978   -3955.3327   -4338.3978            0    1217.3798    18.059581    23.353746     22.01768     9286.152    1730.6595    2551.3655   -629.88561   -5.9812335    1109.8604    716.95697   -3790.4642 
 3280000    231.70278   -4300.6031   -3903.4725   -4300.6031            0     1291.938    17.859876    23.361033    22.278461    9295.1345    3431.6789    323.30631    120.82882   -887.33361    -349.8843    710.20501   -3728.3373 
 3281000    232.43548   -4289.7066   -3891.3201   -4289.7066            0    3122.8115    18.074146     23.49562    21.779121     9248.793    2138.0539    3596.0985     3634.282   -221.51477    -251.4808     235.6055   -3470.1023 
 3282000     221.4134   -4297.6952   -3918.2002   -4297.6952            0    1680.1857    18.078008    23.290182     22.15913    9329.8821    1041.7363    2293.5048    1705.3161    7.6520659   -670.78415   -429.33501   -3689.5828 
 3283000    232.55429   -4316.2761    -3917.686   -4316.2761            0    2222.7691    18.165746    23.547188    21.647526    9259.7776    1739.2896    1114.5753    3814.4423   -711.72093    666.09013   -71.565224   -3617.5135 
 3284000    225.75089   -4338.1633    -3951.234   -4338.1633            0    1338.5007    17.954947    23.529488    22.116326    9343.5001    1638.3246    961.99989    1415.1775    517.11366    -56.38096    448.04185   -3768.8427 
 3285000     224.3525   -4339.3445    -3954.812   -4339.3445            0    2071.7928     18.31239    23.439574    21.593717    9268.7709   -461.40946    2841.2689    3835.5189   -546.11142    296.06994   -309.19529   -3674.7564 
 3286000    222.58159   -4327.5521   -3946.0549   -4327.5521            0    1410.5314    18.007513    23.409099     22.13495    9330.7591     571.2152    2458.9763    1201.4026   -897.09377   -499.72767    311.69394   -3754.1104 
 3287000    224.01727   -4297.8346   -3913.8767   -4297.8346            0    3270.3369    17.918701     23.48552    21.868452    9202.9012    2250.7814    2568.0761    4992.1532    812.50197   -325.21422    657.91856   -3474.9488 
 3288000    221.12136   -4302.1226   -3923.1282   -4302.1226            0    2349.3052    17.858142    23.494931    22.054637    9253.5925     2610.449    2547.6693    1889.7973   -230.51452   -253.78374    878.97172   -3606.0797 
 3289000    224.67594   -4299.0313   -3913.9444   -4299.0313            0    3118.0412    18.108058    23.164168    21.983178     9221.022     3730.879    2842.3375     2780.907    -123.4632   -988.33205    897.30803   -3494.6329 
 3290000    220.87919   -4304.8814   -3926.3021   -4304.8814            0    2705.4347    18.139078    23.229208    21.900973    9228.1153    1366.2436    2008.3896    4741.6711    556.78837    1115.8665    325.13309   -3562.1976 
 3291000    220.49138    -4305.158   -3927.2433    -4305.158            0    1659.7686    17.882902    23.388214    22.235986     9300.182     1974.467    1598.8877    1405.9512    621.81424   -306.55906   -727.81825   -3702.1229 
 3292000    230.77431   -4325.1157   -3929.5764   -4325.1157            0    1781.5675    18.026204    23.585187    21.772122    9256.4479    454.31595    2141.2807    2749.1058   -286.46411   -236.22295    -206.7946   -3689.0723 
 3293000    239.17987   -4320.5245   -3910.5783   -4320.5245            0    1555.9694    17.781557    23.287928    22.250781    9213.9508    1357.3865    2600.7049    709.81683   -670.17746   -975.43252    415.49666   -3701.4934 
 3294000    224.44542   -4303.5182   -3918.8264   -4303.5182            0    2430.3063    18.047793    23.405899    21.901182     9251.603    1302.3712    2095.4568    3893.0908   -1719.8931   -67.649312    1009.7201    -3590.917 
 3295000    212.20642   -4329.4032   -3965.6887   -4329.4032            0    2288.4874    18.136338    23.171514    22.017795    9252.8991    1597.2429    3222.0037    2046.2154    -204.6034    520.16776    814.68174    -3656.871 
 3296000    227.66232   -4302.4987   -3912.2933   -4302.4987            0    1224.7621    18.010495    23.344189    22.165294    9319.1854     1475.968    2047.5082    150.81011   -571.69414   -505.22293   -86.176471   -3745.8349 
 3297000    220.15036   -4318.5677   -3941.2376   -4318.5677            0    1334.8632    18.077895    23.726087    21.767722    9336.5615    2584.9478    1351.6443    67.997432   -234.18567   -93.903386    292.90038    -3759.477 
 3298000    219.25279   -4297.7005   -3921.9087   -4297.7005            0    2408.9011    17.989946    23.386423    22.128138     9309.761    2954.7902     3092.456     1179.457    -234.8225    48.347068     256.0756   -3594.8443 
 3299000    220.72602   -4289.2506   -3910.9338   -4289.2506            0    3461.0601    18.106182    23.276516    21.940746     9246.902    2742.5042    3654.9319    3985.7443   -904.16957    -101.1001    29.485976    -3444.187 
 3300000    214.87765    -4307.838   -3939.5451    -4307.838            0     2285.578    18.073984    23.191639    22.109613    9267.5826    2388.7432    2790.7247    1677.2662   -5.5927328   -317.20973    662.50569   -3630.6305 
 3301000    223.53211   -4277.3317   -3894.2053   -4277.3317            0    2326.9834    17.784326    23.702242    22.005683    9276.0202    2582.4054     1681.626    2716.9188   -39.271823    915.53006    836.63181   -3579.4081 
 3302000    225.31869   -4317.0178   -3930.8292   -4317.0178            0    2210.3871    17.913575    23.700904    21.883928    9291.2134    3193.6352    309.25551    3128.2707   -37.799987    222.13088   -601.79536   -3631.3156 
 3303000    227.36906   -4333.0638    -3943.361   -4333.0638            0    2403.0251     18.03594    23.314612    22.002646    9252.1335     1877.085    2927.7326    2404.2576   -566.56629   -418.46705    87.096304   -3619.1139 
 3304000     227.8701   -4298.4109   -3907.8493   -4298.4109            0    2005.5656    18.140275    23.236221    22.004694    9275.2299    1115.0263    851.13481    4050.5358   -582.60801   -1098.3536   -238.12556    -3636.557 
 3305000    224.46058   -4303.1477   -3918.4299   -4303.1477            0     1928.402     18.06065    23.287117    21.943175     9228.871    2335.5774    1914.2946     1535.334    468.12424    584.07909    218.47353   -3658.8793 
 3306000    235.68137   -4291.1092   -3887.1594   -4291.1092            0     1476.343    17.806682    23.672437    22.013499    9279.2966    2752.8106    64.129091    1612.0892    104.18167    288.35837   -624.47034   -3687.3674 
 3307000    225.89235   -4313.7109   -3926.5391   -4313.7109            0    2413.9305    17.933522    23.546603    21.935422    9262.7478    2539.9477    1522.0842    3179.7594    1428.4875    213.27984    233.83046   -3600.4469 
 3308000     228.1326   -4316.5777   -3925.5662   -4316.5777            0     2608.662    18.233399    23.201977    21.893917    9262.2414    854.78741    3537.0071    3434.1915   -158.88326   -422.92637    -176.9844   -3573.1874 
 3309000    217.21809   -4293.7168   -3921.4124   -4293.7168            0    572.76013    18.140287    23.267492     22.18686    9364.6075    75.290688    974.97948    668.01022    1096.1278   -350.53867    248.33846   -3843.1887 
 3310000    215.33025    -4322.803   -3953.7343    -4322.803            0    1994.9423    18.051155    23.434355    21.909576    9268.1269    1227.0853    1997.7321    2760.0094    392.65256   -181.06384   -520.60141   -3684.0857 
 3311000    224.87483   -4311.3028    -3925.875   -4311.3028            0     2927.874     17.80738    23.529334    22.100085    9259.8427    3185.8852    3066.3449     2531.392      -652.38   -118.33756    650.24294   -3530.4794 
 3312000    237.11728   -4314.9447   -3908.5338   -4314.9447            0    2411.0734    18.054172    23.492486    21.859734    9271.5306    1479.6828    1841.5955    3911.9418    364.16559   -39.929424    420.09624   -3582.5186 
 3313000    224.32798   -4274.1631   -3889.6727   -4274.1631            0    2596.5279    18.247993    23.148331    21.987881    9287.9134    2869.4011    3443.5476    1476.6352    65.581242    487.98591    409.05024   -3537.9608 
 3314000    222.68751   -4309.2806   -3927.6018   -4309.2806            0    2252.7703    18.032914    23.304829    22.078205     9278.454    2254.5247    1508.7256    2995.0608   -1068.7469   -539.70397    222.75409   -3622.7643 
 3315000    220.06728   -4327.8314   -3950.6436   -4327.8314            0     2780.677    18.073666    23.526374    21.739316    9243.7274    2945.8754    1424.5708    3971.5848   -136.42839   -351.30475    28.741879   -3575.7797 
 3316000    238.47974   -4309.7698   -3901.0237   -4309.7698            0    1960.2811    17.951004    23.307459    22.220774    9297.0006    2683.1027    1808.2695    1389.4712    519.85264   -118.79808    400.80759   -3635.2346 
 3317000    218.18715    -4327.633   -3953.6677    -4327.633            0    1294.5587    18.337759    23.379912     21.73526    9318.6707    790.64642    858.23076    2234.7989   -684.48287     330.3215    83.141752   -3777.7329 
 3318000    230.51699   -4325.0838   -3929.9856   -4325.0838            0    2147.9409    18.029595    23.134726    22.190079    9255.6981     1463.599    3146.9473    1833.2765   -673.12993    -148.5674    490.41205   -3640.0461 
 3319000    217.88015   -4335.4765   -3962.0374   -4335.4765            0    2228.0366    18.078399    23.597964     21.67043    9244.8964    2702.3268    1534.4819     2447.301    711.61651    950.44858    240.00713   -3661.6372 
 3320000    219.62275   -4299.1661   -3922.7402   -4299.1661            0    1747.1162    17.893531    23.511636    22.135742    9312.6433    1921.3947      577.708    2742.2459   -3.8143698   -190.17916    284.86302    -3685.455 
 3321000     229.8529   -4326.4265   -3932.4665   -4326.4265            0    2776.8804    18.007825    23.375364    21.994862    9258.5054    3320.3469    3146.8781    1863.4161   -84.145932     38.92954   -87.647858    -3557.516 
 3322000     231.1965   -4264.1594   -3867.8965   -4264.1594            0    3301.2254    18.080964    23.112131    22.012409    9198.7571    2833.0456    3691.5892    3379.0413    1485.2982   -349.02248    168.82963   -3425.0225 
 3323000    214.42675   -4322.3947   -3954.8745   -4322.3947            0    506.32573    18.118802    23.244061    22.205483    9351.9402    285.14096    461.37909    772.45713    1316.2731   -181.88008     335.7476   -3885.8176 
 3324000    223.71261   -4320.9642   -3937.5284   -4320.9642            0    1763.3709    17.961964    23.637044    21.934183     9312.546    1266.8347    1585.1682    2438.1099    449.60401   -415.54318    435.77148   -3698.0381 
 3325000    225.21868   -4318.0952   -3932.0781   -4318.0952            0      1694.15    17.823249    23.606502     22.16663     9326.489    2996.2131    619.58916    1466.6478    424.65331    80.379776   -57.195867   -3701.6445 
 3326000     216.6733    -4303.441   -3932.0703    -4303.441            0    2877.5102    18.059531    23.229073    22.099493    9270.8732    4066.7283    2983.1837    1582.6187     311.1182    37.514143    1041.4824   -3543.0132 
 3327000    222.81195   -4322.8105   -3940.9184   -4322.8105            0    1029.1773    18.151909    23.356609    21.946876    9304.7524    278.45157    1382.6846    1426.3957    131.81782   -784.41119    471.70484   -3801.2588 
 3328000    240.37154   -4302.3765   -3890.3879   -4302.3765            0    2132.1924    17.959376    23.402139    22.013635    9252.0627    2246.0036    1351.0811    2799.4923     284.8865   -588.79347   -529.16884   -3602.6872 
 3329000    227.66465   -4326.8707   -3936.6613   -4326.8707            0    2627.8898    18.014155    23.642326    21.766234    9270.1632    2109.0335    2619.2875    3155.3484    53.491884   -418.16376   -53.210823   -3581.3816 
 3330000    233.04547   -4290.2291   -3890.7971   -4290.2291            0    1802.0217    17.904401    23.360904    22.326599    9338.3901    2819.6945    2695.4876   -109.11683   -36.729275   -757.70355    728.27093   -3645.3783 
 3331000     226.3751   -4310.6332    -3922.634   -4310.6332            0     1271.233    18.072152    23.390956    22.020445    9308.5907    1739.3412    1738.0918    336.26611   -653.50916    -756.2909   -121.97676   -3750.0562 
 3332000    223.37668   -4325.1044   -3942.2444   -4325.1044            0    2397.2347    18.270179    23.265124    21.906659    9311.6004    1506.2468     3234.883    2450.5742    171.55569   -82.413041    366.05131   -3616.6996 
 3333000    215.77265   -4313.4019   -3943.5749   -4313.4019            0    1226.5328    17.948471     23.50096     22.10805    9325.3149    1737.0262    285.05038    1657.5219   -59.609683   -14.790783   -330.40905   -3776.7663 
 3334000     230.2717   -4288.8335   -3894.1556   -4288.8335            0    2089.1969    18.019971    23.546756    21.967047    9320.8784    2621.3137    1972.9738    1673.3033   -1126.8126   -265.13827     224.7052   -3610.1597 
 3335000    227.28496    -4313.489   -3923.9304    -4313.489            0    3201.5179    18.090477    23.245769    21.919587    9217.7791    2772.3019    3841.0325    2991.2194    649.24739    5.9522777      241.361   -3493.5444 
 3336000    228.99661    -4321.013   -3928.5206    -4321.013            0     3052.195    18.010352    23.307155    22.125471    9287.6104    3224.5303    4051.4674    1880.5873    289.53703    -171.1496    530.47677      -3515.1 
 3337000    229.43049     -4331.73    -3938.494     -4331.73            0    1984.3529    18.064666    23.440462    21.870817    9261.0691    1986.0527    3014.0986    952.90738    193.91005    35.627957   -938.36142   -3670.4809 
 3338000    232.54775   -4297.7658   -3899.1869   -4297.7658            0    2008.9886    17.878274    23.425167    22.214303    9303.3845    1907.3411    2145.3725    1974.2521   -143.98183    723.79737   -393.96704   -3626.6067 
 3339000    214.81524   -4326.5601   -3958.3742   -4326.5601            0    2772.4995    18.101055    23.460309    21.727894    9226.8876    1781.0423    1963.4674    4572.9887   -712.47856    -62.01195    115.20938   -3585.2936 
 3340000    226.37869   -4319.5965   -3931.5912   -4319.5965            0    2065.6431    18.015815    23.349385    22.133446    9310.6152    3132.6807     2845.858    218.39048   -638.91033    -154.3182  0.026513166   -3651.1062 
 3341000    216.84225   -4321.8498   -3950.1896   -4321.8498            0    1478.3786    18.085832    23.503567    21.921547    9318.4459    1006.4522    518.45433    2910.2293   -207.63407   -429.68527    816.82113    -3749.278 
 3342000    225.56788   -4303.5502   -3916.9346   -4303.5502            0    1537.1838    17.935693    23.539665    22.142712    9348.6575    1304.0875    1083.4067    2224.0572     104.9581    -158.8043   -326.80744   -3707.3541 
 3343000     229.6296    -4340.258   -3946.6807    -4340.258            0    1750.5273    17.965773    23.528144    21.989264    9294.8902    2918.8635    1700.2177    632.50077    773.89747    -103.2894    178.27969   -3709.3854 
 3344000     224.0516   -4318.4638    -3934.447   -4318.4638            0    2451.7608    18.138278    23.402075    21.848167    9273.9645    3346.1154    1022.0292    2987.1377    591.83548    415.53611   -284.18777   -3602.8432 
 3345000    229.58583   -4336.1546   -3942.6523   -4336.1546            0    2325.1303    17.979689     23.06212    22.254857    9227.9705     3801.777    2077.7775    1095.8363   -772.61972   -214.11315   -812.44933   -3629.7352 
 3346000    226.02255   -4290.9147   -3903.5198   -4290.9147            0    1290.2913    18.150573    23.583363    21.865809    9359.6934    1288.0508   -162.48488     2745.308     681.9739   -723.17986   -245.03385   -3727.3931 
 3347000     225.8972   -4313.0275   -3925.8475   -4313.0275            0     1849.359    17.882389     23.49811    22.126045    9297.4158    1315.8754    1710.0593    2522.1422    78.712926    416.76708     74.87244   -3675.0868 
 3348000    221.64292   -4336.2492   -3956.3608   -4336.2492            0    3211.1259    18.040871    23.379517    21.870807    9224.8192    1877.8254    5149.9511    2605.6012   -503.13891   -803.73824    401.51701   -3524.3535 
 3349000    236.56038   -4326.1531   -3920.6967   -4326.1531            0    1050.6948    18.216444    23.147746    22.108048    9322.2918   -118.51422    1560.8554    1709.7433   -426.22377   -507.96391   -383.77312   -3777.8484 
 3350000    218.90727   -4321.4388   -3946.2392   -4321.4388            0    1586.5034    18.100352    23.441289    21.988583    9329.6583    1659.1444    1663.2576    1437.1081    796.38925     38.75107    227.60779    -3730.374 
 3351000    220.98775   -4338.9451   -3960.1797   -4338.9451            0     2279.494    17.872495    23.520881    22.024264    9258.4905    2988.7486    1529.7939    2319.9395   -318.17067    898.26129    50.126144   -3652.3897 
 3352000    239.37814   -4332.4272   -3922.1412   -4332.4272            0    1750.9589    17.978562    23.479426    22.115209    9335.4118    2124.5853    1042.7494     2085.542    86.090149    192.84837   -48.246848   -3683.7527 
 3353000    237.83023   -4321.3975   -3913.7646   -4321.3975            0    1829.2208    18.231994    23.276473    21.905774    9296.2962    482.12821    2452.2455    2553.2888    125.43787   -29.183247    586.62619   -3665.7644 
 3354000    227.68011   -4316.8857   -3926.6498   -4316.8857            0    2781.8365    17.941995    23.156024    22.303203    9266.2062    1772.1408     3795.146    2778.2227   -1047.4373    -177.9264   -97.040264   -3550.7177 
 3355000    226.47955   -4298.7689   -3910.5907   -4298.7689            0    2618.0692    17.972043    23.587847    21.931754    9297.3484    2114.8027     2562.693    3176.7119   -1170.7418    235.90078   -443.74537   -3555.6007 
 3356000    224.08287   -4329.9509   -3945.8805   -4329.9509            0    3405.2124    17.776582    23.395688    22.182523    9225.6084    4896.0686    2798.7799    2520.7887    103.69724   -353.84866     337.9932   -3487.7227 
 3357000     227.3398   -4336.0526      -3946.4   -4336.0526            0    1387.6102    18.198062    23.288288    22.002695    9324.7796    316.12476    2377.0059    1469.6998   -13.802821   -617.37714   -639.36425   -3757.6956 
 3358000    219.29701   -4296.2619   -3920.3944   -4296.2619            0     2333.455    18.079023    23.205317     22.08979    9267.3176    2833.9885    3637.2772    529.09916    997.25997   -423.53547    738.41647   -3605.0178 
 3359000    221.77847   -4316.6124   -3936.4917   -4316.6124            0    1369.7957    17.968913    23.513155    22.148142    9357.7194    2303.8593     1582.817    222.71072    -34.51131    -118.5499    365.18437   -3749.5519 
 3360000     220.0331   -4311.1847   -3934.0555   -4311.1847            0    1666.0317    17.930979    23.558756    22.078966    9326.8523    2774.3644     1622.829    600.90161    1032.4724    126.27765    498.44472   -3707.4375 
 3361000    230.32894   -4320.1664   -3925.3905   -4320.1664            0    2625.7548     18.09106     23.27702    22.135545    9321.4103     2544.544    2539.8075     2792.913    -296.3848   -473.81413   -902.22103   -3568.4369 
 3362000    221.82493   -4306.9705   -3926.7701   -4306.9705            0    563.72814    18.268023    23.401483    21.914645     9368.485    409.77677    58.570262    1222.8374   -249.27523    105.30844    321.49923   -3849.7481 
 3363000    237.18012   -4339.4279   -3932.9093   -4339.4279            0    1572.2287    17.983782    23.334331    22.124215    9284.1954    465.26987    1456.6055    2794.8107    289.77349    450.99168   -464.60558   -3720.0288 
 3364000     232.5219   -4290.0721   -3891.5375   -4290.0721            0    2485.9054    17.875591    23.588071    21.878023     9224.884    2383.6264    1172.9496    3901.1403    55.869269   -148.49329    1484.7466    -3557.095 
 3365000    239.17762    -4313.527   -3903.5848    -4313.527            0    3050.4575     17.79034    23.503652    22.083518    9233.9572    3259.3475    3149.6325    2742.3926   -127.91294   -763.54701    481.46948   -3492.7864 
 3366000    231.15847    -4338.809   -3942.6113    -4338.809            0    2027.5386    18.201962    23.301939     21.81303    9251.8002    263.73409    1631.8619    4187.0198   -553.70605    271.81796    40.843236   -3669.0395 
 3367000      223.593   -4338.4489   -3955.2181   -4338.4489            0    2137.1334    18.083182    23.031533    22.250031    9266.7685    841.34115     4523.574    1046.4852    -1280.425    268.08747    -258.4168   -3666.3924 
 3368000    219.92141   -4323.9896   -3947.0518   -4323.9896            0    1036.9026    17.958802    23.609902    21.990485    9324.0878    2056.2576    559.07224    495.37799     341.9311   -472.91382   -264.53226   -3806.0514 
 3369000    220.15199      -4293.1    -3915.767      -4293.1            0    2911.2655      17.7896    23.469466    22.167001    9254.9983    3712.6427    1873.1141    3148.0398   -735.82193    34.166024    220.61371     -3522.82 
 3370000    212.08335   -4302.5193   -3939.0157   -4302.5193            0    2245.3873    18.162436    23.235747    21.984593    9277.8889    2698.2949    2377.4831    1660.3841    340.84604    -808.3607    509.40262   -3635.1957 
 3371000    224.04343    -4324.064   -3940.0613    -4324.064            0    2494.9359    18.022113    23.209155    22.145845    9263.1204     3097.188    1873.1593    2514.4605    823.78465   -816.27911    810.13311   -3603.0126 
 3372000    232.04335   -4300.3586   -3902.6442   -4300.3586            0    2002.2866    17.933842    23.573562    21.987711    9295.6244    2444.6168    2344.2979    1217.9452   -10.477957   -391.38656    887.09595   -3631.1999 
 3373000    211.12248   -4319.7987    -3957.942   -4319.7987            0    2696.5152    17.838075    23.563897    22.057141    9271.3787    2174.0665    2720.5346    3194.9447   -17.208026   -37.742915   -891.61226   -3593.3366 
 3374000     231.7313   -4302.7259   -3905.5463   -4302.7259            0     893.1482    18.174124     23.27779    22.054467    9330.2186    848.62263    892.54183    938.28012    171.25892    1031.7892    25.190764   -3784.0142 
 3375000     234.5046   -4293.9431   -3892.0102   -4293.9431            0    2357.8175    18.199381    23.264725    22.001754    9315.6218    1896.8175    3120.5978    2056.0372   -1009.0689    931.23844    -654.1277     -3571.68 
 3376000    228.77456   -4317.3711   -3925.2593   -4317.3711            0    2287.0359    17.845054    23.506771    22.133827    9284.6891    3369.6214    2057.7159    1433.7705   -1048.2329   -269.37071   -374.19618   -3615.5771 
 3377000    237.27893   -4329.1515   -3922.4635   -4329.1515            0    1730.4512    18.044226    23.622393    21.809423    9296.2189    1653.0113    2075.8669    1462.4754    -957.5404   -493.92871   -394.54967   -3687.8562 
 3378000    230.32064   -4320.6729   -3925.9112   -4320.6729            0    2612.8318    18.058032    23.146275    22.076128    9227.2955    3141.9127    2976.8712    1719.7114    56.897554    357.70949    1011.7524   -3574.3007 
 3379000    232.60466   -4304.6248   -3905.9483   -4304.6248            0     1227.419    18.245624    23.302576    21.927871    9323.0738    343.65929    2773.2432     565.3545    486.24354   -129.22011    159.80163   -3739.0593 
 3380000    224.08527   -4335.1946   -3951.1201   -4335.1946            0    2436.5227    17.977234    23.440351    22.038906    9287.0337    1091.5755    2841.8235    3376.1692   -715.08688   -851.66559    500.05457   -3621.1129 
 3381000    213.33123   -4318.0855   -3952.4431   -4318.0855            0    1472.1282    17.929548    23.465323    22.150594    9319.2561    2297.2952    478.68034    1640.4091   -252.93569   -874.88111    352.30065   -3752.3635 
 3382000    233.67937   -4303.0424    -3902.524   -4303.0424            0    2581.3204    18.172074    23.345211    21.894801    9288.4513    2950.1783    2627.9342    2165.8487    85.988454    163.36571    647.97917   -3552.8518 
 3383000    226.80575   -4330.3758   -3941.6385   -4330.3758            0    2480.0901    18.243424    22.959078     22.12389      9266.64    2910.4111    3338.1249    1191.7343   -667.25179    671.35515    23.953473   -3606.4681 
 3384000    219.95516   -4327.5096    -3950.514   -4327.5096            0    2650.5507     17.96154    23.450637    21.971667    9254.6762    3052.9152    2404.8031    2493.9339   -338.47112    275.13381    214.83004   -3592.7693 
 3385000    220.07954   -4332.5999   -3955.3911   -4332.5999            0     2830.097    17.874673    23.451186    21.926906    9191.3701    2858.1048    2546.8465    3085.3398    359.60923   -268.80184   -196.24007   -3576.0259 
 3386000    216.35834   -4299.5666   -3928.7358   -4299.5666            0    2484.0482    17.915139    23.550418    22.040443    9299.0616    3535.5763    860.13585    3056.4326   -431.31802   -50.659302   -239.31987    -3591.856 
 3387000    208.82517   -4306.5427   -3948.6235   -4306.5427            0    2173.3433    18.145226    23.287878    22.030774     9309.408    2608.0634    1002.4298    2909.5367    -201.5422    -433.3393    -892.5045   -3653.5527 
 3388000     226.9047   -4313.3071   -3924.4002   -4313.3071            0    2951.1702    18.163849    23.212235    21.992177    9272.4192    2802.4624    2689.7553     3361.293   -370.40743   -555.86436    668.96462   -3525.3172 
 3389000    208.80677    -4326.724   -3968.8364    -4326.724            0    2615.5782    17.846663    23.532117    22.017569    9246.7129    2671.6629    2759.6827    2415.3892   -1106.6684    206.85689   -230.50864   -3616.1156 
 3390000    221.40393   -4308.1514   -3928.6726   -4308.1514            0    1273.7377    17.961805    23.575789    21.999203    9315.8647    2599.7188   -115.66923    1337.1637    778.76268    159.92203   -544.12246   -3755.6197 
 3391000    227.15885   -4343.7387   -3954.3962   -4343.7387            0     2888.402    18.114722    23.358927    21.923633    9276.7763    2852.4552     1986.662    3826.0888   -712.14623   -551.66093    249.43861   -3563.6177 
 3392000    222.58176   -4321.3839   -3939.8864   -4321.3839            0    3065.8061    18.123935    23.088569    22.062888    9232.3421    2338.5696    4256.3718    2602.4768    76.887164   -175.04325    170.53963   -3527.0933 
 3393000    209.62438   -4305.2788   -3945.9898   -4305.2788            0    990.22172    18.041975    23.555342    22.038361    9365.9705    1031.5463    1223.1762    715.94261    937.33887    -965.0687   -29.895443   -3810.7323 
 3394000    217.72415   -4303.6461   -3930.4743   -4303.6461            0    913.29333    17.890271    23.694874    22.003776    9327.5705    923.66485    801.99331    1014.2218    258.26305   -558.89194    150.16411   -3806.2362 
 3395000    221.13997   -4285.2379   -3906.2115   -4285.2379            0    2666.4244    18.090098    23.293716    22.018526    9278.2895    2882.3607     3588.634    1528.2786   -538.61613   -413.07139   -452.15718   -3545.4061 
 3396000     213.1995   -4303.8081   -3938.3914   -4303.8081            0    1378.4954    18.157298    23.280974    22.043959    9318.4132      245.826    2325.9342    1563.7259   -46.139348   -346.43488   -1052.1054   -3751.0546 
 3397000    219.28872   -4330.6039   -3954.7505   -4330.6039            0    2738.1069     17.81883    23.399707    22.197204    9255.2441    4660.9907    2892.4956     660.8343   -1126.2114   -448.44946   -772.49287   -3585.1657 
 3398000    205.71592   -4309.1224   -3956.5324   -4309.1224            0    1941.9659    18.076495    23.544483    21.773389    9266.7917    1230.2607    3100.7816    1494.8554   -257.31878   -432.13042   -349.91234   -3694.0822 
 3399000    238.00807   -4307.6262   -3899.6885   -4307.6262            0     1618.709    17.997554    23.345624     22.17837    9318.5558    2086.4933    1542.6958     1226.938    547.12149    279.90119    603.77229   -3679.7034 
 3400000    230.60945   -4337.3927    -3942.136   -4337.3927            0    1391.8772    18.143394    23.423674    21.871342    9294.9908     2037.585    2015.9107    122.13569   -1037.9731    167.59295     202.9031   -3753.4561 
 3401000    232.36794   -4300.9854   -3902.7147   -4300.9854            0    1959.7537    17.880925     23.44946    22.136131     9281.636    3697.0743       2095.3    86.886931   -1722.8406    101.85819     342.9561   -3637.4363 
 3402000    218.54259   -4333.0651   -3958.4905   -4333.0651            0    2272.2803    17.972462    23.549708    21.907209    9272.1436    2033.6465    1920.7315    2862.4628   -432.02543   -558.70759    644.16885   -3651.2221 
 3403000    227.11687   -4311.9888   -3922.7182   -4311.9888            0    2062.7602    18.030001    23.447835    22.016833    9307.9347     1876.901    1228.5985    3082.7811   -718.99012    -252.5222   -660.88619   -3642.7054 
 3404000    216.12706   -4316.7941   -3946.3598   -4316.7941            0    1305.7366    18.026218    23.275067    22.179249    9305.5573     1752.706     1869.092    295.41176   -714.67632    470.19513   -829.12739   -3769.1556 
 3405000    232.95616   -4340.0102   -3940.7313   -4340.0102            0    1623.0598    18.053298    23.409198    21.953187    9277.7075    2017.3789     807.5689    2044.2317   -71.764009   -835.42169    27.417439   -3721.1218 
 3406000    209.40151    -4333.158    -3974.251    -4333.158            0    2838.0747    17.947224    23.379799    21.987879    9226.1692    3068.8841    2105.9944    3339.3455   -620.00241   -70.072766     -222.594   -3592.3761 
 3407000     218.9232   -4320.0326   -3944.8058   -4320.0326            0    741.97669    18.091911    23.670692    21.780746    9327.5624    1309.9593   -363.02415    1278.9949   -474.35289   -239.23453    654.53239   -3843.8725 
 3408000    233.15527   -4341.2076   -3941.5875   -4341.2076            0    2214.7073    17.993725    23.280702    22.030555     9228.744    1271.0284    2330.0073    3043.0862    155.07306    394.07181   -84.197095   -3643.5061 
 3409000      228.978   -4328.1166   -3935.6561   -4328.1166            0    1673.9363     18.24387    23.201609    22.029721    9324.8981    1162.9979    2011.8157    1846.9952   -811.69984    296.95061    1114.8363   -3708.0107 
 3410000    243.19582   -4326.0133    -3909.184   -4326.0133            0    1849.4484    17.972869    23.464491    21.992186    9274.6374    3116.7322    900.37403    1531.2389     451.2539    651.11664   -26.366405   -3659.0256 
 3411000    222.45191   -4336.1036   -3954.8287   -4336.1036            0    2100.8801    17.788568    23.656182    21.929433    9228.1157    3267.1793    1025.2146    2010.2465   -528.07343    -639.3897    307.87248   -3672.0867 
 3412000    219.04399   -4315.5769    -3940.143   -4315.5769            0    1379.7456    18.100285    23.330671    22.107805    9335.9444    1423.1323    1554.6533    1161.4513   -617.70539   -527.52135     366.8589   -3752.2835 
 3413000    217.87964   -4293.8726   -3920.4343   -4293.8726            0    3283.4926    18.247776    23.091475      21.8081     9189.237    2366.1199    4115.3707    3368.9872    95.207304   -413.87483   -177.83213   -3480.3951 
 3414000    219.60599   -4317.4273   -3941.0302   -4317.4273            0    2568.1073    18.021102    23.352455    22.038464       9274.6    2235.7183     2893.511    2575.0925   -776.43351     1180.683    186.21593   -3593.6666 
 3415000    218.30874   -4305.8687    -3931.695   -4305.8687            0     2356.362    17.782174    23.711485    21.960946    9259.6515    2705.3525    439.35136    3924.3822   -270.99749   -141.12713    215.54954   -3613.4859 
 3416000    226.20144   -4298.8816   -3911.1801   -4298.8816            0     3932.345    17.972811    23.322955    21.906097     9182.577    3096.4249    3251.5898    5449.0202    -213.2836    123.69169    1313.2595   -3384.5665 
 3417000    213.05214   -4323.5658   -3958.4017   -4323.5658            0     1507.504    18.116864    23.248988    22.117402    9315.8226    2534.8233    541.59129    1446.0974   -659.20053   -887.17267     173.5214   -3753.5896 
 3418000    237.56658   -4301.9171   -3894.7361   -4301.9171            0    685.08747    18.114404    23.472014    21.872998    9299.9955    569.77403    906.00417    579.48422    665.16651   -230.61046    280.43317   -3801.8171 
 3419000     228.4149   -4294.5964   -3903.1011   -4294.5964            0    2714.0413    17.887853    23.389932    22.109005    9250.3114    1640.3057    2408.8602    4092.9579    78.677702   -9.0550921    349.02417   -3536.9598 
 3420000    226.29503   -4315.9988   -3928.1369   -4315.9988            0    3352.2138    18.067639    23.399566    21.687443    9168.9068    985.05144    3852.6622    5218.9277    109.17241    303.40317   -520.74856   -3479.8819 
 3421000    226.49179   -4314.3656   -3926.1665   -4314.3656            0    2134.9415    17.936789    23.241492    22.203942    9256.3288    1569.3778    2420.4679    2414.9787    323.87609    425.58225    -172.0231    -3637.962 
 3422000    221.11601   -4320.6847   -3941.6994   -4320.6847            0    1868.6453    18.026337    23.595439    21.899352     9314.656     2586.816    739.83504    2279.2849    -553.2626    214.43125   -53.054006   -3687.8538 
 3423000    217.87729   -4315.8838   -3942.4496   -4315.8838            0    1667.9697    18.006952    23.420917    22.123997      9330.56    2618.4108    195.81968    2189.6787    -700.7785   -943.65683   -257.10813   -3715.4779 
 3424000    229.86469   -4338.4284   -3944.4481   -4338.4284            0    1433.6815    18.008597    23.326721    22.100043      9283.82    710.87203    1587.5941    2002.5784   -133.29258    125.44045   -153.27362   -3750.3348 
 3425000    224.56108   -4300.1733   -3915.2833   -4300.1733            0    3552.6838    18.066604    23.415286    21.817564    9229.5867    2865.8664    2991.5701    4800.6148   -794.90464    412.12422    288.91473   -3437.0777 
 3426000    214.37752   -4310.8833   -3943.4476   -4310.8833            0    1806.0189    17.909078    23.366165    22.193622    9287.2866    1920.8019    961.32293    2535.9317    422.27704    483.47204   -226.58278   -3698.8303 
 3427000    237.08465   -4311.4733   -3905.1184   -4311.4733            0    2596.4802    18.067411    23.396424    21.787752    9209.9618    2442.7537    2266.3452    3080.3416   -416.04134    179.83803   -691.82833   -3556.3647 
 3428000    237.34954   -4323.6249   -3916.8159   -4323.6249            0    1318.9991    17.981806    23.250965    22.262107    9307.6609    1675.5805    430.22444    1851.1923    1109.9353   -145.41909    686.80313   -3737.7714 
 3429000    217.19322    -4304.503   -3932.2413    -4304.503            0    2335.4896    18.047967    23.494896    21.832757    9257.8553    2964.7952    2007.2628    2034.4109   -269.93131   -142.89549    866.29641   -3616.9121 
 3430000    214.64124   -4305.6786   -3937.7908   -4305.6786            0     1584.864    17.897164     23.40133    22.194368    9295.3883    1758.0294    1630.0453    1366.5172   -1089.8942    113.10758    111.19252   -3722.9408 
 3431000    233.03841   -4320.4184   -3920.9986   -4320.4184            0    1320.2586     17.99304     23.46141     22.09068    9325.4062   -461.09047    3012.8231    1409.0431    289.17163   -95.200598   -74.072751   -3741.4414 
 3432000    231.85654   -4292.8936   -3895.4995   -4292.8936            0    3593.6718    18.080212    23.347337    21.839712    9219.0839    3343.9611    3824.1749    3612.8795    37.024271    -802.0986    783.28456   -3412.3271 
 3433000    217.28484   -4309.3011   -3936.8823   -4309.3011            0    2181.6947    18.027057     23.25535    22.074429    9254.1636    407.54064    3275.7108    2861.8325   -332.10339   -291.90333   -255.64009   -3642.4354 
 3434000    217.02105   -4315.6546   -3943.6879   -4315.6546            0    939.16717    17.929989    23.696251    21.882181    9297.1598     1597.015    993.75873    226.72776   -138.25763   -438.82529    14.217894   -3816.3467 
 3435000    238.63682    -4316.789   -3907.7737    -4316.789            0    2381.5247    17.858057    23.520108    22.058977    9265.2874    2206.4235    1317.5153    3620.6354    132.34774   -571.44455    374.25165   -3585.9709 
 3436000    233.16601   -4307.0659   -3907.4274   -4307.0659            0    2608.4759    18.085919    23.211476    21.997093    9234.3991    2279.6965    3221.5785    2324.1527    938.11499    361.45897   -61.189145   -3556.1329 
 3437000    220.44374   -4320.4557   -3942.6227   -4320.4557            0    1164.0072    18.125287    23.463868    21.954651    9337.0789    1760.0295    429.32516    1302.6669   -577.66197    908.88039    335.95742   -3784.1178 
 3438000    234.47061   -4301.2171   -3899.3425   -4301.2171            0    3465.7077    17.779358    23.379356    22.078049    9177.1812    2233.9468    3763.6606    4399.5156   -762.96489    -281.4581   -825.93968    -3435.493 
 3439000    220.86577   -4330.9202   -3952.3638   -4330.9202            0    1923.7943    17.977996    23.407101    22.087038    9294.5072    2258.1819    1912.9101    1600.2908   -456.48358   -411.74559    7.6263396   -3691.5919 
 3440000     235.8028   -4291.5729   -3887.4149   -4291.5729            0    2021.2931    18.178934    23.057492    21.988636    9216.7702    1583.2009      2074.39    2406.2885    289.95728   -885.57482    -304.6233   -3615.7185 
 3441000    236.29219   -4324.2827    -3919.286   -4324.2827            0    1751.5709    18.093197    23.258189    22.010573    9262.3791    195.96829      1760.18    3298.5644   -131.42553     80.17405    497.09318   -3682.6798 
 3442000     228.7145   -4314.7557   -3922.7469   -4314.7557            0    966.88646    17.752361    23.653066    22.242635    9339.6327    1804.9625    275.55086    820.14606    343.62977   -939.66479   -686.25009   -3791.0483 
 3443000    229.69153   -4320.6756   -3926.9922   -4320.6756            0    1301.5721    17.988891    23.689615    21.910204    9337.0312    1972.6456    23.565812    1908.5049   -51.118281   -120.87938    637.00606   -3749.7558 
 3444000    224.74858   -4288.6134   -3903.4021   -4288.6134            0    1964.5173    18.030402    23.363768    22.103919    9311.4556    3028.5041    1276.4818    1588.5659   -572.76358    278.66052   -1016.6845   -3636.6245 
 3445000    228.09411   -4324.6931   -3933.7476   -4324.6931            0    2566.0505    18.169319    23.324551     21.86212    9264.9741    2046.4646    2094.9632    3556.7238     504.6635   -371.20617   -400.39741   -3587.0224 
 3446000    232.33573   -4326.7257   -3928.5102   -4326.7257            0    2474.9806    18.097472    23.276904    21.977254    9257.9869    1257.2813    3974.6852    2192.9752    443.52923     571.9704    321.79471   -3594.3427 
 3447000    219.61226   -4299.6305   -3923.2226   -4299.6305            0    2443.5548     17.98321    23.418309    22.033092    9278.9362    1772.4324    3844.8572    1713.3748    782.26762    141.60819   -27.268679   -3592.5516 
 3448000    231.49762   -4314.3331   -3917.5541   -4314.3331            0    2251.2688    17.910841    23.491031    22.054339    9279.2336    2066.4631    2393.6153    2293.7279   -654.57644    856.15909    541.69629   -3612.8941 
 3449000    233.03594   -4308.7451   -3909.3295   -4308.7451            0    1147.2883    18.104882    23.320946    22.140851     9348.376    688.59969    1361.3165    1391.9488    59.688344    103.30124    470.35863   -3752.9122 
 3450000    224.63782   -4315.6846   -3930.6631   -4315.6846            0    2975.2004    18.137955    23.291629    21.878946    9243.0348    2346.7912    3448.2817    3130.5283   -470.69011   -883.58837   -175.46162   -3529.6055 
 3451000    222.89203   -4307.0079   -3924.9785   -4307.0079            0    2749.3933    17.902203    23.517369    22.023015    9271.9693    4210.4122    1006.9002    3030.8677    572.05832    198.03912   -196.06544   -3553.1996 
 3452000    222.36264   -4297.5665   -3916.4446   -4297.5665            0    2285.8933    18.048376    23.401145    21.930822     9262.541    1831.0435    2756.8865      2269.75   -324.78039   -262.08963   -485.43072   -3607.6554 
 3453000    214.59016   -4312.8202     -3945.02   -4312.8202            0    1516.0293     18.25149    23.200757    22.102164    9359.1259   -151.21813    2399.8844    2299.4218   -888.28151    72.262765    272.73707   -3738.0922 
 3454000    217.01051   -4319.1323   -3947.1837   -4319.1323            0    3015.8331    17.967463    23.366537    22.009137    9240.2583    3113.9627    3151.9352    2781.6013    8.0860575   -217.11837   -169.08804   -3540.7709 
 3455000    208.79692   -4309.6708      -3951.8   -4309.6708            0    2730.2592    17.724442    23.848697    21.956481    9281.1107    2567.6084    1399.3755    4223.7937   -235.80778   -538.07867   -222.87603   -3582.2444 
 3456000    217.09769   -4316.2356   -3944.1376   -4316.2356            0    1094.2717    17.975612    23.360346    22.148662     9300.589    2540.0581   -209.40405    952.16102   -231.55819    -397.8162    952.63751   -3795.7111 
 3457000    229.88699   -4323.8135   -3929.7951   -4323.8135            0     2826.828    18.209728    23.215294    21.825801    9226.7302    3909.6993     2883.449    1687.3356    -545.7641    700.33135    98.266825   -3549.4103 
 3458000    221.33628   -4288.5656   -3909.2028   -4288.5656            0    2975.2566    17.716317     23.36294    22.305168    9232.2262    4509.5886    2212.6995    2203.4817   -455.90997    262.28674    206.07252   -3508.6067 
 3459000    215.68831   -4306.6966   -3937.0142   -4306.6966            0    1628.9867    17.987855     23.61865    21.970372    9334.0873    1247.8024    1510.3702    2128.7874    -143.1265    719.03869    782.73383   -3715.2634 
 3460000    236.88657   -4307.6096   -3901.5941   -4307.6096            0    1820.5408    18.073826       23.412    21.941874    9284.5812    1214.4255    1550.5537    2696.6433    259.85511   -129.49316    832.65012   -3655.0818 
 3461000      219.701   -4310.2499   -3933.6899   -4310.2499            0    2355.4079     17.87662    23.291657    22.259252    9268.2204    2293.5528    2750.0418     2022.629     160.9562    292.35661   -453.21686   -3615.3153 
 3462000    239.23588   -4340.9126   -3930.8705   -4340.9126            0     894.1643    18.071622    23.493169    21.980482    9332.0264    927.65029    1844.6133   -89.770713    97.493679    245.75312    547.20953   -3809.1765 
 3463000    234.43853   -4314.1457   -3912.3261   -4314.1457            0    3001.5376    18.069566    23.123098    22.069553    9221.1966    2106.1586    4954.1126    1944.3415   -840.91879   -1029.4195   -27.920052   -3508.6742 
 3464000    218.95325   -4311.4203   -3936.1419   -4311.4203            0    2219.0312     17.99243    23.438256    21.930626    9248.3902    1988.3494    1689.1145    2979.6296   -751.17445    -382.8615    213.54054   -3636.8428 
 3465000    211.54818   -4342.7831   -3980.1968   -4342.7831            0    2340.0369    17.860225    23.577544    21.902988    9223.3534    3765.4951    564.46385    2690.1518   -155.26543     290.8106   -860.22006   -3665.4311 
 3466000    216.76895   -4323.6488   -3952.1142   -4323.6488            0    1227.2139    18.104627    23.300251    21.985511    9274.4195    699.08189    1796.6038     1185.956    448.41955   -400.12183    390.33937   -3786.1238 
 3467000    214.03942   -4319.8409   -3952.9847   -4319.8409            0    2711.9491    18.148028    23.092293    22.077346     9252.165    1662.4831    3779.3159    2694.0482   -439.24007    259.61465    425.43059   -3587.0523 
 3468000    231.17778   -4324.1549   -3927.9241   -4324.1549            0    2546.3532    17.959484    23.523254    21.948723     9272.578    2520.0658    2926.9211    2192.0727    167.98802   -39.256899    229.26875   -3583.5781 
 3469000    228.44113   -4307.7921   -3916.2518   -4307.7921            0    1912.7507    17.931409    23.625739    21.872219    9266.0077     2599.512    1084.2583    2054.4818    -368.6594    545.22075   -474.59884   -3657.7718 
 3470000    217.25255   -4330.8443   -3958.4809   -4330.8443            0    574.39297    18.117576    23.555057     22.03152    9402.1832     1241.677   -232.73429    714.23618    211.93197    297.70682    415.22487   -3879.7195 
 3471000    222.07077   -4308.3483   -3927.7266   -4308.3483            0    3853.4589     18.09958    23.186474    21.984901    9226.3029    3316.3051    4323.2798    3920.7917   -273.16117    26.514008     466.4779   -3409.2199 
 3472000    225.10161   -4325.7375    -3939.921   -4325.7375            0    1931.4776     17.84235    23.679029    22.070765    9324.6669    2939.1889    275.61505    2579.6289    728.22311    142.45131     174.7087    -3677.258 
 3473000    217.73616   -4311.7636   -3938.5713   -4311.7636            0    2094.2362    17.886632    23.613289    22.016172    9298.7991    2869.7256    2098.8685    1314.1144   -462.73118    237.88942    216.41834   -3654.5647 
 3474000    231.09935   -4327.6067   -3931.5103   -4327.6067            0    2202.9262    18.029193    23.341616    22.136403    9315.6737    2160.4968     2269.307    2178.9749   -909.06393   -561.71617    827.08423   -3632.2218 
 3475000    229.30227   -4336.4329   -3943.4166   -4336.4329            0    2108.4399      18.1567    23.329855    21.927249    9288.2331    1969.8776    2441.4909    1913.9513     952.9723   -392.61484   -672.40829   -3657.8087 
 3476000    223.44601   -4308.1477   -3925.1689   -4308.1477            0    2647.0092    17.840459    23.479787    22.061714     9241.435    1638.9072    2664.3816    3637.7387    568.76259    12.640309    556.97762   -3568.4133 
 3477000    231.49384   -4275.5235    -3878.751   -4275.5235            0    1844.2697    17.983092    23.494044    22.126014    9348.1425    2422.4299    2775.8728    334.50624   -27.346162   -195.12366   -93.897431   -3627.3161 
 3478000    224.71201   -4296.2464   -3911.0978   -4296.2464            0    2090.0247    18.243541    23.188834     22.02976    9319.6118    1935.4108    1658.7302    2675.9331   -186.09071    566.38394    61.506329   -3627.0279 
 3479000    225.00756   -4303.6226   -3917.9674   -4303.6226            0    3452.5189    18.093254    23.353065    21.936261    9268.7926    3414.8174    4344.2152    2598.5243   -105.62145     815.9622    190.44622   -3451.2703 
 3480000    231.68875   -4292.3234   -3895.2169   -4292.3234            0    1092.0529    17.925151    23.682109    21.965999     9324.685    1567.3026    514.52569    1194.3305   -51.990749   -786.91161    135.39875   -3746.7075 
 3481000    239.42645   -4329.6047    -3919.236   -4329.6047            0    1473.1385    17.883007    23.712494    22.018392    9336.9145    3117.7788    990.67517    310.96145   -44.718205    531.06089   -307.39888   -3718.6397 
 3482000    225.48893    -4312.012   -3925.5317    -4312.012            0    2247.0558    18.066612    23.281669    22.104211    9297.4929    1625.3861    3811.1959    1304.5855    501.09952    465.74502   -889.66919   -3620.8436 
 3483000    220.93828   -4321.2753   -3942.5947   -4321.2753            0    1900.3917     18.07378    23.260215    21.985945    9242.8912    1022.7398    1363.5172     3314.918   -474.44403   -527.54563   -410.03895   -3686.4255 
 3484000    228.18248   -4298.8904   -3907.7934   -4298.8904            0    2883.8694    17.883791    23.571606    21.967387    9260.3448    2170.4485    2638.4908     3842.669   -518.01756   -618.50732    636.44465   -3518.3192 
 3485000    227.43843   -4332.8162   -3942.9945   -4332.8162            0    2395.8739    18.009174    23.444067    21.950255     9267.579    4120.3727    2353.4449    713.80408    66.297858   -366.85614    -127.3349   -3619.1727 
 3486000    216.22438   -4305.4374   -3934.8363   -4305.4374            0    3160.7051    18.125965    23.146751    21.985494    9224.1722    2187.9375    3032.4928     4261.685    -126.7159   -151.33213   -620.63478   -3509.6421 
 3487000    222.44803   -4314.8049   -3933.5366   -4314.8049            0    1094.7178     17.99936    23.581101    21.979919    9329.2607    1399.3739    47.688849    1837.0906    794.83742    267.35946    247.51536   -3784.5918 
 3488000    227.63064   -4308.3081   -3918.1569   -4308.3081            0    1922.9581    17.787541    23.560638    22.156657    9285.5409     2354.767    1433.6881    1980.4192   -416.42734      688.023    83.930669   -3657.7498 
 3489000    223.99516   -4307.4185   -3923.4985   -4307.4185            0    1434.2627    18.125813    23.327319    22.044991    9321.2088    1832.0621    1157.2625    1313.4634    132.01368    459.04978   -177.30535   -3728.5244 
 3490000    219.90514   -4304.1958   -3927.2859   -4304.1958            0    2376.0871    18.132578     23.19143    22.027336    9262.9444    949.30201    1747.5494    4431.4098   -728.16656   -273.40582   -10.350029    -3606.299 
 3491000    216.90463   -4319.1898   -3947.4227   -4319.1898            0    2210.2038    17.809535    23.511507    22.083718    9247.0929    2469.5091    2952.7496    1208.3527      373.535    180.67877    16.584524    -3649.356 
 3492000    215.05057   -4296.4754   -3927.8861   -4296.4754            0     842.1746    18.013075    23.684122    21.879822     9334.454    1886.4754   -27.391914    667.44037   -1379.9403    386.79575   -66.598829    -3813.238 
 3493000    225.98748   -4290.1689   -3902.8341   -4290.1689            0    2851.3558    17.977483    23.152879    22.202823     9241.492    3738.4874     3681.508    1134.0721   -1447.9411    211.41376   -292.57585    -3518.535 
 3494000    223.00247   -4305.0994   -3922.8808   -4305.0994            0     1038.096     18.20803    23.493307    21.823145    9335.2179    1300.9721   -558.13551    2371.4514   -283.19978   -642.07642   -336.24666   -3781.5497 
 3495000    235.31526   -4298.8002   -3895.4779   -4298.8002            0    2616.3344    17.838398    23.331908    22.215057    9245.9925      4754.86    1806.8734    1287.2697    126.23961    121.64178   -88.710147   -3542.6827 
 3496000    218.22974   -4304.6963    -3930.658   -4304.6963            0    807.32486    18.152814    23.499033      21.8934    9339.1459    1848.6707     674.2758   -100.97189    1000.3206   -65.661585   -705.71337   -3820.6989 
 3497000    211.13549   -4294.3344   -3932.4554   -4294.3344            0    2796.8227    17.902898    23.441925    22.141294    9292.2229     3376.142    543.25477    4471.0714   -1309.7619    -22.06691    60.729273   -3553.4369 
 3498000    225.81149   -4290.4666   -3903.4334   -4290.4666            0    1927.0591    18.016728    23.457198    22.054687    9320.7945    1342.6961    1886.8834     2551.598    -595.5805    57.965397    346.04438   -3641.4801 
 3499000    208.16605    -4307.462   -3950.6725    -4307.462            0    1860.7342    18.099928    23.412809    21.978993    9314.0414    2783.0621    819.36278    1979.7777    586.68136    635.35807    518.60053   -3697.9183 
 3500000    234.83078   -4288.8737   -3886.3817   -4288.8737            0    2015.0551    17.982657    23.226864    22.183129    9265.4656    1028.4019    3359.3404    1657.4232    -891.4219    560.16084    164.90111   -3614.0928 
Loop time of 390.658 on 64 procs for 250000 steps with 864 atoms

Performance: 110.583 ns/day, 0.217 hours/ns, 639.946 timesteps/s
194.0% CPU use with 32 MPI tasks x 2 OpenMP threads

MPI task timing breakdown:
Section |  min time  |  avg time  |  max time  |%varavg| %total
---------------------------------------------------------------
Pair    | 16.646     | 25.317     | 35.256     | 110.4 |  6.48
Bond    | 0.86216    | 1.0654     | 1.5793     |  14.8 |  0.27
Kspace  | 196.37     | 208.41     | 218.89     |  41.5 | 53.35
Neigh   | 1.4362     | 1.5251     | 1.6282     |   3.7 |  0.39
Comm    | 60.426     | 63.62      | 67.373     |  21.4 | 16.29
Output  | 0.58376    | 0.58414    | 0.5858     |   0.0 |  0.15
Modify  | 69.174     | 71.893     | 75.137     |  17.2 | 18.40
Other   |            | 18.24      |            |       |  4.67

Nlocal:        27.0000 ave          39 max          18 min
Histogram: 5 3 5 3 4 3 2 0 4 3
Nghost:        2124.69 ave        2237 max        2025 min
Histogram: 7 3 6 0 0 0 4 4 5 3
Neighs:        6561.75 ave        9488 max        4439 min
Histogram: 5 3 5 3 5 2 2 2 3 2

Total # of neighbors = 209976
Ave neighs/atom = 243.02778
Ave special neighs/atom = 2.0000000
Neighbor list builds = 4962
Dangerous builds = 0

unfix		3
unfix		2
unfix		1

write_data	data.final.${pid} nocoeff
write_data	data.final.1 nocoeff
System init for write_data ...
PPPM initialization ...
  extracting TIP4P info from pair style
  using 12-bit tables for long-range coulomb (../kspace.cpp:340)
  G vector (1/distance) = 0.37162443
  grid = 24 27 25
  stencil order = 5
  estimated absolute RMS force accuracy = 0.003173623
  estimated relative force accuracy = 9.5572715e-06
  using double precision FFTW3
  3d grid and FFT values/proc = 4410 672
Last active /omp style is kspace_style pppm/tip4p/omp

write_restart   restart.lmp.${pid}
write_restart   restart.lmp.1
System init for write_restart ...
PPPM initialization ...
  extracting TIP4P info from pair style
  using 12-bit tables for long-range coulomb (../kspace.cpp:340)
  G vector (1/distance) = 0.37162443
  grid = 24 27 25
  stencil order = 5
  estimated absolute RMS force accuracy = 0.003173623
  estimated relative force accuracy = 9.5572715e-06
  using double precision FFTW3
  3d grid and FFT values/proc = 4410 672
Last active /omp style is kspace_style pppm/tip4p/omp
Total wall time: 0:06:30
