LAMMPS (30 Jul 2021)
  using 1 OpenMP thread(s) per MPI task
package omp 0
using multi-threaded neighbor list subroutines
echo both

include		in.partitions
variable        pid world 0
include		in.temp
variable        temperature equal 256.77
variable	tempDamp equal 100.0
include		in.pressure
variable        pressure equal 9625.0
variable        pressureDamp equal 1000.0 # This is 1 ps
include		in.seed
variable        seed world 745823

units		real
atom_style	full
read_restart	restart.lmp.${pid}
read_restart	restart.lmp.0
Reading restart file ...
  restart file = 30 Jul 2021, LAMMPS = 30 Jul 2021
  restoring atom style full from restart
  orthogonal box = (0.62852186 1.8318470 0.76679520) to (17.579051 21.797331 21.446401)
  4 by 4 by 4 MPI processor grid
  restoring pair style lj/cut/tip4p/long/omp from restart
  restoring bond style harmonic/omp from restart
  restoring angle style harmonic/omp from restart
  864 atoms
  576 bonds
  288 angles
Finding 1-2 1-3 1-4 neighbors ...
  special bond factors lj:    0        0        0       
  special bond factors coul:  0        0        0       
     2 = max # of 1-2 neighbors
     1 = max # of 1-3 neighbors
     1 = max # of 1-4 neighbors
     2 = max # of special neighbors
  special bonds CPU = 1.598 seconds
  read_restart CPU = 2.002 seconds
include 	in.setup
variable	out_freq equal 1000
variable	out_freq2 equal 10000
variable	out_freq3 equal 1000

timestep	2.0

neigh_modify    delay 7 every 1

include		in.tip4p
# This is TIP4P/Ice

# create groups ###
group ox type 2
288 atoms in group ox
group hy type 1
576 atoms in group hy

# set charges - beside manually ###
set group ox charge -1.1794
Setting atom values ...
  288 settings made for charge
set group hy charge 0.5897
Setting atom values ...
  576 settings made for charge

# ### TIP3P Potential Parameters ###
pair_style lj/cut/tip4p/long/omp 2 1 1 1 0.1577 8.5
pair_coeff 1 1*2 0.000 0.000
pair_coeff 2 2 0.21084 3.1668
bond_style  harmonic
bond_coeff  1 450 0.9572
angle_style harmonic
angle_coeff 1 55 104.52
kspace_style pppm/tip4p/omp 1.0e-5
pair_modify tail yes

thermo          ${out_freq}
thermo          1000
thermo_style    custom step temp pe etotal epair emol press lx ly lz vol pxx pyy pzz pxy pxz pyz enthalpy

restart 	${out_freq3} restart.lmp.${pid} restart2.lmp.${pid}
restart 	1000 restart.lmp.${pid} restart2.lmp.${pid}
restart 	1000 restart.lmp.0 restart2.lmp.${pid}
restart 	1000 restart.lmp.0 restart2.lmp.0


include         in.dump
dump            myDump all atom ${out_freq2} dump.water.${pid}
dump            myDump all atom 10000 dump.water.${pid}
dump            myDump all atom 10000 dump.water.0
dump            myDump2 all dcd ${out_freq2} dump.dcd
dump            myDump2 all dcd 10000 dump.dcd
dump_modify     myDump append yes
dump_modify     myDump2 append yes


variable natoms 	equal  "count(all)"                        # NUMBER ATOMS
variable H      	equal  "enthalpy/v_natoms"                 # ENTHALPY-per-atom
variable Vol      	equal  "vol/v_natoms"                 # volume-per-atom
fix AVG all 		ave/time ${out_freq} 1 ${out_freq} v_Vol v_H file vol_enthalpy.dat
fix AVG all 		ave/time 1000 1 ${out_freq} v_Vol v_H file vol_enthalpy.dat
fix AVG all 		ave/time 1000 1 1000 v_Vol v_H file vol_enthalpy.dat


timer           timeout 23:50:00 every 1000
New timer settings: style=normal  mode=nosync  timeout=23:50:00

fix 		1 all shake 1e-6 200 0 b 1 a 1
       0 = # of size 2 clusters
       0 = # of size 3 clusters
       0 = # of size 4 clusters
     288 = # of frozen angles
  find clusters CPU = 0.032 seconds
fix             2 all nph iso ${pressure} ${pressure} ${pressureDamp}
fix             2 all nph iso 9625 ${pressure} ${pressureDamp}
fix             2 all nph iso 9625 9625 ${pressureDamp}
fix             2 all nph iso 9625 9625 1000
fix             3 all temp/csvr ${temperature} ${temperature} ${tempDamp} ${seed}
fix             3 all temp/csvr 256.77 ${temperature} ${tempDamp} ${seed}
fix             3 all temp/csvr 256.77 256.77 ${tempDamp} ${seed}
fix             3 all temp/csvr 256.77 256.77 100 ${seed}
fix             3 all temp/csvr 256.77 256.77 100 745823

run             250000
PPPM initialization ...
  extracting TIP4P info from pair style
  using 12-bit tables for long-range coulomb (../kspace.cpp:340)
  G vector (1/distance) = 0.37438047
  grid = 24 24 24
  stencil order = 5
  estimated absolute RMS force accuracy = 0.0031474667
  estimated relative force accuracy = 9.4785026e-06
  using double precision FFTW3
  3d grid and FFT values/proc = 2535 216
Last active /omp style is kspace_style pppm/tip4p/omp
Neighbor list info ...
  update every 1 steps, delay 7 steps, check yes
  max neighbors/atom: 2000, page size: 100000
  master list distance cutoff = 10.8154
  ghost atom cutoff = 10.8154
  binsize = 5.4077, bins = 4 4 4
  1 neighbor lists, perpetual/occasional/extra = 1 0 0
  (1) pair lj/cut/tip4p/long/omp, perpetual
      attributes: half, newton on, omp
      pair build: half/bin/newton/omp
      stencil: half/bin/3d
      bin: standard
Per MPI rank memory allocation (min/avg/max) = 9.238 | 9.240 | 9.242 Mbytes
Step Temp PotEng TotEng E_pair E_mol Press Lx Ly Lz Volume Pxx Pyy Pzz Pxy Pxz Pyz Enthalpy 
22500000    264.71481   -3870.1743   -3416.4622   -3870.1743            0    7920.5618    16.950529    19.965484    20.679605    6998.5059    7669.0068    8515.3731    7577.3055   -914.67498   -755.02475   -450.48177   -2608.0419 
22501000    266.00004   -3871.8145   -3415.8995   -3871.8145            0    12611.215    16.794955    19.782239    20.489806    6807.5704    11701.804    11772.836    14359.003   -1488.8416    2619.0759   -1027.4192   -2163.8401 
22502000    260.21349   -3898.1711   -3452.1741   -3898.1711            0    6238.7322    16.953494    19.968977    20.683224    7002.1801    7984.0829    5937.5779    4794.5358    980.77709   -124.02733    576.67459   -2815.0772 
22503000    262.14179   -3900.8383   -3451.5362   -3900.8383            0    10597.539    16.859458    19.858215      20.5685    6886.3082    11589.689    12662.689    7540.2394    948.58915    1406.0788   -336.31264   -2387.2281 
22504000    239.67666   -3906.5948   -3495.7972   -3906.5948            0    9275.6351    16.884237    19.887401     20.59873    6916.7155    8397.4431    10611.323    8818.1394    584.49721   -36.056787   -1257.1462   -2560.1342 
22505000    246.49869   -3861.8143   -3439.3239   -3861.8143            0    8051.4259    16.976698    19.996308    20.711532    7030.9702    8029.4614    6697.3682    9427.4482    390.98403     1000.088    1178.4927   -2613.7348 
22506000    259.92026   -3888.2118   -3442.7173   -3888.2118            0     10157.81    16.906393    19.913498     20.62576    6943.9806     10527.58    10957.844    8988.0053    -106.4306    1695.4329   -1029.9738   -2414.0275 
22507000    263.02631   -3898.8749   -3448.0568   -3898.8749            0    8362.5696    16.936143    19.948539    20.662054    6980.7018    8272.0348     8593.779    8221.8948   -803.87711    855.71232    1485.1991   -2596.6939 
22508000    262.76428   -3884.5615   -3434.1925   -3884.5615            0    9030.4274    16.923292    19.933402    20.646376    6964.8235    9027.4996    8240.0437    9823.7389    1062.6099    268.46835    595.87118   -2516.9286 
22509000    260.95202   -3850.7776   -3403.5147   -3850.7776            0    10907.165    16.836978    19.831736    20.541074    6858.7982    11583.217    9642.2293    11496.049    841.97289   -101.38184   -201.05621    -2312.487 
22510000     256.7886   -3869.3137   -3429.1868   -3869.3137            0    11520.455    16.839149    19.834293    20.543723    6861.4519    11983.777    10609.037     11968.55   -337.70454    185.15377    1930.4329   -2276.3667 
22511000    262.30314   -3898.1567    -3448.578   -3898.1567            0    9162.2008    16.847411    19.844024    20.553802    6871.5558    7735.3309    8209.8505    11541.421   -1059.6692   -441.87981    456.96435   -2530.3918 
22512000    277.16895   -3878.9791    -3403.921   -3878.9791            0    10365.286     16.87304    19.874213     20.58507    6902.9642     8249.125    11365.554    11481.178    -636.3745    156.43253   -268.53972   -2360.4202 
22513000     256.9153   -3825.1723   -3384.8283   -3825.1723            0    11872.183    16.820212    19.811988    20.520619    6838.3289    13167.628    9709.9976    12738.923   -246.52081    148.00412   -34.109983   -2200.8154 
22514000    259.58458   -3905.4203   -3460.5012   -3905.4203            0    8931.0262    16.910185    19.917965    20.630387    6948.6541    9365.2509    9318.5199    8109.3076    732.38524   -91.333866    92.452721     -2555.44 
22515000     257.8887   -3880.2907   -3438.2783   -3880.2907            0    10576.294    16.867616    19.867823    20.578452    6896.3086    12088.341    8600.1643    11040.378   -71.602869   -2144.5691    442.32367   -2374.5613 
22516000    258.15847   -3875.9752   -3433.5004   -3875.9752            0    10443.747     16.84329    19.839171    20.548774     6866.515    12265.586    9685.5997    9380.0553    357.25738    1187.2378     584.4242   -2387.6523 
22517000    261.59258   -3882.0289   -3433.6681   -3882.0289            0    9138.2635    16.927496    19.938354    20.651506    6970.0157    10329.558    7833.4101    9251.8227   -930.56679   -996.83472    15.985736   -2504.7588 
22518000    245.60082    -3891.972   -3471.0206    -3891.972            0    7506.6627    16.935945    19.948306    20.661814    6980.4578    8564.0779    5954.5927    8001.3176    -74.85209    130.92675   -29.490407   -2706.8212 
22519000    265.02927   -3865.4411     -3411.19   -3865.4411            0    10096.303    16.854087    19.851888    20.561947    6879.7282    9945.6074    8908.9163    11434.384    51.981223     1414.823   -1332.8564   -2398.1898 
22520000    246.94852   -3871.1395   -3447.8781   -3871.1395            0     11146.96    16.856678     19.85494    20.565108    6882.9015    9832.1149    11868.835    11739.928   -1900.1229   -1068.0024   -175.65653   -2328.9457 
22521000    248.75278   -3894.5625   -3468.2088   -3894.5625            0    9006.8573    16.903814     19.91046    20.622614     6940.803    7317.7652    8853.0686    10849.738   -610.70821    673.07082   -1387.7178   -2556.4942 
22522000    259.58562   -3860.4433   -3415.5225   -3860.4433            0    8703.0972    16.906531     19.91366    20.625928    6944.1502    8363.2203     10488.67    7257.4011    549.64468    1673.5326   -1544.5874    -2534.131 
22523000     244.8144   -3899.3163   -3479.7128   -3899.3163            0    5975.1844    16.938906    19.951794    20.665426      6984.12    6398.0903    5608.0071    5919.4558   -380.15604   -1092.1706    1134.2439    -2871.103 
22524000    268.52482   -3850.6343   -3390.3919   -3850.6343            0    9164.5803    16.851844    19.849246     20.55921    6876.9817    7618.0502    10310.003    9565.6875     480.0208    942.96773    771.60368   -2471.2421 
22525000    251.63493   -3860.6691   -3429.3755   -3860.6691            0    9509.5488    16.865937    19.865847    20.576404    6894.2503    8439.0085    9759.9805    10329.657    2364.7198    392.39427    801.24513   -2473.2325 
22526000    269.87482   -3873.4567   -3410.9005   -3873.4567            0    7515.7242    16.869873    19.870482    20.581205    6899.0774     9095.216    5167.5084    8284.4481    -420.8658   -1723.6184    758.42733   -2654.6987 
22527000    269.26531   -3890.6312   -3429.1197   -3890.6312            0    10280.961    16.800416    19.788671    20.496469    6814.2135    9400.4176    9641.4454    11801.019   -1093.7489   -1656.1323   -160.44086   -2407.4152 
22528000    246.30676   -3889.2383    -3467.077   -3889.2383            0    8386.5378     16.87449     19.87592    20.586838    6904.7433     6535.746    9310.9257    9312.9417   -1300.7522   -329.32551    1201.4273   -2622.5643 
22529000    237.80795   -3901.5169   -3493.9222   -3901.5169            0     9019.078    16.882369    19.885201    20.596451    6914.4199    9289.0889    8166.8674    9601.2777   -271.83332    302.71062    718.63997   -2584.4409 
22530000    261.17246   -3876.1685   -3428.5279   -3876.1685            0    7753.7337    16.945713    19.959812     20.67373    6992.5429    7565.1835      8446.97    7249.0475   -881.77722     415.9649   -332.01723   -2637.8093 
22531000    265.56313   -3864.2498   -3409.0837   -3864.2498            0    9245.7863    16.896318     19.90163    20.613468    6931.5728    10920.146    9515.9395    7301.2734    -1668.942   -777.63071    304.49273   -2474.4283 
22532000    242.40996   -3842.1867   -3426.7044   -3842.1867            0    10731.712     16.81626    19.807333    20.515798    6833.5098    10886.069    10597.212    10711.855    644.14135    1137.6214   -1023.7459   -2357.1848 
22533000    248.74864   -3872.6222   -3446.2756   -3872.6222            0    9131.5329     16.84579    19.842116    20.551825    6869.5732    7408.8465    9542.1771    10443.575    444.48622    1320.9585    -288.2306   -2531.4268 
22534000    242.02482   -3905.4094   -3490.5872   -3905.4094            0    8340.7046    16.886368    19.889911    20.601329    6919.3346    7393.9987    9944.6292    7683.4859    982.48919    509.18156    1273.3061    -2648.915 
22535000     249.2626   -3905.2031   -3477.9756   -3905.2031            0    10239.723    16.840198    19.835528    20.545002    6862.7335    9891.0434    9538.1607    11289.965   -224.69861   -602.57377   -396.69802   -2453.1234 
22536000    247.68186   -3886.3945   -3461.8762   -3886.3945            0    10064.311    16.942697    19.956259    20.670051    6988.8095    8309.3633    11802.382    10081.187    1338.6717   -1195.8106   -814.30381   -2436.0752 
22537000    266.50474   -3890.4753   -3433.6953   -3890.4753            0     9092.334    16.924472    19.934793    20.647817    6966.2814    8794.2176    9141.6014     9341.183   -806.41273   -2562.2809   -1030.1361   -2509.9499 
22538000    264.82039   -3881.7727   -3427.8796   -3881.7727            0    9499.9991    16.905094    19.911967    20.624175    6942.3791    9948.5727    10452.491     8098.934   -829.53297   -558.91628    1283.8655   -2466.0287 
22539000     248.0632   -3854.5369   -3429.3651   -3854.5369            0    7738.7492    16.930856    19.942312    20.655605    6974.1674    6852.9437    6988.6997    9374.6042   -739.64765   -1742.6487   -616.01541   -2642.2486 
22540000    257.51954   -3883.9087    -3442.529   -3883.9087            0    10994.481    16.876497    19.878284    20.589287    6907.2076    10840.659    11081.908    11060.876    1074.3437    175.75306    314.87286   -2335.0051 
22541000     241.4118   -3856.4829   -3442.7114   -3856.4829            0     11134.87    16.873327    19.874551     20.58542    6903.3165    12936.375    10948.437    9519.7988   -585.78902   -1376.0315   -361.19388   -2321.6772 
22542000    254.89515   -3858.0442   -3421.1627   -3858.0442            0    11244.595      16.7689    19.751549    20.458019    6775.9365     11510.81    11271.587    10951.388   -500.05454    1215.1468   -139.05365   -2309.9709 
22543000    258.21231   -3863.9019   -3421.3348   -3863.9019            0    10275.817    16.863335    19.862781    20.573229    6891.0588    8341.6761     11721.61    10764.164    370.96343    929.31288    1817.8379   -2388.6253 
22544000    263.32966   -3884.5333   -3433.1953   -3884.5333            0    11438.638    16.813971    19.804636    20.513005    6830.7192      11163.8    13615.593    9536.5199    817.10291    966.78419   -492.84275   -2293.6892 
22545000    240.74046   -3890.5495   -3477.9286   -3890.5495            0    10434.208    16.817516    19.808813    20.517331    6835.0418    9184.9991    9828.3886    12289.238   -638.49717   -1133.9333    308.03733    -2437.825 
22546000    275.47548   -3894.3982   -3422.2427   -3894.3982            0    9203.4381    16.829133    19.822496    20.531503    6849.2153     9095.845    9031.8498    9482.6195   -1416.7055   -1021.0133     1110.257   -2502.9225 
22547000    251.81993   -3890.3982   -3458.7874   -3890.3982            0    8472.4101    16.883493    19.886525    20.597822    6915.8016    8992.4697    9157.6857    7267.0748    218.21443    257.27158    2614.4823   -2604.2612 
22548000    255.13718   -3877.4263   -3440.1299   -3877.4263            0    11081.487    16.877507    19.879474    20.590519    6908.4478    11545.659    11338.168    10360.634    139.45821   -1285.5237    695.11485    -2323.641 
22549000     264.2174   -3889.5405   -3436.6809   -3889.5405            0     10334.56    16.854422    19.852282    20.562355     6880.138    9837.0805    9197.2601     11969.34    1074.7592   -418.47518    549.45969   -2399.7137 
22550000     249.4725   -3879.3143    -3451.727   -3879.3143            0    9099.9277    16.865845    19.865737    20.576291    6894.1365    7321.7462    9844.8312    10133.206    2342.3289   -1306.3056   -867.53736   -2536.7846 
22551000    252.62079   -3866.7126   -3433.7292   -3866.7126            0    8441.2689    16.964205    19.981593    20.696291    7015.4599    7210.7352    8595.3771    9517.6944    134.71741   -132.13645    166.86644   -2570.0753 
22552000    262.85917   -3911.8839   -3461.3523   -3911.8839            0    9450.3014    16.887459    19.891196    20.602661    6920.6761    8444.0397    9607.3086    10299.556    1301.3089    83.914298    1289.6151   -2507.5243 
22553000    261.55704   -3908.1599   -3459.8601   -3908.1599            0    10334.064    16.815825    19.806821    20.515267    6832.9796    11369.142    8745.7301     10887.32    858.38209    1716.4337   -509.50392   -2430.0499 
22554000    257.64231   -3883.0489   -3441.4588   -3883.0489            0    8688.3425    16.914095     19.92257    20.635157    6953.4754    8944.6154    6554.4876    10565.925   -99.715353    1338.2094    724.68414     -2560.38 
22555000    246.78811   -3880.2658   -3457.2794   -3880.2658            0    8788.8619    16.863452    19.862919    20.573373    6891.2033    9727.2027    6238.1001    10401.283    923.46184    151.52001    967.44525   -2573.9889 
22556000    260.87082   -3849.7594   -3402.6357   -3849.7594            0    11523.974    16.819571    19.811233    20.519838    6837.5474    11202.402    11250.993    12118.526   -2121.5955    1838.2474   -528.46767    -2253.481 
22557000    254.94416      -3888.2   -3451.2344      -3888.2            0    9107.9034    16.857314    19.855689    20.565884    6883.6807    9833.3184    8178.4536    9311.9381   -269.46373     -208.767   -1361.8042    -2536.879 
22558000    255.15144   -3875.8205   -3438.4997   -3875.8205            0    11250.781    16.794035    19.781155    20.488684    6806.4516    9808.1471    12511.634    11432.563    1274.3065    7.6430215    -2058.462   -2321.6896 
22559000    252.14677   -3874.8897   -3442.7187   -3874.8897            0    11017.144    16.809628    19.799522    20.507707    6825.4283    10801.915    9896.7468    12352.772    1813.4609   -239.18112   -1460.6321   -2346.0516 
22560000    249.20287   -3926.6227   -3499.4975   -3926.6227            0    9983.4311    16.799164    19.787196     20.49494    6812.6891    9760.0921    11668.331    8521.8701    1600.5756    268.47709    106.89538   -2507.5829 
22561000    273.77546   -3935.5195   -3466.2777   -3935.5195            0     10050.27    16.801896    19.790415    20.498274    6816.0144    9393.1954    9978.8428    10778.772    2092.2564   -1042.8007   -133.40996   -2467.2348 
22562000    256.44395   -3904.8859   -3465.3498   -3904.8859            0    8661.9598    16.908938    19.916495    20.628864    6947.1161    8989.5823    7891.8088    9104.4884    524.60718    712.49324    1225.6466   -2587.7498 
22563000    264.32803   -3877.9538   -3424.9046   -3877.9538            0    9940.1607    16.892537    19.897177    20.608856     6926.921    8761.3619    11429.492    9629.6279    461.66148    -2291.749   -855.60746   -2420.7293 
22564000    250.34257   -3863.3748   -3434.2962   -3863.3748            0    9321.2083    16.917992     19.92716    20.639911    6958.2826    8512.4716    8073.4404    11377.713    902.74166   -464.84393    727.21094   -2488.3855 
22565000    247.71103   -3909.1075   -3484.5393   -3909.1075            0    8604.6924    16.917021    19.926016    20.638726    6957.0837    8532.2536     9436.224    7845.5998    192.15486    394.20336   -804.88273   -2611.4906 
22566000    261.21847   -3858.4934   -3410.7738   -3858.4934            0    10068.412    16.880556    19.883066    20.594239     6912.193      9288.76    12793.935    8122.5405    507.95157   -1823.9248   -205.84474    -2395.805 
22567000    248.33149   -3923.6004   -3497.9687   -3923.6004            0    9137.6075    16.859687    19.858484    20.568778    6886.5876    6240.4967    10711.924    10460.402    1702.5871   -649.52903   -714.70637   -2580.2439 
22568000    256.09775   -3900.6163   -3461.6735   -3900.6163            0    7068.3967    16.923862    19.934074    20.647072    6965.5273    7451.0548    8401.6911     5352.444    324.53132    -1493.452    70.243943     -2743.63 
22569000    234.45925    -3884.079   -3482.2239    -3884.079            0    8754.8116    16.890702    19.895016    20.606617    6924.6639    7865.9545     7607.955    10790.525   -1386.4431   -1114.0096    28.613676   -2598.0831 
22570000    248.61667   -3853.6233   -3427.5028   -3853.6233            0    10721.623    16.854459    19.852327    20.562401    6880.1843    11665.195    9676.1054    10823.568    -108.4917    125.19534     101.2522   -2351.6905 
22571000    243.98608   -3877.8197   -3459.6359   -3877.8197            0    7265.3692    16.895381    19.900527    20.612325    6930.4196    9447.8442    6275.2624     6073.001   -1677.1612   -2022.4643    513.46841   -2725.3028 
22572000    273.73428   -3850.6126   -3381.4414   -3850.6126            0     9000.329    16.880507    19.883007    20.594179    6912.1318    8977.2126    8056.4925    9967.2817   -612.12192   -1921.7754   -1357.3555    -2474.151 
22573000    242.36328   -3900.2603    -3484.858   -3900.2603            0     10249.87     16.87387     19.87519    20.586082    6903.9824    11614.984    10006.306    9128.3211     626.1411   -1851.2301   -884.92781   -2452.8241 
22574000      265.009   -3913.1048   -3458.8884   -3913.1048            0    9616.6133    16.887737    19.891523       20.603    6921.0175    11310.403    9620.4514    7918.9851    121.83005    490.15292    727.47026   -2488.2265 
22575000    251.99918   -3869.3305   -3437.4125   -3869.3305            0     10301.86     16.92912    19.940267    20.653486    6972.0213    10231.206     10599.38    10074.993    289.73882   -1073.9017   -1100.1892   -2389.9217 
22576000    255.69615   -3898.9128   -3460.6583   -3898.9128            0    8141.0237    16.978243    19.998128    20.713417      7032.89     8409.189    8085.5852    7928.2968   -49.495392    181.43836   -205.93922    -2625.654 
22577000    244.93397   -3892.2273   -3472.4188   -3892.2273            0     10322.84    16.877757    19.879769    20.590825    6908.7552    10997.605    10025.535    9945.3791    341.16374   -259.46521   -930.24245   -2432.3194 
22578000    256.03179   -3849.0443   -3410.2145   -3849.0443            0    7898.3336    16.931007     19.94249    20.655789    6974.3537    8521.8193    6546.5205     8626.661    886.86409   -408.90251     525.3012   -2606.8451 
22579000    240.65008   -3875.4177   -3462.9518   -3875.4177            0    9920.0864    16.915057    19.923703     20.63633    6954.6612    9984.3405    10024.501    9751.4178    228.68943     454.4181    273.16537   -2456.7911 
22580000    279.18593   -3881.2929   -3402.7778   -3881.2929            0    10090.111    16.884116    19.887259    20.598583    6916.5673     11112.68    8735.6277    10422.026      41.4568    731.28647    1453.8539   -2384.9777 
22581000    265.24349   -3908.7881   -3454.1698   -3908.7881            0    10246.896    16.821995    19.814088    20.522795    6840.5039     11517.79    10088.652    9134.2454   -751.99756   -235.61311   -17.146566   -2431.9217 
22582000    245.86746   -3901.6895   -3480.2811   -3901.6895            0    8353.1834    16.908564    19.916055    20.628409    6946.6557    9889.7273     7505.873    7663.9498    1329.8382    73.209815    233.97105   -2634.0214 
22583000    246.51735   -3891.1767   -3468.6544   -3891.1767            0    13044.222    16.817685    19.809011    20.517536    6835.2469    12270.617     14187.03     12675.02   -57.720044    481.76488   -608.81897   -2168.3403 
22584000    262.26951   -3858.7684   -3409.2475   -3858.7684            0    10345.933    16.864758    19.864457    20.574965    6892.8038    10502.159    12746.288    7789.3504   -400.58312   -623.78431   -1128.6912   -2369.2281 
22585000    251.37141   -3911.7856   -3480.9436   -3911.7856            0    9389.2132    16.942642    19.956195    20.669984    6988.7423    8299.4777    9781.0838    10087.078    268.49974    939.74342   -487.53445   -2523.9608 
22586000    253.08567    -3888.141   -3454.3608    -3888.141            0    9537.2841    16.955881    19.971788    20.686135    7005.1373    11821.324    9241.9888    7548.5396    1547.4542   -384.09593   -854.02298   -2480.0057 
22587000    250.62227   -3906.8875   -3477.3295   -3906.8875            0    9537.2301    16.857918    19.856401    20.566621    6884.4213    9548.0856    10599.294    8464.3106    27.419798    1338.7916     839.8502   -2519.7704 
22588000    262.37868   -3870.7242   -3421.0162   -3870.7242            0    10066.589    16.884991    19.888289     20.59965    6917.6423    9844.5063    10673.013    9682.2477   -42.584824    276.46714    164.68824    -2405.431 
22589000    255.62568   -3925.7314   -3487.5977   -3925.7314            0    10142.414    16.906593    19.913734    20.626004    6944.2269    11462.587    9443.8079    9520.8482    1227.7657    -78.26845    758.57841   -2460.4305 
22590000    254.31216   -3895.9793    -3460.097   -3895.9793            0     9633.431    16.928385    19.939401     20.65259    6971.1134    8503.5415    11051.642    9345.1098   -964.38431   -794.19026    1993.8617   -2480.6994 
22591000    236.14099   -3866.9398   -3462.2022   -3866.9398            0    9619.0444    16.891944    19.896479    20.608133    6926.1919    7165.9725    11761.311    9929.8498    112.92029    824.08357   -892.35805    -2490.569 
22592000    262.25942   -3889.6733   -3440.1696   -3889.6733            0    9652.6147    16.916636    19.925563    20.638257    6956.6093    9116.7927    8899.7458    10941.305    381.53376   -431.47621    729.83148   -2460.8635 
22593000    239.28271   -3884.6217   -3474.4994   -3884.6217            0    8854.7531    16.965554    19.983181    20.697936    7017.1331     9092.631    8516.9803    8954.6479   -1283.9685   -363.73563   -49.265907   -2568.3244 
22594000      255.313   -3899.4555   -3461.8578   -3899.4555            0    9752.8305    16.888551    19.892482    20.603993    6922.0184     11949.61    8965.5576    8343.3239   -887.32589   -160.20652    301.59849   -2477.3043 
22595000    254.21642   -3912.3608   -3476.6425   -3912.3608            0     6850.144    16.960346    19.977047    20.691582    7010.6725     7874.012    7861.1841    4815.2359   -441.78989    552.15157   -1230.5185     -2776.26 
22596000    266.82271   -3897.3513   -3440.0263   -3897.3513            0     9014.314    16.896198     19.90149    20.613322    6931.4257      9352.35     8206.255    9484.3369   -199.39719    -425.7708    299.58629   -2528.7898 
22597000     269.2601   -3897.6778   -3436.1752   -3897.6778            0    8916.3763    16.925456    19.935951    20.649016    6967.4955    9583.4593    9428.1969    7737.4726     1144.404   -724.22336    1209.9564   -2530.1486 
22598000    251.72458   -3901.5262   -3470.0788   -3901.5262            0    9321.9907    16.856668    19.854928    20.565095    6882.8889    10856.913    9548.6516    7560.4072   -196.24226    534.17009   -1279.7219   -2534.3386 
22599000    256.61739   -3884.2367   -3444.4033   -3884.2367            0     11123.67    16.899933    19.905889    20.617879    6936.0233    11424.334      11147.1    10799.576    193.09567    -189.9297    1500.0265   -2319.1909 
22600000    248.88243   -3877.5346   -3450.9587   -3877.5346            0    9206.1901    16.949786     19.96461      20.6787    6997.5866    9689.2871    9266.4444    8662.8389    390.84822    1135.6033   -874.40849   -2511.4428 
22601000     253.2581   -3918.2425   -3484.1668   -3918.2425            0    9715.3131    16.937292    19.949893    20.663457    6982.1237    10012.852    10218.299    8914.7888    949.44298   -997.93393   -347.74433   -2494.8845 
22602000    252.43651   -3855.1456   -3422.4781   -3855.1456            0    9429.5128    16.891601    19.896075    20.607714    6925.7694    8241.8467    9371.9441    10674.748    256.10151    -2522.599    708.25779   -2470.0478 
22603000    261.26955   -3890.2279   -3442.4208   -3890.2279            0    7714.1063    16.918205    19.927411     20.64017    6958.5449    7915.7107    8021.0722    7205.5361   -321.20988    1316.7681   -652.71565   -2659.5683 
22604000    262.28056   -3888.2608   -3438.7209   -3888.2608            0    8969.3154     16.87046    19.871173    20.581922    6899.7977    8114.4776    9736.9216    9056.5469     305.5982    552.26663   -1015.7521   -2536.1704 
22605000    263.62986   -3873.1466    -3421.294   -3873.1466            0    9307.7021    16.856587    19.854833    20.564997    6882.7905    7702.5589    9618.2566    10602.291   -1895.2246   -153.28033    1651.1947   -2487.0014 
22606000    239.72441   -3879.2968   -3468.4173   -3879.2968            0     9126.387     16.87456    19.876003    20.586924    6904.8293    9186.3541      7574.99    10617.817    9.2949787     418.3348   -1825.4059   -2549.3915 
22607000    256.48895   -3913.6038   -3473.9905   -3913.6038            0    8070.6767    16.873117    19.874303    20.585163    6903.0582    6643.3543    8893.9342    8674.7417   -1229.0653   -180.44603    77.180647    -2661.483 
22608000    245.57943   -3893.6707    -3472.756   -3893.6707            0     6905.229    16.972885    19.991816    20.706879    7026.2332    5674.8998    5914.8543     9125.933   -437.77843    -200.7454   -659.53982   -2765.1743 
22609000    251.78626   -3894.8684   -3463.3154   -3894.8684            0    9075.3193     16.90304    19.909549    20.621669    6939.8495    8229.3939    9778.3106    9218.2533    711.39018    375.85797   -538.55224    -2544.797 
22610000    251.40741   -3887.4005   -3456.4968   -3887.4005            0    9927.5625    16.854366    19.852217    20.562288    6880.0704    9578.4232    8387.3172    11816.947    2291.2104    106.19115   -2415.3159   -2460.3774 
22611000    245.01533   -3875.4028   -3455.4549   -3875.4028            0    9259.9204    16.923966    19.934197    20.647199    6965.6564    7667.5884      11364.2    8747.9731   -597.78585   -583.66881   -1256.7907   -2514.7678 
22612000    261.02527   -3915.6565   -3468.2681   -3915.6565            0    7337.3858    16.888874    19.892863    20.604387    6922.4161    5865.1512    9036.8405    7110.1658   -1040.8942   -1166.0052   -258.09723   -2727.5125 
22613000    245.45063   -3890.7284   -3470.0345   -3890.7284            0    9661.6479    16.876401    19.878172     20.58917    6907.0901    10148.584    11355.623    7480.7358   -900.38609      616.988    22.364711   -2496.7894 
22614000    274.73772   -3905.8756   -3434.9845   -3905.8756            0    7940.1621    16.889199    19.893245    20.604783    6922.8147    6646.9299    9068.4177    8105.1388   -857.04785    762.12272   -2774.9663   -2633.3287 
22615000    273.72939   -3909.5001   -3440.3373   -3909.5001            0    9932.1008    16.889077    19.893102    20.604635    6922.6654    7936.2153    12699.428    9160.6588     -23.7355   -810.45814   -638.08846   -2437.5926 
22616000    248.28766   -3898.8614   -3473.3049   -3898.8614            0    10841.241    16.811052    19.801198    20.509444    6827.1625    11259.272    11931.225    9333.2255   -1564.9411   -975.36626    560.67636   -2393.8733 
22617000    246.20186   -3941.3331   -3519.3515   -3941.3331            0    8792.7056    16.913965    19.922416    20.634997     6953.314    9974.2081    8012.9501    8390.9587   -965.08717    80.958199    877.36623   -2627.7101 
22618000    253.90992   -3918.3666   -3483.1737   -3918.3666            0     9174.903    16.883363    19.886372    20.597664    6915.6416    8055.8698    9142.3289     10326.51   -402.20375    809.68601    1303.2628   -2557.8156 
22619000    254.59057   -3875.6212   -3439.2617   -3875.6212            0    11947.533    16.842103    19.837773    20.547327    6865.0635    11606.042    12927.526    11309.032    -736.6287    1027.9792    -342.9675   -2243.0757 
22620000     248.3997   -3892.3985   -3466.6499   -3892.3985            0    10348.173    16.876639    19.878451     20.58946    6907.3815    10162.855    11654.621    9227.0421    550.80302   -1086.0062   -57.691339   -2424.2052 
22621000    260.62618   -3908.9629   -3462.2586   -3908.9629            0     8790.676    16.871478    19.872373    20.583164    6901.0469    7921.1524    10089.583    8361.2928   -396.55903    546.72891   -2238.8436   -2577.5237 
22622000    267.65812   -3889.0421   -3430.2852   -3889.0421            0    7549.8074    16.981013     20.00139    20.716796    7036.3326    7785.7709    7025.9971    7837.6543    -1576.851   -462.77628    752.37829   -2655.5414 
22623000    254.54197   -3924.3528   -3488.0766   -3924.3528            0    9122.6165      16.8786    19.880762    20.591853    6909.7906    9341.5357     9694.711    8331.6028    378.55425    788.49372   -333.10339   -2568.7704 
22624000    276.49834   -3918.6839   -3444.7752   -3918.6839            0    8829.7336    16.893452    19.898256    20.609973    6928.0471    5815.5875     8405.086    12268.527    940.08264    149.81159   -129.94261   -2552.6325 
22625000    270.07126   -3876.3699    -3413.477   -3876.3699            0    10027.622    16.867461    19.867641    20.578263    6896.1186    7564.6444    11240.908    11277.315   -1539.7235   -719.63634   -723.47541   -2404.9708 
22626000    256.04878   -3883.7208   -3444.8619   -3883.7208            0    12006.772     16.82838    19.821609    20.530584    6848.2961    14308.024    8734.9232    12977.368   -77.933138    1772.6926    1185.2909   -2245.6811 
22627000     266.2481   -3911.6236   -3455.2835   -3911.6236            0    8889.8208    16.881143    19.883756    20.594955    6912.9134    9137.4866    7926.3023    9605.6736   -1781.7885    1975.3989    298.88399   -2559.0317 
22628000    254.55928   -3888.6797   -3452.3738   -3888.6797            0    10023.967     16.83934    19.834518    20.543955     6861.685    8749.0457    11628.857    9693.9992   -918.05402    922.81809   -1668.3795    -2449.269 
22629000    265.01918    -3892.278   -3438.0442    -3892.278            0    9587.0206    16.893555    19.898376    20.610097    6928.1727    8940.8444    9419.5722    10400.645   -92.026936    2120.7313    1100.1947   -2469.3689 
22630000     249.9029   -3906.7902   -3478.4652   -3906.7902            0    9758.6029    16.850587    19.847766    20.557677    6875.4431    10755.828    8610.4644    9909.5166    931.43408   -1266.7858   -632.36171   -2499.9575 
22631000    257.79146   -3930.1058   -3488.2601   -3930.1058            0    7894.5709    16.867609    19.867815    20.578443    6896.3001    8621.1528    6580.2153    8482.3447   -31.576731   -2304.7968    189.35346   -2694.2599 
22632000    257.96746    -3861.621   -3419.4736    -3861.621            0    7964.0424     16.92859    19.939643     20.65284    6971.3668    5805.8924    8116.8732    9969.3616    2324.2927   -444.17831   -823.21201   -2609.7676 
22633000    253.69481   -3929.5672    -3494.743   -3929.5672            0    9569.7459      16.8756    19.877227    20.588192    6906.1058    8962.1779    9313.9571    10433.103    35.469084    1431.0384    -751.1151   -2530.8928 
22634000     244.8476   -3927.1648   -3507.5044   -3927.1648            0     10279.29     16.85062    19.847805    20.557718    6875.4841    9609.9777    7965.8083    13262.084     629.5187    1305.1382   -637.55679   -2476.7806 
22635000    241.02802    -3930.874   -3517.7602    -3930.874            0    12135.617    16.809417    19.799273     20.50745    6825.1714    10779.083    12208.334    13419.434   -601.41251    98.991202   -741.82515   -2309.8037 
22636000    252.79741   -3894.8781   -3461.5919   -3894.8781            0    11080.388    16.822487    19.814668    20.523395    6841.1042    11091.717    11481.995    10667.453    898.74922    1296.2663   -580.38533   -2356.0962 
22637000    247.45065   -3922.3925   -3498.2706   -3922.3925            0     8876.059    16.881872    19.884616    20.595845    6913.8096    9189.1351     8301.134    9137.9078    48.511393    415.05505   -1196.6492   -2603.2902 
22638000    258.87002   -3911.7196   -3468.0253   -3911.7196            0    8568.0532    16.838936    19.834042    20.543463    6861.1914    7713.5019    9242.1888     8748.469   -636.68871   -481.38008    1005.6239   -2610.6764 
22639000    239.34527   -3929.4581   -3519.2285   -3929.4581            0    9029.7627    16.831087    19.824797    20.533887    6851.6014     9067.957    8999.1664    9022.1648   -706.36871    561.73347    151.88363   -2616.9423 
22640000    247.81508   -3910.4325   -3485.6859   -3910.4325            0    8436.1194     16.88047    19.882964    20.594134    6912.0872    8991.7246    8706.9928    7609.6407    601.59587   -1193.2816    868.09227    -2635.277 
22641000    250.36498   -3941.9194   -3512.8024   -3941.9194            0    8552.2406     16.86459     19.86426    20.574761    6892.5984    7777.9658    8040.5939    9838.1621    -533.4693   -399.10197    315.11483   -2653.1185 
22642000    239.67567    -3904.792   -3493.9961    -3904.792            0    9927.1056    16.851711    19.849089    20.559048    6876.8188    10748.213    9288.9822    9744.1213    172.99134   -924.39691   -107.18018   -2498.3932 
22643000    238.67938   -3894.1447   -3485.0565   -3894.1447            0    10044.084    16.886709    19.890313    20.601746     6919.754    10454.493    10526.284    9151.4745   -1970.9639   -67.515494    280.36675   -2471.4325 
22644000    237.96955   -3874.6774   -3466.8057   -3874.6774            0    7647.2087    16.947317    19.961701    20.675687    6994.5283    8245.1348    7755.8192    6940.6722    1120.3574   -732.69303   -485.94112   -2686.7291 
22645000    267.72174   -3877.2793   -3418.4134   -3877.2793            0    9927.8894    16.904523    19.911295    20.623479    6941.6765    8204.2818    11439.447     10139.94   -393.74907   -2178.5584   -1028.6553   -2413.3414 
22646000    249.04972   -3883.4808   -3456.6181   -3883.4808            0    9087.6545    16.878564    19.880719    20.591809    6909.7457    9606.3138    9642.9872    8013.6625   -1988.7597   -1373.5287   -1447.4454   -2540.8411 
22647000    250.83061   -3908.1087   -3478.1936   -3908.1087            0    9422.6948    16.853993    19.851777    20.561832    6879.6129     11824.13    9233.8574    7210.0968    720.15006    82.061057   -1378.3092   -2532.7949 
22648000    243.63081   -3894.8516   -3477.2767   -3894.8516            0    9669.3851    16.874918    19.876424     20.58736    6905.2686    9456.2989     9989.547    9562.3094     1189.512   -226.51432    840.43095   -2503.5091 
22649000     273.6699     -3861.05   -3391.9892     -3861.05            0    10506.767    16.863904    19.863451    20.573923    6891.7563    10390.663    12777.691    8351.9476   -1751.7875    41.048722    -1494.889   -2335.9624 
22650000    248.46925   -3888.7539   -3462.8861   -3888.7539            0    8956.0745    16.895129     19.90023    20.612018    6930.1099    10321.144    9899.0657     6648.014   -189.09232   -418.59551     221.2984   -2557.7087 
22651000    251.29073   -3858.9063   -3428.2026   -3858.9063            0    10371.224    16.916169    19.925012    20.637686    6956.0326     9710.477    11370.089    10033.106   -502.48423   -6.4434622   -359.79592   -2376.0772 
22652000    243.72551   -3904.3876   -3486.6504   -3904.3876            0    10286.542     16.94537    19.959408    20.673312    6992.1184     10618.11    9653.0395    10588.475    -735.2678   -114.95899   -229.75443   -2437.7022 
22653000     252.3544   -3886.3959   -3453.8691   -3886.3959            0    7794.3421    16.986363    20.007692    20.723324    7042.9861    8253.9141    7995.7754    7133.3369    608.48978   -1101.2227   -781.53116   -2653.2754 
22654000    261.87891    -3920.637   -3471.7855    -3920.637            0     10395.39    16.829995    19.823511    20.532555    6850.2678    10214.158    9813.5937     11158.42   -618.68756   -729.35269   -856.79006   -2433.2431 
22655000    256.99396   -3905.7815   -3465.3027   -3905.7815            0    8923.5892    16.907654    19.914983    20.627299    6945.5345    11135.268    6174.8419    9460.6579   -1352.6345    1440.4262    695.51176   -2561.4011 
22656000    246.55439   -3921.9779   -3499.3921   -3921.9779            0    7741.4513    16.922292    19.932225    20.645157    6963.5892    7942.8472    7251.3252    8030.1816   -762.62154   -420.92681   -1485.9103   -2713.1951 
22657000    242.23062   -3866.7936   -3451.6186   -3866.7936            0     11125.98    16.856912    19.855216    20.565394    6883.1888    12000.141    10820.685    10557.114   -1075.9831    49.354736   -1346.8263   -2334.7455 
22658000     262.8037   -3914.0927   -3463.6562   -3914.0927            0    9179.0511     16.87171    19.872646    20.583447    6901.3317    8665.3855    8615.2353    10256.533    102.34918    886.16938   -195.08986   -2539.7953 
22659000    242.74655   -3881.7622   -3465.7029   -3881.7622            0    10423.723    16.928295    19.939296    20.652481    6971.0029    10157.132    11350.519    9763.5173   -897.58468    591.38728   -690.34151   -2405.9759 
22660000    263.15506   -3879.8593   -3428.8205   -3879.8593            0    10737.547    16.842483     19.83822    20.547789    6865.5275    8241.9582     11829.77    12140.913   -2084.2215    1179.8734    750.23264   -2353.7056 
22661000    247.55262   -3931.1771   -3506.8804   -3931.1771            0    9015.2038    16.907441    19.914733    20.627039     6945.272    10815.835    7445.7607    8784.0155   -248.15433    549.26675    52.850351   -2593.7334 
22662000    244.79262   -3905.6046   -3486.0385   -3905.6046            0    8426.3868    16.934213    19.946267    20.659701    6978.3167    8594.4578     6759.161    9925.5417    571.97089   -505.60333   -50.355293   -2628.4717 
22663000     261.4405   -3911.2535   -3463.1535   -3911.2535            0    10382.005    16.864696    19.864384     20.57489    6892.7282    9673.1205    9438.4853    12034.409    876.74994   -167.48817   -256.57606   -2419.5193 
22664000    253.04014    -3915.273   -3481.5708    -3915.273            0    10513.968    16.893744    19.898599    20.610328    6928.4056    12086.631    8347.8519    11107.422    650.80086    222.39285   -1475.0468   -2419.2007 
22665000    261.27478   -3918.8025   -3470.9864   -3918.8025            0    8385.4229    16.928115    19.939084    20.652261    6970.7808    8884.4686    6982.6542    9289.1458   -1222.8727    147.22503    552.73786   -2618.5102 
22666000    256.23183    -3874.243   -3435.0704    -3874.243            0    9270.3878    16.954895    19.970627    20.684933    7003.9161    10848.596    6775.1711    10187.396    327.07049   -1267.0811    1712.9282   -2488.1473 
22667000    248.26862   -3910.3677   -3484.8438   -3910.3677            0    8343.2215    16.901558    19.907803    20.619861    6938.0244    6770.2627    9646.6341    8612.7679   -2233.3405   -1232.1283    -7.744158   -2640.6435 
22668000    268.55658   -3884.2502   -3423.9535   -3884.2502            0    7998.7242    16.919341    19.928749    20.641556    6959.9465    8471.0349    7519.4147     8005.723   -1210.3013   -726.53269     1611.325   -2612.0535 
22669000    270.97085    -3885.215   -3420.7802    -3885.215            0    9937.5214    16.888089    19.891938    20.603429    6921.4501    10406.293    12136.052    7270.2187   -343.58169   -350.47459    463.44312   -2417.6644 
22670000    255.70562   -3889.5244   -3451.2538   -3889.5244            0    8226.1099    16.932905    19.944725    20.658104    6976.6992     7847.314    7138.9831    9692.0328    821.31149    1195.7017    20.950684   -2614.2635 
22671000    253.68596   -3899.0448   -3464.2357   -3899.0448            0    7879.9046    16.871665    19.872593    20.583392    6901.2763    9693.2399    5585.0001    8361.4738   -622.44629    131.04905   -247.27935   -2671.1388 
22672000     251.0444   -3875.8692   -3445.5877   -3875.8692            0    9655.9557    16.847733    19.844404    20.554195    6871.9502    7773.4379    10633.159    10561.271    1223.5767   -1235.9494    78.825527   -2477.8645 
22673000    250.53481   -3872.3287   -3442.9206   -3872.3287            0    10700.016    16.813738    19.804362    20.512721    6830.4358    11561.715     11281.87     9256.464    238.38738   -843.50662   -214.46553   -2377.0396 
22674000    265.33834   -3890.5551   -3435.7743   -3890.5551            0    11483.555    16.811047    19.801192    20.509438    6827.1564    11170.245    11225.909     12054.51   -2199.5218    1472.1134    1276.2615   -2292.3903 
22675000    256.71646     -3864.56   -3424.5568     -3864.56            0    11602.311    16.817679    19.809005    20.517529    6835.2402    11210.075    12621.701    10975.157   -1040.2341   -2021.9841    1448.8264   -2267.9808 
22676000    262.59225   -3901.5337   -3451.4596   -3901.5337            0     11712.71    16.855589    19.853658     20.56378    6881.5682    11010.977    12458.932    11668.221   -339.98698    553.20209    132.88044   -2275.9648 
22677000    264.77614   -3849.7893    -3395.972   -3849.7893            0    9667.2325    16.845037    19.841228    20.550905    6868.6512    9249.9303    8678.1236    11073.644    -1561.811   -1305.8633   -429.59881   -2427.5838 
22678000    250.77174   -3855.3375   -3425.5234   -3855.3375            0    11032.626    16.877374    19.879317    20.590357    6908.2842    11440.506    10061.293     11596.08     481.9836   -398.14507   -427.09739   -2313.9836 
22679000    253.99536   -3889.9137   -3454.5743   -3889.9137            0    8179.7454      16.8871    19.890773    20.602223    6920.2348    8526.8888    7799.5216    8212.8258    853.15995   -763.34591    684.32141   -2629.0374 
22680000    253.61286   -3900.5308    -3465.847   -3900.5308            0    9922.1653    16.833574    19.827727    20.536921    6854.6389    9306.8674    10389.105    10070.524   -870.48612    457.52494   -282.00033   -2473.9492 
22681000    257.70478   -3887.0087   -3445.3115   -3887.0087            0    9350.0759    16.799962    19.788137    20.495915    6813.6611     10736.58    8964.9273      8348.72   -899.82848   -1313.1319   -2344.4191   -2516.1921 
22682000    260.27329   -3867.2138   -3421.1143   -3867.2138            0    8858.0889    16.886278    19.889806     20.60122    6919.2246    7088.8422    9683.0233    9802.4013    799.37584    70.193345   -436.09243   -2527.2464 
22683000    257.53564   -3924.4026   -3482.9953   -3924.4026            0    9056.3514    16.830735    19.824383    20.533457    6851.1715    9006.6638    9823.1237    8339.2666    71.420343    1862.9498    46.018497   -2578.1091 
22684000     260.2258   -3917.3146   -3471.2965   -3917.3146            0    9805.8624     16.80489    19.793941    20.501927    6819.6584    10113.297    11457.943    7846.3476   -2654.5259    640.81066    481.35061   -2496.0277 
22685000    271.83117   -3906.7454    -3440.836   -3906.7454            0    8934.1807    16.894034     19.89894    20.610682    6928.7623    10668.276    7889.1166    8245.1494   -222.78118   -527.04523   -2258.3671    -2538.047 
22686000    258.15933   -3880.7715   -3438.2952   -3880.7715            0    7486.7841    16.868005    19.868282    20.578927    6896.7864    7558.9652    8709.2168    6192.1702    610.52605   -51.691849   -121.80411   -2685.2554 
22687000    248.50759   -3906.2408   -3480.3073   -3906.2408            0    7958.3433    16.908824    19.916362    20.628726    6946.9764    8584.8225    8251.4429    7038.7644    1776.1125    -1037.448   -156.18978   -2674.0115 
22688000    269.87286   -3903.5591   -3441.0062   -3903.5591            0    9369.9827    16.918567    19.927838    20.640613    6958.9921    8667.9596    11082.454    8359.5349    377.07502    -1963.091    270.46092   -2490.0489 
22689000    239.55825   -3900.1779   -3489.5832   -3900.1779            0    11018.789    16.862498    19.861796    20.572209    6890.0338    12358.968    11884.284    8813.1147   -720.55597   -606.19228    359.33803   -2382.3704 
22690000    264.50032   -3854.4951   -3401.1506   -3854.4951            0    11044.275    16.834273     19.82855    20.537774    6855.4933    11957.638    10965.609    10209.577   -21.959558    1413.2162   -69.438858   -2296.9403 
22691000    264.54818   -3887.2282   -3433.8017   -3887.2282            0    9778.8444    16.888092    19.891942    20.603433    6921.4544    9639.4494    9927.1511    9769.9327    184.72617   -1398.7043    352.64198   -2446.7025 
22692000    260.08899   -3897.7853   -3452.0017   -3897.7853            0    10480.514    16.877318    19.879251    20.590288    6908.2155    10469.753    10734.437     10237.35    141.30469    674.93156   -1636.8698    -2396.098 
22693000     246.3172   -3864.2622   -3442.0829   -3864.2622            0    10183.331    16.881796    19.884526    20.595752    6913.7159    10474.979    8310.8122    11764.201   -367.26535   -594.41103   -166.10051   -2415.3032 
22694000    254.56871   -3867.4161    -3431.094   -3867.4161            0    10999.601    16.875494    19.877102    20.588063    6905.9757    12740.724    10730.806    9527.2717    626.10439   -1944.1707    633.62096    -2323.252 
22695000    261.57857   -3895.7036   -3447.3669   -3895.7036            0    8807.3745    16.904197    19.910911    20.623081    6941.2744    7201.7156      10412.8    8807.6075    269.71526    408.55576   -610.25141   -2555.7843 
22696000    242.84485   -3863.3898   -3447.1621   -3863.3898            0    9120.1965    16.898658    19.904386    20.616323    6934.4529    10501.243    8883.4296    7975.9164   -786.20875    867.59647    -1839.135   -2524.8194 
22697000    250.02698    -3881.147   -3452.6093    -3881.147            0    9236.0736    16.840517    19.835905    20.545391     6863.124     12111.97    8003.7837    7592.4669    723.85911    600.64585   -2002.4244   -2528.1557 
22698000    265.39049   -3910.0747   -3455.2045   -3910.0747            0    9151.7838     16.87149    19.872386    20.583178    6901.0612    8825.5284    9315.0194    9314.8036    591.60066    1735.6267   -1477.6298   -2534.1242 
22699000    279.54305   -3893.7265   -3414.5993   -3893.7265            0    10537.077    16.843588    19.839521    20.549138    6866.8789     10135.36    11129.427    10346.444   -196.96721   -923.93344   -819.49652   -2359.3491 
22700000    244.66166   -3873.6441   -3454.3024   -3873.6441            0    8421.7708    16.915414    19.924123    20.636765    6955.1012    6955.4544     9223.428      9086.43   -150.05258    3.7312181    240.98219   -2600.0567 
22701000    257.63793   -3886.3435   -3444.7609   -3886.3435            0    7337.0923    16.892172    19.896747     20.60841    6926.4715    8153.3563    7800.7622    6057.1585   -195.32487   -409.84947    404.90903    -2703.601 
22702000    268.20959   -3873.8083   -3414.1063   -3873.8083            0    9787.2585    16.863432    19.862895    20.573347    6891.1779    9896.8247     10058.72    9406.2307    298.58053   -786.75371   -1153.2096   -2430.4793 
22703000    243.61205   -3886.0267   -3468.4839   -3886.0267            0    6960.0686    16.929717     19.94097    20.654215    6972.7595    7306.9722      5988.14    7585.0935   -958.51111    624.78557   -886.66274   -2760.7108 
22704000    244.04289   -3883.7097   -3465.4285   -3883.7097            0    8605.5451    16.849865    19.846915    20.556795    6874.5589    9834.5811    6507.9415    9474.1128   -127.41921    618.09586    727.27491   -2602.6504 
22705000    250.21039   -3922.2952   -3493.4431   -3922.2952            0    8569.5808    16.877569    19.879547    20.590595    6908.5243    7458.9728    9497.6138    8752.1558   -72.510687   -578.17609   -1229.4577   -2630.0258 
22706000    252.27195   -3883.0479   -3450.6624   -3883.0479            0     7870.114    16.846783    19.843285    20.553035    6870.7873    7218.7395    8662.4326    7729.1698    394.29613   -1905.0836    1116.9678   -2662.0503 
22707000    247.54098   -3866.1726   -3441.8958   -3866.1726            0     8180.224    16.848395    19.845184    20.555003    6872.7604    7679.5195    8323.4944    8537.6582    24.983172    1223.1866    316.33293   -2621.9743 
22708000    256.18325   -3838.7376   -3399.6483   -3838.7376            0    11173.385    16.811796    19.802075    20.510351    6828.0689    11196.728    11943.648     10379.78    1304.2389    322.65675    2012.8292   -2286.9983 
22709000    251.46793   -3878.5518   -3447.5444   -3878.5518            0    9348.1959    16.883231    19.886216    20.597502     6915.479    9249.7315    9701.0994    9093.7569    214.18032    2056.6028    1563.8547   -2504.7306 
22710000    266.81768   -3862.2195   -3404.9031   -3862.2195            0    10255.254    16.848524    19.845336     20.55516     6872.918    10554.353    10223.112    9988.2962   -193.43981    450.21124    764.62646   -2376.9733 
22711000    255.93048   -3901.7252   -3463.0691   -3901.7252            0    12116.194    16.825305    19.817987    20.526833    6844.5423    14430.058    12149.337    9769.1872   -415.16653   -46.478011     819.6377    -2253.623 
22712000    248.52421   -3853.3499   -3427.3879   -3853.3499            0     9533.642    16.894814     19.89986    20.611634    6929.7228    8720.2005    11155.558     8725.168    483.14943     916.3556    2772.1135   -2463.8904 
22713000    269.26413   -3854.4551   -3392.9456   -3854.4551            0    13144.734    16.773868    19.757401    20.464079    6781.9602    11557.193    16757.677    11119.331    422.52199    1002.4592   -1498.4712   -2092.8271 
22714000     253.6015   -3883.1618   -3448.4975   -3883.1618            0    9928.5304    16.845548     19.84183    20.551529    6869.2765    12422.676    8301.2292    9061.6858   -1192.9712    890.98531   -1141.2131   -2453.8439 
22715000    245.73164     -3920.89   -3499.7144     -3920.89            0    9439.7288    16.862782     19.86213    20.572555     6890.382    10992.457    7338.5609    9988.1681    -104.3182    1356.7789    512.21587    -2551.124 
22716000    255.25345   -3906.0563   -3468.5606   -3906.0563            0     10429.72    16.884825    19.888094    20.599447    6917.4382    11161.139    10215.751    9912.2691   -11.345106    888.61585   -1163.6419   -2416.3714 
22717000     259.8046   -3931.3298   -3486.0337   -3931.3298            0    10472.589    16.870829    19.871608    20.582372    6900.2508     10516.11    10059.334    10842.322    2100.7664   -1657.2613    601.13295   -2432.1448 
22718000    260.67598   -3926.2877    -3479.498   -3926.2877            0    8528.4412    16.909676    19.917365    20.629766    6948.0267    9403.7515    7316.2389    8865.3332    1859.1686   -1412.2107     245.6942   -2615.3124 
22719000     259.6091   -3909.8567   -3464.8956   -3909.8567            0    9837.0803    16.890029    19.894223    20.605796    6923.8359    9996.5401    9018.0769    10496.624    1877.5967    1536.8413   -778.84157   -2471.5763 
22720000    251.40071   -3906.8413   -3475.9491   -3906.8413            0    9636.6448     16.85719    19.855543    20.565732    6883.5287    10354.581    9910.3505    8645.0033    266.47677    190.35356   -369.10374    -2508.534 
22721000    266.09373   -3910.2709   -3454.1953   -3910.2709            0    10320.829      16.8758    19.877464    20.588437    6906.3523    10024.386    11024.711    9913.3906   -415.71127   -422.11324    774.62454   -2414.6601 
22722000    248.18605   -3905.3543    -3479.972   -3905.3543            0    8363.2609    16.882761    19.885662    20.596928     6914.901    9033.8411    9007.7449    7048.1967   -607.42774     393.9402    -471.1582   -2636.5644 
22723000    250.67573   -3875.7759   -3446.1263   -3875.7759            0    9401.4479    16.872242    19.873272    20.584095     6901.984    11085.106     9777.419     7341.819    460.05192   -245.42833   -944.80614    -2499.792 
22724000    263.51385   -3904.4283   -3452.7745   -3904.4283            0    9212.6552    16.900832    19.906947    20.618975    6937.1299    10475.528     9224.289    7938.1484    1338.8088    -208.3313   -114.70649   -2520.7217 
22725000    245.36136   -3899.7873   -3479.2463   -3899.7873            0    10020.169    16.827438    19.820499    20.529435     6847.146    9266.5975    9773.6968    11020.214    315.35625   -300.74055   -637.23094   -2478.6462 
22726000    247.73674   -3893.3237   -3468.7114   -3893.3237            0    9441.0546    16.852352    19.849845     20.55983     6877.604    10786.386    7938.8249    9597.9532   -321.38585   -306.06588    1338.2456   -2521.7472 
22727000      264.294   -3855.3537   -3402.3629   -3855.3537            0    9169.5777    16.898766    19.904514    20.616455    6934.5861    8313.8575    10866.146    8328.7299   -572.20147    398.36509   -1720.7359   -2475.0084 
22728000     254.6623   -3872.4779   -3435.9954   -3872.4779            0    8395.6616    16.892318    19.896919    20.608589    6926.6515    7537.4527    10004.747    7644.7845    113.13183   -1290.3625   -741.95153   -2587.8816 
22729000    261.18932   -3901.1243   -3453.4548   -3901.1243            0    7967.8397    16.940564    19.953747    20.667448    6986.1705    8381.5385    6896.1056     8625.875   -1283.0046    651.24391   -620.60972   -2641.6424 
22730000    266.33339   -3884.7118   -3428.2255   -3884.7118            0    10174.171    16.854187    19.852006    20.562069    6879.8509    11001.139    11394.059    8127.3147    1300.9185   -1369.4012   -515.32401   -2407.3943 
22731000    262.10149   -3874.8733   -3425.6403   -3874.8733            0    11487.893    16.823824    19.816243    20.525026    6842.7357    11512.154    11983.425    10968.101   -689.06445   -695.74988    403.60397   -2279.2143 
22732000    260.93439   -3874.4671   -3427.2344   -3874.4671            0    9976.0392     16.80016    19.788369    20.496156    6813.9009    10703.526    9809.3785     9415.213    292.73637     193.7408    945.74403    -2435.878 
22733000    252.35645   -3912.6028   -3480.0725   -3912.6028            0    9204.2896     16.88013    19.882564    20.593719    6911.6694    8187.2424    7702.7085    11722.918    774.76205   -792.86981   -381.04348   -2552.2837 
22734000    259.70232   -3856.6159   -3411.4951   -3856.6159            0     11089.17    16.790103    19.776523    20.483886    6801.6716    10106.221    10872.321     12288.97   -1606.6113   -557.97452    1813.6843   -2311.5003 
22735000    252.26676   -3899.5114   -3467.1348   -3899.5114            0    11489.065    16.864503    19.864157    20.574655    6892.4919    11131.323    10881.848    12454.023   -833.32318   -629.24941    -253.9499   -2312.2549 
22736000    247.18591   -3881.4511   -3457.7829   -3881.4511            0    11970.474    16.853744    19.851485    20.561529    6879.3087    12135.998    11221.007    12554.418   -2195.6026    584.00139    1780.2408   -2256.8132 
22737000    240.86179   -3876.4824   -3463.6536   -3876.4824            0    9438.1263    16.907905    19.915279    20.627604    6945.8431    10094.733    9192.9543    9026.6912   -261.12955   -1351.0056    690.65684   -2507.5903 
22738000     245.4387   -3864.0389   -3443.3654   -3864.0389            0    9872.3701    16.921863    19.931719    20.644633    6963.0597    11115.908    8417.5728     10083.63    52.630796    626.67988    877.54254   -2440.8352 
22739000    245.81193   -3885.3709   -3464.0577   -3885.3709            0    10049.605    16.934175    19.946222    20.659654    6978.2694    10673.785    10417.185    9057.8455    407.37226   -1375.3367   -1365.0133   -2441.3003 
22740000    256.80635   -3912.9154   -3472.7581   -3912.9154            0    9339.9724    16.959267    19.975776    20.690266    7009.3345    7811.3683    9618.9335    10589.615     696.4523    330.05947   -143.34267   -2517.9892 
22741000     261.1843   -3956.1928   -3508.5319   -3956.1928            0    8552.9012    16.944307    19.958155    20.672014    6990.8018    8834.8829    7364.5279    9459.2929    793.98132    2011.8885   -119.51564   -2636.5322 
22742000    255.04764   -3907.2898   -3470.1469   -3907.2898            0    9721.8203     16.97756    19.997323    20.712584    7032.0415    10449.566    10693.006    8022.8885   -674.39893     1554.432   -692.47492   -2473.1246 
22743000    256.86036   -3860.4155   -3420.1656   -3860.4155            0    11375.233    16.881688    19.884399     20.59562    6913.5836    10999.615    10784.634     12341.45    52.309239    1423.1061    1244.0018    -2273.229 
22744000    259.32642   -3895.2116    -3450.735   -3895.2116            0    10565.694    16.858162    19.856688    20.566918    6884.7197    11269.721    11263.975    9163.3869   -767.06744   -104.97438    155.28557   -2389.8698 
22745000    257.44274   -3874.0529   -3432.8049   -3874.0529            0    10652.726    16.913972    19.922425    20.635007    6953.3237    9821.1262    9365.2705    12771.782    143.74249   -469.14297   -294.30524   -2352.5429 
22746000    268.27158   -3883.5594   -3423.7511   -3883.5594            0    8799.6405    16.842913    19.838727    20.548315    6866.0542     7125.681    9518.2949    9754.9456    1372.1716    461.49061    1122.0746   -2542.6047 
22747000    245.70356   -3853.9979   -3432.8704   -3853.9979            0    9577.7755    16.913151    19.921458    20.634004    6952.3103     8074.364    10096.155    10562.808   -337.32901    1020.1705    631.56806   -2461.7576 
22748000    268.67772   -3851.9106   -3391.4062   -3851.9106            0    11945.576     16.87299    19.874153    20.585008    6902.9022    9844.8469     11935.64    14056.241   -932.28596   -1888.5362   -92.587675   -2188.8241 
22749000    234.41011   -3869.6022   -3467.8313   -3869.6022            0    7287.0624     17.01263    20.038631    20.755369    7075.7087    7973.0253    7091.6595    6796.5024   -2003.8536   -765.23223   -951.45702   -2715.8651 
22750000    269.50737    -3850.619   -3388.6926    -3850.619            0    9409.9584    16.982673    20.003346    20.718822    7038.3967    8676.2309    9731.5728    9822.0714     281.7612   -462.55667     157.3782   -2422.7811 
Loop time of 475.823 on 64 procs for 250000 steps with 864 atoms

Performance: 90.790 ns/day, 0.264 hours/ns, 525.405 timesteps/s
99.1% CPU use with 64 MPI tasks x 1 OpenMP threads

MPI task timing breakdown:
Section |  min time  |  avg time  |  max time  |%varavg| %total
---------------------------------------------------------------
Pair    | 21.766     | 27.312     | 32.071     |  49.0 |  5.74
Bond    | 0.26831    | 0.2806     | 0.29163    |   0.9 |  0.06
Kspace  | 198.81     | 209.5      | 221.39     |  39.6 | 44.03
Neigh   | 4.8835     | 5.7631     | 7.0767     |  29.6 |  1.21
Comm    | 101.81     | 114.95     | 126.44     |  60.2 | 24.16
Output  | 1.3523     | 1.3555     | 1.3657     |   0.3 |  0.28
Modify  | 108.08     | 112.04     | 114.79     |  16.1 | 23.55
Other   |            | 4.629      |            |       |  0.97

Nlocal:        13.5000 ave          21 max           8 min
Histogram: 3 2 4 22 12 8 12 0 0 1
Nghost:        2253.66 ave        2292 max        2194 min
Histogram: 1 2 6 4 15 4 3 7 12 10
Neighs:        4381.16 ave        7628 max        2587 min
Histogram: 3 6 16 17 10 7 4 0 0 1

Total # of neighbors = 280394
Ave neighs/atom = 324.53009
Ave special neighs/atom = 2.0000000
Neighbor list builds = 13419
Dangerous builds = 0

unfix		3
unfix		2
unfix		1

write_data	data.final.${pid}
write_data	data.final.0
System init for write_data ...
PPPM initialization ...
  extracting TIP4P info from pair style
  using 12-bit tables for long-range coulomb (../kspace.cpp:340)
  G vector (1/distance) = 0.37422425
  grid = 24 24 24
  stencil order = 5
  estimated absolute RMS force accuracy = 0.0031652675
  estimated relative force accuracy = 9.532109e-06
  using double precision FFTW3
  3d grid and FFT values/proc = 2535 216
Last active /omp style is kspace_style pppm/tip4p/omp
WARNING: Not all mixed pair coeffs generated from mixing. Use write_data with 'pair ij' option to store all pair coeffs. (../write_data.cpp:312)

write_restart   restart.lmp.${pid}
write_restart   restart.lmp.0
System init for write_restart ...
PPPM initialization ...
  extracting TIP4P info from pair style
  using 12-bit tables for long-range coulomb (../kspace.cpp:340)
  G vector (1/distance) = 0.37422425
  grid = 24 24 24
  stencil order = 5
  estimated absolute RMS force accuracy = 0.0031652675
  estimated relative force accuracy = 9.532109e-06
  using double precision FFTW3
  3d grid and FFT values/proc = 2535 216
Last active /omp style is kspace_style pppm/tip4p/omp
Total wall time: 0:07:58
