#include		in.partitions
include		in.temp
variable        temperature equal 0.10
variable	tempDamp equal 100.0
include		in.pressure
variable        pressure equal 1988.8
variable        pressureDamp equal 1000.0 # This is 1 ps
include		in.seed
variable        seed equal 745823

units		real
atom_style	full
box tilt large
read_restart	restart.lmp.${pid}
read_restart	restart.lmp.0
Reading restart file ...
  restart file = 30 Jul 2021, LAMMPS = 30 Jul 2021
  restoring atom style full from restart
  triclinic box = (-10.568825 -9.1354906 0.15970596) to (12.548825 12.125489 21.700293) with tilt (-9.1086456 1.8775204 2.8445973)
  2 by 2 by 4 MPI processor grid
  restoring pair style lj/cut/tip4p/long/omp from restart
  restoring bond style harmonic/omp from restart
  restoring angle style harmonic/omp from restart
  1296 atoms
  864 bonds
  432 angles
Finding 1-2 1-3 1-4 neighbors ...
  special bond factors lj:    0        0        0       
  special bond factors coul:  0        0        0       
     2 = max # of 1-2 neighbors
     1 = max # of 1-3 neighbors
     1 = max # of 1-4 neighbors
     2 = max # of special neighbors
  special bonds CPU = 0.001 seconds
  read_restart CPU = 0.005 seconds
include 	in.setup
variable	out_freq equal 1000
variable	out_freq2 equal 10000
variable	out_freq3 equal 1000

timestep	2.0

neigh_modify    delay 7 every 1

include		in.tip4p
# This is TIP4P/Ice

# create groups ###
group ox type 2
432 atoms in group ox
group hy type 1
864 atoms in group hy

# set charges - beside manually ###
set group ox charge -1.1794
Setting atom values ...
  432 settings made for charge
set group hy charge 0.5897
Setting atom values ...
  864 settings made for charge

# ### TIP3P Potential Parameters ###
pair_style lj/cut/tip4p/long/omp 2 1 1 1 0.1577 8.5
pair_coeff 1 1*2 0.000 0.000
pair_coeff 2 2 0.21084 3.1668
bond_style  harmonic
bond_coeff  1 450 0.9572
angle_style harmonic
angle_coeff 1 55 104.52
kspace_style pppm/tip4p/omp 1.0e-5
pair_modify tail yes

thermo          ${out_freq}
thermo          1000
thermo_style    custom step temp pe etotal epair emol press lx ly lz vol pxx pyy pzz pxy pxz pyz enthalpy

restart 	${out_freq3} restart.lmp.${pid} restart2.lmp.${pid}
restart 	1000 restart.lmp.${pid} restart2.lmp.${pid}
restart 	1000 restart.lmp.0 restart2.lmp.${pid}
restart 	1000 restart.lmp.0 restart2.lmp.0


include         in.dump
dump            myDump all atom ${out_freq2} dump.water.${pid}
dump            myDump all atom 10000 dump.water.${pid}
dump            myDump all atom 10000 dump.water.0
dump            myDump2 all dcd ${out_freq2} dump.dcd
dump            myDump2 all dcd 10000 dump.dcd
dump_modify     myDump append yes
dump_modify     myDump2 append yes


variable natoms 	equal  "count(all)"                        # NUMBER ATOMS
variable H      	equal  "enthalpy/v_natoms"                 # ENTHALPY-per-atom
variable Vol      	equal  "vol/v_natoms"                 # volume-per-atom
fix AVG all 		ave/time ${out_freq} 1 ${out_freq} v_Vol v_H file vol_enthalpy.dat
fix AVG all 		ave/time 1000 1 ${out_freq} v_Vol v_H file vol_enthalpy.dat
fix AVG all 		ave/time 1000 1 1000 v_Vol v_H file vol_enthalpy.dat


timer           timeout 10:00:00 every 1000
New timer settings: style=normal  mode=nosync  timeout=10:00:00

fix 		1 all shake 1e-6 200 0 b 1 a 1
       0 = # of size 2 clusters
       0 = # of size 3 clusters
       0 = # of size 4 clusters
     432 = # of frozen angles
  find clusters CPU = 0.000 seconds
fix             2 all nph tri ${pressure} ${pressure} ${pressureDamp}
fix             2 all nph tri 1988.8 ${pressure} ${pressureDamp}
fix             2 all nph tri 1988.8 1988.8 ${pressureDamp}
fix             2 all nph tri 1988.8 1988.8 1000
fix             3 all temp/csvr ${temperature} ${temperature} ${tempDamp} ${seed}
fix             3 all temp/csvr 0.1 ${temperature} ${tempDamp} ${seed}
fix             3 all temp/csvr 0.1 0.1 ${tempDamp} ${seed}
fix             3 all temp/csvr 0.1 0.1 100 ${seed}
fix             3 all temp/csvr 0.1 0.1 100 745823


run             250000
PPPM initialization ...
  extracting TIP4P info from pair style
  using 12-bit tables for long-range coulomb (../kspace.cpp:340)
  G vector (1/distance) = 0.36801741
  grid = 30 40 32
  stencil order = 5
  estimated absolute RMS force accuracy = 0.0044075988
  estimated relative force accuracy = 1.3273353e-05
  using double precision FFTW3
  3d grid and FFT values/proc = 11832 2400
Last active /omp style is kspace_style pppm/tip4p/omp
Neighbor list info ...
  update every 1 steps, delay 7 steps, check yes
  max neighbors/atom: 2000, page size: 100000
  master list distance cutoff = 10.8154
  ghost atom cutoff = 10.8154
  binsize = 5.4077, bins = 7 5 4
  1 neighbor lists, perpetual/occasional/extra = 1 0 0
  (1) pair lj/cut/tip4p/long/omp, perpetual
      attributes: half, newton on, omp
      pair build: half/bin/newton/tri/omp
      stencil: half/bin/3d/tri
      bin: standard
Per MPI rank memory allocation (min/avg/max) = 12.76 | 12.77 | 12.77 Mbytes
Step Temp PotEng TotEng E_pair E_mol Press Lx Ly Lz Volume Pxx Pyy Pzz Pxy Pxz Pyz Enthalpy 
48000000    2.6627811   -7020.0857   -7013.2359   -7020.0857            0    1998.4589    23.117651    21.260979    21.540587    10587.282    2387.4645    1537.4409    2070.4712    202.31941   -52.545953    11.446794   -6704.6645 
48001000   0.11728311   -7027.5344   -7027.2327   -7027.5344            0    1990.5432    23.128064    21.250019    21.533891    10583.301    1962.9616    2010.1672    1998.5009   -9.2384594   -16.846939   -19.503477   -6719.9992 
48002000   0.11122051   -7027.4253   -7027.1392   -7027.4253            0    1990.8277    23.144769    21.245308    21.522594    10583.041    1960.2454     1966.316    2045.9218   -17.586817   -53.478454   -38.005568   -6719.8692 
48003000   0.10131985   -7027.3333   -7027.0727   -7027.3333            0    1990.1842    23.152831    21.226591    21.534733    10583.367    1961.4586    2025.2397    1983.8543   -78.856892   -32.097206    21.773009   -6719.8927 
48004000  0.089363263   -7027.2751   -7027.0452   -7027.2751            0    1984.8729    23.162312    21.238622    21.513438    10583.226    1880.9015    2029.8358    2043.8813   -16.082674   -62.904331   -63.605665    -6720.689 
48005000  0.088680054   -7027.1687   -7026.9405   -7027.1687            0    1988.5563     23.16672    21.220171    21.528774    10583.583    1907.7675    2008.3976    2049.5036   -57.062634   -86.243562   -7.8989901   -6720.0055 
48006000  0.096334419   -7027.2079   -7026.9601   -7027.2079            0     1993.066    23.164762    21.227475    21.522491    10583.242    1806.9008    2131.6545    2040.6426    -59.73779   -41.999377    -41.12635   -6719.3389 
48007000  0.092306941   -7027.2305    -7026.993   -7027.2305            0    1991.4941    23.157751    21.236302    21.520145    10583.285    1908.4888     2001.554    2064.4395   -37.983147   -72.216915   -39.507549   -6719.6132 
48008000   0.10097848   -7027.3789   -7027.1192   -7027.3789            0    1988.8637    23.150403    21.222505    21.541873    10583.728    1833.3189    2157.0088    1976.2634   -101.77762   -17.750621     15.50008   -6720.1324 
48009000   0.11688248   -7027.4977   -7027.1971   -7027.4977            0    1985.6181     23.13441    21.252681    21.525695      10583.5    1975.0445    1935.8089    2046.0008    22.844017   -47.136943   -54.441704   -6720.7179 
48010000   0.11183938   -7027.5392   -7027.2515   -7027.5392            0     1986.427    23.120336     21.24366    21.548735    10583.889    1967.7891    2028.0129     1963.479   -21.645195    12.152299    20.898358   -6720.6363 
48011000   0.11702153   -7027.5305   -7027.2294   -7027.5305            0    1989.5152    23.103138    21.259867    21.548249    10583.846    2065.1855    1928.9643    1974.3959    42.603203     9.328573    15.579534   -6720.1387 
48012000   0.10669066   -7027.5038   -7027.2294   -7027.5038            0     1991.655    23.088541    21.268601    21.553062    10583.867    2127.8218    1919.3175    1927.8256   -3.5297842    56.135418    45.948019   -6719.8078 
48013000   0.10694747   -7027.4683   -7027.1932   -7027.4683            0     1989.486    23.078593    21.267302    21.564309    10584.182    2067.9096      1964.56    1935.9886     43.65661    43.496978    50.100639   -6720.0972 
48014000  0.096553004   -7027.3294    -7027.081   -7027.3294            0    1987.7354    23.069785    21.281684     21.55785    10584.125    2136.6868    1881.0628    1945.4567    45.349713    68.898461    13.464804   -6720.2569 
48015000  0.094402932   -7027.4151   -7027.1723   -7027.4151            0    1986.2325    23.071376    21.274093    21.564264    10584.228      2010.04    1992.0427    1956.6148    78.210913    60.361262    15.389618   -6720.5772 
48016000  0.096322388   -7027.4151   -7027.1673   -7027.4151            0    1985.7962    23.073649    21.276479    21.559777    10584.255    2106.5226    1899.1875    1951.6784    35.100158    62.592581    14.268602   -6720.6388 
48017000   0.10272663   -7027.4817   -7027.2175   -7027.4817            0     1989.129    23.088992    21.267994    21.553589    10584.031    1988.1325    2035.6793    1943.5752    33.196735    56.232599     15.26039    -6720.181 
48018000   0.10953081   -7027.5351   -7027.2534   -7027.5351            0     1988.322    23.101406    21.260104    21.550022    10584.041    2077.7641    1919.3173    1967.8846    4.4497358    28.486908    28.772886   -6720.3412 
48019000   0.11273561   -7027.5166   -7027.2266   -7027.5166            0    1988.6455    23.120243     21.25303    21.539151    10583.805     1997.041    1986.4018    1982.4937    41.147565    9.1000051   -12.706381   -6720.2713 
48020000   0.10451778   -7027.4826   -7027.2138   -7027.4826            0    1991.5535    23.139294    21.241368     21.53252    10583.455    1993.5794    1959.4453    2021.6359    10.759721   -31.098866   -6.6327931   -6719.8198 
48021000   0.10358094   -7027.3229   -7027.0564   -7027.3229            0    1989.6343    23.155682    21.233204    21.525584    10583.469    1974.3244    1994.8002    1999.7783   -49.005004   -44.154744   -14.822324   -6719.9583 
48022000  0.095173927   -7027.2189   -7026.9741   -7027.2189            0    1988.9207     23.17044     21.22498    21.519931    10583.333    1838.8989    2093.2268    2034.6364   -54.211553   -75.996749   -23.067693     -6719.99 
48023000  0.095095423   -7027.1659   -7026.9213   -7027.1659            0     1988.298    23.170798    21.223858    21.520952    10583.439    1921.6401    2018.7785    2024.4753   -105.67932   -63.640682   -20.342596   -6720.0303 
48024000  0.096574805   -7027.1337   -7026.8853   -7027.1337            0    1991.0329    23.171633    21.223683     21.52001     10583.27    1746.8215    2143.7439    2082.5333   -13.163025   -86.477607   -61.127772    -6719.577 
48025000   0.09616921   -7027.2711   -7027.0237   -7027.2711            0    1990.2867    23.155986    21.231337    21.527124    10583.435    1933.8302    1996.7603    2040.2696   -68.713225   -41.900326   -27.279014   -6719.8258 
48026000   0.11024033   -7027.5385   -7027.2549   -7027.5385            0    1984.9887    23.141788    21.238132    21.533974    10583.697    1843.4958    2094.6234    2016.8469   -10.615915   -36.464291   -18.705573   -6720.8672 
48027000   0.11521131   -7027.5191   -7027.2227   -7027.5191            0    1988.8083    23.119132    21.250349    21.542707    10583.708    2052.9203    1957.0122    1956.4925   -51.240854    15.172616    22.855326   -6720.2451 
48028000   0.10850745   -7027.5232   -7027.2441   -7027.5232            0    1990.1089    23.100848     21.25974      21.5506    10583.888    2032.7894    1958.7694     1978.768    32.122215    4.7514402    26.969259   -6720.0605 
48029000   0.11096962   -7027.4981   -7027.2127   -7027.4981            0    1989.3467    23.083416    21.269381    21.557355    10584.014    2118.3514    1919.0664    1930.6222     43.62048    63.857135    19.830516   -6720.1431 
48030000   0.10924013   -7027.4858   -7027.2048   -7027.4858            0    1986.8869    23.072377    21.276465    21.560877    10584.205    2115.4062     1861.864    1983.3906    82.973479    36.164019    30.416535   -6720.5094 
48031000   0.10680873   -7027.4571   -7027.1823   -7027.4571            0    1986.3997    23.069301    21.276289    21.564129    10584.302    2052.5657    2010.0185    1896.6149    37.646726    82.918202    23.874714   -6720.5593 
48032000  0.094708748   -7027.4163   -7027.1727   -7027.4163            0    1990.4146    23.071054    21.277914    21.560321    10584.046    2153.5688    1856.3868    1961.2881    26.730785    58.478602    42.443988   -6719.9374 
48033000   0.09774681   -7027.4547   -7027.2033   -7027.4547            0    1988.1042    23.086796    21.267659    21.556171    10584.125     1957.247    2064.2269    1942.8388     52.26957    53.954588   -2.5455022   -6720.3223 
48034000  0.092292387   -7027.4642   -7027.2268   -7027.4642            0    1986.6263    23.099784    21.263918    21.547597    10584.005    2104.9428    1867.4576    1987.4784    28.284102    32.214516    3.2923232   -6720.5774 
48035000    0.1044822   -7027.4829   -7027.2142   -7027.4829            0    1989.1215    23.125156    21.248592    21.538911    10583.726    1911.9549    2039.1408    2016.2689    49.287544   -6.6074414   -17.979067   -6720.1877 
48036000  0.096595478    -7027.459   -7027.2105    -7027.459            0    1991.1991    23.140424    21.240502    21.532302    10583.433    2025.9195     1980.177    1967.5008   -47.173501   -5.9659289    1.1266321   -6719.8719 
48037000   0.10370025   -7027.2958   -7027.0291   -7027.2958            0    1991.0489    23.159302    21.231238    21.523992    10583.361    1922.3325    2006.2971     2044.517   -28.827839   -81.750324   -9.8082822   -6719.7157 
48038000   0.10144538   -7027.2734   -7027.0125   -7027.2734            0    1986.2311    23.168153    21.224836    21.522381    10583.421    1892.6255    2085.8758     1980.192   -72.400556   -34.056439   -23.362917    -6720.441 
48039000  0.095333219   -7027.2151   -7026.9698   -7027.2151            0    1985.5441    23.169667    21.226482    21.519303     10583.42    1904.4072    1953.8128    2098.4124   -22.907848   -128.37852   -39.465571   -6720.5044 
48040000  0.095761761     -7027.21   -7026.9637     -7027.21            0    1994.8755    23.165088    21.225174    21.524275    10583.121    1810.3116    2167.3384    2006.9765   -65.371125   -20.057517   -36.992275   -6719.0667 
48041000  0.092414968    -7027.438   -7027.2003    -7027.438            0    1988.3751    23.147424    21.237065    21.529356    10583.473    1954.8977    1942.7079    2067.5197   -45.429146   -78.932518   -18.055073   -6720.2964 
48042000  0.097626606   -7027.4986   -7027.2475   -7027.4986            0    1988.2806    23.132254    21.241691    21.539067    10583.612    1849.2461    2156.8248    1958.7708   -48.352003    26.459127   -3.4366546   -6720.3541 
48043000   0.11553508   -7027.5117   -7027.2145   -7027.5117            0    1986.3151    23.107832    21.257788    21.546123    10583.916    2059.6547    1883.6669    2015.6236    5.7666828   -11.105084    7.5011555   -6720.6158 
48044000   0.10654225   -7027.4981    -7027.224   -7027.4981            0    1987.7623    23.091109    21.264585    21.555097    10584.045    2007.4704    2010.9742    1944.8422    47.112681    46.414963    4.1198534   -6720.3981 
48045000   0.10355322     -7027.52   -7027.2536     -7027.52            0    1986.9322    23.077231    21.273326    21.559226    10584.059    2129.9212    1879.5316    1951.3437    52.509551     57.18129    37.128372   -6720.5555 
48046000   0.10252379   -7027.4525   -7027.1888   -7027.4525            0    1986.9924    23.069278    21.277624    21.562639    10584.225    2144.5603    1890.7747    1925.6423    43.242846    49.273337    45.128063   -6720.4765 
48047000  0.097592963   -7027.4247   -7027.1736   -7027.4247            0    1991.0794    23.072627    21.274844    21.561873    10584.002     2083.694    1990.3192    1899.2251    30.571999    90.192524    38.531418   -6719.8369 
48048000   0.10875254   -7027.4428   -7027.1631   -7027.4428            0    1990.8855    23.079818    21.274537    21.555351    10583.946    2155.7963    1816.3772    2000.4831    64.621063    20.713527    25.634634    -6719.858 
48049000   0.10046794   -7027.4699   -7027.2114   -7027.4699            0    1985.5005     23.09926    21.260996    21.551178     10584.07    1942.2569    2089.3381    1924.9063    39.174636    68.821266   -15.178575   -6720.7339 
48050000   0.10037527   -7027.4721   -7027.2139   -7027.4721            0    1985.9261    23.115071    21.256307    21.540707    10583.833     2055.245    1854.0267    2048.5067    26.356828   -21.546441    3.6683615   -6720.6775 
48051000  0.098886562   -7027.4252   -7027.1708   -7027.4252            0    1990.2007    23.139031    21.239726    21.534529    10583.504     1862.416     2161.297    1946.8892   -39.885686    20.531484   -21.912769   -6719.9842 
48052000   0.09410503   -7027.2927   -7027.0506   -7027.2927            0    1993.4608    23.153142    21.235062    21.525623    10583.253    1965.9253     1950.859    2063.5981   -31.279045   -71.100667    -11.51544   -6719.3681 
48053000   0.10174333   -7027.2981   -7027.0364   -7027.2981            0    1987.4411    23.166707    21.225863    21.522622    10583.391    1878.7026    2081.7329    2001.8879   -52.498902   -44.533927   -28.153918    -6720.279 
48054000  0.098868886   -7027.2383    -7026.984   -7027.2383            0    1985.5435    23.169792    21.225451     21.52028    10583.443     1880.561    2010.2182    2065.8513   -16.444336   -97.808772   -37.079024    -6720.518 
48055000    0.1058064   -7027.2399   -7026.9677   -7027.2399            0    1991.0759    23.164748     21.22713    21.522787    10583.209    1950.9188    2005.5569     2016.752   -79.351902   -60.210473     -6.75259   -6719.6546 
48056000   0.10663282   -7027.2869   -7027.0126   -7027.2869            0    1992.8051    23.156042    21.229998    21.528147    10583.296    1852.7229    2109.5767    2016.1158   -38.210837   -53.681909   -23.247006     -6719.43 
48057000   0.10575216   -7027.4949   -7027.2228   -7027.4949            0     1988.449    23.133686    21.243482    21.535745    10583.528    2034.9371    1921.5767    2008.8333   -54.336338   -28.953834    5.0740133   -6720.3059 
48058000   0.10544959   -7027.5098   -7027.2386   -7027.5098            0    1987.6285    23.118825    21.249076    21.544407    10583.769    1852.3227    2121.6707     1988.892    15.651839    15.597704   -17.227677   -6720.4413 
48059000   0.10477814   -7027.4525   -7027.1829   -7027.4525            0    1988.7441    23.095217    21.263989    21.551731    10583.978    2107.2657    1867.1593    1991.8072    17.637121    17.766746    4.5607264   -6720.2074 
48060000   0.10131082   -7027.5101   -7027.2495   -7027.5101            0    1989.5229    23.084652    21.267497    21.558046    10583.983     1960.492    2060.8844    1947.1922     34.45484    65.427364    19.589709   -6720.1536 
48061000   0.10429393   -7027.4752   -7027.2069   -7027.4752            0    1985.6352    23.069622    21.277607    21.562315    10584.214    2150.5028    1874.6947    1931.7079    36.748237    61.480281    36.032058   -6720.7044 
48062000   0.10437065   -7027.4494   -7027.1809   -7027.4494            0    1989.7295    23.069262    21.277224    21.562759    10584.077    2110.1953    1932.0094    1926.9837    52.070516    73.498183    38.584354   -6720.0505 
48063000   0.10290949   -7027.4373   -7027.1726   -7027.4373            0     1990.644    23.076572    21.273772    21.559278    10584.005    2094.5771    1929.3999    1947.9549    84.633743    52.717243    19.733465   -6719.9031 
48064000   0.10281245   -7027.4721   -7027.2076   -7027.4721            0    1986.9599    23.088254     21.26915    21.553231    10584.092    2165.0882    1852.4857    1943.3059    27.243363    47.849709    27.480189   -6720.5042 
48065000    0.1023598   -7027.5018   -7027.2385   -7027.5018            0    1986.7623    23.112174     21.25543    21.544425    10583.897    1927.7276    2046.2083     1986.351     46.97687     6.449547     2.568693   -6720.5712 
48066000   0.10601828   -7027.4567    -7027.184   -7027.4567            0    1987.5809    23.128431    21.247896    21.536524    10583.705     2080.655    1908.9047    1973.1831   -57.208012    3.6084245    5.7163538    -6720.396 
48067000  0.095627336   -7027.2729   -7027.0269   -7027.2729            0    1994.8325    23.151916    21.233611    21.528207     10583.24    1793.3856    2144.4393    2046.6725    9.4572627   -46.463919    -40.74064   -6719.1331 
48068000  0.095150671   -7027.2988    -7027.054   -7027.2988            0    1989.2659    23.161606    21.230129    21.522912     10583.33    1957.0368    1972.4485    2038.3124    -69.16871   -46.915468   -31.382891   -6720.0168 
48069000  0.099766104   -7027.2908   -7027.0341   -7027.2908            0    1983.1082    23.170814    21.223667      21.5214    10583.571    1770.9889    2119.3619    2058.9739   -21.089802   -86.992289   -47.982505   -6720.9403 
48070000   0.10466055   -7027.2213    -7026.952   -7027.2213            0    1990.9645    23.166553    21.226115     21.52219    10583.234    1931.0881    2027.2713    2014.5339   -91.891379   -44.734552   -15.450313   -6719.6554 
48071000   0.10739558   -7027.3247   -7027.0484   -7027.3247            0    1990.9937    23.157425    21.230847    21.526013    10583.302    1900.3177    2028.8462    2043.8172   -40.613136   -83.580743   -15.893626   -6719.7453 
48072000   0.11682988   -7027.4804   -7027.1798   -7027.4804            0    1990.1509    23.141362    21.237834    21.534137    10583.434    1944.5968    2048.1725    1977.6835   -36.462774   -11.496187   -11.149923    -6720.003 
48073000    0.1029668   -7027.5304   -7027.2655   -7027.5304            0    1986.0387    23.118862    21.252261     21.54117    10583.782    2052.1366    1880.8446    2025.1348    7.9959741   -28.674758    7.4956753   -6720.7133 
48074000   0.10684997    -7027.488   -7027.2131    -7027.488            0    1989.8993    23.102462    21.257452    21.551379    10583.871    1938.3809    2085.9423    1945.3749    29.397619    33.968448   -1.8986648   -6720.0624 
48075000   0.10078242   -7027.4749   -7027.2156   -7027.4749            0    1989.6089    23.081452    21.271334     21.55718    10583.999    2160.5005     1840.736    1967.5903   -2.4243203    54.310977    43.200762    -6720.106 
48076000  0.092733243   -7027.4521   -7027.2135   -7027.4521            0    1985.8578    23.076848    21.272186    21.561023    10584.198    1958.7008    2065.8765    1932.9961    62.725829    52.688386    10.034412   -6720.6771 
48077000  0.092191284   -7027.4171     -7027.18   -7027.4171            0    1987.5161    23.067716    21.279178    21.562401    10584.164    2161.0498    1860.1032    1941.3952    24.857443    81.987014    31.771584   -6720.3886 
48078000    0.1059386   -7027.4513   -7027.1788   -7027.4513            0    1990.6319     23.07685    21.274383    21.558342    10583.977     2021.865    1962.7207    1987.3099    98.367575    33.104877    5.6920573    -6719.912 
48079000   0.10285992   -7027.4983   -7027.2337   -7027.4983            0    1987.7401    23.088061     21.26771    21.554776    10584.046    2105.8588    1948.4848    1908.8767    9.4148132    76.398859    20.000247   -6720.4112 
48080000   0.11597198    -7027.495   -7027.1967    -7027.495            0    1986.7493    23.104733    21.261025      21.5458     10583.95    2058.6827     1891.186    2010.3793    55.267879   -7.5756109    26.909294   -6720.5299 
48081000   0.10433794   -7027.4754    -7027.207   -7027.4754            0    1987.2827    23.123322    21.248616    21.540617    10583.737    1989.2291    2053.5105    1919.1086   -26.337774    38.742264    1.9710418   -6720.4641 
48082000   0.10909681   -7027.4602   -7027.1796   -7027.4602            0    1991.1583    23.141019    21.242598    21.529488    10583.366    2011.0797    1890.3546    2072.0405    17.192768   -74.468458   -14.546131   -6719.8492 
48083000  0.099732109   -7027.2753   -7027.0188   -7027.2753            0    1992.6456    23.161821    21.227876    21.524786    10583.226    1830.9069    2157.1034    1989.9264   -45.620539   -15.146352   -37.621736   -6719.4629 
48084000   0.10131413   -7027.2698   -7027.0092   -7027.2698            0    1984.5679    23.168539    21.227398    21.519483     10583.45    1934.9597    1935.1177    2083.6265   -56.168651   -104.88229   -31.424532   -6720.6936 
48085000    0.0953922   -7027.1914    -7026.946   -7027.1914            0    1990.1315    23.172399    21.221422    21.521457    10583.204    1766.4135     2191.148     2012.833   -71.143886   -34.850531   -32.513402   -6719.7788 
48086000   0.10312946   -7027.2686   -7027.0033   -7027.2686            0    1990.5382    23.160182    21.229646    21.524751    10583.343    1930.2508    1985.9294    2055.4343   -61.403486   -76.610767   -28.003244   -6719.7693 
48087000   0.10027368   -7027.4173   -7027.1593   -7027.4173            0    1990.1632    23.149037    21.234034    21.530724    10583.373     1879.942    2071.5303    2019.0174   -25.871343   -43.242654   -21.043134   -6719.9824 
48088000   0.11805917   -7027.5463   -7027.2426   -7027.5463            0    1986.7882     23.12836    21.245316    21.539122    10583.664    1958.8232    2007.9974    1993.5439   -13.868897   -6.2695259   -6.3939596   -6720.5781 
48089000  0.097796295   -7027.5025   -7027.2509   -7027.5025            0    1988.4011    23.104791    21.258615    21.548005     10583.86    2079.0506    1900.7348    1985.4178     17.00423   -3.2911682    19.561381   -6720.3318 
48090000   0.10495864   -7027.4835   -7027.2135   -7027.4835            0    1992.4531    23.090789    21.263555    21.555977    10583.818    2004.8951    2056.4916    1915.9727    5.0205496      74.2373    28.220579   -6719.6701 
48091000  0.092096326   -7027.4473   -7027.2104   -7027.4473            0    1987.2848    23.074968    21.275643    21.559101    10584.113    2178.1827    1802.6932    1980.9785    60.682179    21.121145    32.490659   -6720.4563 
48092000   0.09284365   -7027.4213   -7027.1824   -7027.4213            0    1987.2918    23.072611    21.273938     21.56317    10584.181     2009.525    2051.8398    1900.5105    43.668111    102.27191    21.287412   -6720.4252 
48093000  0.091089912   -7027.4007   -7027.1664   -7027.4007            0     1989.551    23.069726    21.279209    21.560386    10584.113    2152.0144    1818.2921    1998.3466    81.550043    38.857765    22.833805   -6720.0624 
48094000   0.09844124   -7027.4581   -7027.2048   -7027.4581            0    1989.2631    23.082853    21.269895    21.557508    10584.087    2012.2023    2046.5184    1909.0686    19.587272    83.650416    14.146646    -6720.146 
48095000  0.099792279   -7027.5009   -7027.2442   -7027.5009            0    1988.8346    23.097425    21.264404    21.549236    10583.971    2054.0847    1909.0245    2003.3945    43.899959    12.567411    18.150163   -6720.2549 
48096000   0.11787315   -7027.4992    -7027.196   -7027.4992            0     1984.838    23.117047    21.252886    21.542594    10583.962    2016.2453    1998.1628    1940.1059   -13.421076    29.564778  -0.87569059   -6720.8238 
48097000   0.10879369   -7027.4763   -7027.1964   -7027.4763            0    1991.4642    23.137533    21.242676    21.532679    10583.379    1925.0342    2009.9453    2039.4131    33.143042   -40.233219   -17.371204   -6719.8184 
48098000   0.10719422   -7027.3346   -7027.0589   -7027.3346            0    1992.4779    23.152607    21.234829     21.52635     10583.25     2010.163    1957.3456    2009.9251   -55.023554    -36.84919   -11.707765   -6719.5282 
48099000   0.10441143   -7027.2799   -7027.0113   -7027.2799            0    1987.6685    23.168222     21.22509    21.521999    10583.391    1812.8722    2125.4513     2024.682   -31.821752   -65.518772   -31.890601   -6720.2189 
48100000  0.096326396    -7027.224   -7026.9762    -7027.224            0    1987.8231    23.167089    21.227388    21.520544    10583.304    1987.3416    1931.3928    2044.7349    -83.46434   -70.941985    -7.590409   -6720.1624 
48101000  0.098743965   -7027.2306   -7026.9765   -7027.2306            0    1992.0352    23.167407    21.223599    21.523986    10583.253    1766.3704    2179.5136    2030.2215   -39.620381   -58.087368   -40.478767   -6719.5141 
48102000   0.10005108   -7027.2722   -7027.0148   -7027.2722            0    1992.1793    23.150429    21.234844     21.52853    10583.334    1979.5616    1951.2473    2045.7291   -46.864608   -56.256577   -25.008562   -6719.5278 
48103000   0.10598027   -7027.5443   -7027.2717   -7027.5443            0    1985.1241    23.137228     21.24015    21.536144    10583.684    1843.8385    2101.3427     2010.191   -22.035876   -18.173862   -13.669764   -6720.8635 
48104000   0.11625647   -7027.5043   -7027.2052   -7027.5043            0    1987.1609    23.113104    21.253666    21.545291     10583.87    2012.9117    1975.1871    1973.3838   -12.029908    8.9265459    1.3192655   -6720.4772 
48105000   0.11144879    -7027.517   -7027.2303    -7027.517            0    1991.2737    23.094694    21.263681    21.552165    10583.799    2050.8003    1949.8428     1973.178  -0.13522456    37.355298     31.56342   -6719.8695 
48106000   0.10522973   -7027.4914   -7027.2207   -7027.4914            0    1987.4874    23.080506    21.270469    21.559319    10584.185    2040.3542    1980.7564    1941.3517    71.724639    42.678248    8.5497298   -6720.4331 
48107000  0.092374917   -7027.4406    -7027.203   -7027.4406            0    1987.0831    23.069373    21.278479    21.561504    10584.136    2214.5373    1808.5329    1938.1791    27.382764    73.977687    45.486319   -6720.4793 
48108000  0.092893426    -7027.423    -7027.184    -7027.423            0    1990.1617    23.072732    21.274926    21.561831     10584.07    2013.6564      2013.62    1943.2087    95.668344    53.844074    21.211977    -6719.987 
48109000  0.095673256   -7027.4422   -7027.1961   -7027.4422            0    1988.7782     23.07503    21.275768    21.558857    10584.083    2209.5051    1834.5239    1922.3056   -2.7072597    75.327584    43.330513   -6720.2123 
48110000   0.10253373   -7027.4675   -7027.2037   -7027.4675            0    1988.8674    23.095929    21.263766    21.551266    10583.966    1935.2587    2047.4416    1983.9019    75.783793    25.121969    3.3024506   -6720.2096 
48111000   0.10282109    -7027.494   -7027.2295    -7027.494            0    1984.1015    23.110505    21.257251    21.544352    10584.003    2074.3109    1912.3595    1965.6342   -12.527869     37.45267     0.860833   -6720.9699 
48112000   0.11345458   -7027.4752   -7027.1834   -7027.4752            0    1989.3724    23.135197    21.243721    21.534174    10583.566    1878.3209    2049.9483    2039.8482     37.37505   -36.179411   -29.433018   -6720.1228 
48113000   0.10792374   -7027.3081   -7027.0304   -7027.3081            0    1994.4202    23.151133    21.234534    21.527976    10583.228    1947.0464    2043.7439    1992.4703    -61.00336   -10.800462   -13.742746   -6719.2006 
48114000   0.11153375   -7027.3323   -7027.0454   -7027.3323            0     1986.262    23.164745    21.228165    21.522297    10583.483    1904.6984    2005.0195    2049.0681   -35.236275   -88.472986   -22.158314   -6720.4674 
48115000  0.098135161   -7027.1999   -7026.9474   -7027.1999            0    1988.4274    23.173133    21.222067    21.520339    10583.311    1843.3339    2116.7969    2005.1514   -66.642784   -43.205304   -24.035887   -6720.0402 
48116000  0.099099323   -7027.2626   -7027.0076   -7027.2626            0    1987.9208    23.164445    21.228369    21.522195    10583.397    1978.7344    1923.7641     2061.264   -50.743496   -99.728611   -22.453813   -6720.1761 
48117000  0.092746362   -7027.2624   -7027.0238   -7027.2624            0    1995.4922    23.158863    21.228282    21.526925    10583.129    1810.9808     2157.768    2017.7277   -21.845261   -44.414475   -34.511337   -6719.0315 
48118000  0.097976648    -7027.514    -7027.262    -7027.514            0    1987.5504    23.138362    21.241297    21.533632    10583.539    2030.7389    1911.8755    2020.0369   -68.194056   -31.934598    3.7955704   -6720.4834 
48119000   0.10068576   -7027.4979   -7027.2389   -7027.4979            0    1987.6455    23.121609    21.247827    21.543053    10583.756     1871.621    2107.5042    1983.8113    10.188727   -4.9310759   -12.204555   -6720.4394 
48120000   0.10570626   -7027.4702   -7027.1983   -7027.4702            0    1989.9877    23.098812    21.261588    21.550523    10583.837    2068.9688    1930.1125     1970.882   -19.031524    50.718272    17.080247   -6720.0349 
48121000   0.09630236   -7027.4823   -7027.2346   -7027.4823            0    1987.7186    23.084657     21.26885    21.556938    10584.114    2012.8158     1960.314     1990.026    77.860682    15.674569     6.804716   -6720.4134 
48122000   0.10921621   -7027.4729   -7027.1919   -7027.4729            0    1986.0221    23.073814    21.273855    21.562178    10584.204    2081.6317    1976.2056    1900.2289    15.224068    96.960089    26.455224     -6720.63 
48123000  0.099532664   -7027.4282   -7027.1721   -7027.4282            0    1990.0578    23.070829      21.2781    21.560359    10584.053    2138.4133    1844.5746    1987.1854    86.894886    28.105055    41.055011   -6719.9917 
48124000  0.094927205   -7027.4248   -7027.1806   -7027.4248            0    1989.9782    23.075774    21.272549    21.561418    10584.081     2081.667    2020.0493    1868.2183     8.880515    96.680518     29.89283   -6720.0116 
48125000   0.10526419   -7027.4439   -7027.1731   -7027.4439            0    1990.3492      23.0855    21.272094    21.552567    10583.968    2151.9118    1802.5326    2016.6032    80.678743    5.0356672    28.396639   -6719.9501 
48126000   0.10583274   -7027.5146   -7027.2424   -7027.5146            0    1983.2749    23.107969    21.256706    21.547357    10584.047    1964.7572    2069.3772    1915.6901     12.32243    55.216175   -8.0020071   -6721.1091 
48127000   0.10169899   -7027.4693   -7027.2077   -7027.4693            0    1988.0388    23.126011    21.250329     21.53623    10583.664    2041.3833    1876.3688    2046.3642    20.361178   -33.771664     1.324958   -6720.3502 
48128000   0.11082522   -7027.3937   -7027.1086   -7027.3937            0    1993.8331    23.147666    21.235327    21.530525    10583.292    1860.7146    2139.7788    1981.0059   -41.459593   -4.2194721    -22.95242   -6719.3676 
48129000   0.10530186   -7027.3043   -7027.0335   -7027.3043            0    1990.1671     23.16036     21.23059    21.523612    10583.335    1918.3703    2001.3643    2050.7668   -45.892207   -69.836001     -29.7399    -6719.857 
48130000   0.10057439   -7027.2879   -7027.0292   -7027.2879            0    1985.9392    23.169192    21.225007    21.521202    10583.401     1846.902    2068.2153    2042.7004   -48.634192   -61.602241   -35.115665   -6720.5034 
48131000  0.099289378   -7027.2502   -7026.9948   -7027.2502            0    1986.7341    23.168807    21.224345    21.522265    10583.417    1840.4014     2089.875    2029.9259   -48.654325    -64.67731   -39.325013   -6720.3458 
48132000   0.10081358   -7027.2473   -7026.9879   -7027.2473            0    1991.6893    23.158623    21.231098    21.524539     10583.25     1975.603    1944.3268    2055.1382   -46.326785   -83.742106   -13.576529    -6719.579 
48133000  0.098305007   -7027.4708   -7027.2179   -7027.4708            0    1991.2796    23.146992    21.233921    21.532676    10583.341    1853.7721    2150.3619    1969.7048   -52.605099   -3.5523637   -9.2431462   -6719.8695 
48134000  0.097442055    -7027.484   -7027.2333    -7027.484            0     1987.196    23.122876    21.249632        21.54    10583.735    2078.8471    1864.7657    2017.9751   -4.1225509   -43.899865    7.1081557   -6720.5038 
48135000  0.097544097   -7027.5033   -7027.2524   -7027.5033            0     1990.495    23.108078    21.254835      21.5484    10583.678    1927.5646    2090.4884    1953.4321     1.066437    47.024483    5.1183291   -6720.0153 
48136000   0.10293109   -7027.4456   -7027.1808   -7027.4456            0    1989.0586    23.085463    21.269622    21.555288    10584.058    2115.8881    1857.6221    1993.6656    53.318977    14.425291    10.741964   -6720.1544 
48137000  0.093419828   -7027.4833    -7027.243   -7027.4833            0     1986.553    23.075981     21.27254    21.561374    10584.149    2026.1827    2015.3442    1918.1321     19.09324    87.564668    29.261112   -6720.6008 
48138000  0.095456649   -7027.4438   -7027.1983   -7027.4438            0    1987.2039    23.070414    21.277094    21.562064      10584.2    2080.4636    1923.3113    1957.8368    68.192281    48.689054    28.167407   -6720.4541 
48139000   0.10156875   -7027.4635   -7027.2023   -7027.4635            0    1988.6713    23.071811    21.276076     21.56164    10584.126    2130.8331    1920.4684    1914.7124    16.458342    82.858838    30.447598   -6720.2337 
48140000   0.10336874    -7027.465   -7027.1991    -7027.465            0    1991.6712    23.083946     21.27055    21.555445    10583.901    2018.0065    1975.2368    1981.7704    95.723066    36.143789    11.227604    -6719.774 
48141000    0.1124123   -7027.5206   -7027.2314   -7027.5206            0    1985.2722    23.097905    21.264297    21.549078    10584.061     2145.219    1856.3101    1954.2877    4.4250782    36.858866    17.949268   -6720.7894 
48142000   0.10530038   -7027.4797   -7027.2088   -7027.4797            0    1987.5809    23.122655    21.249916    21.539908     10583.73    1913.1933    2071.8991    1977.6503    35.105999    0.3447761    -5.704995     -6720.42 
48143000   0.10617926   -7027.4585   -7027.1853   -7027.4585            0    1991.3515     23.13784    21.243213    21.531882    10583.395    2077.1351    1886.5425    2010.3769   -48.176509   -24.742817    7.0193149   -6719.8243 
48144000   0.10828729   -7027.3175   -7027.0389   -7027.3175            0    1991.3158     23.15882    21.229646    21.525955    10583.312    1816.9032    2143.8691    2013.1752   -12.038209   -46.451552   -39.711031   -6719.6858 
48145000   0.10533914   -7027.2696   -7026.9986   -7027.2696            0    1986.8295    23.166649     21.22758    21.520918    10583.383    1936.6506       1964.7    2059.1378   -59.412062   -67.364737   -26.191738   -6720.3359 
48146000   0.10259724   -7027.2719    -7027.008   -7027.2719            0    1984.1099     23.17094    21.223229    21.521585    10583.501    1797.0211    2117.4133    2037.8952   -48.372936   -71.082061   -42.189048   -6720.7616 
48147000   0.10082455   -7027.2151   -7026.9557   -7027.2151            0    1993.2459    23.165565    21.226336    21.522696    10583.141    1861.6637    2077.2563    2040.8176   -66.420581   -59.518119   -29.862169   -6719.3096 
48148000    0.1019522   -7027.3612   -7027.0989   -7027.3612            0    1989.6466    23.150212    21.234472    21.529273    10583.414    1952.6784    1995.5297    2020.7317   -70.320719   -45.358536   -4.7138199   -6720.0004 
48149000   0.10810372   -7027.4912   -7027.2131   -7027.4912            0    1987.6057    23.135646    21.240576    21.537077    10583.631    1871.1253    2091.7127    1999.9792    11.189937   -25.627671   -20.377108   -6720.4234 
48150000  0.097160975   -7027.4979    -7027.248   -7027.4979            0    1988.4561    23.108337    21.257279    21.545915    10583.792    2126.2374    1854.3473    1984.7835    -24.32724    20.044637    27.887787   -6720.3223 
48151000  0.099537663   -7027.4508   -7027.1947   -7027.4508            0    1991.1578    23.095399    21.261954    21.553563    10583.948    1953.0051    2053.9858    1966.4825    73.310618    15.502855    4.8018403   -6719.8475 
48152000  0.094079105   -7027.4596   -7027.2175   -7027.4596            0    1988.1622    23.074964    21.274589    21.560098    10584.076    2197.5975    1839.0635    1927.8257   -11.317892    76.342847    48.082265    -6720.329 
48153000   0.10038267    -7027.448   -7027.1897    -7027.448            0    1986.8864    23.072117    21.275418    21.562179    10584.204     2001.353    2010.0808    1949.2255    85.995361    50.961032    24.441635   -6720.4944 
48154000   0.10165918   -7027.4376   -7027.1761   -7027.4376            0    1987.0059    23.070111    21.277026    21.562325    10584.155    2148.0209    1896.9454    1916.0515    16.657523    88.366467    25.104543   -6720.4638 
48155000   0.10286866   -7027.4638   -7027.1991   -7027.4638            0    1990.6585    23.081089    21.272324      21.5565    10583.991    2021.6856    1949.9107    2000.3791    100.37126    33.591514    9.4734673   -6719.9278 
48156000   0.10645027    -7027.529   -7027.2552    -7027.529            0    1986.6343    23.094524    21.264161    21.552367    10584.059    2049.1892    1986.2089    1924.5047    1.4113444    65.104307     10.29367    -6720.603 
48157000   0.11092576   -7027.5187   -7027.2334   -7027.5187            0    1985.6805    23.110998    21.257752    21.543181    10583.904    2044.3944    1899.8181    2012.8291    34.917799   -9.0584004    14.228137   -6720.7329 
48158000   0.10411046    -7027.466   -7027.1982    -7027.466            0    1990.6321    23.134489    21.242747    21.535741    10583.527    1921.6557    2087.7551    1962.4855   -19.852744    10.955651   -9.3173266   -6719.9443 
48159000   0.10070978   -7027.2976   -7027.0385   -7027.2976            0    1992.0301    23.149172    21.237605     21.52688    10583.324    2045.6899      1886.84    2043.5604   -20.159084    -67.33709    -11.81391   -6719.5748 
48160000  0.098565116   -7027.2561   -7027.0026   -7027.2561            0    1990.9864    23.167366    21.225266    21.522363    10583.267    1790.7168    2150.7542    2031.4883   -18.381653   -53.669168   -39.983836   -6719.7016 
48161000  0.094853743   -7027.2709   -7027.0269   -7027.2709            0    1983.8279    23.166391    21.227781    21.521232    10583.519    1978.1922     1939.211    2034.0804   -82.731102   -72.981349   -19.872747   -6720.8235 
48162000  0.094564938   -7027.1862   -7026.9429   -7027.1862            0    1992.6304    23.168697    21.223874    21.522407    10583.203    1789.8922    2140.8685    2047.1305   -39.409447   -72.050317   -31.615809   -6719.3901 
48163000   0.10380549    -7027.287   -7027.0199    -7027.287            0    1993.3782    23.156026    21.230832     21.52717    10583.224    1919.3595     2048.678     2012.097   -84.797758   -34.667951   -18.773907   -6719.3511 
48164000  0.096501966   -7027.5083     -7027.26   -7027.5083            0    1985.4066    23.139388    21.240365    21.533866     10583.66     1910.794    1997.1768    2048.2491    5.9985906   -67.338793   -23.626685   -6720.8089 
48165000   0.11061933   -7027.5112   -7027.2267   -7027.5112            0    1987.9247    23.120484    21.248327    21.543566    10583.742    1935.3505    2073.1865    1955.2371   -28.917795    40.359551   -3.2753076   -6720.3845 
48166000   0.10265895   -7027.4762   -7027.2121   -7027.4762            0    1988.4733    23.096722    21.263824    21.550501    10583.981     2089.228    1861.9374    2014.2544    44.792602   -12.954814    17.414475   -6720.2783 
48167000  0.098398219   -7027.4792   -7027.2261   -7027.4792            0    1990.4061    23.082597    21.267707    21.559767     10583.99    2024.0884    2059.9453    1887.1845    2.3264853    94.326996    31.193857   -6719.9937 
48168000   0.09604957   -7027.4311    -7027.184   -7027.4311            0    1987.9882    23.069856    21.279002    21.560584    10584.166    2187.9993    1789.6008    1986.3645    78.435563    29.633808    43.102575   -6720.3197 
48169000  0.097554579    -7027.416   -7027.1651    -7027.416            0    1987.7005    23.070181    21.275449    21.564009    10584.229    2047.5905    2025.8816    1889.6295    43.510775    89.753494    23.202523   -6720.3434 
48170000  0.099039602   -7027.4419   -7027.1871   -7027.4419            0    1990.8587     23.07377    21.277004    21.558538    10583.964    2158.0655    1826.3718    1988.1388    78.241259    41.596781    30.854489   -6719.8856 
48171000   0.11353388    -7027.503   -7027.2109    -7027.503            0    1987.5951    23.089673    21.266658    21.554368    10584.061    2019.6882    2015.3191    1927.7779     22.90919    63.144059    10.133097   -6720.4104 
48172000   0.11193119   -7027.5281   -7027.2402   -7027.5281            0    1985.2131    23.108048    21.258152    21.545649    10583.964    2012.6296     1965.303    1977.7066    20.599566    20.344782    10.951347   -6720.8101 
48173000   0.11251853   -7027.4873   -7027.1979   -7027.4873            0    1988.3324    23.127531    21.248328    21.536833     10583.66    1984.8376    1967.5214    2012.6382   -6.3931951   -14.621184   -10.019941   -6720.2951 
48174000   0.10150369   -7027.4644   -7027.2033   -7027.4644            0    1992.0443    23.146976    21.236066    21.530458    10583.312     1869.104    2112.4307    1994.5981   -8.0502163   -14.267676   -35.198261   -6719.7378 
48175000  0.099345685   -7027.3016    -7027.046   -7027.3016            0    1990.3799    23.158414    21.233114    21.522707    10583.258    1985.4949    1903.7289    2081.9159   -35.173598   -84.927153    -21.10972   -6719.8389 
48176000  0.088791122   -7027.2152   -7026.9868   -7027.2152            0    1987.1195    23.171474    21.222158    21.522098    10583.464    1795.9871    2182.3702    1983.0013   -63.764596   -33.252508   -29.157879   -6720.2769 
48177000  0.090612689    -7027.167   -7026.9339    -7027.167            0    1989.0878    23.167525    21.227191    21.520255    10583.262    1986.1323    1909.7745    2071.3565   -62.789622   -105.29235   -12.783872   -6719.9261 
48178000  0.092582517   -7027.2298   -7026.9916   -7027.2298            0    1995.1132     23.16234    21.226307    21.525723    10583.142    1832.9052     2152.998    1999.4363   -54.183281   -31.912737   -25.446719   -6719.0573 
48179000   0.10319757   -7027.4719   -7027.2064   -7027.4719            0    1988.6511    23.143952    21.238346    21.531356    10583.507    1968.4302    1947.5408    2049.9823   -8.6128817   -64.621941   -26.524768   -6720.2589 
48180000   0.10224347   -7027.5291   -7027.2661   -7027.5291            0    1986.7557    23.126628     21.24587     21.54021    10583.682    1935.0932    2042.1644    1983.0095   -37.859306    11.341228    3.7707827   -6720.6061 
48181000   0.11263856    -7027.504   -7027.2142    -7027.504            0    1987.7748    23.105842    21.257455    21.548346    10583.932    1962.0251     2009.932    1991.3673    21.425983    2.8197798   -1.6410813   -6720.3897 
48182000   0.10588303    -7027.485   -7027.2126    -7027.485            0    1988.8118    23.085158    21.268563    21.556531    10584.001     2103.685    1919.1658    1943.5846   -11.354392    59.903459    32.417401    -6720.226 
48183000   0.10496319   -7027.4987   -7027.2287   -7027.4987            0    1987.1262     23.07752    21.271964    21.560468    10584.124    1992.5764    2016.2933     1952.509    80.429662    52.006886     15.30012   -6720.4987 
48184000  0.097973967   -7027.4422   -7027.1901   -7027.4422            0     1986.146    23.068298    21.279429    21.561741    10584.232    2211.5996    1801.0875    1945.7509    38.130401    60.955757    31.826581   -6720.6083 
48185000  0.097492574   -7027.4294   -7027.1786   -7027.4294            0    1991.3105    23.075295     21.27326    21.560973    10583.996    2016.2375    2032.4648    1925.2292    80.758493    67.104345    26.971951   -6719.8065 
48186000   0.10265441   -7027.4445   -7027.1804   -7027.4445            0    1989.9835    23.081486    21.272806     21.55557    10583.957    2206.0367    1810.1451    1953.7687    14.652728    45.450124    41.997834   -6720.0142 
48187000   0.10710878   -7027.5099   -7027.2343   -7027.5099            0    1985.4778    23.101524    21.261193    21.548795    10584.035    1975.4989     2035.585    1945.3494    40.909385    34.835205    5.3254721   -6720.7614 
48188000   0.11140849   -7027.4793   -7027.1927   -7027.4793            0    1986.2983    23.119512    21.252728    21.540068     10583.77    2031.1897    1926.7124     2000.993    1.5207399     4.533621   0.22639874   -6720.6008 
48189000   0.10824374   -7027.4802   -7027.2018   -7027.4802            0     1990.007    23.141155    21.240201    21.532013    10583.475    1931.0013    2025.2302    2013.7895   -5.3632312   -32.163371   -28.981663   -6720.0459 
48190000   0.10415345   -7027.2658   -7026.9979   -7027.2658            0    1993.8528    23.160417    21.229875    21.524044    10583.217    1832.0884    2100.0683    2049.4017   -27.426034   -50.789415   -35.174073    -6719.256 
48191000  0.098205039   -7027.2776    -7027.025   -7027.2776            0    1985.3514    23.166166    21.227003    21.522188    10583.499    1949.3896    1985.6261    2021.0386    -95.03523    -57.16723   -16.673015    -6720.587 
48192000  0.092717332   -7027.1631   -7026.9246   -7027.1631            0    1988.9895    23.174144    21.221357    21.520191    10583.346    1750.8485    2165.6251    2050.4949   -29.151923   -75.960091   -41.897409   -6719.9295 
48193000  0.091140553   -7027.2303   -7026.9959   -7027.2303            0    1991.3314    23.159474    21.230216    21.524775    10583.315    2021.6232    1926.8416    2025.5295   -84.928141   -53.826068   -8.8889071   -6719.6402 
48194000  0.095913017   -7027.3106   -7027.0639   -7027.3106            0     1990.972    23.152551    21.231777    21.529834    10583.416     1820.958    2119.9993    2031.9588    11.368569    -62.84359    -34.07604   -6719.7608 
48195000   0.11228018   -7027.5157   -7027.2269   -7027.5157            0    1987.9039    23.128559    21.245841    21.538372    10583.648    2072.2405    1913.1995    1978.2717   -58.206814   -2.5391342    14.869066   -6720.3906 
48196000   0.10930805    -7027.539   -7027.2578    -7027.539            0    1988.5043    23.112006    21.253534    21.546298    10583.796    1949.2253     2024.245    1992.0427    21.194808   -9.1660905     11.49695   -6720.3246 
48197000   0.11541715   -7027.4679    -7027.171   -7027.4679            0    1990.8998    23.091182    21.264326    21.555075    10583.939    2088.1901    1957.2228    1927.2865   -5.6371146    64.273334    21.377117   -6719.8639 
48198000   0.10647964   -7027.4989    -7027.225   -7027.4989            0    1987.1052    23.078252    21.273025    21.558631    10584.086    2051.6563    1913.7565    1995.9028    75.566712    27.371064    19.907986   -6720.4993 
48199000   0.10597491   -7027.4738   -7027.2012   -7027.4738            0    1984.3166    23.070678    21.275608    21.563563    10584.318    2047.9216    2002.8419    1902.1864    37.463737    89.684498    11.842358   -6720.8992 
48200000   0.10106379   -7027.4473   -7027.1873   -7027.4473            0    1990.3888     23.06999    21.278778    21.560382    10584.018    2148.6618    1839.2132    1983.2915    61.816258    50.660903    38.495109   -6719.9568 
48201000   0.10001284   -7027.4475   -7027.1902   -7027.4475            0    1990.9866    23.081062    21.270168    21.558713    10583.993    1998.6359     2062.487    1911.8368    43.405393    75.563837    14.156162   -6719.8681 
48202000  0.099590462   -7027.4593   -7027.2031   -7027.4593            0    1987.9544    23.091855     21.26803    21.550872    10584.027    2179.1482     1813.633    1971.0821    26.335681    33.292109    31.652134   -6720.3481 
48203000  0.099723735   -7027.4846   -7027.2281   -7027.4846            0    1986.5711    23.116583    21.253187    21.542498    10583.853    1928.3839    2043.9598    1987.3697    50.678014     5.398787   -10.727602   -6720.5917 
48204000  0.096617865   -7027.4594   -7027.2109   -7027.4594            0    1989.0921    23.132769    21.245313    21.534856    10583.583    2063.2888    1924.1931    1979.7945   -29.088392     -10.1011    -1.084989   -6720.1931 
48205000   0.10707844    -7027.301   -7027.0255    -7027.301            0    1993.9725    23.153926    21.233802    21.526084    10583.211     1883.577    2045.4193    2052.9214   -9.5702133   -65.019167   -21.916168   -6719.2653 
48206000  0.094773648   -7027.2874   -7027.0436   -7027.2874            0    1988.5636     23.16434    21.226969    21.523627    10583.355    1890.3364    2090.4628    1984.8918   -85.717895   -24.258973   -21.628661    -6720.114 
48207000  0.092936411   -7027.2421    -7027.003   -7027.2421            0    1984.1242    23.168942    21.226742    21.519867    10583.495    1871.5836    1983.8911    2096.8979   -35.096898   -121.86833   -38.429341   -6720.7546 
48208000  0.092681442    -7027.174   -7026.9356    -7027.174            0    1993.2915    23.168442    21.223478     21.52292    10583.141    1799.2934     2174.811    2005.7703   -68.532548   -19.348973   -40.722682   -6719.2825 
48209000  0.097709986   -7027.2957   -7027.0444   -7027.2957            0    1989.1346    23.153925    21.233631    21.526697    10583.426    1955.9783    1930.2245    2081.2008   -30.413236   -99.985465   -26.703258   -6720.0246 
48210000   0.10262155   -7027.5081   -7027.2441   -7027.5081            0    1989.2972    23.140284    21.237383     21.53574    10583.504    1861.3023    2148.5861    1958.0032   -48.090115    17.050835   -3.3357608    -6720.197 
48211000   0.10773882   -7027.4967   -7027.2196   -7027.4967            0    1986.1557    23.113764    21.254881    21.543504    10583.899    2084.4134    1859.3848    2014.6688    2.4011233   -27.163073    16.031961   -6720.6459 
48212000   0.10300812   -7027.4958   -7027.2308   -7027.4958            0    1990.6328    23.097707     21.26041    21.552757    10583.842    1997.5545    2039.9579    1934.3859    19.908383    46.960011    13.698483   -6719.9677 
48213000   0.11211731   -7027.4967   -7027.2083   -7027.4967            0    1988.6804    23.079855    21.272191    21.557863    10584.028    2125.2747    1867.2996    1973.4669    56.168172    40.886979     30.30156   -6720.2412 
48214000   0.10763604   -7027.4954   -7027.2185   -7027.4954            0    1984.9325    23.072678    21.275214    21.561965    10584.255    2085.4487    1941.6411    1927.7076    44.233807    58.735433    28.156391   -6720.8234 
48215000   0.10029562   -7027.4606   -7027.2026   -7027.4606            0    1988.8164    23.072537    21.274977    21.562041     10584.11    2056.0512    1987.7014    1922.6967    40.497548    82.764597    31.830126   -6720.2121 
48216000  0.099531169   -7027.4486   -7027.1925   -7027.4486            0     1989.883    23.075585    21.275951    21.558037    10584.026    2131.9101    1855.8456    1981.8933    51.810885    38.772071    23.652645   -6720.0398 
48217000  0.094619638   -7027.4552   -7027.2118   -7027.4552            0    1988.6367    23.092784    21.264042    21.554061    10584.034    1964.0257    2083.8813    1918.0031    40.629841    74.465403   -1.6815809   -6720.2512 
48218000   0.10629857   -7027.4949   -7027.2215   -7027.4949            0    1985.5495    23.108042    21.260463    21.543192    10583.904    2094.8472    1825.3036    2036.4977    39.224131   -14.231854    8.7397888   -6720.7412 
48219000  0.097750571   -7027.4554   -7027.2039   -7027.4554            0    1988.1178    23.129983    21.244689    21.538272    10583.677    1911.6091    2118.1195    1934.6248   -8.7631289    23.224811   -14.838746   -6720.3338 
48220000  0.086760197   -7027.3638   -7027.1406   -7027.3638            0    1993.8236    23.147016    21.238705    21.527532    10583.207    2021.9456    1900.6128    2058.9125   -23.115273   -67.443609   0.88925736   -6719.4035 
48221000   0.09385786   -7027.2705   -7027.0291   -7027.2705            0    1990.3187     23.16279    21.227507    21.524501    10583.345    1885.0668     2104.777    1981.1123    -53.07637    -29.57485   -25.168805   -6719.8289 
48222000  0.097337587   -7027.2543   -7027.0039   -7027.2543            0     1985.266    23.170205    21.225707    21.519619    10583.434    1881.2047    2001.8293    2072.7641   -28.261888   -98.478512   -34.860664    -6720.581 
48223000  0.099179658   -7027.2386   -7026.9835   -7027.2386            0    1988.6803    23.168316    21.224791    21.522055    10583.313    1890.5497    2052.1577    2023.3335   -80.363743   -58.095597   -25.242629   -6720.0371 
48224000   0.11137863   -7027.2759   -7026.9894   -7027.2759            0    1991.8962    23.159478    21.228668    21.526314    10583.302      1811.93    2117.1826    2046.5759   -30.435978   -65.071916   -42.603828    -6719.547 
48225000   0.10108228   -7027.5097   -7027.2497   -7027.5097            0    1988.3267    23.141222    21.238905    21.533311    10583.498    1982.5695    1975.7981    2006.6125   -70.295617   -21.474731   0.45832906   -6720.3525 
48226000   0.10585349   -7027.5282   -7027.2559   -7027.5282            0    1986.3012    23.125141    21.245849    21.541872    10583.808    1849.0637    2118.1953    1991.6446    12.900774   -2.5005902   -16.605509   -6720.6624 
48227000   0.11000265   -7027.4627   -7027.1797   -7027.4627            0    1988.6493    23.098912    21.262166    21.550054    10583.941    2136.9738    1843.6271    1985.3469    4.7401498    15.592307    17.803453   -6720.2199 
48228000   0.11045413   -7027.5034   -7027.2193   -7027.5034            0    1990.8123    23.087159     21.26661    21.556504    10583.933    1980.3862     2038.701    1953.3496    54.002314      48.9696    18.424724   -6719.9258 
48229000     0.104818   -7027.4711   -7027.2015   -7027.4711            0    1985.9308    23.071312    21.276845    21.561542    10584.231    2199.3114    1830.8667    1927.6143     29.22804     58.24525    40.452294   -6720.6529 
48230000   0.10319401   -7027.4408   -7027.1753   -7027.4408            0    1988.8005    23.069696    21.276752    21.562877    10584.099     2076.241    1966.1068    1924.0538    55.165645    75.967459    40.285064   -6720.1876 
48231000   0.11054873   -7027.4489   -7027.1645   -7027.4489            0     1989.158    23.073544    21.275776    21.560203    10584.067    2110.8754    1913.1957    1943.4029    56.069042    57.473045    21.707769   -6720.1226 
48232000   0.10944571   -7027.4777   -7027.1961   -7027.4777            0     1988.071    23.085448    21.270491    21.554335    10584.015     2103.733    1897.1591     1963.321    44.863646    53.105647      15.5136   -6720.3234 
48233000  0.099396493    -7027.498   -7027.2423    -7027.498            0    1986.4592    23.106643    21.258326    21.546754     10583.95    1915.0205    2054.6482     1989.709    50.669351    20.895977   -8.5569159   -6720.6203 
48234000  0.099323916   -7027.4636   -7027.2081   -7027.4636            0    1986.0528    23.120857    21.252062    21.539572    10583.811    2076.3654    1908.0309    1973.7622   -40.071142    17.815198    5.0838079   -6720.6529 
48235000  0.098325286   -7027.4272   -7027.1743   -7027.4272            0    1994.0452    23.146593    21.236638    21.530049    10583.221    1816.5938    2133.1863    2032.3554     13.08334   -36.334247   -27.056452   -6719.4026 
48236000    0.0936748   -7027.2969   -7027.0559   -7027.2969            0    1990.9078    23.157056    21.232447     21.52465    10583.261    2025.9118    1933.6216    2013.1902   -73.747055   -43.357553   -14.553152   -6719.7672 
48237000  0.095165336   -7027.2582   -7027.0134   -7027.2582            0     1985.134    23.169824     21.22482     21.52106    10583.526    1797.7796    2101.5177    2056.1046   -6.9330421   -88.873173   -39.938241   -6720.6082 
48238000    0.1064442   -7027.2085   -7026.9347   -7027.2085            0    1990.1225    23.167232    21.225959    21.521712    10583.231    1967.0458    1991.9285    2011.3934   -88.914955   -48.192307    -8.520719   -6719.7681 
48239000   0.10136721   -7027.2736   -7027.0129   -7027.2736            0    1991.6891     23.16202    21.227878    21.524722    10583.286    1867.8909    2055.8356    2051.3409   -39.469175   -95.785161    -19.93745   -6719.6029 
48240000   0.11587279   -7027.4872   -7027.1891   -7027.4872            0    1991.5191    23.145994    21.235495    21.531981    10583.327    1927.1527    2064.1569    1983.2475   -66.759968   -9.1941637   -10.696207   -6719.8042 
48241000   0.10453211   -7027.5351   -7027.2662   -7027.5351            0     1984.668    23.126838    21.247638    21.538468    10583.802    1963.6624    1944.1385    2046.2029    5.5682482   -46.917864   -9.1992206   -6720.9249 
48242000   0.11118322     -7027.51    -7027.224     -7027.51            0    1988.4479    23.108174    21.254597    21.548875    10583.836    1921.6832    2095.5185    1948.1422    7.9035506    49.541786   -9.2284378   -6720.2983 
48243000   0.10471217   -7027.4853   -7027.2159   -7027.4853            0    1989.3513    23.085855    21.269675    21.554798    10584.023    2130.6351    1841.2044    1996.2145    19.772704    29.098771     31.23462   -6720.1454 
48244000  0.098339396   -7027.4775   -7027.2245   -7027.4775            0    1986.3846     23.07791     21.27086    21.561368    10584.195    1984.6959    2066.6084    1907.8495     45.76713    64.388239     19.56165   -6720.6069 
48245000   0.10074743   -7027.4209   -7027.1617   -7027.4209            0    1988.1751     23.06722    21.279872    21.562021    10584.095     2217.861    1803.1692    1943.4951    33.239106    74.042918    48.433353   -6720.2707 
48246000  0.091462136   -7027.4279   -7027.1926   -7027.4279            0     1990.439    23.074174    21.274906    21.560459    10584.048    2046.8638    1975.2083    1949.2448    91.910633    47.856841     16.03491   -6719.9535 
48247000  0.097287225   -7027.4554   -7027.2051   -7027.4554            0    1989.0696    23.081468    21.271682    21.556914    10584.049    2146.5907     1897.008    1923.6102    28.988936    72.368671    25.429303   -6720.1773 
48248000   0.11157733   -7027.4866   -7027.1996   -7027.4866            0    1986.8977    23.098015    21.264607    21.548522    10583.992    2039.0361    1917.7849     2003.872    55.238258    5.9719805    17.510133   -6720.5087 
48249000   0.10395636   -7027.4902   -7027.2227   -7027.4902            0    1985.6834    23.120093    21.250272    21.542192    10583.857    1967.7768    2065.9236    1923.3497   -27.376653    46.945368   -2.3331564   -6720.7232 
48250000   0.11140613   -7027.4461   -7027.1595   -7027.4461            0    1991.2061    23.138242    21.243717    21.531031    10583.412    1976.1299    1916.8847    2080.6036    10.944473    -67.33078   -13.239939   -6719.8204 
Loop time of 518.309 on 64 procs for 250000 steps with 1296 atoms

Performance: 83.348 ns/day, 0.288 hours/ns, 482.338 timesteps/s
393.9% CPU use with 16 MPI tasks x 4 OpenMP threads

MPI task timing breakdown:
Section |  min time  |  avg time  |  max time  |%varavg| %total
---------------------------------------------------------------
Pair    | 39.947     | 49.355     | 66.911     |  95.4 |  9.52
Bond    | 1.5137     | 1.7609     | 2.3337     |  16.7 |  0.34
Kspace  | 265.15     | 283.1      | 294.35     |  42.5 | 54.62
Neigh   | 0.11633    | 0.12302    | 0.12655    |   0.7 |  0.02
Comm    | 47.66      | 50.999     | 53.665     |  24.9 |  9.84
Output  | 0.45529    | 0.45563    | 0.45718    |   0.1 |  0.09
Modify  | 119.78     | 123.83     | 129.02     |  16.5 | 23.89
Other   |            | 8.687      |            |       |  1.68

Nlocal:        81.0000 ave          98 max          64 min
Histogram: 2 0 2 2 2 2 2 2 0 2
Nghost:        3711.50 ave        3744 max        3693 min
Histogram: 4 4 0 2 0 2 2 0 0 2
Neighs:        26347.1 ave       31845 max       20733 min
Histogram: 2 0 2 2 2 2 2 1 1 2

Total # of neighbors = 421554
Ave neighs/atom = 325.27315
Ave special neighs/atom = 2.0000000
Neighbor list builds = 250
Dangerous builds = 0

unfix		3
unfix		2
unfix		1

write_data	data.final.${pid}
write_data	data.final.0
System init for write_data ...
PPPM initialization ...
  extracting TIP4P info from pair style
  using 12-bit tables for long-range coulomb (../kspace.cpp:340)
  G vector (1/distance) = 0.36794607
  grid = 30 40 32
  stencil order = 5
  estimated absolute RMS force accuracy = 0.0044256408
  estimated relative force accuracy = 1.3327686e-05
  using double precision FFTW3
  3d grid and FFT values/proc = 11832 2400
Last active /omp style is kspace_style pppm/tip4p/omp
WARNING: Not all mixed pair coeffs generated from mixing. Use write_data with 'pair ij' option to store all pair coeffs. (../write_data.cpp:312)

write_restart   restart.lmp.${pid}
write_restart   restart.lmp.0
System init for write_restart ...
PPPM initialization ...
  extracting TIP4P info from pair style
  using 12-bit tables for long-range coulomb (../kspace.cpp:340)
  G vector (1/distance) = 0.36794607
  grid = 30 40 32
  stencil order = 5
  estimated absolute RMS force accuracy = 0.0044256408
  estimated relative force accuracy = 1.3327686e-05
  using double precision FFTW3
  3d grid and FFT values/proc = 11832 2400
Last active /omp style is kspace_style pppm/tip4p/omp
Total wall time: 0:08:38
