LAMMPS (30 Jul 2021)
Processor partition = 0
  using 2 OpenMP thread(s) per MPI task
using multi-threaded neighbor list subroutines
variable        pid world 0 1
variable        phase world IceII IceV

shell cd ${phase}
shell cd IceII
include Restart.lmp
echo both
log log.lammps
#include		in.partitions
include		in.temp
variable        temperature equal 129.25
variable	tempDamp equal 100.0
include		in.pressure
variable        pressure equal 7233.3
variable        pressureDamp equal 1000.0 # This is 1 ps
include		in.seed
variable        seed equal 745823

units		real
atom_style	full
box tilt large
read_restart	restart.lmp.${pid}
read_restart	restart.lmp.0
Reading restart file ...
  restart file = 30 Jul 2021, LAMMPS = 30 Jul 2021
  restoring atom style full from restart
  triclinic box = (-10.580801 -9.1429005 0.15525671) to (12.560801 12.132898 21.704742) with tilt (-9.1038742 1.7773961 2.8956963)
  4 by 2 by 4 MPI processor grid
  restoring pair style lj/cut/tip4p/long/omp from restart
  restoring bond style harmonic/omp from restart
  restoring angle style harmonic/omp from restart
  1296 atoms
  864 bonds
  432 angles
Finding 1-2 1-3 1-4 neighbors ...
  special bond factors lj:    0        0        0       
  special bond factors coul:  0        0        0       
     2 = max # of 1-2 neighbors
     1 = max # of 1-3 neighbors
     1 = max # of 1-4 neighbors
     2 = max # of special neighbors
  special bonds CPU = 0.002 seconds
  read_restart CPU = 0.008 seconds
include 	in.setup
variable	out_freq equal 1000
variable	out_freq2 equal 10000
variable	out_freq3 equal 1000

timestep	2.0

neigh_modify    delay 7 every 1

include		in.tip4p
# This is TIP4P/Ice

# create groups ###
group ox type 2
432 atoms in group ox
group hy type 1
864 atoms in group hy

# set charges - beside manually ###
set group ox charge -1.1794
Setting atom values ...
  432 settings made for charge
set group hy charge 0.5897
Setting atom values ...
  864 settings made for charge

# ### TIP3P Potential Parameters ###
pair_style lj/cut/tip4p/long/omp 2 1 1 1 0.1577 8.5
pair_coeff 1 1*2 0.000 0.000
pair_coeff 2 2 0.21084 3.1668
bond_style  harmonic
bond_coeff  1 450 0.9572
angle_style harmonic
angle_coeff 1 55 104.52
kspace_style pppm/tip4p/omp 1.0e-5
pair_modify tail yes

thermo          ${out_freq}
thermo          1000
thermo_style    custom step temp pe etotal epair emol press lx ly lz vol pxx pyy pzz pxy pxz pyz enthalpy

restart 	${out_freq3} restart.lmp.${pid} restart2.lmp.${pid}
restart 	1000 restart.lmp.${pid} restart2.lmp.${pid}
restart 	1000 restart.lmp.0 restart2.lmp.${pid}
restart 	1000 restart.lmp.0 restart2.lmp.0


include         in.dump
dump            myDump all atom ${out_freq2} dump.water.${pid}
dump            myDump all atom 10000 dump.water.${pid}
dump            myDump all atom 10000 dump.water.0
dump            myDump2 all dcd ${out_freq2} dump.dcd
dump            myDump2 all dcd 10000 dump.dcd
dump_modify     myDump append yes
dump_modify     myDump2 append yes


variable natoms 	equal  "count(all)"                        # NUMBER ATOMS
variable H      	equal  "enthalpy/v_natoms"                 # ENTHALPY-per-atom
variable Vol      	equal  "vol/v_natoms"                 # volume-per-atom
fix AVG all 		ave/time ${out_freq} 1 ${out_freq} v_Vol v_H file vol_enthalpy.dat
fix AVG all 		ave/time 1000 1 ${out_freq} v_Vol v_H file vol_enthalpy.dat
fix AVG all 		ave/time 1000 1 1000 v_Vol v_H file vol_enthalpy.dat


timer           timeout 10:00:00 every 1000
New timer settings: style=normal  mode=nosync  timeout=10:00:00

fix 		1 all shake 1e-6 200 0 b 1 a 1
Finding SHAKE clusters ...
       0 = # of size 2 clusters
       0 = # of size 3 clusters
       0 = # of size 4 clusters
     432 = # of frozen angles
  find clusters CPU = 0.001 seconds
fix             2 all nph tri ${pressure} ${pressure} ${pressureDamp}
fix             2 all nph tri 7233.3 ${pressure} ${pressureDamp}
fix             2 all nph tri 7233.3 7233.3 ${pressureDamp}
fix             2 all nph tri 7233.3 7233.3 1000
fix             3 all temp/csvr ${temperature} ${temperature} ${tempDamp} ${seed}
fix             3 all temp/csvr 129.25 ${temperature} ${tempDamp} ${seed}
fix             3 all temp/csvr 129.25 129.25 ${tempDamp} ${seed}
fix             3 all temp/csvr 129.25 129.25 100 ${seed}
fix             3 all temp/csvr 129.25 129.25 100 745823


run             250000
PPPM initialization ...
  extracting TIP4P info from pair style
  using 12-bit tables for long-range coulomb (../kspace.cpp:340)
  G vector (1/distance) = 0.36802605
  grid = 30 40 32
  stencil order = 5
  estimated absolute RMS force accuracy = 0.0044006559
  estimated relative force accuracy = 1.3252444e-05
  using double precision FFTW3
  3d grid and FFT values/proc = 7888 1280
Last active /omp style is kspace_style pppm/tip4p/omp
Neighbor list info ...
  update every 1 steps, delay 7 steps, check yes
  max neighbors/atom: 2000, page size: 100000
  master list distance cutoff = 10.8154
  ghost atom cutoff = 10.8154
  binsize = 5.4077, bins = 7 5 4
  1 neighbor lists, perpetual/occasional/extra = 1 0 0
  (1) pair lj/cut/tip4p/long/omp, perpetual
      attributes: half, newton on, omp
      pair build: half/bin/newton/tri/omp
      stencil: half/bin/3d/tri
      bin: standard
Setting up Verlet run ...
  Unit style    : real
  Current step  : 500000
  Time step     : 2
  Walltime left : 9:59:59.93
Per MPI rank memory allocation (min/avg/max) = 10.66 | 10.67 | 10.67 Mbytes
Step Temp PotEng TotEng E_pair E_mol Press Lx Ly Lz Volume Pxx Pyy Pzz Pxy Pxz Pyz Enthalpy 
  500000    136.75071   -6660.0351   -6308.2522   -6660.0351            0    6716.0216    23.141602    21.275799    21.549486     10610.02    6257.8087    7055.5582     6834.698    236.80647    17.903348    -416.7669   -5269.0401 
  501000    131.11701   -6683.5469   -6346.2564   -6683.5469            0    7109.4437    23.245931    21.267542     21.39874    10579.191    5970.2023    7024.7436    8333.3853   -684.96424    904.10239    1328.1345   -5249.3642 
  502000     127.6986   -6671.8714   -6343.3745   -6671.8714            0    7341.3045    23.221133    21.097906    21.578346    10571.604    7255.4118    6757.6277     8010.874    620.68002   -920.44157    928.23027   -5211.5215 
  503000    127.53429   -6675.9452    -6347.871   -6675.9452            0    7388.2122     23.26066    21.253457    21.350002    10554.788    6953.8487    7289.4105    7921.3775   -1121.0242    -345.1101   -171.20169   -5210.5978 
  504000    123.66811   -6683.1487   -6365.0201   -6683.1487            0    6115.5925    23.349302    21.115974     21.50707    10603.916    4220.0209    8056.9281    6069.8284     484.9404    14.908532   -1007.7495   -5419.2605 
  505000    129.96497   -6680.4555   -6346.1285   -6680.4555            0    7986.2226     23.19356    21.113584    21.500903    10528.975    7811.2155    9381.3032    6766.1491   -965.39792    83.932258   -33.999133   -5119.8097 
  506000    131.13435   -6675.7637   -6338.4286   -6675.7637            0    6904.8966     23.28163    21.186114    21.471473    10590.746    5260.0183     7596.853    7857.8185    122.46398    788.92927   -609.55457   -5271.9317 
  507000    127.43818   -6677.4975   -6349.6705   -6677.4975            0    7660.2287    23.198564    21.228333     21.40911    10543.277    6482.1611    7207.5626    9290.9626   -1214.7681    340.23362    383.52926   -5171.8117 
  508000    129.25427   -6674.1471   -6341.6483   -6674.1471            0    7282.5447    23.268935    21.182195    21.448166    10571.524    7247.6566    7250.3144    7349.6629   -701.80085    246.36504   -918.55356   -5218.8632 
  509000    133.88227   -6667.1962   -6322.7922   -6667.1962            0    7533.7616    23.156388    21.273276    21.445353    10564.244    7562.8523    7312.2915     7726.141   -249.98384   -340.78589    -277.6708   -5162.0757 
  510000      136.554   -6692.5789    -6341.302   -6692.5789            0    6913.6321    23.163112    21.168332    21.558566    10570.692    7373.8362    7327.8299    6039.2302    953.28762   -640.40269    -351.6027   -5275.4778 
  511000    131.04984   -6683.2719   -6346.1542   -6683.2719            0    7701.5904    23.058985    21.278971    21.522041    10560.251    7744.2731    7204.4119    8156.0861   -81.405898   -213.54804    486.26487   -5160.0289 
  512000    136.51224   -6678.0768   -6326.9074   -6678.0768            0    6881.6757    23.092935    21.378656    21.453562    10591.536    6700.4504    7030.9434    6913.6332    3.5782064   -262.06279    65.146355   -5263.9177 
  513000    129.35236   -6659.5811     -6326.83   -6659.5811            0    8328.4337    22.914916    21.414064    21.466257    10533.524    9220.3576    6989.8315    8775.1121    666.84768    65.036098   -4.7221905   -5047.4107 
  514000    126.32742    -6687.086   -6362.1164    -6687.086            0    7225.2426    23.043106    21.322565    21.485244     10556.52     6935.246    7302.0027    7438.4791    377.12896   -143.02926    730.65896   -5249.7468 
  515000    133.69462   -6682.4974   -6338.5761   -6682.4974            0    8810.5669    23.003083    21.358337    21.401365    10514.653    8820.4223    8897.2375     8714.041     -311.319   -895.10987   -741.96414   -4987.5159 
  516000    126.20227   -6674.7871   -6350.1394   -6674.7871            0    5912.8394    23.160215     21.28474    21.521335    10609.139    5639.3519    5839.9761    6259.1901    959.29155    147.75743    591.01385   -5435.2847 
  517000     126.8701   -6668.9277   -6342.5621   -6668.9277            0    7558.6356    23.183502    21.255801    21.387353    10539.343    7633.8257    7088.8284    7953.2529   -439.92869   -146.05416    229.27535   -5180.7581 
  518000    125.39831   -6684.3412   -6361.7617   -6684.3412            0    7833.5106    23.086439    21.221612    21.527661    10547.078    8753.2035    7904.5846    6842.7436   -1141.1291   -224.86041   -258.99861   -5156.8243 
  519000    130.71888   -6689.0943    -6352.828   -6689.0943            0    6377.3852    23.270524    21.342879    21.317757    10587.677    6493.4699    4729.6931    7908.9927   -203.58584   -786.06498    1119.4236   -5368.0934 
  520000    129.17338   -6686.0153   -6353.7246   -6686.0153            0    7351.1539    23.117013    21.245616     21.53526    10576.724    7312.7987    6963.8554    7776.8076   -425.35612   -199.89405    319.06236   -5219.8042 
  521000    130.20853   -6699.3549   -6364.4014   -6699.3549            0    6788.6869    23.074416    21.345093    21.473454    10576.225    6512.8164    7301.4443       6551.8   -466.95523   -795.45242   -213.06483   -5317.2913 
  522000    134.02587    -6687.893   -6343.1197    -6687.893            0    7203.3986    23.144451    21.302312    21.429102    10565.197    7825.4957    6567.3708    7217.3293   -311.43439    366.29075   -51.679027   -5233.2016 
  523000    127.39367   -6683.5395   -6355.8271   -6683.5395            0    6738.8426    23.005019    21.361632    21.557054     10593.67    7552.6729    5916.7535    6747.1014   -644.89613   -744.35931    865.54087   -5314.6907 
  524000     139.8865   -6668.5988   -6308.7494   -6668.5988            0    7381.4601    23.097238    21.433022    21.317891    10553.286     7640.976    5900.1246    8603.2799   -235.01112    288.46914   -130.23069   -5172.6773 
  525000    133.83834   -6673.3958   -6329.1048   -6673.3958            0    6888.6454    23.018677    21.360689    21.559341    10600.616    6426.2965    7359.4259    6880.2138   -284.16605    1185.2439    108.46974   -5264.1263 
  526000    134.37202   -6672.3571   -6326.6933   -6672.3571            0    7399.5088    23.197401    21.276308    21.403489      10563.8    6548.7008     8061.313    7588.5125    47.729779     199.9582   -448.29703   -5186.7088 
  527000    129.19099   -6670.8208   -6338.4848   -6670.8208            0    7002.8726    23.146718    21.262309    21.524855    10593.515    6862.4371     7097.118    7049.0627    398.09771    452.82755   -427.56232   -5256.5722 
  528000    124.61871    -6675.927    -6355.353    -6675.927            0    8370.2824    23.081605    21.075683    21.639157    10526.597      9067.35    8777.7389    7265.7584   -532.77016    194.45813   -266.09946   -5070.3504 
  529000    133.44524   -6696.4725   -6353.1928   -6696.4725            0     7896.178    23.249855    21.219111    21.331803    10523.859    8220.4698    6743.1459    8724.9182   -148.86389    313.09134    50.032382   -5141.2899 
  530000    132.44417   -6667.8145     -6327.11   -6667.8145            0    7683.3583    23.136426    21.174885    21.567541    10566.179    7722.8738    7653.4896    7673.7114   -225.90662   -729.88523    124.20491   -5143.1284 
  531000    133.78903   -6674.0468   -6329.8827   -6674.0468            0     6875.788    23.193318    21.224084    21.479327    10573.348    5265.4338    8065.1909    7296.7394   -491.55603    1550.3411    829.34774   -5269.6263 
  532000    134.69501   -6675.7933   -6329.2986   -6675.7933            0    8987.0352    23.099208    21.236031    21.401109    10498.004    8526.3151    8830.6862    9604.1042   -72.415537    -562.9641   -251.59637     -4953.36 
  533000    130.03294   -6681.6115   -6347.1097   -6681.6115            0    6464.7933    23.212981      21.3008    21.418071    10590.274    5930.2238    5551.2975    7912.8585   -648.92944   -917.02785   -56.687554   -5348.6335 
  534000    127.73258   -6684.9535   -6356.3692   -6684.9535            0    6610.6388    23.190173    21.165904    21.571043    10587.952    6150.5458    6873.1783    6808.1924    67.914227    159.31476    836.64774   -5335.5913 
  535000    128.76773   -6688.4751    -6357.228   -6688.4751            0    7189.9609    23.255644    21.155741    21.479348    10567.633    6660.6306     7735.989    7173.2629   -545.90922   -746.66649    953.73727    -5249.125 
  536000    130.61547   -6693.9055   -6357.9051   -6693.9055            0    6940.0619    23.175149     21.22682    21.525205    10588.996    7701.5521    6341.1304    6777.5033    188.37961   -1734.3481   -33.179682   -5286.1539 
  537000      127.815   -6665.1792   -6336.3829   -6665.1792            0    7819.8017    23.197092    21.227917    21.406122     10540.93    8108.4376    7081.7405    8269.2269    2.0942941    311.86802    620.92731   -5134.2553 
  538000    131.55071   -6685.2599   -6346.8537   -6685.2599            0    6793.9592    23.196667    21.213857    21.477391    10568.826    6090.6703    6916.2418    7374.9653    -323.5396    563.10204    159.58556   -5299.6634 
  539000    129.27622   -6677.6541   -6345.0989   -6677.6541            0    7475.3901    23.100851     21.28635     21.50665    10575.525     7725.383    7229.5652    7471.2221   -12.787064   -433.37807   -15.592073   -5192.1457 
  540000    129.86984   -6685.1795   -6351.0972   -6685.1795            0    7623.3934    23.144343    21.306631    21.369694    10537.994    7611.9729    7050.7201    8207.4873    464.87649    841.54907    865.97718   -5179.4897 
  541000    133.44906   -6698.8096     -6355.52   -6698.8096            0    7571.3479    23.000338    21.337147     21.49626    10549.539    7288.8571    7471.0838    7954.1028   -786.52084     1167.063    343.85539   -5190.6363 
  542000    129.05567   -6679.4679     -6347.48   -6679.4679            0    7275.2348    23.029198    21.327895    21.492246    10556.224    7415.2242    6417.9118    7992.5683     -115.499     1293.269   -26.750365   -5227.4453 
  543000    132.49874   -6680.5566   -6339.7116   -6680.5566            0     7430.311    23.035493    21.392692    21.445407    10568.108    7568.0463    6585.4501    8137.4366   -742.87504    765.97888    1107.5222   -5194.5148 
  544000    128.34316   -6671.4804   -6341.3254   -6671.4804            0    7013.4427    23.066402    21.310013     21.51745    10576.802     6403.734    7127.9418    7508.6523    269.79516    548.42838   -813.47685   -5259.4892 
  545000    126.02716   -6698.6718   -6374.4746   -6698.6718            0     8161.921    23.038894    21.345965    21.380252    10514.539    8981.3763    6806.6355    8697.7512   -188.27739   -331.72308    54.517739   -5122.8949 
  546000    135.48073   -6692.8273   -6344.3113   -6692.8273            0    6268.2949    23.042514    21.325478    21.550603    10589.807    7228.0769    6055.7179      5521.09   -588.05852    451.38017   -85.492347   -5376.2266 
  547000    128.34709   -6689.3251     -6359.16   -6689.3251            0    7554.7343     23.06827    21.293548    21.525009    10573.199    7234.0309    8262.6909     7167.481   -466.44445   -642.45306   -83.499353   -5194.2255 
  548000    129.77624   -6671.3402   -6337.4987   -6671.3402            0    6846.0468    23.292258    21.186392    21.455084    10587.631    6891.4779    6790.9323    6855.7302   -303.77729    329.53885    259.65926   -5280.4024 
  549000    132.14036   -6674.0433   -6334.1202   -6674.0433            0    7340.7917    23.195669    21.151869    21.533735    10565.134    7035.6729    8062.9044    6923.7979   -337.71177   -349.28086     413.4369    -5203.039 
  550000    128.89993   -6676.5137   -6344.9265   -6676.5137            0    6957.5005    23.347423    21.094209    21.486372     10581.94    5649.3139    7670.3894    7552.7982    1545.9865    715.30362    487.89334   -5271.1981 
  551000    126.65869   -6656.3562   -6330.5344   -6656.3562            0    7663.1805    23.236555    21.176616    21.468371    10563.976    7585.7528    7822.8395    7580.9492    1111.2346   -791.60849   -2.7307367   -5149.9084 
  552000    126.65697     -6686.85   -6361.0326     -6686.85            0     6892.684     23.23187    21.120904    21.584323    10590.954    6677.3672    7707.4417    6293.2432   -425.39877    68.903413   -233.09568    -5296.401 
  553000    128.36561   -6675.2384   -6345.0257   -6675.2384            0    8804.8327    23.178638    21.239054     21.35413    10512.474    8466.9064    8308.4099    9639.1817    109.10155   -25.754283    620.41685   -4995.1246 
  554000    130.43564   -6673.4322   -6337.8945   -6673.4322            0    7036.4176    23.183436    21.186475    21.545062    10582.402    6646.0157    7773.7383    6689.4989    263.18918     1336.962    49.392513   -5251.9396 
  555000    135.82383   -6690.8796    -6341.481   -6690.8796            0    7345.7525    23.048681     21.30065     21.50854    10559.658    7333.8053    7598.3579    7105.0944   -1387.8117    730.59421   -120.64865   -5210.2221 
  556000     131.5965   -6667.6399   -6329.1159   -6667.6399            0    6950.3955     23.11909    21.332233    21.466777    10587.024    8119.6181    7000.1081    5731.4602   -284.94903   -982.14957   -991.91889   -5255.9687 
  557000    131.47277   -6683.3854   -6345.1797   -6683.3854            0    7812.8659    23.007281     21.31533    21.516992    10552.101    7361.8824    8306.1678    7770.5473    639.25671    43.535597    671.32755   -5142.8455 
  558000    126.57143   -6677.5412   -6351.9439   -6677.5412            0    6251.9385     23.11808    21.381479    21.447129    10601.289    5954.7139    5897.9207     6903.181    1014.3037     1110.349    734.87529   -5385.3384 
  559000      128.458   -6677.4482   -6346.9978   -6677.4482            0    7102.5859     23.08366    21.336037    21.484666    10581.495    7404.2171    6906.7652    6996.7755    189.71926     309.9401    348.84028    -5250.925 
  560000    122.49367   -6677.9657   -6362.8581   -6677.9657            0    7811.8245    23.145801    21.300133    21.385449    10543.211    7452.2202    7657.1947    8326.0587   -98.391246    324.41481    178.80509   -5161.6971 
  561000    129.24162    -6675.949   -6343.4828    -6675.949            0    7596.5578    23.110026     21.15558    21.590592     10555.77    7228.3939    9576.2158    5985.0637   -235.44302   -30.112092   -1005.2074   -5174.0301 
  562000    127.11505   -6662.7454   -6335.7496   -6662.7454            0    7525.8617    23.372509    21.105356    21.398577    10555.599    6244.1768    8290.1867    8043.2217   -184.24855    38.903606   -56.396056    -5177.199 
  563000    134.09257   -6663.8909   -6318.9459   -6663.8909            0    7934.7353    23.245334    21.057427    21.524185    10535.807    7437.7941    9172.6045    7193.8074    346.42439    151.94966   -287.74486   -5099.7426 
  564000    127.11489   -6678.2827   -6351.2874   -6678.2827            0     7168.365     23.27699    21.123534    21.492365     10567.63    6813.3222    8381.5565    6310.2163    -172.8195   -170.00964    -211.4797    -5246.513 
  565000    123.28546    -6691.986   -6374.8417    -6691.986            0     6754.713      23.3813    21.066351    21.477829    10579.091    5248.8482    8452.6348    6562.6561    263.90485   -100.44493   -321.75499   -5332.6895 
  566000    133.42299   -6678.4552   -6335.2327   -6678.4552            0    6202.6849    23.221697    21.171888     21.59462    10616.934    5568.5986    7326.8524    5712.6037    288.30588    319.55081   -677.08588    -5374.827 
  567000    125.35717   -6691.0412   -6368.5676   -6691.0412            0    7372.6386    23.139665     21.30108    21.450244    10572.822    6693.8888    6957.5826    8466.4444    274.38129    318.88349    18.961009   -5231.7526 
  568000    128.56482   -6692.7359   -6362.0107   -6692.7359            0    5961.8508    23.107267     21.50535    21.331226    10600.124    5336.4806    4637.3991    7911.6728   -367.20921    803.59645     215.7679   -5440.3567 
  569000     120.5992   -6682.4275   -6372.1934   -6682.4275            0    7315.5586    23.034001    21.330306    21.515909    10571.246    7917.1911    7280.7627     6748.722   -172.15513    135.79201    246.91981   -5244.3481 
  570000    131.91194   -6682.4196   -6343.0841   -6682.4196            0    8282.7024    22.926409    21.348902    21.488971    10517.856     8683.803    8529.8812     7634.423     -312.588    961.60833    474.35464   -5072.5827 
  571000    127.66363   -6672.3868   -6343.9799   -6672.3868            0    7033.3772    23.104204     21.34555    21.436533    10571.896    7288.5797    6361.7438    7449.8081    178.44963   -271.93407    -712.0975    -5259.572 
  572000    137.39648   -6671.6464   -6318.2023   -6671.6464            0    7906.7741     23.05261    21.331665    21.458587    10552.272    7878.6653    8137.1735    7704.4834   -295.72286    1083.0389   -277.49371   -5101.3967 
  573000    127.88099   -6695.2801    -6366.314   -6695.2801            0    6688.8816    23.187382    21.267843    21.481039     10593.28    7051.2925    6874.2348    6141.1174    431.38973   -457.46441   -314.78375   -5332.9345 
  574000    127.04197   -6680.6887    -6353.881   -6680.6887            0    6273.4783    23.206119    21.208155    21.586804    10624.139    6887.9942    7272.8663    4659.5743     -891.522   -1068.9589   -885.12105   -5381.8547 
  575000    131.84156   -6680.2409   -6341.0865   -6680.2409            0     8837.095    23.300105    21.079524    21.408379    10514.835    8621.5719    8507.4242    9382.2888   -184.54834    144.56551    543.68125   -4985.9349 
  576000    131.94841    -6689.621   -6350.1917    -6689.621            0    6857.3094    23.296724     21.11916    21.501299    10578.795    5990.0265    8097.9655    6483.9362    562.67283    1107.9462    556.44331   -5292.2401 
  577000    128.24092   -6688.4572   -6358.5652   -6688.4572            0    7210.7934    23.219244    21.167596    21.526932    10580.392    6788.2601    7823.7772     7020.343   -24.543099    14.770212     221.0066   -5245.9098 
  578000    130.47699   -6661.5454   -6325.9013   -6661.5454            0    8263.4765    23.277617    21.191216    21.373328    10543.056    7668.4983     8006.737    9115.1941    427.80658    -1322.801   -131.25172    -5055.312 
  579000    123.60247   -6678.7085   -6360.7487   -6678.7085            0    6569.3947    23.171939    21.182757    21.565432    10585.296    5806.4926    7305.4321    6596.2593    376.61174   -203.25999    499.51383   -5346.5939 
  580000    129.60935   -6660.7158   -6327.3036   -6660.7158            0    7783.1545    23.131834    21.251398    21.476767    10557.631    8135.3214    6911.6054    8302.5367   -902.44096    365.70506   -396.88293   -5128.9141 
  581000    130.12608   -6692.4459   -6357.7045   -6692.4459            0    6755.5506    23.070364    21.319292    21.535527    10592.116    7212.8959    7087.7814    5965.9746    332.28901    109.83658     65.27427   -5314.1398 
  582000     125.6661   -6675.6666   -6352.3982   -6675.6666            0    7754.8288    23.002436    21.330969    21.478838    10538.898    7959.5161    6903.3305    8401.6398    867.36357    590.28309    1513.1584   -5160.4886 
  583000    127.55368   -6674.7903   -6346.6662   -6674.7903            0    7216.3152    23.051795    21.427321    21.373678    10557.276    7370.8853    6571.4784     7706.582    1148.1178   -318.67008   -26.668586   -5235.5915 
  584000    133.14355    -6666.869   -6324.3654    -6666.869            0    7089.4215    22.972071     21.46376    21.465681     10584.02     7996.688    6724.0276     6547.549     117.6733   -838.35683   -1452.9577    -5230.063 
  585000    123.62796   -6671.8653   -6353.8399   -6671.8653            0    7459.1051    23.027857    21.373213    21.459584    10561.963    7823.4129    6723.7878    7830.1145   -216.33015    338.50703    -157.4035   -5204.8738 
  586000    131.32008   -6697.2807   -6359.4678   -6697.2807            0    6375.8964    23.051494    21.386774     21.48202    10590.573    6373.1909    6106.3927    6648.1055    884.84314   -326.07145     -15.2378   -5374.6937 
  587000    123.05456   -6680.9621   -6364.4117   -6680.9621            0    7092.2172    22.952196    21.360258    21.534184    10557.453    8042.6663    7120.7049    6113.2805    831.43007   -759.93851   -304.07913   -5272.4257 
  588000    132.85977   -6683.9511   -6342.1774   -6683.9511            0    7596.1726    23.122654    21.363177    21.363543    10553.021    7811.7865    6997.0042    7979.7273   -842.12831    426.29589   -218.01129   -5173.0886 
  589000    126.61274   -6700.7951   -6375.0915   -6700.7951            0    6933.9824    23.114583    21.272354    21.510447    10576.721    6666.6772    7151.6583    6983.6116   -402.19323    488.59422   -200.05497   -5305.5204 
  590000    123.72896   -6672.3568   -6354.0716   -6672.3568            0    8159.9414    23.132687    21.230582    21.489827    10554.092    7984.8989    8807.0642    7687.8611   -384.33124   -181.57278   -581.42646   -5098.0885 
  591000    124.07218   -6685.4401    -6366.272   -6685.4401            0    6876.5381    23.304824    21.224312    21.409867    10589.938    5831.6244    6861.0375    7936.9523     488.0528    786.89175    1071.1638   -5304.2362 
  592000    129.45124   -6684.1885   -6351.1831   -6684.1885            0    6294.4554    23.204977    21.185776    21.587089    10612.546    5864.4804    6331.9418    6686.9441    757.70949   -71.482705    906.15826   -5376.9707 
  593000    128.57526   -6676.7453   -6345.9933   -6676.7453            0    7858.0435    23.270638    21.169415    21.426431    10555.213    7086.5879    8785.2917    7702.2508   -313.87226   -570.45792   -147.01747     -5136.35 
  594000    134.94305   -6687.2988    -6340.166   -6687.2988            0    7864.2686    23.281383    21.101146    21.446569    10535.924    7473.8234    7906.3392    8212.6433    527.71002   -552.45329     435.9891   -5131.7767 
  595000    124.32657   -6690.9548   -6371.1323   -6690.9548            0    6857.3461    23.177088    21.151366    21.606933    10592.304    6781.4774    7336.7966    6453.7642    234.50915   -64.881071    878.76865    -5311.824 
  596000    131.13452   -6666.9515   -6329.6159   -6666.9515            0    8085.4053     23.20226    21.230624    21.379849    10531.681    8703.8743    7134.1616    8418.1799    -317.6835   -274.94994    145.99503   -5087.7481 
  597000    131.11417   -6688.9664   -6351.6832   -6688.9664            0    6836.2231    23.038657    21.350806    21.524993    10588.012    7279.1022    6794.3958    6435.1711    1008.8165   -1056.3835   -253.64929   -5296.0658 
  598000    121.67558   -6680.8986   -6367.8956   -6680.8986            0    7269.3238    23.080814    21.277293    21.510595    10563.794    7525.9753    7585.8597    6696.1363    836.82874    815.77931    245.50399   -5247.9684 
  599000    126.37471   -6666.9859   -6341.8947   -6666.9859            0    8011.3799    22.983891    21.397526    21.402725    10525.826    8523.5012    8282.6677    7227.9709   -227.33844    -721.6915    -763.7174   -5112.0807 
  600000     127.5514   -6688.4814   -6360.3632   -6688.4814            0    7277.3103    23.189021    21.303102    21.411988    10577.481    7371.4552    7303.9601    7156.5155    183.86993    737.79925   -599.52627   -5237.7528 
  601000    128.12766   -6690.7202   -6361.1196   -6690.7202            0    7507.8388    23.051513     21.27726    21.483969    10537.307    8113.5582    7389.9978    7019.9605   -884.35806    107.05389   -71.270253   -5207.3463 
  602000    129.89652   -6686.2461   -6352.0952   -6686.2461            0    7192.0505    23.241234    21.167585    21.481799    10568.203    6701.1945    7430.6283    7444.3287    438.81699    912.18577    -941.2766   -5243.6104 
  603000    131.85971   -6678.7713   -6339.5703   -6678.7713            0    6178.2777    23.248936    21.224147    21.561441    10639.253    6126.4425    5871.9647     6536.426    -599.6775    388.11279    637.20575   -5380.9327 
  604000    128.21809    -6672.862   -6343.0288    -6672.862            0    7500.8788      23.2454    21.126445    21.531288    10573.857    7462.5845    7239.5179    7800.5342    894.26799    -687.1126    254.04983   -5186.3268 
  605000    132.10241   -6678.9109   -6339.0855   -6678.9109            0    7139.6366    23.363099     21.14698    21.411677    10578.632    6824.7375    6901.2589    7692.9132   -437.09245   -809.76126   -178.83648   -5237.5932 
  606000    125.33196   -6680.7503   -6358.3414   -6680.7503            0    7253.7243    23.259116    21.154955    21.489893    10574.006    7028.0031     8106.296    6626.8739   -574.73511    -679.5792   -972.24596   -5239.7371 
  607000    127.35943   -6676.8399   -6349.2156   -6676.8399            0     7887.966     23.13669    21.185581    21.484804    10531.082    7634.1135     7950.782    8079.0025    53.606187     255.8865   -60.688519   -5137.7421 
  608000    129.94633    -6681.555    -6347.276    -6681.555            0     8283.119    23.093539    21.189559    21.486278    10514.136    7177.8714    10192.456    7479.0298    371.94496   -74.923093   -655.42257     -5077.16 
  609000    125.19044   -6686.4474   -6364.4027   -6686.4474            0    6445.4396    23.172995    21.372138     21.40748    10602.193    5836.7409    6031.2512    7468.3267   -129.29877    335.77635    295.24406   -5367.7952 
  610000    120.80756   -6665.4173   -6354.6473   -6665.4173            0    7447.2902    23.062754    21.326245    21.502189    10575.678    7526.1053    6738.0414     8077.724    20.829203    677.22141   -293.35408   -5206.0113 
  611000    127.93117   -6670.3031    -6341.208   -6670.3031            0    8165.8787    22.987334    21.422507    21.379924    10528.465    9169.3949     7671.038    7657.2031    630.06244   -679.88651   -420.74078    -5087.363 
  612000    125.83978    -6667.186   -6343.4708    -6667.186            0    6958.2567    22.969603    21.511826    21.371365    10559.978    6450.9984    6732.5685    7691.2033    482.61781    458.77479   -480.44715   -5271.8544 
  613000    127.67952   -6674.7043   -6346.2565   -6674.7043            0    7098.2925    23.024585    21.341822    21.526735    10577.949    7728.2275    6168.6662    7397.9838    1275.3413   -438.45895    125.93889   -5251.2133 
  614000    130.19557    -6676.048   -6341.1278    -6676.048            0    7386.4598     23.12781    21.353163    21.413026    10574.864    6796.1149    7266.8651    8096.3993    410.43665    -101.4044    93.187041   -5201.9619 
  615000     129.1536   -6668.8835   -6336.6437   -6668.8835            0    8607.8546     23.10769    21.224205    21.464141    10526.924    8525.7138    8505.7939    8792.0562    6.0927062     20.28029   -173.95551   -5015.1281 
  616000    121.90576   -6683.6318   -6370.0367   -6683.6318            0     7357.306    23.109716    21.180457    21.570637    10558.274    6871.0698    7988.0233    7212.8249   -811.59468    904.06076    560.90195    -5237.147 
  617000    127.91962   -6707.6352   -6378.5698   -6707.6352            0     7598.763     23.27579    21.123382    21.425219    10533.996    7331.2234    7479.4535    7985.6121    499.13971   -715.34151    756.91768   -5211.1906 
  618000     128.9598   -6692.1674   -6360.4262   -6692.1674            0    7342.5312    23.163073    21.204308    21.488538    10554.245     7639.881    7030.6982    7357.0144   -1450.8142    76.319912   -663.91653    -5230.243 
  619000    127.03593   -6677.9089   -6351.1167   -6677.9089            0    6986.6286    23.271979    21.121312    21.477126    10556.754    6497.3019    7048.0211    7414.5627   -161.13943    551.99087    1247.7731   -5275.4594 
  620000     131.6507   -6694.6305   -6355.9671   -6694.6305            0    6970.1749    23.184158    21.199184    21.521068    10577.287    6591.8459    7666.3814    6652.2974   -107.60781    370.75109    515.81138   -5280.7558 
  621000     130.2853   -6686.4579   -6351.3069   -6686.4579            0    7651.2045    23.161481    21.194859    21.515984     10562.29    8126.6864    7505.6918    7321.2353    -286.9155   -274.04242   -1261.6662   -5172.7142 
  622000    130.18135    -6665.748   -6330.8644    -6665.748            0    6522.7652    23.282799    21.293533    21.361974    10590.691    5686.0065    5485.1893       8397.1   -638.47623    1021.0036    993.97149   -5323.3948 
  623000    129.42039   -6684.4813   -6351.5553   -6684.4813            0    7404.8233    23.118926    21.197605    21.533742    10552.952    7664.2426    7383.6655    7166.5618   -909.25125     257.0315    146.43748   -5211.9235 
  624000      129.376   -6677.1037   -6344.2918   -6677.1037            0    6956.9074     23.06716    21.346549    21.497006    10585.217    6491.3479    7031.0633     7348.311   -100.18033    -229.7298   -333.34793   -5270.3225 
  625000    132.84751   -6674.1298   -6332.3877   -6674.1298            0    6670.3421    23.282758    21.325119    21.286743    10569.029    6326.8824    5754.0931     7930.051   -11.592027   -89.869713   -79.348036   -5304.2315 
  626000    129.26922   -6687.2915   -6354.7543   -6687.2915            0    7301.7923     23.05976    21.279846    21.568941    10584.055    8008.0237    7579.3865    6317.9667     8.509536    491.17401    158.06884   -5227.6673 
  627000    128.06679   -6680.4872   -6351.0432   -6680.4872            0    6807.7234     23.18148    21.328606    21.399943    10580.745    6298.6947    6574.5191    7549.9565    799.76213   -112.43715    423.42432    -5300.548 
  628000    125.57456   -6672.5161   -6349.4832   -6672.5161            0    7121.5478    23.011479    21.300736    21.611299    10593.025    7692.2853    6434.8668    7237.4913   -202.14586   -637.21861    505.43057   -5249.2866 
  629000    131.84902   -6666.0142   -6326.8406   -6666.0142            0    7660.5044    23.201638     21.24926    21.415261    10558.101    6678.7336    8028.3552    8274.4245   -279.18043    1240.5722     320.6517   -5147.2832 
  630000     117.3235   -6676.7147   -6374.9071   -6676.7147            0    6652.7152    23.113751    21.229191    21.568601    10583.416    6677.3226    7104.4822    6176.3409    70.374302    698.31764    378.52851   -5348.0721 
  631000    121.82544   -6678.5204   -6365.1319   -6678.5204            0    7950.4227    23.072938    21.279612    21.475568    10544.142    8346.6149    8033.1724    7471.4808     484.0095   -175.19523    -870.4036   -5142.5517 
  632000    133.30072    -6668.349    -6325.441    -6668.349            0    7885.4895     23.07404    21.290759    21.410118    10518.017    7625.0266    7696.6325    8334.8094    346.00858    223.00183    860.77863   -5115.8504 
  633000     129.6646   -6675.0767   -6341.5224   -6675.0767            0    7246.5658    23.063669    21.270105    21.546335    10569.913    8156.3866    6208.8085    7374.5025   -624.12722   -78.642836   -40.099411   -5224.4545 
  634000    125.56922   -6692.8535   -6369.8343   -6692.8535            0    6874.7681    23.201194    21.282514    21.416952    10575.257    6659.5681    6832.3589    7132.3771   -569.63389   -527.50926    68.483303   -5309.5438 
  635000    126.11021   -6691.8818   -6367.4709   -6691.8818            0    6585.0968    23.172868    21.276937    21.444996    10573.405    6071.0541    6107.1889    7577.0473    361.47713    1012.0762    250.40317   -5352.0341 
  636000    129.89458   -6668.6797   -6334.5338   -6668.6797            0    7700.7192    23.067047    21.240787    21.593395    10579.948    9041.6004    6817.0395    7243.5178   -721.31833   -55.029719    619.05595   -5146.3307 
  637000    131.84325   -6686.2473   -6347.0886   -6686.2473            0    8041.2303    23.207798    21.218471    21.398746     10537.47    8422.1088    7643.1635    8058.4187   -175.17025    203.89263   -895.96732   -5111.3269 
  638000    126.50919   -6690.8794   -6365.4422   -6690.8794            0    6617.4213    23.249315    21.223209     21.44805    10583.005    6450.6563    6538.0946    6863.5129     395.8868    9.6054029   -27.901733   -5344.0944 
  639000    129.34773   -6688.0575   -6355.3183   -6688.0575            0    8011.0715    23.165741    21.082417    21.597037    10547.773     8456.041     8165.021    7412.1526   -122.91166   -317.30538    540.49418   -5122.9876 
  640000    128.28977    -6680.926   -6350.9084    -6680.926            0    6994.5136    23.245183    21.244256    21.422025    10578.766    6526.2179    7374.6798    7082.6429   -584.63524    330.93234   -549.65523   -5271.7917 
  641000    128.37785   -6691.3267   -6361.0825   -6691.3267            0    7334.5895    23.125173    21.210003    21.526666    10558.506    6808.5981    8248.2092     6946.961    196.44619    187.26923   -127.30863   -5231.6659 
  642000     130.6991   -6685.6399   -6349.4245   -6685.6399            0    6822.8151    23.057642    21.328778    21.511429    10579.134    8314.0475    6300.9077      5853.49    52.995125   -1564.9953    75.883481   -5296.7608 
  643000    124.29842   -6666.0826   -6346.3325   -6666.0826            0    7126.5721    23.180483    21.308194    21.392103    10566.292    6607.3495    7076.5736    7695.7931    1361.4821     413.3797    222.74511   -5248.1382 
  644000    128.53372   -6684.3707   -6353.7255   -6684.3707            0    7329.1324    22.920406    21.369076    21.581395    10570.306    9163.7556    6684.0365    6139.6051   -1031.9168    650.74376    593.95461   -5223.8879 
  645000    133.34135   -6669.6115    -6326.599   -6669.6115            0    7889.5217    23.081217    21.311168    21.430984    10541.637    6854.1676    8126.4431    8687.9543    523.75475     555.2436   -108.96999   -5113.6721 
  646000    128.23436   -6685.3675   -6355.4924   -6685.3675            0    7682.1061    22.973926    21.340359    21.532645    10556.849    9285.5039    6546.4719    7214.3426   -77.680625    -706.0168   -126.16984   -5172.7491 
  647000     123.6016   -6677.0667   -6359.1091   -6677.0667            0    7664.7927     23.17538    21.252195    21.399427    10539.811     7670.446    8020.2623    7303.6698     952.1027    245.91966   -809.16089    -5180.936 
  648000    126.91591   -6689.9592   -6363.4758   -6689.9592            0    6766.2879    23.176634    21.216841    21.495981    10570.325    6954.9025    6840.1125    6503.8488    1094.1839   -889.11477    229.42783   -5320.4028 
  649000    130.24459   -6671.8735   -6336.8272   -6671.8735            0    6265.8947    23.249298    21.147115     21.60672    10623.064    6379.9355    7285.2169    5132.5316    83.076744    427.66308   -277.95717   -5366.0741 
  650000    126.99849   -6683.8321   -6357.1362   -6683.8321            0    7338.6195     23.23662    21.239055    21.388145    10555.559     7167.223    6982.3836     7866.252   -1236.4409     213.5992    124.60047   -5227.4144 
  651000    133.98812   -6687.2325   -6342.5563   -6687.2325            0    6679.6281    23.183124    21.176086    21.576706    10592.606    6907.2964    7757.8174    5373.7706   -956.29345   -357.15778   -527.81257    -5310.672 
  652000    123.58685   -6682.2765   -6364.3569   -6682.2765            0    6972.8847    23.184027    21.237261    21.468382    10570.285    7035.3508    7412.4751    6470.8283    483.02081   -239.29753    621.46717   -5289.4396 
  653000    132.60148   -6674.7266   -6333.6174   -6674.7266            0    7173.5454    23.216159    21.247956    21.414727    10563.798    6652.9077    6828.7392    8038.9895    986.12705   -452.37113    142.72749   -5228.4456 
  654000    127.65314   -6676.0202   -6347.6403   -6676.0202            0    7111.4791    23.078992    21.245359    21.549405    10566.136    6702.1923    7865.0415    6767.2035    348.42636   -384.83967     509.3266    -5251.788 
  655000    126.55607   -6687.7314   -6362.1736   -6687.7314            0     7209.319    23.147925    21.320789    21.373531    10548.522    6953.4585     7307.819    7366.6795    440.90562    881.69633    150.71605   -5253.0965 
  656000     122.3877   -6692.7079    -6377.873   -6692.7079            0    7656.6289    23.035943    21.274782    21.528481    10550.779    8156.8065    8192.1317    6620.9484   -700.37661    252.97437   -1350.5024     -5199.73 
  657000    124.94415   -6682.9049   -6361.4937   -6682.9049            0    7558.8298    23.150345    21.315622    21.377574    10549.063    7207.9745    8390.5339    7077.9811    1457.0967    224.94938   -252.44542   -5198.5884 
  658000    132.13662   -6697.4606   -6357.5472   -6697.4606            0    7821.3317    23.042289     21.24523    21.543602    10546.427    8094.6284    7794.0939    7575.2726    -167.6668    568.19604   -4.7877854   -5154.5574 
  659000    128.16249   -6681.9768   -6352.2866   -6681.9768            0    6278.4885    23.227011    21.326851    21.381725     10591.63    5905.8209    6436.7506    6492.8941    24.030176    557.92521   -458.61568   -5382.4606 
  660000    131.44391   -6687.6253   -6349.4939   -6687.6253            0    7815.7411    23.067733    21.240876    21.493299    10531.262    7883.1119    7699.8602    7864.2511   -1058.1712    108.11231   -550.89771   -5149.0925 
  661000     126.9339    -6692.744   -6366.2142    -6692.744            0    7512.1231    23.122253    21.260706    21.453802    10546.591    6864.1635    8021.7952    7650.4107   -550.25015    254.77173    231.35559   -5210.7655 
  662000    126.04504   -6672.8308   -6348.5876   -6672.8308            0    6974.0604    23.158458    21.368539    21.348926    10564.781    7604.8023    5489.1438    7828.2351   -502.08239    -476.5634    9.6741128   -5274.0488 
  663000    129.30334   -6682.5495   -6349.9246   -6682.5495            0    7886.7415    23.085633    21.210213    21.541061    10547.606    9026.6532    6201.9376    8431.6337   -937.61543    94.261866    1049.0731   -5136.7386 
  664000    127.32331   -6691.3894   -6363.8579   -6691.3894            0    7315.2979    23.238013     21.21794    21.441157    10571.837    6692.4893    7614.6271    7638.7772    722.54072   -954.31341    -862.6577   -5235.9897 
  665000    129.45807   -6684.6074   -6351.5844   -6684.6074            0    6524.9643    23.218265    21.259422    21.475817    10600.611    5945.2938    6364.4407    7265.1583    737.00103   -339.22669    93.377012   -5342.8312 
  666000     133.8844   -6674.5714   -6330.1619   -6674.5714            0    7890.4205    23.081857     21.20091    21.561049    10551.036    9169.3168    7787.0725    6714.8724    420.89609    172.64204    547.02649   -5116.0152 
  667000    134.82083   -6701.4123    -6354.594   -6701.4123            0    6473.0929    23.176266    21.313995    21.428583    10585.266     5540.048    7325.0996    6554.1311      789.588    566.51745    490.25834   -5355.3086 
  668000    130.86533   -6671.4792   -6334.8361   -6671.4792            0    6630.6841     23.11188    21.288871    21.482619    10570.004    6746.2863    7470.5806    5675.1853    497.95915   -150.35794   -1176.7027   -5312.6984 
  669000    133.99681   -6660.1411   -6315.4424   -6660.1411            0    9355.1699    23.031275    21.224662    21.483173    10501.642     9215.547    9930.5534    8919.4094    557.38768   -187.56564   -42.922317   -4882.6451 
  670000    126.27784   -6676.7617   -6351.9196   -6676.7617            0    6434.7856    23.218297    21.345092    21.393865    10602.729    6889.4651    5844.5919    6570.2997    700.75392   -77.021288   -60.875526   -5356.9092 
  671000    129.67984   -6681.4996   -6347.9061   -6681.4996            0    7257.9183    23.007906    21.332571    21.535313    10569.915    8291.9623    7931.8552    5549.9375   -814.41793   -691.76245   -1084.1523   -5229.0881 
  672000    128.29468   -6679.7415   -6349.7112   -6679.7415            0    6753.4228    23.173266    21.319612      21.4167    10580.815    7375.8084    5921.5097    6962.9504    274.38463    722.16156   -171.99146   -5307.5883 
  673000    131.20813    -6698.164   -6360.6391    -6698.164            0     6511.949    23.070906     21.33548    21.539417    10602.322    6615.5617    7141.0131    5779.2723   -1028.0874    318.74583      23.6369   -5353.7355 
  674000    127.94685   -6684.9441   -6355.8087   -6684.9441            0    7460.5833    23.151914    21.271963    21.402629    10540.509    6913.7216    7375.5784    8092.4499    638.44589    858.07163   -169.20191    -5208.949 
  675000    126.79261   -6672.6518   -6346.4856   -6672.6518            0    7120.3605    23.126649    21.260457    21.487509    10565.045     7423.184    6548.0813    7389.8162    784.72985   -1006.1991    290.58205   -5249.3779 
  676000     128.1394   -6695.4905   -6365.8597   -6695.4905            0    6518.5276    23.179736    21.183965    21.567732    10590.591    6193.3315    6642.3749    6719.8762    -352.1812    647.97032     605.3201   -5359.0542 
  677000    134.63638    -6675.857   -6329.5131    -6675.857            0    7199.5845    23.313147    21.207691    21.387126    10574.181    5981.2739    7949.7206    7667.7589   -101.22456   -15.558064     479.3487   -5219.2395 
  678000    131.76773   -6681.8769   -6342.9125   -6681.8769            0    6226.0559    23.211846    21.174947    21.585175    10609.321    6042.3141    7605.0736    5030.7801   -127.11407    -161.8446   -303.23188   -5379.5793 
  679000    130.65715   -6685.7046    -6349.597   -6685.7046            0    7195.6235    23.214203    21.245606    21.420869    10564.769    6213.1373    7683.0626    7690.6705    198.94106    865.67499    184.78841   -5240.9219 
  680000    133.22729   -6688.0785   -6345.3594   -6688.0785            0    7491.1064     23.10068    21.222549    21.550217    10565.108    7476.7002     8111.228    6885.3911   -255.31854    164.80087   -176.38804   -5191.1202 
  681000    130.09253   -6683.4952   -6348.8401   -6683.4952            0    8256.1173    23.097978    21.237823    21.463645    10529.007    8262.8874    8878.9413    7626.5231    1081.2801   -140.09976   -299.23351   -5081.0738 
  682000    128.74529   -6673.8857   -6342.6963   -6673.8857            0    7203.6664    23.139964    21.299808      21.4514    10572.897    8235.6283    6874.1062    6501.2648   -175.26629   -275.72196    215.51232   -5231.9279 
  683000    126.32624   -6681.3015    -6356.335   -6681.3015            0    8455.9876    23.123928    21.172135    21.512901    10532.349    8372.2583    8787.7717    8207.9328   -19.589209    275.58167   -186.13354   -5057.4656 
  684000    127.59459   -6689.9201   -6361.6908   -6689.9201            0    6946.5657    23.163901    21.235228    21.493347    10572.378    6233.1669    8105.1818    6501.3484   -113.25125    689.83951    380.68883   -5290.6187 
  685000    129.18392   -6672.4611   -6340.1434   -6672.4611            0    6697.5963     23.21095     21.29571    21.434397    10594.887    6459.0994    6746.7482    6886.9411   -66.730881   -640.59863   -53.195514   -5305.2606 
  686000     130.3299   -6673.1988   -6337.9331   -6673.1988            0    7126.2079    23.132222      21.2542     21.55585    10598.082    7253.2311    7055.2442    7070.1485   -345.68111     111.9527   -281.56636    -5236.491 
  687000    125.81934   -6692.5236    -6368.861   -6692.5236            0     6633.357    23.183795    21.295925    21.432291    10581.558      6691.99    6141.5295    7066.5515    549.18205    73.233445    542.40976   -5345.1935 
  688000    134.50303   -6677.3802   -6331.3794   -6677.3802            0     7671.234    23.062032    21.221952    21.564252    10554.005     8407.156    8145.7299     6460.816    339.25619   -321.78359    39.405656   -5150.6281 
  689000    128.31262   -6699.7014    -6369.625   -6699.7014            0     7107.023     23.14954    21.328076    21.373702    10552.948    7242.2686    6800.5854     7278.215   -821.16626    257.93686    733.00479   -5275.8262 
  690000    133.87029   -6668.0511   -6323.6779   -6668.0511            0    6331.4741    23.189101    21.299159    21.518289    10628.063    6803.8305    6255.8046    5934.7871    809.30981   -812.16201   -124.77696   -5342.3032 
  691000    132.95932   -6679.4341   -6337.4044   -6679.4341            0    6557.0489    23.157765     21.24066    21.550846    10600.564    6267.2501     6969.606    6434.2904    340.49555    100.96499     59.65095   -5323.6955 
  692000    131.07241    -6677.356   -6340.1803    -6677.356            0    7071.2947    23.089294    21.345774    21.451816    10572.717    6565.7422    6715.2356    7932.9063    -1536.728    982.26518    429.28791   -5249.8415 
  693000    123.82391   -6675.7225    -6357.193   -6675.7225            0    7302.8435    23.086727    21.260987    21.513108    10559.637    6916.1731    7729.7557    7262.6015    822.00787    92.266812     506.9797   -5232.5444 
  694000    132.10667   -6689.2964   -6349.4601   -6689.2964            0    7115.1059    23.096203    21.381125    21.431125    10583.178    6451.2298    7005.8177    7888.2702    600.47481   -218.40096    359.60999   -5251.2805 
  695000    131.42041   -6672.3713   -6334.3003   -6672.3713            0    8528.0903    23.029789    21.277923    21.479438    10525.484    8142.6128    7957.7282      9483.93   -418.22159    1191.9469   -42.710438   -5025.2095 
  696000    125.45692   -6679.8804   -6357.1501   -6679.8804            0    6400.5395    23.121484    21.401353       21.394    10586.416    6791.2152    5067.1767    7343.2264     58.41012    90.632585    624.37455   -5368.9579 
  697000    129.56516   -6681.8888   -6348.5904   -6681.8888            0     6636.849    23.143086    21.293368    21.464955    10577.806    6874.4472    5908.8907    7127.2092    879.77515    473.92038    278.68953   -5324.7472 
  698000    134.05187   -6684.5047   -6339.6644   -6684.5047            0    7718.8186     23.05628    21.233027    21.584426    10566.756    8618.9213    7768.1265    6769.4079   -1168.7007    228.17975   -345.50456   -5150.1536 
  699000    132.09102   -6676.1918   -6336.3957   -6676.1918            0    7869.9433    23.379454    21.122427    21.363764    10550.085    6899.5774    8434.0349    8276.2176    350.49526   -298.04809   -163.20484   -5125.5092 
  700000    125.34171   -6681.3015   -6358.8676   -6681.3015            0    7255.7595    23.226064    21.172314    21.540526    10592.543    7268.1027    6744.5176    7754.6581   -20.211877   -856.76134    577.72544   -5237.9879 
  701000    132.12375   -6689.4687   -6349.5884   -6689.4687            0    5949.7101    23.312261    21.228098    21.483968    10631.877    4895.7154    5843.8092    7109.6055    73.268836    429.55547   -150.55284   -5427.0559 
  702000    132.11375   -6697.1524   -6357.2979   -6697.1524            0    6550.8827    23.184805     21.25983     21.50117    10598.035    6577.9695    5947.7157    7126.9629    362.86395   -614.74526    127.74296   -5344.7839 
  703000    125.58719   -6697.9152   -6374.8498   -6697.9152            0    7864.2695    23.059237    21.285962    21.488481    10547.364    8196.6653    7437.5057    7958.6373    87.536738    302.31893   -350.61542   -5165.1484 
  704000    125.25628   -6679.2672   -6357.0531   -6679.2672            0    6869.8956    23.127108    21.366693    21.403976    10576.771     7003.593    6359.2664    7246.8276    654.31808   -359.04681   -62.577505   -5297.3624 
  705000    129.41649   -6693.9258   -6361.0098   -6693.9258            0    7001.2351    22.981227    21.400498     21.49805     10572.95    7308.4038    6646.1483    7049.1533    1372.1219   -1276.2658    120.63212     -5281.45 
  706000    125.08824    -6688.959   -6367.1771    -6688.959            0    8004.5713    23.000857    21.337182    21.472378    10538.074    8972.5593    7028.9649    8012.1896    341.50407   -2.0587034   -15.758453   -5136.9785 
  707000    127.01371   -6686.7948   -6360.0597   -6686.7948            0    8541.8648    22.997725    21.345094    21.410235     10510.04    8617.9316    8979.8578    8027.8051   -91.093663   -177.23678   -328.11556   -5050.7784 
  708000    125.99707   -6683.0226   -6358.9029   -6683.0226            0     5372.317    23.136666    21.463617    21.419534    10636.867    6549.5046     3866.659    5700.7873    365.04178   -1015.5838    333.49482   -5525.5072 
  709000    132.34186   -6680.8157   -6340.3743   -6680.8157            0    7204.2009    23.023733    21.347694    21.534113    10584.094    7903.1303    7242.1808    6467.2917    182.16604   -585.67853   -146.98165   -5228.3471 
  710000    126.88722   -6675.9311   -6349.5214   -6675.9311            0     7888.295    23.110446    21.297542    21.410649    10538.229    7469.6966    7828.0128    8367.1757   -349.81075    907.83878    102.40011   -5137.1752 
  711000    133.17324   -6687.4905   -6344.9104   -6687.4905            0    6808.5003    23.112604    21.322238    21.477174    10584.219    7352.0396    7285.1708    5788.2904      724.485   -830.79462   -305.12713   -5293.9505 
  712000    125.22068   -6681.0695   -6358.9469   -6681.0695            0    7834.6737    23.085582    21.250147    21.522864    10558.515    8444.7887    7260.3203    7798.9122   -880.00824   -709.38796    258.98137   -5152.5239 
  713000    127.64105    -6681.819   -6353.4701    -6681.819            0    7294.2713    23.200932    21.223299    21.426581    10550.455    6773.7383    7257.4996    7851.5759     -105.388   -130.79409     12.58264   -5231.1184 
  714000    132.53369   -6690.1728    -6349.238   -6690.1728            0    7568.2234    23.213124    21.070767    21.595458    10562.734    7641.8882    9056.0398    6006.7422    838.50549   -1919.6151   -113.19781   -5183.3786 
  715000    124.29547   -6690.1834   -6370.4409   -6690.1834            0    7114.9504    23.239876    21.137554    21.554032    10588.077    7072.7888    7878.6799    6393.3823    1011.9658    456.08336   -75.709491    -5271.777 
  716000    125.08665   -6672.3514   -6350.5736   -6672.3514            0    7467.0754    23.202338    21.226786    21.461585    10570.068    7163.6864    6756.3128    8481.2271    354.41295    60.563385     666.0003    -5199.497 
  717000    133.93872    -6697.011   -6352.4618    -6697.011            0    6776.2441    23.244256    21.183864    21.477549    10575.612    6047.1048    6703.1714    7578.4561    1542.4888   -990.81472     687.9362   -5307.3315 
  718000    131.63199   -6672.6256   -6334.0103   -6672.6256            0    7893.9784    23.064264    21.211686    21.543419    10539.728    8369.1283    7979.5053    7333.3017    387.60944   -705.01579     419.7551    -5120.618 
  719000    125.64195   -6677.1736   -6353.9674   -6677.1736            0     7164.813    23.083603    21.310035     21.49095    10571.665    7242.6778    7243.8147    7007.9465    98.701666    427.78921    595.32233   -5249.3188 
  720000    124.25357     -6688.34   -6368.7052     -6688.34            0    7477.9681    23.033106    21.395412    21.403697    10547.802    8426.0389    6523.1401    7484.7254    269.88528   -995.83895    891.48073   -5218.3779 
  721000    125.97958   -6681.3823   -6357.3075   -6681.3823            0    6803.8418    23.055354    21.302048    21.532949    10575.396     6611.407    7254.0837    6546.0347    537.79484   -63.185854   -728.76874   -5307.9421 
  722000    130.15714   -6693.0355   -6358.2141   -6693.0355            0    7828.8409    22.917774    21.480945    21.390482    10530.437    9284.5988    5915.9349    8285.9889   -395.18643   -483.36023    184.65831   -5155.8951 
  723000    129.41955   -6696.9395   -6364.0156   -6696.9395            0    6513.0739    23.086703     21.34805    21.473278    10583.236    6783.4886    6372.9434    6382.7896    263.02048    1002.5661   -515.49692    -5358.751 
  724000    134.66292   -6684.7812    -6338.369   -6684.7812            0    6823.9886    23.054181    21.361201    21.505246    10590.581     6911.461    7525.6689    6034.8359   -36.473322    635.38598   -51.324417   -5284.3852 
  725000    130.72318   -6693.5108   -6357.2334   -6693.5108            0     7403.337    23.058231    21.241479    21.549146    10554.577    8363.7306    7182.5714    6663.7091    -718.3855    396.74712   -715.68226    -5217.655 
  726000    129.02143   -6677.3241   -6345.4243   -6677.3241            0    8452.7022    23.203393    21.212619    21.365492    10516.196    8390.0182    7771.1616    9196.9269    128.29112   -522.72339   -146.51329   -5049.0508 
  727000    134.77906   -6674.5543   -6327.8433   -6674.5543            0    5755.5323    23.246664     21.18571     21.60318    10639.503    4814.1564    6524.9952    5927.4451    560.83982    466.19307    55.190992   -5434.7791 
  728000    135.56054   -6670.9345   -6322.2132   -6670.9345            0    7533.9392    23.182691    21.184518    21.513649    10565.657    7017.1626    7883.1399    7701.5151   -581.19922   -701.47484   -17.984902    -5161.314 
  729000      129.616   -6673.6806   -6340.2513   -6673.6806            0    8353.4344    23.310525    21.107534    21.410895    10534.753    6961.2069    9477.1331    8621.9633     833.7139   -236.74602    223.53193   -5056.8416 
  730000    130.75019   -6671.4645   -6335.1176   -6671.4645            0    6859.0659    23.197718    21.222091     21.51671    10592.764    7256.5655    6577.6181    6743.0139   -216.57174   -461.32366    1016.9291   -5275.4976 
  731000    131.99957   -6670.4214   -6330.8605   -6670.4214            0    8001.7577     23.32198    21.104613    21.428012    10546.897    7094.6475    8642.5019    8268.1238   -936.31189    758.52627    147.68934   -5100.0648 
  732000    132.18735    -6684.669   -6344.6251    -6684.669            0    7143.5699    23.125466    21.219246    21.563925    10581.525    7520.1733    6873.1267    7037.4097    289.42069   -341.13001   -351.69967   -5242.2245 
  733000    125.24701   -6685.0798   -6362.8895   -6685.0798            0    6888.2194    23.127114    21.274843    21.501521    10579.301    7489.1707    6960.3632    6215.1243   -289.96243    193.96408   -375.17797   -5300.1181 
  734000      128.845   -6676.3874   -6344.9414   -6676.3874            0    6861.0514    23.186054    21.400745    21.289709    10563.929     5627.772    7182.6753    7772.7068   -234.06666    462.83429    731.20061      -5287.9 
  735000    127.32008   -6681.3274   -6353.8043   -6681.3274            0    7567.1031    23.007007    21.261559    21.606654    10569.216    8645.5123    7755.3878    6300.4093    566.68295   -363.89014   -588.68809   -5187.4021 
  736000    127.29029   -6681.2899   -6353.8434   -6681.2899            0    7398.2545    23.111692    21.317437    21.399413    10543.106    8324.6349    6372.9454    7497.1834    298.13065   -639.11028    1106.6936   -5216.2849 
  737000      120.707   -6673.1001   -6362.5887   -6673.1001            0    7101.9429    23.112728    21.261509    21.525202    10577.731      7841.27    7017.8163    6446.7425   -580.04686   -74.300441    -434.2845    -5267.005 
  738000    133.90262   -6671.9517   -6327.4954   -6671.9517            0    8491.4016    23.097787     21.25569    21.439482    10525.915    7490.8379    9088.1005    8895.2663   -526.25157     296.1215     320.6625   -5023.9831 
  739000    126.35267   -6679.3731   -6354.3385   -6679.3731            0    6757.7926    23.214895    21.231233    21.485923        10590    6725.5029    6327.1036    7220.7712    -799.9959   -64.307211    535.11958   -5310.6361 
  740000    128.48752   -6669.7917   -6339.2654   -6669.7917            0     7592.282     23.22718    21.080985    21.564808    10559.248    7534.2501    7701.6962    7540.8997     -667.989   -662.39135   -779.01693   -5170.0859 
  741000    130.04954   -6687.4044   -6352.8599   -6687.4044            0    7876.1772    23.308016    21.205847    21.318692    10537.109    7052.9039    7434.9446    9140.6831   -181.01882    16.971197   -167.35546   -5142.5047 
  742000    127.98195   -6683.7738    -6354.548   -6683.7738            0    8061.0474    23.171301    21.081166    21.555607    10529.441    7800.7076    8578.3806    7804.0539   -467.48071    759.40689    128.43125   -5116.6848 
  743000    134.17772   -6685.0577   -6339.8936   -6685.0577            0    7834.0399    23.136063    21.183272    21.492321    10533.333    7316.0379    8633.7344    7552.3476   -423.47321    170.39289    359.29941   -5136.4452 
  744000     125.8698   -6675.7996   -6352.0072   -6675.7996            0    6908.0046     23.21916    21.294506    21.396229    10579.163     6387.874    6656.6733    7679.4664    697.08245    231.69144     51.15887   -5286.1972 
  745000    133.20327   -6669.0195   -6326.3622   -6669.0195            0    7742.7257    23.041956    21.286085    21.562093    10575.625    8368.8178     6729.989    8129.3703    400.33385    195.53059    667.41537   -5132.1656 
  746000    127.67909   -6684.7576   -6356.3109   -6684.7576            0     6852.119    23.132262    21.283188    21.451762    10561.309    7322.6667    5866.5612    7367.1291   -422.24441    634.83046    1213.0321   -5300.9074 
  747000    132.20008   -6691.0485   -6350.9718   -6691.0485            0    7004.0341    23.135752    21.290144    21.498755    10589.502    7273.4586    6801.5387     6937.105    134.82469   -1826.9569   -362.91779   -5269.2897 
  748000    130.17017   -6678.0924   -6343.2375   -6678.0924            0    7270.3701    23.146665     21.28474    21.481015    10583.068    6983.8932    6636.9698    8190.2473   -88.461072    560.51784    293.65847   -5221.1054 
  749000    132.91581   -6691.3321   -6349.4143   -6691.3321            0    8361.2882    23.028553    21.205863    21.507692    10503.074    8097.4327    8412.4991    8573.9328   -60.780683    313.59911    2092.9939    -5068.661 
  750000     136.0032   -6674.4731   -6324.6131   -6674.4731            0    7119.0386    23.215537    21.293009    21.390695    10574.033    7139.6731    7170.9594    7046.4834    118.17598   -835.10905   -707.87349   -5226.7761 
Loop time of 564.733 on 64 procs for 250000 steps with 1296 atoms

Performance: 76.496 ns/day, 0.314 hours/ns, 442.687 timesteps/s
195.6% CPU use with 32 MPI tasks x 2 OpenMP threads

MPI task timing breakdown:
Section |  min time  |  avg time  |  max time  |%varavg| %total
---------------------------------------------------------------
Pair    | 38.021     | 48.565     | 58.446     |  98.9 |  8.60
Bond    | 0.85041    | 1.0093     | 1.3269     |  11.9 |  0.18
Kspace  | 291.18     | 304.22     | 321.17     |  45.8 | 53.87
Neigh   | 1.563      | 1.6914     | 1.9026     |   7.5 |  0.30
Comm    | 75.423     | 82.748     | 88.678     |  39.6 | 14.65
Output  | 0.49058    | 0.49159    | 0.49328    |   0.1 |  0.09
Modify  | 106.41     | 110.09     | 111.82     |  11.9 | 19.49
Other   |            | 15.92      |            |       |  2.82

Nlocal:        40.5000 ave          50 max          29 min
Histogram: 1 4 8 2 1 0 1 3 5 7
Nghost:        3160.19 ave        3186 max        3139 min
Histogram: 2 2 5 5 6 7 1 1 2 1
Neighs:        13212.1 ave       16262 max        9539 min
Histogram: 1 3 9 2 1 0 1 3 6 6

Total # of neighbors = 422787
Ave neighs/atom = 326.22454
Ave special neighs/atom = 2.0000000
Neighbor list builds = 3401
Dangerous builds = 0

unfix		3
unfix		2
unfix		1

write_data	data.final.${pid}
write_data	data.final.0
System init for write_data ...
PPPM initialization ...
  extracting TIP4P info from pair style
  using 12-bit tables for long-range coulomb (../kspace.cpp:340)
  G vector (1/distance) = 0.36762766
  grid = 30 40 32
  stencil order = 5
  estimated absolute RMS force accuracy = 0.0045049072
  estimated relative force accuracy = 1.3566394e-05
  using double precision FFTW3
  3d grid and FFT values/proc = 7888 1280
Last active /omp style is kspace_style pppm/tip4p/omp
WARNING: Not all mixed pair coeffs generated from mixing. Use write_data with 'pair ij' option to store all pair coeffs. (../write_data.cpp:312)

write_restart   restart.lmp.${pid}
write_restart   restart.lmp.0
System init for write_restart ...
PPPM initialization ...
  extracting TIP4P info from pair style
  using 12-bit tables for long-range coulomb (../kspace.cpp:340)
  G vector (1/distance) = 0.36762766
  grid = 30 40 32
  stencil order = 5
  estimated absolute RMS force accuracy = 0.0045049072
  estimated relative force accuracy = 1.3566394e-05
  using double precision FFTW3
  3d grid and FFT values/proc = 7888 1280
Last active /omp style is kspace_style pppm/tip4p/omp
Total wall time: 0:09:24
