LAMMPS (30 Jul 2021)
Processor partition = 1
  using 2 OpenMP thread(s) per MPI task
using multi-threaded neighbor list subroutines
variable        pid world 0 1
variable        phase world IceIh IceIII

shell cd ${phase}
shell cd IceIII
include Restart.lmp
echo both
log log.lammps
#include		in.partitions
include		in.temp
variable        temperature equal 142.72
variable	tempDamp equal 100.0
include		in.pressure
variable        pressure equal 1905.5
variable        pressureDamp equal 1000.0 # This is 1 ps
include		in.seed
variable        seed equal 745823

units		real
atom_style	full

read_restart	restart.lmp.${pid}
read_restart	restart.lmp.1
Reading restart file ...
  restart file = 30 Jul 2021, LAMMPS = 30 Jul 2021
  restoring atom style full from restart
  orthogonal box = (-0.040827920 0.042422847 -0.090399369) to (20.040829 19.957578 20.790397)
  4 by 2 by 4 MPI processor grid
  restoring pair style lj/cut/tip4p/long/omp from restart
  restoring bond style harmonic/omp from restart
  restoring angle style harmonic/omp from restart
  972 atoms
  648 bonds
  324 angles
Finding 1-2 1-3 1-4 neighbors ...
  special bond factors lj:    0        0        0       
  special bond factors coul:  0        0        0       
     2 = max # of 1-2 neighbors
     1 = max # of 1-3 neighbors
     1 = max # of 1-4 neighbors
     2 = max # of special neighbors
  special bonds CPU = 0.003 seconds
  read_restart CPU = 0.008 seconds
include 	in.setup
variable	out_freq equal 1000
variable	out_freq2 equal 10000
variable	out_freq3 equal 1000

timestep	2.0

neigh_modify    delay 7 every 1

include		in.tip4p
# This is TIP4P/Ice

# create groups ###
group ox type 2
324 atoms in group ox
group hy type 1
648 atoms in group hy

# set charges - beside manually ###
set group ox charge -1.1794
Setting atom values ...
  324 settings made for charge
set group hy charge 0.5897
Setting atom values ...
  648 settings made for charge

# ### TIP3P Potential Parameters ###
pair_style lj/cut/tip4p/long/omp 2 1 1 1 0.1577 8.5
pair_coeff 1 1*2 0.000 0.000
pair_coeff 2 2 0.21084 3.1668
bond_style  harmonic
bond_coeff  1 450 0.9572
angle_style harmonic
angle_coeff 1 55 104.52
kspace_style pppm/tip4p/omp 1.0e-5
pair_modify tail yes

thermo          ${out_freq}
thermo          1000
thermo_style    custom step temp pe etotal epair emol press lx ly lz vol pxx pyy pzz pxy pxz pyz enthalpy

restart 	${out_freq3} restart.lmp.${pid} restart2.lmp.${pid}
restart 	1000 restart.lmp.${pid} restart2.lmp.${pid}
restart 	1000 restart.lmp.1 restart2.lmp.${pid}
restart 	1000 restart.lmp.1 restart2.lmp.1


include         in.dump
dump            myDump all atom ${out_freq2} dump.water.${pid}
dump            myDump all atom 10000 dump.water.${pid}
dump            myDump all atom 10000 dump.water.1
dump            myDump2 all dcd ${out_freq2} dump.dcd
dump            myDump2 all dcd 10000 dump.dcd
dump_modify     myDump append yes
dump_modify     myDump2 append yes


variable natoms 	equal  "count(all)"                        # NUMBER ATOMS
variable H      	equal  "enthalpy/v_natoms"                 # ENTHALPY-per-atom
variable Vol      	equal  "vol/v_natoms"                 # volume-per-atom
fix AVG all 		ave/time ${out_freq} 1 ${out_freq} v_Vol v_H file vol_enthalpy.dat
fix AVG all 		ave/time 1000 1 ${out_freq} v_Vol v_H file vol_enthalpy.dat
fix AVG all 		ave/time 1000 1 1000 v_Vol v_H file vol_enthalpy.dat


timer           timeout 02:55:00 every 1000
New timer settings: style=normal  mode=nosync  timeout=02:55:00

fix 		1 all shake 1e-6 200 0 b 1 a 1
Finding SHAKE clusters ...
       0 = # of size 2 clusters
       0 = # of size 3 clusters
       0 = # of size 4 clusters
     324 = # of frozen angles
  find clusters CPU = 0.000 seconds
fix             2 all nph aniso ${pressure} ${pressure} ${pressureDamp}
fix             2 all nph aniso 1905.5 ${pressure} ${pressureDamp}
fix             2 all nph aniso 1905.5 1905.5 ${pressureDamp}
fix             2 all nph aniso 1905.5 1905.5 1000
fix             3 all temp/csvr ${temperature} ${temperature} ${tempDamp} ${seed}
fix             3 all temp/csvr 142.72 ${temperature} ${tempDamp} ${seed}
fix             3 all temp/csvr 142.72 142.72 ${tempDamp} ${seed}
fix             3 all temp/csvr 142.72 142.72 100 ${seed}
fix             3 all temp/csvr 142.72 142.72 100 745823


run             250000
PPPM initialization ...
  extracting TIP4P info from pair style
  using 12-bit tables for long-range coulomb (../kspace.cpp:340)
  G vector (1/distance) = 0.37229448
  grid = 24 24 25
  stencil order = 5
  estimated absolute RMS force accuracy = 0.0034213495
  estimated relative force accuracy = 1.0303292e-05
  using double precision FFTW3
  3d grid and FFT values/proc = 3458 576
Last active /omp style is kspace_style pppm/tip4p/omp
Neighbor list info ...
  update every 1 steps, delay 7 steps, check yes
  max neighbors/atom: 2000, page size: 100000
  master list distance cutoff = 10.8154
  ghost atom cutoff = 10.8154
  binsize = 5.4077, bins = 4 4 4
  1 neighbor lists, perpetual/occasional/extra = 1 0 0
  (1) pair lj/cut/tip4p/long/omp, perpetual
      attributes: half, newton on, omp
      pair build: half/bin/newton/omp
      stencil: half/bin/3d
      bin: standard
Setting up Verlet run ...
  Unit style    : real
  Current step  : 22250000
  Time step     : 2
  Walltime left : 2:54:59.95
Per MPI rank memory allocation (min/avg/max) = 10.19 | 10.19 | 10.21 Mbytes
Step Temp PotEng TotEng E_pair E_mol Press Lx Ly Lz Volume Pxx Pyy Pzz Pxy Pxz Pyz Enthalpy 
22250000     148.6482   -4949.8569   -4663.1764   -4949.8569            0    1955.9728    20.081657    19.915155    20.880797    8350.8427    1694.9944    1823.8146    2349.1093   -622.55378   -863.57863   -673.56841   -4424.9614 
22251000    145.28824   -4969.0881   -4688.8875   -4969.0881            0    2525.5432    20.269562    19.955754     20.63224    8345.6254    864.86901    3308.1097    3403.6508   -69.505319   -373.88465    266.29795   -4381.4976 
22252000    145.95273   -4966.8978   -4685.4157   -4966.8978            0    1943.4469    19.990459    20.042602    20.819838    8341.6928    1966.4801    2184.8386    1679.0221   -26.396075      185.826    1073.1165   -4448.9856 
22253000    145.31257   -4970.2006   -4689.9531   -4970.2006            0    1442.2677    19.871883    20.149708    20.912337    8373.5645    4830.4068   -1126.0658    622.46224    167.66868   -969.07393   -451.05587   -4513.8236 
22254000    138.17346   -4973.2947   -4706.8155   -4973.2947            0    1797.0465    19.893461    20.077744    20.880245    8339.9003    2740.9233    1457.4338    1192.7825   -364.60627     614.4648    1314.1778   -4488.2428 
22255000     138.8517   -4952.9121   -4685.1249   -4952.9121            0    2208.2766     20.01475    19.910681    20.904634    8330.6494    2405.8605    2560.0517    1658.9176    32.568423     881.2076   -292.74226   -4416.8326 
22256000    142.30904    -4950.825     -4676.37    -4950.825            0    1827.2423     20.05196    20.024953    20.757634    8335.0112    1268.5442    2032.1657     2181.017   -85.895682     -1014.87    630.75194   -4454.2548 
22257000    146.39773   -4966.2716   -4683.9312   -4966.2716            0    2045.7754    20.179391    19.981562    20.607675     8309.339    408.24202    1926.6524    3802.4319   -404.47818    198.44533    39.709198   -4436.0176 
22258000    146.41997   -4962.7908   -4680.4075   -4962.7908            0    2109.8607    19.895394    19.940807    20.985257    8325.4854    2419.6904    2187.0115    1722.8801   -311.24538   -156.49742    427.40947   -4424.2311 
22259000    152.27612   -4966.5406   -4672.8633   -4966.5406            0    1538.6489    20.063333    19.932107    20.901296    8358.5221    894.00263    2378.2107    1343.7333   -443.33198    369.18359   -296.25351   -4485.3013 
22260000    141.83369   -4949.5451   -4676.0069   -4949.5451            0     3132.546    20.055131    20.012564    20.771498    8336.7358    2936.6398     3697.819    2763.1792   -84.749373    1149.7388    255.39445   -4295.1434 
22261000    135.36935   -4950.8313   -4689.7601   -4950.8313            0    1645.0212    19.899991    19.934806    21.063441    8355.9188    3020.0276    211.24917    1703.7869    57.508177   -431.73754   -927.09715   -4489.2937 
22262000    142.92956   -4931.6062   -4655.9545   -4931.6062            0    2067.8358    19.934594    20.169244     20.89682    8401.8943    3294.1011    822.58112    2086.8253   -87.008413   -467.12406    929.12622   -4402.5763 
22263000    146.90629   -4947.8045   -4664.4834   -4947.8045            0    1965.6111    20.037234    20.028901    20.743068    8324.6863    2200.0417    1352.8743    2343.9172   -320.83985     221.2893    1474.6328   -4425.8444 
22264000    143.25097   -4964.7434   -4688.4719   -4964.7434            0    2002.4365    19.900381    19.978012    21.125043    8398.6841    2834.6539      2030.17    1142.4856   -177.08248    680.73345    318.01556   -4443.2011 
22265000    141.94092   -4960.8345   -4687.0895   -4960.8345            0    1535.1774    20.011787    20.040057    20.832137    8354.4649    1031.2745    1304.6523    2269.6055   -212.04857   -649.48183   -365.06829   -4500.0415 
22266000    138.64297   -4950.2421   -4682.8575   -4950.2421            0    931.34974    20.078945    20.014388    20.782203    8351.6981   -600.60797    2054.3397    1340.3175   -64.098762    736.97381    139.72352   -4569.4182 
22267000    145.88523   -4968.4166   -4687.0646   -4968.4166            0    1175.7827    19.996564    19.944303    20.995467    8373.3603    1906.0573    403.36293    1217.9279    363.14326    672.15249   -740.15959   -4543.4817 
22268000    134.18306   -4959.3499   -4700.5665   -4959.3499            0   -184.04185    20.240546    19.897064    20.774582    8366.4943   -890.55343   -38.083828    376.51171   -45.472977   -134.28997    211.51363   -4723.0227 
22269000    139.89069   -4957.2331   -4687.4421   -4957.2331            0    1408.3629    20.059131    20.048985    20.832234    8377.9995    1025.0053    1514.0137    1686.0699    11.994665   -165.20146    190.05083    -4515.362 
22270000    147.07922   -4972.3771   -4688.7225   -4972.3771            0    1938.8922    20.031795     19.88747    20.943563    8343.5327    1680.1302    1965.4343     2171.112   -136.52255    891.98875   -637.82755   -4452.7944 
22271000    139.67954   -4970.4055   -4701.0217   -4970.4055            0    3964.9524     19.79864    20.017155    20.828951    8254.7729    3859.1043    4418.1646    3617.5885    46.017252    240.11769    821.08575   -4223.6914 
22272000    143.62798   -4958.3505   -4681.3519   -4958.3505            0    2485.5323    19.874484    20.015437    20.943454    8331.2322    3429.9917     1653.024    2373.5813    165.42847   -452.83454   -486.83112   -4379.3535 
22273000    135.08011   -4958.1138   -4697.6005   -4958.1138            0    2023.2621    20.103513    19.959818    20.780723    8338.5242    140.43485    3643.5687    2285.7828    456.58367     378.1383    400.46986    -4451.554 
22274000    144.38785   -4938.0518   -4659.5876   -4938.0518            0    2764.5471    20.150811    19.893959    20.832084    8351.1536    2689.5752    2730.4495    2873.6166    355.44025    1580.4016    951.51498   -4322.8851 
22275000    149.26759   -4957.0457   -4669.1705   -4957.0457            0    1835.0183     20.15985    19.897655    20.829677    8355.4863    2553.4229    1692.0186    1259.6134    593.29258   -567.72649   -182.18389   -4445.5622 
22276000    149.84791   -4957.2753    -4668.281   -4957.2753            0     1454.354    20.051067    19.973156     20.83048    8342.2549    1818.7553    1102.9822    1441.3246   -96.106767    968.19159   -181.70622   -4491.3395 
22277000    152.07624   -4957.1651   -4663.8732   -4957.1651            0     1114.155      20.0722    19.941724     20.91804    8372.9533    714.76805    1933.9689    693.72801    85.852741   -959.07077   -273.97246   -4527.8227 
22278000    143.13088   -4973.1434   -4697.1035   -4973.1434            0    848.94484    20.040032    20.012163    20.825444    8351.9274   -1121.1956    2848.8667    819.16336   -285.02064    22.776044     -227.084   -4593.6983 
22279000    144.52575   -4959.2358   -4680.5058   -4959.2358            0    426.79557     20.13904    20.119504    20.648668    8366.5822   -797.20746    624.02459    1453.5696   -270.93662    98.741484   -480.48841    -4628.429 
22280000    145.05526   -4951.7105   -4671.9592   -4951.7105            0    1583.4161    20.041723    19.897587    20.963729    8359.9565    1304.6382     2211.922    1233.6879   -72.632555    223.33507   -266.81876    -4478.907 
22281000    151.42662   -4960.6546   -4668.6156   -4960.6546            0    897.73958    20.071702     20.02876    20.855475    8384.1368    474.77653    281.89388    1936.5483     126.2724     138.8026    428.34531   -4558.8454 
22282000    150.32654   -4964.2649   -4674.3476   -4964.2649            0    2882.4644    19.914867    20.063593    20.807081    8313.7562     2582.818    3782.7189    2281.8563    349.21335    836.38177     167.2324   -4324.8557 
22283000    144.12692   -4958.6291   -4680.6683   -4958.6291            0    2689.2088    19.958911    19.991061    20.924088    8348.7071    3424.8615    2754.0987    1888.6662    702.03397   -751.59378    235.46754   -4353.2374 
22284000    140.12382   -4968.9571   -4698.7165   -4968.9571            0    1434.6718    20.038144    19.892921    20.957126    8353.8715    946.39205    1971.7234    1385.8999   -34.579527   -412.06924    -671.8052   -4523.9266 
22285000    137.78686   -4978.0869   -4712.3533   -4978.0869            0     2518.664    20.000035     19.90292    20.900559    8319.6578    3053.7386    2523.8757    1978.3776    43.161772    1052.7026   -324.82818   -4406.7546 
22286000    134.77236   -4958.6167   -4698.6969   -4958.6167            0    2576.1928    19.931453     19.95588    20.803092    8274.4236      3329.73    3089.1537    1309.6946   -157.67061   -202.49567    1741.7705   -4387.8174 
22287000    146.58663   -4966.8304   -4684.1258   -4966.8304            0    3186.7097    19.833476    20.061925    20.733818    8249.9389    4477.8227    2527.8546    2554.4519   -367.57576    581.55206    -190.7677   -4300.7107 
22288000    148.37021   -4961.1084   -4674.9639   -4961.1084            0    2198.7789    19.941266    19.955962    21.035056    8370.8407    3012.0547    1922.5209     1661.761    243.99971    402.10979   -893.37603   -4406.5367 
22289000    133.93251   -4957.8228   -4699.5227   -4957.8228            0    1211.8246    19.980959    20.058089    20.911067    8380.7344    1597.5569    1137.3126    900.60447   -99.840604   -71.236451    105.88991   -4551.4082 
22290000    141.71047   -4963.0622   -4689.7616   -4963.0622            0    1558.2855    19.950381    20.057698    20.854347    8345.0487     1253.663    1786.6892    1634.5043   -167.95169     292.0874    -362.6838   -4500.1121 
22291000     149.2904   -4969.8469   -4681.9278   -4969.8469            0    1652.9704    20.174846    20.011111    20.653467      8338.24    2316.8071    954.83506    1687.2689   -121.41031    997.61011     393.5037   -4480.9188 
22292000     138.0894   -4960.2831   -4693.9661   -4960.2831            0     1611.017    20.095596    19.991644    20.883222     8389.709    867.47663    2439.1834    1526.3911   -84.902901    48.072429   -922.59361   -4496.8496 
22293000    147.72955   -4962.2093   -4677.3004   -4962.2093            0    3481.6893    20.059373     19.96311     20.77115    8317.7546    3677.8269    3436.8205    3330.4206    -422.3864     1059.778   -28.139321   -4254.9509 
22294000    143.53943   -4977.8838   -4701.0559   -4977.8838            0    810.76687    19.924583    20.052869    20.878589    8341.9366    1150.2923    1260.9734      21.0349    29.525356    81.971866    853.26443   -4602.4192 
22295000    139.74174   -4973.0029   -4703.4992   -4973.0029            0    2282.4499    19.974248    20.121329     20.63784    8294.5214    1437.8804    2768.5775    2640.8916    125.60092    515.16603   -472.21663   -4427.3979 
22296000    140.59521   -4965.5349   -4694.3852   -4965.5349            0    1243.1872    19.933603    20.121081    20.864503    8368.4527    3218.6366    246.69025    264.23478    396.85018    659.73433   -1128.3674     -4542.66 
22297000    142.92428    -4963.465   -4687.8235    -4963.465            0    1711.3202    19.949126    20.083159    20.959203     8397.126    3199.7079   -30.502341     1964.755   -154.83739   -276.91232   -366.48654   -4478.2493 
22298000     136.6643   -4964.2906    -4700.722   -4964.2906            0    2265.1493    20.018686    19.956098    20.747944    8288.6972    1335.9237    3328.8873    2130.6369    664.12902    663.59987   -743.75911   -4426.9059 
22299000    146.47291   -4962.8373    -4680.352   -4962.8373            0    1859.9405    20.042354    19.992415    20.819134    8342.1241     2244.694    1159.7552    2175.3725   -139.12353   -736.88013   -350.39186   -4454.0691 
22300000    136.58749   -4961.0665    -4697.646   -4961.0665            0    2897.1183    19.908135    19.882972    20.988734    8308.0314    3846.7219    2389.1583    2455.4747   -213.86809    330.27498    624.85629   -4346.6192 
22301000    159.75435   -4958.4805   -4650.3808   -4958.4805            0    1559.4142    20.027956    20.090674     20.78003    8361.3674    1514.0894    1242.5661    1921.5873    -107.0735    1044.0333    647.44356   -4460.2227 
22302000    139.68664    -4964.131   -4694.7335    -4964.131            0    2231.3208    20.065294    20.059079     20.55939    8274.9758    2030.4917    2253.8589     2409.612   -79.141295    179.54997    1097.6693   -4425.4532 
22303000    132.02978   -4962.1701   -4707.5396   -4962.1701            0    1254.3073    19.929434    19.992382    21.045732    8385.3952    1160.5921     2463.913    138.41697   -265.84547   -11.460936   -393.49633   -4554.1474 
22304000     145.3265   -4948.3138   -4668.0394   -4948.3138            0    2303.9718    19.859053    19.975209    20.899851    8290.7354    3399.0144    1734.4189    1778.4823   -310.38339    408.57701   -123.64783   -4389.4618 
22305000    135.03668   -4941.5617   -4681.1321   -4941.5617            0    2713.5837    19.952089    20.054654    20.752615    8303.7904    2671.6888    3000.0491    2469.0131   -23.997219    1074.2616    780.11731    -4352.511 
22306000    150.14693   -4951.7316   -4662.1606   -4951.7316            0    1704.1809    19.963264    19.996224    20.908966    8346.6481    1558.9129    3115.5097    438.12019   -30.333978   -429.96586   -318.26413   -4454.7153 
22307000    134.07056   -4963.0655   -4704.4992   -4963.0655            0    1922.4008    20.007247    19.922218    20.929345    8342.2012    1826.5347     1553.884    2386.7836   -577.11781    110.50631    1513.1041   -4470.6152 
22308000    146.85196   -4966.0145   -4682.7981   -4966.0145            0     2455.847    20.148227    19.949447    20.641425    8296.7381    1507.3312    3209.2086    2651.0012   -18.327464   -301.30095    -1024.984   -4385.6421 
22309000    145.31344   -4970.1427   -4689.8935   -4970.1427            0    3400.9067    19.952605    19.932941     20.80013    8272.5049    2629.5908    3809.4822     3763.647    -581.4499    1168.8153    240.55431   -4279.5877 
22310000    147.77981   -4975.0827    -4690.077   -4975.0827            0    711.57182    19.958965    20.081104    20.947319    8395.6449   -36.376292    1792.4549    378.63691   -593.55229   -559.82504    142.82105   -4602.9508 
22311000    141.32815   -4952.2444   -4679.6812   -4952.2444            0    795.25798    20.052347    20.068058     20.83846    8385.6394    1090.0511    411.57863    884.14425   -177.85369    160.66878   -182.01959   -4582.4243 
22312000    149.12047   -4948.7841   -4661.1927   -4948.7841            0    3010.6856    20.063195    19.900141    20.844372    8322.3326    3326.9451     3625.268    2079.8435   -669.21072    -328.3117   -407.69684   -4295.7777 
22313000     153.6792   -4971.2323   -4674.8491   -4971.2323            0    1896.7136    20.038838    20.006683    20.872177    8367.8786    1495.4903    2136.1971    2058.4534    -67.63756    1135.6975   -12.615419     -4443.38 
22314000    142.23839   -4960.0675   -4685.7488   -4960.0675            0    2654.5283    20.131167      20.0136    20.760504    8364.3472    2641.6532    2578.3611    2743.5705   -17.035773   -26.975257    -44.96841   -4361.9351 
22315000    146.47819   -4974.0738   -4691.5782   -4974.0738            0    3258.8666    20.006531    20.025824    20.656071    8275.7985    2712.1103    3119.5039    3944.9857   -198.10494    190.67557    462.59139   -4298.2525 
22316000    144.01262   -4940.0897   -4662.3493   -4940.0897            0    1992.6744    20.051083    19.890957    20.969964    8363.5609    2564.1863    2088.6767    1325.1603    307.37675    1467.5493   -168.49804   -4419.2949 
22317000    136.10862   -4955.6479    -4693.151   -4955.6479            0    2437.9042    19.953838    19.989537    20.799312    8296.1797    2708.0369    3257.1716    1348.5042    8.5636546   -555.94295    424.38647   -4398.1859 
22318000     140.6697   -4956.1834   -4684.8901   -4956.1834            0    1840.8709    19.952061    20.089391    20.731524    8309.7081    940.47719    2518.1793    2063.9562   -128.78566     609.3294   -538.03707   -4461.7976 
22319000    137.25056   -4967.7596   -4703.0604   -4967.7596            0    1934.4266    19.858351    20.062234    20.922057    8335.4075    2901.3383    1653.4763    1248.4652    58.958396   -750.70775    1180.3105    -4467.905 
22320000    142.75946    -4955.579   -4680.2554    -4955.579            0    1869.3063    19.927592    20.144797    20.737648    8324.8652    1974.4055    732.19651    2901.3168    186.85227    221.87478   -1330.9909   -4453.3037 
22321000    146.47573   -4962.0776   -4679.5869   -4962.0776            0    1909.3247     20.01013    19.958475    20.878365     8338.228    2111.4635    1526.3796     2090.131   -297.66104    592.77943    201.40281   -4447.4044 
22322000    150.63029   -4942.3688   -4651.8656   -4942.3688            0    2971.1082    20.116108     19.82294    20.919249    8341.7681    1201.3766    5457.3273    2254.6206   -200.42244    114.16055    1670.4744   -4290.4121 
22323000    140.42597   -4972.4919   -4701.6686   -4972.4919            0    3230.4373    20.092173    19.896536    20.728168    8286.3883    3720.3312    2432.9418     3538.039   -392.23172     1802.887    35.095487   -4311.2752 
22324000    131.68841   -4955.4321   -4701.4599   -4955.4321            0    2291.4372    19.882062     19.92487     21.03425    8332.6653    2917.7388    1786.8409    2169.7321    158.50063   -177.65974    458.75335   -4422.9967 
22325000     140.3966   -4962.0959   -4691.3293   -4962.0959            0    2346.8262    20.098568    19.912482     20.67908    8276.0235    1569.2685    2895.6666    2575.5436   -225.98945    763.58712   -460.03654   -4408.0737 
22326000    149.88037   -4975.2493   -4686.1924   -4975.2493            0    1721.3259    19.977356    20.000933    20.884917    8344.8975    1213.2004    2443.9131     1506.864   -450.39679   -1170.0142   -7.6412963    -4476.704 
22327000    133.00727   -4966.7351   -4710.2194   -4966.7351            0    1849.6578    19.882666    20.031887    20.998959    8363.6189    3367.7115    857.68225    1323.5798    296.26231   -84.385211   -251.66548   -4484.6077 
22328000    147.62956   -4950.2215   -4665.5055   -4950.2215            0    1230.0278    20.081889    20.023374    20.799224    8363.5173    1462.6197    945.71012    1281.7537    133.27975    103.97009    349.83041   -4515.4749 
22329000    133.91919    -4950.906   -4692.6316    -4950.906            0    1682.3435    20.123117    19.931013    20.752036    8323.1042        370.1    2430.8243    2246.1062   -43.912936    224.04469     369.4215   -4488.4221 
22330000    143.65808   -4948.3618   -4671.3051   -4948.3618            0    1075.9746    20.074459    19.895739     20.98554    8381.5448    1666.1398    332.93638    1228.8476    179.35601    1175.3129    194.63851   -4539.7821 
22331000    146.94814   -4960.5011   -4677.0992   -4960.5011            0    1374.8501    20.102275    19.973995    20.782095    8344.4838    820.30868    2309.1914    995.05039   -94.566285    997.04575   -89.644358   -4509.7858 
22332000    138.88165   -4967.4502   -4699.6053   -4967.4502            0    1793.8398    20.002876    20.000273    20.955806    8383.6419    1183.8238    2261.2113    1936.4842    77.167697    740.17874   -4.2182207   -4480.2782 
22333000    148.37174   -4963.2926   -4677.1452   -4963.2926            0    1009.2826    19.946832    20.046747    21.017522    8404.2575    931.96898    1829.3068      266.572    9.0465046   -958.55059    521.41993     -4553.44 
22334000    151.47167   -4953.5074   -4661.3816   -4953.5074            0    826.48014    19.950274    20.248237    20.726628    8372.6844    1548.5871    81.320188    849.53313    335.50766   -29.639357    176.22804   -4560.4626 
22335000     137.6885   -4963.0195   -4697.4756   -4963.0195            0    1913.6993    20.150903    20.048191    20.723263    8371.9734    1504.1046    2169.2996    2067.6936   -146.05839    172.67288   -612.02376   -4463.8194 
22336000    144.00506   -4971.8251   -4694.0993   -4971.8251            0    1975.2776    19.955725    20.028543    20.998508    8392.7696    2533.2017    2027.8674    1364.7638   -175.22525    430.88532    727.28572   -4452.3254 
22337000    144.91509    -4972.895    -4693.414    -4972.895            0    2179.1766    20.059916    19.929121    20.830328    8327.4758    794.43628     3595.551    2147.5425    252.16093   -726.94094    528.17071    -4428.758 
22338000     148.0739   -4969.9162   -4684.3432   -4969.9162            0    1627.8836    20.107236    20.083374    20.676189    8349.4826    75.846586    3189.3779    1618.4265   -687.84252    481.94751    122.01338   -4486.1181 
22339000    137.24718   -4977.6174   -4712.9246   -4977.6174            0    2883.4616    20.059976    19.901583    20.838234    8319.1496    2759.0159    2577.5912    3313.7778    325.83295    618.13855    463.64544    -4363.085 
22340000    134.41869   -4949.3227    -4690.085   -4949.3227            0    1395.9402     20.17295    19.904224    20.854452    8373.6239    1255.9955    1025.2238    1906.6013   -465.64175    246.29196    444.24906   -4519.6118 
22341000    145.61637   -4975.0677   -4694.2342   -4975.0677            0    1818.7593    20.166803    19.944862     20.71351     8331.473    1309.2341    2068.0501    2078.9937   -151.80273    27.269018   -931.16611   -4473.2441 
22342000    140.51144   -4961.8156   -4690.8275   -4961.8156            0    1840.1274    20.065642    19.982372    20.860535     8364.222    1722.3385    1356.4741    2441.5695    -289.5667   -506.97389    319.92954   -4466.3621 
22343000    142.16819   -4947.7454   -4673.5621   -4947.7454            0    2793.9376     19.93495    19.891266    21.033692    8340.5191    2557.1728    3680.1579    2144.4821    180.23278    78.457018    970.82448   -4333.7133 
22344000    142.96932   -4959.7882   -4684.0599   -4959.7882            0    3106.4186    20.141146    20.014587     20.68958    8340.3155    4274.1895    1346.0667    3698.9997    29.830064    1295.4147    -407.6509   -4306.2108 
22345000    134.82891   -4963.2044   -4703.1755   -4963.2044            0    3031.9443    20.116801    19.911516    20.640096    8267.5144    3126.3143    2870.4784    3099.0403   -118.46878   -455.05359    738.26752   -4337.6042 
22346000    141.82109   -4950.6504   -4677.1365   -4950.6504            0    2867.8496    19.877713    20.007497    20.964164    8337.5165    3134.4716    2246.4069    3222.6704    377.49311    1195.0697    35.074512   -4328.4229 
22347000    146.48777   -4967.2953   -4684.7813   -4967.2953            0    1475.6346     20.00054    20.012772    20.756919    8308.2943    948.52589    1139.5473    2338.8305     537.5454    743.72054    -456.1935   -4505.9817 
22348000    140.61513   -4959.6524   -4688.4643   -4959.6524            0    1717.0409    19.938059     20.03842    20.836828    8324.8791    2567.7454    701.46727      1881.91    780.46979   -1446.3732    832.13944   -4479.9987 
22349000    141.94823   -4963.2349   -4689.4758   -4963.2349            0    2300.1231    20.139727    19.849448    20.881965    8347.8259    1121.9595    3628.2204    2150.1893    -46.29717     574.1492    146.95094   -4409.4485 
22350000    141.15692   -4957.5929   -4685.3599   -4957.5929            0    1210.1218    20.008707    19.889223    20.893327    8314.6587    2610.8731     560.1524    459.33981    169.42335   -16.700566   -535.05775   -4538.6196 
22351000    140.62805   -4982.0536   -4710.8405   -4982.0536            0    1127.6714    20.138262    19.947929    20.859274    8379.5173   -51.995249    1377.9143    2057.0952     114.2516    588.29228   -500.84117   -4573.0316 
22352000    139.48318   -4957.2077   -4688.2027   -4957.2077            0    -277.5717     20.10021    19.992349    21.029908    8450.8772     -674.309   -258.89753    100.49142   -65.123422    1294.0501   -461.30368   -4722.4127 
22353000    146.28517   -4959.5069   -4677.3837   -4959.5069            0    1579.3645    19.964114    19.960745    20.965225    8354.6129    2422.4341    1062.5124     1253.147    -298.1908  -0.20754853    765.15531   -4484.9484 
22354000    148.29233   -4963.1285   -4677.1343   -4963.1285            0    1548.9835    20.020557    20.138907      20.7027    8347.1658    1767.0259    619.50762     2260.417   -322.50269    1048.6392    240.05639    -4488.569 
22355000     154.2015   -4959.8263   -4662.4357   -4959.8263            0     3116.429     20.01492    19.927561     20.79208    8292.8906    4046.7177    2121.8054    3180.7638   -400.26916    493.94082   -423.62433   -4285.5245 
22356000    136.33433   -4965.7863   -4702.8541   -4965.7863            0    1321.1942    20.039631    19.963964    20.956099    8383.9168    730.84452    1742.1425    1490.5955    169.60978    1431.2046   -345.63692   -4541.3106 
22357000    144.43596   -4963.9552   -4685.3983   -4963.9552            0    1798.5092    20.073619    19.966478    20.836345    8351.1962   -337.80093    3675.6278    2057.7008    237.67138   -65.419917   -189.43349   -4466.3513 
22358000    143.32463   -4951.4031   -4674.9895   -4951.4031            0    3073.2197    19.827934    20.118345    20.742716    8274.3776    3009.4656    2875.7666     3334.427   -221.28323    981.72696    325.03282   -4304.1339 
22359000    135.42747   -4949.3178   -4688.1345   -4949.3178            0    1070.8413     20.00075    20.156765    20.844438    8403.4438    16.678398    1936.4589    1259.3866     92.30334   -29.223379   -799.47009   -4556.8969 
22360000    145.94127   -4951.3004   -4669.8404   -4951.3004            0    1154.6284     20.01231     20.14478     20.70169    8345.7538     1684.319     372.9026    1406.6636   -74.170809    265.56549   -8.2554547   -4529.3056 
22361000    150.81802   -4959.1354   -4668.2701   -4959.1354            0    1507.5285    19.909743    20.001991    20.952084    8343.8426    818.91786    2394.3854    1309.2822   -60.313289    734.15538    558.20077   -4484.8244 
22362000    143.23064   -4954.8187   -4678.5864   -4954.8187            0    2911.0574    19.952603    20.028427    20.889361    8347.7904    3183.5247     3360.771    2188.8765   -277.90816   -85.215428    112.68451   -4324.1827 
22363000    141.10556    -4969.434   -4697.3001    -4969.434            0    2736.0809    19.953774    20.035173    20.718254    8282.6878    2140.1056    2424.3207    3643.8165    203.56958    311.40263    53.731194   -4366.7965 
22364000    147.58935    -4960.585   -4675.9465    -4960.585            0     1197.484    19.929262    20.131368    20.793607    8342.4638    2702.6877    315.21794     574.5465   -506.19188   -62.125351   -690.47884   -4530.2531 
22365000    143.14967   -4958.8447   -4682.7685   -4958.8447            0    2836.1748    19.950571    20.012355    20.922497    8353.4719    3379.6398    2294.1421    2834.7425    -451.2296    572.39537   -831.50901   -4337.2463 
22366000    138.21624   -4968.1928   -4701.6311   -4968.1928            0    2172.5743    20.013012    19.951462    20.945433    8363.2779    3879.5406    1596.4877    1041.6946     318.7985    936.13428    284.58052   -4436.6426 
22367000    134.73665    -4961.161   -4701.3101    -4961.161            0    2587.7684    20.000619    20.032051    20.741538    8310.1684    1968.9824    3169.9787    2624.3441   -117.12634    114.20593    340.80728   -4387.6847 
22368000    135.58374   -4955.5837    -4694.099   -4955.5837            0    2231.2255    19.966524    19.989598    20.877689    8332.7614     2964.582    1444.0489    2285.0457   -153.91602   -331.07301    5.1131355   -4422.9498 
22369000    135.20559   -4962.1444    -4701.389   -4962.1444            0    1220.3003    20.094817     20.14291    20.626311    8348.8727    455.11477    1126.3673    2079.4189   -215.64376    1126.5361   -368.93098   -4552.8056 
22370000    147.51187   -4969.9973   -4685.5083   -4969.9973            0    1985.4273    19.960066    20.045046    20.794347    8319.8271    2251.2449    1596.5859    2108.4509    603.75138   -360.49929   -1156.5066   -4444.6042 
22371000    136.64036   -4967.6495    -4704.127   -4967.6495            0    1769.8037    19.880254    20.033772    20.938593    8339.3491    1747.9026     2811.162    750.34637     111.9432     355.3222    789.23886    -4488.882 
22372000    141.10758   -4942.3617   -4670.2239   -4942.3617            0    2200.6814    19.909327    20.121589    20.910035    8376.7122     3316.251    1067.1632    2218.6299   -130.13184   -632.61584   -688.14461    -4401.376 
22373000    145.67461   -4968.6214   -4687.6757   -4968.6214            0    1769.3605    20.037184    19.999107    20.757743    8318.1631    1279.2079    1996.3092    2032.5645   -317.35218   -12.093891    314.83216   -4473.0313 
22374000    146.17365   -4965.6564   -4683.7482   -4965.6564            0    2297.2294    20.121445    19.938744    20.792588    8341.9099    2416.9407    2245.4708    2229.2766    -273.6508   -138.92464   -398.35146   -4404.2714 
22375000    142.96125   -4949.9332   -4674.2204   -4949.9332            0    1518.0511    20.042659    19.990149    21.059598    8437.6488    1152.6694    2265.8035    1135.6805    141.67879    31.560882   -55.165386   -4487.4174 
22376000    137.21433   -4972.2259   -4707.5965   -4972.2259            0    1573.5722    20.065398    20.012218    20.815701    8358.6098    1218.6799    1685.2157    1816.8211   -140.11029    1425.2371    516.26068   -4515.7753 
22377000    147.69816   -4972.7567   -4687.9084   -4972.7567            0    1768.4732     20.08857    19.944082    20.708384    8296.7747     1100.327    1390.6969    2814.3957   -47.361207    175.53595    61.103185   -4473.9232 
22378000    140.22842   -4965.9201   -4695.4778   -4965.9201            0    1984.6753    20.084905    19.844337    20.985361    8364.1695    1924.0951    2880.3942    1149.5367   -91.578161    1192.4931     39.22992   -4453.3814 
22379000    146.46746   -4947.7259   -4665.2511   -4947.7259            0     1469.707    20.183955    19.923184    20.773707    8353.7028    162.76231     2521.581    1724.7778     242.8687   -589.82671    141.18105   -4486.1964 
22380000    137.95927   -4974.3163   -4708.2503   -4974.3163            0    2113.6918    20.128508    19.917363    20.701849     8299.512    2523.5947    1491.9759    2325.5047   -9.1485733    541.30612    259.19689   -4452.4093 
22381000    136.26383    -4967.103   -4704.3067    -4967.103            0    2109.8634    19.910605    19.843095    21.137602    8351.2132    1710.1273    3575.6422    1043.8208   -159.04816    206.21977    1060.9319   -4447.3382 
22382000    151.48023   -4958.0724   -4665.9301   -4958.0724            0    1858.7893    20.000162    20.141643    20.842208    8395.9942    2477.4324    2125.6474    973.28817   -392.55942   -239.79552    835.01172    -4438.327 
22383000    148.90978    -4955.913    -4668.728    -4955.913            0    1115.9095    20.107894    20.015346      20.8185    8378.7482    407.57405    2078.3906    861.76382    228.35727   -533.73802   -761.41445   -4532.3689 
22384000    139.09729   -4970.9391   -4702.6783   -4970.9391            0    1052.9394    20.117247    19.993744    20.889971    8402.3448    1000.3093    343.04031    1815.4686   -433.47724    1203.7052    805.29412   -4573.6515 
22385000    144.53841   -4969.1399   -4690.3855   -4969.1399            0    1182.4415    20.134628    19.892885    21.005193    8413.3325    892.02427    1375.4947    1279.8056   -109.90598    1074.2908   -175.09762   -4545.3001 
22386000    141.09545   -4954.4803   -4682.3659   -4954.4803            0    1226.2851    20.164603    19.870005    20.878704    8365.4862    436.41438    1950.8086    1291.6323   -342.66999    -159.0222   -792.07271   -4532.7566 
22387000    142.70862   -4970.0212   -4694.7956   -4970.0212            0    2026.7997    20.157192     19.86163    20.741556    8303.9796    591.05536    2424.4138    3064.9299   -335.93891    123.48993    121.59156     -4449.34 
22388000    135.40208   -4948.7278   -4687.5935   -4948.7278            0    2927.1253    20.100082    19.772757    20.760941    8251.1048    1993.8366    3901.7381     2885.801   -70.141263   -374.09509    690.82889   -4335.3611 
22389000    134.84306   -4971.3616   -4711.3054   -4971.3616            0     2078.974    20.088527    20.035709    20.754533    8353.4478    1738.0905      1308.63    3190.2016      -138.01    1090.4705    262.57411   -4458.0313 
22390000    145.81847   -4962.7149   -4681.4917   -4962.7149            0    1531.1992    20.019641    20.165348    20.770443    8385.0906     2052.759     1318.621    1222.2176   -194.95689    857.30293    48.575459   -4494.2445 
22391000     137.0238   -4957.8029    -4693.541   -4957.8029            0    793.88405    19.887842    20.065719    21.077147    8411.1275    105.05892    1904.0054    372.58784   -216.38158   -1205.0112    35.946017   -4596.1571 
22392000    145.14152   -4971.2004   -4691.2828   -4971.2004            0      1816.53    19.970021    20.116597    20.727568    8326.8624    1704.7294    1049.3836    2695.4771   -175.82124   -47.793516    1057.8032   -4470.6857 
22393000    138.74768   -4960.3446   -4692.7581   -4960.3446            0    1783.6341    19.972013    20.028607    20.789488    8316.0362    15.413416    2910.9976    2424.4913    542.56382   -841.71934    1070.3932   -4476.4374 
22394000    146.33825   -4966.8171   -4684.5915   -4966.8171            0     2705.538    19.952878    20.000351    20.778469    8291.9507    3069.7239    1907.2837    3139.6064   -46.083607   -146.17914    1018.4635   -4357.4119 
22395000    141.93119   -4959.2575   -4685.5312   -4959.2575            0    1897.6573    20.209631     19.86544    20.744405    8328.3232   -767.46099    3803.4775    2656.9554   -535.33931    620.81803    1071.6019   -4455.0417 
22396000    142.80582   -4972.4244   -4697.0113   -4972.4244            0    1613.0544     20.07077    19.914713    20.884035    8347.4247    735.06834    2866.8128     1237.282    207.15343    559.30671    743.16455   -4500.6403 
22397000    142.77163   -4980.4649   -4705.1178   -4980.4649            0    1724.0891    20.103996    19.902643    20.844923    8340.5261    278.05488    3288.1694    1606.0429   -55.815385    494.11377   -239.34511    -4495.403 
22398000    139.96736   -4967.9323   -4697.9935   -4967.9323            0    1465.3746    20.144595    19.858334    20.850569    8341.0218      1333.88     1753.096    1309.1479   -544.82177   -709.17369   -211.36886   -4519.7376 
22399000    147.46966   -4957.9718   -4673.5641   -4957.9718            0    2011.6751     20.04862    19.869708    20.844552    8303.6405    696.51393    3326.3375    2012.1737   -228.61533   -323.24923    1154.5463   -4429.9501 
22400000    138.08425   -4959.2895   -4692.9825   -4959.2895            0    2299.8288    20.050088    19.943895    20.937666    8372.4881    3360.0012    1853.2337    1686.2515   -66.768868    540.94496    27.944652   -4412.1638 
22401000     146.3005   -4950.5916   -4668.4388   -4950.5916            0    593.81732    20.060412    20.010152    20.979724     8421.511    1518.4086    448.92234   -185.87893   -641.20234    30.820381    119.60651   -4595.5067 
22402000    148.20341   -4961.5318   -4675.7091   -4961.5318            0    2225.8195    19.923531    19.941394    20.834406    8277.5716    2219.8597    2505.6073    1951.9915   -174.87694    220.73902    757.07204   -4407.0084 
22403000    138.08179   -4954.2015   -4687.8991   -4954.2015            0    1444.8302    20.198281    19.923972    20.696458    8328.8754    400.42694    1821.8158    2112.2478    3.8967864   -419.20908   -11.198684   -4512.3983 
22404000    142.26313   -4962.0665   -4687.7001   -4962.0665            0    2371.1372     20.01856    20.053922    20.874677    8380.1529    2461.4748    1705.5502    2946.3867   -95.431673   -501.05377    1189.2963   -4397.9093 
22405000    139.95231   -4962.1536   -4692.2438   -4962.1536            0    1704.3185    20.066537    19.971376    20.905979     8378.204    1785.4307    1787.6077     1539.917    215.72334    764.89639    98.809609   -4483.9974 
22406000    139.70724   -4970.7314   -4701.2942   -4970.7314            0    1634.7668    20.061979    20.010831      20.7479    8329.3867    999.82349    2432.8882    1471.5886   -643.14581   -686.44978    739.34728     -4502.71 
22407000     140.8095   -4952.8018   -4681.2389   -4952.8018            0    1170.8341    19.990419     19.90371    20.983782    8349.1008     281.9017    2581.9339     648.6668    46.464964   -580.12022   -268.53944   -4538.6745 
22408000    134.18341   -4967.7841   -4709.0001   -4967.7841            0     1792.167    19.899059    19.975179    20.966481    8333.9095    1611.4726    1925.9154     1839.113   -189.10399   -1065.9314   -446.30968   -4491.1774 
22409000    136.00314   -4960.1392   -4697.8457   -4960.1392            0     2709.161    19.977566    20.077566    20.692232     8299.673    3690.1516    1978.4726    2458.8587    87.545601    63.750026    576.81205   -4369.9228 
22410000    147.84191   -4973.5403   -4688.4147   -4973.5403            0    2391.9122    20.068575    19.884533    20.917998     8347.416    2802.3671    1814.2642    2559.1054    153.87282    783.08828    313.35261   -4397.2269 
22411000    137.36376   -4963.8258   -4698.9082   -4963.8258            0    2249.1734    20.180825    20.006584    20.786883    8392.6909    2735.8165    1645.8349    2365.8687   -390.26744    385.26105   -465.22505   -4423.6121 
22412000    140.54283   -4952.8732   -4681.8246   -4952.8732            0    1896.7234    19.994784     20.06719    20.778939    8337.3235    2821.8487    956.66275    1911.6588    39.093549   -456.63592    1047.8086   -4451.1995 
22413000     151.0169   -4973.3578    -4682.109   -4973.3578            0    3135.6686    19.885591    19.949479    20.892082     8288.039    4391.0431    2248.5614    2767.4013   -254.11635    1201.4105   -125.36749   -4303.0928 
22414000    137.94618   -4964.7066   -4698.6658   -4964.7066            0    964.85675    20.071649    20.079318    20.840484    8399.2365    590.46964    555.12046    1748.9801    159.70382   -759.89013   -62.159566   -4580.4764 
22415000    147.32465   -4971.4689   -4687.3409   -4971.4689            0     3031.003    19.978639    20.051224      20.6465    8270.9084    3694.7297    1828.0693      3570.21   -52.700438    510.03156   -305.06824   -4321.7331 
22416000    146.34393   -4956.1043   -4673.8677   -4956.1043            0     2740.546    19.988827    19.906123     20.87529    8306.2791     2628.323    2972.4302    2620.8847    184.83538     271.3567    -1542.158   -4341.8819 
22417000    148.91854   -4973.7731   -4686.5712   -4973.7731            0    2161.1498    20.100187     19.86929    20.858371     8330.342    434.09872    3351.4501    2697.9004   -550.55702    354.46266   -711.67974   -4424.0142 
22418000    146.94731   -4951.7999   -4668.3996   -4951.7999            0    1713.5435    20.080387    20.046118     20.74181    8349.2799    394.41771    2507.7109     2238.502    525.62933   -129.38924    283.43735   -4459.7488 
22419000    149.82554   -4956.6973   -4667.7461   -4956.6973            0    2776.7363    19.869385    20.059372    20.947064    8348.8164     3991.749    2334.1283    2004.3317   -73.187526   -343.24985    270.03821   -4329.6537 
22420000    143.44252   -4960.6323   -4683.9913   -4960.6323            0    1003.4512     20.06031    20.071757    20.832239    8388.0109    712.45063    1716.1885    581.71438      573.842    981.89026   -1300.5441   -4561.2386 
22421000     145.1662   -4954.9043   -4674.9391   -4954.9043            0    1441.3049    20.003547    19.992738    20.989296    8394.1586    710.38611    2435.5929    1177.9356    38.316286    9.4047266    838.38508   -4498.4943 
22422000    138.83822   -4963.4346   -4695.6735   -4963.4346            0    881.22374    19.942036    20.136219    20.874172     8382.174    940.31231    142.12596    1561.2329   -310.86056   -42.862986    221.25165   -4587.9479 
22423000    139.30175   -4970.2721   -4701.6169   -4970.2721            0    2937.3628    19.992787     19.90008    20.898881    8314.7884    2465.5911    3925.6903     2420.807   -228.53412    683.21673   -387.01715   -4345.4245 
22424000    141.06643   -4960.8699   -4688.8114   -4960.8699            0     1412.078    20.070663    20.116815     20.82704    8409.0803    391.04325    2360.8524    1484.3385    250.80371    911.65665   -167.79221   -4515.6372 
22425000    142.91907   -4968.6769   -4693.0455   -4968.6769            0    2683.6367    20.046426    20.078294    20.680253    8323.7613     2035.431    3467.8794    2547.5997    40.253146     1067.331   -688.36218   -4367.2694 
22426000    141.35201   -4977.1012    -4704.492   -4977.1012            0    2513.2686    19.905789    19.986586    20.893151    8312.3144    3243.3582     1734.841    2561.6064   -218.88386    87.091756    721.88399    -4399.817 
22427000    146.65822   -4964.9516   -4682.1089   -4964.9516            0    2362.3609    19.924722    19.965348    20.972895    8343.1015    4237.4635    781.99141    2067.6277    252.61403   -353.94867   -437.51166   -4394.6673 
22428000    143.95059    -4961.279   -4683.6582    -4961.279            0    2300.3768     20.05262     20.09799     20.66285     8327.487    2089.5401    2139.7197    2671.8705    352.08219    182.68103    363.03758   -4404.2824 
22429000    141.05867   -4942.4129   -4670.3694   -4942.4129            0    1892.6324    19.944531    20.161623    20.847379    8383.0253    2609.3564    1662.3662    1406.1745    92.461326     546.4378   -867.92015   -4438.9803 
22430000    140.51832   -4946.1972   -4675.1957   -4946.1972            0    1824.7613    20.005502    19.858357    20.992263    8339.7305    2933.7506    1243.9326    1296.6006    180.52698    -259.6709    149.41553   -4453.2566 
22431000    135.11891   -4954.9072    -4694.319   -4954.9072            0    2186.2066    20.052545    20.026116    20.792016    8349.5453    2169.2112    2136.9133    2252.4952    135.75658    483.71835    1419.4504   -4428.1056 
22432000    141.29356   -4959.5649   -4687.0684   -4959.5649            0    2183.1139    20.035037    19.936981    20.890921     8344.631     1687.232    2154.3042    2707.8055   -470.03962    980.18889    1.5217533    -4421.388 
22433000    135.83771   -4963.1753   -4701.2008   -4963.1753            0    1191.4882    19.880249    19.967566    21.115255    8381.9155    1288.4527    1294.3264    991.68547    46.182408   -107.01108   -104.00491   -4555.5514 
22434000    137.39524   -4966.0718   -4701.0935   -4966.0718            0    984.00795    20.122793    20.005792    20.731781    8346.0432    74.829735    2429.5261    447.66806   -79.870904    261.90455    402.94715   -4581.3216 
22435000    145.76494   -4956.7955   -4675.6756   -4956.7955            0     3491.624    20.090191     19.92695    20.757286    8309.8935    1678.7655    5085.6851    3710.4214   -470.93533    351.77199   -470.35077   -4252.5212 
22436000    140.97729   -4943.3062   -4671.4196   -4943.3062            0    1101.2862    19.916341    20.077328    21.129195    8448.8658    1691.5655    913.42678    698.86617   -8.7722212    -220.9104    221.58039   -4535.7213 
22437000    135.61348   -4953.9024   -4692.3604   -4953.9024            0    1648.8047    20.052014    20.061302    20.789341     8362.918    1882.8535    915.74438    2147.8162    402.24309    108.21965    123.82179   -4491.2646 
22438000    145.99382   -4962.8004   -4681.2391   -4962.8004            0    1859.3784    20.044016    19.901725    21.018342     8384.437    1261.1811    2730.8223    1586.1319    34.228864   -370.63193   -316.62808   -4453.8772 
22439000    138.62891   -4971.4312   -4704.0737   -4971.4312            0    2014.9086    20.065547    19.928465    20.821936    8326.1834    1919.4048    2708.8417    1416.4794   -138.55107    298.59644    664.24119   -4459.4056 
22440000    147.98606   -4948.9028   -4663.4993   -4948.9028            0    2123.9687    20.017291    19.939683    20.837253    8316.9488    3130.4165     1304.944    1936.5455    259.55563    223.20848    930.70953   -4405.8743 
22441000     141.3773   -4955.9153   -4683.2573   -4955.9153            0    1670.7625    20.106616    19.835795    20.917593    8342.5785    1899.0593    2366.1728    747.05548    105.85991    71.385406   -70.262092   -4479.9791 
22442000    142.48315   -4954.4542   -4679.6635   -4954.4542            0    3021.6906    19.980383    19.955542    20.862433    8318.2561    2865.8022    3378.3701    2820.8995   -122.83611     145.5972   -190.60295   -4313.0924 
22443000    144.57794   -4962.3997    -4683.569   -4962.3997            0    1771.9379    20.127705    20.002428    20.691456    8330.4414     1053.328    2422.4877    1839.9981   -146.10918     534.1815   -1316.4037   -4468.2946 
22444000     144.7613    -4953.975   -4674.7907    -4953.975            0    1444.3293    20.062979    20.014268    20.803734    8353.6526    880.48366    1500.9569    1951.5472   -362.77237   -790.56676    485.12025   -4498.8289 
22445000    146.80989   -4966.7483    -4683.613   -4966.7483            0    1938.8442    19.975275    19.841658    21.271481    8430.7933    3890.6235    1548.4648    377.44424   -31.530978    208.39838   -368.33676   -4445.2235 
22446000    144.42856   -4970.3726     -4691.83   -4970.3726            0    1424.6718    19.950156    20.130192    20.844428    8371.1321    1469.1154    1445.0544    1359.8456    147.25875   -564.28696   -909.85982   -4517.8998 
22447000    142.21352   -4960.2548   -4685.9841   -4960.2548            0     2012.648    19.988607    20.097606     20.76167    8340.4432    3675.5478    184.01514     2178.381     238.0827    708.61237     -225.574    -4441.172 
22448000    140.34003   -4953.9372   -4683.2797   -4953.9372            0      2771.49    20.005065    20.047638    20.795848    8340.2642      2731.77    3212.9585    2369.7415    156.06719   -418.91734   -1143.5036   -4346.1717 
22449000    146.38377   -4952.0203   -4669.7069   -4952.0203            0    3148.0679    20.082324    19.863863    20.800005    8297.3828    3745.1063    3011.2292    2687.8683   -195.84297    1307.1427    125.67271   -4288.7629 
22450000    143.66038   -4972.9151   -4695.8539   -4972.9151            0    2667.1046    20.044396    19.917718    20.886695    8338.7754    2629.8276     2955.596    2415.8901     12.79347      1171.44    265.25621   -4371.5007 
22451000    136.04047    -4952.054   -4689.6885    -4952.054            0    1279.6318    20.064026    19.995145    20.845654    8362.9243    492.85081    1715.3879    1630.6568   -320.31367    525.71331    751.57691   -4533.6186 
22452000      146.578   -4968.4138   -4685.7258   -4968.4138            0    565.37631    20.077458    19.994578    20.846321    8368.5534   -394.67769    973.22619    1117.5804   -34.732607    54.752541   -320.80997   -4616.7235 
22453000    138.17187   -4968.3225   -4701.8464   -4968.3225            0    2326.6776    19.891597    20.076132    20.825585     8316.621    2555.6759    2654.3788    1769.9781   -553.59362    460.88752   -945.40634   -4419.6451 
22454000    137.18184   -4960.7419   -4696.1752   -4960.7419            0    3691.4882    19.958731    19.891582     20.75384    8239.4972    4075.5645     2716.788    4282.1123    -52.93227    760.94097    167.12241   -4252.5889 
22455000    138.69916   -4973.0436   -4705.5506   -4973.0436            0    1868.5319    20.145977    19.925833    20.658099     8292.685    782.76912     2118.224    2704.6024    177.33708   -535.94961    794.74679   -4479.5698 
22456000    142.57681   -4977.6557   -4702.6843   -4977.6557            0    1844.5778    19.916722    19.960149    21.035676    8362.5383    2002.0198    2435.6512    1096.0625   -228.82693    717.24433      -714.19   -4477.7214 
22457000    138.73433   -4959.2629   -4691.7021   -4959.2629            0    836.81025    19.925444    20.125758    20.956992    8404.0608     1714.345    453.89311    342.19269   -291.95543    1042.6611    203.78328   -4589.1388 
22458000     140.3441   -4952.5699   -4681.9045   -4952.5699            0    1667.2046    20.162241    20.050988    20.627255     8339.039    797.08529    1137.8533    3066.6751   -473.18145   -968.91996   -527.45431   -4479.1452 
22459000    148.37187   -4979.2812   -4693.1336   -4979.2812            0    396.62095    20.048896    20.015231    20.941008    8403.2764    1055.5362   -980.55489    1114.8816    83.543373     221.7646    136.01252   -4644.5265 
22460000    155.56421   -4967.7759   -4667.7573   -4967.7759            0    2244.0998    19.891828    20.143293    20.703433    8295.5948     2290.706    1420.2545     3021.339   -298.08917    194.39512   -927.19646   -4396.2599 
22461000    142.59368   -4963.4511   -4688.4472   -4963.4511            0     2970.769    19.962341    20.007669    20.777223    8298.4208    992.78304    4575.4504    3344.0737   -311.16224    529.22158   -561.90705   -4328.9129 
22462000    140.81182   -4957.1124    -4685.545   -4957.1124            0    895.83676    19.974429    20.089693    20.913451    8392.1525    1354.2829     -125.977    1459.2044   -589.23902    44.742251   -27.375427   -4575.9027 
22463000    153.03295   -4969.5078   -4674.3709   -4969.5078            0    2635.2953    20.037465    20.025305    20.821815    8354.8855     2774.819     2435.371    2695.6961   -189.23616    713.54693    508.44873   -4353.2669 
22464000    139.31913   -4952.2439   -4683.5553   -4952.2439            0    1100.3103    20.187703    19.983329    20.744333    8368.6272    367.01106     1601.756    1332.1638   -162.13045    600.63409    587.74237   -4549.2648 
22465000    134.01513   -4970.4364    -4711.977   -4970.4364            0    1799.4225    20.073013    19.891712    20.962924    8370.2143     1235.656    2513.5904    1649.0211   -224.31857    644.24738   -158.85006   -4492.3197 
22466000    137.52398   -4959.1246   -4693.8981   -4959.1246            0    1484.1686    20.210436    19.881613    20.740859    8334.0103    1228.7304      1680.55    1543.2255   -40.516803     74.11687    1.9166019   -4513.5078 
22467000    139.62866   -4976.1525   -4706.8669   -4976.1525            0    2347.0267    19.970304    20.008656    20.769521    8299.0629    1906.4875    2728.0455    2406.5471     114.6174   -183.19786   -885.68283   -4422.7984 
22468000    147.01499   -4960.0388    -4676.508   -4960.0388            0    1441.1266    19.952833    20.063991    20.927243    8377.8754    2662.7295    277.41336     1383.237    55.278683    692.56438    314.16549   -4500.4273 
22469000    141.51177   -4953.3108   -4680.3934   -4953.3108            0    2150.0806    19.980832    20.055392    20.891907    8371.8762     1769.103    2742.0689    1939.0699      344.555    332.87094     1057.014   -4417.8789 
22470000    141.11284   -4976.2915   -4704.1435   -4976.2915            0     2236.093     20.11603    19.999043    20.692737    8324.7161    1516.5694    2882.5062    2309.2035    170.49563     96.22337    535.93398   -4432.6652 
22471000     144.2551   -4970.7911    -4692.583   -4970.7911            0    1324.3427    20.050914    19.998424    21.038306    8436.0804    609.74389    2477.0616    886.22251   -558.19835    927.74434     322.1495    -4529.647 
22472000    139.54141   -4968.8176   -4699.7002   -4968.8176            0    1618.7197    19.984311    19.969411    20.962513    8365.6129    2195.8885    1005.4761    1654.7944   -109.31587    590.43277   -1030.1486   -4502.2101 
22473000    142.30221   -4973.0978    -4698.656   -4973.0978            0    2572.8972    20.047421    20.018245    20.732538    8320.2617    2836.6353    2981.3056    1900.7507   -146.83763    403.90414    64.202214   -4386.4543 
22474000     144.2639   -4967.6415   -4689.4165   -4967.6415            0    1145.8658    20.030022     19.99779    20.979554    8403.4898    538.08084    2555.0985    344.41806    172.51914    600.14517    38.703045   -4548.9834 
22475000    138.45935   -4966.0806   -4699.0501   -4966.0806            0    2066.4898      20.0616    19.952355    20.858363    8349.1057    1095.8756    3348.8787    1754.7151   -404.20332   -222.67447    408.70083   -4447.4278 
22476000    140.93696    -4960.832   -4689.0232    -4960.832            0    965.63947    20.032918    19.918545    20.998915    8379.1253    1684.6936    701.62815    510.59665   -436.39811    115.15955   -352.18149   -4571.0211 
22477000    148.55322   -4936.2898   -4649.7924   -4936.2898            0    1939.3716     20.03363    19.991129    20.762599    8315.3146    2284.6207    797.13972    2736.3545    314.78526   -418.94363   -300.87633   -4414.6041 
22478000    148.86911   -4960.8779   -4673.7713   -4960.8779            0    1650.9884     20.06515    19.882616     20.94746    8356.9402    2315.8394    1236.1905    1400.9352   -168.63629    288.52352       692.43   -4472.5532 
22479000    148.76144   -4964.8939    -4677.995   -4964.8939            0    2237.8298    20.098795    19.939044    20.807576    8338.6517    2607.6154    2298.4103    1807.4637   -872.95983   -306.49653   -18.920929   -4405.8509 
22480000    151.73788   -4959.4999   -4666.8606   -4959.4999            0    1005.9078    20.109516    20.013424    20.687208    8325.7797   -130.68693    1248.0956    1900.3146    34.197876      1026.85    139.95946   -4544.7203 
22481000    145.67134   -4948.7696   -4667.8302   -4948.7696            0    3734.2181    20.051171    19.842797     20.81691    8282.4516     2524.376    5053.0408    3625.2376   -331.14661    189.89007    -852.7898     -4216.77 
22482000    142.46859   -4957.5429   -4682.7802   -4957.5429            0    1914.5996    20.119137    19.821542    20.911924    8339.5148    2095.6004    2409.8923     1238.306   -704.67111   -436.58247    461.28575   -4449.9204 
22483000    146.46185   -4976.7162   -4694.2522   -4976.7162            0    2533.5613    20.028301    19.981829    20.771136    8312.6516    3819.7062    1564.9095    2216.0682   -311.15231    1000.2985   -758.84043   -4387.1048 
22484000    142.77224   -4951.6911   -4676.3428   -4951.6911            0    1968.3549    19.985314    20.003912    20.895306    8353.6187    2613.7813    1902.9919    1388.2916   -197.14991    604.29748   -106.27683   -4436.5402 
22485000    134.14872   -4961.8684   -4703.1513   -4961.8684            0    1486.6496    20.041541    19.944055    21.004134    8395.5537    1708.2341    1730.5132    1021.2014    126.52013    1348.5392    274.01754   -4521.1252 
22486000     137.6157   -4966.4207   -4701.0172   -4966.4207            0    1589.7124    20.100224    19.938111    20.810922    8340.1955    104.78562    2255.3301    2409.0216   -226.45486    36.854354   -844.14387   -4507.6554 
22487000    138.47151   -4952.5018   -4685.4478   -4952.5018            0    2367.7802    20.086062    19.922081    20.786543    8317.8629    2129.8754    2101.8357    2871.6296   -361.14666    796.90221     456.8203   -4398.2183 
22488000    143.65424   -4954.3272   -4677.2779   -4954.3272            0    754.76321    20.148847     19.86862     20.99982    8406.8536    290.75322    1538.0296    435.50681   -35.032942    -274.5952    856.65305   -4584.7399 
22489000    136.10658   -4952.7825   -4690.2895   -4952.7825            0    631.71737    20.197572    19.973108    20.812496    8395.9332    766.45611    840.67803    288.01798   -383.90531    1120.5822   -822.54553   -4612.9382 
22490000    142.78351   -4957.3438   -4681.9738   -4957.3438            0    2318.5817    20.040684    19.946642     20.83169    8327.3502    3339.1195    2675.9318     940.6937    291.30479   -1007.2153    126.68551   -4400.3917 
22491000    131.65032   -4952.2362   -4698.3374   -4952.2362            0    1566.0018    19.882747    20.092503    20.918977    8357.0089    2383.9565    508.60394    1805.4449    194.46605    368.00101     -1467.73   -4507.4757 
22492000    143.73488   -4964.4527   -4687.2479   -4964.4527            0     3360.519    19.928598    19.958888    20.990126    8348.8781    4495.4118    2636.7526    2949.3925   -114.63228    -1282.995   -1096.5292   -4278.0717 
22493000    145.31322   -4957.5442   -4677.2954   -4957.5442            0    2170.4559    19.993644    19.952718    20.927597    8348.5947    2523.5749    2363.3759     1624.417    271.51306    1522.7083   -461.46634     -4413.03 
22494000      146.145   -4957.7856   -4675.9326   -4957.7856            0    1564.1029    20.045407    19.970178     20.86356     8351.899    3240.5132    482.30048     969.4951   -140.34405    1208.7012    41.818074   -4485.4188 
22495000    147.16947    -4946.568   -4662.7393    -4946.568            0    2094.2678    20.003581    19.928433    20.877711    8322.6907    1641.4513     2826.248    1815.1041    -316.9383   -103.37857    955.80418   -4408.5414 
22496000     146.1433   -4957.2256   -4675.3759   -4957.2256            0    2034.2387      20.0151    20.021425    20.902652    8376.3372    3266.7265    1451.3978    1384.5919    683.68767   -15.663016   -276.86773   -4426.8727 
22497000    141.57787   -4965.4957   -4692.4509   -4965.4957            0    1381.1642    20.034093    20.128277    20.983074    8461.4619    1381.0665    1425.2896    1337.1365   -381.69522    110.15897    254.94475   -4522.0128 
22498000    143.22778   -4950.9227   -4674.6958   -4950.9227            0    2973.8861    19.926334    20.086689    20.770148    8313.3365    2709.6912    1912.7666    4299.2006    308.23676    325.60594   -876.99141   -4314.1375 
22499000    139.34484   -4970.0639   -4701.3257   -4970.0639            0    745.79687    20.106417    19.976948    20.832723    8367.7727   -614.69755    1945.2806    906.80759   -37.511131   -284.09737   -178.16103   -4610.3121 
22500000    155.57181   -4963.8586   -4663.8253   -4963.8586            0    2669.5914    19.969899     19.84967    21.095066     8361.998    2680.7612     3225.043      2102.97    65.933715   -146.53488   -177.20254   -4338.2655 
Loop time of 367.9 on 64 procs for 250000 steps with 972 atoms

Performance: 117.423 ns/day, 0.204 hours/ns, 679.532 timesteps/s
195.1% CPU use with 32 MPI tasks x 2 OpenMP threads

MPI task timing breakdown:
Section |  min time  |  avg time  |  max time  |%varavg| %total
---------------------------------------------------------------
Pair    | 26.795     | 35.42      | 50.725     |  87.9 |  9.63
Bond    | 1.0162     | 1.2613     | 2.2711     |  18.9 |  0.34
Kspace  | 159.23     | 175.61     | 185.03     |  43.2 | 47.73
Neigh   | 1.0018     | 1.0668     | 1.184      |   4.8 |  0.29
Comm    | 61.738     | 66.484     | 69.478     |  22.8 | 18.07
Output  | 0.50095    | 0.50127    | 0.50289    |   0.0 |  0.14
Modify  | 70.572     | 72.493     | 76.628     |  16.3 | 19.70
Other   |            | 15.06      |            |       |  4.09

Nlocal:        30.3750 ave          35 max          22 min
Histogram: 1 0 1 5 3 1 7 5 3 6
Nghost:        2609.50 ave        2652 max        2588 min
Histogram: 6 8 4 5 2 1 0 3 1 2
Neighs:        9424.00 ave       11858 max        6936 min
Histogram: 3 1 4 3 4 6 2 4 3 2

Total # of neighbors = 301568
Ave neighs/atom = 310.25514
Ave special neighs/atom = 2.0000000
Neighbor list builds = 3198
Dangerous builds = 0

unfix		3
unfix		2
unfix		1

write_data	data.final.${pid}
write_data	data.final.1
System init for write_data ...
PPPM initialization ...
  extracting TIP4P info from pair style
  using 12-bit tables for long-range coulomb (../kspace.cpp:340)
  G vector (1/distance) = 0.37226606
  grid = 24 24 25
  stencil order = 5
  estimated absolute RMS force accuracy = 0.003424306
  estimated relative force accuracy = 1.0312196e-05
  using double precision FFTW3
  3d grid and FFT values/proc = 3458 576
Last active /omp style is kspace_style pppm/tip4p/omp
WARNING: Not all mixed pair coeffs generated from mixing. Use write_data with 'pair ij' option to store all pair coeffs. (../write_data.cpp:312)

write_restart   restart.lmp.${pid}
write_restart   restart.lmp.1
System init for write_restart ...
PPPM initialization ...
  extracting TIP4P info from pair style
  using 12-bit tables for long-range coulomb (../kspace.cpp:340)
  G vector (1/distance) = 0.37226606
  grid = 24 24 25
  stencil order = 5
  estimated absolute RMS force accuracy = 0.003424306
  estimated relative force accuracy = 1.0312196e-05
  using double precision FFTW3
  3d grid and FFT values/proc = 3458 576
Last active /omp style is kspace_style pppm/tip4p/omp
Total wall time: 0:06:07
