LAMMPS (30 Jul 2021)
  using 1 OpenMP thread(s) per MPI task
package omp 0
using multi-threaded neighbor list subroutines
echo both

include		in.partitions
variable        pid world 0
include		in.temp
variable        temperature equal 252.12
variable	tempDamp equal 100.0
include		in.pressure
variable        pressure equal 5625.0
variable        pressureDamp equal 1000.0 # This is 1 ps
include		in.seed
variable        seed world 745823

units		real
atom_style	full
read_restart    restart.lmp.${pid}
read_restart    restart.lmp.0
Reading restart file ...
  restart file = 30 Jul 2021, LAMMPS = 30 Jul 2021
  restoring atom style full from restart
  triclinic box = (-3.2328886 -0.055394425 -0.13363266) to (14.842888 22.635393 19.363631) with tilt (-0.079116981 -6.2993853 0.13501368)
  4 by 4 by 4 MPI processor grid
  restoring pair style lj/cut/tip4p/long/omp from restart
  restoring bond style harmonic/omp from restart
  restoring angle style harmonic/omp from restart
  1008 atoms
  672 bonds
  336 angles
Finding 1-2 1-3 1-4 neighbors ...
  special bond factors lj:    0        0        0       
  special bond factors coul:  0        0        0       
     2 = max # of 1-2 neighbors
     1 = max # of 1-3 neighbors
     1 = max # of 1-4 neighbors
     2 = max # of special neighbors
  special bonds CPU = 1.565 seconds
  read_restart CPU = 1.977 seconds

include 	in.setup
variable	out_freq equal 1000
variable	out_freq2 equal 10000
variable	out_freq3 equal 1000

timestep	2.0

neigh_modify    delay 7 every 1

include		in.tip4p
# This is TIP4P/Ice

# create groups ###
group ox type 2
336 atoms in group ox
group hy type 1
672 atoms in group hy

# set charges - beside manually ###
set group ox charge -1.1794
Setting atom values ...
  336 settings made for charge
set group hy charge 0.5897
Setting atom values ...
  672 settings made for charge

# ### TIP3P Potential Parameters ###
pair_style lj/cut/tip4p/long/omp 2 1 1 1 0.1577 8.5
pair_coeff 1 1*2 0.000 0.000
pair_coeff 2 2 0.21084 3.1668
bond_style  harmonic
bond_coeff  1 450 0.9572
angle_style harmonic
angle_coeff 1 55 104.52
kspace_style pppm/tip4p/omp 1.0e-5
pair_modify tail yes

thermo          ${out_freq}
thermo          1000
thermo_style    custom step temp pe etotal epair emol press lx ly lz vol pxx pyy pzz pxy pxz pyz enthalpy

restart 	${out_freq3} restart.lmp.${pid} restart2.lmp.${pid}
restart 	1000 restart.lmp.${pid} restart2.lmp.${pid}
restart 	1000 restart.lmp.0 restart2.lmp.${pid}
restart 	1000 restart.lmp.0 restart2.lmp.0


include         in.dump
dump            myDump all atom ${out_freq2} dump.water.${pid}
dump            myDump all atom 10000 dump.water.${pid}
dump            myDump all atom 10000 dump.water.0
dump            myDump2 all dcd ${out_freq2} dump.dcd
dump            myDump2 all dcd 10000 dump.dcd
dump_modify     myDump append yes
dump_modify     myDump2 append yes


variable natoms 	equal  "count(all)"                        # NUMBER ATOMS
variable H      	equal  "enthalpy/v_natoms"                 # ENTHALPY-per-atom
variable Vol      	equal  "vol/v_natoms"                 # volume-per-atom
fix AVG all 		ave/time ${out_freq} 1 ${out_freq} v_Vol v_H file vol_enthalpy.dat
fix AVG all 		ave/time 1000 1 ${out_freq} v_Vol v_H file vol_enthalpy.dat
fix AVG all 		ave/time 1000 1 1000 v_Vol v_H file vol_enthalpy.dat



fix 		1 all shake 1e-6 200 0 b 1 a 1
       0 = # of size 2 clusters
       0 = # of size 3 clusters
       0 = # of size 4 clusters
     336 = # of frozen angles
  find clusters CPU = 0.002 seconds
fix             2 all nph tri ${pressure} ${pressure} ${pressureDamp}
fix             2 all nph tri 5625 ${pressure} ${pressureDamp}
fix             2 all nph tri 5625 5625 ${pressureDamp}
fix             2 all nph tri 5625 5625 1000
fix             3 all temp/csvr ${temperature} ${temperature} ${tempDamp} ${seed}
fix             3 all temp/csvr 252.12 ${temperature} ${tempDamp} ${seed}
fix             3 all temp/csvr 252.12 252.12 ${tempDamp} ${seed}
fix             3 all temp/csvr 252.12 252.12 100 ${seed}
fix             3 all temp/csvr 252.12 252.12 100 745823


run             250000
PPPM initialization ...
  extracting TIP4P info from pair style
  using 12-bit tables for long-range coulomb (../kspace.cpp:340)
  G vector (1/distance) = 0.37915375
  grid = 24 27 32
  stencil order = 5
  estimated absolute RMS force accuracy = 0.0024542063
  estimated relative force accuracy = 7.3907694e-06
  using double precision FFTW3
  3d grid and FFT values/proc = 3825 384
Last active /omp style is kspace_style pppm/tip4p/omp
Neighbor list info ...
  update every 1 steps, delay 7 steps, check yes
  max neighbors/atom: 2000, page size: 100000
  master list distance cutoff = 10.8154
  ghost atom cutoff = 10.8154
  binsize = 5.4077, bins = 5 5 4
  1 neighbor lists, perpetual/occasional/extra = 1 0 0
  (1) pair lj/cut/tip4p/long/omp, perpetual
      attributes: half, newton on, omp
      pair build: half/bin/newton/tri/omp
      stencil: half/bin/3d/tri
      bin: standard
Per MPI rank memory allocation (min/avg/max) = 9.312 | 9.326 | 9.337 Mbytes
Step Temp PotEng TotEng E_pair E_mol Press Lx Ly Lz Volume Pxx Pyy Pzz Pxy Pxz Pyz Enthalpy 
 6500000    258.39521   -4819.6661   -4302.8437   -4819.6661            0    7281.3294    18.075776    22.690788    19.497263    7996.8728    6674.8652    7185.6008    7983.5224    336.02549   -418.51166   -641.23242     -3453.65 
 6501000    254.77173   -4845.7847   -4336.2098   -4845.7847            0    4786.8022    18.148978     22.76431    19.453242    8037.0866    3523.8066    5655.2139     5181.386   -132.79785    32.172636   -1158.0782    -3775.136 
 6502000    252.61489   -4834.4065   -4329.1455   -4834.4065            0    6837.7509     18.07533    22.769516    19.474962    8015.2424    7247.1497    6062.8639    7203.2392       716.09   -701.09603   -451.03002   -3529.8528 
 6503000    259.17399   -4862.1581   -4343.7781   -4862.1581            0    4259.1894    18.153382    22.928656    19.433647    8088.9181      3220.18    3908.8284    5648.5599    32.557065   -803.28691   -328.14969   -3841.3276 
 6504000    245.24646   -4864.1475   -4373.6242   -4864.1475            0    6112.6712    17.984838    22.827684    19.457903     7988.485    7153.0828    5799.7575    5385.1732    1256.0178   -23.087274    2326.0094   -3661.4745 
 6505000    248.65355   -4831.0295   -4333.6916   -4831.0295            0    5260.5609    18.166684    22.993653     19.34178    8079.4179    4681.3408    5599.9066    5500.4352   -792.45282    449.64492    511.81524   -3713.8396 
 6506000    266.79151   -4852.7751   -4319.1592   -4852.7751            0    5205.3531    18.042456    22.969313    19.443569    8057.8587    6765.4335    4477.2305    4373.3952   -428.37394   -395.98467    645.78286   -3707.4489 
 6507000    240.90703   -4814.9952   -4333.1514   -4814.9952            0    7038.5649     18.17442    22.848629    19.265117    8000.0436    8110.5791    6578.7113    6426.4042   -1296.3869    909.83423   -703.88285   -3511.9449 
 6508000    250.05885   -4822.7054   -4322.5568   -4822.7054            0    5366.3928    18.073328    23.012468    19.350844    8048.2464    4801.6503    5551.5992     5745.929    510.76133   -461.32134    2581.5122   -3692.6742 
 6509000    261.40951   -4830.2265   -4307.3751   -4830.2265            0    5611.4503    17.961662    23.106307    19.409205    8055.3568    5432.6671    5896.1452    5505.5386   -630.51411   -155.03681    -190.5332   -3648.1469 
 6510000    255.16023   -4824.2074   -4313.8554   -4824.2074            0    7631.4587    17.928496    23.178259    19.300236     8020.239    6776.4012    7716.9108     8401.064    1149.3284    217.53365    906.74797   -3421.2269 
 6511000    255.89558   -4841.7479   -4329.9251   -4841.7479            0    8803.5501    18.010186    22.879652    19.251735    7933.0006    8017.5406      9403.39    8989.7196    974.09574    795.58455    1207.4517   -3311.4012 
 6512000    257.19672   -4801.8076   -4287.3824   -4801.8076            0    4590.2933    18.126039    23.004349     19.46297    8115.6249    5203.0524    3680.4724    4887.3551    -511.3977    324.99557   -1130.8362   -3744.0842 
 6513000    260.78659   -4813.3674    -4291.762   -4813.3674            0     4244.876    18.239471    22.743566    19.477028    8079.6673    3765.8248    4967.0745    4001.7287   -698.81455   -69.604554    2531.3439   -3791.5728 
 6514000    253.68244   -4852.0135   -4344.6173   -4852.0135            0    4545.8668    18.265225    22.561382    19.622022    8086.0138    4297.5227    5724.0135    3616.0641    291.67653   -261.27526   -1057.5151   -3808.5405 
 6515000    257.27229   -4858.8723   -4344.2959   -4858.8723            0    4139.3754    18.277187    22.686933    19.469415    8073.0573    1612.3837    5311.9226      5493.82    107.66532   -211.14087    359.16491   -3856.9372 
 6516000    259.29191   -4839.4674   -4320.8516   -4839.4674            0    5879.5966    18.084415     22.62236    19.631951    8031.6698    5738.7517    6360.9335    5539.1048   -615.19987    150.65674   -476.90807   -3632.1529 
 6517000    252.08663   -4835.9052   -4331.7008   -4835.9052            0    5603.0061    18.138208    22.855246    19.396567    8040.9094     3139.067    6048.7049    7621.2463    451.01886    187.49412   -2116.1573   -3674.6452 
 6518000    246.45041   -4855.6231   -4362.6919   -4855.6231            0     4690.867    17.999573    22.933528    19.482627    8042.3059     5028.429    4253.8255    4790.3466   -887.62958   -1288.1216    470.14915   -3812.5058 
 6519000    244.21667   -4812.8844   -4324.4209   -4812.8844            0    7084.6231    17.975509    23.061397    19.291416      7997.07     6774.988    7691.4827    6787.3988    900.75025    1135.2136     349.9959   -3498.1479 
 6520000    250.08712   -4840.3299   -4340.1248   -4840.3299            0    4698.1561    18.106361     23.08224    19.285617    8060.1412    4317.8353    4671.6981    5104.9348   -11.688987    344.88171   -1525.1449   -3787.8617 
 6521000    241.15431   -4836.2849   -4353.9465   -4836.2849            0    6489.6515    17.914024    23.143605    19.299031    8001.2834    6804.1883    6048.6264      6616.14   -172.46804    81.955571    1005.1402   -3596.6658 
 6522000    249.88057   -4826.0766   -4326.2845   -4826.0766            0    5779.8447    17.874419    23.382841    19.235556    8039.5913    6270.7507    5318.2377    5750.5458    2177.9389    206.69233    1489.1999   -3648.6024 
 6523000    251.37366   -4872.1986   -4369.4202   -4872.1986            0     3748.939    17.897517    23.325465    19.324347    8067.2944    3173.9688    4781.7841    3291.0641    51.428873     1469.983   -58.355798   -3928.3455 
 6524000    267.76387   -4814.4806   -4278.9198   -4814.4806            0    5090.1405    18.222477    23.217718    19.072649    8069.3391    3857.9525    4914.6891    6497.7799    2301.3372    521.70415    367.36975   -3679.8966 
 6525000    261.51026   -4822.8386   -4299.7858   -4822.8386            0    7328.9905    17.918548    22.977264    19.429726    7999.5915    7019.7333    7409.3376    7557.9006   -458.86626   -176.84726   -1966.1923    -3444.743 
 6526000    263.16734   -4841.0817   -4314.7145   -4841.0817            0    5621.1624    18.061382    23.001372    19.364581     8044.755    4366.0387    5828.7812    6668.6673    1923.3033   -280.48381    860.64945   -3655.2144 
 6527000    261.84178   -4819.3117   -4295.5958   -4819.3117            0    7360.7201    18.038367    22.916185    19.353602    8000.2095    7792.7549    6667.3069    7622.0986    234.38681   -110.24124   -495.52274   -3436.7849 
 6528000    250.80925   -4837.2045    -4335.555   -4837.2045            0    6352.5621    18.111162    22.859821    19.388145    8027.0397    5841.8631    6588.0854    6627.7379   -1014.2904    846.35883   -1109.0919   -3591.8851 
 6529000    248.23477   -4825.2876   -4328.7874   -4825.2876            0    4913.3038    17.995908    22.852856     19.56321    8045.5244     5671.452    5659.0215     3409.438    -174.4933    799.75008    1588.5498   -3752.2814 
 6530000    258.89889   -4824.5348    -4306.705   -4824.5348            0    5309.7076    18.077702    22.971682    19.497052    8096.6423    6350.8985    4240.3487    5337.8757   -1332.5938   -961.02525    -334.7876   -3679.7282 
 6531000    258.02304   -4818.4452   -4302.3672   -4818.4452            0    6352.6477    18.064605    23.067245    19.314377    8048.3137    6889.0574     5691.057    6477.8288   -1406.5982    1417.4547    -1118.792   -3556.7163 
 6532000    256.10942   -4838.8006   -4326.5501   -4838.8006            0    4974.6355    18.010917      22.9436     19.47823    8049.0919    6173.5728     5046.984    3703.3496    1407.1967    34.376588    753.97374   -3742.5889 
 6533000    256.72419   -4835.6273   -4322.1472   -4835.6273            0    6061.5186    18.289808    22.844915    19.266772    8050.2179    3612.0326    6232.9821    8339.5411   -1992.3301   -31.488634    421.59599   -3610.4996 
 6534000    244.86619   -4854.9012   -4365.1386   -4854.9012            0    5381.8659    17.994098    22.786635    19.563732    8021.6184    4715.6825     5828.966    5600.9491    1381.8043   -540.24588      636.717   -3735.5298 
 6535000    246.16766   -4863.0856   -4370.7199   -4863.0856            0    5637.8325    18.118411    22.871176    19.377699     8029.912    6534.6503    5197.4603    5181.3869   -480.41931   -743.66064    -1003.829   -3710.4844 
 6536000    241.28962   -4847.6203   -4365.0113   -4847.6203            0    6100.6235    18.110202    22.731439    19.513294    8033.0565    4850.5071    6258.4799    7192.8836   -832.09741    248.12858    2743.7904   -3650.2995 
 6537000    261.75252   -4852.3757   -4328.8383   -4852.3757            0    6315.2942    18.109094    22.825851      19.4022    8020.0058    5995.5461    5453.1862    7497.1504   -817.62058   -994.38656   -449.42882    -3590.179 
 6538000     247.1192   -4826.4033   -4332.1343   -4826.4033            0    5150.7172    18.180449    22.938825     19.32537    8059.4162    3827.3906    6114.5553    5510.2058    268.43061     78.19871     -558.291   -3726.7277 
 6539000    255.35519   -4852.7749   -4342.0329   -4852.7749            0    4965.7086    17.984828    23.140047    19.348251     8052.157     6641.381    4001.8081    4253.9368   -2416.3594      752.714   -1059.4405   -3758.8976 
 6540000     254.0625   -4821.3055   -4313.1492   -4821.3055            0    5672.4861    17.936909    23.317886     19.19464    8028.1736    5131.5529    4742.2989    7143.6066   -253.68746    225.19166    583.29071   -3648.9993 
 6541000    262.12334   -4856.3773   -4332.0983   -4856.3773            0    6055.1774    17.973494    23.081492    19.387781    8043.1193    6938.4915    5776.2517     5450.789   -13.042323    -651.8465   -746.37042    -3621.822 
 6542000    257.98628   -4839.1011   -4323.0967   -4839.1011            0    7441.6624    17.944829    23.097806    19.278195    7990.5451    5479.0139    7622.6601    9223.3132    808.86221    1558.1617    1031.0834   -3455.8907 
 6543000    254.05352   -4807.5237   -4299.3853   -4807.5237            0    5132.3025    17.912724    23.193967    19.441808    8077.4323    6544.7001    4651.6347    4200.5726   -1533.7348   -380.44542   -1863.9195   -3694.7946 
 6544000    245.85259   -4854.1191   -4362.3835   -4854.1191            0    6403.7636    17.948518    23.028058    19.351156    7998.2104     7256.639    6073.1991    5881.4526    357.55163   -554.50152   -72.602508    -3615.412 
 6545000    246.97423   -4855.7917   -4361.8128   -4855.7917            0    5422.9362    18.070349     22.99146    19.295235      8016.47    4664.5608    5251.5694    6352.6782    351.05818   -656.95511     425.9158   -3727.8065 
 6546000    246.42164   -4845.0286   -4352.1549   -4845.0286            0    6320.3268    18.044081    22.858987    19.464665    8028.5787    5618.8332    6794.3437    6547.8035   -1435.1661    1571.8783   -289.07415   -3612.1168 
 6547000    254.54891   -4844.8414   -4335.7121   -4844.8414            0    3984.5067    18.225043    22.910164    19.376053    8090.2526     2454.071    4749.0627    4750.3862       674.73   -552.00437    418.32218    -3865.588 
 6548000    252.76362   -4860.5976   -4355.0391   -4860.5976            0    5689.2141    17.942342    22.920815    19.490106    8015.3666    5817.7263     5701.234     5548.682    2098.4636  -0.90049534   -1513.3606   -3689.9933 
 6549000    265.43963   -4843.9773   -4313.0653   -4843.9773            0    6241.8467     18.11186    23.025421    19.299401     8048.491    4601.4104     5262.076    8862.0538    784.49037   -1313.1644   -931.29984   -3580.4037 
 6550000    248.73683   -4851.2585   -4353.7541   -4851.2585            0    6984.4411    18.067896    22.752749    19.389164    7970.7751    5567.5424    7415.3527    7970.4282   -779.73087     -432.167   -382.19839   -3541.8437 
 6551000      253.724   -4767.1754   -4259.6961   -4767.1754            0    6551.8337    18.297238    22.784588    19.307684     8049.277    5114.3233    7997.9901    6543.1878   -930.49452    75.557716   -1247.2087   -3490.5734 
 6552000    251.90104   -4859.7935   -4355.9603   -4859.7935            0    6418.7928    18.088998    22.761907    19.487504    8023.7869    7291.3272    6488.6853    5476.3659    115.04561    456.55825   -646.07944   -3604.8415 
 6553000    241.69823   -4846.1264   -4362.7001   -4846.1264            0    7732.6116    18.157111    22.679302    19.310064    7951.7028    8684.2771    8182.9876    6330.5699   -338.42797    96.406297    56.203391    -3465.969 
 6554000    268.81197   -4831.4055   -4293.7484   -4831.4055            0    5866.6679    17.976515    22.827906    19.579015    8034.5662    5671.2419    7462.5497    4466.2122   -758.79365   -105.10233   -1887.1105   -3606.3162 
 6555000    254.12021   -4824.7333   -4316.4614   -4824.7333            0    4728.4765    18.061054    23.059611    19.384515    8073.2803    6394.3867    4130.0986    3660.9442    867.33579   -1040.7868    365.08351   -3759.7282 
 6556000    265.29227   -4814.7089   -4284.0916   -4814.7089            0    5958.9772    18.050305    22.960474    19.432075    8053.4983    7845.0652     5445.141    4586.7252     419.1608   -44.133156   -975.57111   -3584.1978 
 6557000    246.05367   -4862.4453   -4370.3076   -4862.4453            0    4453.9386    18.101653    23.101404    19.289793    8066.4823     4383.399    4547.3747     4431.042    297.86561    424.28581   -1159.0278   -3846.3402 
 6558000    251.03436   -4836.6448    -4334.545   -4836.6448            0    4810.0293    17.982365    23.135958    19.423389    8080.8919    5396.2164    4368.4663    4665.4051    1471.6591    789.94072     4.730491   -3767.6758 
 6559000      258.579   -4848.8812   -4331.6912   -4848.8812            0    6560.7724    18.093124    23.111949    19.216506    8035.7159    6948.4181    6136.2289    6597.6703    1570.9087   -719.77758   -1451.9635   -3562.8168 
 6560000    254.51443   -4842.1585   -4333.0982   -4842.1585            0    6603.8481    18.021926    22.788782    19.481609    8001.0529    7192.2595    6777.4271    5841.8576    592.08793   -114.55313    1680.3051   -3562.5139 
 6561000     254.0762   -4819.9093   -4311.7256   -4819.9093            0    4696.2037    18.075882    22.945488    19.464549    8073.1149    4590.6618    4430.1819    5067.7674   -173.78128   -1563.1543   -190.20439   -3758.8034 
 6562000    267.37134   -4814.0024   -4279.2266   -4814.0024            0    5319.0167    17.995914    23.106965    19.431811    8080.3484    6280.1902    4382.8259    5294.0341     936.6739   -875.91147    -1010.237   -3652.4146 
 6563000    255.59415   -4812.9349   -4301.7151   -4812.9349            0    5946.4691    18.048408    23.022999    19.382836    8054.1202    4586.2162    7233.3163    6019.8749    1390.1523    902.70086   -1263.3708   -3603.2364 
 6564000    237.62529   -4817.7593   -4342.4794   -4817.7593            0    3545.7108     18.07073    23.041125    19.518543     8126.935    5431.0428    3110.7581    2095.3317   -944.26107   -1940.4181    557.98967   -3922.2311 
 6565000    243.29662   -4842.5013    -4355.878   -4842.5013            0    4967.3755    18.189772     22.75634    19.405396    8032.5266    4360.2371    4405.5562    6136.3331    2834.0825    208.58938   -1242.1391   -3773.9691 
 6566000    261.80726   -4823.0481   -4299.4012   -4823.0481            0    6075.6889    18.156112    22.689663    19.549518    8053.5426    5083.5753    6196.7706    6946.7208    1057.8176    -17.20241   -3364.7032   -3585.7954 
 6567000    250.69694   -4840.8417   -4339.4168   -4840.8417            0     3885.383    18.130584    22.962619    19.413275    8082.2449    1929.4135    5467.8596    4258.8758    427.24342   -210.33822   -847.20983   -3881.4419 
 6568000    251.30155   -4831.8411    -4329.207   -4831.8411            0    4988.2853    18.002144    23.057523    19.402141    8053.5346    4806.1789    4495.9974    5662.6795    1583.0694   -711.90226    217.24077   -3743.3202 
 6569000    249.96471    -4871.479   -4371.5187    -4871.479            0    7045.8971    17.999786    22.996232    19.270411    7976.5484    6916.6094    6234.2374    7986.8446    731.83844   -935.96503   -2165.6403   -3551.8711 
 6570000     260.4018   -4844.4489   -4323.6131   -4844.4489            0    5773.8821     18.05998    22.904326    19.416489    8031.6632    4942.0332    6357.4327    6022.1804    904.15273    306.73936    677.73035   -3647.2977 
 6571000    253.13423   -4832.8085   -4326.5088   -4832.8085            0    7518.1725    18.175616    22.846201    19.282178    8006.8041    7410.1193     6838.942    8305.4563   -516.98999   -958.60352    348.44797   -3448.6041 
 6572000    259.41037   -4795.5957    -4276.743   -4795.5957            0    5029.6643    17.958006    22.958095     19.63647    8095.7553    8169.2342    3385.7611    3533.9977    1134.8179    -419.8956    321.39952   -3682.8991 
 6573000    251.74982   -4872.6038   -4369.0731   -4872.6038            0    6267.6795    18.157866    22.887004    19.316308    8027.4548    6884.2033    5466.2182    6452.6168    586.14753   -1758.0514   -1207.3499   -3635.3021 
 6574000    238.18683   -4851.5429   -4375.1398   -4851.5429            0    2849.6946    17.998974    23.071104    19.520723    8106.1016    2572.4001    1722.4049    4254.2789    752.18203   -1115.5724    2064.0453   -4038.2513 
 6575000    250.78952   -4846.6413   -4345.0313   -4846.6413            0    5488.0664    18.032252    23.004272    19.424375    8057.5961    4779.6236    5274.8063    6409.7693   -1754.1413    632.57938   -2644.1802   -3700.1188 
 6576000    259.62895    -4850.154    -4330.864    -4850.154            0    3690.8408    18.029909    23.234268    19.355413    8108.2097    1871.6496    4388.1563    4812.7165    729.81541   -37.776328    1265.3529   -3894.4224 
 6577000    234.75109   -4852.3433   -4382.8122   -4852.3433            0    5982.3144    17.891981    22.974754     19.45165    7995.8707    5032.5326    6673.1943    6241.2163   -1191.8041    249.48682   -887.83754   -3685.2051 
 6578000    264.08034   -4806.8965   -4278.7032   -4806.8965            0      7818.87    18.007518    22.867224    19.410558    7992.9178    7248.9265    7636.4082    8571.2754    119.21436   -5.5371618   -793.12579   -3367.2692 
 6579000    248.75275   -4847.2973   -4349.7611   -4847.2973            0    4900.9527    18.078462    22.956818    19.454393    8074.0392     4604.989    3799.4156    6298.4534    1236.7505   -688.96003   -720.12346   -3772.6662 
 6580000    266.69099   -4839.5367   -4306.1218   -4839.5367            0    5918.6149    18.026824    22.930649    19.439109    8035.4817    6801.1441    5289.2744    5665.4261    1261.7903     329.0083    2842.6405   -3612.5237 
 6581000    259.99597   -4843.1751   -4323.1511   -4843.1751            0     5393.623    18.078036    23.052484    19.286969    8037.7219    5961.7109    5275.7968    4943.3614   -2049.6056   -994.64378   -1173.3365   -3690.9002 
 6582000    245.99427   -4859.3753   -4367.3563   -4859.3753            0    5117.9889    17.882108    23.157161    19.426792    8044.6121    6371.3922    4348.3549    4634.2195    1241.4936   -867.29998   -724.53064   -3766.9015 
 6583000    255.05446   -4822.8949   -4312.7545   -4822.8949            0      6606.08    17.954301    23.197018    19.188009    7991.5416    5085.1967     6816.816    7916.2273    1031.2488    1013.9638    -1114.894   -3542.8262 
 6584000    259.20529   -4813.4189   -4294.9763   -4813.4189            0    5177.5281    17.962958    23.235018     19.31116    8059.8923     5692.061    4026.2649    5814.2585    821.93044    202.34992   -1743.5417   -3686.3824 
 6585000    249.76874   -4842.3251   -4342.7567   -4842.3251            0     7281.462    18.173364    22.923485    19.242276    8016.2717      7335.65    6608.6589    7900.0771    1721.5201    363.74406    1058.9466   -3491.4876 
 6586000    249.88212   -4845.8063   -4346.0112   -4845.8063            0    5231.7463     18.09269    22.969187    19.365585     8047.841    5345.9045    5310.7912    5038.5432    1054.6906   -322.78963    36.395499   -3731.9637 
 6587000    244.19923   -4824.4304   -4336.0017   -4824.4304            0    6313.5311    18.023554    22.761476    19.538776    8015.6402    6129.1125    6830.2322    5981.2485    1669.2327   -72.725013    594.95467   -3597.9507 
 6588000    255.51049   -4852.7644   -4341.7119   -4852.7644            0    4994.2816    18.259696    22.815603    19.326473    8051.5239    5159.4233    3815.5012    6007.9203   -863.36206   -1248.2832   -1043.7455   -3755.2673 
 6589000    239.68988    -4864.235   -4384.8257    -4864.235            0     5752.161     18.13615    22.551096    19.586087    8010.5149    6137.4314     6938.405    4180.6465    523.24556    246.01175   -941.23458   -3712.8287 
 6590000    243.50972   -4832.0192   -4344.9697   -4832.0192            0     5263.362      18.0819     22.74082    19.536456     8033.337     5137.111    5819.7933    4833.1817   -951.48016   -378.30639   -244.98094   -3728.3248 
 6591000    241.86428    -4836.768   -4353.0095    -4836.768            0    5723.6019    18.218832    22.873757    19.389574    8080.2779    5248.4484    6062.3127    5860.0447   -770.16662    686.59197   -1578.2539   -3678.5256 
 6592000    257.73546   -4852.6214   -4337.1186   -4852.6214            0    6168.2461    18.034925    22.751306     19.50462    8003.0987    6426.7825     5677.666    6400.2897    150.59729   -614.52461   -137.01152   -3617.1795 
 6593000    249.77106   -4815.0754   -4315.5025   -4815.0754            0    6016.0287     18.18648    22.766457    19.416535     8039.255    4079.9283    7482.5217    6485.6361   -1278.5931    217.47718   -552.97807   -3610.1574 
 6594000     252.1526   -4841.1732   -4336.8368   -4841.1732            0    4535.3334    18.077408    22.801399    19.559243    8062.1283    4641.7274    5212.0922    3752.1805    511.50012   -254.55298    1059.3849    -3803.582 
 6595000    228.13302   -4832.8646   -4376.5703   -4832.8646            0    6545.8954    18.143664    22.540408    19.543776    7992.7321     7740.585    7627.8672     4269.234   -1638.7037   -181.83696     -467.134   -3613.5428 
 6596000    259.53055    -4841.815   -4322.7219    -4841.815            0    5691.3162    18.100172    22.767782    19.503775    8037.5207    4256.0655    6360.0264    6457.8567    1279.4476    137.79506   -802.43508   -3655.5915 
 6597000    255.05355   -4845.7586     -4335.62   -4845.7586            0    5903.6738    18.155528    22.811116    19.322509    8002.3757    4545.4908    6227.8305    6937.7002   -246.01269    123.32981   -69.688692   -3646.6232 
 6598000    248.69307   -4838.1556   -4340.7387   -4838.1556            0    4239.7041    18.076366    22.969642    19.578587    8129.1795    4508.6994    4039.3629      4171.05   -973.61807   -752.31754    222.23101   -3838.0974 
 6599000    250.66389   -4844.5722   -4343.2135   -4844.5722            0    5512.4197    18.034972     22.99237    19.347861    8022.9146    5477.9905    5764.7906     5294.478   -49.571817    218.47928      1265.49   -3698.2274 
 6600000    254.24419    -4840.531   -4332.0112    -4840.531            0    6673.1338    17.925577    23.036118    19.410313    8015.2111    7893.6127    5260.1487      6865.64   -188.70947   -192.72287     57.92092   -3551.9643 
 6601000    247.35008   -4870.5829   -4375.8521   -4870.5829            0    5241.8551    18.173421    23.052065    19.283962    8078.7245     4120.383    4208.1163    7397.0661    2111.8377     148.7702    838.52501   -3758.2573 
 6602000    245.03338   -4822.4474   -4332.3503   -4822.4474            0    5154.5421    17.923511    23.073889    19.482545    8057.3011    5259.1341    5706.4089    4498.0833     1808.036    638.83249   -1215.1278   -3726.6531 
 6603000    248.75982   -4821.6622   -4324.1118   -4821.6622            0    5560.4847    18.142265    23.012424    19.326206    8068.6425    5085.8812    6352.6187    5242.9541   -126.44058    987.46246   -559.18192   -3669.7936 
 6604000    256.97134   -4824.3224    -4310.348   -4824.3224            0    8612.0283    17.965357    22.901947    19.361433    7966.0997    8643.1582     8567.401    8625.5255   -1460.3501    451.15578   -1455.8548    -3309.825 
 6605000    265.90811   -4820.8137   -4288.9646   -4820.8137            0    5026.4087    18.110795    23.078469    19.334631    8081.2849    3625.7749    5778.4435    5675.0076   -1316.2884   -171.93663    554.29273   -3696.5659 
 6606000    246.11892   -4852.1788   -4359.9106   -4852.1788            0    4499.6871    17.959673    23.008322    19.541753     8075.081    6210.6322    3912.8815    3375.5476    1479.6671   -764.87593    1499.8443    -3829.997 
 6607000    245.15787   -4821.8145   -4331.4685   -4821.8145            0    6207.7397    18.083062    23.011474    19.332441    8044.5747    6567.6859    5504.1032      6551.43   -1310.0047    -25.43614   -644.64944   -3603.1649 
 6608000    250.72493   -4819.8437   -4318.3629   -4819.8437            0     5184.693    18.104169    23.121804    19.353065    8101.2134     5308.896    4020.3856    6224.7975   -74.066507   -499.52557   -531.34884   -3705.8024 
 6609000     251.0057   -4847.6678   -4345.6254   -4847.6678            0    6156.0659      17.9911    22.932656    19.442287    8021.5712    5567.9411    6377.5021    6522.7545   -1786.9186   -157.61754   -1296.4528   -3625.4495 
 6610000    259.18943   -4831.2655   -4312.8546   -4831.2655            0     3457.569    18.176044     22.81192      19.5863    8121.0766    2687.4239    4770.8686    2914.4144    2440.0707     14.08339    2298.0798   -3903.3486 
 6611000    267.39276   -4828.3472   -4293.5287   -4828.3472            0    7080.8631     18.21922    22.703433    19.376903    8015.0397    7023.5168    7190.6788    7028.3938   -1552.4685   -296.78901   -2035.6075   -3465.8386 
 6612000    258.89731   -4844.1191   -4326.2925   -4844.1191            0    6378.4464    18.116752    22.641735    19.581196    8032.1028    5244.0994    6831.4414    7059.7984    180.32949   -102.84536   -861.80798   -3579.1214 
 6613000    260.91482   -4874.8533   -4352.9914   -4874.8533            0    6181.7353    18.230022    22.654833    19.425652    8022.7575     6291.287     5616.275     6637.644   -1484.4417   -263.72237   -1184.7904   -3629.7056 
 6614000    260.53208   -4838.9569   -4317.8605   -4838.9569            0    6002.2944    18.007522    22.911624    19.450307    8024.8386    5472.6565    7230.5895    5303.6371    278.44139    785.74479    759.26183   -3615.3878 
 6615000    261.48264   -4855.3838   -4332.3862   -4855.3838            0    5790.0423    17.936005    23.144641    19.336209    8026.8935    6071.6956     5445.088    5853.3432     -1165.53     905.9373    125.72948   -3654.5806 
 6616000    245.64839   -4858.9579   -4367.6308   -4858.9579            0    4875.1372    17.969717    23.386529    19.174984    8058.2737    4654.9372    3794.7829    6175.6914   -473.15714    348.61383    80.526537   -3794.6966 
 6617000    251.40116   -4866.7179   -4363.8845   -4866.7179            0    5372.8013    17.862662    23.307629    19.260316    8018.7686    4472.2285    5352.9306    6293.2446   -520.17001   -532.88075     381.0896   -3735.5595 
 6618000    247.43052    -4855.948   -4361.0564    -4855.948            0    4827.9875    17.951992    23.124803    19.293065    8009.2512    4647.5113    4938.2191    4898.2322   -892.16427    87.193698   -989.71977   -3797.1151 
 6619000    248.17751   -4854.9807   -4358.5951   -4854.9807            0    6246.9267    17.977616     23.05394    19.333384    8012.8155    7523.1996     5837.366    5380.2146   -258.88796     570.2564    822.55433   -3628.5874 
 6620000    243.70867   -4831.7703   -4344.3229   -4831.7703            0    4201.4778    18.075316    23.014669    19.450406    8091.3185    5351.7599    3589.6463     3663.027   -9.1084802   -240.90463   -449.78564   -3848.5335 
 6621000    259.96879   -4871.0866   -4351.1169   -4871.0866            0    6698.3024    18.081915    22.756534    19.369763    7970.3032    5367.6169    7367.6523    7359.6381   -104.18104   -373.22529     1677.685   -3572.5149 
 6622000    247.87486   -4801.1266   -4305.3463   -4801.1266            0    5309.8903    18.168819    22.796286    19.468193    8063.3671      5070.67    5375.4311    5483.5697   -959.08406   -1474.5736   -1956.3504   -3680.9247 
 6623000    246.64156   -4834.0715   -4340.7579   -4834.0715            0    5490.5777    18.017858    22.927375    19.412033    8019.1532    5448.9649    5880.6993     5142.069     167.7909   -494.40163   -271.88628   -3698.6287 
 6624000    256.96128   -4831.4561   -4317.5018   -4831.4561            0    6623.8395    18.113799      22.9437     19.30503    8023.1237    6492.4916    7026.8733    6352.1536    1469.2634    -154.2163    1692.2419   -3542.4527 
 6625000    257.89236   -4820.3188   -4304.5022   -4820.3188            0    6548.2935    18.136405    22.788715    19.471771    8047.7872    7112.3915    7430.2721    5102.2169   -1116.6731    1985.1088   -1596.9132   -3535.9374 
 6626000    250.85874   -4852.0763   -4350.3278   -4852.0763            0    5213.7197    18.014851    22.966019    19.459767    8051.0777    7280.2669    3771.7564    4589.1358   -129.23646   -593.80696   -899.57776     -3738.15 
 6627000    247.64371   -4849.0258   -4353.7077   -4849.0258            0     4361.512    18.168903    23.003423    19.281018    8058.4428    3654.5402    4128.4093    5301.5865    -161.5491    323.24634    1088.9803   -3841.1249 
 6628000    243.97373   -4849.2717   -4361.2941   -4849.2717            0    3903.5248    17.899761    22.942497    19.719045    8097.9259    5356.5484    4511.4366    1842.5896    1099.1059   -293.56067    250.24661   -3900.2881 
 6629000    266.31565   -4813.4143   -4280.7501   -4813.4143            0    7040.4277    18.132124    22.995421    19.242196    8023.1458    7833.0087    6817.2024    6471.0719    813.66759    620.33011   -943.12484   -3456.9542 
 6630000    251.00277   -4866.1245   -4364.0879   -4866.1245            0    6189.4921       17.938    23.053576    19.363213    8007.3671    6666.3429    5548.9165    6353.2168    1998.8857    1323.7258    2124.4806   -3641.2838 
 6631000     234.5358   -4838.3524   -4369.2518   -4838.3524            0    5298.0513    17.973319    23.242998    19.202578    8021.9503    6060.7366    4456.6688    5376.7486   -193.86309    900.86021   -841.01905   -3749.4226 
 6632000    262.67248   -4832.0701   -4306.6927   -4832.0701            0    3903.2222    17.940001    23.113708    19.464576    8071.1799    4098.9327    3855.2595    3755.4743   -19.276853   -299.94617   -8.9683656   -3847.2449 
 6633000    256.56806   -4828.7015   -4315.5337   -4828.7015            0    5140.2348    18.083421    23.234066    19.199406    8066.6572    4941.7314    4670.8757    5808.0974    666.09323   -707.70403    611.18942   -3710.8163 
 6634000    242.91092   -4853.9113   -4368.0595   -4853.9113            0    3382.0626    18.106547    23.004027    19.384718    8074.1907    3809.7802    3626.7788    2709.6288   -984.64612     135.9312   -618.82986   -3969.8088 
 6635000    251.54272    -4855.079   -4351.9625    -4855.079            0    5002.6168    18.106008    22.839202    19.466185    8049.7887    4122.0853    5710.1062     5175.659     2616.925   -814.03435    1483.6066   -3764.6657 
 6636000    253.32248    -4828.524   -4321.8478    -4828.524            0    6967.2159    18.229937    22.650007     19.44769    8030.1104    6557.5892    7477.7823    6866.2763   -577.47208    1909.6618    959.85666   -3505.9107 
 6637000    252.19461   -4845.5056   -4341.0852   -4845.5056            0    6759.8973     18.16957    22.698507    19.397664    8000.0257    5237.8789    7674.9148    7366.8982    589.69706    610.84132   -817.77308   -3552.3933 
 6638000    249.04946   -4826.1889   -4328.0592   -4826.1889            0    7283.3533    18.048388    23.099234    19.108105    7966.2443    7017.9103    7154.9193    7677.2303   -334.28112    853.31356   -636.12449   -3481.8828 
 6639000      239.266   -4849.2997   -4370.7381   -4849.2997            0    4369.8327    17.940793    23.205838    19.350197    8056.0893    6730.3978    2805.5379    3573.5623      595.528   -562.62071   -893.86537   -3857.3274 
 6640000     254.7899   -4833.5386   -4323.9274   -4833.5386            0    3703.2668     18.06095    23.131531    19.343946    8081.4637    3628.4247    3820.7764    3660.5993   -38.125196   -235.46969    681.90424   -3887.4609 
 6641000    252.83764   -4848.3112   -4342.6047   -4848.3112            0    7140.0237    18.001025     22.92873    19.376026    7997.2733    4928.2848    8794.0889    7697.6975   -1200.3853    1476.8481   -1242.2899   -3509.8492 
 6642000    248.87518   -4835.3254   -4337.5443   -4835.3254            0    4941.7773    18.194161    22.770965    19.467602    8065.4003    5379.3959     5235.215     4210.721    838.95879    1675.0626     681.4781   -3756.2648 
 6643000    237.24529   -4823.4543   -4348.9344   -4823.4543            0    6359.9529    18.113758    22.849385    19.364833    8014.8767    6133.0816    6025.5225    6921.2545   -275.90449   -708.02206   -2138.6581   -3605.5274 
 6644000    250.38002   -4820.4027   -4319.6117   -4820.4027            0    6705.9284    18.004603     22.95505    19.338667    7992.6044     7094.539    6703.7402    6319.5059    2644.0927   -93.656403    2128.2164   -3537.9423 
 6645000    252.81607   -4843.4185   -4337.7551   -4843.4185            0    5936.0347    17.954479    22.896568     19.58795    8052.5271    7696.5421    5867.4437    4244.1182   -277.72056   -803.26802   -2589.6944     -3640.64 
 6646000     241.1088     -4827.23   -4344.9826     -4827.23            0     8091.382     18.01298    23.006241    19.240776    7973.5883    7314.4262    7525.4747    9434.2451    1545.4493    208.52929    897.00904   -3404.0632 
 6647000    239.06528   -4853.7736   -4375.6135   -4853.7736            0     4625.258    18.078122     23.00382    19.420626    8076.3755    5090.5102    4419.7746    4365.4891    -1155.653    489.39984   -1725.8078   -3830.8245 
 6648000    243.83986    -4843.823   -4356.1131    -4843.823            0    6337.0264    18.164853     22.82131    19.357922    8024.7443    5554.4546    7017.5235    6439.1012    554.98481    83.021034    177.44232    -3614.474 
 6649000    263.97088   -4828.8143     -4300.84   -4828.8143            0    7695.4333    18.113449    22.612515    19.426181     7956.782    8632.3312     7062.163    7391.8056     1103.056   -208.00253    1370.3364   -3407.8503 
 6650000    257.12494   -4874.5927    -4360.311   -4874.5927            0    4871.9677    18.129893     22.82588    19.502514    8070.7401       5175.4    5002.9732    4437.5299   -1397.3431   -748.22925   -1428.4456   -3786.8635 
 6651000    272.34782   -4836.5028   -4291.7735   -4836.5028            0    5440.7399    18.161536    22.633102    19.564904    8042.1911    5164.0634    6441.8634    4716.2929   -706.14297   -513.99352   -11.134006   -3653.6449 
 6652000    243.66175   -4812.7321   -4325.3785   -4812.7321            0    6880.5897    18.217232    22.708686    19.457868    8049.5136    7331.7119    7497.8138    5812.2433   -84.451065    528.96229   -1826.1971   -3517.6392 
 6653000    259.05957   -4847.6574   -4329.5063   -4847.6574            0    5344.2592    18.148179    22.714795     19.57475     8069.342    5318.2594    4887.2627    5827.2557    1003.0799   -146.96743   -780.52592   -3700.5774 
 6654000    257.21752   -4843.9991   -4329.5323   -4843.9991            0    6768.3671    18.185198    22.426007    19.440867     7928.401    4927.2096    9171.2482    6206.6433    640.29198   -824.62096     1037.377   -3546.9223 
 6655000    247.20303   -4845.7706    -4351.334   -4845.7706            0    4690.0446    18.154785    22.470575    19.725305    8046.9081    3954.4395    5701.0455    4414.6488   -454.62728    531.68118    -1162.456   -3800.9296 
 6656000    240.80699   -4852.3364   -4370.6927   -4852.3364            0    3938.9138    18.333084    22.770817     19.39886    8098.2342    2535.5368    3998.4762    5282.7282   -157.58945   -104.30696    779.13912   -3905.4895 
 6657000    258.57998   -4866.4377   -4349.2458   -4866.4377            0     5150.594    17.971142    23.018141    19.433038    8038.7147    4247.6432    5796.1813    5407.9574   -1208.8125   -70.893876   -611.45305   -3745.4087 
 6658000    248.60774   -4859.6829   -4362.4367   -4859.6829            0    5690.0814    17.998158    23.031992    19.290333    7996.4884    5899.2013    4981.9879     6189.055    472.40757    -806.2101   -543.26598   -3698.8561 
 6659000     250.5169   -4856.7254   -4355.6607   -4856.7254            0    6104.4039    17.865977    23.165066     19.31365    7993.2735    7471.5499     5398.225    5443.4369   -594.25496    456.03987   -145.82705   -3644.0478 
 6660000    254.67314   -4833.2474   -4323.8696   -4833.2474            0     5695.394    18.069094    23.017815    19.273293    8015.9759    4970.5062    7090.4459    5025.2299    566.98809    690.72099    1429.0905   -3658.0508 
 6661000    246.63337   -4856.9984   -4363.7012   -4856.9984            0    5559.7245    17.856673    23.167381     19.45553    8048.6038    6647.3624    5020.2964    5011.5145     1141.014   -26.684672    1448.5197   -3711.0972 
 6662000     252.3419   -4830.5891   -4325.8742   -4830.5891            0     5472.952    18.012849    23.433097    19.073126     8050.706    3567.9848    5855.3533    6995.5178   -375.58568   -48.053952    1800.7626   -3683.2878 
 6663000    250.42325   -4846.5415   -4345.6641   -4846.5415            0    4303.2677     18.01669    23.053288    19.429522     8069.934    2399.3993    5134.3338      5376.07   -1021.7198   -457.58895    799.41921   -3839.2051 
 6664000    254.20448    -4865.031   -4356.5906    -4865.031            0     4373.217     18.14966     22.89037    19.426716    8070.8765    5122.6158    4705.1837    3291.8514    71.327515    473.90366   -79.493825   -3841.8391 
 6665000    246.56759   -4835.1494   -4341.9837   -4835.1494            0    6232.6627    18.218932    22.651258    19.464935    8032.8234    5515.1676    6007.8285    7174.9921   -26.927732    203.97148   -1178.3627   -3611.8242 
 6666000    270.77277   -4833.6105   -4292.0315   -4833.6105            0      5564.44     18.30468    22.538662    19.558445    8069.0909    3994.3025    6772.2828    5926.7348   -773.90835   -126.39062    516.46103   -3637.2114 
 6667000    252.74568   -4851.3149   -4345.7923   -4851.3149            0    5317.7508     18.27886    22.614979    19.413495    8025.0735    3571.9741    6308.2347    6073.0434   -708.97995    400.43316    1326.4529   -3723.4162 
 6668000    250.72073   -4810.4634   -4308.9909   -4810.4634            0    6381.7985    18.253283    22.565456    19.475245    8021.7298    4278.1389    7529.5702    7337.6862   -183.39527   -202.99685   -10.226195   -3562.3926 
 6669000    268.32697    -4831.038   -4294.3509    -4831.038            0    7324.6707     18.14376    22.490414    19.580687    7990.1082    5352.5521    9269.7378    7351.7222   -1993.7919    144.65225   -772.88037   -3440.8251 
 6670000    257.83602     -4835.19   -4319.4861     -4835.19            0    6706.9824    18.208334    22.754963    19.384918    8031.7525    6106.1578    6417.0126    7597.7766    96.787374   -1085.3476   -565.48045   -3533.8646 
 6671000    261.81474   -4846.1726   -4322.5108   -4846.1726            0    4463.4373    18.083691    22.743688    19.621649    8070.1849    5363.0549    6038.9104    1988.3465   -338.90364    807.16864   -314.55169   -3797.1849 
 6672000    251.94612   -4859.3623   -4355.4389   -4859.3623            0    7188.1198    18.082452    22.934064    19.242623    7979.9949     5717.459    6686.1913    9160.7091     565.3178    -265.7352     58.75952   -3518.8852 
 6673000    252.33794   -4869.9566   -4365.2496   -4869.9566            0    5038.3766    17.963221    23.210668    19.352657    8068.8648    5631.7788    4254.5331     5228.818    133.29748    638.33527    2067.4826    -3772.353 
 6674000    249.86807   -4847.2036   -4347.4366   -4847.2036            0    4696.9222    18.062065     23.06855    19.289748    8037.3752    4976.5797    4673.9849    4440.2019   -773.52118    182.73362   -709.39187    -3796.878 
 6675000    245.26088   -4840.0655   -4349.5135   -4840.0655            0    4086.8485    17.988416    23.059104    19.442472    8064.6743    4616.3166    3369.2873    4274.9417   -547.54448    204.91414      1336.53   -3868.8388 
 6676000    249.09752   -4840.1147   -4341.8889   -4840.1147            0    6013.1043    18.155483     22.91481    19.286101    8023.5858    4652.6469    6040.3352    7346.3307   -901.85732    273.82094    -75.62589   -3638.2609 
 6677000    269.79175   -4852.5769     -4312.96   -4852.5769            0    3899.3286    18.124717    22.956642    19.340132     8047.093    4899.2609    3072.5173    3726.2077    676.98459   -624.37756    1672.9101   -3855.3403 
 6678000    246.41269   -4811.8004   -4318.9445   -4811.8004            0    6024.2454    18.002728    22.918653    19.506883    8048.5065    6972.8972    5714.1735    5385.6655   -1010.1158    1065.4865   -1105.2182   -3611.8233 
 6679000    260.19828   -4842.4551   -4322.0264   -4842.4551            0    6108.1726    18.233744    22.982519     19.17781    8036.6029     6423.319    5421.5475    6479.6512    495.33877   -176.31374    2324.5526   -3606.1143 
 6680000    256.15253   -4836.6681   -4324.3314   -4836.6681            0    5432.5247    17.907743    22.999133    19.484116     8024.778     6850.102    4585.5433    4861.9288   -880.89846   -648.75526    9.3266588   -3688.5459 
 6681000    252.89212   -4858.6714    -4352.856   -4858.6714            0    5841.5672    18.183014    22.936423    19.239328    8023.8249    6207.9762    5278.5635    6038.1618    -1925.931   -233.68041    1479.8775   -3669.2801 
 6682000    261.52386   -4852.8385   -4329.7585   -4852.8385            0    6645.0577    18.104282    22.721846    19.507092    8024.4904    5701.7697    8127.1526    6106.2508   -240.32392    1261.3473    635.55135   -3552.0943 
 6683000    257.08966    -4879.465    -4365.254    -4879.465            0     4260.913    18.096969    22.969781    19.492864    8102.8606    4980.7793    3874.9539    3927.0058   -274.87171   -132.43007   -783.15665   -3861.7337 
 6684000    249.60632   -4866.3703   -4367.1269   -4866.3703            0    4963.0096    18.101118    23.018108    19.284464    8034.9392    4517.6828    5582.7403    4788.6058    754.53925   -147.49847    317.03451   -3785.5547 
 6685000     261.7613     -4833.02   -4309.4651     -4833.02            0    5875.3195    17.986869    23.067925    19.457979    8073.4993    6856.1178    5918.5404    4851.3005   -1354.0096    1171.0522    -2629.618   -3617.6832 
 6686000    252.47424   -4818.7963   -4313.8167   -4818.7963            0    7856.7957    18.019511    22.771567     19.36827    7947.4309    7112.7317    7568.3954      8889.26    265.69062   -1511.1936    2397.4639   -3403.1738 
 6687000    253.81905   -4851.2118   -4343.5423   -4851.2118            0    4949.0831    18.067454    22.940694    19.424233    8050.9547    6183.5739    5292.2805    3371.3949     347.7251    275.41847   -120.53098   -3762.4461 
 6688000    258.77374      -4836.8   -4319.2206      -4836.8            0    5385.1175    18.186977     22.47107    19.711974    8055.9061    5890.4369    5690.6301    4574.2855    1296.1234   -524.72622     970.2362   -3686.5386 
 6689000    243.77473    -4847.576   -4359.9964    -4847.576            0    6127.9393    18.251743    22.604926    19.401274    8004.5642    6899.5268    5589.4669    5894.8243    1438.6603   -310.66114    739.45064   -3644.6309 
 6690000    271.29987   -4834.1755   -4291.5423   -4834.1755            0    4462.8255    18.239614    22.506295    19.629761    8058.1372    3812.3731    5940.3707    3635.7326    827.59358   -113.82061    -149.7831   -3767.0725 
 6691000    257.33785   -4845.7478   -4331.0403   -4845.7478            0    6051.9264     18.18827    22.663486    19.497741     8037.156    6175.3412    6381.8484    5598.5898    322.69431    281.55408    521.29167   -3621.6717 
 6692000    256.25571   -4835.5967   -4323.0537   -4835.5967            0    5656.5915    18.170365    22.588579    19.541047    8020.4804    3598.8379    6852.2165    6518.7203   -676.47595    360.44136    481.73682   -3661.3994 
 6693000    259.91631   -4853.4126   -4333.5478   -4853.4126            0    5142.4913    18.201109    22.771826    19.368152    8027.5661    4938.4559    6074.3182    4414.6999    -279.8475   -273.04174    1114.5346   -3731.4967 
 6694000    266.87898   -4861.4739   -4327.6829   -4861.4739            0    5218.4547    17.941209    22.983371     19.44997    8020.1851    6634.7716    4854.5812    4166.0113    143.18008   -35.986328   -888.17487   -3717.3003 
 6695000    248.22232     -4827.34   -4330.8647     -4827.34            0    6222.2801    18.132045    23.123427    19.265277    8077.4495    6481.2942    5356.9065    6828.6396    43.315463   -275.36299    1333.7663   -3597.8719 
 6696000    257.56193   -4861.5342   -4346.3785   -4861.5342            0    6438.8604    17.931336    23.098023     19.35386     8015.951    7661.7125    5796.8326    5858.0363   -677.96548     262.9218   -992.94024   -3593.6473 
 6697000    251.49479   -4835.6714   -4332.6508   -4835.6714            0    6681.2108     18.01064    23.037735    19.266768    7994.2513     6016.165    6046.9964     7980.471   -881.33091    429.89747   -273.43244   -3553.7021 
 6698000    256.75387   -4841.4432   -4327.9037   -4841.4432            0    5436.9205     17.92132    23.506822    19.115802     8052.977    4757.8053    5892.3255    5660.6305     1599.838   -528.19723   -207.44294   -3689.3678 
 6699000    259.08516   -4839.4818   -4321.2795   -4839.4818            0    5523.9682    18.027388    23.126532    19.334315     8060.688    7543.0176    4279.4197    4749.4673   -1468.7231   -76.819095    -1095.551   -3671.8991 
 6700000    254.73459   -4851.9137   -4342.4131   -4851.9137            0    6264.8727    18.166453    23.059969    19.081669     7993.652     2981.417    6951.3614    8861.8397   -538.89766   -526.93173   -371.61983   -3612.0591 
 6701000    249.92087   -4841.9227     -4342.05   -4841.9227            0    4357.4906    18.092801    22.866308    19.461265    8051.4281    4329.5991    5445.7989    3297.0738   -1318.2098     57.93236   -934.35328   -3830.3856 
 6702000    252.94452    -4842.968   -4337.0477    -4842.968            0    5144.2052    18.153852    22.869315    19.474256     8085.052    4205.0842     5523.702    5703.8292    855.98741    828.45181    1231.7201   -3730.4832 
 6703000    240.35155   -4837.2559   -4356.5231   -4837.2559            0    7281.7186      18.0012    22.805001    19.390598    7960.1773    6197.6949    7996.4351    7651.0259    469.06417    352.30561    1383.8471   -3511.1809 
 6704000    234.21757    -4841.485   -4373.0209    -4841.485            0    5764.2441    18.073792    22.871875      19.4509    8040.6428    6438.8987    5654.0161    5199.8174   -556.06024    46.322502   -1766.8359   -3697.0795 
 6705000    252.23253   -4873.7398   -4369.2436   -4873.7398            0    5758.5135    18.048598    22.810384    19.524999    8038.3533    6641.6224    5615.7928    5018.1253   -940.08859    270.87562    -358.2494   -3694.1665 
 6706000    236.79184   -4833.4502   -4359.8372   -4833.4502            0     6100.658    18.285424    22.805541    19.252154    8028.3214    5161.9961    6363.1195    6776.8584   -2006.0188    821.94799   -1284.9733   -3645.5427 
 6707000      247.322   -4831.2867   -4336.6122   -4831.2867            0    5775.5664    18.078637     22.85834     19.55121    8079.4913    7606.4749    6020.8667    3699.3575   -122.03901    279.37455     1472.825   -3656.0709 
 6708000    261.65255   -4843.3165   -4319.9791   -4843.3165            0    5583.3312    18.065077    22.796778    19.553634    8052.6862    5385.0806    5765.1237    5599.7894   -932.54126    975.73506   -1383.5551   -3664.2717 
 6709000    249.65931   -4839.8547   -4340.5052   -4839.8547            0    4608.3465    18.271055    22.721087    19.484275    8088.6676    4647.6771    4015.8041    5161.5584    848.77815   -264.56456    1217.0385    -3796.882 
 6710000    269.31902   -4859.7156   -4321.0443   -4859.7156            0    3936.2037    18.090081    22.746515    19.616595    8071.9604    4380.1187    3661.0811    3767.4113    46.972581    -380.7163    425.20268   -3857.6694 
 6711000     267.5001    -4863.176   -4328.1427    -4863.176            0    7158.3154    18.248083    22.720424    19.247969    7980.2885     5761.811     7094.572    8618.5633   -793.65798   -21.645049   -12.462326    -3495.027 
 6712000    247.69901   -4825.7989   -4330.3703   -4825.7989            0    6691.4486    18.083794    22.859637    19.410288    8023.9986    5100.3741    7094.4547     7879.517    528.73461   -1212.7451   -507.05773    -3547.325 
 6713000    247.49442   -4835.7079   -4340.6885   -4835.7079            0    4500.3112    18.096405    23.001081    19.466567    8102.7028    4385.0059    5139.0062    3976.9214    -907.9482    509.84138    824.01021   -3808.8885 
 6714000    243.86287   -4837.6067   -4349.8508   -4837.6067            0    5673.9757    18.109918    22.879634    19.388191    8033.4641    6073.9453    6248.5829    4699.3988    -1043.233   -262.75591   -572.75801   -3685.0888 
 6715000    243.40654   -4870.3957   -4383.5525   -4870.3957            0    6652.6179    18.065499    22.712963    19.414965    7966.3682    6864.0269    6744.1355    6349.6913    1066.8763   -45.633194   -971.73181   -3610.6427 
 6716000    257.92969   -4857.9173    -4342.026   -4857.9173            0    5632.8151    18.069564    22.926239    19.454733    8059.4568     4068.842    5321.6987    7507.9045   -328.57603    364.39286     705.7267   -3679.9511 
 6717000    253.83481   -4880.0898   -4372.3889   -4880.0898            0    5933.7177    18.124536    22.873399    19.329089    8013.2553    5277.0446    4878.3865    7645.7221    209.24508   -886.19619    -256.0634   -3678.9443 
 6718000    256.50887   -4837.3125   -4324.2631   -4837.3125            0    4061.9202     18.10655     22.86423    19.551922    8094.3458    5465.7685    4379.5286    2340.4636    -728.0344    762.81464   -376.28074   -3844.7626 
 6719000    252.88141   -4849.3442   -4343.5502   -4849.3442            0    6200.0726    18.103978     22.93501    19.311199    8018.2979     5195.807     7034.701    6369.7099   -25.172008   -259.96837   -802.05242    -3618.522 
 6720000    258.50974    -4886.634   -4369.5826    -4886.634            0    7391.2655    18.018562    22.756748    19.380636     7946.911    7004.9716    7383.3902    7785.4346    551.22794    248.71416   -1128.2037   -3512.9531 
 6721000    240.62568   -4829.5369   -4348.2558   -4829.5369            0    4812.4469    18.100319    22.880327    19.502155     8076.646    5080.7921    4655.1083    4701.4402    2215.1935   -49.555463    525.55059   -3781.3997 
 6722000    229.39632   -4842.6604   -4383.8394   -4842.6604            0    4226.4994    18.152971    23.022403    19.368809    8094.7097    4072.6201    4019.4012     4587.477   -967.73694   -225.15805    598.89815   -3884.8884 
 6723000    253.43699   -4881.8888   -4374.9835   -4881.8888            0     7099.345    18.039005    22.672042    19.425534     7944.676    6323.9686    8050.6141    6923.4522    632.78287    506.96812    102.90648   -3552.4183 
 6724000    256.96329   -4852.0784   -4338.1201   -4852.0784            0    5173.8152    18.191955     22.73653     19.41684    8031.2306    4402.1833     6261.061    4858.2012   -1395.9452    483.47721    -533.6069   -3732.1253 
 6725000    253.17336   -4864.9585   -4358.5805   -4864.9585            0    6472.6568    18.064722    22.644995    19.575527    8007.8691    5352.9578    7587.0551    6477.9576   -284.29046     -235.298    738.78159   -3602.6612 
 6726000    234.99513   -4816.8975   -4346.8782   -4816.8975            0    3322.2054     18.33767    22.797117    19.434337    8124.4471    1363.8588    4592.1924     4010.565     1004.572   -694.85714   -965.66061   -3953.2409 
 6727000    257.80915   -4791.6426   -4275.9924   -4791.6426            0    5906.2308    18.046692    22.720074    19.586213    8030.7815    5567.9586    6433.9882    5716.7457   -370.92366   -400.25076    110.96565   -3584.2505 
 6728000    252.64509   -4816.8417   -4311.5203   -4816.8417            0    4642.9208    18.327307    22.677461    19.498436    8103.8775     2778.669    6134.5445     5015.549   -1124.8094   -558.12155   -861.06828   -3762.7886 
 6729000    244.21861   -4821.6896   -4333.2222   -4821.6896            0    3954.4119    18.058593    22.921715    19.548804    8091.9132    4351.7277    3884.6133    3626.8945   -113.87305   -859.45154    427.27765   -3866.5531 
 6730000    276.85243   -4845.7749   -4292.0358   -4845.7749            0    5270.0762    18.153062    22.939021    19.343843     8055.037    4799.8446    5160.5645    5849.8194    832.03992    226.77506    207.92584   -3672.9365 
 6731000      259.543   -4831.5175   -4312.3995   -4831.5175            0     5533.992    18.114631    23.127678     19.20559    8046.1694    3818.8523    4278.4283    8504.6955   -1336.5746   -581.98304   -38.799561   -3663.0125 
 6732000    248.51421   -4828.8142   -4331.7551   -4828.8142            0    4327.9949    17.908206    23.235594    19.506315    8116.7297    3704.2142    5543.0072    3736.7634   -519.63141    348.29154   -1125.2208   -3819.4323 
 6733000    241.02502   -4828.9239    -4346.844   -4828.9239            0    5949.6169    18.038899    23.201346    19.167797    8022.2358    7104.2405    5647.6262     5096.984   -848.25673    410.81751    -2065.806   -3650.7622 
 6734000    258.36734    -4833.984   -4317.2174    -4833.984            0     4176.013    17.809751    23.377052    19.336727    8050.6423    5867.9316    3741.6743    2918.4331    -115.6444    480.99998    2114.7842   -3826.9102 
 6735000    249.64269   -4855.3197   -4356.0034   -4855.3197            0    7349.1055     18.04365    22.962287    19.286287    7990.7613    8710.1104    6712.0072    6625.1988   -606.72965   -555.83446   -1343.9027   -3499.5603 
 6736000    246.49454   -4846.8805    -4353.861   -4846.8805            0    2710.6772    18.094373    23.141467    19.418343    8131.0495    2957.8412    1826.0914     3348.099   -225.74204   -411.55262   -1160.0903   -4032.4207 
 6737000    249.06983    -4848.019   -4349.8486    -4848.019            0    5222.9442    17.987325    22.846471    19.529376    8025.5368    4169.5337    5616.6549     5882.644    185.08054   -926.22909    737.04669   -3738.5331 
 6738000     258.0918   -4837.1203   -4320.9048   -4837.1203            0     6463.027    18.212507    22.754014    19.436389    8054.5882    4936.7366    7094.4986    7357.8457     356.5693    710.38086    630.65314   -3561.7066 
 6739000    256.55813   -4850.8265   -4337.6786   -4850.8265            0    4116.9751     18.22338    22.618294    19.665549    8105.7806    4200.4725     5393.752    2756.7007     569.9955    113.25652   -795.12234   -3850.9924 
 6740000    256.08604    -4833.175   -4320.9713    -4833.175            0    5956.3108    18.244943    22.696098    19.373957    8022.5427    5781.7801    6451.1187    5636.0335   -15.871512     308.6289   -1809.8222   -3624.0796 
 6741000    251.21314   -4863.7194   -4361.2621   -4863.7194            0    5393.9699    18.048879    22.675716    19.646706     8040.832     4667.543    6069.5178    5444.8489    653.30412    250.48809    267.94625   -3728.7259 
 6742000      258.437   -4861.0694   -4344.1635   -4861.0694            0    4898.9371    18.094973    23.239314    19.142296    8049.6183    4828.9126    3809.3313    6058.5675    1237.4306    63.733302    964.10043   -3769.0507 
 6743000    256.55687   -4817.7524    -4304.607   -4817.7524            0    5058.3234    17.961266    23.070754    19.371122    8027.0044    2557.6113    6007.8213    6609.5376   -803.00377   -734.08236   -601.12351   -3712.4512 
 6744000    244.73741   -4808.3201   -4318.8151   -4808.3201            0    6136.6305    18.091857    23.121685    19.258622    8056.1551     5444.187    6215.8787    6749.8256   -903.88794     1243.954   -1253.6453   -3597.8177 
 6745000    252.35384   -4795.8017   -4291.0628   -4795.8017            0    4449.7228    18.058445    23.022304    19.457145    8089.2501    5522.9638    4112.5254    3713.6792    289.96291   -192.54818     149.1188   -3766.1138 
 6746000    249.12439    -4846.757   -4348.4774    -4846.757            0     3749.847     18.00982    22.922486     19.61443    8097.4222     3749.148    4161.6879    3338.7052    1417.5449    23.275831    106.35822   -3905.6483 
 6747000    247.58538   -4835.7297   -4340.5283   -4835.7297            0    5272.9516    18.247157    22.902777    19.273698    8054.6821    4663.1366    4300.0326    6855.6857    17.424357   -663.19289    2010.7581   -3721.1185 
 6748000    253.39753   -4821.0866   -4314.2603   -4821.0866            0    7231.0797    17.917696    23.006714    19.531568    8051.4457    6349.2068     8412.121    6931.9113    693.37818     1086.723    1798.7643   -3465.1719 
 6749000     242.8008   -4830.8552   -4345.2236   -4830.8552            0    7614.6428    18.090214    22.827217    19.295189     7967.934    6598.5693    8762.1972     7483.162   -358.43788   -345.73945    401.32739   -3460.3706 
 6750000    250.75901    -4799.308    -4297.759    -4799.308            0    4751.5054     17.92122    22.945891    19.809422    8145.9984    4746.3595    6472.2081    3035.9487   -2749.3907    820.48215    -1863.231   -3733.2752 
Loop time of 474.524 on 64 procs for 250000 steps with 1008 atoms

Performance: 91.039 ns/day, 0.264 hours/ns, 526.843 timesteps/s
99.1% CPU use with 64 MPI tasks x 1 OpenMP threads

MPI task timing breakdown:
Section |  min time  |  avg time  |  max time  |%varavg| %total
---------------------------------------------------------------
Pair    | 28.228     | 32.494     | 36.157     |  32.9 |  6.85
Bond    | 0.27883    | 0.2869     | 0.29812    |   0.9 |  0.06
Kspace  | 219.16     | 225.16     | 232.2      |  21.9 | 47.45
Neigh   | 4.3131     | 4.8407     | 5.462      |  12.7 |  1.02
Comm    | 87.384     | 96.722     | 104.23     |  36.9 | 20.38
Output  | 0.90976    | 0.91182    | 0.9246     |   0.3 |  0.19
Modify  | 102.3      | 106.32     | 111.99     |  24.6 | 22.41
Other   |            | 7.79       |            |       |  1.64

Nlocal:        15.7500 ave          19 max          11 min
Histogram: 1 3 4 8 0 10 13 14 8 3
Nghost:        2462.84 ave        2480 max        2444 min
Histogram: 1 6 3 11 4 14 10 8 5 2
Neighs:        5134.19 ave        6226 max        3578 min
Histogram: 1 3 4 8 6 7 10 14 8 3

Total # of neighbors = 328588
Ave neighs/atom = 325.98016
Ave special neighs/atom = 2.0000000
Neighbor list builds = 9071
Dangerous builds = 0

unfix		3
unfix		2
unfix		1

write_data	data.final.${pid}
write_data	data.final.0
System init for write_data ...
PPPM initialization ...
  extracting TIP4P info from pair style
  using 12-bit tables for long-range coulomb (../kspace.cpp:340)
  G vector (1/distance) = 0.3775828
  grid = 24 27 32
  stencil order = 5
  estimated absolute RMS force accuracy = 0.0026428265
  estimated relative force accuracy = 7.9587936e-06
  using double precision FFTW3
  3d grid and FFT values/proc = 3825 384
Last active /omp style is kspace_style pppm/tip4p/omp
WARNING: Not all mixed pair coeffs generated from mixing. Use write_data with 'pair ij' option to store all pair coeffs. (../write_data.cpp:312)

write_restart   restart.lmp.${pid}
write_restart   restart.lmp.0
System init for write_restart ...
PPPM initialization ...
  extracting TIP4P info from pair style
  using 12-bit tables for long-range coulomb (../kspace.cpp:340)
  G vector (1/distance) = 0.3775828
  grid = 24 27 32
  stencil order = 5
  estimated absolute RMS force accuracy = 0.0026428265
  estimated relative force accuracy = 7.9587936e-06
  using double precision FFTW3
  3d grid and FFT values/proc = 3825 384
Last active /omp style is kspace_style pppm/tip4p/omp
Total wall time: 0:07:57
