LAMMPS (30 Jul 2021)
Processor partition = 0
  using 2 OpenMP thread(s) per MPI task
using multi-threaded neighbor list subroutines
variable        pid world 0 1
variable        phase world IceIh IceIII

shell cd ${phase}
shell cd IceIh
include Restart.lmp
echo both
log log.lammps
#include		in.partitions
include		in.temp
variable        temperature equal 25.22
variable	tempDamp equal 100.0
include		in.pressure
variable        pressure equal 2181.7
variable        pressureDamp equal 1000.0 # This is 1 ps
include		in.seed
variable        seed equal 745823

units		real
atom_style	full
#include		in.box
read_restart	restart.lmp.${pid}
read_restart	restart.lmp.0
Reading restart file ...
  restart file = 30 Jul 2021, LAMMPS = 30 Jul 2021
  restoring atom style full from restart
  orthogonal box = (0.19718765 0.17269925 0.13682515) to (18.010385 23.456479 22.076371)
  2 by 4 by 4 MPI processor grid
  restoring pair style lj/cut/tip4p/long/omp from restart
  restoring bond style harmonic/omp from restart
  restoring angle style harmonic/omp from restart
  864 atoms
  576 bonds
  288 angles
Finding 1-2 1-3 1-4 neighbors ...
  special bond factors lj:    0        0        0       
  special bond factors coul:  0        0        0       
     2 = max # of 1-2 neighbors
     1 = max # of 1-3 neighbors
     1 = max # of 1-4 neighbors
     2 = max # of special neighbors
  special bonds CPU = 0.002 seconds
  read_restart CPU = 0.008 seconds
include 	in.setup
variable	out_freq equal 1000
variable	out_freq2 equal 10000
variable	out_freq3 equal 1000

timestep	2.0

neigh_modify    delay 7 every 1

include		in.tip4p
# This is TIP4P/Ice

# create groups ###
group ox type 2
288 atoms in group ox
group hy type 1
576 atoms in group hy

# set charges - beside manually ###
set group ox charge -1.1794
Setting atom values ...
  288 settings made for charge
set group hy charge 0.5897
Setting atom values ...
  576 settings made for charge

# ### TIP3P Potential Parameters ###
pair_style lj/cut/tip4p/long/omp 2 1 1 1 0.1577 8.5
pair_coeff 1 1*2 0.000 0.000
pair_coeff 2 2 0.21084 3.1668
bond_style  harmonic
bond_coeff  1 450 0.9572
angle_style harmonic
angle_coeff 1 55 104.52
kspace_style pppm/tip4p/omp 1.0e-5
pair_modify tail yes

thermo          ${out_freq}
thermo          1000
thermo_style    custom step temp pe etotal epair emol press lx ly lz vol pxx pyy pzz pxy pxz pyz enthalpy

restart 	${out_freq3} restart.lmp.${pid} restart2.lmp.${pid}
restart 	1000 restart.lmp.${pid} restart2.lmp.${pid}
restart 	1000 restart.lmp.0 restart2.lmp.${pid}
restart 	1000 restart.lmp.0 restart2.lmp.0


include         in.dump
dump            myDump all atom ${out_freq2} dump.water.${pid}
dump            myDump all atom 10000 dump.water.${pid}
dump            myDump all atom 10000 dump.water.0
dump            myDump2 all dcd ${out_freq2} dump.dcd
dump            myDump2 all dcd 10000 dump.dcd
dump_modify     myDump append yes
dump_modify     myDump2 append yes


variable natoms 	equal  "count(all)"                        # NUMBER ATOMS
variable H      	equal  "enthalpy/v_natoms"                 # ENTHALPY-per-atom
variable Vol      	equal  "vol/v_natoms"                 # volume-per-atom
fix AVG all 		ave/time ${out_freq} 1 ${out_freq} v_Vol v_H file vol_enthalpy.dat
fix AVG all 		ave/time 1000 1 ${out_freq} v_Vol v_H file vol_enthalpy.dat
fix AVG all 		ave/time 1000 1 1000 v_Vol v_H file vol_enthalpy.dat


timer           timeout 23:50:00 every 1000
New timer settings: style=normal  mode=nosync  timeout=23:50:00

fix 		1 all shake 1e-6 200 0 b 1 a 1
Finding SHAKE clusters ...
       0 = # of size 2 clusters
       0 = # of size 3 clusters
       0 = # of size 4 clusters
     288 = # of frozen angles
  find clusters CPU = 0.002 seconds
fix             2 all nph aniso ${pressure} ${pressure} ${pressureDamp}
fix             2 all nph aniso 2181.7 ${pressure} ${pressureDamp}
fix             2 all nph aniso 2181.7 2181.7 ${pressureDamp}
fix             2 all nph aniso 2181.7 2181.7 1000
fix             3 all temp/csvr ${temperature} ${temperature} ${tempDamp} ${seed}
fix             3 all temp/csvr 25.22 ${temperature} ${tempDamp} ${seed}
fix             3 all temp/csvr 25.22 25.22 ${tempDamp} ${seed}
fix             3 all temp/csvr 25.22 25.22 100 ${seed}
fix             3 all temp/csvr 25.22 25.22 100 745823


run             250000
PPPM initialization ...
  extracting TIP4P info from pair style
  using 12-bit tables for long-range coulomb (../kspace.cpp:340)
  G vector (1/distance) = 0.3721406
  grid = 24 27 25
  stencil order = 5
  estimated absolute RMS force accuracy = 0.0031144653
  estimated relative force accuracy = 9.3791197e-06
  using double precision FFTW3
  3d grid and FFT values/proc = 4410 672
Last active /omp style is kspace_style pppm/tip4p/omp
Neighbor list info ...
  update every 1 steps, delay 7 steps, check yes
  max neighbors/atom: 2000, page size: 100000
  master list distance cutoff = 10.8154
  ghost atom cutoff = 10.8154
  binsize = 5.4077, bins = 4 5 5
  1 neighbor lists, perpetual/occasional/extra = 1 0 0
  (1) pair lj/cut/tip4p/long/omp, perpetual
      attributes: half, newton on, omp
      pair build: half/bin/newton/omp
      stencil: half/bin/3d
      bin: standard
Setting up Verlet run ...
  Unit style    : real
  Current step  : 45750000
  Time step     : 2
  Walltime left : 23:49:59.94
Per MPI rank memory allocation (min/avg/max) = 10.21 | 10.22 | 10.23 Mbytes
Step Temp PotEng TotEng E_pair E_mol Press Lx Ly Lz Volume Pxx Pyy Pzz Pxy Pxz Pyz Enthalpy 
45750000    27.975644   -4697.5411   -4649.5918   -4697.5411            0    2293.5324    17.813197    23.283779    21.939546    9099.6141    2867.8124    2030.0698    1982.7152    237.46922     271.5699    30.648926   -4345.2205 
45751000    24.554696   -4694.4149    -4652.329   -4694.4149            0    2308.8667    17.919125    23.326201    21.770009    9099.5395    2215.5995     1881.433    2829.5677   -261.70926   -82.731114    261.27384   -4345.9252 
45752000    25.125364   -4695.6855   -4652.6214   -4695.6855            0    2235.1751    17.914882    23.244332     21.85332     9100.148     2600.835    2176.5243     1928.166   -50.590834    355.50795   -17.870405   -4355.9772 
45753000    24.298341    -4694.775   -4653.1284    -4694.775            0     2308.215    17.930836     23.19931     21.85998    9093.3805    2282.6371    2185.9285    2456.0795   -237.84868    -441.7289    102.71717   -4347.0184 
45754000    22.932819   -4695.6817   -4656.3756   -4695.6817            0    2314.5349    17.843672    23.327136    21.828189    9085.8038    2510.1936    2347.3283    2086.0828   -100.56913    100.97456   -302.16128   -4349.6832 
45755000      25.9965    -4695.798   -4651.2409    -4695.798            0    2177.3456    17.934575    23.216157    21.850538    9097.9503    1979.8828     2135.412     2416.742    96.847864    120.21874     405.9711   -4362.3414 
45756000    25.956377    -4696.109   -4651.6206    -4696.109            0    2501.7019    17.821085    23.307124    21.877437    9086.9739    2538.4589    2329.5564    2637.0904    41.671036    300.84492    323.07905   -4320.0846 
45757000    24.907815   -4695.4173   -4652.7262   -4695.4173            0    2262.9954    17.919254    23.245606    21.847794    9100.5661    1971.9003    2471.9699    2345.1159   -240.67507   -351.06708    98.344618   -4352.3759 
45758000    25.292739   -4694.0751   -4650.7242   -4694.0751            0    2501.2731    17.847355    23.259759    21.898943    9090.8028    2499.6345     2899.212    2104.9727     20.89522     228.1361    120.22884   -4319.1053 
45759000    26.110128   -4694.9375   -4650.1856   -4694.9375            0    2152.3305    17.991678     23.13543    21.862553     9100.183    1618.8275    2361.4578    2476.7063    108.05874   -202.79066   -1.7502786   -4364.5351 
45760000    25.305122   -4695.6095   -4652.2374   -4695.6095            0    2294.7687    17.915531    23.216944    21.859724    9092.4182    2052.2503    2177.3129    2654.7428   -261.07321    140.28248    321.22858   -4347.9428 
45761000    23.915242   -4694.2575   -4653.2676   -4694.2575            0    2115.0814    17.936717    23.250235    21.841189    9108.4942    1901.5465    2376.8936    2066.8042   -78.022147   -115.15796   -42.449662   -4372.3043 
45762000    26.710706   -4694.3179   -4648.5366   -4694.3179            0    2054.0288    17.899011    23.226573    21.899136    9104.1866    1999.3676    2298.7597    1863.9589   -507.51738    72.192826    84.020218   -4375.8125 
45763000    25.638033   -4693.5291   -4649.5864   -4693.5291            0    2242.3147    17.888602      23.2341    21.891393    9098.6229    1975.8579    2140.1865    2610.8998   -368.89342    233.43342   -260.81688   -4352.0445 
45764000    24.774515   -4697.2356   -4654.7729   -4697.2356            0    2050.1326    17.809572    23.351891    21.907159    9110.9067     2436.844    1844.0027    1869.5511    -129.7988   -124.78137    151.48651   -4382.3652 
45765000    25.522812    -4696.072   -4652.3268    -4696.072            0    2408.4858    17.854883     23.36173    21.804486     9095.108    2557.6205    2102.9002    2564.9368    156.14995    160.50261    48.101743   -4332.8584 
45766000    25.879668   -4696.5164   -4652.1595   -4696.5164            0     2255.489    17.830426    23.359467    21.847292    9099.5992    2522.5955    1840.1131    2403.7584   -433.89699    41.657415   -147.01249   -4352.8374 
45767000    25.940717    -4696.132   -4651.6705    -4696.132            0    2341.7416    17.913383    23.133643     21.93237    9088.8138    2601.6604    2379.7326    2043.8318   -26.316893    31.411801   -243.22635   -4341.2702 
45768000    25.121804   -4698.3494   -4655.2915   -4698.3494            0    1887.5423    17.881028    23.214433    21.961469    9116.1603    2548.5631    1839.9974    1274.0664   -293.52826   0.26520081    103.39994    -4404.343 
45769000    24.604161   -4694.0732   -4651.9025   -4694.0732            0    2364.6955    17.907855    23.274493    21.811371    9090.8975     2442.805    1978.9081    2672.3733   -137.52248   -65.384874    147.12337   -4338.3879 
45770000    24.349001   -4695.7688   -4654.0354   -4695.7688            0    2356.5676    17.860953    23.290435    21.858926    9093.0808    2511.9752    1885.4279    2672.2996   -141.96388   -159.75021    217.18071   -4341.5233 
45771000    25.256886   -4698.7326   -4655.4431   -4698.7326            0    2302.5747    17.941854    23.252473    21.805141    9096.9408    2433.3976    1851.1768    2623.1497    164.11985   -21.275939    318.56681   -4349.9616 
45772000    26.206085    -4694.985   -4650.0686    -4694.985            0    2169.4513    17.852292    23.260523    21.908589    9097.6213    2278.4944    2166.3631    2063.4966   -44.249819   -200.95703    -9.487426    -4362.227 
45773000     25.43916   -4698.8481   -4655.2462   -4698.8481            0    2024.8214    17.905291    23.239507    21.891024    9109.0767    1856.2461    2321.9402    1896.2779    161.36876    156.27042   -99.508575   -4386.2557 
45774000    26.389995   -4693.2514   -4648.0199   -4693.2514            0    2044.2737    17.848942    23.309884    21.900074    9111.6739    2205.1619    2202.5633     1725.096   -330.19774    11.796456    98.763741   -4376.3678 
45775000    24.287709   -4691.9406   -4650.3123   -4691.9406            0    1976.8789    17.869487    23.193007    21.955287    9099.3054    2363.7521    2049.6921    1517.1925   -37.808416    138.98178   -123.39551   -4387.9725 
45776000    26.409063   -4693.5884   -4648.3241   -4693.5884            0    2669.8423    17.860739    23.218833    21.900934    9082.4381    2989.4243    2568.1923    2451.9103    157.04558   -33.080422    2.8349594    -4294.682 
45777000    25.515961   -4694.4268   -4650.6933   -4694.4268            0    2430.6552    17.880964    23.215521    21.890861    9087.2442    2742.1628    2064.5359     2485.267   -295.26903   -286.75059     330.6335   -4328.5631 
45778000    25.409781   -4698.8078   -4655.2563   -4698.8078            0     2058.931    17.887112    23.279489    21.848728    9097.8719    2145.4005      1666.65    2364.7427   -107.16687    8.6243798    133.81078   -4382.0709 
45779000     25.08568   -4698.5911   -4655.5951   -4698.5911            0    2166.3253    17.896374    23.278511    21.826931    9093.1198    2389.1224    1894.3755    2215.4779   -140.01863   -83.873274    186.27259   -4368.3104 
45780000    26.374892   -4695.3352   -4650.1295   -4695.3352            0    2319.2453     17.85261    23.264361    21.892712    9092.6906    2367.5079    2520.5622    2069.6657   -45.599855    200.59077   -86.904277     -4342.58 
45781000    26.739624   -4696.0349   -4650.2041   -4696.0349            0    2112.4788    17.903504     23.32132    21.814358    9108.2218    1863.1496    2360.4117     2113.875   -139.07267   -401.49878    22.790116   -4369.5949 
45782000    25.657385   -4694.4275   -4650.4516   -4694.4275            0    2329.2009    17.839597    23.268245     21.91336    9096.1501    2307.7993    3031.2586    1648.5449    107.61142    364.87016     365.0649   -4341.4644 
45783000    25.936133    -4697.069   -4652.6153    -4697.069            0    2123.9423     17.89429    23.275406    21.854366    9102.2751    1957.7277    2048.4895    2365.6097   0.43380751   -458.04885   -23.847523   -4370.6676 
45784000    24.494254   -4697.2335   -4655.2512   -4697.2335            0    2313.8371    17.893829    23.231459    21.871034    9091.7833    2430.9807    2469.8323    2040.6984   -298.87004    148.39529    91.860966   -4348.4495 
45785000    23.935182   -4699.3463   -4658.3223   -4699.3463            0     1893.487    17.948555    23.139987    21.935547     9110.476    2004.5693    1858.6767    1817.2151    347.60036    226.57907    73.982236   -4406.7404 
45786000    24.701113   -4696.9455   -4654.6086   -4696.9455            0    1997.7858    17.866608    23.267821    21.924318    9114.3126    2305.9122    1721.1988    1966.2464   -57.725195    121.12396      73.8842   -4389.0571 
45787000    26.022617   -4695.0302   -4650.4283   -4695.0302            0    2814.4864    17.803574    23.327702    21.828341    9065.6697    2799.2343    2555.6491    3088.5759    376.53981     24.78699    315.50081   -4278.3152 
45788000    25.279763   -4696.7616    -4653.433   -4696.7616            0    2188.3553    17.859315    23.334646    21.837517    9100.5843    2345.9477    2078.6561     2140.462    10.760667    21.092014   -131.58764   -4362.9886 
45789000      25.3786   -4695.7398   -4652.2417   -4695.7398            0    2031.6498    17.901237    23.308583    21.833574    9110.1121    1765.4275    1850.7792    2478.7426    182.71292    16.786589    141.03036   -4382.3134 
45790000    24.975104   -4696.9415    -4654.135   -4696.9415            0     2309.742    17.903299    23.246407    21.848407    9093.0311    2368.8463    2445.9882    2114.3914   -324.78368    -64.05639   -16.281096   -4347.8343 
45791000    24.696026   -4696.5631   -4654.2349   -4696.5631            0    1879.0447     17.91135    23.262329    21.872645    9113.4503    1630.7663    1935.1599    2071.2079    339.93815    29.985138    76.182695   -4404.4905 
45792000    23.631801   -4693.2864   -4652.7823   -4693.2864            0    2209.2558    17.852536    23.242513    21.951756    9108.6134    2352.4367    2290.9706    1984.3602   -222.46159    106.61994    232.42318   -4359.3053 
45793000     25.70211    -4694.633   -4650.5804    -4694.633            0    2383.5379    17.821365    23.258156     21.91807    9084.8671    2603.4662    2299.9915    2247.1561    240.22235   -242.69081   -291.51731   -4334.7772 
45794000    25.046722    -4695.088   -4652.1587    -4695.088            0    2228.3745    17.935969    23.238123    21.851908    9107.8372    1878.9602    2531.8203    2274.3429   -41.181425    124.86518    433.80038   -4356.1672 
45795000    23.121356   -4697.7556   -4658.1264   -4697.7556            0    2025.2471    17.951033    23.275498    21.800366    9108.6121    1844.6877     1846.953    2384.1007    -360.9065   -202.35124    -156.6372   -4389.0931 
45796000    26.596347   -4695.6409   -4650.0557   -4695.6409            0    2493.5845    17.942089    23.156067    21.884706    9092.3996    2308.3695    2654.2636    2518.1205   -376.26361   -137.62156    193.25458   -4319.3981 
45797000    24.732189   -4697.7468   -4655.3567   -4697.7468            0    1935.2928    17.866989    23.230529    21.948179    9109.8027    2123.4832    2060.8473    1621.5478   -375.82135    278.72977    174.21679   -4398.2392 
45798000    26.031603   -4697.0146   -4652.3973   -4697.0146            0    1980.7113     17.84941    23.281778    21.930875    9113.7261    1939.9663    2075.3264    1926.8412    287.26588   -398.20254   -241.36792   -4389.1324 
45799000    27.007283   -4696.6301   -4650.3406   -4696.6301            0    1953.0801    17.946287    23.161934    21.912706    9108.4701     1670.189    1786.6586    2402.3926    162.51497    46.257123     165.2225   -4390.8979 
45800000    26.154637   -4698.1266   -4653.2984   -4698.1266            0    2659.0371    17.859653    23.267952    21.837846    9074.8817    3053.4331    2360.8702     2562.808   -146.15824   -159.85683   -17.347283   -4301.3806 
45801000    25.804662    -4694.808   -4650.5797    -4694.808            0     2415.955    17.870507    23.313835    21.812336    9087.6749    2474.2093    2019.1605    2754.4951    -281.6834    144.30821     197.4504   -4330.3825 
45802000    24.545143   -4694.9411   -4652.8716   -4694.9411            0    2456.9856    17.837395    23.296105    21.868873    9087.4315    2738.8144    2422.2825    2209.8598   -20.803143    80.057921    71.879713   -4327.2452 
45803000    24.407418   -4696.5812   -4654.7478   -4696.5812            0    2302.5081    17.918153    23.243226    21.824459    9089.3562    1911.1359    2283.5342    2712.8543    191.33512   -40.618381    58.726462   -4349.5297 
45804000    25.912141   -4696.1014   -4651.6889   -4696.1014            0    2036.7987    17.832285    23.288159    21.925043    9105.0559    2535.8037    1921.3443    1653.2481    237.83894    56.399026    47.976657   -4381.2266 
45805000    25.246914   -4696.1626   -4652.8903   -4696.1626            0    2147.5119    17.910326    23.250967    21.862341    9104.1873    1899.5573    2072.6132    2470.3652   -385.54828    55.181994    12.881621   -4367.7539 
45806000      25.4956   -4692.5984   -4648.8998   -4692.5984            0    2253.9592    17.914611    23.177264    21.910996    9097.7015    1866.2497    2580.3817    2315.2462     576.7665    56.562939   -81.403003   -4349.8431 
45807000    25.327496    -4696.297   -4652.8866    -4696.297            0    2174.1263    17.947202    23.201749    21.848956    9098.0471    1481.9738     2283.512    2756.8932    218.53616    151.23762    165.49487   -4364.4111 
45808000    25.120548    -4695.251   -4652.1953    -4695.251            0    2431.3367    17.889924    23.175035    21.913672    9085.4002     2290.452    2506.4635    2497.0945   -118.66962   -278.20329   -72.606645   -4330.0401 
45809000     26.00398   -4697.5709    -4653.001   -4697.5709            0    2038.1067    17.952102    23.227774    21.832776    9103.9918    2116.9608    2203.3249    1794.0344   -447.29553    89.578397    62.155027   -4382.3967 
45810000    24.260121   -4697.5697   -4655.9887   -4697.5697            0    1841.4052    17.910475    23.244824     21.88967    9113.2352    1642.7813    1907.6035    1973.8308    99.885949   -92.524555    35.775395   -4411.2527 
45811000    25.399391     -4696.47   -4652.9363     -4696.47            0    2232.8108    17.905608     23.28288    21.832622    9101.8917    1749.4454    2141.8924    2807.0946   -243.59753    3.1715244    206.89856    -4356.549 
45812000    25.203006   -4694.9502   -4651.7531   -4694.9502            0    2125.9946    17.913683    23.267329    21.846147    9105.5513    2183.7761    1956.5593    2237.6484      45.3977   -274.68284    84.867931   -4369.4313 
45813000    25.800855   -4691.7738    -4647.552   -4691.7738            0    2286.1704    17.853939     23.27388    21.900389    9100.2785     3054.613     1887.585    1916.3133   -154.48622    150.43026    168.70729   -4344.1355 
45814000    25.979514   -4697.8549   -4653.3269   -4697.8549            0    2310.2481    17.931514    23.246289    21.815744       9093.7    2218.4936    2201.9832    2510.2674   -162.39873   -33.869245    177.84437   -4346.9365 
45815000    24.784644   -4698.2992   -4655.8192   -4698.2992            0    1982.9545    17.892954    23.272679    21.870285    9107.1579    2371.3581    1706.9781    1870.5274   -211.23823   -9.0840129   -73.585975    -4392.446 
45816000    25.775659   -4694.6176    -4650.439   -4694.6176            0    2317.7267    17.897971    23.282645    21.821741    9093.3836    2268.9109    2316.3142    2367.9549   -348.78454    76.829547    235.55107   -4343.0674 
45817000    24.540314   -4698.9761   -4656.9148   -4698.9761            0    2116.7551    17.866951    23.236866    21.922627    9101.6598    2283.4653    2059.8414    2006.9585   -199.85487   -41.484952   -211.84331   -4375.9402 
45818000    25.278023   -4695.7927    -4652.467   -4695.7927            0    2226.1048    17.880312    23.147846    21.984832    9099.3181    2550.7049    2113.9401    2013.6693    60.241012   -109.44229    -60.80353   -4357.0535 
45819000    23.752788   -4697.0222   -4656.3107   -4697.0222            0    2062.5908    17.890855    23.264509    21.860889    9098.9824     2089.594    1990.4881    2107.6902   -293.39867    216.75179    37.480859   -4382.6063 
45820000    25.067975   -4695.2648   -4652.2991   -4695.2648            0    2029.4559    17.862992     23.25594    21.912193    9102.7776    2376.7683    1836.7862    1874.8132     189.6504    -40.03128    91.411507   -4382.8794 
45821000    24.220504   -4694.4103   -4652.8972   -4694.4103            0    2154.1825    17.829291    23.384429     21.82708    9100.3161    2405.2479    1802.7592    2254.5403   -306.74262   -144.86134    91.754362   -4366.9967 
45822000    25.648591   -4690.3178    -4646.357   -4690.3178            0    2552.0377    17.799968    23.259032    21.922872    9076.2891     2473.225    2781.5251    2401.3629    -166.4226   -41.448363    44.744501    -4308.548 
45823000    24.027967   -4696.4756   -4655.2925   -4696.4756            0    2605.9831    17.883317    23.181271    21.886967    9073.4173    2658.8074    2805.1699     2353.972   -179.47999    213.23197    339.42477   -4310.4519 
45824000    26.036817   -4698.9771   -4654.3509   -4698.9771            0    1883.9283    17.880491    23.276782    21.887793    9109.7059    2072.8691     1663.373    1915.5428   -66.510379   -270.07817   -159.12065   -4404.0603 
45825000    25.913682   -4697.4807   -4653.0656   -4697.4807            0    2158.8307    17.909097     23.19489    21.888546    9092.4918    2052.9497    2175.1247    2248.4177    76.314731   -12.964435    404.87867   -4366.7945 
45826000    24.718328   -4695.8036   -4653.4372   -4695.8036            0    2182.7341    17.898333    23.157258    21.953246    9099.1004    1891.4644    2348.9459     2307.792   -81.253345    22.209951   -117.78571   -4363.7861 
45827000    24.577624   -4697.2404   -4655.1152   -4697.2404            0    1979.1735    17.921037    23.196737    21.903226    9105.3806    1972.7395    2368.2401    1596.5408    289.03813   -197.54162    287.01515   -4392.2955 
45828000    27.010714   -4694.3516   -4648.0562   -4694.3516            0    2186.7502    17.888333    23.236572    21.888553    9098.2734    1865.6823    2429.8034    2264.7648    12.496672   -23.475296    -119.4096   -4357.8985 
45829000    25.355602   -4697.0381   -4653.5795   -4697.0381            0    2384.3429    17.885879    23.301656    21.829815    9098.0251     2039.561    2588.7583    2524.7095    -77.26997   -165.38763   -151.45691   -4337.2121 
45830000     26.35587   -4693.9819   -4648.8088   -4693.9819            0    2164.3227    17.831078    23.308229    21.887844    9096.8256    1987.9528    2168.8522    2336.1631    189.12636    23.196643    525.70668   -4361.6727 
45831000        24.97   -4695.4868   -4652.6891   -4695.4868            0    2252.5024    17.879033     23.25152    21.890918    9100.3764     2232.694     2662.456    1862.3571   -224.84127    124.99075   -281.75921   -4353.7378 
45832000    25.091296   -4697.5112   -4654.5056   -4697.5112            0    2224.2116    17.855012    23.331351    21.842137    9099.0315    2224.5513    1980.7759    2467.3078    210.40639   -119.14417    110.11388   -4359.3526 
45833000    24.398969     -4696.17    -4654.351     -4696.17            0    2267.4859    17.800515    23.206262    21.997905    9086.9699    2877.1939    2551.5808    1373.6832   -375.73878    9.5456817    29.038875   -4353.8544 
45834000    25.898672   -4693.8316   -4649.4421   -4693.8316            0    2386.7044    17.899409    23.202508    21.891116    9091.6252    2414.9411    2406.4655    2338.7066   -147.84683   -6.7569424    130.85402   -4332.9842 
45835000    26.578119    -4699.094     -4653.54    -4699.094            0    2159.9382    17.884639    23.308802    21.836225    9102.8564    2126.9406    1816.7015    2536.1724    171.02675    11.258631    165.49276   -4366.7957 
45836000    24.686858   -4695.3234    -4653.011   -4695.3234            0    1850.7408    17.906242    23.244431    21.878898     9106.444    2071.1034    1822.2011    1658.9177   -109.86334   -52.549863   -11.318524   -4407.2175 
45837000    24.824016   -4696.3752   -4653.8277   -4696.3752            0    2226.7511    17.933882    23.164785    21.905671    9100.3722    1970.4241    2090.0856    2619.7435   -4.8024381   -92.877928    376.41771   -4358.2942 
45838000     26.19552   -4694.6721   -4649.7739   -4694.6721            0    2163.5551    17.916737    23.206983     21.89445    9103.5681    2034.9373    2405.0831    2050.6449    -22.01187   -54.323793   -198.37554   -4362.5269 
45839000    24.106633   -4696.6356   -4655.3176   -4696.6356            0    2089.7941    17.843164    23.289943    21.890687    9097.0312    2446.6512    2049.9101    1772.8208   -207.34025   -205.67212    158.38863   -4378.0628 
45840000    25.137016   -4694.6892   -4651.6052   -4694.6892            0    2383.7404    17.928014    23.161361    21.885314    9087.5962     2214.875    2476.5593    2459.7867   -4.1480721   -114.49481    347.29916   -4335.6803 
45841000    24.677242   -4697.8601   -4655.5642   -4697.8601            0    2506.7649    17.933262    23.213313    21.810204    9079.3795     2317.508    2522.6911    2680.0957   -244.12791   -175.10379    146.83204   -4323.6348 
45842000    25.942316   -4694.9035   -4650.4393   -4694.9035            0    2245.6256    17.880641    23.186155    21.937753    9095.0264    2346.0401     2396.983    1993.8536   -511.53671   -38.330898   -149.18663   -4352.5758 
45843000    24.910719   -4698.6071    -4655.911   -4698.6071            0    1959.2138    17.871038     23.30893    21.869557    9109.8687    1913.5637    1951.6337    2012.4441    -388.1225    221.30967   -42.894267   -4395.6135 
45844000    24.700249   -4695.5248   -4653.1894   -4695.5248            0    2116.0726    17.807873    23.380371    21.854901    9099.3904    2276.7022    2170.3597     1901.156    235.60979    -125.8729    81.470396   -4372.3754 
45845000     25.07414   -4697.8051   -4654.8289   -4697.8051            0    2118.7354    17.874347    23.229772    21.932363    9106.6903    2308.4951    2374.3822    1673.3289   -58.815815    1.8125794   -139.58824   -4373.4359 
45846000    26.242297   -4696.1186   -4651.1402   -4696.1186            0    2115.8515    17.887885    23.254904    21.894248    9107.5917    2345.8695    2106.5398    1895.1451    48.354459    1.0449137    173.52105   -4370.1025 
45847000    25.086817   -4695.2762   -4652.2783   -4695.2762            0    2275.5202    17.943624    23.220843    21.825807    9094.0735    2150.3164     2182.295    2493.9491    160.70704     46.69905   -121.13807   -4350.4812 
45848000    25.458712   -4698.8884   -4655.2531   -4698.8884            0     2397.466    17.897691    23.197142     21.89281    9089.3535    2474.3719    2418.7675    2299.2585   -126.01702    -276.9365    250.43013   -4337.4476 
45849000     24.57694   -4694.3259   -4652.2019   -4694.3259            0     2363.298    17.894361    23.306885    21.809935    9096.0909    2137.0049    2244.6799    2708.2091    69.038019    223.50299   -141.59829   -4338.6935 
45850000    24.384906   -4697.6819    -4655.887   -4697.6819            0    2103.8712    17.877123    23.312096    21.846581    9104.6326    2305.4761    1816.5337    2189.6039   -163.62766    24.804371    126.94387   -4376.5313 
45851000    25.192502   -4699.5736   -4656.3945   -4699.5736            0    2182.8204    17.901404    23.287112    21.830507    9100.5268    2079.3896    2184.6529    2284.4187   -36.089679    95.211967   -186.10145   -4366.6866 
45852000    25.700056   -4695.2989   -4651.2499   -4695.2989            0    2271.8048    17.888153    23.218398    21.902606    9096.9022    2432.7527    2155.3679    2227.2938     165.9054   -118.92108    133.10017   -4349.8519 
45853000    25.756752   -4695.7218   -4651.5756   -4695.7218            0    2391.4655     17.88612    23.256957    21.855939    9091.5614    2594.9642     2041.838    2537.5942    3.2486338    128.69999    65.678132   -4334.4886 
45854000    25.617855   -4697.9504   -4654.0423   -4697.9504            0    2104.0173    17.909641    23.258746     21.85328    9103.1105    2524.7144    2140.3943     1646.943   -144.48335    -31.22759    147.88213   -4374.7139 
45855000    25.033181   -4693.1443   -4650.2383   -4693.1443            0    2311.1757    17.826196     23.26775     21.90785    9086.8385    2633.3745    2149.4058    2150.7467   -158.85764    32.321624    152.13713   -4343.9562 
45856000    24.521384   -4697.7629   -4655.7341   -4697.7629            0    2260.6604    17.991225    23.226353    21.752921    9089.9054     2425.452    1942.8387    2413.6905    -120.9549   -101.44086    131.90615   -4356.0452 
45857000    24.747029   -4697.2424   -4654.8268   -4697.2424            0    2225.9559    17.850529    23.275758     21.90879    9102.7648    2548.8606    2170.5862     1958.421   -30.399068   -86.473473    9.6357302   -4359.3212 
45858000    25.860403   -4697.6947   -4653.3709   -4697.6947            0    2055.0701    17.917515    23.244007    21.869915    9108.2692    1975.6045    1827.8654    2361.7405   -80.339366    111.65175    36.649448   -4380.3861 
45859000    25.007438   -4696.0853   -4653.2234   -4696.0853            0    2183.0038    17.895081    23.224524    21.886308    9096.0534    2044.8598    2318.8023    2185.3492    121.17316   -109.84531    312.36264   -4363.6336 
45860000    25.383986   -4697.6929   -4654.1856   -4697.6929            0    2336.9457    17.953061    23.188974    21.847409    9095.3618    2021.6052    2885.7683    2103.4638   -211.73068    55.120852    68.137249   -4344.1979 
45861000    24.785562   -4693.8883   -4651.4067   -4693.8883            0     2011.992    17.854355    23.269734    21.924913    9109.0575    2211.5467    2053.7936    1770.6357    267.49595   -174.47088    115.78388   -4384.1211 
45862000     25.54503   -4696.4734   -4652.6901   -4696.4734            0    2372.4865    17.870004    23.186224    21.935432    9088.6813    2560.5018    2411.3028     2145.655   -219.73099    391.63323   -265.05684   -4338.2191 
45863000    25.213224   -4697.0737   -4653.8591   -4697.0737            0    1980.0938    17.886613    23.278957    21.885581    9112.7554    1925.9846    2179.3332    1834.9635    119.71969   -211.08122    312.45337   -4390.7043 
45864000    26.245129   -4692.6067   -4647.6235   -4692.6067            0    1951.6712    17.849533    23.185197    22.012804    9109.8872    2217.0331    2098.8573    1539.1233    70.367625    149.63004    12.689468   -4388.3276 
45865000    26.916062   -4696.5129   -4650.3797   -4696.5129            0    2234.9095    17.880981    23.341591    21.780273    9090.4447    2260.7218    2057.6708    2386.3359   -197.98821   -132.55348    -76.10499    -4354.087 
45866000    23.561889   -4696.3135   -4655.9292   -4696.3135            0    2172.4801    17.912428    23.320717     21.79815    9105.7558    1868.6414    2228.6877    2420.1112   -615.96366    130.82478     54.32473    -4367.428 
45867000     24.79904   -4697.9199   -4655.4152   -4697.9199            0    2426.5882    17.897194     23.14795    21.933467    9086.6701    2593.2607    2877.5469    1808.9569    174.04096   -332.96958    82.197921   -4333.8443 
45868000    24.193947   -4696.8335   -4655.3659   -4696.8335            0    2509.5122     17.80383    23.392335    21.823409    9088.8642    2682.2997    2221.7799     2624.457   -439.81897    35.726307   -9.5857777   -4322.7256 
45869000    25.163021   -4695.3499   -4652.2214   -4695.3499            0     2170.993     17.90563    23.310141    21.802937    9100.1698    2091.0454    2408.0524    2013.8813     300.9978   -364.73538   -68.865199   -4364.0945 
45870000    24.403539   -4696.2128    -4654.386   -4696.2128            0    1999.9939       17.901    23.240731     21.89947    9110.8875    2072.5772    2246.6115    1680.7931     -468.012    131.60816    215.05919   -4388.6409 
45871000    25.004483   -4697.9477   -4655.0909   -4697.9477            0    1932.8749    17.939102    23.241663    21.838188    9105.0957    1574.5503    1969.6759    2254.3986   -16.369727   -166.10008   -22.125749   -4398.4274 
45872000     26.28821   -4693.6315   -4648.5744   -4693.6315            0    2614.0388    17.886059    23.185762    21.884373    9075.4912    2601.1096    2706.4874    2534.5195   -5.2149513    223.72297    185.67754   -4302.5888 
45873000     24.29332   -4697.8482   -4656.2103   -4697.8482            0    2265.7992    17.947562    23.119316    21.905418    9089.3324    2074.4863    2866.4297    1856.4816    176.85846    116.18809    52.926561   -4355.8592 
45874000    25.599491    -4694.857   -4650.9804    -4694.857            0     1894.963    17.880254    23.280056    21.879515    9107.4203    1794.1248     1983.257    1907.5071    76.693801    176.11181   -128.49221   -4399.2869 
45875000     26.27423   -4694.9881    -4649.955   -4694.9881            0    1900.9457    17.857122    23.329664    21.879965     9115.208    1986.2056    1609.5459    2107.0856   -97.367787   -214.59805     218.1565   -4397.2509 
45876000    25.248532   -4696.1638   -4652.8887   -4696.1638            0    2190.2097    17.917728    23.209949    21.895479    9105.6627    2104.0008    2281.8514    2184.7771   -191.14547    9.6527225   -140.63903    -4362.036 
45877000    25.311128     -4694.55   -4651.1676     -4694.55            0    2238.9814    17.888766    23.241528    21.883345    9098.2687    2133.5224    2162.0992    2421.3227   -384.08045    233.12453    270.06768   -4354.0795 
45878000    26.015858   -4696.9796   -4652.3893   -4696.9796            0    2293.3909    17.902275    23.225175    21.881594    9098.0046    1997.6814     2716.447    2166.0444   -191.60299   -53.165544   -184.35789   -4348.0906 
45879000    26.990426   -4697.5295   -4651.2688   -4697.5295            0    2049.4737    17.888248    23.260749    21.878252    9103.4103      1913.11    2170.8577    2064.4535   -92.585712   -293.62015    17.471534   -4379.1727 
45880000    23.171624   -4695.7202   -4656.0048   -4695.7202            0    2176.1391    17.856687    23.289519    21.894475    9105.3355    2472.1838    1858.1993    2198.0342   -182.93071    205.56597    446.01871    -4367.031 
45881000    24.723663   -4699.4246   -4657.0491   -4699.4246            0    2008.0722    17.922507    23.274949    21.841187    9110.9516    2302.4011     1349.229    2372.5864   -93.541227   -53.361284    70.689841   -4390.2288 
45882000    24.151352   -4691.1041   -4649.7095   -4691.1041            0    2087.2981     17.90831    23.235754    21.878258    9103.8294    2260.4127    2250.1576    1751.3241   -15.536133   -5.7277494    25.781273   -4372.5789 
45883000    24.591167   -4696.0266   -4653.8782   -4696.0266            0    2218.7396    17.953525    23.214064    21.838694     9101.806    2264.2315    1870.7202     2521.267   -44.523649   -74.372831    52.545399   -4359.3616 
45884000    24.160204   -4695.9434   -4654.5337   -4695.9434            0     2356.355    17.918022    23.218971    21.856472    9093.1234    2222.6003    2365.2087    2481.2559   -244.77121     154.1454   -107.03891   -4342.0483 
45885000    24.052972   -4697.5728   -4656.3468   -4697.5728            0    2407.4561    17.892603     23.21882    21.875402    9088.0295    2486.9648    2562.8857    2172.5178   -282.61229   -85.879255      182.259   -4337.2636 
45886000    24.741976    -4695.071   -4652.6641    -4695.071            0    2204.7375    17.871161    23.257391    21.896191    9100.8578    2140.1001    2229.0193     2245.093    264.14221   -16.689433   -36.036201   -4360.0366 
45887000    24.915958   -4697.4334   -4654.7283   -4697.4334            0    2107.8171    17.941649    23.211876    21.841573     9096.127    1756.8225    2479.8693    2086.7594    69.737158   -12.477472    287.87133   -4375.1101 
45888000    25.265681   -4695.8141   -4652.5096   -4695.8141            0     2425.454    17.908667    23.204775    21.869614    9088.2809     2085.644    2647.5181    2543.1999   -152.22371   -70.322435    80.410404    -4331.032 
45889000    24.205879   -4699.1161    -4657.628   -4699.1161            0    2129.5479    17.957498    23.167744    21.855586    9092.6823    2101.0493    2352.6177    1934.9765    188.33234    301.71993    49.237868   -4375.2341 
45890000    25.400817   -4698.1432   -4654.6071   -4698.1432            0    1825.9001    17.906319    23.268843    21.883086    9117.7917    1952.5455    1727.1336    1798.0212   -90.824498   -20.017201    347.38174   -4411.8105 
45891000    25.862349   -4698.9097   -4654.5826   -4698.9097            0    1963.4795    17.837369    23.318702    21.875577    9099.0215    2229.2198     1165.543    2495.6757   -69.275608    43.961383   -132.74156    -4394.029 
45892000    24.649841   -4696.5903   -4654.3413   -4696.5903            0    2277.6704    17.896148     23.25848    21.846841    9093.4678    2476.0853    1926.2985    2430.6273    -164.2261   0.68037991    216.34275   -4352.2792 
45893000    23.400506   -4694.9576     -4654.85   -4694.9576            0    2218.4616    17.955466    23.303607    21.733006    9093.6793    1775.4539    2189.9033    2690.0276    84.611345    49.736752     -116.017   -4360.6332 
45894000    23.895248   -4695.1541   -4654.1985   -4695.1541            0    2108.9221    17.833112     23.31346    21.883354    9098.0383     2122.442    2037.9004    2166.4239    -273.5887   -165.01872    332.23278    -4374.375 
45895000    26.169073   -4695.8394   -4650.9866   -4695.8394            0    2121.6145    17.909869    23.341099    21.781323    9105.3776    1887.2818    1875.5025    2602.0592   -189.98388     56.25338    82.605257   -4369.2519 
45896000    24.688097   -4696.4692   -4654.1546   -4696.4692            0    2338.8706    17.875141    23.334212    21.794583    9090.5719    2284.4077    2084.0103    2648.1938   -9.0395706    41.367414    96.342083   -4344.0749 
45897000    24.717942   -4698.9765   -4656.6108   -4698.9765            0    2228.3297    17.853795    23.256388    21.898385    9092.5336    2534.8619    1757.9673    2392.1599    58.962687   -87.157683   -80.746256   -4361.1225 
45898000    23.492948   -4696.6436   -4656.3775   -4696.6436            0    2194.0601    17.822089    23.308031    21.906261    9099.8129    2305.6497    2060.9563    2215.5744   -59.151426    251.37619    13.124062   -4365.2006 
45899000    26.701803   -4695.3196   -4649.5536   -4695.3196            0    2114.6647    17.857541    23.326474    21.842947    9098.7553    2085.5001    1978.6219    2279.8721    -336.1929   -261.60925    72.874999    -4368.946 
45900000    25.574646    -4697.913   -4654.0789    -4697.913            0    2264.1331    17.837088    23.312664    21.864843    9092.0585    2510.6673    2150.7474    2130.9846   -152.92788    45.495299    49.683396   -4353.8586 
45901000    26.188066   -4695.3954     -4650.51   -4695.3954            0    2227.1296    17.999449    23.168129    21.810354    9095.2133    1863.5881    2300.9928    2516.8081   -170.54005     93.48138    32.104326   -4355.0938 
45902000    23.899086   -4697.7207   -4656.7585   -4697.7207            0    2051.1578    17.845986     23.24001    21.942962    9100.6431     2008.096    2416.9947    1728.3826    319.12215   -160.01421     249.4909   -4384.5216 
45903000    25.155282   -4695.4018   -4652.2865   -4695.4018            0    2119.7106    17.906735    23.180376    21.930453    9102.9988    1811.7727    2270.6406    2276.7185    1.6904044    160.02982   -94.053935   -4370.8782 
45904000     24.10455   -4696.1875   -4654.8731   -4696.1875            0    2107.4461    17.872556    23.266561    21.878229    9097.6876    2278.5765    2115.9613    1927.8006   -91.939737   -181.20121    88.351291   -4375.2562 
45905000    24.434293   -4694.4277   -4652.5482   -4694.4277            0    2536.4714    17.911266    23.262163    21.803133    9084.3802    2216.8682    2357.9848    3034.5613   -288.91096    164.51665    24.453098   -4316.5003 
45906000    23.718732   -4698.8115   -4658.1584   -4698.8115            0    1908.9875    17.892268    23.223831    21.948287    9120.1061     2107.259    2277.5112    1342.1924   -15.001457    25.198868    170.20762    -4404.249 
45907000    24.985899   -4696.7828   -4653.9578   -4696.7828            0    2248.8998    17.907831    23.259369    21.830796    9093.0692    1837.5246    2442.1746    2467.0001    57.981742   -133.41436    169.38331   -4355.7243 
45908000    24.952135   -4697.3532   -4654.5861   -4697.3532            0    2232.7136    17.840376    23.312718    21.886587    9102.7994    2511.1205    2052.0817    2134.9388    161.11201    553.91635   -269.15829   -4358.1822 
45909000    24.888368   -4696.1035   -4653.4457   -4696.1035            0    2470.2807    17.956321    23.218106    21.807403    9091.7631    2468.0621    2240.6184    2702.1616    284.33643   -68.665589     331.0564   -4325.9012 
45910000    26.893076    -4696.667   -4650.5732    -4696.667            0    2234.8301    17.858466    23.324439    21.837075    9095.9871    2668.8195    1634.1008      2401.57   -254.86909     86.77213   -281.39856   -4354.1103 
45911000    24.372379   -4698.3321   -4656.5587   -4698.3321            0    2155.2666    17.914832     23.32767    21.777429    9101.0335    2167.0104    1895.7226    2403.0667   -39.162487   -74.751202     -149.848   -4370.4918 
45912000     24.30227    -4696.073   -4654.4197    -4696.073            0    2381.2841     17.86592    23.256802    21.877452    9090.1727    2451.2661    2423.1664    2269.4199    105.74058    127.59805    160.45138   -4338.7309 
45913000    25.803341   -4697.3581    -4653.132   -4697.3581            0    1846.2504    17.972732    23.314138    21.737252    9108.3163    1387.6804    1488.0179    2663.0527    -39.46626    -252.7751   -51.597072   -4407.8845 
45914000    24.200922   -4695.7395   -4654.2599   -4695.7395            0     2258.298     17.92991    23.192642    21.891829    9103.5418    2297.2815    2580.1414     1897.471    194.61892    -76.49986    263.85816   -4354.4352 
45915000    24.812929   -4694.9498   -4652.4213   -4694.9498            0    2517.7895    17.901693     23.18756    21.871155    9078.6416    2231.2749    2610.3683    2711.7253    -18.59074    19.282487   -51.248985   -4319.0593 
45916000    25.618415   -4696.1285   -4652.2194   -4696.1285            0    2098.3301    17.863586    23.309441    21.865943     9104.764    2021.7742    1811.7728    2461.4434    31.048293   -48.000792   -1.7009805   -4373.5955 
45917000    24.980588   -4698.3398    -4655.524   -4698.3398            0    2415.9588    17.863912    23.149926    21.966459    9084.1907    2821.4106      2428.78    1997.6857   -199.38887    83.000228   -2.2136909   -4335.4491 
45918000    26.705171   -4695.4821   -4649.7103   -4695.4821            0    1646.0995     17.92436     23.25104    21.879908    9118.6712    1377.5686    1983.5741    1577.1559    41.430199    32.359243    292.98633   -4430.8014 
45919000    24.021045    -4691.099   -4649.9278    -4691.099            0    2079.8581    17.945237     23.29991    21.790958     9111.288    1688.4973    2328.4139    2222.6631    157.11925      65.5432   -52.014189   -4373.5588 
45920000    25.709404   -4696.1887   -4652.1236   -4696.1887            0    2230.7273    17.794637    23.274206     21.94818    9089.9719    2238.5704    2083.5614    2370.0501    365.18052   -16.833781    272.63705   -4356.4007 
45921000    25.523635    -4697.964   -4654.2173    -4697.964            0    2283.8212    17.943244    23.259628    21.801322    9098.8514    2231.4025    2336.9487    2283.1124    305.05942   -163.10094   -100.13888   -4351.1602 
45922000     24.79945   -4696.0177   -4653.5123   -4696.0177            0    2323.8266    17.827279    23.277418    21.922342    9097.1806     2440.022    2469.0103    2062.4476   -179.43642    16.937874    336.32168   -4345.2031 
45923000    25.432466   -4697.3892   -4653.7988   -4697.3892            0    2537.8415    17.904275    23.294571    21.780142    9083.8959     2326.473    2290.8206    2996.2311    209.04822   -81.318401      56.6295   -4317.5873 
45924000    24.197777   -4696.9083   -4655.4342   -4696.9083            0    2036.5833    17.853878    23.321794    21.885494    9112.7799    1986.1215     1919.984    2203.6445    125.54783    146.72269    240.27288   -4384.7711 
45925000    26.646998   -4697.9014   -4652.2293   -4697.9014            0    1935.9306    17.955038    23.241314    21.842502    9114.8475    1982.9765    1974.0818    1850.7334    354.60158   -309.49925    168.98158   -4394.8847 
45926000    24.719505   -4695.7227   -4653.3543   -4695.7227            0    2303.8976    17.846417    23.252054    21.892297    9084.5559    2449.1006    2322.0061    2140.5862   -64.966799   -58.825719    286.44707   -4348.1134 
45927000    25.872278    -4693.173   -4648.8288    -4693.173            0    2794.2228    17.816036    23.238861    21.901776    9067.8696    2734.5533     2604.886    3043.2292   -182.93611    135.47252    -126.5903   -4279.3052 
45928000    25.875672   -4696.8255   -4652.4754   -4696.8255            0    1957.7983    17.957641    23.177224    21.884882    9108.6692    1772.6227    2338.2742    1762.4979   -78.262167   -61.763809    64.811591   -4392.4004 
45929000    25.042824   -4697.4318   -4654.5093   -4697.4318            0    1933.8821    17.926264    23.307926    21.809139    9112.3826    1978.7582    1771.4084    2051.4797   -294.67135   -201.34275   -143.64237   -4397.5065 
45930000    25.382686   -4697.1527   -4653.6477   -4697.1527            0    2206.6774    17.818938    23.291171    21.901516    9089.6531    2333.1245    1859.7372    2427.1704   -318.12042    130.97694    98.006593   -4361.1233 
45931000    25.319806   -4695.9939   -4652.5967   -4695.9939            0    1948.0064    17.942349    23.195432    21.897178    9113.1794    1770.9671    2222.4087    1850.6435    240.35275   -80.510333    82.059866   -4393.6942 
45932000    26.515809   -4694.3818   -4648.9346   -4694.3818            0      2285.13     17.85826    23.241738    21.926268    9100.6512    2403.0664    2292.4302    2159.8933    3.5260599    -182.8433    143.94474   -4345.6438 
45933000    25.058122     -4698.25   -4655.3012     -4698.25            0    2151.7747    17.846174    23.323705    21.855896    9097.2741    2101.4545    1875.0158    2478.8537   -159.21904    127.22446    2.0157309   -4369.8158 
45934000    24.337877   -4696.9558   -4655.2416   -4696.9558            0    2238.0698     17.89573    23.352412    21.773521    9099.3385    2192.5538    2208.8187     2312.837   -431.71721    95.051275    23.961583   -4358.2396 
45935000     26.57261   -4696.7611   -4651.2165   -4696.7611            0    2008.2822    17.854832    23.309939    21.859924    9097.9922    2313.5312    2041.0368    1670.2787   -439.87576   -91.783388    462.31236   -4384.7478 
45936000    26.040142   -4696.0452   -4651.4133   -4696.0452            0    1991.3676     17.89227    23.320516    21.829736    9108.6094    1983.7283    2022.1635     1968.211    18.936572    -38.14052    49.638947   -4386.8805 
45937000    24.793705    -4697.223   -4654.7275    -4697.223            0    2253.7513    17.941965    23.127331    21.931377      9100.42    2036.6196    2499.5782    2225.0559   -258.91512   -128.76865    82.632455    -4355.609 
45938000    25.538022   -4694.3493    -4650.578   -4694.3493            0    2019.0672     17.92156    23.241613    21.868396    9108.7548     1786.712     2118.602    2151.8875    255.33903   -322.05691    166.13311   -4382.3614 
45939000    23.709645   -4696.4497   -4655.8121   -4696.4497            0    2057.2642    17.898739    23.207241     21.91003    9100.9957    1890.4074    2544.8649    1736.5203    377.55028   -36.747291   -66.950584   -4382.7542 
45940000     27.33424   -4695.6559    -4648.806   -4695.6559            0    2623.8761    17.765834    23.317123    21.926732    9083.1075    3043.7862    2406.2571    2421.5851   -394.14506   -237.07053    306.96185   -4301.2269 
45941000      24.4238   -4695.2929   -4653.4313   -4695.2929            0    2197.8204    17.871378    23.357052    21.811117    9104.4552    2580.6124    2078.4309     1934.418   -353.65601    42.380298   -95.151135   -4361.6066 
45942000     25.47934   -4695.8292   -4652.1585   -4695.8292            0    2179.6152    17.884229     23.26362    21.895288    9109.5762    2257.6484     2043.873    2237.3243   -378.10446   -49.112042   -55.526737   -4362.5883 
45943000    24.868807   -4695.4533   -4652.8291   -4695.4533            0    2169.1573    17.953236    23.260624    21.783466     9096.851    1648.9366    2148.9992     2709.536    162.22621   -71.117521    337.30505   -4365.0508 
45944000    26.581842   -4696.1915   -4650.6311   -4696.1915            0     2214.993     17.92245    23.263372     21.82744    9100.6591    2048.9571    2507.1879     2088.834   -3.7580198    25.103567     13.34899   -4356.6488 
45945000    25.715064   -4697.8556   -4653.7809   -4697.8556            0    2012.5856     17.89405    23.330042    21.828872     9112.876    2048.4835    1727.8047    2261.4685   -213.65742   -124.02005    394.51904   -4386.3043 
45946000    25.328581   -4696.0941   -4652.6818   -4696.0941            0    2158.6374    17.859007    23.255141    21.913304    9100.8961    2346.1505    2259.7065    1870.0551   -237.39988     239.0051    1.1198233   -4366.1718 
45947000    24.842672   -4693.4022   -4650.8227   -4693.4022            0    2412.5958    17.959402    23.138616    21.875041    9090.2984    1677.1755    2603.1695    2957.4423   -156.50617   -150.32209   -104.99272   -4330.9785 
45948000     25.83209   -4696.4825   -4652.2072   -4696.4825            0     2221.387    17.866057     23.19872    21.945765    9095.8532    2443.8411    2289.2392    1931.0809    193.10334    121.57363    87.459222    -4357.532 
45949000    25.553148   -4694.5974   -4650.8002   -4694.5974            0    2234.8757    17.893803    23.307793    21.814345     9098.001    2310.2576    1843.6809    2550.6885    63.483924    93.800312   -168.33234   -4354.2657 
45950000    25.202327   -4697.3515   -4654.1556   -4697.3515            0    2174.4834    17.829325    23.319707    21.910554    9109.8525    2609.3691    2040.6409    1873.4403   -22.883092   -86.833166    178.44263   -4365.2584 
45951000    24.697451   -4694.9297   -4652.5992   -4694.9297            0    2172.3233    17.875077    23.232229    21.935419    9109.2946    2327.1388    2016.8613    2172.9697    229.59421    257.73707   -60.189643   -4364.0066 
45952000    25.281949   -4695.9968   -4652.6644   -4695.9968            0    2055.9361    17.937415    23.223116    21.879625    9114.2351    2080.6638    2353.3744    1733.7701   -141.78381   -45.038552   -198.83116   -4379.3857 
45953000    24.970875   -4697.4492     -4654.65   -4697.4492            0    2238.7764    17.864656    23.364104    21.793189    9096.2955    2196.9391    1940.4723    2578.9178   -163.44207    198.48131    209.48283   -4357.6536 
45954000    25.860508   -4698.5803   -4654.2563   -4698.5803            0    1965.3969    17.879409    23.189998     21.96977    9109.1819     2082.404    2075.6246    1738.1622    185.55346   -259.58664    98.312286   -4393.1571 
45955000    23.703689   -4696.2035   -4655.5762   -4696.2035            0    2622.7402    17.855653    23.198524    21.924492     9081.668    3109.9001    2551.7741    2206.5463    -245.5209    389.80263     74.63884   -4308.2026 
45956000    25.428195   -4699.5617   -4655.9787   -4699.5617            0    1946.2858    17.871589    23.335143     21.83775    9107.1295     1952.345    1687.4845    2199.0279   -293.79246   -236.13417     -66.3531   -4397.4766 
45957000    25.263147   -4696.7838   -4653.4837   -4696.7838            0    2342.2911    17.802743     23.29182    21.940471    9097.7982    2839.5735    2300.3587     1886.941    244.84028   -137.36835    13.046614   -4342.7037 
45958000    25.250661   -4695.7256   -4652.4469   -4695.7256            0    2075.7671    17.891522    23.220203    21.912863    9103.5846    2014.5827    1998.7895    2213.9291   -35.770964    142.58687   -83.341105   -4376.8547 
45959000    24.972599   -4696.0152    -4653.213   -4696.0152            0    2262.6943    17.852834    23.310017    21.851878    9093.6559    2151.9555    2161.2432    2474.8842   -101.43272   -116.10366    39.252204   -4353.1308 
45960000    26.260252    -4695.503   -4650.4939    -4695.503            0    2065.6793    17.882824    23.304947    21.854123    9107.8868    1901.9689    1766.5255    2528.5434    -334.1548    264.91804   -36.274951   -4376.1114 
45961000    25.128367   -4697.9208   -4654.8517   -4697.9208            0    2231.1294    17.907261    23.278511    21.825344    9097.9901    2590.6526    1891.6139    2211.1216   -400.78993   -66.854098    222.65115   -4358.8146 
45962000     24.04535   -4693.5504   -4652.3375   -4693.5504            0    1967.7053    17.919821    23.280044    21.841359    9111.6517    1726.5986    1833.5686    2342.9486    61.081682    -24.33426    152.02673   -4390.8607 
45963000    25.590458   -4694.9845   -4651.1233   -4694.9845            0    2318.0106     17.91534    23.259218     21.83728    9099.5244    1984.7803    2239.2677    2729.9838   -187.87946    190.44054    52.433079   -4343.5065 
45964000    24.920642   -4697.5573   -4654.8442   -4697.5573            0    1992.9057    17.861107    23.376769    21.824169    9112.3535    1800.2016    1844.0237    2334.4917    322.91019   -65.364188    136.89065   -4389.9983 
45965000    24.927446   -4700.0751   -4657.3503   -4700.0751            0    2143.9256    17.895775    23.241897     21.88843    9104.0933     2045.391     2002.886    2383.4996   -258.95393   -98.011698    251.74377    -4372.693 
45966000    24.892466   -4697.1212   -4654.4564   -4697.1212            0    2268.1236    17.871984    23.184283    21.946348    9093.4506    2373.7672    2290.0782    2140.5255    8.1374037    238.95012   -223.52509   -4353.6609 
45967000    24.070336   -4697.2188    -4655.963   -4697.2188            0    2190.8789    17.917215    23.183543    21.915471    9103.3475    2015.3454    2484.6734     2072.618   -9.5786721    50.682424    114.39656   -4365.0954 
45968000    25.677607   -4695.4875   -4651.4769   -4695.4875            0    2532.9427    17.789177    23.235163    21.984939    9087.1323    2657.4664    2604.4589    2336.9027    202.63987     92.85744    361.46823   -4315.7949 
45969000    26.418464   -4698.2248   -4652.9445   -4698.2248            0    2132.7506    17.849879    23.347298    21.845391    9103.9892    1986.3194    2056.4457    2355.4868   -322.09689   -134.71739    149.24674   -4369.7742 
45970000    24.771914   -4697.0005   -4654.5423   -4697.0005            0    2208.0088    17.888616    23.244959    21.869413    9093.7421    2362.5411    2218.5459    2042.9395   -157.03446   -103.83574    164.24253   -4361.7097 
45971000    24.701298   -4695.6566   -4653.3194   -4695.6566            0    2269.3477    17.899243    23.298989    21.808153    9094.7471    1969.9671    2602.4541    2235.6218    280.75838   -60.157878   -202.84292   -4352.3187 
45972000    25.636178   -4698.5362   -4654.5966   -4698.5362            0    2321.2462     17.91441    23.234655    21.843063    9091.8502    1905.4956    2289.3514    2768.8916   -373.55972    136.70496    262.21052   -4346.8103 
45973000    23.981129   -4696.3057   -4655.2029   -4696.3057            0    2110.5483    17.947884    23.170747    21.904999    9109.5418    1812.9995    2626.4915    1892.1539   -215.27241   -89.363487   -91.092065   -4374.8095 
45974000    24.519036   -4696.0033   -4653.9785   -4696.0033            0    1958.7563    17.891804    23.306422    21.858743    9114.9636    1654.6828    1661.1096    2560.4765    81.618176    201.53905    229.96535   -4393.5963 
45975000    24.008032   -4695.6388   -4654.4899   -4695.6388            0    1956.9989    17.781843    23.371439    21.926264    9112.2756    2297.8437    1362.5035    2210.6494   -74.636867   -302.62829    246.14362    -4394.418 
45976000     25.44661   -4697.0415   -4653.4269   -4697.0415            0    2230.9697    17.912676    23.276599    21.821827    9098.5269    2214.9356    2186.2985     2291.675    348.38088    61.808789    66.919616   -4357.3935 
45977000    26.847019   -4692.6312   -4646.6163   -4692.6312            0    2320.1426    17.914281    23.195687    21.889327    9095.7607    2194.3381    2640.8164    2125.2732   -211.17846    -64.61912    180.86565    -4338.844 
45978000    26.861901   -4695.7413   -4649.7009   -4695.7413            0    2614.5684    17.929954    23.122062    21.887143    9073.9172    2145.5275    3188.3308    2509.8467    94.633137     118.4451     221.4619   -4303.7052 
45979000    25.206194   -4696.4162   -4653.2137   -4696.4162            0    2073.8798    17.864751    23.250025    21.911282    9100.9806    2360.7126    2128.6686     1732.258    -168.7744   -64.439287    124.06887   -4377.9508 
45980000     25.81845   -4694.2836   -4650.0316   -4694.2836            0    1930.4103    17.874848    23.269858     21.91277    9114.5108    2096.1774    1814.1696    1880.8838   -163.12496   -257.73208    224.90135   -4393.4303 
45981000    26.382489   -4697.2004   -4651.9817   -4697.2004            0    2044.1927    17.920107    23.234476    21.869018    9105.4778    1867.9635    2201.0861    2063.5283    198.70367    -53.69865    135.13301   -4380.5251 
45982000    26.442649   -4698.0741   -4652.7523   -4698.0741            0    1994.3695    17.902861    23.240902    21.896678      9110.74    1821.9823     1988.276    2172.8502    7.0675871   -14.518419   -115.68375   -4387.7589 
45983000    24.699002   -4696.8855   -4654.5523   -4696.8855            0    2170.6303    17.902428    23.252375    21.886016    9110.5787    2055.8377    2459.1272    1996.9259   -81.996929    65.533161    48.012165    -4366.144 
45984000    26.222231   -4696.4797   -4651.5357   -4696.4797            0    1996.1934    17.960588    23.171131    21.891185     9110.392    1510.6072    2170.0775    2307.8955   -248.46705   -122.68486    34.100818     -4386.31 
45985000    25.216938   -4697.6663   -4654.4453   -4697.6663            0    2148.3931    17.885399    23.257111     21.87413     9098.822    2065.9365    2474.9698    1904.2729    29.633194    15.866286   -128.56501   -4369.3601 
45986000    23.946949   -4693.9071   -4652.8629   -4693.9071            0    2454.8372    17.818791    23.225431     21.96302    9089.3757    2319.0762    2540.0868    2505.3487   -1.2206546   -217.98327      156.233   -4327.4516 
45987000    24.323886   -4695.3936   -4653.7032   -4695.3936            0    2372.7365    17.774249    23.376271    21.872176    9087.7945    2581.7556      2091.28    2445.1739   -67.157458    135.79711     57.96545   -4339.2299 
45988000    26.966188    -4698.421   -4652.2019    -4698.421            0    2048.5931     17.86207    23.352953    21.818615    9101.2443    1794.8551    1788.3474    2562.5768   -51.879249   -82.997803   -81.786957   -4380.2874 
45989000    24.524291   -4694.4402   -4652.4064   -4694.4402            0    1983.5798    17.923975    23.317131    21.792375    9107.8109    1707.4343     2302.886    1940.4191   -139.45824    156.07262    165.71068   -4388.9313 
45990000    24.780167   -4694.8905   -4652.4181   -4694.8905            0    2282.9518    17.841965    23.273568    21.900586    9094.1344    2226.1321    2546.9374     2075.786   -403.95157   -235.60257   -42.229512   -4349.6334 
45991000    24.011463   -4697.3769   -4656.2221   -4697.3769            0    1927.9968    17.932588    23.272997    21.835149    9112.7917    1597.2804    2157.5012    2029.2087   -18.897273    232.65259    310.34839   -4399.9899 
45992000      24.2906   -4694.6598   -4653.0265   -4694.6598            0    2092.1938    17.812001    23.312783    21.929612    9106.2121    2257.9705    1783.5727    2235.0382   -21.783617   -200.39527   -105.88467   -4375.1732 
45993000    25.447588   -4694.1212   -4650.5049   -4694.1212            0    2000.6399    17.935244    23.195274    21.901347    9111.2427    1694.3093    2408.9722    1898.6382    47.511212   -174.93564   -122.73217   -4384.6636 
45994000    24.877239    -4693.585   -4650.9462    -4693.585            0    2651.4677      17.8855    23.241174    21.855624     9084.946    2451.5668    2653.8783    2848.9579   -8.7372195   -63.437121    189.88024    -4299.641 
45995000    26.615424   -4696.5792   -4650.9613   -4696.5792            0    1941.1444     17.96691    23.202488    21.849097    9108.3867    1771.4421    2166.9694    1885.0216    178.07135   -121.37642    228.81785   -4393.1065 
45996000    25.155174   -4696.5566   -4653.4415   -4696.5566            0     2184.801    17.929398    23.286729    21.790813    9098.0354    2325.6273    1980.3192    2248.4564    378.52928   -34.920295    164.09836     -4363.55 
45997000    23.809522   -4694.2804   -4653.4717   -4694.2804            0    2288.0428     17.94871    23.169465    21.871088     9095.355    2353.4418    2159.1941    2351.4924    -156.6274    22.063099    130.13833    -4349.971 
45998000    25.852184   -4695.2452   -4650.9355   -4695.2452            0    2062.3425    17.854842    23.318465     21.87316    9106.8356    2215.2125    1684.1193    2287.6958    213.63442    56.136638   -55.098497   -4377.0278 
45999000    23.068822   -4694.0947   -4654.5555   -4694.0947            0    2242.7687    17.824493    23.298968    21.896879    9093.6051    2514.1122    1931.9581    2282.2357    109.50068   -71.082074    -36.02332   -4357.1175 
46000000    26.608931   -4695.4468     -4649.84   -4695.4468            0    2099.1193    17.876445    23.372967    21.782896    9101.4507    2044.2186    1804.9553    2448.1839   -102.80459    84.637351   -106.08149   -4371.2127 
Loop time of 366.936 on 64 procs for 250000 steps with 864 atoms

Performance: 117.732 ns/day, 0.204 hours/ns, 681.317 timesteps/s
195.6% CPU use with 32 MPI tasks x 2 OpenMP threads

MPI task timing breakdown:
Section |  min time  |  avg time  |  max time  |%varavg| %total
---------------------------------------------------------------
Pair    | 17.096     | 24.73      | 34.808     | 116.4 |  6.74
Bond    | 1.0065     | 1.1891     | 1.4612     |  10.4 |  0.32
Kspace  | 182.41     | 195.92     | 209.37     |  49.9 | 53.39
Neigh   | 0.065582   | 0.073754   | 0.086476   |   2.5 |  0.02
Comm    | 52.058     | 59.978     | 65.082     |  45.2 | 16.35
Output  | 0.41313    | 0.41347    | 0.41511    |   0.1 |  0.11
Modify  | 66.749     | 69.616     | 74.354     |  19.6 | 18.97
Other   |            | 15.01      |            |       |  4.09

Nlocal:        27.0000 ave          38 max          19 min
Histogram: 6 6 4 0 1 4 3 3 2 3
Nghost:        2167.31 ave        2279 max        2061 min
Histogram: 9 7 0 0 0 0 0 0 8 8
Neighs:        6684.06 ave        9511 max        4512 min
Histogram: 4 8 4 0 0 4 4 3 2 3

Total # of neighbors = 213890
Ave neighs/atom = 247.55787
Ave special neighs/atom = 2.0000000
Neighbor list builds = 250
Dangerous builds = 0

unfix		3
unfix		2
unfix		1

write_data	data.final.${pid} nocoeff
write_data	data.final.0 nocoeff
System init for write_data ...
PPPM initialization ...
  extracting TIP4P info from pair style
  using 12-bit tables for long-range coulomb (../kspace.cpp:340)
  G vector (1/distance) = 0.37224923
  grid = 24 27 25
  stencil order = 5
  estimated absolute RMS force accuracy = 0.0030958905
  estimated relative force accuracy = 9.3231824e-06
  using double precision FFTW3
  3d grid and FFT values/proc = 4410 672
Last active /omp style is kspace_style pppm/tip4p/omp

write_restart   restart.lmp.${pid}
write_restart   restart.lmp.0
System init for write_restart ...
PPPM initialization ...
  extracting TIP4P info from pair style
  using 12-bit tables for long-range coulomb (../kspace.cpp:340)
  G vector (1/distance) = 0.37224923
  grid = 24 27 25
  stencil order = 5
  estimated absolute RMS force accuracy = 0.0030958905
  estimated relative force accuracy = 9.3231824e-06
  using double precision FFTW3
  3d grid and FFT values/proc = 4410 672
Last active /omp style is kspace_style pppm/tip4p/omp
Total wall time: 0:06:07
