#include		in.partitions
include		in.temp
variable        temperature equal 35.49
variable	tempDamp equal 100.0
include		in.pressure
variable        pressure equal 8885.3
variable        pressureDamp equal 1000.0 # This is 1 ps
include		in.seed
variable        seed equal 745823

units		real
atom_style	full
box tilt large
read_restart	restart.lmp.${pid}
read_restart	restart.lmp.0
Reading restart file ...
  restart file = 30 Jul 2021, LAMMPS = 30 Jul 2021
  restoring atom style full from restart
  triclinic box = (-10.469066 -9.1067070 0.27916331) to (12.449066 12.096705 21.580836) with tilt (-9.0419036 1.7479778 2.7228131)
  2 by 4 by 4 MPI processor grid
  restoring pair style lj/cut/tip4p/long/omp from restart
  restoring bond style harmonic/omp from restart
  restoring angle style harmonic/omp from restart
  1296 atoms
  864 bonds
  432 angles
Finding 1-2 1-3 1-4 neighbors ...
  special bond factors lj:    0        0        0       
  special bond factors coul:  0        0        0       
     2 = max # of 1-2 neighbors
     1 = max # of 1-3 neighbors
     1 = max # of 1-4 neighbors
     2 = max # of special neighbors
  special bonds CPU = 0.002 seconds
  read_restart CPU = 0.007 seconds
include 	in.setup
variable	out_freq equal 1000
variable	out_freq2 equal 10000
variable	out_freq3 equal 1000

timestep	2.0

neigh_modify    delay 7 every 1

include		in.tip4p
# This is TIP4P/Ice

# create groups ###
group ox type 2
432 atoms in group ox
group hy type 1
864 atoms in group hy

# set charges - beside manually ###
set group ox charge -1.1794
Setting atom values ...
  432 settings made for charge
set group hy charge 0.5897
Setting atom values ...
  864 settings made for charge

# ### TIP3P Potential Parameters ###
pair_style lj/cut/tip4p/long/omp 2 1 1 1 0.1577 8.5
pair_coeff 1 1*2 0.000 0.000
pair_coeff 2 2 0.21084 3.1668
bond_style  harmonic
bond_coeff  1 450 0.9572
angle_style harmonic
angle_coeff 1 55 104.52
kspace_style pppm/tip4p/omp 1.0e-5
pair_modify tail yes

thermo          ${out_freq}
thermo          1000
thermo_style    custom step temp pe etotal epair emol press lx ly lz vol pxx pyy pzz pxy pxz pyz enthalpy

restart 	${out_freq3} restart.lmp.${pid} restart2.lmp.${pid}
restart 	1000 restart.lmp.${pid} restart2.lmp.${pid}
restart 	1000 restart.lmp.0 restart2.lmp.${pid}
restart 	1000 restart.lmp.0 restart2.lmp.0


include         in.dump
dump            myDump all atom ${out_freq2} dump.water.${pid}
dump            myDump all atom 10000 dump.water.${pid}
dump            myDump all atom 10000 dump.water.0
dump            myDump2 all dcd ${out_freq2} dump.dcd
dump            myDump2 all dcd 10000 dump.dcd
dump_modify     myDump append yes
dump_modify     myDump2 append yes


variable natoms 	equal  "count(all)"                        # NUMBER ATOMS
variable H      	equal  "enthalpy/v_natoms"                 # ENTHALPY-per-atom
variable Vol      	equal  "vol/v_natoms"                 # volume-per-atom
fix AVG all 		ave/time ${out_freq} 1 ${out_freq} v_Vol v_H file vol_enthalpy.dat
fix AVG all 		ave/time 1000 1 ${out_freq} v_Vol v_H file vol_enthalpy.dat
fix AVG all 		ave/time 1000 1 1000 v_Vol v_H file vol_enthalpy.dat


timer           timeout 10:00:00 every 1000
New timer settings: style=normal  mode=nosync  timeout=10:00:00

fix 		1 all shake 1e-6 200 0 b 1 a 1
       0 = # of size 2 clusters
       0 = # of size 3 clusters
       0 = # of size 4 clusters
     432 = # of frozen angles
  find clusters CPU = 0.001 seconds
fix             2 all nph tri ${pressure} ${pressure} ${pressureDamp}
fix             2 all nph tri 8885.3 ${pressure} ${pressureDamp}
fix             2 all nph tri 8885.3 8885.3 ${pressureDamp}
fix             2 all nph tri 8885.3 8885.3 1000
fix             3 all temp/csvr ${temperature} ${temperature} ${tempDamp} ${seed}
fix             3 all temp/csvr 35.49 ${temperature} ${tempDamp} ${seed}
fix             3 all temp/csvr 35.49 35.49 ${tempDamp} ${seed}
fix             3 all temp/csvr 35.49 35.49 100 ${seed}
fix             3 all temp/csvr 35.49 35.49 100 745823


run             250000
PPPM initialization ...
  extracting TIP4P info from pair style
  using 12-bit tables for long-range coulomb (../kspace.cpp:340)
  G vector (1/distance) = 0.37037798
  grid = 30 40 32
  stencil order = 5
  estimated absolute RMS force accuracy = 0.003933492
  estimated relative force accuracy = 1.1845594e-05
  using double precision FFTW3
  3d grid and FFT values/proc = 7752 1200
Last active /omp style is kspace_style pppm/tip4p/omp
Neighbor list info ...
  update every 1 steps, delay 7 steps, check yes
  max neighbors/atom: 2000, page size: 100000
  master list distance cutoff = 10.8154
  ghost atom cutoff = 10.8154
  binsize = 5.4077, bins = 7 5 4
  1 neighbor lists, perpetual/occasional/extra = 1 0 0
  (1) pair lj/cut/tip4p/long/omp, perpetual
      attributes: half, newton on, omp
      pair build: half/bin/newton/tri/omp
      stencil: half/bin/3d/tri
      bin: standard
Per MPI rank memory allocation (min/avg/max) = 10.66 | 10.66 | 10.66 Mbytes
Step Temp PotEng TotEng E_pair E_mol Press Lx Ly Lz Volume Pxx Pyy Pzz Pxy Pxz Pyz Enthalpy 
 9000000    39.461436   -6907.3826   -6805.8705   -6907.3826            0    9019.7762    22.918133    21.203412    21.301672     10351.39    9398.7359     8838.712    8821.8808    187.15725   -147.65953    28.307083   -5444.2053 
 9001000    35.620096    -6918.792   -6827.1615    -6918.792            0    8860.2129    23.050327     21.09526    21.287683    10351.192    8799.3769    9006.1107     8775.151   -242.18809   -566.99307    60.784615   -5489.6103 
 9002000    35.464308   -6918.1641   -6826.9343   -6918.1641            0    8555.5359    22.966747    21.162108    21.318932    10361.529    9134.1647    8307.6537    8224.7894   -625.98311    83.528462   -482.40641   -5534.0878 
 9003000    36.211594   -6920.0687   -6826.9166   -6920.0687            0    8731.8712    22.904595    21.162349    21.362765    10354.854    9376.6736    8605.7025    8213.2376   -82.873148    106.25444    99.414772   -5508.2738 
 9004000    33.857175   -6918.3888   -6831.2933   -6918.3888            0    8925.1288    23.059196    21.031943    21.346346    10352.544    8516.5914    9525.8421    8732.9528   -339.89967   -140.69458   -213.25754   -5483.7663 
 9005000    36.062666   -6918.7984   -6826.0294   -6918.7984            0    8893.0848    22.927409    21.172518    21.320489    10349.625    9473.7135    8734.9612    8470.5797   -25.514374   -399.97759   -70.754467    -5483.719 
 9006000    35.535577   -6914.3275   -6822.9144   -6914.3275            0    9038.3544    22.920022    21.138039    21.361044     10349.09    9162.1321    9067.3861     8885.545   -109.21917   -234.51841     337.4984   -5458.7477 
 9007000    35.236152   -6921.6144   -6830.9715   -6921.6144            0    8222.1546    23.069316    21.069682    21.347219    10376.096    8064.5255    8381.6511    8220.2872   -162.16394    12.781444    123.78658   -5586.7563 
 9008000    35.711605   -6916.8292   -6824.9633   -6916.8292            0    8823.4406    22.955981    21.180755    21.286763    10350.156    8694.8268    9123.6008     8651.894   -343.30852    398.37059    119.92377   -5493.0966 
 9009000    36.221881   -6915.3056   -6822.1271   -6915.3056            0     8914.621    23.022181    21.088645    21.333472    10357.542    8753.0982    9235.5052    8755.2595   -300.43058    380.50484    125.29651   -5475.5368 
 9010000    36.304432   -6918.0311   -6824.6402   -6918.0311            0    8853.3812    23.053466    21.073305    21.316689    10355.919    8659.9761    9314.1549    8586.0127   -232.12485   -131.10164   -394.61081     -5487.51 
 9011000    36.375526   -6920.2426   -6826.6688   -6920.2426            0    8810.8327    22.920704    21.240025    21.263653    10351.918    9478.5644    8163.7239    8790.2099   -128.48454    -489.1165   -55.212838   -5496.4788 
 9012000    37.493467   -6917.4453   -6820.9957   -6917.4453            0    8910.6752      23.0417    21.096552    21.304241    10356.001    8698.8376    9189.2875    8843.9005    64.691367   -137.14487    -328.4941   -5475.2017 
 9013000     36.53796   -6917.5192   -6823.5276   -6917.5192            0    8858.4159    23.009616    21.129192    21.300699    10355.858    9067.9041     8892.795    8614.5487    3.2780152    82.796547   -269.78639   -5485.6448 
 9014000    34.229023   -6918.2174   -6830.1653   -6918.2174            0    8814.5943    22.966571    21.209009    21.245446    10348.619    8887.3888    8686.8066    8869.5875    112.09343    -132.5335   -7.9491359   -5499.8315 
 9015000    35.187829   -6915.9063   -6825.3878   -6915.9063            0    9017.6015    23.079736     21.06161    21.283594    10345.878    8898.3837    9021.7618    9132.6591   -74.618018   -317.07216   -39.726071   -5464.7758 
 9016000    36.978575   -6918.8241    -6823.699   -6918.8241            0    9312.7588    22.933081    21.179771    21.270357    10331.383    9357.9394    9264.1211    9316.2158    558.51022     143.0492    278.49144   -5420.5212 
 9017000    35.012827   -6913.4509   -6823.3826   -6913.4509            0    9114.9516    23.038069    21.122524    21.241392    10336.532     9050.461    8837.5358    9456.8581    61.615334    165.94817   -49.769995   -5449.3244 
 9018000    34.247759   -6917.9048   -6829.8045   -6917.9048            0    8709.8565    23.111066    21.049215     21.27892    10351.552    8257.6666    9028.8922    8843.0106    192.31977   -155.00653    447.37009   -5514.9056 
 9019000    34.593884   -6916.0599   -6827.0692   -6916.0599            0    8731.2194    22.977501    21.163224    21.290369    10353.038    8946.3346     8398.397    8848.9265    335.99559    229.96843    7.1432105    -5508.756 
 9020000    34.824694   -6919.5909   -6830.0065   -6919.5909            0    8400.5168    23.075518    21.102362    21.279572    10362.043    8160.0476    8383.9689     8657.534  -0.13191484    239.08007    22.186533   -5560.5223 
 9021000    35.649433   -6923.5809   -6831.8749   -6923.5809            0    8289.6439    23.094183    21.103329    21.261863    10362.269    7963.7839    8464.3872    8440.7605   -209.00204   -159.66263    15.528138   -5579.1185 
 9022000    35.572305   -6916.7763   -6825.2687   -6916.7763            0    8818.3974    22.940543    21.191429    21.288907    10349.451    9138.5756    8973.9167    8342.6999    505.38495    103.06013    251.39129    -5494.254 
 9023000    34.827369   -6918.5009   -6828.9096   -6918.5009            0    8819.8833     23.06769    21.066392     21.30914     10355.24    8825.4512    8925.3678     8708.831   -129.69031   -305.55053    5.2713792   -5496.9259 
 9024000    37.674834   -6912.7751   -6815.8589   -6912.7751            0    9125.1388    23.029594    21.120824    21.277652    10349.535    8464.4398    9283.3908    9627.5859      109.597    199.98161    471.55345   -5438.5346 
 9025000    36.204754   -6912.2189   -6819.0843   -6912.2189            0    9171.2682    22.868211      21.2272    21.317216    10347.975    9597.4816    8879.5907    9036.7324   -28.901115    147.62432   -164.19472    -5435.006 
 9026000     36.39005   -6915.7492    -6822.138   -6915.7492            0    8906.7715    23.102329     21.01422    21.344716    10362.378    8698.6265    9563.1996    8458.4885   -74.293044    -480.9455   -446.16032   -5476.1052 
 9027000    35.365299   -6915.7277   -6824.7526   -6915.7277            0    8629.3104    23.021824    21.148096    21.290193    10365.508    8206.3544    8644.5941    9036.9828   -77.350315     66.38408   -114.21896   -5520.2572 
 9028000    34.795603   -6920.7752   -6831.2656   -6920.7752            0    8887.4593    22.903266    21.226173    21.299868    10354.903    8911.5689    8688.4532    9062.3559   -91.706795    160.71576   -232.74018   -5489.1203 
 9029000     34.64695   -6919.6506   -6830.5235   -6919.6506            0    8594.6413    23.092696    21.020975    21.350522    10364.205    8548.6417    8687.8914    8547.3908    48.947164    35.510017   -29.361682   -5531.4322 
 9030000    36.648131   -6915.8774   -6821.6023   -6915.8774            0    8651.8831     23.00314    21.166117    21.276456    10359.233     8509.272    8798.8477    8647.5294   -229.64562    533.23905   -624.76782   -5514.4863 
 9031000    35.617042   -6913.7201   -6822.0975   -6913.7201            0     8913.875    22.942098    21.206527    21.282812    10354.561    9075.7809    8929.6787    8736.1654   -170.06762   -92.664544   -145.26836   -5476.0074 
 9032000    36.094231   -6916.3532    -6823.503   -6916.3532            0     8979.513    23.057805    21.033095    21.351469    10354.971    8788.6341    9634.8673    8515.0376   -60.025892   -231.63768   -193.79054   -5467.4472 
 9033000    35.157651   -6913.8995   -6823.4586   -6913.8995            0     8969.237     22.99791    21.178472    21.235475    10342.963    9006.6945    8790.1853    9110.8311     364.2546   -53.093468   -703.77843   -5470.5254 
 9034000     34.42034   -6915.8438   -6827.2996   -6915.8438            0    8941.7641    23.005868    21.146671    21.270493    10348.042    8733.3278    8766.6033    9325.3612    88.063423    127.69102    730.11134    -5477.848 
 9035000    35.978174   -6924.9126   -6832.3609   -6924.9126            0    8576.3026    23.037972    21.103548    21.315142    10363.059    8480.1407    8589.7447    8659.0224   -9.9216308    56.965835    590.52875    -5536.185 
 9036000    35.256095   -6920.1981    -6829.504   -6920.1981            0    8443.0666    22.947986    21.249724    21.235698    10355.341    8429.7215    7725.4131    9174.0653    264.63666    746.56748     267.9418   -5554.4149 
 9037000    37.186947   -6919.9068   -6824.2456   -6919.9068            0    9143.1348    23.060171     21.06494    21.288924    10341.332    9100.9192    9034.3143    9294.1708   -356.60588    61.379934    479.65956   -5445.2989 
 9038000    36.028623   -6917.8438   -6825.1624   -6917.8438            0    9084.4507    22.963482    21.124394    21.318267     10341.27    9037.8459    9214.1634    9001.3429    150.83342   -277.95931    794.41277   -5455.0745 
 9039000    34.783238   -6913.6948    -6824.217   -6913.6948            0    9183.2835    22.925859    21.200169    21.261025     10333.54    9421.4094    8588.7327    9539.7084    457.08536    102.17012    338.47639   -5440.2587 
 9040000    35.184812   -6918.4146   -6827.9039   -6918.4146            0    8942.4786    23.074012      21.0648    21.280485    10343.368    8876.4927    8626.1753    9324.7679   -164.78779    234.63933    303.31818   -5478.9541 
 9041000    35.165206   -6918.1044   -6827.6441   -6918.1044            0    9074.5843    22.947117    21.154002    21.315841    10347.207    9259.7824    9112.5125    8851.4581    57.019074    70.241561    255.90197   -5458.2584 
 9042000    34.999576   -6917.0405   -6827.0062   -6917.0405            0    8864.9263    22.951021    21.195965    21.271016    10347.691    8912.2874    8391.5954    9290.8961    512.39537   -286.66164    94.422009   -5489.1961 
 9043000    35.154581   -6915.4063   -6824.9733   -6915.4063            0    8684.5475    23.122036    20.995239    21.343087    10361.059     8262.836    9054.2191    8736.5876    -16.72321   -696.10431   -289.29473   -5512.6911 
 9044000     36.24896   -6917.4387   -6824.1904   -6917.4387            0    8988.9892    22.909207    21.137934    21.373582    10350.228    9450.9431    9300.6488    8215.3757    24.060597     48.44417    -497.9468   -5467.3254 
 9045000    32.957014   -6919.8733   -6835.0933   -6919.8733            0    8625.3093    23.013907    21.165927    21.250724    10351.454    8561.6917    8082.6423    9231.5938    177.11571    219.69484    501.77202   -5532.9706 
 9046000    35.963912    -6917.857    -6825.342    -6917.857            0    8686.5647    23.070934    21.074661    21.291455    10352.164    8375.4352    9179.7981    8504.4609   -94.278954   -584.06456    210.88972   -5513.8819 
 9047000    35.048589   -6921.1516   -6830.9913   -6921.1516            0     8781.902    22.909146    21.180663    21.334985    10352.394    9668.7909     8785.558     7891.357    215.07673   -48.333861   -246.26715    -5505.108 
 9048000    37.286072   -6918.8395   -6822.9233   -6918.8395            0    8982.7504    23.012605    21.141519    21.263424    10345.111    8873.6912    8907.0157    9167.5442   -402.16901   -5.6766752      -383.26   -5467.6703 
 9049000    36.381617    -6915.831   -6822.2415    -6915.831            0    9035.2609     23.09175    21.065923    21.272391    10347.934    8727.7678    8957.3405    9420.6744    -583.3239    -620.0829    294.24282   -5458.6941 
 9050000    36.697051   -6919.9347   -6825.5338   -6919.9347            0      9071.94    22.893897    21.185924    21.337649    10349.365    9065.7499    9154.9429    8995.1271    364.95118    386.09234   -196.94164   -5456.2616 
 9051000    36.335243   -6916.9834   -6823.5132   -6916.9834            0    8864.7484    23.011905     21.08317    21.349104    10357.815     8536.583    9607.5712     8450.091    236.91229     88.21674    -119.0916   -5484.4211 
 9052000    35.874237   -6922.6358   -6830.3515   -6922.6358            0    8611.4549    22.992514    21.161148    21.286599    10356.952    8771.7493    8101.1128    8961.5025   -129.87262   -305.76022    21.270058   -5529.6298 
 9053000    34.637369   -6918.2034   -6829.1009   -6918.2034            0    8694.8442    22.952094    21.143216    21.340613    10356.195      8983.44    8802.1447     8298.948    290.30311    303.43845   -182.23685   -5515.8796 
 9054000    35.273465   -6914.3671   -6823.6282   -6914.3671            0    8825.9483    23.071644    21.048185    21.316986    10351.874    8702.9691    8813.9211    8960.9548    -448.7652    10.667236    218.52467   -5491.1619 
 9055000    36.541446   -6917.3879   -6823.3873   -6917.3879            0     8956.714    22.918536    21.166668    21.329084    10346.931    9382.2556    8763.6993     8724.187   -224.46911    249.69517    186.39644   -5471.8247 
 9056000    36.933658   -6915.3672   -6820.3576   -6915.3672            0    8963.8395    22.917016    21.135441    21.359782     10345.85    9634.9801    8663.9579    8592.5806    377.72916    187.31864     406.8966   -5467.8611 
 9057000    37.091742   -6922.6379   -6827.2216   -6922.6379            0     8448.704    23.047069    21.062642    21.340969    10359.593    7998.2981    9094.2084    8253.6055   -78.490317   -44.719584    349.56019   -5550.7573 
 9058000    34.218088   -6913.7995   -6825.7756   -6913.7995            0     8927.183    22.928182    21.173448    21.302615    10341.752    9445.6497    8844.2878    8491.6116   -508.05002    347.26677    248.20511   -5479.3435 
 9059000    34.999483   -6915.6194   -6825.5854   -6915.6194            0    8869.0206    22.988959    21.117876    21.321469    10351.104     8898.517    8993.4295    8715.1153   -478.50549    244.44695   -138.59072    -5486.716 
 9060000    34.880612   -6921.2692    -6831.541   -6921.2692            0    8932.0612     23.08692    21.044014    21.290832    10343.969    8405.3429    9034.6994    9356.1412   -182.86533   -319.68396    490.71241   -5484.0844 
 9061000    34.836398   -6914.9239   -6825.3094   -6914.9239            0    9062.8139    22.898482    21.224302    21.279027    10341.698    9221.6839    9085.0815    8881.6763    699.24761    339.01731   -300.32938   -5458.4281 
 9062000    36.420431   -6918.4652   -6824.7758   -6918.4652            0    8851.3115    23.014756    21.117179    21.306401    10355.054    8806.1426    9148.8043    8598.9877     136.4603    60.996738   -206.03242   -5488.0699 
 9063000    37.082355   -6915.9505   -6820.5584   -6915.9505            0    8887.5836    23.071806    21.059468    21.307858    10353.061    8943.2074    8855.5721    8863.9712   -560.11707   -501.16648   -47.504876    -5478.633 
 9064000     34.13344   -6915.6624   -6827.8562   -6915.6624            0    8876.4786     22.94309    21.187393    21.298968    10353.519     9251.434    8739.1752    8638.8265    66.269564     282.0235   -938.38404   -5487.5483 
 9065000    33.947604   -6920.8426   -6833.5145   -6920.8426            0    8860.2089    23.081064    21.028169    21.335671    10355.322    8564.7939    9358.4241    8657.4087     72.95402   -214.17358    65.275713   -5495.4302 
 9066000    38.011657   -6920.6707   -6822.8881   -6920.6707            0    8453.5955    23.013076    21.137826    21.300965    10361.777    8271.2799    8833.2542    8256.2524   -86.395214   -259.31363   -126.83129   -5545.4154 
 9067000     34.64435   -6921.0944    -6831.974   -6921.0944            0    8845.0334    22.956873    21.186619    21.277431    10348.886    8771.8689    8744.4878    9018.7435    332.77015    367.48639   -320.33801   -5497.0118 
 9068000    35.460961   -6922.0322    -6830.811   -6922.0322            0     8896.048    23.093493    21.017705     21.32787    10351.956     8504.009     8959.426    9224.7089    148.42033   -273.74262    334.87466    -5487.751 
 9069000     33.80598   -6919.4246   -6832.4608   -6919.4246            0    9207.3662    22.995093    21.113598    21.303053    10342.827    9087.1036    9564.6166    8970.3784   -6.7676177   -386.87793    -9.186559    -5443.626 
 9070000    35.610139   -6917.7281   -6826.1231   -6917.7281            0    8941.0498    22.882725    21.223726    21.296198    10342.642    9578.5275    8446.5339    8798.0881   -159.10501    406.97643    22.956258   -5477.4836 
 9071000    35.313681   -6916.6249   -6825.7826   -6916.6249            0    8917.5919    23.025762    21.045251    21.369381    10355.238    9055.2191    9306.2821    8391.2744   -569.98725   -201.52812   -192.52211   -5479.0432 
 9072000    37.379607   -6915.4944   -6819.3376   -6915.4944            0    8775.9486    22.928264    21.199679    21.302872    10354.726     9485.031     7972.929    8869.8857    51.398847   -154.72121    246.82498   -5494.0548 
 9073000    35.276214   -6920.4163   -6829.6704   -6920.4163            0     8981.864    22.937592    21.168031    21.306425      10345.2    8989.2487    8651.5486    9304.7947     706.8028   -375.53461   -27.042142   -5474.5396 
 9074000     35.01692   -6918.8402   -6828.7613   -6918.8402            0    8667.5417    23.051235    21.063458    21.352547    10367.488    8310.8284    9069.8069    8621.9897    -450.3656   -204.73781   -143.79194   -5518.2362 
 9075000    35.735381   -6919.4533   -6827.5262   -6919.4533            0    8651.9212    22.909547    21.227858     21.29587    10356.621    9319.7535    7904.0073    8732.0028   -485.34413   -180.21311   -45.556744   -5520.7341 
 9076000    35.849757   -6919.4332   -6827.2119   -6919.4332            0     8925.885    22.946138    21.153709     21.31812    10347.729    9301.6877     8832.047    8643.9202   -54.341171    438.76458   -659.95834   -5480.1976 
 9077000    34.223756   -6916.5535    -6828.515   -6916.5535            0    8867.4884    23.043926    21.026331     21.36697    10352.921    8562.8515     9374.452    8665.1618   -534.89326    583.87883   -71.490995   -5489.6418 
 9078000    35.674246   -6911.5865   -6819.8166   -6911.5865            0    9056.3671    22.910328    21.157485    21.344139    10346.036    9628.3732    9156.5511    8384.1768   -265.05724   -222.09988   -66.039472   -5453.3347 
 9079000    35.301348   -6920.6832   -6829.8727   -6920.6832            0    8876.9477    22.959472     21.12986    21.332522    10349.055    9164.1902    8478.6534    8987.9997    237.97776    80.666517    293.45872   -5490.0718 
 9080000    36.528554   -6916.5896   -6822.6221   -6916.5896            0    8617.1065    23.069615    21.000077    21.380702    10358.174    8611.8962    8875.5696    8363.8537    142.47078   -96.100647    116.13146   -5520.8932 
 9081000    33.873598   -6915.4282   -6828.2904   -6915.4282            0     8954.429    22.931104    21.158429    21.316722    10342.578    9167.6637    8970.1806    8725.4428    136.45105   -183.74887    159.81437   -5477.6412 
 9082000    35.873718    -6921.148    -6828.865    -6921.148            0    8710.4974    23.006408    21.116162    21.308367    10351.755    8963.4362    8485.5517    8682.5041   -72.201765    604.04966    134.71835   -5513.8436 
 9083000    36.739279   -6920.6701   -6826.1605   -6920.6701            0    8967.6747     23.06352    21.058383    21.295781    10342.944    8981.7063    9067.9783    8853.3396   -4.7527906    8.1390506    42.106514   -5473.4655 
 9084000     36.52946   -6912.2922   -6818.3224   -6912.2922            0    8998.3287    22.934584    21.219386    21.250979    10341.954    9171.8718    8587.9113    9235.2031    418.04437   -24.516175    263.12194   -5461.1334 
 9085000    34.611241   -6915.8042   -6826.7689   -6915.8042            0    9149.8017    23.050994    21.070287    21.287447    10339.123    9021.7613     9452.381    8975.2627   -109.53534   -110.81331   -172.91524   -5447.1115 
 9086000    36.142446   -6921.8183   -6828.8441   -6921.8183            0    8944.2491    23.001916    21.100196    21.323445    10349.226     8855.036    9261.6762     8716.035   -78.426435   -203.74999    74.957596    -5478.863 
 9087000    32.985998   -6914.5126   -6829.6581   -6914.5126            0    9008.2678    22.888434    21.267521    21.252875     10345.48     9373.481     8705.019    8946.3035   -243.77872    1159.7656   -97.040265   -5470.5068 
 9088000    36.420077   -6920.5479   -6826.8595   -6920.5479            0    8664.7564    23.074567    21.077188    21.305579    10361.904    9034.4804    8807.3125    8152.4762   -828.92643   -12.927239   -499.62891    -5517.461 
 9089000    34.835816   -6923.7559   -6834.1428   -6923.7559            0    8926.9738    22.989918    21.107884    21.339959     10355.61    9064.1559    9181.7927    8534.9729    373.34212     90.04889    73.775779   -5485.9381 
 9090000    35.945573   -6919.4792   -6827.0114   -6919.4792            0    9336.9985    22.922528    21.178956    21.286654    10334.143    9804.6096    9248.2716    8958.1143    36.471017   -202.21846   -188.59467   -5419.8055 
 9091000    35.745585   -6922.0432   -6830.0898   -6922.0432            0    9187.2514    23.069313    21.066637    21.278107    10341.008    8909.8882    9325.8188    9326.0472   -411.62842   -127.56247    277.06669   -5444.5329 
 9092000     35.61129   -6918.2545   -6826.6466   -6918.2545            0    8807.0774     22.97371    21.165933    21.293508    10354.181    8847.8346     8883.454    8689.9438    115.37378    344.59173   -210.69885   -5496.7329 
 9093000    34.759322   -6916.1277   -6826.7114   -6916.1277            0    8971.1717    22.986584    21.165205    21.275814    10351.019    9035.8063     9119.752    8757.9566   -3.3172099    89.549656   -368.30664   -5472.4324 
 9094000    35.877745   -6917.8947   -6825.6014   -6917.8947            0    8865.3427       23.072    21.090479    21.281987    10355.805    8760.0917    8959.0417    8876.8947   -98.467161   -636.29482   -169.40753   -5486.6794 
 9095000    34.380332   -6921.4473    -6833.006   -6921.4473            0    8675.7721    22.941649    21.238266     21.26168    10359.558    8855.0152    8208.4688    8963.8324    457.61979     247.5577    181.40237   -5522.2397 
 9096000    36.021313   -6916.2011   -6823.5385   -6916.2011            0    8797.0632    23.026011    21.106443    21.315481    10359.264    8480.9739    9495.7698     8414.446   -18.410861    290.07738   -187.92584   -5494.4849 
 9097000     36.09514    -6922.378   -6829.5254    -6922.378            0    8509.7745    23.098843    21.056411    21.312703    10366.046    7999.2674    8886.4567    8643.5993   -461.54798    323.15063    -104.8237   -5543.0335 
 9098000    34.098703   -6919.1824   -6831.4656   -6919.1824            0    8818.4563    22.927489    21.196178     21.29042    10346.615    8837.3483    8622.9184    8995.1022    241.63801    588.79125    255.47971   -5500.8066 
 9099000    35.388285   -6916.8507   -6825.8165   -6916.8507            0    9099.5112    23.004287    21.055681    21.356363    10344.401    8942.6175    9850.0202    8505.8959   -225.11516   -196.94869    581.99544   -5453.0417 
 9100000    34.709885   -6918.1498   -6828.8607   -6918.1498            0    9174.9595    23.027538    21.068882    21.305987    10336.908    8615.8657    9096.6114    9812.4014   -555.05253    798.58035    395.75524   -5445.7063 
 9101000     35.15583   -6921.4735   -6831.0373   -6921.4735            0    8764.7181    22.934127    21.162923    21.324182     10349.76    9190.4961    8846.6686    8256.9895   -168.00266    272.09396   -266.75265   -5508.0852 
 9102000    34.802034   -6916.2867   -6826.7606   -6916.2867            0    8710.8606    23.044643    21.025957    21.379371    10359.068     8839.262    8950.4812    8342.8385   -668.49527   -55.885997     280.2214   -5510.7554 
 9103000    35.240379   -6912.7078   -6822.0541   -6912.7078            0    8787.9496     23.00559    21.123222    21.289241    10345.553     8733.666    8619.3682    9010.8147      23.8705     372.9666   -94.164202   -5496.1345 
 9104000    35.460227   -6915.8023    -6824.583   -6915.8023            0    8893.9125    22.970376    21.146977    21.287958    10340.711    8687.9504    9266.4325    8727.3546    420.12604   -114.72259    399.40263   -5483.3039 
 9105000     36.23947   -6918.3066   -6825.0827   -6918.3066            0    8789.3221    22.986427    21.068439    21.380264    10354.208    9118.7684    8529.4612    8719.7367   -116.42385   -194.42234    722.34199   -5497.8467 
 9106000    35.223665   -6918.6405   -6828.0298   -6918.6405            0    9079.3447     22.95425    21.123197    21.333277    10343.805    9508.0721    9290.9223    8439.0399   -436.80799     592.6393   -585.30454   -5458.3762 
 9107000    35.609506   -6916.1533     -6824.55   -6916.1533            0    9493.6637    23.017438    21.107181    21.247678    10322.828    9095.7828    9375.0977    10010.111   -22.371813    133.22938    262.06242   -5395.2993 
 9108000     34.44439   -6915.2113   -6826.6052   -6915.2113            0    9093.0381    23.000737    21.124531    21.285317    10342.105    8916.9554    9164.2136    9197.9453   -160.85175   -180.82464   -125.59385   -5455.1114 
 9109000    35.725692   -6921.3066   -6829.4045   -6921.3066            0    8779.2199    22.983426    21.171976    21.278078    10354.009    8799.0612    8648.2068    8890.3916    828.56638   -76.136583   -563.50568   -5503.7194 
 9110000    34.989472   -6919.9411   -6829.9328   -6919.9411            0    8881.0114    23.112744    21.098609    21.239825    10357.532    8525.5242    8809.0482    9308.4618    102.27762   -956.83743   -132.05178   -5488.4207 
 9111000    35.120709   -6917.7055   -6827.3596   -6917.7055            0    8820.9762    22.990375     21.16546     21.29811      10363.7    8813.8762    8619.9345    9029.1178   -137.38513   -215.58476   -371.68038   -5494.1226 
 9112000    35.972056   -6918.0901   -6825.5542   -6918.0901            0     9173.765    22.956815    21.146066    21.310284    10344.999    9113.4795    9223.8912    9183.9241    427.68056    131.27186   -128.98065   -5441.4972 
 9113000    36.197271    -6917.434   -6824.3188    -6917.434            0    9089.9184     23.06861    21.093821    21.261636    10346.021    9136.7144    8599.4085    9533.6322    144.40746   -712.21619   -45.220328   -5452.7764 
 9114000    36.108211   -6916.9582   -6824.0721   -6916.9582            0    8766.5423    22.955707    21.185653     21.28316    10350.674    9253.5437     8369.468    8676.6152   -229.20579   -526.95509   -377.62904   -5500.7278 
 9115000    34.765884   -6914.3275   -6824.8944   -6914.3275            0    8959.1342    22.942598    21.128355     21.35858    10353.344    9358.7078    9165.1707    8353.5241     524.4659   -53.669093   -198.01501   -5472.1286 
 9116000    33.867617   -6919.9391   -6832.8168   -6919.9391            0     8797.579    23.051258    21.074792    21.304149    10349.566    8757.1498    8809.7007    8825.8864   -303.61307   -29.802164    57.815167   -5504.9296 
 9117000    34.380035   -6924.8087   -6836.3681   -6924.8087            0    8357.3959    22.953363    21.159939    21.328696    10359.172    8423.6865    8082.4255    8566.0759   -346.99154    632.79407    217.43796   -5573.7503 
 9118000    34.128022   -6918.8447   -6831.0524   -6918.8447            0    8835.9743    22.940927     21.11312    21.374284    10352.731    9003.6374    8603.7707    8900.5148    47.473555    176.69675    400.56593    -5496.962 
 9119000      35.4417   -6917.2609   -6826.0893   -6917.2609            0    9205.3221    23.026545    21.029091     21.34113    10333.958    8991.3287    9565.0524    9059.5853   -75.150557     3.754716    58.564765   -5438.7535 
 9120000    35.801556   -6918.3056   -6826.2083   -6918.3056            0    9045.4158    22.954489    21.125186    21.316028    10336.522    8801.5106    9238.8625    9095.8743    277.22598    264.26593    153.61669   -5462.6338 
 9121000    34.395409   -6916.2867   -6827.8066   -6916.2867            0    9174.5229     22.92741    21.120177    21.364998    10345.594    9624.6851    9052.0347    8846.8487   -501.09977    60.944112    60.420991   -5443.5558 
 9122000    36.691649   -6914.9991   -6820.6121   -6914.9991            0    9131.4063    23.067714    21.056688    21.298699     10345.41    8728.0503    9655.0266    9011.1421   -310.15755     282.4074    -34.96426   -5442.8912 
 9123000    35.611599   -6918.6608   -6827.0522   -6918.6608            0    8820.5534    22.989696    21.188814    21.230903    10342.091    8979.2389    8502.3947    8980.0267    296.42892   -227.44674   -171.32316   -5496.6588 
 9124000    36.103993   -6918.0017   -6825.1263   -6918.0017            0    8829.8925    22.982812    21.113734    21.333351    10352.072    9108.9906    8925.2633    8455.4235    435.82666   -467.47288   -119.17437    -5492.039 
 9125000    36.563055   -6918.0427   -6823.9865   -6918.0427            0    8884.1659    23.046105    21.088465    21.315178    10359.325    8949.3928    9099.6649    8603.4401   -213.02386   -274.18206   -729.83063   -5481.7655 
 9126000    35.141422   -6919.7365   -6829.3374   -6919.7365            0    8509.1327    22.981077    21.191897    21.293962    10370.428    8827.8367    8211.6354    8487.9259   -453.31789    309.61164   -616.77162   -5542.3987 
 9127000    35.433352   -6920.8572    -6829.707   -6920.8572            0    8656.5423    22.996152     21.09478    21.375195    10369.081    8838.0727     8774.227    8357.3273   -43.984217   -103.53915   -156.86821   -5520.6439 
 9128000    34.874272   -6917.5495   -6827.8375   -6917.5495            0    8851.4059    23.097403    21.060709    21.285859    10354.457    8816.2518    8883.4939    8854.4718   -84.854429   -178.21555    13.360574   -5491.1944 
 9129000    37.649543   -6917.8953   -6821.0441   -6917.8953            0    8772.4748    22.950498    21.221659    21.253009    10351.228    8900.3607    8278.1147    9138.9489     166.4654    374.83487    45.155634   -5496.7334 
 9130000    33.507792   -6920.6389   -6834.4421   -6920.6389            0    8937.1442    23.051539    21.056805    21.341723    10359.097     9092.895    8944.8542    8773.6833   -94.392102   -243.58141   -118.72262    -5484.247 
 9131000    34.937671   -6923.0983   -6833.2233   -6923.0983            0    8536.4379    23.049016     21.11757    21.289117    10362.248    7726.1622    8926.3787    8956.7729    493.11318    129.59383    164.93169   -5543.1732 
 9132000    37.173043   -6915.9296   -6820.3043   -6915.9296            0    9120.0197    22.916018    21.231407    21.255742    10341.754    9271.4453    8864.0092    9224.6047   -9.2049219   -391.29673   -127.54226   -5444.7875 
 9133000      36.2871   -6920.1628   -6826.8165   -6920.1628            0    8518.5881    23.041294    21.038884    21.387232    10367.741    9042.4434    8548.9605    7964.3605    336.36099   -684.74959     -11.0243   -5538.7815 
 9134000    34.044909   -6918.2935   -6830.7151   -6918.2935            0    8993.3463    22.999956    21.100807    21.315573    10344.824    9180.4891    9333.0643    8466.4855   -100.02592    -49.38718   -142.99701   -5473.9011 
 9135000    34.660467   -6922.0098   -6832.8479   -6922.0098            0    8589.5389    22.889238    21.265709    21.271423     10353.99    8807.2531    8061.8466    8899.5171   -171.31512    166.25528     113.3229   -5535.8075 
 9136000    35.885966   -6917.9435    -6825.629   -6917.9435            0    8386.2732    23.085129    21.024634    21.367869    10371.032    8209.2436    9005.8022    7943.7738     111.7006    36.089737    103.59796   -5557.1979 
 9137000     34.74133   -6918.1617   -6828.7917   -6918.1617            0    8851.5017    22.995563    21.120027    21.315062     10352.02    8503.1305    9002.0038    9049.3709   -26.912712    310.20158   -211.82595   -5492.4487 
 9138000    34.055438   -6917.8516    -6830.246   -6917.8516            0     8985.192    22.958269    21.191776    21.258424    10342.786    8864.5533    8374.1245    9716.8982    302.78236   -206.27944    277.05588   -5474.9293 
 9139000    34.678097   -6917.3054   -6828.0981   -6917.3054            0    8947.8224    23.085288    21.031466    21.327982    10355.107    8782.7797    9318.7965    8741.8911    369.88169   -463.17053    155.77615   -5476.8103 
 9140000    37.051721   -6922.2431   -6826.9298   -6922.2431            0    8981.1503    22.951239    21.172624    21.285904    10343.629     9299.469    8767.7499    8876.2318   -99.424162    178.05347    156.18234   -5472.1124 
 9141000    36.063114   -6920.8187   -6828.0486   -6920.8187            0    8981.5693     22.98891    21.158281    21.263077    10342.484    8934.2884    8590.6244     9419.795   -429.17709     389.9875    477.76784   -5473.3179 
 9142000     36.18255   -6921.1632   -6828.0858   -6921.1632            0    8568.8136    23.072342     21.02173    21.361588    10360.809    8282.3698    9244.7787    8179.2923   -220.75216    91.003122    106.77834   -5533.3229 
 9143000    34.956297   -6915.0745   -6825.1516   -6915.0745            0    9142.0103     22.91123    21.180776    21.306175     10339.41    9235.7111    9437.8492    8752.4708    219.62216    623.22569   -87.334294   -5446.6306 
 9144000     36.14319    -6920.712   -6827.7359    -6920.712            0    8944.7209    23.007586    21.130429    21.283399     10347.14    8636.1399    9098.8597     9099.163   -132.83936   -132.12924    246.04352   -5477.9558 
 9145000    36.266805   -6915.5868   -6822.2926   -6915.5868            0    8976.1505    22.985502    21.065567    21.387312    10355.793    9535.2397    9011.9654    8381.2464   -276.13113   -326.06749    0.7534342    -5466.637 
 9146000    34.683963   -6916.3546   -6827.1322   -6916.3546            0    9253.3837    22.874654    21.178142    21.348357    10342.055    9884.7027    9049.0879    8826.3603    634.55081    34.657707    -97.63039   -5431.4604 
 9147000    35.141042   -6921.0994   -6830.7012   -6921.0994            0    8861.2168    23.062582    21.069405    21.303799    10351.833    8242.5622    9160.7533     9180.335    257.58424   -481.74874    197.21655   -5492.9157 
 9148000    33.992972   -6917.0089   -6829.5641   -6917.0089            0    9316.1485     22.98821    21.108939    21.301233    10336.567    9664.6992    8741.9792     9541.767    65.128688    -257.9232    228.46834   -5425.1712 
 9149000    35.765885    -6914.492   -6822.4865    -6914.492            0     8924.126    22.941543    21.174335    21.304509    10349.132    8795.2721    8973.4158    9003.6901    459.34439    249.40826   -47.001253   -5475.5549 
 9150000    35.888769   -6920.8368   -6828.5151   -6920.8368            0    9074.3308     23.09632    21.030849     21.30106    10346.675    8640.5284    9375.9641    9206.4998   -66.056595   -192.35511    34.609284   -5459.2381 
 9151000    34.968442   -6913.1624   -6823.2082   -6913.1624            0    9070.7054     23.02705    21.128496    21.256225    10341.726    8818.2824    8995.5604    9398.2734    356.26296    392.48934    -63.81108    -5455.133 
 9152000    36.001109   -6923.6293   -6831.0186   -6923.6293            0    8992.3542    22.979971    21.187111    21.243475    10343.006    8954.2006    8886.7937    9136.0683    -310.1677    510.22396   -206.80095   -5474.5927 
 9153000    37.119583   -6919.5362   -6824.0483   -6919.5362            0    8650.3408    23.093884    21.090843     21.28394    10366.758    8390.3322    8368.5181    9192.1722   -427.89031    83.328475    370.40021   -5516.2161 
 9154000    35.853134   -6919.3432   -6827.1132   -6919.3432            0    8858.0608    22.990749    21.176321    21.263946    10352.553    8861.1813    8656.2238    9056.7773    157.17872    78.167168   -157.67276    -5489.711 
 9155000    34.753735   -6920.3329    -6830.931   -6920.3329            0    8892.7668    23.008787    21.154661    21.278501    10357.164    8723.7346    9078.9129    8875.6528    566.13041   -503.66512   -85.034014    -5487.691 
 9156000    32.700757   -6919.7722   -6835.6515   -6919.7722            0    8942.5553    23.075304    21.104985     21.26695    10357.088    8961.4536    8971.6482    8894.5641   -189.07052   -646.11113   -32.325423   -5484.9008 
 9157000    35.443356    -6922.317   -6831.1411    -6922.317            0    8666.8883    22.979243    21.210627    21.253778     10359.18    8200.9802    9113.8927    8685.7919    188.30453    268.90827   -112.93557   -5521.7649 
 9158000     34.96443   -6919.2944   -6829.3505   -6919.2944            0    9048.9728    23.031159    21.109886    21.276796    10344.462    8648.0714    9078.5674    9420.2796    69.577675   -131.46803    291.03698    -5464.192 
 9159000    36.266847   -6918.7495   -6825.4552   -6918.7495            0    8946.4021    23.031016    21.105193    21.292556    10349.758    8506.0062    9129.4489    9203.7511    281.44788   -204.60164   -179.99427   -5475.0799 
 9160000    35.482903   -6919.2583   -6827.9807   -6919.2583            0    8730.3809    22.911155    21.176254    21.333556    10350.454    9073.1994    8373.8976    8744.0458    693.73003   -307.88601    668.71061   -5510.1231 
 9161000    34.727725   -6921.4459   -6832.1109   -6921.4459            0    8795.0937    23.016118    21.052064    21.351576    10345.624    8792.1708    8871.0562    8722.0542   -438.35355      77.7898    175.70882   -5505.1044 
 9162000    36.310017   -6919.4905   -6826.0852   -6919.4905            0    8817.8258    23.011831    21.077968    21.320119    10341.167     9106.556    9070.5754    8276.3461   -486.38567    178.86161   -152.05102    -5496.222 
 9163000    34.992598   -6916.1487   -6826.1324   -6916.1487            0    8885.0932    22.907386    21.152525     21.34559    10342.985    9101.2402    9311.9992    8242.0401    271.81195   -49.540175    151.21566   -5485.8886 
 9164000    35.992556   -6922.7464   -6830.1577   -6922.7464            0    8740.9328    22.987746    21.062372    21.386679    10354.926    8882.7562    8921.0504    8418.9919    56.885246    -232.9873    66.979769   -5510.1372 
 9165000    35.781753   -6919.1487   -6827.1023   -6919.1487            0    8755.2097    23.020995    21.091443    21.325096    10354.315     8845.254    8468.8433    8951.5318   -696.38771    -169.6006    345.43786   -5505.0038 
 9166000    36.502243   -6918.3166   -6824.4168   -6918.3166            0    8488.9644    22.939176     21.16658    21.343758    10363.332    8596.4903    8588.4535    8281.9494    511.13147    270.33587   -24.678874   -5541.4069 
 9167000    35.525197   -6920.1606   -6828.7742   -6920.1606            0    8844.6951    23.053588    21.041769    21.331396     10347.61    8779.6611    9237.6895    8516.7348    250.43845   -132.36667   -78.617046   -5494.0277 
 9168000    36.184979    -6916.338   -6823.2544    -6916.338            0    8806.5562    23.059198    21.117255    21.260004    10352.494    8147.1751    8951.3361    9321.1574   -145.14439    122.19216    248.12624    -5493.636 
 9169000    36.607679   -6914.0607   -6819.8897   -6914.0607            0    8678.9951    22.973338    21.173905    21.290192      10356.3    8636.6516    8788.4551    8611.8786    74.327735    189.35349   -38.058069   -5509.0488 
 9170000    35.502602   -6919.6372    -6828.309   -6919.6372            0    8814.1593    23.101561    21.031079    21.312388     10354.64    8600.1904    9620.5711    8221.7165   -400.49514    158.84643   -289.71644   -5497.2669 
 9171000    34.798263    -6917.075   -6827.5585    -6917.075            0    8646.4023    23.017953    21.157493    21.261109    10354.207    9105.5094    8316.9904     8516.707   -414.50302    191.48397   -33.580101   -5521.9044 
 9172000    34.511718    -6915.174   -6826.3947    -6915.174            0    8990.2321    22.937541     21.17877     21.30579    10350.117    9725.2378    9184.8041    8060.6545    387.43093    -566.6184   -331.21683   -5469.3566 
 9173000    34.415102    -6919.027   -6830.4962    -6919.027            0     8849.899    23.108794    21.030825    21.310328    10356.756    8160.5921    8933.3651    9455.7397    195.26962   -107.80969    163.36635    -5493.784 
 9174000    35.418471   -6920.9377   -6829.8258   -6920.9377            0    8821.4347    22.993835    21.201391    21.228416     10348.88    8895.7177    8805.1254     8763.461   -431.70617   -33.836885   -375.11228   -5498.4261 
 9175000    35.629585   -6919.6132   -6827.9583   -6919.6132            0    8612.6508    22.974996    21.178441    21.285995    10357.224    8862.0578    8503.1695     8472.725    169.52705    69.078251     112.2107   -5527.0218 
 9176000    35.258973   -6922.0576   -6831.3561   -6922.0576            0    8906.4687    23.065432    21.035645    21.342551    10355.325    8833.7013    9843.5981    8042.1068   -165.73344    51.278241   -183.83049   -5486.2852 
 9177000    35.832302   -6913.3349   -6821.1584   -6913.3349            0    8942.9232    22.951732     21.23725    21.227819    10347.111     9302.687    8200.0009    9326.0817   -406.52862   -86.949367   -123.90677   -5471.6534 
 9178000    35.767076   -6918.1875   -6826.1789   -6918.1875            0    8850.7028    23.022206    21.117045    21.303712    10357.033    8373.0189    9259.4066    8919.6828   -102.76852    268.91306   -319.51421   -5489.3094 
 9179000    34.814473   -6917.1331    -6827.575   -6917.1331            0     8967.674    23.084711    21.056812     21.29116    10349.429    9040.1589    8942.2911     8920.572   -133.50314    181.03539    66.198553   -5474.0319 
 9180000    35.500864   -6915.6689   -6824.3451   -6915.6689            0    9079.7627    22.933246    21.230549    21.233988    10338.519    8961.9401    8725.7224    9551.6255    389.50609    87.528346    213.31996   -5455.3285 
 9181000      35.3793   -6917.7042   -6826.6932   -6917.7042            0    8983.4406    23.051154    21.051845    21.324123    10347.942     8814.298    9438.7564    8697.2673   -279.56049   -84.631169   -184.37678   -5470.9651 
 9182000    36.294853    -6917.791   -6824.4247    -6917.791            0    8769.6511    22.993587    21.082777     21.36465    10356.913    8869.8353    9283.3319    8155.7862   -260.19552    274.36287   -132.58227   -5499.8131 
 9183000    34.805874   -6919.1823   -6829.6463   -6919.1823            0    8913.2184    22.917215    21.184914    21.306742    10344.406    9316.4428    8620.0391    8803.1733   -4.5603749    336.45454    159.59444   -5484.9754 
 9184000    35.633087   -6920.5651   -6828.9012   -6920.5651            0    8897.0857    23.071929    21.038939    21.318581    10348.229    8457.0239    9396.7331    8837.5001   -577.91727    315.67722    162.46615   -5486.1681 
 9185000    36.147834   -6917.1684   -6824.1803   -6917.1684            0    8961.5402    22.967207    21.111145    21.343721    10348.803    9412.0459    8771.1716    8701.4031    158.17214   -161.97596    320.40159   -5471.6449 
 9186000    36.116614   -6916.8346   -6823.9268   -6916.8346            0    8884.6746    22.916249    21.193489     21.31016    10349.818    8993.2124     8770.716    8890.0955    397.76854    191.31383    116.10119   -5482.8609 
 9187000    34.297709   -6918.8201   -6830.5914   -6918.8201            0    8990.0152    23.070672    21.055562    21.294343    10344.067    8841.7214    9149.7499    8978.5744   -421.56853   -102.10387    92.455567   -5474.3792 
 9188000    36.028479   -6913.9011     -6821.22   -6913.9011            0    9080.0787    22.953411     21.12625    21.330457    10343.554    8775.1075    9161.1928    9303.9359    656.01274    136.83303    503.70646    -5451.489 
 9189000    34.285311   -6919.1143   -6830.9174   -6919.1143            0     9177.311     23.00711    21.110493    21.272871    10332.051    9148.1717    9378.8311    9004.9303    123.01949    74.436193   -89.474451   -5448.0584 
 9190000    36.460818   -6912.1588   -6818.3655   -6912.1588            0    8635.6131    23.143251    21.081834    21.219266    10352.926    7794.4954    8511.2734    9601.0706   -283.24899    54.771051    222.07987   -5514.5019 
 9191000    35.548327   -6917.8662   -6826.4203   -6917.8662            0    8303.8964    22.988097    21.182779    21.307981    10375.959    8423.1607    8237.6708    8250.8577    151.37895    -112.9374   -224.30826   -5569.8521 
 9192000    35.291599    -6918.156   -6827.3705    -6918.156            0     8830.593    22.988187    21.104271     21.35947    10362.524    9294.0281    8876.2852    8321.4659     240.3733   -287.27159   -22.410576   -5492.8313 
 9193000    35.338848   -6920.2224   -6829.3153   -6920.2224            0    8647.8277    23.108616    21.077998    21.257915    10354.377    8229.1158    8911.9493     8802.418   -279.64638   -140.98169    73.972265   -5523.4245 
 9194000    34.776151   -6915.4684   -6826.0089   -6915.4684            0    9019.4358    22.980779    21.176542    21.251599    10342.164    8561.9755    9116.0238     9380.308    250.40972     517.0755    166.08064   -5465.6087 
 9195000    37.258775   -6918.0635   -6822.2176   -6918.0635            0    9426.2472    22.999737    21.057511    21.353539    10341.886    9554.3424    9919.7199    8804.6793    -116.2913    600.02219   -335.18496   -5400.4963 
 9196000    34.900648   -6919.1945   -6829.4147   -6919.1945            0    8759.8647     23.07851    21.104298    21.263508    10356.514    8384.0897    8973.8019    8921.7026   -311.80764    148.86414   -156.37857   -5506.3324 
 9197000    34.749797   -6916.1081   -6826.7164   -6916.1081            0     8733.223     22.92639    21.251389     21.24618    10351.514    9260.9496    8044.9367    8893.7828   -259.96365    109.65116   -467.22278   -5508.2948 
 9198000     35.80895   -6915.8998   -6823.7835   -6915.8998            0    9006.1187    23.001515    21.080488    21.355613    10354.977    9457.8752    9170.6066    8389.8743   -77.957858   -412.58795   -556.14105    -5463.709 
 9199000    35.540461   -6916.4069   -6824.9813   -6916.4069            0    8702.2114     23.04199    21.119715    21.290581    10360.854    8939.2675    8705.1353    8462.2316    152.15752   -256.48892   -118.40918    -5510.056 
 9200000    34.068659   -6917.2973   -6829.6577   -6917.2973            0    8514.8666    22.877044    21.314919    21.243277    10358.697    8885.3036    7772.6023    8886.6938     222.1545   -164.63518   -245.93738   -5543.3086 
 9201000    36.912525   -6922.6775   -6827.7222   -6922.6775            0    8831.7323    23.044636    21.045718    21.365816    10362.227    8700.9829    9263.1133    8531.1006    313.76491   -166.37457    21.519194   -5493.0493 
 9202000    36.211868   -6919.5115   -6826.3587   -6919.5115            0    9304.4363    22.966727    21.123549    21.309191    10337.915    9346.2281     9694.678    8872.4027   -305.77629   -202.09508   -193.90108   -5423.5485 
 9203000    33.954656   -6919.3546   -6832.0083   -6919.3546            0     9029.569    22.930202    21.220696    21.255961    10343.041    9579.4987    8449.7081    9059.5003   -496.08615   -32.447608    61.702035   -5469.9642 
 9204000     34.12906   -6919.4943   -6831.6994   -6919.4943            0    8259.8167    23.064403    21.050194    21.380569    10380.483    8213.0272    8495.7918    8070.6311    117.08831   -67.456782   -45.287346   -5581.2565 
 9205000    34.988378   -6920.7641   -6830.7586   -6920.7641            0     8854.747    22.954292    21.161943    21.326047    10359.285    9879.9388    8310.0673    8374.2348   -284.72987   -473.33882   -98.322782   -5492.9874 
 9206000    34.363289    -6919.896   -6831.4985    -6919.896            0    9006.9293     22.90748    21.244886     21.26223    10347.621    9350.8799    7873.4942    9796.4139    58.223751    6.9657807    412.71876   -5472.2678 
 9207000    34.183156   -6920.6372   -6832.7031   -6920.6372            0    8745.7077    23.046125    21.072223    21.333741     10360.37    8856.3507    8480.1144     8900.658   -10.993496   -4.7883682   -150.94834   -5511.2671 
 9208000    35.308358   -6918.1015   -6827.2729   -6918.1015            0     8786.754    22.960131    21.175652    21.307151    10359.446    9110.4481    8633.5403    8616.2735   -106.85959   -11.181272    52.011966   -5499.7535 
 9209000    36.502421    -6919.064   -6825.1637    -6919.064            0    8753.0168    22.964817    21.213713    21.265995    10360.134    9486.3691    7975.4902     8797.191    165.26436   -356.69511   -34.030142   -5502.6535 
 9210000    34.930811   -6919.0377   -6829.1803   -6919.0377            0    8789.4082    23.062661    21.083694    21.307526    10360.701    8407.4842    9173.7727    8786.9676   -29.628644   -182.91928   -22.189355    -5501.099 
 9211000    35.595667   -6915.6931   -6824.1255   -6915.6931            0     9201.512    22.923028    21.168471     21.31801    10344.467    9497.1132    9145.2778    8962.1449    470.89145    291.05421     304.9805   -5435.9537 
 9212000    35.356015    -6918.579   -6827.6278    -6918.579            0    9094.1339    23.006615    21.113345     21.28296    10338.126    8910.1764    9488.7189    8883.5064   -157.44852    577.61052   -28.653862   -5456.4965 
 9213000    34.492963   -6918.4613   -6829.7303   -6918.4613            0    8523.2474    23.050192    21.069073     21.34124    10364.292    9072.9138    8732.4956    7764.3328   -816.17526   -217.00622   -88.639086   -5541.4196 
 9214000    35.605534   -6920.1333   -6828.5402   -6920.1333            0    8370.1533    22.967608    21.151762     21.33735    10365.799    8568.9856    8603.3386    7938.1358     697.7464   -162.98461     69.19557   -5563.1861 
 9215000    34.416955   -6919.9486   -6831.4131   -6919.9486            0    8832.3681      23.0888    21.080399    21.247452    10341.583    8297.6913    8695.9953    9503.4176    246.54167   -149.70011    49.292526   -5499.3031 
 9216000    34.590446   -6917.0743   -6828.0925   -6917.0743            0    8690.7367    23.061229    21.091039    21.286607    10353.493    8513.0784    8737.5917    8821.5398    174.57381    296.89015    82.773161   -5515.8341 
 9217000    35.215021   -6917.6135    -6827.025   -6917.6135            0    8836.3388    22.949693    21.145807    21.326208    10349.391    8658.0778    8825.2914    9025.6471    318.91555    698.78437   -132.25493     -5493.31 
 9218000    35.254679    -6916.241   -6825.5505    -6916.241            0    8810.9041    23.053788     21.06629     21.32434    10356.332    8585.2868    9005.5315    8841.8941   -29.731867   -82.064448   -161.34049   -5494.7825 
 9219000    35.460283   -6918.4395     -6827.22   -6918.4395            0     9170.415    23.043427     21.07929    21.284746    10338.833    8610.9643    9711.3825    9188.8982    113.61024    70.869568   -134.54508   -5444.4932 
 9220000     35.11189   -6922.3812    -6832.058   -6922.3812            0    8853.4372    22.959571    21.170838    21.287088    10347.086    9079.5803    8863.2956    8617.4356    93.533618    -366.1741    27.138848   -5496.0598 
 9221000    35.266387   -6921.6802   -6830.9596   -6921.6802            0    8463.8283    23.055423    21.113996    21.295107     10366.29    8085.2719    8646.7108    8659.5021   -11.002084   -90.297521   -78.985459   -5551.3836 
 9222000    35.537198   -6921.2117   -6829.7944   -6921.2117            0    8945.9666     23.02628    21.156274    21.244676     10349.35    8684.6416    8825.3915    9327.8666    -78.46354   -109.92829   -297.11041    -5479.538 
 9223000    34.855021   -6920.6659   -6831.0035   -6920.6659            0    8884.4441    22.981061    21.170848    21.284909    10355.716    8980.1699    8897.9304    8775.2321 -0.059924558   -132.31155    -72.18149   -5489.2081 
 9224000    37.188629   -6920.6639   -6824.9984   -6920.6639            0    8899.1404    23.085004    21.077159     21.28999    10358.992      8940.56    9243.7298    8513.1315   -42.770149   -435.50211   -233.25648   -5480.5583 
 9225000     33.93207   -6916.3314   -6829.0433   -6916.3314            0    8934.0045    23.021681    21.161571    21.242817    10348.968    8323.1025    9094.2514    9384.6596    156.02966    304.37945   -58.050185   -5480.6421 
 9226000     35.48386   -6918.9425   -6827.6624   -6918.9425            0    9021.0088    23.002472    21.171219    21.245956    10346.576    9372.7572    8322.7306    9367.5385    171.90774   -365.89665    79.069174   -5466.4446 
 9227000    37.915195   -6919.9348   -6822.4002   -6919.9348            0    8562.6063    23.128955    21.084662    21.263136    10369.313    7689.2679    9110.0324    8888.5185    152.99903    36.806216   -97.523171   -5527.5133 
 9228000    37.163607   -6917.3012   -6821.7001   -6917.3012            0    8675.8007    23.012058    21.170254    21.254424    10354.541    8783.2414    8577.5897    8666.5709    134.55983   -71.312822    219.93121   -5511.5642 
 9229000    34.361666   -6913.9168   -6825.5235   -6913.9168            0    8814.1464    23.016927    21.138267    21.285511    10356.209     8879.012    8685.6385    8877.7888   -260.10333   -110.26809    266.90045   -5494.2817 
 9230000    35.708669   -6916.1241   -6824.2657   -6916.1241            0    8497.8757    23.077867    21.084602    21.311167    10369.751    8155.6633    8961.6047     8376.359   -236.48176    325.86901    4.5054452   -5539.1134 
 9231000    35.652148   -6915.1583   -6823.4454   -6915.1583            0    8830.9732    22.961348    21.160585    21.317368    10357.588    9317.7981    8502.8894    8672.2322    231.23748   -226.97361    501.74235   -5489.4845 
 9232000    36.762731   -6921.1915   -6826.6216   -6921.1915            0    8602.0949    23.007334    21.104923    21.345189    10364.541    8169.9764    9065.6049    8570.7034    399.80923    -214.3673    849.56484   -5526.3616 
 9233000    35.120396   -6919.1313   -6828.7863   -6919.1313            0    8987.0653    23.065052    21.083654    21.278245    10347.516    8723.0925    8836.7723    9401.3312     52.42738     187.3833    251.59201    -5472.567 
 9234000    35.123866   -6918.2868   -6827.9327   -6918.2868            0    8441.5383    22.924437    21.189012    21.329119    10360.538    8290.4087    8701.6481    8332.5582    127.85868    29.109435    142.20869   -5552.4347 
 9235000    35.069131   -6919.6571   -6829.4439   -6919.6571            0    8618.6494    23.045827    21.074585    21.333515    10361.288    7701.1371    9096.2326    9058.5784   -297.31458    301.37187   -35.826005   -5527.0905 
 9236000    35.120321   -6919.0744   -6828.7295   -6919.0744            0    8921.5509    23.006487    21.090804    21.334092    10351.841    8948.1021    8581.8997    9234.6509   -60.094902   -58.046951    110.15055   -5481.8342 
 9237000    34.921042   -6920.1772   -6830.3449   -6920.1772            0    9295.7124     22.88594    21.184213    21.331455     10341.93     10095.86    9260.1517    8531.1252     101.7026   -578.66034    -617.5653   -5428.3058 
 9238000    35.851832   -6912.6237   -6820.3971   -6912.6237            0    9257.3117    23.048898    21.039419    21.325046     10341.27    8849.8726    9558.2386    9363.8239   -15.302029   -417.97207  -0.27994927   -5424.2388 
 9239000    35.291466   -6918.1438   -6827.3586   -6918.1438            0      9212.87    22.960706    21.152237    21.292218    10340.998     9680.447    8786.1694    9171.9937    147.21269   -518.67981   -143.58224   -5437.9395 
 9240000    35.989767   -6918.6555    -6826.074   -6918.6555            0    8837.0035    22.907794    21.215795    21.310013    10356.817     9579.578    8171.5089    8759.9235   -112.32464    213.63144   -269.23656   -5491.3016 
 9241000    34.451476   -6916.6656   -6828.0413   -6916.6656            0    9021.3481    23.046619    21.048717    21.329916     10347.18    8858.0297     9773.801    8432.2135    183.58306   -281.43755    65.832937   -5466.6927 
 9242000    34.587507    -6918.005   -6829.0308    -6918.005            0    8802.9044    22.969019    21.197881    21.260395     10351.57    9074.8259    8525.9452    8807.9423   -164.32864   -423.88294   -372.22911   -5500.0824 
 9243000     34.76716    -6915.157   -6825.7206    -6915.157            0    8611.8976    22.955629    21.177773    21.306657    10358.212    8544.2035    8588.0188    8703.4704   -49.052773    134.96654   -63.203128   -5524.7738 
 9244000    35.255816   -6916.9016   -6826.2082   -6916.9016            0      9052.64    23.033559    21.024148    21.358523    10343.099    9487.3038     9062.903    8607.7132   -447.63365   -198.88343     162.4638   -5460.6764 
 9245000    36.865152   -6914.7244   -6819.8911   -6914.7244            0    8885.5577    22.924445    21.158454    21.317756    10340.088    9472.0384    8700.6925    8483.9421   -77.342751     46.92487    328.09441   -5479.9527 
 9246000    34.992679   -6919.2735    -6829.257   -6919.2735            0    9029.7403    22.968291     21.09895    21.341501    10342.237    9218.9463      9250.55    8619.7246   -403.25581    173.35964    -128.2382    -5467.293 
 9247000    34.515467   -6914.0486   -6825.2596   -6914.0486            0    8878.9541    23.101156    20.986813    21.331985    10342.166    8250.0347    9179.0395    9207.7883   -269.54933    370.78123     673.7107   -5486.0481 
 9248000    35.581101   -6914.9316   -6823.4014   -6914.9316            0    8994.2815    22.942633    21.167201    21.279662    10334.071    8934.5426    8880.6708     9167.631    307.52699    102.79094   -246.62432   -5467.8568 
 9249000    34.985897   -6919.6876   -6829.6885   -6919.6876            0    8664.4446    23.013717    21.072603    21.340732    10349.378    8688.0219     9103.289     8202.023    95.484701   -123.14589   -98.758816     -5521.92 
 9250000    36.894866   -6915.2293   -6820.3195   -6915.2293            0     8905.059      23.0005    21.065512     21.36992    10354.096    9362.0756    8637.1433    8715.9582    180.88491   -779.15918    211.01449   -5475.6212 
Loop time of 584.982 on 64 procs for 250000 steps with 1296 atoms

Performance: 73.848 ns/day, 0.325 hours/ns, 427.363 timesteps/s
195.7% CPU use with 32 MPI tasks x 2 OpenMP threads

MPI task timing breakdown:
Section |  min time  |  avg time  |  max time  |%varavg| %total
---------------------------------------------------------------
Pair    | 36.421     | 48.836     | 59.643     |  86.3 |  8.35
Bond    | 0.8391     | 1.0853     | 1.6021     |  16.6 |  0.19
Kspace  | 300.39     | 316.58     | 331.28     |  42.4 | 54.12
Neigh   | 0.15257    | 0.16594    | 0.18388    |   2.0 |  0.03
Comm    | 74.776     | 83.624     | 89.407     |  41.0 | 14.30
Output  | 0.62495    | 0.62527    | 0.62723    |   0.0 |  0.11
Modify  | 111.31     | 115.2      | 117        |  10.4 | 19.69
Other   |            | 18.86      |            |       |  3.22

Nlocal:        40.5000 ave          52 max          29 min
Histogram: 2 1 2 5 8 5 3 1 2 3
Nghost:        3201.88 ave        3240 max        3176 min
Histogram: 4 4 6 4 4 2 3 1 2 2
Neighs:        13496.9 ave       17372 max        9640 min
Histogram: 1 2 2 3 10 5 3 1 3 2

Total # of neighbors = 431900
Ave neighs/atom = 333.25617
Ave special neighs/atom = 2.0000000
Neighbor list builds = 280
Dangerous builds = 0

unfix		3
unfix		2
unfix		1

write_data	data.final.${pid}
write_data	data.final.0
System init for write_data ...
PPPM initialization ...
  extracting TIP4P info from pair style
  using 12-bit tables for long-range coulomb (../kspace.cpp:340)
  G vector (1/distance) = 0.37223529
  grid = 30 36 32
  stencil order = 5
  estimated absolute RMS force accuracy = 0.0035596035
  estimated relative force accuracy = 1.071964e-05
  using double precision FFTW3
  3d grid and FFT values/proc = 7344 1080
Last active /omp style is kspace_style pppm/tip4p/omp
WARNING: Not all mixed pair coeffs generated from mixing. Use write_data with 'pair ij' option to store all pair coeffs. (../write_data.cpp:312)

write_restart   restart.lmp.${pid}
write_restart   restart.lmp.0
System init for write_restart ...
PPPM initialization ...
  extracting TIP4P info from pair style
  using 12-bit tables for long-range coulomb (../kspace.cpp:340)
  G vector (1/distance) = 0.37223529
  grid = 30 36 32
  stencil order = 5
  estimated absolute RMS force accuracy = 0.0035596035
  estimated relative force accuracy = 1.071964e-05
  using double precision FFTW3
  3d grid and FFT values/proc = 7344 1080
Last active /omp style is kspace_style pppm/tip4p/omp
Total wall time: 0:09:45
