LAMMPS (30 Jul 2021)
  using 1 OpenMP thread(s) per MPI task
package omp 0
using multi-threaded neighbor list subroutines
echo both

include		in.partitions
variable        pid world 0
include		in.temp
variable        temperature equal 263.47
variable	tempDamp equal 100.0
include		in.pressure
variable        pressure equal 6375.0
variable        pressureDamp equal 1000.0 # This is 1 ps
include		in.seed
variable        seed world 745823

units		real
atom_style	full
read_restart	restart.lmp.${pid}
read_restart	restart.lmp.0
Reading restart file ...
  restart file = 30 Jul 2021, LAMMPS = 30 Jul 2021
  restoring atom style full from restart
  orthogonal box = (0.52518317 1.7101277 0.64072224) to (17.682389 21.919050 21.572474)
  4 by 4 by 4 MPI processor grid
  restoring pair style lj/cut/tip4p/long/omp from restart
  restoring bond style harmonic/omp from restart
  restoring angle style harmonic/omp from restart
  864 atoms
  576 bonds
  288 angles
Finding 1-2 1-3 1-4 neighbors ...
  special bond factors lj:    0        0        0       
  special bond factors coul:  0        0        0       
     2 = max # of 1-2 neighbors
     1 = max # of 1-3 neighbors
     1 = max # of 1-4 neighbors
     2 = max # of special neighbors
  special bonds CPU = 1.101 seconds
  read_restart CPU = 1.345 seconds
include 	in.setup
variable	out_freq equal 1000
variable	out_freq2 equal 10000
variable	out_freq3 equal 1000

timestep	2.0

neigh_modify    delay 7 every 1

include		in.tip4p
# This is TIP4P/Ice

# create groups ###
group ox type 2
288 atoms in group ox
group hy type 1
576 atoms in group hy

# set charges - beside manually ###
set group ox charge -1.1794
Setting atom values ...
  288 settings made for charge
set group hy charge 0.5897
Setting atom values ...
  576 settings made for charge

# ### TIP3P Potential Parameters ###
pair_style lj/cut/tip4p/long/omp 2 1 1 1 0.1577 8.5
pair_coeff 1 1*2 0.000 0.000
pair_coeff 2 2 0.21084 3.1668
bond_style  harmonic
bond_coeff  1 450 0.9572
angle_style harmonic
angle_coeff 1 55 104.52
kspace_style pppm/tip4p/omp 1.0e-5
pair_modify tail yes

thermo          ${out_freq}
thermo          1000
thermo_style    custom step temp pe etotal epair emol press lx ly lz vol pxx pyy pzz pxy pxz pyz enthalpy

restart 	${out_freq3} restart.lmp.${pid} restart2.lmp.${pid}
restart 	1000 restart.lmp.${pid} restart2.lmp.${pid}
restart 	1000 restart.lmp.0 restart2.lmp.${pid}
restart 	1000 restart.lmp.0 restart2.lmp.0


include         in.dump
dump            myDump all atom ${out_freq2} dump.water.${pid}
dump            myDump all atom 10000 dump.water.${pid}
dump            myDump all atom 10000 dump.water.0
dump            myDump2 all dcd ${out_freq2} dump.dcd
dump            myDump2 all dcd 10000 dump.dcd
dump_modify     myDump append yes
dump_modify     myDump2 append yes


variable natoms 	equal  "count(all)"                        # NUMBER ATOMS
variable H      	equal  "enthalpy/v_natoms"                 # ENTHALPY-per-atom
variable Vol      	equal  "vol/v_natoms"                 # volume-per-atom
fix AVG all 		ave/time ${out_freq} 1 ${out_freq} v_Vol v_H file vol_enthalpy.dat
fix AVG all 		ave/time 1000 1 ${out_freq} v_Vol v_H file vol_enthalpy.dat
fix AVG all 		ave/time 1000 1 1000 v_Vol v_H file vol_enthalpy.dat


timer           timeout 23:50:00 every 1000
New timer settings: style=normal  mode=nosync  timeout=23:50:00

fix 		1 all shake 1e-6 200 0 b 1 a 1
       0 = # of size 2 clusters
       0 = # of size 3 clusters
       0 = # of size 4 clusters
     288 = # of frozen angles
  find clusters CPU = 0.071 seconds
fix             2 all nph iso ${pressure} ${pressure} ${pressureDamp}
fix             2 all nph iso 6375 ${pressure} ${pressureDamp}
fix             2 all nph iso 6375 6375 ${pressureDamp}
fix             2 all nph iso 6375 6375 1000
fix             3 all temp/csvr ${temperature} ${temperature} ${tempDamp} ${seed}
fix             3 all temp/csvr 263.47 ${temperature} ${tempDamp} ${seed}
fix             3 all temp/csvr 263.47 263.47 ${tempDamp} ${seed}
fix             3 all temp/csvr 263.47 263.47 100 ${seed}
fix             3 all temp/csvr 263.47 263.47 100 745823

run             250000
PPPM initialization ...
  extracting TIP4P info from pair style
  using 12-bit tables for long-range coulomb (../kspace.cpp:340)
  G vector (1/distance) = 0.37337911
  grid = 24 24 24
  stencil order = 5
  estimated absolute RMS force accuracy = 0.003263168
  estimated relative force accuracy = 9.8269336e-06
  using double precision FFTW3
  3d grid and FFT values/proc = 2535 216
Last active /omp style is kspace_style pppm/tip4p/omp
Neighbor list info ...
  update every 1 steps, delay 7 steps, check yes
  max neighbors/atom: 2000, page size: 100000
  master list distance cutoff = 10.8154
  ghost atom cutoff = 10.8154
  binsize = 5.4077, bins = 4 4 4
  1 neighbor lists, perpetual/occasional/extra = 1 0 0
  (1) pair lj/cut/tip4p/long/omp, perpetual
      attributes: half, newton on, omp
      pair build: half/bin/newton/omp
      stencil: half/bin/3d
      bin: standard
Per MPI rank memory allocation (min/avg/max) = 9.235 | 9.237 | 9.240 Mbytes
Step Temp PotEng TotEng E_pair E_mol Press Lx Ly Lz Volume Pxx Pyy Pzz Pxy Pxz Pyz Enthalpy 
 9750000    273.06294   -3837.0133   -3368.9927   -3837.0133            0    5983.3286    17.157206    20.208922    20.931751    7257.6378    9235.9576    5647.2023    3066.8259   -460.67951    923.08166   -566.09435   -2735.6861 
 9751000     257.0623   -3866.4729   -3425.8769   -3866.4729            0    3979.5522    17.203748    20.263743    20.988533    7316.8616    2597.0422    4737.6497    4603.9648    446.10864   -1528.6085     857.9779   -3001.2231 
 9752000    261.24757   -3865.9922   -3418.2228   -3865.9922            0    7444.2155     17.16374    20.216619    20.939723    7265.9333    7801.3691    7865.3936    6665.8836    329.40677   -15.394608    137.68834   -2629.3877 
 9753000    260.86277   -3831.6378    -3384.528   -3831.6378            0    8573.2793      17.0465    20.078526     20.79669    7118.0539    9747.8351    8398.6377    7573.3653   -518.84774    124.33823    -125.4242     -2494.54 
 9754000    255.85123    -3881.703   -3443.1828    -3881.703            0    6464.9949    17.154195    20.205375    20.928077    7253.8168     6471.646    8018.9836     4904.355     733.5657   -816.33276   -1566.2959   -2759.2544 
 9755000    253.17408   -3823.8011   -3389.8694   -3823.8011            0    5412.1732     17.18444    20.241001    20.964977    7292.2537    4065.6323    4356.0283     7814.859    738.77692    85.492236    504.94273   -2814.2845 
 9756000    272.37484    -3852.253   -3385.4118    -3852.253            0    7475.1492    17.104278    20.146581     20.86718    7190.6783    6370.8713    7001.2116    9053.3648    -224.9502   -192.30973   -455.94999   -2601.5029 
 9757000    265.15198   -3843.4502   -3388.9887   -3843.4502            0    7111.9763    17.118652    20.163511    20.884716    7208.8219    7584.7457    6714.8641    7036.3193   -1368.1535     52.68169    422.04088   -2641.2834 
 9758000    266.48883    -3836.459   -3379.7062    -3836.459            0    6476.4197    17.165979    20.219256    20.942455    7268.7768    5167.3956    7662.2629    6599.6007   -375.66413    103.22131   -1137.7594   -2693.1562 
 9759000    275.07466   -3845.2707   -3373.8021   -3845.2707            0    5766.9158    17.203303    20.263218    20.987989    7316.2927    5880.1317    6713.0485    4707.5672   -57.828337    165.09798   -720.84983   -2758.4686 
 9760000     267.7394   -3834.1913   -3375.2951   -3834.1913            0    6166.3193    17.162789    20.215498    20.938562    7264.7249    5397.6636    6239.0404    6862.2539   -890.11716   -203.30024   -551.43577   -2721.9825 
 9761000    267.92501   -3836.0924   -3376.8781   -3836.0924            0    7270.5077    17.102812    20.144853    20.865391     7188.829    8332.5927    5645.9976    7832.9327   -314.01327   -536.39781    -652.9044   -2614.6258 
 9762000    265.70776   -3801.5671   -3346.1531   -3801.5671            0    5461.8542    17.221181    20.284277    21.009801    7339.1267    5029.0858    6927.3112    4429.1657   -1223.2782   -189.78722   -1978.9314    -2761.551 
 9763000    278.35341   -3834.5974   -3357.5092   -3834.5974            0    6182.8781    17.165961    20.219235    20.942433    7268.7542    3710.1292    7954.9748    6883.5304    671.14481    459.78777    298.28584   -2702.0789 
 9764000    259.41562   -3839.4261   -3394.7966   -3839.4261            0    7206.3708    17.088664    20.128189     20.84813    7171.0035    5272.4019     6810.194    9536.5165    274.28526   -597.32773   -332.48801   -2641.1419 
 9765000    266.97201    -3860.315   -3402.7341    -3860.315            0    6362.6539    17.171386    20.225625    20.949051    7275.6475    8429.2411    6268.3104    4390.4102     30.06063    1415.9731     745.2093   -2727.6065 
 9766000    266.27319   -3853.0086   -3396.6254   -3853.0086            0    5128.3393    17.115493     20.15979    20.880862    7204.8318    4948.3342     5082.554    5354.1298   -274.47762    252.42324   -1156.3459   -2857.7648 
 9767000    265.54085   -3859.7259    -3404.598   -3859.7259            0    5768.5183    17.216172    20.278376    21.003689    7332.7239    4792.8127    5672.8933    6839.8489   -1185.6769    794.38414    -167.0982   -2787.7112 
 9768000     259.4106   -3890.8658   -3446.2449   -3890.8658            0    6086.7694    17.182906    20.239194    20.963105    7290.3007     6363.731    6819.3913    5077.1857    89.372307    564.04729   -653.00284   -2799.0901 
 9769000    267.22954   -3871.0082    -3412.986   -3871.0082            0    8114.8882    17.130778    20.177794    20.899509    7224.1515    6343.7686    8450.9503    9549.9458    573.22588   -606.75607   -533.89005    -2558.027 
 9770000    269.14116   -3875.1338   -3413.8351   -3875.1338            0    5717.0213    17.091339     20.13134    20.851394    7174.3718    5011.1575    6220.2659    5919.6406   -2023.0532   -692.24077   -1602.8588   -2815.6583 
 9771000    256.46058   -3859.0548   -3419.4901   -3859.0548            0    6928.9649    17.130893    20.177929     20.89965    7224.2973    5958.7972    7014.1149    7813.9825   -512.85593   -923.53073   -104.95199   -2689.4615 
 9772000    284.26951   -3871.1155   -3383.8873   -3871.1155            0    5018.6388    17.229593    20.294185    21.020064    7349.8871    5226.2605    5388.4761    4441.1799   -1549.3403    215.68414    717.68837   -2845.9366 
 9773000    255.96212   -3861.8834   -3423.1731   -3861.8834            0    5888.8986    17.150398    20.200903    20.923445    7249.0016    6233.2575    4640.7123    6792.7259   -367.17982     365.7708    -632.0711   -2800.6031 
 9774000    287.58611   -3854.5153   -3361.6025   -3854.5153            0    5034.4898    17.142967     20.19215    20.914379    7239.5827    5850.2817    5227.8201    4025.3675   -294.66867     125.9428   -2100.6481   -2830.0516 
 9775000    255.56384   -3843.4866    -3405.459   -3843.4866            0    5205.9897    17.192696    20.250726     20.97505    7302.7693    5980.3577    4778.6001    4859.0115   -1195.2129   -1162.9279   -733.10352   -2851.0033 
 9776000    276.20709    -3858.394   -3384.9845    -3858.394            0    5392.9722    17.173025    20.227555     20.95105     7277.731    4235.8213    6202.1052      5740.99    744.92342   -1142.6166    979.85153   -2812.5839 
 9777000     268.2899    -3827.931   -3368.0912    -3827.931            0    9094.0642    17.115512    20.159812    20.880884    7204.8551    7131.6959    9341.9435    10808.553   -184.77147   -1173.4651   -807.77618   -2412.5286 
 9778000    267.55947   -3872.4574   -3413.8696   -3872.4574            0    6986.8695    17.107676    20.150583    20.871325    7194.9642    6503.1566    8386.1019    6071.3501    412.53612   -1394.9112   -1439.8737   -2680.7292 
 9779000    255.24263   -3850.0789   -3412.6017   -3850.0789            0    5480.9353    17.086163    20.125243    20.845079    7167.8549    3434.9773    5226.8581    7780.9706   -407.07073    1416.0738    -135.7204   -2839.6477 
 9780000    273.80256   -3823.4502    -3354.162   -3823.4502            0    5882.4202    17.117476    20.162126    20.883281    7207.3364    6039.2516     6385.399    5222.6101    -857.7672    1130.4247   -1513.6064   -2735.8513 
 9781000    264.49035   -3810.0214    -3356.694   -3810.0214            0    7346.2307    17.219503      20.2823    21.007753    7336.9811    6553.2662    7886.0761    7599.3497   -584.78761   -774.80679    444.70302   -2570.6301 
 9782000    260.16513    -3832.161   -3386.2469    -3832.161            0    6866.3691     17.12344    20.169151    20.890557    7214.8727    6213.6791    7096.8849    7288.5432    494.42586   -310.88385    939.20223   -2663.7571 
 9783000    271.39695   -3870.0568   -3404.8917   -3870.0568            0    6106.5284    17.153364    20.204397    20.927064    7252.7635    6027.8961    7879.1865    4412.5027   -729.19117   -781.27073    740.50316   -2758.9791 
 9784000    262.08985   -3895.1831   -3445.9701   -3895.1831            0    7319.2205    17.126398    20.172634    20.894165    7218.6115    9302.9137    5940.3463    6714.4015   -549.69597    224.61921    303.76475   -2675.4315 
 9785000    264.55059   -3906.8465   -3453.4159   -3906.8465            0    8573.9233    17.113099     20.15697    20.877941    7201.8085    9240.8991     6853.354    9627.5168    2236.0889    97.221683   -720.89707   -2552.8882 
 9786000    254.11422   -3881.4781    -3445.935   -3881.4781            0    8881.8725    17.117136    20.161725    20.882866    7206.9069    8194.8579    8717.2398      9733.52    1455.0372   -45.309112    227.17535   -2512.4027 
 9787000    268.28341   -3875.5946    -3415.766   -3875.5946            0    8521.5678    17.131008    20.178065     20.89979    7224.4427    7457.5692    7960.9857    10146.149   -318.99236    38.021922   -225.36823   -2517.9244 
 9788000    261.98874   -3877.2239   -3428.1842   -3877.2239            0     6970.608    17.153497    20.204553    20.927226    7252.9316    5834.6186    7639.2087    7437.9966    1657.2632    639.78515    31.421104   -2690.8572 
 9789000    258.87391   -3842.6418   -3398.9408   -3842.6418            0    5178.0383    17.221542    20.284702    21.010242    7339.5888      6783.82     3362.734     5387.561   -750.78719    380.47542    1378.3195   -2844.6816 
 9790000    264.72962   -3875.4246   -3421.6871   -3875.4246            0    6660.9025    17.163332    20.216138    20.939225    7265.4142    6661.9174    5824.7109    7496.0793    1013.4333    1211.5452    748.13583   -2715.9071 
 9791000    267.82296   -3860.7509   -3401.7115   -3860.7509            0    6427.6942    17.144588     20.19406    20.916357    7241.6369    5647.2965    9175.7944    4459.9917    87.178746   -569.07189   -222.92444   -2722.8708 
 9792000    267.25342   -3870.1029   -3412.0397   -3870.1029            0    8000.6304    17.074719    20.111763    20.831117    7153.4618    7771.8899    7659.9845    8570.0169   -365.27058    349.65191    1021.6007   -2577.3667 
 9793000    273.88107   -3859.4945   -3390.0717   -3859.4945            0    3931.7196    17.139735    20.188344    20.910437    7235.4896     5619.466    2295.7917     3879.901    1747.4269   -1173.4769   -501.89668   -2975.1881 
 9794000    262.72537   -3853.2682   -3402.9659   -3853.2682            0    6539.1227    17.173992    20.228694     20.95223    7278.9599     7459.144    5520.3291    6637.8949   -283.84852    -206.2834   -535.81926   -2708.7978 
 9795000    255.12538    -3892.096   -3454.8198    -3892.096            0    6360.0752    17.142991    20.192179    20.914409    7239.6139    6004.2905    4850.6821     8225.253    1054.0484    2275.1591    180.81452   -2783.3082 
 9796000    269.25971   -3842.9097   -3381.4078   -3842.9097            0    7204.9767    17.128229    20.174791    20.896399    7220.9271    7344.8947    7376.0118    6894.0235   -2306.4037    885.49917   -1433.6506    -2622.653 
 9797000    253.59975   -3832.3531   -3397.6918   -3832.3531            0    6617.1287    17.099027    20.140395    20.860773    7184.0571    5983.0152    5971.8585    7896.5123   -777.88628   -586.07018    273.78956   -2704.4013 
 9798000    282.74725   -3874.7886   -3390.1695   -3874.7886            0    7567.8776     17.07172    20.108232    20.827459     7149.694    6062.5141    9334.0529    7307.0658   -1063.6031    159.25911    -252.7876   -2601.0597 
 9799000    258.33873   -3830.5439   -3387.7601   -3830.5439            0     4820.964    17.174649    20.229468    20.953032     7279.796     5683.618    5147.8954    3631.3786   -939.57847    751.48661   -128.70769   -2875.9263 
 9800000      265.154   -3850.6335   -3396.1686   -3850.6335            0    6277.2283    17.086998    20.126226    20.846097    7168.9058    6502.2125    7589.1282    4740.3441    286.75825    -608.2293    788.00355   -2739.8772 
 9801000    252.89827   -3811.4817   -3378.0227   -3811.4817            0    5535.0222     17.22223    20.285512    21.011081     7340.468    4497.6768    6881.0468    5226.3431   -732.49845   -713.87501    940.33749   -2785.4809 
 9802000    262.88762     -3862.53   -3411.9496     -3862.53            0    6370.7273    17.152542    20.203428    20.926061    7251.7202     8195.936    5872.4203    5043.8257    2201.7114   -769.67359   -727.73024   -2738.1885 
 9803000    254.02408   -3839.4468   -3404.0583   -3839.4468            0    6502.7867    17.161839    20.214379    20.937404    7263.5188    6135.0303    6116.9024    7256.4274   -726.88114    311.24236   -795.95821   -2715.2117 
 9804000    287.42985   -3865.9117   -3373.2668   -3865.9117            0    5407.6703    17.140353    20.189071     20.91119    7236.2714    5608.7102    4951.9589    5662.3417    1414.2626   -837.16841    906.90233   -2802.5759 
 9805000    254.06787   -3836.5206   -3401.0569   -3836.5206            0    5813.5359    17.204917    20.265119    20.989958    7318.3521    6466.6261    6444.7871    4529.1945   -593.46222    240.89221   -458.99004   -2780.5744 
 9806000    265.82062   -3818.8252   -3363.2177   -3818.8252            0    6299.6871    17.148188      20.1983    20.920749    7246.1993    5399.6693    6251.2646    7248.1275   -1127.8257    347.05161   -1563.7264    -2697.477 
 9807000    279.56072   -3880.4929   -3401.3354   -3880.4929            0    6825.8901    17.188866    20.246213    20.970376    7297.8887    6600.7567     7480.643    6396.2706   -1495.3381    1742.9805    -144.3438   -2674.8408 
 9808000    265.59176   -3846.7242    -3391.509   -3846.7242            0    4490.9752    17.207916    20.268652    20.993617    7322.1802    4954.1806    4975.5043    3543.2405   -309.45856    -58.84624   -23.090085   -2911.9336 
 9809000    267.50934   -3842.7714   -3384.2695   -3842.7714            0    4750.9801      17.2308    20.295607    21.021536     7351.432    3997.6728    5389.0045     4866.263    1144.2925   -2828.7383    153.89105   -2874.9022 
 9810000    253.95654   -3864.7542   -3429.4813   -3864.7542            0    4708.4366    17.218719    20.281377    21.006797    7335.9798    4562.5925     5526.279    4036.4382    55.827402    76.204065    134.15114   -2925.7364 
 9811000    262.49204   -3835.6718   -3385.7695   -3835.6718            0     6761.384    17.226989    20.291118    21.016887    7346.5552    7930.9432    5798.7621    6554.4465     391.6765    550.96192    377.15587   -2661.3414 
 9812000    265.99629   -3824.6973   -3368.7887   -3824.6973            0    3549.8816    17.280961     20.35469    21.082732    7415.8218    3471.3429    3827.2186    3351.0833     1388.971    789.51097    592.25931   -2984.8614 
 9813000    270.95005   -3834.7212   -3370.3221   -3834.7212            0    5247.2607    17.208822    20.269719    20.994723     7323.337    5169.8173    5161.5943    5410.3704    -898.3863   -524.96307    2070.2089    -2809.897 
 9814000    264.36089    -3870.212   -3417.1065    -3870.212            0    5309.6055    17.208494    20.269333    20.994323    7322.9183    6997.7212    6247.0164    2684.0789    11.494505    179.45443   -308.46665   -2850.0553 
 9815000    257.05805   -3882.6675   -3442.0788   -3882.6675            0    6139.8629    17.060016    20.094446     20.81318    7134.9992    5654.0135    8110.4337    4655.1417    340.75367   -1194.3699   -681.11703   -2803.1853 
 9816000    279.30174   -3861.1398   -3382.4262   -3861.1398            0    7481.6412    17.096438    20.137346    20.857615    7180.7946    8973.8803    6728.1608    6742.8823     927.8417   -211.07593    468.59164   -2598.9149 
 9817000    251.92179   -3874.4545   -3442.6691   -3874.4545            0    4290.1376    17.212739    20.274333    20.999501    7328.3386    5248.9808    4599.2858    3022.1462   -741.76635    322.50657   -992.93319   -2984.1551 
 9818000    260.91398   -3852.0122   -3404.8145   -3852.0122            0    7650.4701    17.146603    20.196434    20.918816    7244.1912     8268.016    7201.9652    7481.4292    1701.4927    1410.0179   -1284.3884   -2596.5493 
 9819000    254.42172   -3893.1354   -3457.0653   -3893.1354            0    6729.8375    17.132303     20.17959     20.90137    7226.0812    5200.6526    7261.7576    7727.1023    1385.3368    529.47139   -717.85519   -2747.8415 
 9820000    257.43404    -3855.479   -3414.2458    -3855.479            0    6078.8991    17.203867    20.263883    20.988678    7317.0131    7351.4283    5236.4437    5648.8254   -677.65245   -1340.6467    -1550.354   -2765.5597 
 9821000    258.04657   -3877.8196   -3435.5366   -3877.8196            0    6250.5868    17.195935     20.25454       20.979    7306.8966    5302.6302    7239.0172    6210.1132   -740.70891    1420.9912   -374.69334   -2769.4516 
 9822000    293.77221   -3857.3463   -3353.8308   -3857.3463            0    6255.1964    17.131029     20.17809    20.899816    7224.4696    9273.1183    4170.5785    5321.8923    79.853292    476.83242   -371.22038    -2694.774 
 9823000    253.10929   -3872.5229   -3438.7022   -3872.5229            0    7588.7467    17.116549    20.161033    20.882149    7206.1646    6630.8211    7910.4098    8225.0093   -524.17884        812.4     449.4654   -2641.1665 
 9824000    258.55689   -3845.6426    -3402.485   -3845.6426            0    7175.6108     17.09856    20.139845    20.860203    7183.4688    9484.3098    5618.4436    6424.0788   -96.765503   -1270.0685   -462.90945   -2650.7427 
 9825000    254.18982   -3834.6223   -3398.9497   -3834.6223            0    7082.1477    17.163908    20.216817    20.939928    7266.1466    8273.4786    5669.7085    7303.2562    216.79758   -178.09317   -542.47674   -2648.4595 
 9826000    257.64371   -3851.4754   -3409.8829   -3851.4754            0    6086.7445    17.197744    20.256671    20.981208    7309.2035    6744.1171    4885.9069    6630.2094    338.09466   -776.27418    1305.6533   -2761.0528 
 9827000    268.54746   -3872.1723   -3411.8912   -3872.1723            0    5551.9239     17.12135    20.166689    20.888007    7212.2304    5465.9835    6413.6308    4776.1573   -548.91988    932.26409   -961.54079   -2827.9233 
 9828000     280.0472   -3831.7673    -3351.776   -3831.7673            0    5417.6022    17.164548    20.217571    20.940709    7266.9592    4629.3711    5872.2598    5751.1755    147.99317   -1860.3296   -1863.0726   -2777.6123 
 9829000    261.70336   -3852.9556    -3404.405   -3852.9556            0    6991.2011    17.069049    20.105086      20.8242    7146.3388    8406.4235    7294.4555    5272.7243   -160.83226   -37.310312   -1341.5134   -2675.7679 
 9830000    283.13661   -3850.4048   -3365.1184   -3850.4048            0    8055.8501    17.113271    20.157173     20.87815    7202.0256    9199.0201    7803.0242    7165.5061   -716.46496   -1303.0219    443.18489    -2518.979 
 9831000     251.7436   -3831.6022   -3400.1222   -3831.6022            0    5052.3485    17.243216    20.310231    21.036684    7367.3351    4959.9362    4463.2458    5733.8634   -22.269541   -444.30913   -40.253527   -2857.2725 
 9832000    256.28275   -3878.2034   -3438.9435   -3878.2034            0     6086.307    17.186584    20.243525    20.967592    7294.9824    4959.2947    6644.0625    6655.5637   -922.16995   -787.16917     1705.821   -2791.4223 
 9833000     269.5555    -3900.086   -3438.0771    -3900.086            0    6346.9823    17.111308     20.15486    20.875755    7199.5473    7520.6946    5630.9234     5889.329   -315.80488   -707.66088     22.94769   -2771.6565 
 9834000    277.46107   -3863.1357   -3387.5769   -3863.1357            0    6452.5979    17.135824    20.183737    20.905665    7230.5367    5034.5153    8323.0724     6000.206   -181.28909   -131.99668   -1165.4432   -2707.1507 
 9835000    264.06987   -3844.3403   -3391.7335   -3844.3403            0     6574.473    17.137574    20.185798      20.9078    7232.7528    6153.2874    5650.4591    7919.6724    383.11998    623.33313   -435.78639   -2698.2431 
 9836000    261.53542   -3862.2174   -3413.9546   -3862.2174            0     7097.134    17.211015    20.272302    20.997398    7326.1366    7838.2394     4065.895    9387.2675   -385.91431    -82.25812   -1450.4437   -2655.6671 
 9837000    269.60791   -3887.7567    -3425.658   -3887.7567            0    7439.2467    17.227928    20.292223    21.018032    7347.7557    8207.3324    7049.2902    7061.1175    100.27676   -402.56526   -2061.8074   -2628.4721 
 9838000    280.33911   -3853.4207   -3372.9291   -3853.4207            0    6882.8001    17.147905    20.197967    20.920404    7245.8411    6750.3868    8028.8201    5869.1935    463.36849    529.91036    849.70463   -2645.6018 
 9839000    254.24035   -3898.0909   -3462.3316   -3898.0909            0    7999.5933    17.170839    20.224981    20.948384    7274.9526    9285.0081    6370.2404    8343.5315    106.77555    597.78221   -1113.9186    -2613.593 
 9840000    264.05342   -3844.1126    -3391.534   -3844.1126            0     7012.516    17.142476    20.191572    20.913781    7238.9609    6896.3883    7817.3777    6323.7821   -888.28925    603.30595   -890.53096    -2651.203 
 9841000     264.7224   -3886.8729   -3433.1477   -3886.8729            0    4532.0964    17.139502     20.18807    20.910153    7235.1945    3799.1214    4883.7206    4913.4471   -471.29866   -569.79422   -1111.1705   -2954.9305 
 9842000     262.6156   -3841.8557   -3391.7416   -3841.8557            0     3796.955    17.193907    20.252151    20.976526    7304.3119    4979.8886    3364.9433    3046.0331   -909.02368   -387.23774   -615.51843   -2987.2675 
 9843000    271.28373   -3894.5367   -3429.5656   -3894.5367            0    7167.0525    17.134336    20.181985     20.90385    7228.6539    8376.2655    6216.7145    6908.1775   -268.70594     420.6615    58.384973    -2673.997 
 9844000    261.81593   -3884.2342   -3435.4906   -3884.2342            0    5777.7118    17.134781    20.182509    20.904393    7229.2176    6106.7537    6350.1266    4876.2552   -140.48315   -1616.0444    1167.6597   -2826.3423 
 9845000    265.38116   -3923.4205   -3468.5663   -3923.4205            0    6461.2425    17.099811    20.141319     20.86173    7185.0459    7399.7528    6515.8951    5468.0796   -946.29527     -519.314    -75.48959   -2791.5152 
 9846000    268.28687   -3866.3217   -3406.4871   -3866.3217            0    7608.4237      17.0736    20.110445    20.829752    7152.0556    6731.7939    7856.1285    8237.3489   -1054.6284    234.42677   -1157.7487   -2612.8875 
 9847000    264.95133   -3886.0539   -3431.9364   -3886.0539            0    6253.7042    17.142771     20.19192    20.914141    7239.3348    6939.1135    4314.6805    7507.3187   -59.427614    929.24389   -384.71107   -2771.6811 
 9848000    263.02867   -3905.6312    -3454.809   -3905.6312            0    5993.5975    17.112869      20.1567    20.877661    7201.5188    6917.9925     6489.857     4572.943    551.08914   -1223.2482   -528.63181   -2825.3209 
 9849000    266.62168   -3886.9481   -3429.9677   -3886.9481            0    5809.9918    17.076502    20.113864    20.833293     7155.704    6289.8081    6586.8427    4553.3246   -153.69684   -570.31458    614.47498   -2823.6451 
 9850000    270.58438   -3908.3341   -3444.5618   -3908.3341            0    6243.4688    17.095181    20.135865    20.856081    7179.2104    6752.8424    5749.8525    6227.7113    573.41069    1585.0728    646.44744   -2790.8617 
 9851000    252.16857   -3894.4805   -3462.2722   -3894.4805            0    6821.1736    17.069525    20.105646    20.824781    7146.9365    6702.6371    7077.9351    6682.9485    210.74499   -577.54188   -1772.3419   -2751.2963 
 9852000    273.41146   -3884.7196   -3416.1017   -3884.7196            0    5561.7482    17.187743    20.244891    20.969007    7296.4596    5172.9881    4833.3127    6678.9438    479.54686    817.36257    298.23709   -2824.2684 
 9853000    269.06795   -3890.4673   -3429.2941   -3890.4673            0    6775.4552    17.082579    20.121022    20.840707    7163.3461     10020.21    5850.2789    4455.8763     80.07407   -715.42679    249.49884   -2721.4619 
 9854000    272.51673   -3901.9244     -3434.84   -3901.9244            0    7914.9349    17.064866    20.100158    20.819096    7141.0851    7807.8078    8245.4826    7691.5143   -349.72213    533.08329    713.11783   -2610.5359 
 9855000     263.8589   -3862.9916   -3410.7465   -3862.9916            0    4871.9041    17.182834    20.239109    20.963018    7290.2093     5665.729    4044.7598    4905.2236    633.83134    705.54724    100.47283   -2892.7645 
 9856000     259.7134   -3913.7677   -3468.6278   -3913.7677            0    6842.5876    17.081956    20.120288    20.839947    7162.5621    6433.3192    6422.6927     7671.751   -1069.2931    733.01819   -853.22997   -2753.8605 
 9857000     261.0856   -3876.2816   -3428.7898   -3876.2816            0    5918.6784    17.115952    20.160331    20.881421    7205.4111    6575.7049    5254.3134    5926.0169    823.99967    395.48428    259.13644   -2806.8342 
 9858000    260.67965   -3840.9322   -3394.1362   -3840.9322            0    6192.4057    17.204192    20.264265    20.989074    7317.4273    7955.9746    4824.4008    5796.8417   -903.03923    769.45349    1165.1988   -2733.3001 
 9859000    257.44116   -3821.6906   -3380.4453   -3821.6906            0     7141.748    17.179502    20.235184    20.958952    7285.9683    7808.3326    6151.9013      7465.01    1072.4302    562.87394   -1174.8009   -2621.5747 
 9860000    258.95468   -3829.1747   -3385.3353   -3829.1747            0    6174.7877    17.164672    20.217716     20.94086    7267.1163    4724.2548    6692.8364    7107.2721   -425.17988   -782.63644    -1294.632   -2730.9101 
 9861000    276.08298   -3856.3662   -3383.1694   -3856.3662            0    5986.6199    17.126124    20.172312    20.893831     7218.265     5153.817    6004.6997     6801.343   -733.42711    -423.8747     2145.464    -2752.952 
 9862000    271.60251   -3849.2346   -3383.7172   -3849.2346            0    5347.9174    17.167649    20.221223    20.944492    7270.8986    5565.7151    5643.7286    4834.3086     2308.513    370.06039   -168.95166   -2816.6315 
 9863000    255.11244   -3851.4983   -3414.2443   -3851.4983            0    5906.3529     17.14901    20.199269    20.921752    7247.2418    6413.8503     4826.922    6478.2865   -760.42591    265.39717   -777.12349   -2789.9807 
 9864000    270.08751   -3822.4634   -3359.5426   -3822.4634            0    6236.3391    17.171712    20.226009    20.949449    7276.0623    4390.8887    6056.6331    8261.4956   -1059.4344   -304.56381   -385.55773   -2697.7803 
 9865000    274.25407   -3844.3977   -3374.3356   -3844.3977            0      7372.05    17.106505    20.149204    20.869897    7193.4875    7815.8486     7616.253    6684.0484    213.56342    934.90037   -109.38135   -2600.9365 
 9866000    258.13961   -3873.7026   -3431.2602   -3873.7026            0    7250.5972    17.143787    20.193116     20.91538    7240.6216     6034.138    6130.7032    9586.9503   -107.99403   -474.31758    381.05073   -2665.6186 
 9867000    258.85634   -3874.9602   -3431.2893   -3874.9602            0    6863.6262    17.090369    20.130198    20.850211    7173.1506    5758.1226    8026.1569    6806.5991   -1672.7296   -515.78299    191.48808   -2713.2645 
 9868000    256.56744   -3876.7081   -3436.9603   -3876.7081            0    7456.4576    17.068311    20.104216      20.8233    7145.4113     7503.785    7818.3142    7047.2736   -1902.0384    209.90949    2102.7391   -2659.9341 
 9869000    253.68194   -3838.4458   -3403.6437   -3838.4458            0    6239.3752     17.14731    20.197266    20.919678    7245.0865    6575.6424    4986.2082    7156.2752   -1296.3427   -196.38537    353.41121   -2744.3778 
 9870000     248.3676   -3835.9802   -3410.2866   -3835.9802            0    6259.1185    17.108378     20.15141    20.872182    7195.8503    6203.0249    8703.8557    3870.4748    1143.2404    1250.4844    303.43369   -2753.4291 
 9871000    272.20584   -3858.0131   -3391.4616   -3858.0131            0    6825.5186    17.110215    20.153573    20.874422    7198.1678    6029.3789     6755.567    7691.6098   -501.10275    275.32234   -502.71146   -2674.9331 
 9872000    279.80542   -3850.4616   -3370.8847   -3850.4616            0    6462.3436    17.136877    20.184977     20.90695    7231.8702    5613.0599    7173.8457    6600.1254    1934.8742    1639.4329    1141.1483   -2689.3051 
 9873000    247.40605   -3861.2923   -3437.2468   -3861.2923            0    6425.9006    17.082158    20.120526    20.840193    7162.8164    6900.4619    5741.9397    6635.3001    -439.4855   -1297.6463    1022.8849   -2765.9823 
 9874000    272.97175    -3886.384   -3418.5198    -3886.384            0    5893.9366    17.197071    20.255878    20.980387    7308.3452    5585.2414    5908.5174    6188.0511    198.04283    806.47217    1364.3496   -2790.3162 
 9875000    267.35538   -3862.0625   -3403.8245   -3862.0625            0     6982.777    17.116017    20.160407      20.8815    7205.4928    7612.7899    6452.9845    6882.5567    596.02646    725.66837   -1156.0254   -2670.0413 
 9876000    267.06038   -3899.1909   -3441.4586   -3899.1909            0    6946.6983      17.1451    20.194664    20.916982    7242.2862    7033.5207    7147.8205    6658.7536    639.50709    625.56633    288.66565   -2707.7391 
 9877000    268.24681   -3883.0153   -3423.2495   -3883.0153            0    7611.8673    17.136822    20.184913    20.906883    7231.8008    5958.9668    8770.0194    8106.6159    779.57195   -961.54071    470.45145    -2620.438 
 9878000    268.42526   -3882.3412   -3422.2694   -3882.3412            0    9857.2269    17.107706    20.150618    20.871361    7195.0019    8813.4761    10756.773    10001.432    1549.8705    796.59728   -364.76389   -2387.9336 
 9879000    258.04072   -3848.3046   -3406.0316   -3848.3046            0    4462.0084    17.222246    20.285531      21.0111    7340.4888    3265.2258    5282.2647    4838.5347     185.7437   -1132.5431   -2011.0485    -2928.358 
 9880000    264.58067   -3912.3412   -3458.8589   -3912.3412            0    5163.5827    17.201812    20.261462     20.98617     7314.391    5477.0685    5647.2263    4366.4532   -22.949034    1167.7184    1132.9065   -2908.0447 
 9881000    261.23945   -3891.5421   -3443.7867   -3891.5421            0     7861.115    17.155127    20.206473    20.929214    7254.9993    7912.9023    6528.0832    9142.3594    72.025966     411.6408    1665.2993   -2612.0278 
 9882000    268.37598   -3840.6979   -3380.7107   -3840.6979            0    7291.7039    17.179444    20.235115    20.958881    7285.8943    8090.9235    6021.6115    7762.5767    1133.3427    574.20362    581.52149    -2605.914 
 9883000    255.86623   -3870.5958   -3432.0499   -3870.5958            0    6429.1685    17.204884     20.26508    20.989918      7318.31    5060.3784    6263.9555    7963.1715    345.91288    327.72321    352.71091   -2745.8645 
 9884000    256.25168   -3873.5322   -3434.3256   -3873.5322            0     6259.606    17.188213    20.245444    20.969579    7297.0569    5480.7859    7830.8471     5467.185   -1744.9171   -1863.8091    93.064481   -2768.1777 
 9885000    249.28916   -3884.9124   -3457.6393   -3884.9124            0    7866.1101     17.12981    20.176654    20.898329    7222.9276    5481.2636    8772.4343    9344.6323    1819.6967    406.84169   -1543.5893   -2629.0312 
 9886000    264.50099   -3862.6113   -3409.2657   -3862.6113            0    6465.7315    17.225626    20.289512    21.015224    7344.8112    5415.3226    7033.0714    6948.8005    1044.7326   -1219.3614     397.7011   -2716.6789 
 9887000     259.3203   -3883.3906   -3438.9245   -3883.3906            0    5736.7597    17.210742    20.271981    20.997065    7325.7883    7460.2667     5089.534    4660.4783      1094.38   -1266.4385   -452.56294   -2826.0142 
 9888000    264.02902   -3871.7247    -3419.188   -3871.7247            0     6076.489    17.151256    20.201914    20.924492    7250.0898    4499.0631    7994.8748    5735.5289    259.41583    428.60559    267.74965   -2776.6897 
 9889000    243.72652   -3895.5949    -3477.856   -3895.5949            0    6734.5971    17.175365    20.230311    20.953905    7280.7063    6759.2463    6588.5319     6856.013    970.37335    1081.5786   -154.43207   -2762.7655 
 9890000    261.67834   -3886.1657    -3437.658   -3886.1657            0    5867.2446     17.25229    20.320918    21.047753     7378.971    5384.3811    7182.6884    5034.6642   -1120.0477   -1297.7524    1151.0696   -2806.2561 
 9891000    254.15775   -3888.2929   -3452.6753   -3888.2929            0    6171.6043    17.173184    20.227742    20.951244    7277.9325    5559.3282    8540.6074    4414.8772    98.304827   -74.138605   -363.70773   -2797.6139 
 9892000    262.69571   -3907.9044   -3457.6529   -3907.9044            0    6328.4605    17.163806    20.216697    20.939804     7266.017    6538.8678    5313.8275    7132.6862   -1066.5198     1602.008     1143.673   -2787.0424 
 9893000    252.27742   -3871.3419   -3438.9471   -3871.3419            0     6643.328    17.133491    20.180989    20.902819    7227.5842     7534.382    5663.0486    6732.5536    1066.9992    -1284.085    1010.4618   -2738.6945 
 9894000    261.21806    -3866.765   -3419.0462    -3866.765            0    8448.3232    17.088181     20.12762    20.847541     7170.395    9022.4959    7928.1364    8394.3374    961.71023    660.04814   -115.01144   -2535.5809 
 9895000    268.35331   -3846.0985   -3386.1501   -3846.0985            0    7311.7487    17.144594    20.194067    20.916365    7241.6448    7369.4123    7968.1608     6597.673   -1085.6901   -325.58644    867.14282    -2613.942 
 9896000    251.39299   -3880.1489   -3449.2699   -3880.1489            0    4851.7467    17.154047    20.205202    20.927898    7253.6301    3986.3217    5662.5514    4906.3671    524.79411   -175.27512    -1253.734   -2936.0193 
 9897000    248.12865   -3893.7973   -3468.5133   -3893.7973            0    5962.2878    17.113224    20.157118    20.878094    7201.9668    7182.3472    5482.1071     5222.409    306.95144    88.581976    355.23376   -2842.2745 
 9898000     251.6865   -3866.1049   -3434.7229   -3866.1049            0    8193.4347    17.074122     20.11106    20.830389    7152.7118    7957.6224    8776.3295    7846.3522    1840.3814    27.647897    1758.8009    -2580.025 
 9899000    273.95758   -3851.1113   -3381.5574   -3851.1113            0    4704.8962    17.124949    20.170928    20.892398    7216.7803    5904.4882    3427.5331    4782.6673   -824.23608   -1390.9229   -495.25334   -2886.3701 
 9900000    256.47986   -3833.3593   -3393.7616   -3833.3593            0    8107.4337    16.995591    20.018561    20.734581    7054.4703    8632.7246    7360.8752    8328.7014    1179.7886    78.724859   -833.13413   -2559.6509 
 9901000    256.04771   -3827.7506   -3388.8936   -3827.7506            0    5909.7597    17.119322      20.1643    20.885532    7209.6676     4933.444    4919.5008    7876.3344    714.48678    69.950855    667.69234   -2767.5083 
 9902000     244.1534   -3834.1387   -3415.6681   -3834.1387            0    6811.5163    17.205696    20.266037    20.990909    7319.3469    7263.7056    6610.2507    6560.5925    141.72689   -278.98757    228.57131   -2688.5716 
 9903000    267.42031   -3830.1925   -3371.8433   -3830.1925            0    5423.1887    17.169145    20.222985    20.946317    7272.7992    4546.5961    6005.9552    5717.0148   -7.6602841     490.6894    877.58127   -2796.6256 
 9904000    256.29621   -3855.8414   -3416.5584   -3855.8414            0    6418.7255    17.170285    20.224328    20.947708     7274.248    5861.5745    6732.9807    6661.6212    747.21436    230.38634    570.24851   -2735.6123 
 9905000    261.65213    -3848.229   -3399.7662    -3848.229            0    6637.5713    17.154303    20.205503     20.92821    7253.9545     7187.273    6798.9051    5926.5356     341.1144   -566.81079   -536.41049   -2697.5676 
 9906000     239.6958   -3866.3971   -3455.5667   -3866.3971            0    6474.2026    17.190897    20.248606    20.972854    7300.4768    6151.1924     5788.308    7483.1074     549.7046   -145.92688   -134.28189   -2766.2586 
 9907000    260.83531   -3864.5155   -3417.4527   -3864.5155            0    5249.2397    17.183722    20.240154      20.9641    7291.3388    5481.3368    5077.5259    5188.8562   -1696.8382   -23.919198    1232.7513   -2859.2659 
 9908000    263.12776   -3857.2734   -3406.2814   -3857.2734            0    6945.9931    17.223388    20.286876    21.012493    7341.9483    8367.8665    7822.1752    4647.9376   -598.66945    775.33794   -852.83907   -2662.5407 
 9909000    256.61666   -3861.6197   -3421.7876   -3861.6197            0    5370.0167     17.25687    20.326313     21.05334    7384.8493    6419.2855    4697.6256     4993.139    949.34655    850.79811    643.62125   -2843.4344 
 9910000    268.93999   -3846.4651   -3385.5112   -3846.4651            0    5345.6355     17.26155    20.331826    21.059051    7390.8599    5728.0463    5642.5453    4666.3149    98.524921   -1630.0587    856.60419   -2809.3152 
 9911000    259.67711    -3894.799   -3449.7214    -3894.799            0    6652.9402    17.092398    20.132587    20.852685    7175.7046    6155.5644    7498.3431     6304.913    34.428504   -68.375893   -409.61312   -2753.4892 
 9912000    257.78164   -3858.0084   -3416.1795   -3858.0084            0    5801.0549    17.142993    20.192181    20.914412    7239.6161    4909.6486    4371.5812    8121.9348    66.667619    909.59456     1191.003   -2803.6903 
 9913000    271.95122   -3854.3137   -3388.1986   -3854.3137            0    6527.9742    17.132756    20.180124    20.901922    7226.6544     6497.138    4680.4333    8406.3513    -706.1984   -1537.2436    551.00786   -2700.1936 
 9914000    249.34172    -3843.261   -3415.8978    -3843.261            0    5340.5947    17.203158    20.263048    20.987813    7316.1084    6075.4037    5097.1465    4849.2338    228.89853    1425.3772   -526.96695   -2846.0674 
 9915000    258.65096   -3860.7456   -3417.4267   -3860.7456            0    6426.4262    17.183662    20.240084    20.964027    7291.2627    4715.7704    7680.0891    6883.4193    -645.4315    33.161779    1752.0427   -2734.0689 
 9916000    275.13866   -3872.3528   -3400.7745   -3872.3528            0    8785.5662     17.15173    20.202473    20.925071    7250.6913    6520.5838    10248.813    9587.3014    104.92832    621.31161    929.38028   -2471.7545 
 9917000    258.91129   -3898.7298   -3454.9647   -3898.7298            0    4764.8068    17.119613    20.164643    20.885888    7210.0363    4483.8316    5156.6612    4653.9275   -405.60881   -642.76894    1140.9698   -2953.9406 
 9918000     279.3452    -3843.289   -3364.5008    -3843.289            0    6665.2638    17.183473    20.239862    20.963797    7291.0225    6225.5502    6813.9886    6956.2525   -193.61199    207.43611      156.081   -2655.7694 
 9919000    259.56103    -3814.802   -3369.9233    -3814.802            0     8167.775    17.131078    20.178147    20.899875    7224.5306    8669.9164    8944.5393    6888.8692   -929.33573    379.15681    696.15736   -2509.3472 
 9920000    256.44888   -3840.0703   -3400.5257   -3840.0703            0    7242.6714    17.095184    20.135868    20.856084    7179.2139    5512.3522    7832.8869     8382.775   -184.49632   -687.82698   -342.31357   -2642.2074 
 9921000    255.89789   -3847.4827   -3408.8825   -3847.4827            0    6559.3371    17.145396    20.195012    20.917343    7242.6611     5503.568    6110.0738    8064.3696    1508.9098   -401.83773    800.95755   -2716.0408 
 9922000    262.95849   -3852.7782   -3402.0763   -3852.7782            0    6160.0747    17.114096    20.158145    20.879158    7203.0678     5611.946    5581.4553    7286.8228    346.39538    928.10758   -115.45559   -2754.9645 
 9923000     275.8334   -3909.2445   -3436.4755   -3909.2445            0    7801.8041    17.148902    20.199141     20.92162    7247.1046    7136.9797    9130.6839    7137.7489   -931.90592    718.40096   -169.20719   -2611.8904 
 9924000    260.82297   -3876.6011   -3429.5595   -3876.6011            0     5951.884    17.231672    20.296634      21.0226    7352.5478    5659.4575    7256.8296    4939.3648    5.2248214    -583.8986   -88.516881   -2791.3427 
 9925000     278.9936   -3871.1812   -3392.9957   -3871.1812            0     5990.709    17.194319    20.252637    20.977029    7304.8372    5608.5898      6062.04    6301.4971    524.95811     585.7059   -676.06171   -2754.7842 
 9926000    262.67712   -3873.5677   -3423.3481   -3873.5677            0    6616.1786     17.13838    20.186748    20.908784    7233.7737    7610.0651    6000.5165    6237.9541    220.93169   -662.75407   -619.96863     -2725.36 
 9927000    263.84124   -3830.4112   -3378.1963   -3830.4112            0      6027.91    17.177055    20.232302    20.955967     7282.856    5807.1844    5271.7124    7004.8331    -617.7355    492.65967    960.08895    -2737.954 
 9928000    266.33442   -3826.1666   -3369.6786   -3826.1666            0    7610.5161    17.143995    20.193362    20.915634    7240.8862    5478.3079    9415.3867    7937.8537   -23.983967    291.39584    698.50496   -2566.0012 
 9929000    251.19177   -3846.6431    -3416.109   -3846.6431            0    4047.9004    17.212937    20.274566    20.999742    7328.5912    5544.2997    1952.1848    4647.2167    920.32615   -1641.4078    653.15962   -2983.4695 
 9930000    259.67357   -3860.9217   -3415.8501   -3860.9217            0    7353.6927    17.177392    20.232699    20.956378    7283.2842    7275.9319    8201.4572    6583.6891   -148.38679    -463.4143   -971.11288   -2634.7465 
 9931000    266.30412    -3871.138   -3414.7019    -3871.138            0    4418.0279    17.178298    20.233766    20.957484    7284.4371    4763.4272    3871.6339    4619.0225    418.87127    4.8698233    52.200369   -2945.3481 
 9932000     271.9804   -3877.7003   -3411.5352   -3877.7003            0    6496.7015    17.159142    20.211203    20.934113    7260.0949    4685.8107    7980.6029    6823.6908   -812.88387   -1659.7037   -1302.8881   -2723.6577 
 9933000    263.43451   -3896.9826   -3445.4649   -3896.9826            0    5365.8441     17.07098    20.107359    20.826555    7148.7632    5299.1969    6736.5605    4061.7748   -281.25754     1323.492   -257.20251   -2886.0361 
 9934000    269.06371   -3913.5763   -3452.4103   -3913.5763            0    6642.1961    17.092648    20.132881     20.85299    7176.0194    6426.4032     5678.862    7821.3232    126.42591    721.02951   -514.85506   -2757.2721 
 9935000    266.54078   -3858.4221   -3401.5803   -3858.4221            0    7441.4854    17.145812    20.195502    20.917851    7243.1883    7515.4566    5979.4316    8829.5681   -1376.7308   -735.20136    636.65893   -2615.5029 
 9936000    267.44292    -3871.974    -3413.586    -3871.974            0    6269.7005    17.130965    20.178014    20.899737    7224.3877     7905.527    5034.7181    5868.8565     278.1324   -648.08117    4.2685027   -2753.0086 
 9937000    263.85431   -3899.4989   -3447.2617   -3899.4989            0    5026.5072    17.182339    20.238526    20.962413    7289.5787    5258.3281    4371.2162    5449.9772   -901.41482   -300.87471    240.47788   -2912.8885 
 9938000    267.04712   -3849.2644   -3391.5548   -3849.2644            0    7545.6712    17.130904    20.177942    20.899663    7224.3106    6651.4639    6598.3356     9387.214    250.24381   -1225.8571   -1220.6395   -2596.5492 
 9939000    255.70068   -3870.1572    -3431.895   -3870.1572            0    8018.9216    17.144811    20.194323    20.916629    7241.9194    7800.8668    8910.1094    7345.7884    2068.6997   -91.622297    581.80726   -2584.9689 
 9940000    266.55369   -3830.6289    -3373.765   -3830.6289            0    5546.4022    17.194246     20.25255     20.97694    7304.7437    7126.4655    3543.7424    5968.9988    1559.2649    51.657848    1302.9419   -2782.8946 
 9941000     264.3468   -3851.0105   -3397.9291   -3851.0105            0    6552.5295    17.175334    20.230275    20.953867    7280.6669    6667.0287      4354.64    8635.9198   -262.87366    1174.7632   -417.90092   -2702.1746 
 9942000    275.89977    -3864.131   -3391.2482    -3864.131            0    5802.5821    17.203083     20.26296    20.987721    7316.0127    5584.6028    5842.3226    5980.8208    398.12665   -204.87912    581.90885   -2772.1328 
 9943000    263.58787   -3839.2601   -3387.4795   -3839.2601            0    6303.9022    17.216036    20.278216    21.003524    7332.5507    7030.6935    6459.3486    5421.6644   -204.33008    785.14444   -2036.4744   -2713.3545 
 9944000    276.53497   -3866.4014   -3392.4299   -3866.4014            0    6869.0498     17.15573    20.207184     20.92995    7255.7648    8561.6924    8280.9898    3764.4672    142.02867     2716.198    1370.9672   -2665.5616 
 9945000    269.16239     -3886.33   -3424.9949     -3886.33            0    8653.4173    17.130053     20.17694    20.898625    7223.2344     7886.653    10139.049    7934.5497   -1368.0127    429.55171   -439.40041   -2513.4139 
 9946000    263.41468   -3874.3854   -3422.9017   -3874.3854            0    4014.2808    17.211888     20.27333    20.998463    7327.2513    4295.5835    3851.1387    3896.1203   -684.66929    547.92404   -394.11789   -2993.9339 
 9947000    273.27744   -3872.9217   -3404.5335   -3872.9217            0    5910.8452    17.100134    20.141699    20.862123    7185.4524    4046.0542    6131.9973     7554.484    1495.0088   -1094.6594   -170.41306   -2785.1216 
 9948000    263.77909   -3850.0188   -3397.9105   -3850.0188            0    7788.8318    17.144611    20.194087    20.916386    7241.6663    7993.6547    7410.4868     7962.354     2069.605   -208.94783     1270.881   -2575.3143 
 9949000    270.40613   -3865.7498   -3402.2829   -3865.7498            0    6924.7591    17.165832    20.219083    20.942275    7268.5897    7792.7101    5097.4868    7884.0804   -561.21011    1042.3928    -116.7062   -2668.2244 
 9950000    256.03305   -3846.4178   -3407.5859   -3846.4178            0    4410.6414    17.198183    20.257187    20.981743    7309.7623    5068.7717    4168.4914     3994.661   -52.351804   -570.25126   -1118.3044   -2937.3878 
 9951000      255.334   -3855.5749   -3417.9412   -3855.5749            0     5630.857    17.182662    20.238906    20.962807    7289.9896    7949.4457    3008.3034    5934.8221    1433.8553    696.14993   -595.91925   -2819.2852 
 9952000     255.8265   -3841.7458   -3403.2679   -3841.7458            0    6579.9579    17.229738    20.294355     21.02024     7350.072    6308.9005    6963.0988    6467.8746    349.79513    1284.8111     -1269.35   -2697.9408 
 9953000    250.70765   -3863.5781   -3433.8738   -3863.5781            0    5044.7391    17.142344    20.191417     20.91362     7238.794    5523.7779     4136.359    5474.0805   -378.49988    1251.3199    958.72222   -2901.2987 
 9954000     262.7008   -3891.0013   -3440.7412   -3891.0013            0    6346.5844    17.175207    20.230125    20.953712    7280.5054    6751.9713    7710.2399    4577.5419    1825.8588    1374.4747    263.69007   -2766.8691 
 9955000    253.27989   -3857.4002   -3423.2872   -3857.4002            0    8512.4247    17.061871     20.09663    20.815442     7137.326    7264.9047    10329.788     7942.581    1459.9175    376.63521   -55.619047    -2537.224 
 9956000    262.04153   -3868.2759   -3419.1457   -3868.2759            0    4113.9811     17.18528     20.24199    20.966001    7293.3225    4968.7805    4138.6068     3234.556    234.54477    421.03631    2117.1971   -2981.5595 
 9957000    260.68288   -3865.8622   -3419.0607   -3865.8622            0    5170.7379    17.110105    20.153443    20.874288    7198.0288    4900.1453    5501.0178    5111.0506   -75.219012    216.21169    625.92993    -2876.258 
 9958000    265.80132   -3848.9813    -3393.407   -3848.9813            0    6327.2347    17.143066    20.192267      20.9145    7239.7083    5677.4907    6961.9278    6342.2856   -984.79611    422.66871   -867.48813    -2725.354 
 9959000    266.54899   -3905.8732   -3449.0173   -3905.8732            0    3986.9751    17.204402    20.264513     20.98933    7317.6953    2794.9811    3878.5462    5287.3981     1547.441   -278.45809   -1011.2199    -3023.523 
 9960000    262.34324   -3839.8879   -3390.2406   -3839.8879            0    7987.8581    17.127393    20.173807    20.895379      7219.87     6963.078    8752.5955    8247.9007   -144.98001     547.4917     2100.506   -2549.1639 
 9961000    257.44052   -3868.7771   -3427.5329   -3868.7771            0    5458.9409     17.21866    20.281307    21.006725    7335.9044    5221.2972    5614.6655    5540.8601    263.31396   -723.08387    1614.7547   -2843.4992 
 9962000    269.05976    -3879.209   -3418.0498    -3879.209            0     7763.673    17.091741    20.131814    20.851885    7174.8781    8184.1047    8240.0594    6866.8549   -1038.5252   -252.04181    936.61109   -2605.6727 
 9963000     264.7822   -3853.0477   -3399.2201   -3853.0477            0    8301.9667    17.130127    20.177027    20.898716    7223.3286    7378.2194    7328.8243    10198.856   -311.26862    494.84618   -390.19977   -2524.6507 
 9964000    255.98089    -3868.563   -3429.8206    -3868.563            0     5154.935    17.167963    20.221593    20.944875    7271.2975    5531.4999     4036.923    5896.3821   -347.01678     906.4442    730.21028   -2883.1685 
 9965000    248.92974   -3926.8922   -3500.2351   -3926.8922            0    6304.0225    17.097761    20.138904    20.859229    7182.4617    7259.4276    5670.9917    5981.6482   -466.33697   -1150.8704    478.73959   -2839.8961 
 9966000    258.28564   -3893.2821   -3450.5893   -3893.2821            0    7959.0925    17.086753    20.125938    20.845798    7168.5972    6945.0099    8142.9784    8789.2891   -640.98281   -1891.4445   -884.34777    -2618.493 
 9967000    261.96677   -3916.2255   -3467.2235   -3916.2255            0    5175.5279    17.158229    20.210127    20.932999    7258.9358    4148.6233    5836.0955     5541.865    212.47276   -893.90247    840.05081   -2919.3207 
 9968000     268.4118   -3876.3453   -3416.2967   -3876.3453            0    6998.5093    17.104966    20.147391    20.868019     7191.546    6837.7408    7186.0802    6971.7069     794.7461   -191.89422   -805.01527   -2682.2838 
 9969000    275.52276   -3867.2097   -3394.9731   -3867.2097            0    7152.4104    17.119797    20.164859    20.886112    7210.2681    8003.7883     6557.938    6895.5048    1351.9878   -941.35859   -366.90349   -2642.8659 
 9970000    261.24688   -3887.8405   -3440.0722   -3887.8405            0    7888.3654    17.087922    20.127315    20.847225    7170.0693    9166.8557     9760.928    4737.3126    726.47976   -583.02838    746.35768   -2615.2008 
 9971000    254.90756   -3861.1683   -3424.2655   -3861.1683            0    7740.0488    17.103739    20.145945    20.866521    7189.9978    7671.0291     8263.584    7285.5333    836.08504    271.49818    1266.5449   -2612.6537 
 9972000    266.20014   -3895.8798   -3439.6218   -3895.8798            0    6532.0184    17.075424    20.112594    20.831977    7154.3479    8510.3253    4849.3022    6236.4276   -357.52545   -39.251717    296.53374   -2758.0787 
 9973000    254.86865   -3878.2702   -3441.4341   -3878.2702            0     4566.208    17.157164    20.208873      20.9317    7257.5848    5799.8438    3310.1986    4588.5817   -682.36666    223.14838   -1690.5572   -2958.1264 
 9974000    259.64925   -3861.9163   -3416.8864   -3861.9163            0    6417.8759    17.103914    20.146152    20.866736    7190.2194    9037.7393    6493.0841    3722.8044    290.23928    350.97818   -264.45115   -2743.8952 
 9975000    270.30823   -3910.6135   -3447.3144   -3910.6135            0    5972.4327    17.086505    20.125646    20.845497    7168.2861     4905.374    4989.7885    8022.1355    908.81741    -19.07845    395.86836   -2822.9438 
 9976000    260.91501    -3884.118   -3436.9186    -3884.118            0    6187.7434    17.140923    20.189743    20.911886     7236.994    5098.7273    7938.2951    5526.2077    -1240.384    284.57702   -673.76495   -2783.8386 
 9977000    268.88491   -3803.7937   -3342.9342   -3803.7937            0    7339.9495    17.101989    20.143883    20.864386    7187.7907     8910.334    5956.2415    7153.2731    -1311.277    686.87533    184.11529   -2573.5126 
 9978000     262.7724   -3816.1543   -3365.7714   -3816.1543            0    5751.2868    17.154741    20.206019    20.928744    7254.5102    7393.7429    4895.4368    4964.6805    1030.0913   -745.70966   -2083.9451   -2757.2876 
 9979000    266.66328   -3851.4161   -3394.3643   -3851.4161            0    6941.9919    17.153586    20.204658    20.927334    7253.0443    6859.4703    5803.4621    8163.0433   -1860.5233   -230.08277    912.65769   -2660.0528 
 9980000     270.2271   -3826.9858   -3363.8258   -3826.9858            0    4323.1761    17.199285    20.258486    20.983088    7311.1686    3334.9139    5981.3834    3653.2311   -69.525174   -2019.3009    933.16232   -2902.8633 
 9981000    274.49774   -3851.2113   -3380.7316   -3851.2113            0    6688.3068    17.138053    20.186363    20.908385    7233.3594    4401.6042    8380.3645    7282.9516    565.39414   -1339.6357   -838.09653   -2675.1746 
 9982000    260.20953   -3821.6563    -3375.666   -3821.6563            0     6987.911    17.098066    20.139263    20.859601    7182.8462    7682.3835    7095.8764    6185.4731    597.78692   -731.99982    418.71406   -2643.6513 
 9983000    253.13441   -3858.8902   -3425.0265   -3858.8902            0    8239.7119    17.137473    20.185679    20.907677    7232.6245    9009.3459    7685.9151    8023.8748    724.33343    1380.4475    462.37264   -2555.8983 
 9984000    274.50063   -3844.9604   -3374.4757   -3844.9604            0    6437.3026    17.123136    20.168793    20.890186    7214.4882    6453.7684    7218.0119    5640.1274    1117.7481    1502.6876    1519.8522    -2697.169 
 9985000    261.40673   -3870.3287   -3422.2865   -3870.3287            0    7381.0273    17.164229    20.217195    20.940319    7266.5539    7678.9906    9144.4788    5319.6125    -474.9776    239.33136    714.37063   -2640.0804 
 9986000    262.07823   -3877.1066   -3427.9135   -3877.1066            0    5879.0191    17.259166    20.329017    21.056142    7387.7975    6623.0141    7844.3202    3169.7229    65.577056    75.734492    744.58142   -2794.4877 
 9987000    263.22691   -3867.5829    -3416.421   -3867.5829            0    4380.7611    17.243074    20.310063    21.036509     7367.152    3117.3643    4858.7794    5166.1396    -1336.123    370.57269     458.3834   -2945.7417 
 9988000    260.32421   -3839.6401   -3393.4533   -3839.6401            0    4165.2751    17.241204    20.307861    21.034229    7364.7561    4517.3136    4406.2563    3572.2552   -1344.5732     1049.646   -1476.0108   -2946.0719 
 9989000    264.11088   -3885.5122   -3432.8351   -3885.5122            0    4824.5112    17.219908    20.282777    21.008247    7337.4991     5708.851    4514.9001    4249.7825    6.1257607    842.13975    1061.0485   -2916.5647 
 9990000     266.0017   -3873.7201   -3417.8023   -3873.7201            0    7461.6738    17.120791    20.166031    20.887326    7211.5248    8200.1892    6345.3622    7839.4702   -2164.9574    1827.1545   -1588.9908    -2633.038 
 9991000    254.81592   -3863.9649   -3427.2192   -3863.9649            0    4650.9397    17.236061    20.301803    21.027954    7358.1674    3293.8714    4333.5054    6325.4422   -855.76755    1273.9642    640.67624   -2928.1207 
 9992000     269.1194   -3863.2903   -3402.0289   -3863.2903            0    8256.1335    17.118867    20.163764    20.884978    7209.0932    7583.4635    7907.0032    9277.9338    136.25354   -127.88743    158.62854   -2534.0019 
 9993000    262.95851   -3818.9326   -3368.2307   -3818.9326            0    6498.1541    17.116418     20.16088     20.88199    7206.0002     5603.949    9097.1037    4793.4095    7.6705819    841.93588   -781.79363   -2685.3259 
 9994000    249.57419   -3834.5771   -3406.8154   -3834.5771            0     5887.239    17.203061    20.262933    20.987694    7315.9843     5040.264     6060.173    6561.2802   -1115.7855    1148.9247    1467.6306   -2778.6698 
 9995000      256.133   -3825.2346   -3386.2314   -3825.2346            0    4985.1716    17.268941    20.340532    21.068068    7400.3582      4634.28    5990.8894    4330.3453    12.337212    398.19047    0.7363418   -2848.1987 
 9996000    261.36443    -3838.012   -3390.0423    -3838.012            0    6149.4719    17.154196    20.205377    20.928079     7253.819    5984.7981    7252.0554    5211.5621   -801.65704   -624.95823     356.4871   -2739.4927 
 9997000    251.60915   -3814.4323   -3383.1828   -3814.4323            0     8089.635    17.153396    20.204434    20.927103    7252.8034         7252    10137.349    6879.5562   -1660.7126    2166.9993   -1562.9645   -2527.5041 
 9998000    274.58414   -3841.1064   -3370.4786   -3841.1064            0    5715.4546    17.150988    20.201598    20.924165    7249.7495    6137.0149    5717.1255    5292.2233    -784.9063    98.818317    1641.1662   -2766.1827 
 9999000     243.9082   -3834.4265   -3416.3762   -3834.4265            0    6114.7948    17.120851    20.166101    20.887399    7211.6004    5508.3459    6233.4135     6602.625    -614.3023    719.22165   -137.77681     -2773.26 
10000000    260.98751   -3806.0758   -3358.7521   -3806.0758            0    6803.6168    17.110528    20.153941    20.874804    7198.5626    5357.1634    6646.7913    8406.8957     438.2551    216.00844    442.08795   -2644.4836 
Loop time of 497.117 on 64 procs for 250000 steps with 864 atoms

Performance: 86.901 ns/day, 0.276 hours/ns, 502.899 timesteps/s
99.0% CPU use with 64 MPI tasks x 1 OpenMP threads

MPI task timing breakdown:
Section |  min time  |  avg time  |  max time  |%varavg| %total
---------------------------------------------------------------
Pair    | 20.617     | 25.871     | 29.557     |  45.6 |  5.20
Bond    | 0.26248    | 0.27783    | 0.29131    |   1.0 |  0.06
Kspace  | 214.12     | 225.58     | 238.46     |  37.5 | 45.38
Neigh   | 5.5903     | 6.5385     | 7.8438     |  24.9 |  1.32
Comm    | 102.32     | 115.61     | 125.94     |  52.8 | 23.26
Output  | 0.91152    | 0.91292    | 0.91837    |   0.1 |  0.18
Modify  | 115.87     | 117.46     | 118.95     |   5.7 | 23.63
Other   |            | 4.871      |            |       |  0.98

Nlocal:        13.5000 ave          19 max           8 min
Histogram: 2 6 5 10 11 9 9 3 5 4
Nghost:        2203.92 ave        2244 max        2156 min
Histogram: 2 2 5 7 12 12 5 10 7 2
Neighs:        4282.78 ave        6603 max        2138 min
Histogram: 1 4 8 9 19 9 5 2 5 2

Total # of neighbors = 274098
Ave neighs/atom = 317.24306
Ave special neighs/atom = 2.0000000
Neighbor list builds = 14276
Dangerous builds = 0

unfix		3
unfix		2
unfix		1

write_data	data.final.${pid}
write_data	data.final.0
System init for write_data ...
PPPM initialization ...
  extracting TIP4P info from pair style
  using 12-bit tables for long-range coulomb (../kspace.cpp:340)
  G vector (1/distance) = 0.37360463
  grid = 24 24 24
  stencil order = 5
  estimated absolute RMS force accuracy = 0.0032367776
  estimated relative force accuracy = 9.7474595e-06
  using double precision FFTW3
  3d grid and FFT values/proc = 2535 216
Last active /omp style is kspace_style pppm/tip4p/omp
WARNING: Not all mixed pair coeffs generated from mixing. Use write_data with 'pair ij' option to store all pair coeffs. (../write_data.cpp:312)

write_restart   restart.lmp.${pid}
write_restart   restart.lmp.0
System init for write_restart ...
PPPM initialization ...
  extracting TIP4P info from pair style
  using 12-bit tables for long-range coulomb (../kspace.cpp:340)
  G vector (1/distance) = 0.37360463
  grid = 24 24 24
  stencil order = 5
  estimated absolute RMS force accuracy = 0.0032367776
  estimated relative force accuracy = 9.7474595e-06
  using double precision FFTW3
  3d grid and FFT values/proc = 2535 216
Last active /omp style is kspace_style pppm/tip4p/omp
Total wall time: 0:08:19
