LAMMPS (30 Jul 2021)
  using 1 OpenMP thread(s) per MPI task
package omp 0
using multi-threaded neighbor list subroutines
echo both

include		in.partitions
variable        pid world 0
include		in.temp
variable        temperature equal 266.23
variable	tempDamp equal 100.0
include		in.pressure
variable        pressure equal 9500.0
variable        pressureDamp equal 1000.0 # This is 1 ps
include		in.seed
variable        seed world 745823

units		real
atom_style	full
read_restart	restart.lmp.${pid}
read_restart	restart.lmp.0
Reading restart file ...
  restart file = 30 Jul 2021, LAMMPS = 30 Jul 2021
  restoring atom style full from restart
  orthogonal box = (0.64089229 1.8464177 0.78188709) to (17.566680 21.782760 21.431309)
  4 by 4 by 4 MPI processor grid
  restoring pair style lj/cut/tip4p/long/omp from restart
  restoring bond style harmonic/omp from restart
  restoring angle style harmonic/omp from restart
  864 atoms
  576 bonds
  288 angles
Finding 1-2 1-3 1-4 neighbors ...
  special bond factors lj:    0        0        0       
  special bond factors coul:  0        0        0       
     2 = max # of 1-2 neighbors
     1 = max # of 1-3 neighbors
     1 = max # of 1-4 neighbors
     2 = max # of special neighbors
  special bonds CPU = 1.896 seconds
  read_restart CPU = 2.238 seconds
include 	in.setup
variable	out_freq equal 1000
variable	out_freq2 equal 10000
variable	out_freq3 equal 1000

timestep	2.0

neigh_modify    delay 7 every 1

include		in.tip4p
# This is TIP4P/Ice

# create groups ###
group ox type 2
288 atoms in group ox
group hy type 1
576 atoms in group hy

# set charges - beside manually ###
set group ox charge -1.1794
Setting atom values ...
  288 settings made for charge
set group hy charge 0.5897
Setting atom values ...
  576 settings made for charge

# ### TIP3P Potential Parameters ###
pair_style lj/cut/tip4p/long/omp 2 1 1 1 0.1577 8.5
pair_coeff 1 1*2 0.000 0.000
pair_coeff 2 2 0.21084 3.1668
bond_style  harmonic
bond_coeff  1 450 0.9572
angle_style harmonic
angle_coeff 1 55 104.52
kspace_style pppm/tip4p/omp 1.0e-5
pair_modify tail yes

thermo          ${out_freq}
thermo          1000
thermo_style    custom step temp pe etotal epair emol press lx ly lz vol pxx pyy pzz pxy pxz pyz enthalpy

restart 	${out_freq3} restart.lmp.${pid} restart2.lmp.${pid}
restart 	1000 restart.lmp.${pid} restart2.lmp.${pid}
restart 	1000 restart.lmp.0 restart2.lmp.${pid}
restart 	1000 restart.lmp.0 restart2.lmp.0


include         in.dump
dump            myDump all atom ${out_freq2} dump.water.${pid}
dump            myDump all atom 10000 dump.water.${pid}
dump            myDump all atom 10000 dump.water.0
dump            myDump2 all dcd ${out_freq2} dump.dcd
dump            myDump2 all dcd 10000 dump.dcd
dump_modify     myDump append yes
dump_modify     myDump2 append yes


variable natoms 	equal  "count(all)"                        # NUMBER ATOMS
variable H      	equal  "enthalpy/v_natoms"                 # ENTHALPY-per-atom
variable Vol      	equal  "vol/v_natoms"                 # volume-per-atom
fix AVG all 		ave/time ${out_freq} 1 ${out_freq} v_Vol v_H file vol_enthalpy.dat
fix AVG all 		ave/time 1000 1 ${out_freq} v_Vol v_H file vol_enthalpy.dat
fix AVG all 		ave/time 1000 1 1000 v_Vol v_H file vol_enthalpy.dat


timer           timeout 23:50:00 every 1000
New timer settings: style=normal  mode=nosync  timeout=23:50:00

fix 		1 all shake 1e-6 200 0 b 1 a 1
       0 = # of size 2 clusters
       0 = # of size 3 clusters
       0 = # of size 4 clusters
     288 = # of frozen angles
  find clusters CPU = 0.196 seconds
fix             2 all nph iso ${pressure} ${pressure} ${pressureDamp}
fix             2 all nph iso 9500 ${pressure} ${pressureDamp}
fix             2 all nph iso 9500 9500 ${pressureDamp}
fix             2 all nph iso 9500 9500 1000
fix             3 all temp/csvr ${temperature} ${temperature} ${tempDamp} ${seed}
fix             3 all temp/csvr 266.23 ${temperature} ${tempDamp} ${seed}
fix             3 all temp/csvr 266.23 266.23 ${tempDamp} ${seed}
fix             3 all temp/csvr 266.23 266.23 100 ${seed}
fix             3 all temp/csvr 266.23 266.23 100 745823

run             250000
PPPM initialization ...
  extracting TIP4P info from pair style
  using 12-bit tables for long-range coulomb (../kspace.cpp:340)
  G vector (1/distance) = 0.37450083
  grid = 24 24 24
  stencil order = 5
  estimated absolute RMS force accuracy = 0.0031338145
  estimated relative force accuracy = 9.4373892e-06
  using double precision FFTW3
  3d grid and FFT values/proc = 2535 216
Last active /omp style is kspace_style pppm/tip4p/omp
Neighbor list info ...
  update every 1 steps, delay 7 steps, check yes
  max neighbors/atom: 2000, page size: 100000
  master list distance cutoff = 10.8154
  ghost atom cutoff = 10.8154
  binsize = 5.4077, bins = 4 4 4
  1 neighbor lists, perpetual/occasional/extra = 1 0 0
  (1) pair lj/cut/tip4p/long/omp, perpetual
      attributes: half, newton on, omp
      pair build: half/bin/newton/omp
      stencil: half/bin/3d
      bin: standard
Per MPI rank memory allocation (min/avg/max) = 9.235 | 9.240 | 9.245 Mbytes
Step Temp PotEng TotEng E_pair E_mol Press Lx Ly Lz Volume Pxx Pyy Pzz Pxy Pxz Pyz Enthalpy 
10000000    259.86618    -3812.427   -3367.0252    -3812.427            0    9721.8769    16.925788    19.936342    20.649422    6967.9057    10585.248    8413.5232    10166.859    506.34808    787.07533    277.21777   -2379.0905 
10001000    268.16289   -3846.0535   -3386.4315   -3846.0535            0    5916.2073    16.932958    19.944788     20.65817    6976.7652    6119.2113    4663.6225    6965.7883    1019.7037    -168.4898    1402.4391   -2784.4635 
10002000    258.26131   -3824.3907   -3381.7397   -3824.3907            0    9965.5886    16.920401    19.929997    20.642849    6961.2545    10161.753    10256.151    9478.8617     1456.593    892.69223     719.8993   -2370.0056 
10003000    264.93551   -3845.2602   -3391.1698   -3845.2602            0    10785.282    16.878498    19.880641    20.591728    6909.6648    9957.1655    10982.266    11416.415    275.16185   -17.550102   -46.796371   -2304.3329 
10004000    262.47349   -3880.9654   -3431.0948   -3880.9654            0    9428.6527    16.894709    19.899736    20.611506    6929.5934    10141.041     8555.761    9589.1562   -56.247137   -822.04535    577.97603   -2478.2256 
10005000    267.94694   -3855.1161   -3395.8642   -3855.1161            0    9096.5054    17.032817    20.062408    20.779997    7100.9265    8312.7418    8242.4754    10734.299   -458.69332   -763.58296   -154.92383   -2453.8326 
10006000    272.87811   -3858.6615   -3390.9577   -3858.6615            0    11661.696    16.983774    20.004642    20.720165    7039.7656    11334.237    12513.133    11137.719    337.40593    -352.5406    105.22439   -2193.6775 
10007000    273.96243   -3845.7957   -3376.2335   -3845.7957            0    9891.8914    16.938329    19.951115    20.664722    6983.4063    8392.2017    9793.9939    11489.479   -733.58753    258.65419   -12.315197   -2368.7857 
10008000    280.66079   -3825.2512   -3344.2082   -3825.2512            0    10100.294    16.847351    19.843954    20.553729    6871.4828    10678.314    10099.505    9523.0629    2268.7788    -319.1252    888.78665   -2332.0221 
10009000    276.83607   -3806.5155   -3332.0279   -3806.5155            0    11741.151    16.859505    19.858269    20.568556    6886.3646    14443.102    10900.125    9880.2261   -893.58877   -601.36017    1571.2022   -2152.8575 
10010000    288.56927   -3850.1156   -3355.5177   -3850.1156            0    9173.6093    16.942363    19.955866    20.669643    6988.3965     10572.74     6741.743    10206.345   -746.20463     513.5303    437.88998   -2420.5564 
10011000    268.57567   -3843.4466   -3383.1171   -3843.4466            0    9091.2046     16.95748    19.973672    20.688086    7007.1199    10583.579    7991.1584    8698.8762    653.09965     1100.092   -299.99474   -2454.0718 
10012000    277.67006   -3807.4269   -3331.5099   -3807.4269            0    10568.356    16.945257    19.959275    20.673174    6991.9783    10011.542    10679.236    11014.289      410.111    2791.7591   -56.990433   -2253.8459 
10013000    274.18456     -3859.17   -3389.2271     -3859.17            0    10656.912    16.949934    19.964784     20.67888    6997.7697    10406.525    12913.581    8650.6305   -128.48657    1511.0473   -313.81341   -2301.6327 
10014000    263.79859   -3911.9519   -3459.8102   -3911.9519            0    6930.0279    16.976184    19.995703    20.710905    7030.3319    3926.9175    8637.7044    8225.4618    204.97268   -326.64656   -315.43952   -2749.2732 
10015000     267.8929   -3864.4217   -3405.2625   -3864.4217            0    9498.0179    16.876467    19.878249     20.58925    6907.1707    10340.613    9080.7751    9072.6659    430.71214   -747.55446   -298.37833   -2448.4891 
10016000    259.73748   -3862.3605   -3417.1794   -3862.3605            0    9046.0061    16.910373    19.918186    20.630616    6948.8857    9910.8503    10024.046    7203.1221    370.27365   -894.10511    1084.6907   -2500.4357 
10017000     273.9939   -3876.1798   -3406.5637   -3876.1798            0      10066.3    16.884707    19.887954    20.599303    6917.2929    10203.577    8937.7884    11057.534    2078.8453   -121.63568    541.79427    -2391.059 
10018000     259.8457   -3888.6784   -3443.3118   -3888.6784            0     7752.976    16.837359    19.832185    20.541539    6859.2644    7067.3806    8275.1133     7916.434    42.083609   -40.782234   -252.97075   -2667.7403 
10019000    274.00459   -3859.4072   -3389.7727   -3859.4072            0    10566.611    16.787764    19.773769    20.481033      6798.83    11054.005    10802.133    9843.6939    451.98091    -1009.632   -205.09859   -2342.0514 
10020000    258.64624   -3883.1579   -3439.8471   -3883.1579            0    7338.6056     16.90665      19.9138    20.626073    6944.2965     7659.119    9149.8314    5206.8663   -134.70224    -1091.406    375.13037   -2696.6266 
10021000     260.7598   -3847.1488   -3400.2155   -3847.1488            0    8923.9674    16.830931    19.824613    20.533696    6851.4103    9034.8381    10000.796    7736.2685    170.22588    793.38212    894.86069   -2508.5256 
10022000    271.30002   -3861.9478   -3396.9489   -3861.9478            0    9855.0071    16.852372    19.849869    20.559855    6877.6287    11523.825    8309.5878    9731.6089   -1845.3114    512.43359    -1451.079   -2408.4605 
10023000    263.56089   -3883.6574    -3431.923   -3883.6574            0     10385.06    16.848188     19.84494     20.55475    6872.5071    12976.452    9455.2591    8723.4699    1877.3606    1280.0826   -1099.6439   -2391.0444 
10024000    274.42134   -3826.2714   -3355.9226   -3826.2714            0    9589.1948    16.870985    19.871791    20.582562    6900.4415    9614.9425    9159.3449     9993.297   -258.83946    1583.4053    1267.8082   -2390.9057 
10025000    266.84869   -3858.8463   -3401.4767   -3858.8463            0    7885.1902    16.889462    19.893555    20.605104    6923.1382    8335.7467    5468.0029     9851.821   -109.57638   -1179.1749    627.53481   -2605.3338 
10026000     273.9579   -3829.6559   -3360.1014   -3829.6559            0    9480.3152    16.923571    19.933731    20.646717    6965.1683    10597.401    9313.5055    8530.0386    993.39641    942.89068    1053.2626   -2397.0926 
10027000    273.29721   -3823.3228   -3354.9007   -3823.3228            0    9047.8344    16.881378    19.884034    20.595242    6913.2027    9812.5611    8266.2586    9064.6834    -1046.341    224.35242    375.75358   -2442.6802 
10028000    259.57816    -3855.952   -3411.0439    -3855.952            0    8433.8532    16.963392    19.980635    20.695299     7014.451    8324.8619    8960.8961    8015.8016    768.37261    137.92964   -907.11953   -2548.2728 
10029000     249.4288   -3879.1629   -3451.6505   -3879.1629            0     7008.928    17.004209    20.028713    20.745096    7065.2074    6050.1157    6241.1048    8735.5634    921.82861    1449.3723   -407.21971    -2729.459 
10030000    287.98937   -3845.4469    -3351.843   -3845.4469            0    7775.2109    16.959614    19.976185     20.69069    7009.7656    6858.3439    7577.7764    8889.5123    3.0032803    1004.3612     972.2847   -2556.9813 
10031000    260.87896   -3789.9686    -3342.831   -3789.9686            0    10342.434    16.917946    19.927106    20.639855    6958.2254    10504.698    8557.3639     11965.24   -388.07525    1052.2747   -764.57573   -2293.2955 
10032000     279.4582   -3840.4766   -3361.4948   -3840.4766            0    9108.2059    16.836984    19.831743    20.541081     6858.805    8840.0321    9337.7549    9146.8308   -1270.9406   -255.87991   -1.6374963   -2450.4134 
10033000    259.17027   -3831.7632   -3387.5543   -3831.7632            0    9100.2356     16.89611    19.901386    20.613215    6931.3171    8934.7625    9076.9497    9288.9946    873.47328    876.01148   -288.49328   -2467.6465 
10034000    250.88369   -3865.0831    -3435.077   -3865.0831            0    8965.4783    16.895869    19.901102    20.612921    6931.0207    8868.2088    8533.2575    9494.9686   -439.77528    357.41848    605.67199   -2528.8301 
10035000    262.16505   -3905.0383   -3455.6964   -3905.0383            0    8386.2098    16.950859    19.965873    20.680008    6998.9147    7397.1078    7583.7244    10177.797     -2529.28   -5.8163861    978.30359   -2599.6993 
10036000    275.21762    -3877.759   -3406.0455    -3877.759            0    9118.0886    16.913027    19.921312    20.633853    6952.1576    8237.0232    9701.4273    9415.8153    410.03472   -271.25862   -1560.0069   -2481.5617 
10037000    269.85024   -3859.7254   -3397.2114   -3859.7254            0    7365.8887    16.945248    19.959264    20.673164    6991.9677    7553.0287    8174.1096    6370.5278    166.54234    1851.3039   -10.429444   -2646.1067 
10038000    277.26791   -3868.9492   -3393.7215   -3868.9492            0    8191.3957    16.887318     19.89103    20.602489     6920.503    10405.387    5762.6408    8406.1592   -437.73564   -403.15195    661.74756   -2566.9768 
10039000    272.43357   -3876.6474   -3409.7056   -3876.6474            0    8608.2293    16.873316    19.874538    20.585406    6903.3029    9175.6549    7418.3459    9230.6869    295.61862    1116.0019   -124.09006   -2543.0498 
10040000    272.42126   -3884.6545   -3417.7338   -3884.6545            0    9662.9192    16.891242    19.895651    20.607275    6925.3273    8513.4461    9538.5292    10936.782   -303.96262    551.53909   -58.638409   -2441.7906 
10041000    261.56805   -3862.6402   -3414.3215   -3862.6402            0     8663.866     16.95655    19.972576    20.686951    7005.9663    10543.704    7755.5227    7692.3713   -206.31373    469.21799    210.15003   -2529.0925 
10042000    267.47164   -3852.8884   -3394.4512   -3852.8884            0    9757.8033    16.868586    19.868966    20.579635    6897.4987    10595.031    9808.6149    8869.7645   -1322.9867   -1255.6236    1522.8333    -2412.885 
10043000    264.49621   -3847.3512   -3394.0137   -3847.3512            0    10574.005    16.912378    19.920547    20.633061    6951.3571    10179.031    11422.282    10120.703   -49.061669    2254.1433   -227.50358   -2322.0378 
10044000    274.18704   -3847.9787   -3378.0315   -3847.9787            0    11528.029    16.877634    19.879624    20.590674    6908.6039    12115.753    9273.8558    13194.479   -1109.3653    251.57143    239.81894   -2216.5261 
10045000    259.84177   -3897.7971   -3452.4372   -3897.7971            0    9630.1854    16.900242    19.906253    20.618256    6936.4035    9353.8941    9477.7376    10058.924   -1099.9677    1314.6082   -292.28156   -2478.2445 
10046000    271.06562   -3847.5692    -3382.972   -3847.5692            0    10592.075    16.891446    19.895892    20.607524    6925.5785    10027.029    12088.623    9660.5736   -1429.2373    -134.3514    -941.4104   -2313.1464 
10047000    266.38203   -3853.4222   -3396.8526   -3853.4222            0    11175.016    16.849553    19.846548    20.556415    6874.1776    11252.785    11237.784    11034.479   -1495.5354    68.887751    825.58287   -2276.5256 
10048000      264.293   -3830.8094   -3377.8203   -3830.8094            0    9133.8743    16.939791    19.952836    20.666505    6985.2142    9809.9079    9231.3106    8360.4046   -1556.0058   -143.24029   -1523.4061   -2447.3325 
10049000    259.13465   -3811.1629    -3367.015   -3811.1629            0    10316.292    16.949868    19.964705    20.678799    6997.6873    11027.309    8953.6067     10967.96    389.63325    -1864.638    1255.6719   -2314.1952 
10050000    267.79685   -3853.2094   -3394.2148   -3853.2094            0    10806.711    16.887522    19.891271    20.602738    6920.7538    12377.632    9568.9383    10473.563    15.571215   -66.136771   -290.59572   -2303.4708 
10051000    276.78458   -3844.7711   -3370.3718   -3844.7711            0    6955.0216    16.935835    19.948177    20.661679    6980.3219    6592.3788    8118.6067    6154.0793   -560.72797   -257.88949   -1555.3299   -2662.3448 
10052000    265.62493   -3830.3448   -3375.0728   -3830.3448            0     10124.28    16.905524    19.912474    20.624699     6942.909    10223.467    8962.8734    11186.499    -358.0837    1938.0885   -87.173612   -2349.9368 
10053000    246.85181   -3833.8643   -3410.7688   -3833.8643            0    9531.3411     16.87141    19.872292     20.58308     6900.963    9067.8905    9208.1828     10317.95   -1385.2863     702.8431   -1024.3151   -2451.5016 
10054000    282.39005    -3832.662   -3348.6551    -3832.662            0    10084.856     16.85791    19.856392    20.566611    6884.4113    9618.7277    10439.972    10195.869   -1405.7261    312.34043    791.32167   -2336.1146 
10055000    268.62667   -3847.2957   -3386.8788   -3847.2957            0    9162.0622    16.853398    19.851076    20.561106    6878.8842    8304.3039    8669.7643    10512.118    601.20675    1117.6359    -964.5779   -2467.7273 
10056000    273.43861   -3828.5865   -3359.9221   -3828.5865            0    7755.1617    16.965014    19.982545    20.697277    7016.4631     7308.095    7041.7362    8915.6538     719.3013    1054.5161    536.94473   -2566.3525 
10057000    258.09942   -3847.6998   -3405.3262   -3847.6998            0    7552.0259    16.964166    19.981546    20.696243    7015.4108    6650.0349    8677.1676     7328.875    1093.1785    1260.2295   -123.00154    -2632.659 
10058000    260.30503   -3839.6544   -3393.5005   -3839.6544            0    9924.7151    16.935088    19.947297    20.660768    6979.3978    10603.939     8780.306      10389.9     915.7857    1469.6821   -395.14204   -2383.2899 
10059000    265.88962   -3850.0897    -3394.364   -3850.0897            0    8240.4698    16.943315    19.956988    20.670805    6989.5752    7244.8954    8893.9749    8582.5391    486.09384   -58.658843   -125.55885   -2554.3653 
10060000    271.97017   -3908.6383   -3442.4907   -3908.6383            0    8995.6267    16.867628    19.867838    20.578467    6896.3235      10463.1    8158.1349    8365.6448   -835.26323    187.67121     6.836788   -2537.7483 
10061000    273.43683   -3866.7082   -3398.0469   -3866.7082            0    10854.402    16.784184    19.769552    20.476665    6794.4808    10310.662    10162.144    12090.398   -452.86284    460.90623   -2406.3036   -2322.4784 
10062000    254.15936   -3835.5413   -3399.9209   -3835.5413            0      9123.48    16.933021    19.944862    20.658246    6976.8429    11065.192    7332.9129    8972.3347    620.03349   -340.70912    1207.3801   -2471.6059 
10063000    271.75038   -3837.9372   -3372.1664   -3837.9372            0    9623.9067    16.860365    19.859283    20.569606    6887.4187    9400.8806    8347.6794     11123.16    583.95116    1079.0385    556.68453    -2405.484 
10064000    263.87444   -3840.4643   -3388.1925   -3840.4643            0    9340.2747    16.884113    19.887255    20.598579    6916.5633    8248.8201    9881.3011     9890.703   -2.3812307   -191.67675    490.23882   -2446.0298 
10065000    262.80565   -3859.7822   -3409.3423   -3859.7822            0    8532.0291    16.839721    19.834967     20.54442    6862.1509    8024.4347    7907.4917    9664.1608    1306.5126    884.34631     1862.691   -2555.4787 
10066000    267.32536   -3804.0143   -3345.8278   -3804.0143            0    7973.9786    16.934544    19.946656    20.660105    6978.7259    8181.4968    7998.7198    7741.7193   -1200.8493   -635.40999    433.26699   -2534.2557 
10067000     250.0979   -3860.1062    -3431.447   -3860.1062            0    7468.6932      16.9228    19.932823    20.645776    6964.2162       8360.9    7257.6761    6787.5036    428.88418   -1360.2523    60.164955    -2672.882 
10068000    266.81852   -3852.2093   -3394.8915   -3852.2093            0    9964.5083    16.867064    19.867174    20.577779    6895.6323    10404.122    9889.0136    9600.3893   -1088.8288    314.00632   -1666.7526   -2392.8035 
10069000    261.05313   -3871.5648   -3424.1287   -3871.5648            0    9532.1743    16.856427    19.854645    20.564802    6882.5945    10135.964    10712.817    7747.7416    1274.4988    376.42421   -1720.6563   -2467.3312 
10070000    260.47041   -3829.4552   -3383.0179   -3829.4552            0    9452.4284    16.921947    19.931818    20.644736    6963.1631    8936.2764    9534.1972    9886.8115   -810.94335   -903.59781   -678.66915   -2423.1182 
10071000    263.69687   -3863.4972   -3411.5298   -3863.4972            0    9587.1614    16.910016    19.917765     20.63018    6948.4451    10474.027    8033.8063    10253.651    735.93427   -400.15966    186.78443   -2440.0057 
10072000    287.56705   -3815.3473   -3322.4672   -3815.3473            0    10243.224    16.946531    19.960775    20.674728    6993.5555    7090.7121    11427.709    12211.251     2.199405   -1492.2036   -246.12271   -2277.7215 
10073000    266.03024    -3890.782   -3434.8153    -3890.782            0    10071.109    16.893408    19.898203    20.609918    6927.9924     9200.871    11155.152    9857.3043     207.3851    378.51395    623.43194    -2417.254 
10074000    272.48769   -3892.5602   -3425.5257   -3892.5602            0    7523.2242    16.955291    19.971093    20.685415    7004.4063    7862.4407    6974.4216    7732.8102   -224.85429    1461.5701    1187.7163   -2657.0127 
10075000    266.46367   -3855.0011   -3398.2915   -3855.0011            0    7527.2497    16.930167      19.9415    20.654764    6973.3155    7055.2776    7875.4965    7650.9749   -101.55932    687.81019   -1415.0725   -2632.7803 
10076000     270.5129   -3826.5546   -3362.9048   -3826.5546            0    9054.4871    16.880957    19.883537    20.594728    6912.6847    10443.797    9679.0157    7040.6492    346.84377    1270.2485   -1661.4925   -2450.0819 
10077000    263.29187   -3865.8642    -3414.591   -3865.8642            0    9361.9431    16.897137    19.902596    20.614468    6932.5813    9438.3936     9940.871    8706.5647    -480.1756   -529.26102   -1688.9275   -2468.0556 
10078000     288.2731   -3863.9244   -3369.8341   -3863.9244            0     8515.139    16.900376     19.90641    20.618419    6936.5686    8773.3764    7351.0648    9420.9759    629.68856    515.21775   -668.78285   -2508.4194 
10079000    259.45456    -3850.405   -3405.7088    -3850.405            0    9901.8777    16.844299     19.84036    20.550006    6867.7495    12414.735    9190.4369    8100.4613    78.483218   -334.23657   -454.09119   -2413.9458 
10080000    287.14702   -3854.2298   -3362.0696   -3854.2298            0    7774.4853    16.896369     19.90169     20.61353    6931.6355     8700.656    6616.4605    8006.3394    -250.9614    353.28807   -1484.2331   -2576.1407 
10081000    265.13138   -3853.0303   -3398.6042   -3853.0303            0    9854.6829    16.901903    19.908209    20.620282    6938.4489    9958.3367    10379.657    9226.0549   -1595.9228    839.01255    939.99843   -2401.4073 
10082000    258.63028   -3866.3965   -3423.1131   -3866.3965            0    11360.679    16.886561    19.890138    20.601565    6919.5716    10566.268    11952.744    11563.026   -749.13732    1209.6306    488.51831   -2276.6518 
10083000    242.60316   -3808.8645    -3393.051   -3808.8645            0    8594.9846    16.899175    19.904996    20.616955    6935.0905     6171.525    10312.443    9300.9854   -156.17654   -1463.8856   -785.23838   -2523.7441 
10084000    276.25046   -3815.3017   -3341.8179   -3815.3017            0    9149.1386    16.962623    19.979729     20.69436    7013.4966     6826.248    10284.515    10336.652    2048.5032   -614.26291     229.1734   -2406.0014 
10085000    277.24565   -3866.5191   -3391.3295   -3866.5191            0    9601.4225    16.904586    19.911369    20.623555    6941.7533    9224.3209     9309.182    10270.765    846.29595    490.79109    756.30453   -2419.2973 
10086000    256.11662   -3840.7833   -3401.8082   -3840.7833            0    8151.3518    16.902434    19.908835     20.62093     6939.103    8572.3671    7524.3066    8357.3817    981.81972   -289.83177    91.781048   -2576.8938 
10087000    252.67656   -3857.4571   -3424.3781   -3857.4571            0    8354.7511    16.899963    19.905924    20.617915    6936.0598    8341.0977    8075.9851    8647.1706     504.9658    791.91077   -464.95429   -2579.2506 
10088000    273.04561   -3845.2573   -3377.2665   -3845.2573            0    9954.1864    16.882088     19.88487    20.596108    6914.0751    7913.6521    12290.771    9658.1365   -1437.6439    1880.3891   -630.57207   -2373.5391 
10089000    264.15425   -3885.2449   -3432.4935   -3885.2449            0    10178.581    16.851093    19.848362    20.558294    6876.0625    9468.7357    11825.286    9241.7202   -429.23907    -704.6703    515.02294   -2411.7822 
10090000     274.7516    -3871.135   -3400.2201    -3871.135            0    10259.633    16.848062    19.844792    20.554596    6872.3527    11579.014    10611.798    8588.0858   -765.00548    -794.8872   -982.33073    -2371.936 
10091000    251.50082   -3837.2039   -3406.1401   -3837.2039            0    9115.8735    16.880771    19.883319    20.594501    6912.4569    10200.763    9156.8547    7990.0028   -629.22476   -244.71637      832.825    -2487.159 
10092000    280.60372   -3844.3975   -3363.4523   -3844.3975            0    12171.178    16.818202    19.809621    20.518168     6835.878    13397.253    9225.7418    13890.541    1046.8311   -17.112302    902.65604   -2150.0556 
10093000    271.54344   -3884.1434   -3418.7273   -3884.1434            0    9331.0083    16.849966    19.847035    20.556919    6874.6833    7797.1316    8980.4643    11215.429    189.77708    529.05179    554.34438   -2483.1985 
10094000    255.87448   -3850.8338   -3412.2738   -3850.8338            0    12244.091    16.840645    19.836055    20.545547    6863.2804     12277.87    10094.106    14360.296    1646.6696    365.05101   -782.66256   -2186.7149 
10095000    258.33929   -3870.5197    -3427.735   -3870.5197            0    10520.522    16.815158    19.806035    20.514454    6832.1669    10499.162    10470.233     10592.17    122.87041    373.13677   -472.30997   -2379.4687 
10096000    263.17862    -3841.729   -3390.6498    -3841.729            0    7242.8558    16.888993    19.893003    20.604532    6922.5617    6768.3804    7842.0082    7118.1789   -104.04201   -2058.1237   -36.970735   -2659.4222 
10097000    266.00793   -3859.2523   -3403.3238   -3859.2523            0    9194.7581    16.853526    19.851227    20.561262     6879.041    8991.4938    7114.9763    11477.804    1086.2039    1338.6162    1300.8015   -2480.8711 
10098000    246.50115   -3857.4926   -3434.9981   -3857.4926            0    10290.337    16.832817    19.826834    20.535997    6853.7137    11695.591     8499.189    10676.232    511.17732    -510.7355    1494.0888   -2406.4338 
10099000    267.50194    -3858.585   -3400.0959    -3858.585            0    9668.9652    16.818385    19.809836     20.51839    6836.1008    9766.1306    9620.7251    9620.0397    5.9107874    945.72957    591.12896    -2436.124 
10100000    259.07912   -3888.8761   -3444.8234   -3888.8761            0    8325.3888    16.901933    19.908245    20.620319    6938.4864    7346.3281    9038.9047    8590.9337   -851.41202    814.55808    254.35762   -2602.3714 
10101000    262.92708   -3873.3402   -3422.6922   -3873.3402            0    10801.725    16.785513    19.771117    20.478287    6796.0954    10922.088    11357.619    10125.468      246.299    -1208.988    253.05692   -2352.0891 
10102000     270.0932   -3845.8424   -3382.9119   -3845.8424            0    10235.053    16.872202    19.873225    20.584047    6901.9351    10406.567    8620.3853    11678.205   -675.46186   -852.35036    890.16586   -2352.6757 
10103000    265.83391   -3828.6969   -3373.0667   -3828.6969            0    8717.2745    16.901603    19.907856    20.619916    6938.0797    4358.7764    10854.316    10938.731    544.28431   -848.18428    61.499714   -2491.0112 
10104000    264.05015   -3840.5442   -3387.9713   -3840.5442            0     9856.049    16.928031    19.938984    20.652158    6970.6759    9900.6398    10479.087    9188.4205    1187.2711    93.650503    529.49892   -2386.0038 
10105000    268.89789   -3839.7229   -3378.8412   -3839.7229            0    9599.5187    16.906161    19.913224    20.625476    6943.6938    8840.7644    8554.6673    11403.124    363.35182   -109.78438   -1351.4121     -2406.73 
10106000    270.12478   -3874.2815   -3411.2969   -3874.2815            0    9556.8532    16.908959     19.91652     20.62889    6947.1423    9527.6265    7873.9511    11268.982   -903.11031   -784.36152    406.39574   -2443.0257 
10107000    265.40477   -3842.8709   -3387.9762   -3842.8709            0    8996.9603    16.944065     19.95787    20.671719    6990.5023    10128.432    9552.9706    7309.4786    2220.0707   -590.29775    155.49044   -2470.7424 
10108000     253.1273   -3814.2231   -3380.3716   -3814.2231            0    8564.1765    16.950156    19.965045    20.679151    6998.0444    7844.8078    8598.2795    9249.4422   -796.48712    -2626.422    657.93202   -2506.3177 
10109000    259.07283   -3833.2162   -3389.1743   -3833.2162            0    7691.3565    16.969352    19.987655    20.702569    7021.8467    5502.0282    10646.612     6925.429    1768.4944     99.94339    87.603012   -2601.5299 
10110000    261.92024   -3848.9728   -3400.0504   -3848.9728            0    7243.3778    17.007176    20.032207    20.748715    7068.9065    6589.9653    8106.6842    7033.4838    286.76572   -66.334091    448.90648   -2653.3107 
10111000    267.24543   -3815.2608   -3357.2113   -3815.2608            0    8322.2064    16.910929    19.918841    20.631294    6949.5714    8614.5335    7366.6115    8985.4743    234.27283    1109.2187   -743.87962   -2513.7359 
10112000    265.27559   -3836.8344   -3382.1611   -3836.8344            0    8296.9265    16.944679    19.958593    20.672468    6991.2625    10421.427    6087.9532     8381.399    537.29913   -678.69411   -1172.8967   -2536.2032 
10113000    261.58345   -3830.6883   -3382.3433   -3830.6883            0    9897.7096    16.919624    19.929082    20.641902    6960.2962    10421.941    10592.909    8678.2786   -1065.0716   -1243.0714    292.79649   -2377.6388 
10114000    279.82593    -3834.746   -3355.1339    -3834.746            0     10179.06    16.964264    19.981662    20.696362    7015.5322    9558.1957    9065.6419    11913.343    2221.6123   -692.32032    246.56592   -2313.6701 
10115000    280.83771    -3843.204   -3361.8578    -3843.204            0    10310.262     16.93272    19.944507    20.657879    6976.4704    9181.6595    9625.9766    12123.148    668.72807    826.64266    462.44897   -2312.8437 
10116000    257.25728   -3825.6297   -3384.6995   -3825.6297            0    10456.858    16.838275    19.833264    20.542656    6860.3834    11574.048    8366.3058    11430.221   -989.82975   -187.42756    434.15876   -2338.4736 
10117000    253.55831   -3866.6651   -3432.0748   -3866.6651            0     9187.765    16.891237    19.895646     20.60727    6925.3216    6486.0252    11821.983    9255.2873   -156.43162   -607.79962     133.4598   -2504.1224 
10118000    249.89596   -3844.2264   -3415.9132   -3844.2264            0    10335.347    16.888388     19.89229    20.603794     6921.818    11143.168    9589.8998    10272.972    1.3048616   -1236.6535   -549.73551   -2372.5846 
10119000    266.58877   -3832.9283   -3376.0043   -3832.9283            0    9823.1388    16.872447    19.873514    20.584346    6902.2361     9273.232    9311.2011    10884.983   -107.94982   -1401.7058    930.62736   -2387.1872 
10120000    256.88502   -3851.9684   -3411.6763   -3851.9684            0    9017.3586    16.919105    19.928471    20.641269    6959.6557    9099.4528    9346.1488    8606.4742    1085.7204    1036.7499   -702.19904   -2496.4195 
10121000    263.23101   -3849.8095   -3398.6406   -3849.8095            0    11106.009    16.843926     19.83992    20.549551    6867.2932    11781.958    11783.126    9752.9437    195.02584   -554.53655    46.290966   -2286.3468 
10122000     279.1494   -3838.7822   -3360.3297   -3838.7822            0    7315.2193    16.940587    19.953774    20.667477    6986.1994    7808.5426    6652.3939    7484.7215     1791.685    905.98247   -896.61024   -2615.0072 
10123000    260.46682   -3871.6968   -3425.2656   -3871.6968            0    7425.4061    16.938043    19.950777    20.664372    6983.0515    6361.4124    7818.4638     8096.342     621.7918    483.88645   -702.17182   -2669.0575 
10124000    254.03874   -3814.3808   -3378.9671   -3814.3808            0    10166.791    16.918088    19.927273    20.640028    6958.4004     9170.296    11018.775    10311.302    603.20973    1047.0056    1002.3128   -2347.2296 
10125000    287.60253   -3830.2951   -3337.3543   -3830.2951            0    12518.123    16.839277    19.834444    20.543879    6861.6084    13956.192    10744.232    12853.946    1115.1314    363.93615   -1541.7491   -2084.6717 
10126000     276.3683   -3865.7622   -3392.0764   -3865.7622            0     8060.465    16.910268    19.918062    20.630487    6948.7555     6451.938      8189.53     9539.927    23.368046   -808.06222    930.10503   -2575.2251 
10127000    269.89225    -3805.021   -3342.4349    -3805.021            0    11663.147    16.824421    19.816945    20.525754    6843.4635    9330.2706    13003.261     12655.91   -1247.8458    693.09084   -1266.5671   -2178.3957 
10128000    272.70658   -3830.4344   -3363.0246   -3830.4344            0     11922.28    16.840835    19.836279    20.545779    6863.5124    11128.652    12952.349    11685.839   -1149.3377    -91.64966    1424.3056   -2169.6367 
10129000    269.51555   -3803.3662   -3341.4258   -3803.3662            0    9676.8068    16.945316    19.959344    20.673246    6992.0515    9906.6108    9355.6886     9768.121    1456.7757   -1080.2938   -954.49552   -2354.6634 
10130000    254.08346   -3849.0244    -3413.534   -3849.0244            0    11041.797    16.846734    19.843228    20.552977    6870.7284    13202.148    9875.0375    10048.206   -174.71498    1744.3156    381.68465   -2307.1181 
10131000    256.06175   -3876.3977   -3437.5166   -3876.3977            0    9988.7325     16.94086    19.954095     20.66781    6986.5367    10302.168    10307.577    9356.4525    163.33252   -418.10611    1003.2733   -2419.7499 
10132000    264.78131   -3834.9041    -3381.078   -3834.9041            0    9327.3553     16.99742    20.020715    20.736812    7056.7474    6464.4571    10134.759     11382.85     478.9423   -1035.0138   -1382.9848   -2421.1493 
10133000      255.079   -3831.3001   -3394.1034   -3831.3001            0    9983.0706    16.891273    19.895689    20.607314    6925.3663    8784.7725    9471.4727    11692.967    147.22997   -318.35208    274.11263   -2385.8197 
10134000     263.8163   -3901.1165   -3448.9444   -3901.1165            0    11364.622    16.905875    19.912887    20.625127    6943.3413    11894.605    11547.029    10652.232   -1836.8834   -1836.0088    255.13556   -2298.1456 
10135000    263.00801   -3899.9392   -3449.1524   -3899.9392            0    8423.3036    16.906256    19.913336    20.625593     6943.811    6031.2544    9057.9023    10180.754   -1221.7348   -2031.1825    -66.72738   -2596.1383 
10136000    271.90237   -3872.4913     -3406.46   -3872.4913            0    10612.527    16.898981    19.904767    20.616717    6934.8509    10566.179    11410.283    9861.1172    2929.4779    603.48174    345.24282   -2333.1336 
10137000    260.73872   -3892.2073   -3445.3101   -3892.2073            0       7870.6    16.957882    19.974145    20.688577    7007.6181    7535.7444    8025.3948    8050.6608   -94.449177   -575.22339    433.80028   -2640.9432 
10138000    267.54068   -3866.6329   -3408.0773   -3866.6329            0    10369.756    16.876879    19.878735    20.589753    6907.6772    9167.4341    9968.1009    11973.734    1877.6062   -86.165889    19.385757   -2363.4137 
10139000    267.96645   -3920.2207   -3460.9354   -3920.2207            0     7741.536    16.880635    19.883159    20.594336    6912.2899    7905.1381    8328.1729     6991.297   -180.79147   -37.405716     1239.128   -2680.5215 
10140000     254.3974   -3846.6539   -3410.6254   -3846.6539            0    12197.488    16.864356    19.863983    20.574474    6892.3106    13680.034    10381.128    12531.303    319.94542   -1060.3149    304.03157    -2184.567 
10141000     251.7406   -3882.0663   -3450.5915   -3882.0663            0     8112.328    16.882622    19.885499     20.59676    6914.7311    9079.0882    6230.1719     9027.724     38.94623    823.07146    1167.4591   -2632.5098 
10142000    259.22859   -3879.9289     -3435.62   -3879.9289            0    9202.9895    16.901104    19.907268    20.619307    6937.4646    9992.4203    9715.5354    7901.0129    290.24924    650.65445   -667.13987   -2504.5001 
10143000    263.55104   -3878.9368   -3427.2194   -3878.9368            0    6905.1396    16.936791    19.949303    20.662846    6981.5043    6065.1413     8359.854    6290.4235    904.13493    495.75136   -195.72319   -2724.1513 
10144000    267.48557   -3858.6412   -3400.1801   -3858.6412            0    8672.4691    16.827986    19.821145    20.530104    6847.8154    7965.8622    10881.661    7169.8843   -96.326291    1256.6964    462.55062   -2534.0748 
10145000    271.89091   -3818.0738   -3352.0621   -3818.0738            0    10539.688    16.854723    19.852637    20.562722    6880.5068    12240.488    10993.136     8385.441    257.03553   -960.97461   -314.38867   -2294.4557 
10146000    276.32991    -3889.011    -3415.391    -3889.011            0    8485.5433    16.852691    19.850243    20.560243    6878.0184    8426.0519    8373.6212    8656.9569    -101.9399   -321.60394     392.1685    -2564.216 
10147000    260.38772   -3868.5428   -3422.2472   -3868.5428            0    9193.1943    16.905414    19.912345    20.624566    6942.7743    9361.3126    9255.2191    8963.0512    93.369101    1132.4356    2150.9285   -2491.4064 
10148000    260.59236   -3881.7328   -3435.0865   -3881.7328            0    9240.7194    16.925389    19.935873    20.648935    6967.4134     9728.431    7373.1436    10620.584    1135.3032     400.2065    -434.5277   -2496.1131 
10149000    280.45323   -3824.5289   -3343.8416   -3824.5289            0    8849.8179    16.910073    19.917832     20.63025    6948.5156    10314.185    8208.2079    8027.0606    1167.4799    1044.4437    1264.9519   -2447.0279 
10150000    266.71818   -3852.2905   -3395.1446   -3852.2905            0    10479.317    16.867816    19.868059    20.578696    6896.5539    13607.878    10742.412    7087.6611     332.2561    1052.1972   -212.29484   -2341.1437 
10151000    253.52406   -3822.1738   -3387.6423   -3822.1738            0    6840.4104    16.966345    19.984113    20.698901    7018.1147    6822.6736    6311.6129    7386.9445   -83.258407    -1814.029   -44.133882   -2687.5126 
10152000    262.88007   -3870.6953   -3420.1279   -3870.6953            0    9472.8899    16.892549    19.897191     20.60887    6926.9353    10587.202    6582.1328    11249.335    868.23534   -259.82281    1332.3998   -2463.1553 
10153000    263.61607   -3859.1251   -3407.2961   -3859.1251            0    8915.5795    16.949625    19.964419    20.678503    6997.3864    11146.666    6949.1204     8650.952    500.70362   -535.91619    622.83314   -2497.4639 
10154000    254.75013    -3866.586    -3429.953    -3866.586            0     7935.909    16.930149    19.941479    20.654742    6973.2934    7514.4069    9209.3351     7083.985   -665.67451    259.27821    642.16297   -2622.8843 
10155000    273.03489   -3867.6432   -3399.6708   -3867.6432            0    10508.618    16.846152    19.842542    20.552266    6870.0155    8295.7146     13292.65    9937.4893    996.47418   -2231.9555    587.70413     -2346.79 
10156000    243.46944   -3841.8259   -3424.5276   -3841.8259            0    12252.649    16.798855    19.786832    20.494564    6812.3137    12450.683    11616.437    12690.828    2223.5741    809.72881    2309.9087   -2207.2195 
10157000    263.30378   -3851.6275   -3400.3339   -3851.6275            0    9685.7465    16.914604     19.92317    20.635778    6954.1029    8911.7958    10791.505    9353.9383    1539.3391    410.37142   -371.23323   -2418.0204 
10158000    275.25516   -3863.9567   -3392.1787   -3863.9567            0    12644.573    16.856366    19.854572    20.564727    6882.5191    12209.904    14076.977    11646.837   -1949.5138    44.778607   -414.76758   -2122.9863 
10159000    255.85457   -3855.2797   -3416.7538   -3855.2797            0    9628.7932    16.940998    19.954258    20.667978    6986.7079    10947.585    9270.4517    8668.3426    -544.1481   -1093.4635    353.73429   -2435.6378 
10160000    272.41967   -3845.3657   -3378.4477   -3845.3657            0    9588.8218    16.925126    19.935562    20.648614     6967.088    10771.206    8332.8129    9662.4466   -619.51295   -971.76661    327.75998   -2404.1483 
10161000    254.99364   -3888.6944    -3451.644   -3888.6944            0    8344.0467    16.948172    19.962708     20.67673    6995.5875    7762.9465    8895.3092    8373.8846    194.62787    1768.8309    436.33914   -2600.3554 
10162000    257.05673   -3877.1928   -3436.6064   -3877.1928            0    8429.4401    16.992052    20.014393    20.730264    7050.0643    10338.007    8139.2844    6811.0292     196.2427   -72.289674    1623.9223   -2569.9085 
10163000    263.75905   -3841.4004   -3389.3264   -3841.4004            0    12087.713    16.855803    19.853909     20.56404    6881.8295    9807.8948    12613.245    13841.999    848.53791    647.33622    148.43045   -2176.1501 
10164000    272.73876   -3884.4242   -3416.9593   -3884.4242            0    8771.0625    16.933384     19.94529    20.658689    6977.2919     10013.55    9188.1351    7111.5028   -48.524264    825.88574    76.483188   -2524.4454 
10165000     263.1396   -3859.3006   -3408.2883   -3859.3006            0    9328.7411    16.888243     19.89212    20.603617    6921.6399    8653.8885    9276.2624    10056.072   -623.97248   -944.18418    419.11169   -2466.5984 
10166000    269.66523   -3843.2873   -3381.0903   -3843.2873            0    8816.9516    16.926048    19.936649    20.649739    6968.2271     8870.802    7005.4481    10574.605   -555.10212    595.64677   -227.65424   -2485.0725 
10167000    255.10028   -3857.2643   -3420.0312   -3857.2643            0     9053.563    16.901971    19.908289    20.620365    6938.5326    10143.937    8906.4011    8110.3514    842.09277   -1641.6706    165.85375   -2503.8886 
10168000    282.48905   -3858.1224   -3373.9458   -3858.1224            0    8163.9012    16.969273    19.987563    20.702474    7021.7495    7576.3509    9840.2198    7075.1329    1589.8154    27.911595    130.14468   -2537.9214 
10169000    282.79044   -3862.2994   -3377.6063   -3862.2994            0    8373.6942     16.95454    19.970209    20.684499    7003.4758    9333.5789    8790.0804    6997.4232    -185.8193     951.4479    331.85634   -2522.3296 
10170000     267.2106   -3850.2902   -3392.3004   -3850.2902            0    7574.6901    16.934483    19.946584    20.660029    6978.6494    8722.9525    6469.2755    7531.8423    537.11521   -233.61294    586.30545   -2621.3754 
10171000    262.60754   -3863.2488   -3413.1485   -3863.2488            0    9952.3417    16.856629    19.854882    20.565048    6882.8413    8798.1586    12018.795    9040.0717   -1022.4527    165.86103    1644.6434   -2414.1406 
10172000    253.53236   -3848.2054   -3413.6596   -3848.2054            0    9621.6933    16.899197    19.905021     20.61698    6935.1165       6712.9    10424.531    11727.649    907.17226    2466.5195    518.23486   -2440.5065 
10173000    264.68923   -3865.3029   -3411.6346   -3865.3029            0    8659.9815    16.915745    19.924513    20.637169    6955.5095    8877.8113    9354.8911     7747.242   -1530.8024    717.85093    685.26537    -2533.175 
10174000    259.70327   -3874.6219   -3429.4994   -3874.6219            0    11203.712    16.878261    19.880363     20.59144    6909.3743    12451.779    11253.081    9906.2753   -259.07214    250.74203    1658.9379   -2300.5447 
10175000     253.0676   -3843.9886   -3410.2394   -3843.9886            0    10569.725    16.937539    19.950184    20.663758     6982.429    13032.284    9786.9098    8889.9827    3744.9219   -950.11596   -1021.4124   -2333.9078 
10176000     256.0911   -3865.0455   -3426.1141   -3865.0455            0    10486.326    16.906382    19.913485    20.625746    6943.9665    9846.8967    11272.994    10339.087   -99.833501    20.904915    197.78759   -2364.1573 
10177000    260.22352   -3806.6765   -3360.6623   -3806.6765            0    9834.7092    16.940334    19.953476    20.667168    6985.8859    10074.862    11355.708     8073.558    356.88165    150.04137    1527.0462   -2358.6827 
10178000    260.19877   -3831.7458    -3385.774   -3831.7458            0     8626.786    16.969196    19.987472     20.70238    7021.6536    7857.1314    10202.332    7820.8947   -611.45011    288.99137   -2731.2487   -2502.3599 
10179000    269.38315   -3856.3169   -3394.6034   -3856.3169            0    9070.8324    16.884716    19.887965    20.599314    6917.3043    8246.7241    11667.812    7297.9612   -122.48149    639.91251     177.4931   -2479.5216 
10180000    266.50783   -3875.2193   -3418.4339   -3875.2193            0    7781.9627    16.989492    20.011378    20.727141    7046.8787    9588.0513    7693.8204    6064.0165    2009.7223   -716.32779   -164.88307     -2618.67 
10181000    273.96414   -3854.9911    -3385.426   -3854.9911            0    8872.7718    16.912741    19.920975    20.633505    6951.8055    9117.1023    8131.6731    9369.5399    1267.5676    1831.2777    2027.5238   -2485.8604 
10182000    272.04217   -3810.6784   -3344.4075   -3810.6784            0    10856.514     16.94073    19.953942    20.667651    6986.3758    11438.361    10900.531    10230.651   -928.16795   -1214.3042   -792.73923   -2238.2467 
10183000    268.83808   -3866.6482   -3405.8689   -3866.6482            0    8968.8395    16.934959    19.947144     20.66061     6979.238    9320.5687    11450.485     6135.465    383.06368   -386.08189    879.54835   -2492.9753 
10184000    275.91294   -3890.3213    -3417.416   -3890.3213            0    8513.7697    16.926949     19.93771    20.650838      6969.34    10814.154    8287.4277    6439.7275    443.22447    993.85483    384.86385   -2552.0707 
10185000    277.95049    -3853.527   -3377.1294    -3853.527            0    12141.646    16.880293    19.882756    20.593918    6911.8699    11643.543     13958.33    10823.065   -336.40655   -482.91284    -1279.439   -2153.2207 
10186000    281.83327   -3852.0117   -3368.9591   -3852.0117            0    8287.5777    16.950812    19.965817    20.679951    6998.8565    6995.2699     8809.134    9058.3291   -663.62099   -15.625422   -524.25315   -2523.0366 
10187000    264.04474   -3863.3174   -3410.7538   -3863.3174            0    7460.2819    17.001032     20.02497    20.741219    7061.2473    6637.0289    9721.2894    6022.5275    1029.5933    1140.2506    913.38332   -2642.4861 
10188000    270.11363   -3823.2883   -3360.3228   -3823.2883            0    9558.6319    16.999921    20.023662    20.739864    7059.8636    9545.4096    8302.4929    10827.993    415.39327    1044.4625    1375.6252   -2376.1577 
10189000    264.76287   -3884.0183   -3430.2238   -3884.0183            0    7176.7332    16.993206    20.015752    20.731672    7051.5011     7476.127    5803.3103    8250.7623    421.79907   -768.71614    1244.3505   -2692.1764 
10190000    276.37571   -3817.8642   -3344.1657   -3817.8642            0    11271.116    16.954005    19.969578    20.683846    7002.8121    11503.416     11088.45    11221.483   -659.61122   -838.96743    1346.1639   -2193.0597 
10191000    265.35414   -3790.6327   -3335.8248   -3790.6327            0    9540.4195    16.881635    19.884337    20.595556    6913.5187    9448.7724    9913.7496    9258.7364    1132.9215     2093.857    340.24358   -2373.8969 
10192000    266.66078    -3821.447   -3364.3996    -3821.447            0    9678.8027    16.948937    19.963609    20.677664    6996.5351    10566.855     9705.242    8764.3112    1307.7451     151.8539    1385.5491   -2376.8008 
10193000    271.07644    -3850.558   -3385.9423    -3850.558            0    9662.6233    16.974375    19.993571    20.708697    7028.0839    9547.0089    8103.8731    11336.988   -1379.0605    1241.0235    599.25059   -2395.5486 
10194000    282.26596   -3852.5143   -3368.7201   -3852.5143            0    9569.8439    16.942648    19.956201     20.66999    6988.7487    8571.9589    9742.7982    10394.775    870.86803    284.57765    1289.1021   -2393.3259 
10195000    257.58126   -3845.8225   -3404.3371   -3845.8225            0    8554.6283    16.938351     19.95114    20.664749    6983.4333    8954.7758    7429.1226    9279.9865    596.04995    260.15094    2.6568501   -2533.0806 
10196000    258.69609     -3840.41   -3397.0137     -3840.41            0    9408.8234    16.942099    19.955555    20.669321    6988.0697    11996.753    7371.8979    8857.8189    878.96915   -1014.3832   -58.862471   -2438.1245 
10197000    268.77601   -3851.6862   -3391.0133   -3851.6862            0    7901.9744    16.915463    19.924181    20.636825    6955.1621    8346.0845    6124.3616    9235.4772     747.0642   -1284.2302   -34.704003   -2589.4852 
10198000    277.28568    -3858.795   -3383.5368    -3858.795            0    8153.0255    16.841073    19.836559    20.546069    6863.8036    10143.562    6178.5231    8136.9916    1180.8745    172.17726   -613.19042   -2567.4065 
10199000    277.55506   -3853.7895   -3378.0696   -3853.7895            0      9398.19    16.871479    19.872374    20.583165     6901.048    10304.914     9793.252    8096.4045    1783.6667     1574.998    189.64224   -2432.1915 
10200000    267.99506   -3869.6605   -3410.3261   -3869.6605            0    9772.4525     16.90646    19.913576    20.625841    6944.0622     9489.605    8719.1441    11108.608    108.16993    363.30532   -216.48945   -2420.6501 
10201000    263.09816   -3853.7297   -3402.7885   -3853.7297            0     7614.318    16.903725    19.910355    20.622505    6940.6927    7846.1182     8174.619    6822.2166   -534.25161   -1971.7523   -417.21307   -2632.0452 
10202000    259.73045   -3835.8879   -3390.7188   -3835.8879            0    7190.0766    16.942244    19.955725    20.669498     6988.249    6975.7283    6043.9379    8550.5635    1194.5359   -174.50041    301.70471   -2657.9318 
10203000    263.64125   -3902.2039   -3450.3318   -3902.2039            0    8430.6896    16.878718    19.880901    20.591997    6909.9355    6797.1074    8570.7533     9924.208    16.195426    1570.7265   -220.42145   -2600.7348 
10204000    252.06022   -3870.3859   -3438.3634   -3870.3859            0    8805.3299    16.942961    19.956571    20.670373    6989.1371    8769.0663    7611.2411    10035.682    1546.1072    15.613801   -1022.0872   -2540.8414 
10205000    258.86277   -3893.4859   -3449.8039   -3893.4859            0     11582.49    16.820315    19.812109    20.520745    6838.4547    11589.973    12235.598      10921.9    779.60017    233.35294     2344.511   -2294.6608 
10206000    266.78017   -3895.9102   -3438.6582   -3895.9102            0    9609.3289     16.88733    19.891045    20.602504    6920.5178    8711.0936     9146.563     10970.33      1233.72    311.77999   -566.25802   -2468.8015 
10207000    248.61049   -3811.7538   -3385.6439   -3811.7538            0     12006.24    16.863784     19.86331    20.573777    6891.6101    9918.1365    12634.952    13465.633     737.7959   -1291.0432   -83.548705    -2178.932 
10208000    264.85588   -3826.2792   -3372.3253   -3826.2792            0    8891.1114    16.960875    19.977671    20.692228    7011.3295    9514.6149    7930.9817    9227.7376    352.60103    167.99826   -398.54537   -2463.1821 
10209000    258.86328   -3851.6135   -3407.9307   -3851.6135            0    9836.2844    16.919777    19.929262    20.642088    6960.4846    10226.023    9381.3118    9901.5182    332.75789   -747.44509   -1835.7498   -2409.4344 
10210000    270.63035   -3856.1499   -3392.2987   -3856.1499            0    9752.1382    16.924163    19.934429    20.647439    6965.8993    10195.188    9882.1025    9179.1237    715.23178   -71.665134    387.89396   -2401.5742 
10211000    286.87536   -3913.7649   -3422.0703   -3913.7649            0    9212.1499    16.881783    19.884511    20.595736    6913.7004    10389.501    8170.3303    9076.6188    297.55226    1288.1533     361.2076   -2493.2164 
10212000    273.39978   -3848.6902   -3380.0924   -3848.6902            0    9647.3485    16.891663    19.896148    20.607789    6925.8456    10207.832    9273.1358    9461.0773   -78.460745   -88.132218   -394.40074   -2405.6489 
10213000    261.09199   -3814.4523   -3366.9496   -3814.4523            0    8667.7354    16.962908    19.980065    20.694708    7013.8507    8544.2119    7546.3374    9912.6571    1337.7231    874.99318    40.560176   -2480.3285 
10214000    260.28233   -3823.4575   -3377.3425   -3823.4575            0    9517.6641    16.919846    19.929344    20.642173    6960.5701    8098.5313    9571.8449    10882.616   -501.81382   -829.72983    927.11926   -2411.1781 
10215000    248.33482   -3861.1036   -3435.4663   -3861.1036            0    9523.2194    16.910257    19.918049    20.630474     6948.742    9719.3052    9620.3721    9229.9807   -593.15431   -825.25239    772.02792   -2470.3806 
10216000    277.54321   -3886.6372   -3410.9377   -3886.6372            0    8726.8493    16.936673    19.949163    20.662701    6981.3574     7831.564    8655.8388    9693.1451   -2987.0518    1274.9818    437.80673   -2522.4053 
10217000    260.57074   -3855.9507   -3409.3413   -3855.9507            0     9550.941     16.91569    19.924448    20.637102    6955.4416    10066.464    10802.416    7783.9435     -997.339    728.29984    444.44584   -2440.5131 
10218000    264.94857   -3831.7523   -3377.6395   -3831.7523            0    9367.4269    16.926467    19.937143     20.65025    6968.7448    11711.018    7255.4581    9135.8049   -1172.1531   -96.085798    333.64903   -2425.6092 
10219000    271.63683   -3823.0522    -3357.476   -3823.0522            0    9827.0098    16.916284    19.925148    20.637827    6956.1746    10018.489    9727.4641    9735.0765    37.458371    498.17716   -1113.2211   -2360.5389 
10220000    262.57542   -3850.6414   -3400.5961   -3850.6414            0    10233.489    16.874078    19.875435    20.586336    6904.2384     11240.49    7910.0461     11549.93    -255.1191     568.5271    887.09439   -2370.1735 
10221000    255.11195   -3842.5733   -3405.3201   -3842.5733            0    7891.6916    16.952859    19.968229    20.682448    7001.3926    6148.7309    9874.1551    7652.1889    172.94113    1338.9354    956.15987   -2599.5143 
10222000    259.38888   -3863.1949   -3418.6112   -3863.1949            0    9623.1774    16.888252    19.892131    20.603629    6921.6515    8089.4799    9735.9936    11044.059    1161.1603    47.294498   -915.98742   -2447.1978 
10223000    263.78248   -3873.2378   -3421.1237   -3873.2378            0     8969.015    16.877719    19.879724    20.590778    6908.7082    10319.262     8265.507    8322.2755    342.72247   -640.42739    871.92335   -2517.4378 
10224000     268.6757   -3858.9693   -3398.4683   -3858.9693            0    7866.8427    16.949773    19.964593    20.678683    6997.5697    8558.8598    7086.4148    7955.2534    220.77368    454.17792   -919.87465   -2595.6384 
10225000    256.32618   -3856.1189   -3416.7846   -3856.1189            0    9788.1817    16.870614    19.871355     20.58211    6899.9873    9094.0266    10166.914    10103.604    54.593917   -497.36344   -537.62928   -2431.8073 
10226000    272.71385   -3839.0943   -3371.6721   -3839.0943            0    9367.6548    16.877643    19.879634    20.590685    6908.6143    9561.6875    9732.4815    8808.7953    1152.1392    646.68423    292.35377   -2427.8335 
10227000    278.07216   -3814.7171   -3338.1109   -3814.7171            0    9885.0301    16.958088    19.974388    20.688828    7007.8733     10492.57    9460.8401    9701.6802    590.83573    86.738831   -498.78226   -2327.8347 
10228000    264.11985   -3838.2433   -3385.5509   -3838.2433            0    9786.6185    16.945723    19.959823    20.673742    6992.5545    9961.8025    9172.8783    10225.175   -487.09489    702.66319   -846.06923    -2387.519 
10229000    262.95246   -3842.5604   -3391.8689   -3842.5604            0    10773.158    16.972426    19.991276     20.70632    7025.6635    8373.5475     12132.21    11813.716    885.46624    1134.1189   -245.36992   -2288.0285 
10230000     268.8768   -3812.8893   -3352.0437   -3812.8893            0    10709.272    16.960486    19.977212    20.691753    7010.8468    8665.2561     12632.67     10829.89   -1750.3896   -504.91295    816.62754   -2257.0633 
10231000    265.91048   -3833.6188   -3377.8573   -3833.6188            0    8523.6646    16.886026    19.889509    20.600913    6918.9147     8369.779    8830.5402    8370.6747   -305.51501    251.98354    896.94428   -2517.7746 
10232000    273.70208   -3850.5525   -3381.4365   -3850.5525            0    11603.764     16.82225    19.814388    20.523106    6840.8149    11369.652    12352.386    11089.254    -964.3124    427.70129   -594.98961   -2223.7722 
10233000    258.33447   -3853.1457   -3410.3693   -3853.1457            0    8707.9235    16.923462    19.933603    20.646584    6965.0335    9424.9746    9300.4818     7398.314    1840.7761   -179.96681   -422.02212    -2525.837 
10234000    262.57673   -3825.3627   -3375.3151   -3825.3627            0    10766.623    16.921321    19.931081    20.643972    6962.3901    11663.082     10991.41     9645.377   -187.92841    177.09374   -220.75961   -2282.0796 
10235000    262.23187   -3870.3274    -3420.871   -3870.3274            0    9927.3292    16.892122    19.896689     20.60835    6926.4107    9283.1499     8524.937    11973.901    1091.3929   -269.35846    1069.4204   -2418.0658 
10236000     265.2583   -3860.7081   -3406.0644   -3860.7081            0    10156.424    16.913563    19.921943    20.634507    6952.8186    9434.2302    10066.589    10968.453    470.32068   -1046.8789   -489.29798   -2376.2058 
10237000    265.54815   -3866.5285   -3411.3881   -3866.5285            0     8857.039    17.023614    20.051568    20.768769    7089.4224    8351.5462    7966.9007     10252.67   -761.54486   -613.50982   -1067.0499   -2495.6415 
10238000    272.39158   -3849.4135   -3382.5437   -3849.4135            0    10344.355     16.90222    19.908583     20.62067    6938.8401    10674.594    11261.898    9096.5721    227.80412   -116.64426    887.81437   -2335.7378 
10239000     261.7285   -3865.0383   -3416.4446   -3865.0383            0    7249.9106    16.988515    20.010226    20.725948    7045.6622    7351.4219    5711.7958     8686.514   -572.04314    749.23362   -1137.0145    -2671.489 
10240000    273.94274   -3835.3697   -3365.8413   -3835.3697            0    11396.511    16.885494    19.888881    20.600263    6918.2597     9540.768    12488.858    12159.906   -878.63356    547.83313    1064.4288   -2215.9821 
10241000    264.44959   -3891.0731   -3437.8155   -3891.0731            0    9170.7996    16.980355    20.000615    20.715994     7035.515    8735.0116    7830.3431    10947.044   -939.14551   -167.68928    66.918388   -2496.8385 
10242000    263.40763   -3835.1489   -3383.6772   -3835.1489            0    8113.1862    16.997744    20.021098    20.737208     7057.152    8111.5554    6400.4264    9827.5768   -672.06716    458.13987   -1607.1092   -2548.6574 
10243000    273.98509   -3810.4209   -3340.8199   -3810.4209            0    9421.5274    16.957499    19.973694    20.688109     7007.143    8979.4937    11533.288    7751.8004    812.03063    920.97377    1421.9016   -2378.0152 
10244000    268.78798   -3810.7394    -3350.046   -3810.7394            0    8336.1632     16.92386    19.934072     20.64707    6965.5257    8466.2755    7826.2691    8715.9451   -1458.2522    -498.2673    477.41454   -2503.2165 
10245000    273.57118     -3824.19   -3355.2984     -3824.19            0    8027.3978    16.941184    19.954478    20.668206    6986.9383    6021.9657     9375.373    8684.8547   -246.58083    574.80751   -978.49973    -2537.328 
10246000    260.29589   -3820.1534   -3374.0151   -3820.1534            0    9284.4614     16.88374    19.886816    20.598124    6916.1051    8519.9987     8632.386    10700.999    1599.5554    840.35354    2908.6054   -2437.5444 
10247000    263.56244   -3840.8791   -3389.1421   -3840.8791            0     11999.35    16.799139    19.787166     20.49491    6812.6588    12752.626    12957.939    10287.485    1380.2762   -2115.1456    590.99161    -2196.939 
10248000    276.83169   -3833.9477   -3359.4677   -3833.9477            0    8185.0845    16.978956    19.998968    20.714287    7033.7765    8728.3892    8411.0136    7415.8509    495.21071   -1362.9377    -393.0152   -2519.8383 
10249000    256.03837   -3862.4732   -3423.6322   -3862.4732            0    5935.5601     16.99023    20.012247    20.728041    7047.7967         6141    4930.6798    6735.0006    407.45025    907.33396    512.89312   -2813.5463 
10250000    266.52365   -3811.0781   -3354.2657   -3811.0781            0    9370.9165    16.966765    19.984608    20.699414    7018.6365     11304.01    7537.4323    9271.3069   -393.69373   -249.99731   -1274.1974   -2395.0623 
Loop time of 617.356 on 64 procs for 250000 steps with 864 atoms

Performance: 69.976 ns/day, 0.343 hours/ns, 404.953 timesteps/s
99.0% CPU use with 64 MPI tasks x 1 OpenMP threads

MPI task timing breakdown:
Section |  min time  |  avg time  |  max time  |%varavg| %total
---------------------------------------------------------------
Pair    | 22.159     | 27.332     | 31.822     |  46.9 |  4.43
Bond    | 0.28038    | 0.29886    | 0.31707    |   1.2 |  0.05
Kspace  | 263.82     | 276.04     | 291.68     |  36.4 | 44.71
Neigh   | 6.8381     | 8.0628     | 10.423     |  29.2 |  1.31
Comm    | 128.67     | 148.79     | 159.85     |  57.3 | 24.10
Output  | 1.3094     | 1.3127     | 1.314      |   0.1 |  0.21
Modify  | 147.66     | 149.79     | 152.25     |   9.6 | 24.26
Other   |            | 5.721      |            |       |  0.93

Nlocal:        13.5000 ave          19 max           9 min
Histogram: 1 5 6 9 13 8 10 7 3 2
Nghost:        2260.12 ave        2299 max        2220 min
Histogram: 4 2 6 11 7 8 10 10 5 1
Neighs:        4392.34 ave        6723 max        2459 min
Histogram: 1 6 6 12 15 9 7 6 1 1

Total # of neighbors = 281110
Ave neighs/atom = 325.35880
Ave special neighs/atom = 2.0000000
Neighbor list builds = 14513
Dangerous builds = 1

unfix		3
unfix		2
unfix		1

write_data	data.final.${pid}
write_data	data.final.0
System init for write_data ...
PPPM initialization ...
  extracting TIP4P info from pair style
  using 12-bit tables for long-range coulomb (../kspace.cpp:340)
  G vector (1/distance) = 0.37430154
  grid = 24 24 24
  stencil order = 5
  estimated absolute RMS force accuracy = 0.0031564493
  estimated relative force accuracy = 9.5055532e-06
  using double precision FFTW3
  3d grid and FFT values/proc = 2535 216
Last active /omp style is kspace_style pppm/tip4p/omp
WARNING: Not all mixed pair coeffs generated from mixing. Use write_data with 'pair ij' option to store all pair coeffs. (../write_data.cpp:312)

write_restart   restart.lmp.${pid}
write_restart   restart.lmp.0
System init for write_restart ...
PPPM initialization ...
  extracting TIP4P info from pair style
  using 12-bit tables for long-range coulomb (../kspace.cpp:340)
  G vector (1/distance) = 0.37430154
  grid = 24 24 24
  stencil order = 5
  estimated absolute RMS force accuracy = 0.0031564493
  estimated relative force accuracy = 9.5055532e-06
  using double precision FFTW3
  3d grid and FFT values/proc = 2535 216
Last active /omp style is kspace_style pppm/tip4p/omp
Total wall time: 0:10:20
