#include		in.partitions
include		in.temp
variable        temperature equal 259.72
variable	tempDamp equal 100.0
include		in.pressure
variable        pressure equal 8750.0
variable        pressureDamp equal 1000.0 # This is 1 ps
include		in.seed
variable        seed equal 745823

units		real
atom_style	full

read_restart	restart.lmp.${pid}
read_restart	restart.lmp.0
Reading restart file ...
  restart file = 30 Jul 2021, LAMMPS = 30 Jul 2021
  restoring atom style full from restart
  orthogonal box = (0.014408984 0.11649051 0.15775763) to (19.985592 19.883510 20.542240)
  4 by 2 by 4 MPI processor grid
  restoring pair style lj/cut/tip4p/long/omp from restart
  restoring bond style harmonic/omp from restart
  restoring angle style harmonic/omp from restart
  972 atoms
  648 bonds
  324 angles
Finding 1-2 1-3 1-4 neighbors ...
  special bond factors lj:    0        0        0       
  special bond factors coul:  0        0        0       
     2 = max # of 1-2 neighbors
     1 = max # of 1-3 neighbors
     1 = max # of 1-4 neighbors
     2 = max # of special neighbors
  special bonds CPU = 0.002 seconds
  read_restart CPU = 0.008 seconds
include 	in.setup
variable	out_freq equal 1000
variable	out_freq2 equal 10000
variable	out_freq3 equal 1000

timestep	2.0

neigh_modify    delay 7 every 1

include		in.tip4p
# This is TIP4P/Ice

# create groups ###
group ox type 2
324 atoms in group ox
group hy type 1
648 atoms in group hy

# set charges - beside manually ###
set group ox charge -1.1794
Setting atom values ...
  324 settings made for charge
set group hy charge 0.5897
Setting atom values ...
  648 settings made for charge

# ### TIP3P Potential Parameters ###
pair_style lj/cut/tip4p/long/omp 2 1 1 1 0.1577 8.5
pair_coeff 1 1*2 0.000 0.000
pair_coeff 2 2 0.21084 3.1668
bond_style  harmonic
bond_coeff  1 450 0.9572
angle_style harmonic
angle_coeff 1 55 104.52
kspace_style pppm/tip4p/omp 1.0e-5
pair_modify tail yes

thermo          ${out_freq}
thermo          1000
thermo_style    custom step temp pe etotal epair emol press lx ly lz vol pxx pyy pzz pxy pxz pyz enthalpy

restart 	${out_freq3} restart.lmp.${pid} restart2.lmp.${pid}
restart 	1000 restart.lmp.${pid} restart2.lmp.${pid}
restart 	1000 restart.lmp.0 restart2.lmp.${pid}
restart 	1000 restart.lmp.0 restart2.lmp.0


include         in.dump
dump            myDump all atom ${out_freq2} dump.water.${pid}
dump            myDump all atom 10000 dump.water.${pid}
dump            myDump all atom 10000 dump.water.0
dump            myDump2 all dcd ${out_freq2} dump.dcd
dump            myDump2 all dcd 10000 dump.dcd
dump_modify     myDump append yes
dump_modify     myDump2 append yes


variable natoms 	equal  "count(all)"                        # NUMBER ATOMS
variable H      	equal  "enthalpy/v_natoms"                 # ENTHALPY-per-atom
variable Vol      	equal  "vol/v_natoms"                 # volume-per-atom
fix AVG all 		ave/time ${out_freq} 1 ${out_freq} v_Vol v_H file vol_enthalpy.dat
fix AVG all 		ave/time 1000 1 ${out_freq} v_Vol v_H file vol_enthalpy.dat
fix AVG all 		ave/time 1000 1 1000 v_Vol v_H file vol_enthalpy.dat


timer           timeout 02:55:00 every 1000
New timer settings: style=normal  mode=nosync  timeout=02:55:00

fix 		1 all shake 1e-6 200 0 b 1 a 1
       0 = # of size 2 clusters
       0 = # of size 3 clusters
       0 = # of size 4 clusters
     324 = # of frozen angles
  find clusters CPU = 0.000 seconds
fix             2 all nph aniso ${pressure} ${pressure} ${pressureDamp}
fix             2 all nph aniso 8750 ${pressure} ${pressureDamp}
fix             2 all nph aniso 8750 8750 ${pressureDamp}
fix             2 all nph aniso 8750 8750 1000
fix             3 all temp/csvr ${temperature} ${temperature} ${tempDamp} ${seed}
fix             3 all temp/csvr 259.72 ${temperature} ${tempDamp} ${seed}
fix             3 all temp/csvr 259.72 259.72 ${tempDamp} ${seed}
fix             3 all temp/csvr 259.72 259.72 100 ${seed}
fix             3 all temp/csvr 259.72 259.72 100 745823


run             250000
PPPM initialization ...
  extracting TIP4P info from pair style
  using 12-bit tables for long-range coulomb (../kspace.cpp:340)
  G vector (1/distance) = 0.37215625
  grid = 24 24 24
  stencil order = 5
  estimated absolute RMS force accuracy = 0.0035115457
  estimated relative force accuracy = 1.0574916e-05
  using double precision FFTW3
  3d grid and FFT values/proc = 3211 432
Last active /omp style is kspace_style pppm/tip4p/omp
Neighbor list info ...
  update every 1 steps, delay 7 steps, check yes
  max neighbors/atom: 2000, page size: 100000
  master list distance cutoff = 10.8154
  ghost atom cutoff = 10.8154
  binsize = 5.4077, bins = 4 4 4
  1 neighbor lists, perpetual/occasional/extra = 1 0 0
  (1) pair lj/cut/tip4p/long/omp, perpetual
      attributes: half, newton on, omp
      pair build: half/bin/newton/omp
      stencil: half/bin/3d
      bin: standard
Per MPI rank memory allocation (min/avg/max) = 10.18 | 10.19 | 10.19 Mbytes
Step Temp PotEng TotEng E_pair E_mol Press Lx Ly Lz Volume Pxx Pyy Pzz Pxy Pxz Pyz Enthalpy 
27000000    274.63626   -4685.7569   -4156.0977   -4685.7569            0    9326.4498    19.971183     19.76702    20.384483     8047.198     9132.893    10851.506    7994.9499    685.89042    446.67471   -668.30593   -3061.5444 
27001000    264.01128   -4720.3652   -4211.1973   -4720.3652            0    7491.9771    19.866065    19.954183    20.378063    8078.0904    6925.8149    6614.8503     8935.266    113.87243    177.13453    967.52152   -3328.5625 
27002000    243.38762   -4660.7049   -4191.3114   -4660.7049            0    9837.6628    19.939214    19.769799    20.454182     8062.921     10352.33    8875.7533    10284.905   -254.70518   -663.62486   -805.95586   -3034.5062 
27003000    257.71081   -4705.5732   -4208.5562   -4705.5732            0    8246.3976    19.935672    19.685532    20.578269    8075.8244    8946.7661    7840.7938    7951.6328   -264.19545    528.54856   -207.67413   -3237.3152 
27004000    247.03327   -4729.8119   -4253.3875   -4729.8119            0    6687.3928    19.732663    19.996706    20.711621    8172.5625    7447.4701    7667.4306    4947.2777     284.9951   -400.24665   -483.36367   -3456.3276 
27005000    245.78928   -4674.8054   -4200.7802   -4674.8054            0    8505.1996    19.862178    19.794995    20.564925    8085.5468    8737.0968    8102.9948    8675.5072    434.21237   -844.65063    1172.4039   -3197.8521 
27006000    267.49266   -4699.7005   -4183.8184   -4699.7005            0    9047.2429    19.931361    19.843324    20.434259    8081.8404    7606.6021    9920.3184    9614.8083   -14.762587   -186.49213   -1194.4135   -3117.4619 
27007000    268.39298   -4707.6896   -4190.0712   -4707.6896            0    9625.7724    19.931602    19.767656     20.31613    8004.5763    11266.957    7701.2666     9909.094    523.47741    282.93289   -1180.4182   -3066.3726 
27008000    280.17357   -4727.5266   -4187.1884   -4727.5266            0    8918.1495    19.713706    20.020369    20.380975    8043.8753    10644.996    7675.2344    8434.2184   -330.70034    266.68411   -519.31172   -3140.9853 
27009000    270.70948   -4680.4569   -4158.3709   -4680.4569            0    9601.0498    20.261543    19.544593    20.393474    8075.8894    9241.0168    10332.198    9229.9343    699.10333   -267.63037   -414.33744    -3027.573 
27010000    276.37865   -4701.2082   -4168.1888   -4701.2082            0    10314.978     19.74077    19.891133    20.437538    8025.1321    10365.323    11206.416    9373.1933    471.31924    500.47196   -609.36864   -2960.9411 
27011000    255.03698   -4705.5357   -4213.6754   -4705.5357            0    8372.3242    20.172589    19.702059    20.531508    8160.0742    7070.9268    8628.8599    9417.1859   -424.36494   -122.30695   -8.7867781    -3217.316 
27012000    261.40275   -4650.8125   -4146.6753   -4650.8125            0    8948.4465    19.651666    19.957508    20.552743     8060.751    10844.507    6863.0777    9137.7543   -16.714358    1718.1565    1217.5438   -3094.7158 
27013000    269.84653   -4685.0153   -4164.5935   -4685.0153            0    7349.4933    19.931331    19.978214    20.411468    8127.6911    8439.9647    6282.8794    7325.6357    1000.2961    944.08681     47.96456   -3293.4284 
27014000    255.04278   -4709.2557   -4217.3842   -4709.2557            0    8421.8946    19.783585     20.07154    20.474713    8130.2427    7371.9333    9236.2891    8657.4614     964.9803     849.8669   -148.49269   -3218.7897 
27015000    265.77077   -4719.5125   -4206.9512   -4719.5125            0    8449.8408    19.916778    19.823045    20.529236    8105.1717    9339.0033    8084.4696    7926.0494    1043.8495   -628.83719    820.59302   -3208.1326 
27016000    264.48879   -4709.7716   -4199.6827   -4709.7716            0    9327.3457    19.764654    19.798484     20.62564    8071.0229    9099.6472    10019.207    8863.1829   -834.27471   -813.13912    1110.2747   -3101.7834 
27017000    255.18609   -4707.5043   -4215.3565   -4707.5043            0    7521.3661    20.055729    19.954392    20.427629     8175.135    6840.3839    7991.5677    7732.1466   -19.886351   -162.41465   -216.40195   -3318.6144 
27018000    246.06407   -4701.6876   -4227.1323   -4701.6876            0    8628.9512    19.936046    19.880893    20.441672    8101.9834    8325.2467    8689.8627    8871.7443    297.08813   -93.828736    357.19425   -3207.5431 
27019000    262.17919   -4702.8408   -4197.2061   -4702.8408            0    8124.4363    19.899341    19.932399    20.407025     8094.275    9061.6143     6945.477    8366.2175   -500.05234   -956.83112    -1098.328   -3238.1433 
27020000    268.13532   -4719.4188   -4202.2973   -4719.4188            0    9772.2148    19.861985    19.939217    20.263305    8024.9257     10100.82    7939.7012    11276.124   -367.01467   -923.68603   -227.30534   -3058.6031 
27021000    255.95702   -4715.5832   -4221.9485   -4715.5832            0    9905.8059    19.725191    19.752343    20.694621    8063.0125    10515.686    10256.338    8945.3931   -464.71435   -600.35688   -662.02728   -3057.1172 
27022000    267.98064   -4715.1654   -4198.3422   -4715.1654            0    8882.9108    19.822753    19.781755    20.607246    8080.6958    8956.4633    8708.6987    8983.5703   -102.90343    464.72441    -1664.997    -3151.503 
27023000    243.06538   -4699.4077   -4230.6357   -4699.4077            0    9754.7453    19.830649    20.028486    20.376015    8092.9022    8775.0905    10876.437    9612.7084   -236.11744   -1797.6578    515.33493   -3079.3155 
27024000    268.94459   -4663.0005   -4144.3182   -4663.0005            0    8795.9919    19.949805     19.94574    20.275319    8067.8253    6852.8115    9605.4089    9929.7552   -63.264032    979.88415   -737.16276   -3109.3734 
27025000    266.03615   -4679.9789   -4166.9058   -4679.9789            0    8759.8298    20.064068    19.862566    20.375162    8119.9888    6607.3175    10821.171     8851.001     20.41901   -1427.4912   -442.17408   -3129.5518 
27026000    262.13079   -4676.7704   -4171.2291   -4676.7704            0    8772.0176    19.904201    19.834446    20.532565    8106.0265     9919.289    8829.2309     7567.533   -374.52116    599.33547    259.21422    -3134.218 
27027000    273.45264    -4687.995   -4160.6186    -4687.995            0     10280.25    19.858759    19.698122    20.654565     8079.658    9577.3775     11568.73    9694.6415    405.41123    1052.3927   -1427.7823   -2949.2605 
27028000    260.63984   -4710.5414   -4207.8755   -4710.5414            0    8364.9817    20.109501      19.8536    20.239197    8080.4182    6894.1188    9326.5067    8874.3196     852.4413    146.85852    576.63166   -3222.1075 
27029000    265.26351   -4695.7977   -4184.2148   -4695.7977            0    10133.194    19.882059    19.747403    20.426853    8019.9711    10795.424    9040.1188    10564.038   -323.52133     522.5465    572.37281   -2999.0055 
27030000    265.04714   -4688.5632   -4177.3975   -4688.5632            0    8103.1107    19.912901    19.670246    20.820662    8155.2794    9244.8582    6434.8856    8629.5883    286.46642    1495.0333   -993.50207   -3213.6428 
27031000    275.86089   -4715.8028   -4183.7818   -4715.8028            0    7735.9425    19.874805    19.812352     20.72282    8159.9552    6718.5663    9529.8044    6959.4566     187.1137   -194.18801   -879.56566   -3263.1693 
27032000    256.93476   -4679.8139   -4184.2936   -4679.8139            0    7786.8002    19.955049    19.740563    20.604469    8116.5927    7226.1116    8434.6264    7699.6625    54.060361   -1255.2384   -325.18293   -3262.5531 
27033000    264.02984   -4705.0386   -4195.8349   -4705.0386            0    8018.6197     19.82593     20.14984    20.369505    8137.3994    7847.3439     7567.835    8640.6801   -137.18199   -1434.1728    152.63844   -3244.2202 
27034000    259.62595    -4718.017   -4217.3065    -4718.017            0    8668.9118    19.926702      19.7323    20.468745    8048.3033     7221.901    8536.8703    10247.964   -112.90381    2001.5701   -715.78267   -3199.7822 
27035000    254.20741   -4732.4731   -4242.2127   -4732.4731            0    9963.3262    19.802236    19.804115    20.436907     8014.655    10236.456    9849.7043     9803.818   -25.824382    693.48449   -457.61657   -3077.6442 
27036000    256.67527   -4715.2463   -4220.2265   -4715.2463            0    9097.9974     19.98261    19.937364    20.147387    8026.7301    8614.1775    8965.8695     9713.945    -545.1287   -516.69995    753.45419   -3155.2001 
27037000    261.82072   -4705.1451   -4200.2019   -4705.1451            0    9931.3902    19.705124    19.808544    20.575754    8031.3303    10239.404     10868.71    8686.0573   -43.553114    637.95346   -397.62342   -3036.9509 
27038000     258.4386   -4670.2484   -4171.8279   -4670.2484            0    9227.7657    19.669969    19.805737    20.664967    8050.6215    9275.8719    9193.0329    9214.3922   -368.02837   -393.40193   -801.16839   -3088.3954 
27039000    255.28551   -4716.9634   -4224.6238   -4716.9634            0    7521.8087    19.941242    19.818525     20.64114    8157.5025    9003.5808    7035.7624    6526.0829   -1.8162172     332.0536     659.0424   -3329.7632 
27040000    254.53066   -4697.2796   -4206.3958   -4697.2796            0    8758.2559    19.868383    20.062417    20.298873    8091.2887    8684.6263    9505.2716    8084.8698   -213.24039    1124.7935    1269.1869   -3172.8941 
27041000    258.46171   -4691.2256   -4192.7605   -4691.2256            0    7821.7227    20.098141    19.571907    20.562386    8088.3981    7686.3682    8096.5787    7682.2211   -230.48102   -96.655326   -1098.3973   -3270.1023 
27042000    249.48761   -4693.3742   -4212.2163   -4693.3742            0    9118.9306    19.827719    19.667439    20.714257    8077.7413    10878.857     7848.812    8629.1228    220.49877   -407.06103     423.0556   -3137.9555 
27043000    256.41499   -4678.2291   -4183.7112   -4678.2291            0    8796.7914    19.786902    19.902544    20.607606    8115.4748    9933.3509    7354.0413    9102.9819    199.02252    832.98552     1002.456   -3142.5593 
27044000    249.14219   -4711.4212   -4230.9295   -4711.4212            0    9034.4923    20.054725    19.710609    20.367434    8051.0597    8368.0238    9074.2657    9661.1874    476.41771   -813.77277   -331.14796   -3170.1316 
27045000    252.79505   -4722.0284   -4234.4919   -4722.0284            0    10333.003    19.891989    19.893244    20.344722    8050.7361    11907.508    8666.7288    10424.772   -242.92808   -1625.9184   -1022.3492   -3021.2762 
27046000    239.88838   -4679.7349     -4217.09   -4679.7349            0    8273.5424    19.787371    19.829152    20.651625    8103.0114    6919.1227    9968.4178    7933.0868    400.58024    208.27358     2153.465   -3239.3715 
27047000    271.23618   -4730.4762   -4207.3745   -4730.4762            0    6798.7683    20.181147    19.778396    20.447528    8161.6454    5979.0914    6026.4328    8390.7806     932.9409    -308.2526   -538.02708   -3398.1223 
27048000    247.89808   -4702.3022   -4224.2099   -4702.3022            0    9482.2874    19.734542    19.743194    20.564242    8012.2996    10489.441    8464.9096    9492.5118     532.4028    338.24175    629.84811   -3116.1935 
27049000    267.00477   -4694.9225   -4179.9814   -4694.9225            0     11295.57    19.778512    19.988353    20.290586    8021.6776    10823.443    11721.948     11341.32    611.61391    1087.8902   -781.72974   -2858.5359 
27050000    248.25553   -4702.9268   -4224.1451   -4702.9268            0    8878.8059    19.820431     19.87182    20.472209    8063.3485    8507.1398    9897.8841    8231.3937    549.83757   -880.44419    718.71893    -3180.036 
27051000    281.16019   -4676.3144   -4134.0733   -4676.3144            0    8690.0294    19.695542    19.782766    20.735075    8079.0548    9796.8632    9206.9939    7066.2312    345.20377    198.13036    124.42912   -3110.1729 
27052000    245.62744   -4698.8608   -4225.1476   -4698.8608            0    7937.2068    19.739207    19.961067    20.467716    8064.5999    7997.8614    7953.0284    7860.7307   -66.234909     46.65741    257.89504   -3291.6216 
27053000    250.45931   -4727.9818     -4244.95   -4727.9818            0    7902.9613    20.128256    20.002722    20.216418    8139.5321    8543.6564    7247.9974    7917.2302     492.2519    140.05515   -1489.7001   -3306.8153 
27054000    263.38235   -4685.8887   -4177.9336   -4685.8887            0    8394.9011    19.907844    19.841328    20.461398    8082.2126    11001.996    6369.6511    7813.0559   -203.09043   -783.79262   -491.68955   -3188.4201 
27055000    255.54915   -4687.6547   -4194.8066   -4687.6547            0    8853.9219    19.771119    19.891459    20.497149    8061.0452    8218.7056    8162.0521    10181.008    643.65964     311.0494    405.62557   -3153.9212 
27056000    265.97228   -4665.5537   -4152.6037   -4665.5537            0    9678.6126      19.6017    19.958017    20.594673    8056.8639    9661.9634    9758.6574     9615.217   -243.12509    173.81432   -272.10399   -3015.3562 
27057000    255.18107   -4729.4397   -4237.3015   -4729.4397            0    7857.2715    19.885176    19.720905    20.624105    8087.8186    8185.4393    8798.2737    6588.1014   -835.22018    1007.8841   -300.51239   -3310.5164 
27058000    260.36751   -4704.4435   -4202.3028   -4704.4435            0    9104.0735    19.820118    19.908475     20.48382    8082.6761     10039.88    7989.4703    9282.8707    820.15297   -472.94677   -2475.2864    -3129.137 
27059000    254.35742   -4705.1625   -4214.6129   -4705.1625            0    9301.8823    19.852816    19.781378    20.638253    8104.9729    8647.7896    10661.989     8595.868   -80.393386   -490.31244    573.62499   -3115.1051 
27060000    263.30997    -4719.736   -4211.9205    -4719.736            0    9440.0467    20.075917    19.911458     20.27379    8104.2604    8188.4451    9892.7024    10238.993   -398.46161     150.6909    1418.1248   -3096.1795 
27061000    246.87522   -4667.6753   -4191.5556   -4667.6753            0    9703.1676    20.022421    19.708295    20.553649    8110.6298    9372.7401    9992.6137    9744.1491    114.72717   -826.43082    348.63576   -3043.8144 
27062000    258.46826    -4644.679   -4146.2012    -4644.679            0    7563.8636    20.112623    19.859624    20.517204    8195.1688    6693.5411      8175.26    7822.7898    32.693305   -383.60019    -1244.562   -3242.1824 
27063000    276.54937   -4696.5317    -4163.183   -4696.5317            0    9641.7854    19.709735    19.810603    20.549716    8023.8777    9963.5553    9762.2002    9199.6007   -364.38679    216.20378   -260.95255    -3034.901 
27064000    252.12802   -4672.1673   -4185.9172   -4672.1673            0     10046.54    20.021201    19.765538    20.282795    8026.5062    10071.315    10209.065    9859.2417   -451.77112   -271.06927   -382.79133   -3009.8857 
27065000    262.88487   -4711.8698   -4204.8742   -4711.8698            0    10789.007    19.852906    19.917711    20.222276    7996.3818    10053.713    10334.477     11978.83     1000.754   -940.09837   -91.571545   -2946.6707 
27066000    258.97657   -4658.0382   -4158.5801   -4658.0382            0    9249.3234    19.910561     19.69269    20.568422    8064.7241    8797.2339    11628.742    7321.9946    67.131285   -60.886931    406.22169   -3070.7142 
27067000    257.51528   -4714.4937   -4217.8538   -4714.4937            0    8532.4395    20.145274    19.614584    20.428175    8072.0129    6933.1925     9381.113    9283.0128   -942.69962    1074.4641   -1006.7937   -3213.3977 
27068000    265.11902   -4712.1513   -4200.8469   -4712.1513            0    8591.1537    19.759062     19.80761    20.547195     8041.757    10685.488    6362.8932    8725.0801    766.22948    1317.5629    122.14946   -3193.2697 
27069000     247.6356   -4724.6948   -4247.1087   -4724.6948            0    7166.5804    20.035164    19.764539    20.533331    8130.9073    7077.0152    8667.8757    5754.8504    119.76406    41.861746    768.99211   -3397.2889 
27070000    266.12008   -4715.3366   -4202.1017   -4715.3366            0    8279.3667    19.822867     20.00803    20.396635    8089.6419    8397.2855    8507.5035    7933.3111   -640.26913    933.50736    -222.7802   -3225.3092 
27071000    264.65459   -4696.0982   -4185.6896   -4696.0982            0    11379.448    19.747886    19.653999    20.642496    8011.8675    12122.186    11740.978     10275.18    556.63814    930.91496   -306.96891   -2856.0595 
27072000    265.80681   -4651.9148    -4139.284   -4651.9148            0    9852.9892    19.707304    19.925514    20.566153    8075.8792     10515.78    10439.524    8603.6634    57.500331   -911.16605    970.46079   -2978.8146 
27073000    257.00813   -4739.8448   -4244.1831   -4739.8448            0    7588.6814    19.829887    19.909603    20.514738    8099.3246    7223.6654    7674.3178    7868.0609   -213.74778    1069.0136   -10.082796   -3347.8054 
27074000    241.33092   -4689.5693   -4224.1423   -4689.5693            0    9618.7513    19.923581    19.902673    20.265268    8035.8377    9980.8842    8459.2501    10416.119   -213.18699    1505.1974   -970.54635    -3096.878 
27075000    256.47551   -4708.2284   -4213.5938   -4708.2284            0    9405.1288     19.86463    19.891991    20.391847     8057.778     8019.034    10388.908    9807.4448   -132.71817   -460.72464   -444.52164   -3108.3555 
27076000    264.37773   -4711.8535   -4201.9788   -4711.8535            0     8395.331    20.082134    19.514159    20.691771    8108.8146    8168.0146    9861.1508    7156.8277     451.3045   -1309.1086   -822.10133   -3209.1575 
27077000    243.97996   -4715.9935   -4245.4576   -4715.9935            0    6415.3197    19.933699    19.607314    20.840034    8145.2498     6739.126    6779.3699    5727.4633    439.12974   -1076.9773    453.32422   -3483.3811 
27078000    269.51506   -4688.7742   -4168.9918   -4688.7742            0    7143.8437    19.635719    20.003667    20.696616     8129.349    8573.8634    6409.6631    6448.0047    -224.2392    948.84966   -69.780945   -3322.0304 
27079000    261.05221   -4731.9327   -4228.4716   -4731.9327            0    6857.5885    19.931666    19.762566    20.663179    8139.2443    6254.9751    7085.7626    7232.0277    131.71893   -14.766273    608.41737   -3414.4585 
27080000     263.9949   -4698.9245   -4189.7882   -4698.9245            0    8517.2296    19.963224    19.977365    20.385835    8130.1285    8954.6615    6532.1082    10064.919   -938.44987    1774.1121    600.66583   -3179.9038 
27081000    271.76458   -4706.8061   -4182.6853   -4706.8061            0    9276.1311    19.984959    19.735652      20.3006    8006.8857    7981.7737     10032.29      9814.33    112.39061    1356.8429   -1307.8564   -3099.4909 
27082000    254.49382   -4724.6465   -4233.8337   -4724.6465            0    6852.3061    19.770076    19.881053    20.680753    8128.5684    7235.2058     6608.515    6713.1976   -303.45768   -753.48757   -815.98869   -3421.5146 
27083000    264.59376     -4689.61   -4179.3186     -4689.61            0    8252.1305    19.976108    19.724112    20.569088     8104.447    7891.9801    7876.1456    8988.2658   -574.40703    -669.3271    489.32842   -3203.9577 
27084000    278.24763   -4688.4169   -4151.7929   -4688.4169            0    9200.2681    20.176918    19.833599     20.06596    8030.0136    6867.8626    10097.787    10635.155   -540.49367   -1384.4724   -148.20216    -3074.354 
27085000    257.82486   -4711.3237   -4214.0868   -4711.3237            0    8725.1776     19.84203    19.861067    20.333735    8013.1971    8864.0579    8515.7848      8795.69   -133.60516    1400.9542   -1179.0048   -3194.4254 
27086000    262.14641   -4723.7774    -4218.206   -4723.7774            0    8203.2111    19.991609     19.71069    20.656978    8139.8495    8069.3823    10389.444    6150.8066   -31.781902    519.85391   -362.76872   -3244.3917 
27087000    259.31785   -4709.3845   -4209.2683   -4709.3845            0    9475.7569    19.796888    19.682408    20.650446    8046.4551    11918.197    8155.2806    8353.7934    68.467792   -659.04023   -1309.7493   -3097.2949 
27088000    263.51686   -4715.0609   -4206.8465   -4715.0609            0    8214.6667    20.234122    19.642266    20.355763    8090.2765    8472.2876    7544.2886     8627.424    490.27074    1008.8747    928.96005   -3237.6112 
27089000    247.60636   -4737.0453   -4259.5156   -4737.0453            0    7883.2266    19.854023    19.924394    20.500968    8109.7604    7512.2807     8557.667    7579.7322   -314.14761   -943.58862   -751.99219   -3327.1464 
27090000    248.49024   -4713.9886   -4234.7543   -4713.9886            0     7138.331    20.015496    19.680061    20.770863    8181.7712    8433.0023    7672.9862    5309.0045   -1036.4005    754.60691    27.133846   -3382.9891 
27091000    257.10971   -4693.0843   -4197.2266   -4693.0843            0    9169.2981    19.763717    19.771149    20.458459    7994.1716    10269.138    7601.8767    9636.8795   -734.38845    1239.0869    995.89415   -3128.2075 
27092000    260.26477    -4712.789   -4210.8465    -4712.789            0     8455.189    19.932852    19.733442    20.567981    8090.2873    8071.1049    9196.6783    8097.7838   -393.25013   -1783.8135    -422.5031   -3213.2311 
27093000    257.22556    -4672.415   -4176.3339    -4672.415            0    8144.4695    19.721757    19.956056    20.536335    8082.4544    5971.7266    9582.4281    8879.2537   -865.74714   -49.143505    33.962115   -3216.3102 
27094000    257.22341   -4693.3011   -4197.2242   -4693.3011            0     8684.348    20.056821    19.709767    20.387777    8059.5996    8361.4823    8607.2699    9084.2918     61.17755    737.68123    -738.3168   -3176.4573 
27095000    245.23679   -4721.5829   -4248.6231   -4721.5829            0    8355.1452    20.009392    20.069962    20.269314    8139.9081    10127.438     5518.169    9419.8287    283.42112   -718.89358   -642.61967   -3256.7654 
27096000    263.77731    -4700.269   -4191.5523    -4700.269            0    7720.7676    19.852321    19.638671    20.693151     8067.705     6509.352    9157.1016    7495.8491    412.37103    174.76207    276.65938    -3283.133 
27097000    265.39338    -4701.964   -4190.1305    -4701.964            0    10504.847    19.779793    19.584224    20.625059    7989.5686    10688.898    11619.966    9205.6772    339.94216    634.56682    269.74919   -2966.1093 
27098000    265.46012   -4723.9267   -4211.9645   -4723.9267            0    7121.3828    20.103174    19.807158    20.429317     8134.683    6577.5099     6225.021    8561.6176   -166.46706    185.55201    728.63109   -3367.1121 
27099000    250.20543   -4698.7831   -4216.2409   -4698.7831            0    8335.2056    20.008618    20.020108    20.332662    8144.7498     7656.093     8006.592     9342.932   -132.59702    298.10822    227.51233   -3226.1617 
27100000    269.78146   -4721.5813   -4201.2851   -4721.5813            0    8192.5952     19.81137    19.779135    20.650915    8092.0973    7109.5911    10468.443    6999.7515   -758.47671    1269.5103    1405.2044   -3234.4365 
27101000    254.13753   -4740.1414   -4250.0158   -4740.1414            0    8550.3766    19.844095    19.899805    20.480052    8087.4416    10145.283    6323.3831    9182.4636   -31.839753   -1289.2198   -137.83505   -3241.5242 
27102000    269.26213   -4725.8647     -4206.57   -4725.8647            0    8059.0887    20.025386    19.899065    20.371653    8117.8282     6351.222    7994.0287    9832.0154    181.74268   -1055.4716    527.91332   -3252.4529 
27103000     262.9751   -4674.4707    -4167.301   -4674.4707            0    9237.6311    19.687267    19.772163    20.495051    7977.9002    10620.011    8608.4737    8484.4091    189.01111   -174.76384   -334.19039   -3092.5074 
27104000    251.81014    -4666.401   -4180.7639    -4666.401            0    7556.6173    19.942819    19.808821    20.471266    8087.0453    8759.7391    5089.9391    8820.1738   -347.92989   -684.05076   -1088.7873    -3289.527 
27105000    267.72376   -4667.4275   -4151.0997   -4667.4275            0    8805.7588    19.882688    19.852493    20.460301     8076.109    9809.9243    7435.8496    9171.5026    289.55092   -710.79904   -189.40059   -3113.9419 
27106000    254.75222   -4716.3828   -4225.0717   -4716.3828            0    9092.7023    19.792488    19.910418    20.491555    8075.2448    9635.1653    7865.1382    9777.8036   -102.71485   -414.08397   -215.46405   -3154.2318 
27107000    262.54634   -4692.7777    -4186.435   -4692.7777            0    8970.7474    19.847453    19.710827    20.604127    8060.5346    8407.7152    9482.8708    9021.6564     513.7339    157.72132   -396.02476   -3131.8821 
27108000    264.78159   -4690.2952   -4179.6417   -4690.2952            0    10076.925    19.758676    20.030681     20.31567    8040.5306    13678.328    6312.6307    10239.815    343.71295    769.18708    212.65536   -2997.9923 
27109000    262.81697   -4714.4853   -4207.6206   -4714.4853            0    9609.6957    19.959937     19.82877    20.414192    8079.5491    9547.4662    10296.571    8985.0495    138.41873    274.99217    498.17135   -3075.2916 
27110000      267.868   -4689.0111   -4172.4052   -4689.0111            0    8399.5631    19.826933    19.705694    20.755195    8109.1265    10133.867    6858.1383    8206.6836   -377.50372    640.36922    862.01173   -3179.0452 
27111000     277.4217   -4705.6464   -4170.6153   -4705.6464            0    8931.6694    19.838272    19.802151    20.606685    8095.1392    8965.2531    9154.8734    8674.8816    692.91699   -153.82203   -52.978154   -3116.1487 
27112000    269.37303   -4711.8915   -4192.3829   -4711.8915            0    8274.8998    19.804474    19.870815    20.589014    8102.4161    9239.0519    6803.5434    8782.1041   -47.098493    1306.9249    1365.5526   -3214.5759 
27113000    259.75802   -4742.9683   -4242.0031   -4742.9683            0    8808.8692     19.95747    19.785049    20.582495    8127.1939    8934.5934    8877.4069    8614.6073    37.581741    1869.1744    203.57664   -3197.9162 
27114000    260.18586   -4690.7181   -4188.9278   -4690.7181            0     8568.728    19.707011    20.189334    20.323868    8086.2861    9056.6216     8805.441    7844.1213   -162.84522   -102.93185   -1157.5107   -3178.4161 
27115000    259.79138   -4719.0594   -4218.0299   -4719.0594            0    8042.6387     20.06213    19.897544    20.460827    8167.6983     6977.502    8314.9501    8835.4639   -39.910499    752.73662   -332.41686   -3260.0109 
27116000    248.47185   -4710.1756   -4230.9768   -4710.1756            0    10123.776    19.656591    19.937154    20.456463    8016.8155    9406.4722    10871.526    10093.332    34.813993    287.76595   -206.49882   -3047.3349 
27117000    247.24564   -4712.1607   -4235.3267   -4712.1607            0    8719.5041    19.677502    19.837281    20.661507    8065.1809    9178.2346    9066.1573    7914.1204   -200.15303   -913.51011   -661.83317   -3209.7178 
27118000    248.61308   -4702.4627   -4222.9914   -4702.4627            0    7939.8298    19.835058    19.748417    20.580899    8061.7644    10051.844    6331.4223    7436.2229    -111.1859   -49.858725   -123.97842   -3289.4853 
27119000    238.47831   -4684.4534   -4224.5279   -4684.4534            0    7484.5779    19.987225    19.941848    20.250502    8071.4897    7029.0441    6798.2525    8626.4371    226.51966    529.05981   -914.43562   -3343.4853 
27120000    247.38538   -4678.3041   -4201.2006   -4678.3041            0    8161.7004    19.944883    19.961072    20.404504    8123.4664    7600.6579    9676.6881    7207.7551   -563.83547   -591.71307    419.82008   -3234.2641 
27121000    259.34825   -4739.6394   -4239.4645   -4739.6394            0    9992.3218    19.663532    19.996548    20.584743    8093.9776    11417.884    8595.0254    9964.0565    -583.2247    316.06908    -193.8848   -3059.9472 
27122000    257.34185   -4667.7001   -4171.3947   -4667.7001            0    9366.5111    20.040337    19.660698    20.448749    8056.9508    5490.9756    13025.311    9583.2462   -687.20616   -419.68916   -1121.3419   -3070.8075 
27123000    251.51245   -4690.4356   -4205.3727   -4690.4356            0    8283.5367    19.978964    19.825822     20.41959    8088.1867    7152.4971    8480.2324    9217.8804   -171.81658   -1543.5261    62.211053   -3228.2641 
27124000    254.92151   -4700.0015   -4208.3639   -4700.0015            0    6572.0219    19.816971    19.845611    20.668261    8128.4118    6875.3634     6481.471    6359.2311    774.02344    1179.2875   -169.38845   -3429.2866 
27125000    272.58454   -4695.8884   -4170.1862   -4695.8884            0    10433.514    19.806704    19.675522    20.656049    8049.8119     11360.72    9700.1433    10239.679    589.14194     763.8183    274.54861   -2945.3099 
27126000    240.08852   -4698.6122   -4235.5813   -4698.6122            0    6307.5664     20.02757    20.048815    20.226741    8121.6242    5419.2776    5378.8152    8124.6063   -186.89044    152.08638   -310.90396   -3488.4781 
27127000    257.53108   -4709.3345   -4212.6641   -4709.3345            0     9608.718    19.925218    19.608431    20.615572    8054.5509    10968.788    9096.6948    8760.6709    182.07619    506.91808    288.04535   -3083.9534 
27128000    262.06436   -4732.8088   -4227.3956   -4732.8088            0    5828.9406    19.613382    19.990728     20.77948    8147.3383    5779.1568    6339.6149      5368.05     102.2681    667.12962   -367.12983   -3534.7976 
27129000    272.02474   -4687.6578   -4163.0352   -4687.6578            0    7848.3967    20.084882    19.771191     20.46866    8128.1464    9037.8669    7569.8684    6937.4549    -752.5978    624.06716   -1677.4802    -3232.681 
27130000    247.16201   -4719.0841   -4242.4114   -4719.0841            0    8181.6108    19.809481    20.068566    20.357317    8093.0082    10191.295    5128.3092    9225.2285    213.17032    163.48725    691.76261   -3276.7504 
27131000    249.71585   -4733.2629   -4251.6649   -4733.2629            0    8073.6787     19.96755    20.002565    20.338819    8123.3693     7409.819    8306.9777    8504.2394     565.8593    950.83944   -247.29528    -3295.168 
27132000    272.45786   -4696.7223   -4171.2644   -4696.7223            0    6662.9704    19.693837    19.927698    20.704098    8125.3822    8383.6968    7331.1603    4274.0542     25.23835    700.11645    796.27932      -3381.7 
27133000     273.4996   -4700.1314   -4172.6644   -4700.1314            0    8388.2062    19.885574    19.679612    20.656552    8083.7428    8970.0129    8731.0411    7463.5646    143.65855    675.40712    771.40695   -3183.7528 
27134000    254.86213   -4706.3208   -4214.7977   -4706.3208            0    8591.5181    19.875438    19.687359    20.581552    8053.4561    8258.8664     8472.858      9042.83    33.813612     1313.659   -534.09487   -3205.7119 
27135000    253.97141   -4694.9314   -4205.1262   -4694.9314            0    9574.3946     20.03383    19.890143    20.188566    8044.6541    8679.7361    10309.438    9734.0093   -633.71022    358.69369   -1371.0056   -3081.8292 
27136000    263.03009   -4699.8349   -4192.5592   -4699.8349            0    9857.0014    19.949265    19.613838    20.517829    8028.2505      9025.79    11098.004    9447.2103   -1343.9251    817.38948    1234.2127   -3038.4641 
27137000    263.41259   -4710.3485   -4202.3352   -4710.3485            0    10263.326    19.548324    19.805946    20.596513    7974.4149    9868.5059    11337.548    9583.9247    360.78061   -640.28429   -795.43169   -3008.7241 
27138000    254.14307   -4707.0318   -4216.8955   -4707.0318            0    9137.9392    19.903857    19.663464    20.748596    8120.5599    9784.5528    10040.365       7588.9    72.796255   -247.00569   -1682.5123    -3134.689 
27139000    241.57427   -4719.6902   -4253.7939   -4719.6902            0    8237.1245    19.826218    19.949161    20.436818    8083.0971    6893.7237    9519.9522    8297.6974   -387.47586   -494.74603   -238.40119   -3282.7713 
27140000    264.05993   -4715.7563   -4206.4945   -4715.7563            0    7937.8915    19.905946    19.890706    20.593858    8154.0007    7253.4057    8715.1584    7845.1105   -802.03627   -390.98413     130.1443   -3262.5384 
27141000    256.77174   -4702.3377   -4207.1318   -4702.3377            0    8006.6456    19.921115    19.678245    20.710547    8118.7951    8481.7756    8136.7918    7401.3696   -560.80468    1469.0557   -140.30826   -3259.1105 
27142000    256.01407   -4707.2367    -4213.492   -4707.2367            0    7414.9448    20.262815    19.805761    20.370546    8175.1172    6599.5626    7799.4604    7845.8115     -390.566   -332.50941   -614.63839     -3329.44 
27143000    261.09924   -4719.7253   -4216.1735   -4719.7253            0    8575.8534    19.966868    19.895757    20.358384    8087.4896    8908.1297    7178.0288    9641.4018    379.03555    1160.8209   -236.20263   -3204.6709 
27144000    261.48015   -4708.1034   -4203.8169   -4708.1034            0    7784.6764    19.946082    19.657998    20.586464    8071.9536    8652.0874    7671.5456    7030.3961   -278.38693    273.68004    144.37663   -3287.3957 
27145000     264.1677   -4713.8904   -4204.4208   -4713.8904            0     8839.801    19.740552    20.047052    20.435911    8087.3047    11207.749    7476.8487    7834.8049    146.73751    2131.6604   -1997.8386   -3161.8101 
27146000    257.85515   -4732.0799   -4234.7846   -4732.0799            0    6448.3696     20.05806      19.8113     20.49986    8146.1574    7308.4386    5857.9649    6178.7054    321.94745    560.52813    632.86345   -3468.6967 
27147000    244.87816   -4709.6042   -4237.3361   -4709.6042            0    6458.1035    20.146319    19.752557    20.344622    8095.9653    5971.2945    6358.3121    7044.7037   -347.77857   -643.50252   -180.67844   -3474.8191 
27148000    254.02471   -4697.3493   -4207.4413   -4697.3493            0     9143.867    19.752384    19.667428    20.582857    7995.9994    10767.528    8539.8071    8124.2664    305.02473    -632.0106    1166.7263   -3141.1434 
27149000    257.21292   -4680.1504   -4184.0936   -4680.1504            0    7799.2979    20.008994    19.649245     20.59959    8098.9682    7443.3269    9410.1629    6544.4039    248.22924   -221.68997     151.1223   -3262.8784 
27150000    257.13944   -4683.7325   -4187.8175   -4683.7325            0    10522.363    19.820593    19.727804    20.332721     7950.435    11042.752    10319.653    10204.684   -256.99753    1077.3446    -393.0227   -2967.7606 
27151000    264.82765   -4665.0287   -4154.2863   -4665.0287            0    7272.7564    20.064329    19.680068    20.461797    8079.6956    6205.2174    7728.7893    7884.2624   -71.240354   -205.86834    -1524.674   -3297.3078 
27152000    259.51918   -4674.5624   -4174.0578   -4674.5624            0    7205.7908    19.682895    19.523753    20.940305    8047.0236    9905.0377    6226.7565    5485.5783   -45.702137    295.64806    55.537778   -3328.4036 
27153000    253.53275   -4698.4424   -4209.4832   -4698.4424            0    8029.8575    19.838851    19.878868    20.487207      8079.62     7272.247    8981.1956      7836.13   -482.19216   -1164.6039    568.38569   -3263.3012 
27154000     257.9773   -4704.6071   -4207.0762   -4704.6071            0    8123.7827    20.086942    19.981799    20.216664    8114.4279    10128.169    6232.9214    8010.2572    295.07881    1305.0919    1450.5945   -3245.7028 
27155000    264.05444   -4716.7696   -4207.5184   -4716.7696            0    8776.3772    19.902008    19.845058    20.479887    8088.6647    8885.6529    9231.0307    8212.4481   -224.77626   -1274.9186   -952.24223   -3172.2141 
27156000    254.26742   -4713.2099   -4222.8338   -4713.2099            0    9166.8377    20.036284    19.747767    20.405443    8073.8598    7777.0269    11161.431     8562.055   -575.46156   -1439.0017    1832.3671   -3143.4482 
27157000    261.92601   -4693.6761   -4188.5297   -4693.6761            0    10437.305    19.653353    20.098862    20.334566    8032.3577    12119.137    9441.7891    9750.9903    -219.2097   -784.16676    72.433611   -2965.8652 
27158000    253.36084   -4723.0875   -4234.4599   -4723.0875            0    9808.9779    19.814599    19.818464    20.429356    8022.5042    9912.4155    9118.9447    10395.573   -1014.5841    248.22331   -1465.2931   -3086.8095 
27159000    256.90275   -4721.4465    -4225.988   -4721.4465            0    9932.3838    19.763664    19.798716    20.576747    8051.5814    11027.084     9203.887    9566.1804    692.74842    308.64058   -770.60675   -3059.6872 
27160000    260.14965   -4694.6773   -4192.9568   -4694.6773            0    8704.7659    19.659167    19.801916    20.674359    8048.3037    8942.0966       9200.9    7971.3011   -659.38121    1981.5498    421.19112    -3171.224 
27161000    253.06748   -4717.7697   -4229.7078   -4717.7697            0    6411.6835    20.202325    19.870074    20.342435    8165.8949    5142.2282     7405.214    6687.6082    146.24236   -805.09541    1258.9474   -3466.1327 
27162000    257.56861   -4702.3499   -4205.6071   -4702.3499            0    6514.0674    19.870316    20.035123     20.43779    8136.3706    6737.7105    5160.3881    7644.1037   -136.73577   -1787.8157   -187.83984   -3432.6439 
27163000    258.66726   -4690.8921   -4192.0306   -4690.8921            0    9458.2259    20.123549    19.680845    20.482415    8112.0286     9406.702    8250.8267    10717.149    640.63442    1145.3634   -1142.1184   -3073.0693 
27164000    257.61923   -4716.6981   -4219.8578   -4716.6981            0    9103.6281    19.672118    19.948089    20.553572    8065.6567     11797.98    7754.0017    7758.9023     4.604214    1592.1491    205.02897   -3149.0041 
27165000    252.74286    -4690.688   -4203.2522    -4690.688            0     9005.742    19.935134     20.02966    20.185549    8059.9678    8374.0806    8937.9198    9705.2255    1.1301817    405.62731    1025.6461     -3144.66 
27166000    261.36243   -4684.1801   -4180.1206   -4684.1801            0    9008.9787     19.99662    19.968877    20.269363    8093.7603    9438.7099    8152.5857    9435.6405    350.56698    445.96626   -894.40885   -3116.7081 
27167000    269.55631   -4729.5849   -4209.7229   -4729.5849            0    9010.7185    19.971676    19.808563    20.475435     8100.291    8513.8956    9209.5409    9308.7192    573.43863    33.593387    441.47888   -3145.2468 
27168000    264.68917   -4672.9595   -4162.4842   -4672.9595            0    8577.2634    19.491347    19.893663    20.820254    8073.1426     11371.34    6075.5618    8284.8881   -436.69483    1506.9243   -1067.2127     -3152.61 
27169000     271.3681   -4700.4805   -4177.1243   -4700.4805            0    9297.5129     19.93577    19.841977     20.46014    8093.3169    7528.6166    10043.864    10320.058     1258.564   -137.24416    932.66476   -3079.7136 
27170000     267.2363     -4706.28   -4190.8923     -4706.28            0    8343.5783    19.818237    20.051442    20.383512    8100.0862    12601.816    3672.4159    8756.5033   -316.47014   -576.19002    -173.0098   -3205.2533 
27171000    259.92676   -4694.6386    -4193.348   -4694.6386            0    9155.4316    19.998764    19.816404    20.446655    8103.0828    10464.071     6768.593    10233.631   -678.38719   -41.502232    593.06912   -3111.4035 
27172000    261.88965   -4721.8658   -4216.7896   -4721.8658            0    8879.3432    19.657899    19.925995    20.464588    8016.0443    10629.923    6320.9409    9687.1657   -668.92681   -465.50248    1602.5531    -3178.743 
27173000    248.03597   -4712.1044   -4233.7462   -4712.1044            0    8987.2467    20.041193    19.795917    20.388343    8088.7446    8523.8505    9853.5291    8584.3605    972.47561   -634.13861   -2526.1633   -3173.5563 
27174000    260.54659   -4701.2686   -4198.7826   -4701.2686            0    9384.8031     19.60499    19.918162     20.65515    8065.7405    9836.8496    9097.6371    9219.9226    380.62059    266.21204   -1009.9305    -3094.843 
27175000    263.08117   -4718.0269   -4210.6527   -4718.0269            0    9666.6441    19.964911    19.693063    20.532733    8072.8597    8920.3651    10953.647      9125.92    58.264869    697.49119    312.23452   -3072.5564 
27176000    259.29086   -4725.8349   -4225.7706   -4725.8349            0    9630.8223    19.660616    19.984094    20.393813    8012.7211    9118.1943    9915.8189    9858.4538   -313.68197    969.36463   -679.56432   -3100.3386 
27177000    261.15416   -4705.5897   -4201.9319   -4705.5897            0    8503.2962    20.195243    19.648373    20.504295    8136.1793     7614.183    9168.2044    8727.5012   -432.19658    335.01981   -922.54426   -3192.9492 
27178000    262.90536   -4713.0808   -4206.0458   -4713.0808            0    7611.0132    19.941563    19.909659    20.454017    8120.8524    8113.4595    7629.0975    7090.4827   -1438.6227    315.84211     345.3322   -3304.6407 
27179000    262.43057   -4682.3678   -4176.2484   -4682.3678            0    7282.2602    20.073291    19.937491    20.305474    8126.4754    7450.4379     6294.505    8101.8376    339.56772    753.75413    572.04722   -3313.1818 
27180000    259.85756   -4690.0398   -4188.8827   -4690.0398            0    9181.1725    19.747961    20.026442    20.456244    8090.0639    7139.4807    9930.2794    10473.758   -673.91285   -108.37333    650.63402   -3105.6394 
27181000    257.51067   -4710.4363   -4213.8054   -4710.4363            0    9656.7667    19.782337    19.645481    20.706729    8047.3292    11041.476    9647.9903    8280.8338    437.31728    407.82554    -453.3155   -3080.4675 
27182000    259.84639   -4700.8978   -4199.7622   -4700.8978            0    10230.451    19.892959     19.88042    20.456424    8090.1144    11139.699    9539.9437    10011.709   -213.61927   -251.63267    1142.2467    -2992.712 
27183000    246.62239   -4711.7185   -4236.0865   -4711.7185            0    6560.9548     19.90781    20.053436    20.366416    8130.6804    4618.9247    8289.7689    6774.1708    250.31038   -1791.7465     316.8281    -3458.104 
27184000    256.27204   -4731.6363   -4237.3941   -4731.6363            0    8220.4773    19.944957    19.702371     20.61576    8101.2296    10109.764    7742.2536    6809.4147   -488.64936    -853.4923   -710.14849   -3266.1601 
27185000    256.73408   -4675.4734   -4180.3401   -4675.4734            0    8972.3692    20.052538    19.947093    20.356151    8142.2537    8957.2705    8837.8836    9121.9535    647.68397    76.349982   -761.09459   -3114.9034 
27186000    265.67264   -4694.2509   -4181.8789   -4694.2509            0    8537.7568    19.966163    19.967149    20.300109    8092.9911    9240.2968    8968.4584    7404.5154    294.98418   -583.98623   -69.972248   -3174.1847 
27187000    249.13272   -4698.3797   -4217.9063   -4698.3797            0    7193.1155    20.194941    19.804549    20.253548    8100.4412    7128.2417    6167.7441    8283.3606   -164.03139   -207.53514   -653.35735   -3368.1359 
27188000    259.43359    -4690.863   -4190.5235    -4690.863            0    10412.675    19.794557    19.878096    20.539345    8081.7823    9539.3245    11478.641     10220.06    168.63632   -991.62664   -824.62792   -2963.2387 
27189000    260.93267   -4738.8232   -4235.5926   -4738.8232            0    8631.7922     19.72149    19.833096    20.553333    8039.1935    7270.8327     9723.422    8901.1219    443.44738    -1271.079    1297.0339   -3223.5721 
27190000    261.40397   -4672.7009   -4168.5613   -4672.7009            0      9442.28     19.89959    19.938375    20.342393    8071.1595    8866.1545    9177.0953     10283.59   -135.54775   -398.74915    357.35641   -3057.1145 
27191000    255.52996   -4692.5384   -4199.7273   -4692.5384            0     8061.011    19.887524    19.902524    20.466787    8100.9987    8855.8977    7504.8175    7822.3179   -238.50497    639.43893    1459.3356   -3247.3611 
27192000    267.82569    -4704.669   -4188.1447    -4704.669            0    7907.5448    19.778096    19.781051    20.611938      8064.04    7708.6843    9004.7932     7009.157   -833.08618    2094.6944    681.92326   -3258.1719 
27193000    264.70576   -4704.0682   -4193.5609   -4704.0682            0    7318.3326    19.930813    19.784807    20.425364    8054.2783    7065.2479    6340.9392    8548.8107    85.888387    259.38742   -23.915011   -3333.9247 
27194000    272.50941   -4695.2287   -4169.6714   -4695.2287            0    9434.5343    19.901569    19.723966    20.408362    8011.0549    10225.882    9226.1842    8851.5364    1076.7156    1401.0474    192.00858   -3067.4062 
27195000    260.82988   -4696.6736   -4193.6412   -4696.6736            0    9988.1339    19.976605     19.78825    20.299888    8024.5873    10461.601    8788.2296    10714.571   -9.2541124    175.20251   -1402.7424   -3024.7262 
27196000    254.74089   -4698.7222    -4207.433   -4698.7222            0    9430.7967    19.933576    19.762096     20.46848    8063.1331    7903.7714     12407.43    7981.1887     -1321.73    1153.6889    603.69772   -3098.4418 
27197000     267.9861   -4717.4105   -4200.5768   -4717.4105            0    8023.0842    19.881028    19.708415    20.589148    8067.3131    6929.9311    10110.534    7028.7876   -104.55442    810.55001   -544.34599    -3256.633 
27198000     265.7745   -4711.6229   -4199.0544   -4711.6229            0    9014.1125    19.794188    19.890008    20.619177    8117.9056    10267.193    7476.1281    9299.0161   -264.62474    109.80455    122.04798   -3131.8617 
27199000    275.17757   -4702.8288   -4172.1257   -4702.8288            0    8224.5754    20.311158    19.748063    20.175358    8092.4582    4822.2969    9454.5802    10396.849   -22.602909   -1141.3857   -152.11518   -3201.4596 
27200000    263.24016   -4723.4964   -4215.8156   -4723.4964            0    9370.7562    19.832875    19.862858    20.528803    8087.0674    8535.3173    9352.6214     10224.33   -554.97465    665.45846   -837.09271   -3110.6138 
27201000    263.77407   -4722.9249   -4214.2144   -4722.9249            0    8075.1681    20.060895    19.795971    20.419354    8109.0337    6621.2651    9133.1585    8471.0808    277.25008   -851.18618    1521.9818   -3259.2294 
27202000    246.05249   -4683.6073   -4209.0744   -4683.6073            0    7481.9049    19.892428    19.995349    20.500371    8154.1461    8843.5339    7006.2492    6595.9315   -226.09959    460.89029     94.58084   -3319.3273 
27203000    250.12436   -4714.5318   -4232.1459   -4714.5318            0     7138.056    20.003724    19.694707    20.609554    8119.4941    7742.3531    7743.0248    5928.7899   -582.14204   -452.37326   -139.27804   -3386.8966 
27204000    264.16357   -4732.1516   -4222.6899   -4732.1516            0    9699.9602    19.801151    19.957471    20.355055    8043.9286    8930.3737    10548.443    9621.0643     642.3022   -1732.1148   -1276.2867   -3084.7639 
27205000    244.21298   -4715.0076   -4244.0223   -4715.0076            0    8435.4307     19.99726    19.740722    20.489578     8088.473    6674.4744    8663.5871    9968.2305    1096.1756   -242.69418   -372.31266   -3248.9614 
27206000    238.79614   -4693.0539   -4232.5155   -4693.0539            0    6670.9758    19.752944    19.927174    20.636189     8122.824    8577.9472    5045.8327    6389.1475   -996.67617    195.00178    -1496.256   -3442.2513 
27207000    263.80939    -4711.537   -4202.7584    -4711.537            0    8507.7256    19.948525     19.88872    20.370927     8082.178    7916.6181    8410.2254    9196.3332    817.95534   -135.16929    870.86007   -3199.9504 
27208000    259.36497   -4689.1895   -4188.9823   -4689.1895            0    8206.0845    20.135158    19.690474    20.359847    8072.0848    6263.9989    9028.3943    9325.8604    448.25025    123.17723    190.75479   -3222.9368 
27209000     252.0137   -4681.5842   -4195.5546   -4681.5842            0    10472.379    19.619064    19.772559    20.593593    7988.6481     13379.41    7902.8224    10134.906    553.63042    42.608366   -669.54996    -2975.457 
27210000    259.75944   -4663.6524   -4162.6845   -4663.6524            0    10025.491     20.01357    19.633557    20.513409    8060.4893    10095.386    9189.3713    10791.715    123.20654    1564.3203   -635.96095   -2984.1483 
27211000    257.65118    -4695.598    -4198.696    -4695.598            0    9028.8483    19.727226     19.84755    20.708153    8108.0101    10288.715    8172.2977    8625.5325   -227.54655   -168.58007   -913.03008   -3131.0617 
27212000     259.3476    -4704.023   -4203.8493    -4704.023            0    9064.4209    19.863181    19.724707    20.666928    8097.2081    8696.1037    9275.1116    9222.0474    43.981248    18.002302    492.65316   -3133.4366 
27213000    276.93381   -4712.5783   -4178.4881   -4712.5783            0    10372.896    20.035811    19.918766    20.246637    8080.2024    10301.223    10164.493    10652.973   -580.12097    1702.0117    -360.5773   -2956.1309 
27214000    262.36531   -4702.6898   -4196.6963   -4702.6898            0    9004.8466    19.899345    19.737257    20.541594    8067.8851    8750.3302    9635.1824    8629.0273    475.96903    475.72784    623.56902   -3137.1695 
27215000    246.76957   -4735.6376   -4259.7217   -4735.6376            0    8197.1385    19.962716    19.588713    20.695643    8092.9052    7629.1498    10004.841    6957.4253    677.68138    1147.5843    80.430284   -3292.2403 
27216000    250.38138   -4698.6679   -4215.7863   -4698.6679            0    10335.388    19.801467    19.900597    20.364309    8024.7803    10954.004    9086.4942    10965.667   -226.78488   -535.03114   -946.20401   -3006.2029 
27217000    246.86969   -4717.6888   -4241.5799   -4717.6888            0    9198.2912    19.871009    19.928068    20.412607    8083.2049    7886.9495    9290.7449    10417.179   -795.53491    2220.3648    234.66291    -3157.237 
27218000    263.38487   -4695.9503   -4187.9905   -4695.9503            0    10093.134     19.67295    19.746569    20.752559    8061.8146    11078.825    9290.0147    9910.5626    20.276417    1923.1206   -1010.9701   -3001.3074 
27219000    265.37401   -4684.7998   -4173.0037   -4684.7998            0    9212.9719    19.808406    19.605442    20.688216    8034.3212    9780.2702    11157.357    6701.2889    87.300193   -1212.5358    833.35686   -3093.4983 
27220000    250.50321     -4714.85   -4231.7334     -4714.85            0    8519.3247    20.042918    19.676573    20.447042    8063.8212    8490.0525    8508.3723    8559.5493    814.50057    404.77849   -47.246943    -3229.839 
27221000    260.97639   -4704.9539    -4201.639   -4704.9539            0    9326.7915    19.852719    19.712066    20.560651    8046.1666    10157.565    8907.9272    8914.8822    107.22498    -776.2269    41.817819   -3107.1859 
27222000    261.59723   -4728.2686   -4223.7563   -4728.2686            0    7376.0965    19.917654    19.786174    20.468691    8066.5918    7093.7414    6415.1708    8619.3773    53.436004   -849.93881    1312.4542   -3356.0104 
27223000     247.8406   -4702.4682   -4224.4867   -4702.4682            0    7496.4779     19.79553    20.007128    20.492152    8115.9517    7009.1355    7612.7543    7867.5437    746.37293    404.74268    406.67707   -3337.1824 
27224000    257.13533   -4705.1784   -4209.2713   -4705.1784            0    7950.5648    19.773835    19.842194    20.728851    8133.0949    8920.6408    6575.0604    8355.9931     55.89107   -166.76092   -573.59969   -3266.2322 
27225000    257.89198   -4722.0896   -4224.7232   -4722.0896            0    9496.5913    19.933622    19.803005    20.451044    8072.9599    10465.228    7525.8657     10498.68   -449.73095   -195.61125    309.17014    -3106.634 
27226000    263.49277   -4720.8004   -4212.6325   -4720.8004            0    7876.9341    19.945283    20.070886    20.385244    8160.6108    7796.8555     7825.186    8008.7608   -602.65527   -937.84434    616.11409   -3275.1659 
27227000    261.42008   -4660.2513   -4156.0807   -4660.2513            0     7127.778    19.921545    19.984889    20.562107    8186.3889    5627.8886    7691.4302    8064.0153   -223.70636   -1090.8657   -511.30716   -3305.0947 
27228000      271.911   -4697.7004   -4173.2972   -4697.7004            0    7947.2343     19.76385     19.75492    20.743101    8098.7967    8392.1423    7199.1096    8250.4509    801.42221    341.67555    1565.8931   -3234.6283 
27229000    257.99471   -4683.0309   -4185.4664   -4683.0309            0     8379.082    20.186989    19.548299    20.497483    8088.7433    8885.2713    8501.1632    7750.8116    448.17233    52.383548   -522.87914   -3197.0194 
27230000    268.08543   -4688.2568   -4171.2315   -4688.2568            0    10024.395    19.887018    20.069334    20.230811    8074.5055    9447.7623    10249.096    10376.328   -239.54665   -1931.4225    767.33668   -2990.7749 
27231000    260.71111   -4686.0158   -4183.2125   -4686.0158            0    8360.9224    19.917296    19.764639    20.432627    8043.4701    8043.1638    8163.3122    8876.2913   -256.12294   -222.70351   -628.96425   -3202.4281 
27232000    265.47392    -4701.729   -4189.7402    -4701.729            0     10318.46    19.794173    19.792273    20.539892    8046.9481    11506.992    10769.367    8679.0221    561.85635   -722.11558     168.7853    -2978.802 
27233000    267.26713   -4722.7879   -4207.3408   -4722.7879            0    10187.527    20.132107    19.622083    20.359742    8042.7877    8461.5968    11541.376    10559.609    943.99939    315.62849    57.462757   -3012.3865 
27234000    267.06191   -4708.7416   -4193.6903   -4708.7416            0    8781.4024    20.078987    19.765236    20.453089    8117.1338    9388.5941     8592.204    8363.4091   -431.58072    72.038821   -25.887565   -3154.1473 
27235000     247.8788   -4715.1011    -4237.046   -4715.1011            0    8690.4462    19.836378    19.897831     20.51993    8099.2348    9481.0854    8615.9819    7974.2713   -842.51251     225.5843    2006.9849   -3210.5389 
27236000    252.71707   -4712.2271    -4224.841   -4712.2271            0    7781.3142    19.912022    20.012991    20.306528    8092.1331    6042.8698    8776.5166    8524.5562    391.87174    726.24006    1766.3528   -3306.5256 
27237000    248.45308   -4676.3295   -4197.1668   -4676.3295            0    6962.2754    19.872289    19.869956    20.497222    8093.5638    5873.2682    8306.1426    6707.4153     248.1167   -386.63893    1050.3195   -3375.3654 
27238000    269.16771   -4704.3271   -4185.2145   -4704.3271            0    8758.0204    19.824813    19.694109    20.621452     8051.275    9552.0952    8714.0813    8007.8846    141.46061   -393.71738   -1357.1016   -3156.8514 
27239000    251.80188   -4688.7048   -4203.0837   -4688.7048            0    11693.675    19.752154    19.889161    20.318505    7982.2014    11981.832    10410.624    12688.568    1567.9991    -249.7195    -126.6449    -2841.797 
27240000    261.48668   -4704.8016   -4200.5025   -4704.8016            0    6443.5942     19.96283    19.962384    20.502427    8170.3336    7820.5511    5840.6199    5669.6115    54.359836    567.37295   -454.45175     -3432.71 
27241000    251.13733   -4705.5723   -4221.2328   -4705.5723            0    10397.482    19.825066    19.771357    20.521744    8043.8762    10009.603    10166.765    11016.077   -685.80313       1726.6   -345.71509   -3001.4868 
27242000    255.92089   -4694.9427   -4201.3777   -4694.9427            0    8194.8621    19.719521    19.760632    20.783478     8098.702    7718.8756    9412.5184    7453.1924    26.662412   -989.46152   -445.39061   -3233.4722 
27243000    257.01971   -4684.2036   -4188.5195   -4684.2036            0    7586.7833    19.871638    19.830743    20.647647    8136.6046    6905.0876    7713.5012    8141.7612   -380.72935    779.00032   -1518.5096   -3288.2412 
27244000      260.996   -4693.1426   -4189.7899   -4693.1426            0    8820.6181    19.980008    19.781834    20.484689    8096.3931    8634.4672    9312.6255    8514.7617     860.4565    620.58886    566.45117   -3148.2725 
27245000    280.23669   -4696.5051   -4156.0451   -4696.5051            0    9732.4013    19.818609    20.068139    20.340516    8089.8829    12079.072    7551.3828     9566.749   -649.53028   -186.70423    359.12708   -3007.7906 
27246000    261.33817   -4684.2311   -4180.2185   -4684.2311            0    8058.8726    19.753799    20.055059    20.434672    8095.4731    7017.2352    7523.2923    9636.0904    465.47061    764.63506   -338.72079   -3228.7544 
27247000    266.81104    -4721.591   -4207.0235    -4721.591            0    9563.7323    19.902919    19.759339    20.419854    8030.4861    8747.5411    9148.2254    10795.431    476.17694   -924.13066   -1027.1982   -3086.9536 
27248000    265.04344   -4691.9679   -4180.8093   -4691.9679            0    9177.3669    19.813665     19.93389    20.471077    8085.3268    7864.2629    10345.632    9322.2053    26.325441    872.96972    1627.0558   -3098.6491 
27249000    245.90324   -4699.1965   -4224.9515   -4699.1965            0    10162.797    19.817599    19.848958    20.611266    8107.6202    9166.6606    12077.264    9244.4654   -52.740312   -329.88694   -1336.0674   -3023.2889 
27250000    272.66469   -4682.4465   -4156.5897   -4682.4465            0    8723.7475    20.040426    19.745969    20.434221    8086.1814    9972.3037    6679.6007    9519.3379    110.67293   -1308.7604    927.72687   -3127.8099 
Loop time of 389.33 on 64 procs for 250000 steps with 972 atoms

Performance: 110.960 ns/day, 0.216 hours/ns, 642.128 timesteps/s
190.9% CPU use with 32 MPI tasks x 2 OpenMP threads

MPI task timing breakdown:
Section |  min time  |  avg time  |  max time  |%varavg| %total
---------------------------------------------------------------
Pair    | 26.129     | 34.92      | 43.503     |  70.5 |  8.97
Bond    | 0.81472    | 1.0698     | 1.3423     |  13.2 |  0.27
Kspace  | 164.21     | 173.27     | 187.47     |  40.8 | 44.50
Neigh   | 2.0306     | 2.5424     | 2.9767     |  20.4 |  0.65
Comm    | 71.088     | 80.613     | 88.979     |  54.9 | 20.71
Output  | 0.53293    | 0.53328    | 0.53517    |   0.0 |  0.14
Modify  | 75.71      | 79.381     | 83.444     |  24.4 | 20.39
Other   |            | 17         |            |       |  4.37

Nlocal:        30.3750 ave          35 max          23 min
Histogram: 1 1 2 2 5 5 1 4 6 5
Nghost:        2676.03 ave        2690 max        2651 min
Histogram: 1 1 3 3 0 2 6 6 7 3
Neighs:        9711.59 ave       11722 max        7438 min
Histogram: 3 3 1 3 4 4 3 3 6 2

Total # of neighbors = 310771
Ave neighs/atom = 319.72325
Ave special neighs/atom = 2.0000000
Neighbor list builds = 7740
Dangerous builds = 0

unfix		3
unfix		2
unfix		1

write_data	data.final.${pid}
write_data	data.final.0
System init for write_data ...
PPPM initialization ...
  extracting TIP4P info from pair style
  using 12-bit tables for long-range coulomb (../kspace.cpp:340)
  G vector (1/distance) = 0.37201358
  grid = 24 24 24
  stencil order = 5
  estimated absolute RMS force accuracy = 0.0035300818
  estimated relative force accuracy = 1.0630736e-05
  using double precision FFTW3
  3d grid and FFT values/proc = 3211 432
Last active /omp style is kspace_style pppm/tip4p/omp
WARNING: Not all mixed pair coeffs generated from mixing. Use write_data with 'pair ij' option to store all pair coeffs. (../write_data.cpp:312)

write_restart   restart.lmp.${pid}
write_restart   restart.lmp.0
System init for write_restart ...
PPPM initialization ...
  extracting TIP4P info from pair style
  using 12-bit tables for long-range coulomb (../kspace.cpp:340)
  G vector (1/distance) = 0.37201358
  grid = 24 24 24
  stencil order = 5
  estimated absolute RMS force accuracy = 0.0035300818
  estimated relative force accuracy = 1.0630736e-05
  using double precision FFTW3
  3d grid and FFT values/proc = 3211 432
Last active /omp style is kspace_style pppm/tip4p/omp
Total wall time: 0:06:29
