LAMMPS (30 Jul 2021)
  using 1 OpenMP thread(s) per MPI task
package omp 0
using multi-threaded neighbor list subroutines
echo both

include		in.partitions
variable        pid world 0
include		in.temp
variable        temperature equal 267.02
variable	tempDamp equal 100.0
include		in.pressure
variable        pressure equal 10125.0
variable        pressureDamp equal 1000.0 # This is 1 ps
include		in.seed
variable        seed world 745823

units		real
atom_style	full
read_restart	restart.lmp.${pid}
read_restart	restart.lmp.0
Reading restart file ...
  restart file = 30 Jul 2021, LAMMPS = 30 Jul 2021
  restoring atom style full from restart
  orthogonal box = (0.68492196 1.8982789 0.83560319) to (17.522650 21.730899 21.377593)
  4 by 4 by 4 MPI processor grid
  restoring pair style lj/cut/tip4p/long/omp from restart
  restoring bond style harmonic/omp from restart
  restoring angle style harmonic/omp from restart
  864 atoms
  576 bonds
  288 angles
Finding 1-2 1-3 1-4 neighbors ...
  special bond factors lj:    0        0        0       
  special bond factors coul:  0        0        0       
     2 = max # of 1-2 neighbors
     1 = max # of 1-3 neighbors
     1 = max # of 1-4 neighbors
     2 = max # of special neighbors
  special bonds CPU = 0.946 seconds
  read_restart CPU = 1.186 seconds
include 	in.setup
variable	out_freq equal 1000
variable	out_freq2 equal 10000
variable	out_freq3 equal 1000

timestep	2.0

neigh_modify    delay 7 every 1

include		in.tip4p
# This is TIP4P/Ice

# create groups ###
group ox type 2
288 atoms in group ox
group hy type 1
576 atoms in group hy

# set charges - beside manually ###
set group ox charge -1.1794
Setting atom values ...
  288 settings made for charge
set group hy charge 0.5897
Setting atom values ...
  576 settings made for charge

# ### TIP3P Potential Parameters ###
pair_style lj/cut/tip4p/long/omp 2 1 1 1 0.1577 8.5
pair_coeff 1 1*2 0.000 0.000
pair_coeff 2 2 0.21084 3.1668
bond_style  harmonic
bond_coeff  1 450 0.9572
angle_style harmonic
angle_coeff 1 55 104.52
kspace_style pppm/tip4p/omp 1.0e-5
pair_modify tail yes

thermo          ${out_freq}
thermo          1000
thermo_style    custom step temp pe etotal epair emol press lx ly lz vol pxx pyy pzz pxy pxz pyz enthalpy

restart 	${out_freq3} restart.lmp.${pid} restart2.lmp.${pid}
restart 	1000 restart.lmp.${pid} restart2.lmp.${pid}
restart 	1000 restart.lmp.0 restart2.lmp.${pid}
restart 	1000 restart.lmp.0 restart2.lmp.0


include         in.dump
dump            myDump all atom ${out_freq2} dump.water.${pid}
dump            myDump all atom 10000 dump.water.${pid}
dump            myDump all atom 10000 dump.water.0
dump            myDump2 all dcd ${out_freq2} dump.dcd
dump            myDump2 all dcd 10000 dump.dcd
dump_modify     myDump append yes
dump_modify     myDump2 append yes


variable natoms 	equal  "count(all)"                        # NUMBER ATOMS
variable H      	equal  "enthalpy/v_natoms"                 # ENTHALPY-per-atom
variable Vol      	equal  "vol/v_natoms"                 # volume-per-atom
fix AVG all 		ave/time ${out_freq} 1 ${out_freq} v_Vol v_H file vol_enthalpy.dat
fix AVG all 		ave/time 1000 1 ${out_freq} v_Vol v_H file vol_enthalpy.dat
fix AVG all 		ave/time 1000 1 1000 v_Vol v_H file vol_enthalpy.dat


timer           timeout 23:50:00 every 1000
New timer settings: style=normal  mode=nosync  timeout=23:50:00

fix 		1 all shake 1e-6 200 0 b 1 a 1
       0 = # of size 2 clusters
       0 = # of size 3 clusters
       0 = # of size 4 clusters
     288 = # of frozen angles
  find clusters CPU = 0.166 seconds
fix             2 all nph iso ${pressure} ${pressure} ${pressureDamp}
fix             2 all nph iso 10125 ${pressure} ${pressureDamp}
fix             2 all nph iso 10125 10125 ${pressureDamp}
fix             2 all nph iso 10125 10125 1000
fix             3 all temp/csvr ${temperature} ${temperature} ${tempDamp} ${seed}
fix             3 all temp/csvr 267.02 ${temperature} ${tempDamp} ${seed}
fix             3 all temp/csvr 267.02 267.02 ${tempDamp} ${seed}
fix             3 all temp/csvr 267.02 267.02 100 ${seed}
fix             3 all temp/csvr 267.02 267.02 100 745823

run             250000
PPPM initialization ...
  extracting TIP4P info from pair style
  using 12-bit tables for long-range coulomb (../kspace.cpp:340)
  G vector (1/distance) = 0.37493008
  grid = 24 24 24
  stencil order = 5
  estimated absolute RMS force accuracy = 0.0030855644
  estimated relative force accuracy = 9.2920856e-06
  using double precision FFTW3
  3d grid and FFT values/proc = 2535 216
Last active /omp style is kspace_style pppm/tip4p/omp
Neighbor list info ...
  update every 1 steps, delay 7 steps, check yes
  max neighbors/atom: 2000, page size: 100000
  master list distance cutoff = 10.8154
  ghost atom cutoff = 10.8154
  binsize = 5.4077, bins = 4 4 4
  1 neighbor lists, perpetual/occasional/extra = 1 0 0
  (1) pair lj/cut/tip4p/long/omp, perpetual
      attributes: half, newton on, omp
      pair build: half/bin/newton/omp
      stencil: half/bin/3d
      bin: standard
Per MPI rank memory allocation (min/avg/max) = 9.238 | 9.241 | 9.244 Mbytes
Step Temp PotEng TotEng E_pair E_mol Press Lx Ly Lz Volume Pxx Pyy Pzz Pxy Pxz Pyz Enthalpy 
24500000     279.4371    -3825.282   -3346.3364    -3825.282            0    12371.605    16.837728     19.83262    20.541989    6859.7154    11041.892    12599.419    13473.503    973.07493   -696.30897   -391.05203   -2108.6574 
24501000    275.75846   -3851.5833   -3378.9427   -3851.5833            0    10742.657    16.833019    19.827073    20.536244    6853.9607    9739.8415    12475.811    10012.317    413.57277   -97.008449   -1834.7147   -2305.1284 
24502000    268.69179   -3835.4683   -3374.9397   -3835.4683            0    10623.215    16.892179    19.896755    20.608419      6926.48    8598.6576    9985.4814    13285.506    1117.0082    776.36736    465.11403   -2301.8292 
24503000      264.813   -3848.3116   -3394.4312   -3848.3116            0    9136.7015    16.949283    19.964016    20.678085    6996.9627    7166.0094    10676.505    9567.5904   -1235.8702    304.63192   -715.17062     -2462.09 
24504000    259.73727   -3883.2582   -3438.0774   -3883.2582            0    11019.564    16.877201    19.879114    20.590146    6908.0722    11837.902    10759.938    10460.851    429.05701   -41.174692   -168.97063   -2327.8878 
24505000    260.31775   -3853.4094   -3407.2336   -3853.4094            0    8244.7811    16.943709    19.957451    20.671285    6990.0622    8872.4817    8386.9566    7474.9051    209.41287   -621.75558   -2211.0528   -2566.7369 
24506000    271.25165   -3838.8319   -3373.9158   -3838.8319            0    10657.267    16.845161    19.841375    20.551058    6868.8039    11613.862    10345.276    10012.664    1102.1672   -154.63264    545.82965   -2306.3298 
24507000    264.98633   -3818.9152   -3364.7377   -3818.9152            0    10233.573    16.834868     19.82925    20.538499    6856.2193     9797.855    10746.472    10156.393   -1492.7122    -254.9445    856.23667   -2341.4732 
24508000    289.38894     -3855.61   -3359.6073     -3855.61            0    10025.081    16.891122    19.895511     20.60713    6925.1806    11636.383    9274.5571    9164.3043     318.6336   -87.060453   -1335.6364   -2347.1076 
24509000    269.54531   -3808.3858   -3346.3944   -3808.3858            0    11824.084    16.905213    19.912108     20.62432    6942.5259    12218.688    12821.875    10431.691    1448.5116   -376.35089    9.1882164   -2149.2103 
24510000    268.05369   -3850.7066   -3391.2718   -3850.7066            0    8956.5031    16.924251    19.934533    20.647547    6966.0084    11217.163    8531.6811    7120.6654   -590.75626   -1100.7179   -46.521355   -2481.3619 
24511000    273.86503   -3838.9149   -3369.5196   -3838.9149            0    12783.486    16.853759    19.851502    20.561546    6879.3264    13619.012    12417.961    12313.486    90.776187   -1752.8639    742.45841    -2086.979 
24512000     271.5919   -3789.4973   -3323.9981   -3789.4973            0    10403.156    16.884175    19.887328    20.598654    6916.6389    12111.575    8822.9917    10274.901   -312.70364    1170.3596    623.76603   -2274.6101 
24513000    278.50321   -3820.4504   -3343.1054   -3820.4504            0    10032.861    16.891968    19.896507    20.608162    6926.2214    10188.461    10606.044    9304.0783   -748.69976    1481.2129   -75.737867   -2329.6677 
24514000    251.83338   -3831.9335   -3400.2997   -3831.9335            0    9776.2694    16.846566     19.84303    20.552772    6870.5227    9328.8202    9977.7407    10022.247    1050.5438   -758.52461    2320.4954   -2420.7222 
24515000    265.14453   -3843.1634   -3388.7147   -3843.1634            0    9019.7543    16.861114    19.860165     20.57052    6888.3371    9939.2526    7761.5219    9358.4885    1762.9626   -1147.6198    649.40553   -2482.5962 
24516000    262.25893   -3832.8857   -3383.3829   -3832.8857            0    11710.481    16.821755    19.813805    20.522501    6840.2106    12172.479     11054.84    11904.124    923.66576   -920.65628   -213.26393   -2215.1751 
24517000    268.85721   -3830.7647   -3369.9526   -3830.7647            0    11048.338     16.83144    19.825213    20.534318    6852.0328    11161.628    11681.158    10302.228    1066.6359   -312.54676    398.70377   -2265.8937 
24518000    252.60523   -3839.0994   -3406.1427   -3839.0994            0    9388.5279    16.864713    19.864404     20.57491    6892.7487    8966.5415    8640.2478    10558.794   -110.03326    662.28077    813.87348   -2462.3734 
24519000    265.17736   -3840.2096   -3385.7047   -3840.2096            0    9843.1728    16.890313    19.894557    20.606142    6924.1849    9194.3557      10029.2    10305.962    1089.9197    -236.6388   -1065.0008   -2391.7201 
24520000    254.49181   -3850.9894   -3414.7991   -3850.9894            0    9853.8571    16.883752    19.886829    20.598138    6916.1192    9116.6725     10632.57    9812.3285    134.89094   -72.545409     1188.316   -2420.8947 
24521000    272.73089   -3884.8358   -3417.3844   -3884.8358            0    8385.1992    16.904207    19.910922    20.623092    6941.2863    7520.3516    8889.5965    8745.6496    838.99178   -130.54248   -987.89182   -2568.5378 
24522000    278.08107    -3863.037   -3386.4156    -3863.037            0    10697.937    16.928997    19.940122    20.653337    6971.8697    12106.114    10239.651    9748.0473    226.01674    502.55849   -487.98841   -2298.6754 
24523000    251.06552   -3853.5561   -3423.2383   -3853.5561            0    12003.405    16.874807    19.876294    20.587225    6905.1328    12078.804    12153.416    11777.995   -781.36681    1230.4287    714.52044   -2214.4441 
24524000    283.66383   -3841.6815   -3355.4914   -3841.6815            0    9121.7259    16.907494    19.914795    20.627103    6945.3368    8508.8892    9145.0682    9711.2204    382.71622   -1787.1948    359.33349   -2431.5462 
24525000    267.06399   -3852.9103   -3395.1718   -3852.9103            0    9933.0752    16.887811    19.891611     20.60309    6921.1088    10756.532    9157.3201    9885.3737    125.56739   -1709.8451    735.43506   -2392.5543 
24526000    279.24255   -3849.1902    -3370.578   -3849.1902            0    10554.087    16.887177    19.890864    20.602317    6920.3296    12561.849     8604.375    10496.036    1967.4306   -259.62903   -154.33708   -2305.3972 
24527000    278.24815   -3842.9289   -3366.0211   -3842.9289            0     11941.93    16.869701    19.870279    20.580995    6898.8661    11417.894    12926.847     11481.05   -533.85803   -938.42688   -804.38779   -2164.5091 
24528000    272.65805     -3877.62   -3410.2934     -3877.62            0    9530.2565    16.857361    19.855745    20.565941    6883.7386     10943.43    8304.0128     9343.327   -240.02694    1349.7819    389.32599   -2453.5294 
24529000    263.59689   -3888.5209   -3436.7249   -3888.5209            0    9759.8754    16.816373    19.807466    20.515936    6833.6476    9512.8414    10277.841    9488.9437   -2354.6705   -1467.9469    787.88586   -2464.0387 
24530000    269.96531   -3814.5968   -3351.8855   -3814.5968            0     10487.63    16.859485    19.858247    20.568533     6886.341    9413.4106    9863.3874    12186.092    329.61335   -754.92999    518.86329   -2298.6105 
24531000    262.78893   -3783.5508   -3333.1395   -3783.5508            0      10012.2    16.939287    19.952243    20.665891     6984.591    10770.062    10119.819    9146.7176   -1373.0229   -900.35146    692.07536   -2313.2659 
24532000    277.54569   -3832.2647   -3356.5608   -3832.2647            0    8701.7769    16.927004    19.937775    20.650906    6969.4082    8149.3243    8144.4998    9811.5067    477.00801   -609.38011    1898.6207   -2472.0977 
24533000    274.94085   -3813.6436   -3342.4044   -3813.6436            0     9900.956    16.845544    19.841825    20.551524    6869.2714    12640.739    9139.4229    7922.7058   -372.30175   -118.81982    315.13454    -2350.514 
24534000    264.74876   -3878.5744   -3424.8041   -3878.5744            0    10848.504    16.861801    19.860974    20.571358    6889.1789    9044.2703    10980.184    12521.057   -27.220906    304.38853    515.15623   -2334.8375 
24535000    251.48795   -3854.1519   -3423.1102   -3854.1519            0    9323.8673    16.931039    19.942528    20.655829    6974.3936    9849.7426    7824.6388    10297.221   -408.00212   -383.07489    -408.8754   -2474.7388 
24536000     255.4988   -3855.4576   -3417.5414   -3855.4576            0     11087.58    16.887128    19.890806    20.602257    6920.2691    12057.078    8835.8328    12369.829    1324.0318   -132.28504    1594.0172   -2298.5271 
24537000    256.23342   -3814.7599   -3375.5846   -3814.7599            0    9558.0694    16.896351     19.90167    20.613509     6931.614    10522.336    8741.3622    9410.5098     613.7583    564.14126     -690.781   -2409.3547 
24538000    271.75976   -3840.8066   -3375.0197   -3840.8066            0    9366.0741    16.908952    19.916512    20.628882    6947.1339     8592.307      10571.7    8934.2157     436.7544   -328.72141    519.70677   -2426.0789 
24539000    275.58926   -3849.8825    -3377.532   -3849.8825            0    9196.8366    16.913623    19.922013     20.63458    6952.8922    10380.298    9405.7185    7804.4932   -1211.5886    607.42628    156.73496   -2444.9654 
24540000    274.22655   -3858.2655   -3388.2506   -3858.2655            0    9039.7752       16.919    19.928347     20.64114     6959.526    9138.7118    9745.2817     8235.332   -1172.0895    1499.7305    780.64248   -2470.7355 
24541000    265.31429   -3845.8663   -3391.1267   -3845.8663            0     9675.343    16.939488     19.95248    20.666136    6984.8397    10264.942     9189.329    9571.7579   -46.712014    1207.2872    347.71494   -2405.5312 
24542000    269.25082   -3833.5739   -3372.0872   -3833.5739            0    10633.818    16.906776    19.913949    20.626228    6944.4525    11726.794    10822.543    9352.1169    990.04365    437.83301   -350.84611   -2295.1184 
24543000    261.31876    -3814.927   -3367.0355    -3814.927            0    8969.3619    16.896296    19.901605    20.613441    6931.5459    10410.568    8744.1036    7753.4137    665.74153    1580.0648    1088.5592   -2460.3274 
24544000    271.08408   -3828.3929   -3363.7641   -3828.3929            0    12684.858     16.82145    19.813446     20.52213    6839.8392    13312.445     12687.28    12054.848     309.6313    675.20034    24.587209   -2098.4237 
24545000    248.25045   -3857.0779   -3431.5851   -3857.0779            0    9785.0811      16.8956    19.900785    20.612593      6930.69    9337.5978    9358.3327    10659.313   -106.26572    1022.0894   -1963.4644   -2442.5384 
24546000    273.93242   -3849.7287   -3380.2179   -3849.7287            0    10515.658    16.879673    19.882025    20.593161    6911.1076    10163.401    10675.386    10708.186   -344.34618   -1221.8301    597.95729   -2320.3299 
24547000    264.26066   -3876.7114   -3423.7777   -3876.7114            0    9443.0011    16.911095    19.919036    20.631497    6949.7758    9891.3263    7412.7523    11024.925   -1939.4113   -333.23142   -945.55901    -2466.679 
24548000    265.03548   -3827.6163   -3373.3546   -3827.6163            0    12490.865    16.881542    19.884226    20.595441    6913.4035    13084.352    11063.438    13324.806    698.18155   -740.74337     -2072.12   -2113.9643 
24549000    264.80597   -3818.6507   -3364.7823   -3818.6507            0    13962.081    16.775618    19.759462    20.466215    6784.0833    14795.382    12761.708    14329.154    2209.4133   -2040.9315    -345.7093   -1983.3894 
24550000    264.03436   -3843.0296   -3390.4837   -3843.0296            0     9753.714    16.846971    19.843507    20.553266    6871.0183    10516.164    9865.1575    8879.8209    2602.8691     1036.885    518.90455   -2413.0957 
24551000     282.3514    -3820.992   -3337.0513    -3820.992            0    8220.1439    16.845487    19.841758    20.551454    6869.2018    9942.7451    7939.8378    6777.8489    477.83138   -1679.6447    38.617744   -2513.5552 
24552000    251.82799   -3812.7954   -3381.1709   -3812.7954            0    11137.284    16.831074    19.824782    20.533871    6851.5852    11558.961      11069.8    10783.092    818.49606   -643.25031   -608.98018   -2268.2962 
24553000    266.41354   -3865.0074   -3408.3837   -3865.0074            0    10145.592    16.829309    19.822702    20.531717    6849.4296    10701.922    9909.1351    9825.7175   -154.78876    1211.2892    668.87712   -2394.9212 
24554000    276.18447    -3838.761   -3365.3903    -3838.761            0    10347.457    16.916246    19.925104    20.637781    6956.1283    11381.397    9271.2461    10389.727   -328.21659   -2361.2356    804.57141   -2315.6616 
24555000    263.46649   -3849.7003   -3398.1278   -3849.7003            0    10143.016    16.841285    19.836809    20.546328    6864.0625    10431.004    11307.217    8690.8274   -420.25358    364.06776    1154.6951    -2382.758 
24556000    275.75621   -3813.8211   -3341.1844   -3813.8211            0    9762.1218    16.872593    19.873686    20.584524    6902.4156    11684.656    9245.0838    8356.6257    967.75663   -729.72138    903.00397   -2358.4838 
24557000    285.30167   -3882.3592   -3393.3619   -3882.3592            0    9041.5095    16.900819    19.906933     20.61896    6937.1144    9954.2716    7843.2238    9327.0332   -1671.5572    -863.0328     2040.013   -2478.6261 
24558000    262.19165   -3826.2601   -3376.8726   -3826.2601            0    9760.0733    16.830741     19.82439    20.533465     6851.179    9534.9695    9323.7289    10421.522   -743.88998    19.082041    669.57992   -2401.6713 
24559000    274.20249   -3850.1058   -3380.1321   -3850.1058            0    10826.337    16.813659    19.804269    20.512625    6830.3394    9076.8765    11944.976    11457.159    688.86574   -707.99439    2104.5682   -2301.6828 
24560000    258.13347   -3876.9224   -3434.4904   -3876.9224            0    9519.1619    16.811449    19.801666    20.509928    6827.6462    9244.3119    9285.3358    10027.838    4.6567404   -199.39357    3060.1044   -2486.6273 
24561000     265.9678   -3848.2356   -3392.3759   -3848.2356            0    12360.785    16.789304    19.775582    20.482911    6800.7002    12182.717    12452.508     12447.13   -1432.1731    14.582488   -864.11521   -2166.4179 
24562000    264.16575   -3831.1471    -3378.376   -3831.1471            0    10461.224    16.848981    19.845874    20.555717    6873.4771    10799.731    11329.966    9253.9761    -1152.263   -1347.7622   -533.28915   -2329.7156 
24563000    282.28227   -3851.1471    -3367.325   -3851.1471            0    8870.2272    16.959404    19.975938    20.690434    7009.5054    7798.7939    10317.447    8494.4403    311.27671     382.0025   -587.70354   -2460.5532 
24564000    260.96988   -3826.6697   -3379.3762   -3826.6697            0    9393.8796    16.896182    19.901471    20.613303    6931.4064    9976.7936    7163.6994    11041.146   -532.09385    373.26803    379.81142   -2429.7729 
24565000    256.42402   -3847.1973   -3407.6953   -3847.1973            0    11078.981    16.857064    19.855394    20.565578     6883.374    13099.608    10763.681    9373.6538    -973.6377   -2274.5383    34.249285   -2295.5102 
24566000    287.30791   -3862.3133   -3369.8774   -3862.3133            0    8918.0382    16.903483     19.91007     20.62221    6940.3952    11327.204    9606.4355    5820.4753   -64.247436    69.794063    1213.5208   -2467.2065 
24567000     252.3952   -3850.0549   -3417.4581   -3850.0549            0    7070.1028    16.921443    19.931224     20.64412    6962.5407    6727.0765    8705.5603    5777.6717   -1107.8501    541.02368    528.47779   -2699.5492 
24568000    265.47511    -3833.242   -3378.2267    -3833.242            0    10254.978    16.871894    19.872863    20.583672     6901.558    9515.1662    12167.114    9082.6553    286.32943    -555.4718   -216.28311   -2346.0412 
24569000    249.95973   -3873.9953   -3445.5729   -3873.9953            0    8154.6112    16.873247    19.874457    20.585322    6903.2184    7670.5526     8623.329    8169.9522    80.441564   -544.35638     1241.352   -2624.5963 
24570000    264.48156   -3857.8624     -3404.55   -3857.8624            0    9150.6928    16.925437    19.935929    20.648994    6967.4728    9007.9683    8975.7587    9468.3515    -906.0841   -1365.4087   -135.09016   -2474.7166 
24571000    262.84986   -3843.9959   -3393.4803   -3843.9959            0    8580.4784    16.896524    19.901873     20.61372    6931.8266    7649.6963    8708.6744    9383.0645    2069.8682    576.61708     831.9027    -2526.049 
24572000    274.48719   -3782.7423   -3312.2807   -3782.7423            0    10431.415    16.914991    19.923625    20.636249    6954.5798    11001.286    10871.493    9421.4663    1156.4066     1984.056    348.61678   -2254.2701 
24573000     262.4359   -3847.2127   -3397.4066   -3847.2127            0     12880.28    16.835599    19.830112    20.539392    6857.1135    12184.679    13306.755    13149.407   -518.30678    -1226.294   -510.72479   -2109.3274 
24574000    261.10255    -3835.666   -3388.1452    -3835.666            0    12013.662    16.816758     19.80792    20.516406    6834.1172    10786.481    13428.083    11826.422    697.64791   -1329.5618    957.66108   -2190.7605 
24575000      268.914   -3842.2814    -3381.372   -3842.2814            0    12584.509    16.824686    19.817257    20.526077    6843.7868    13305.583    12062.307    12385.637    1436.0709    898.65553   -1317.5086    -2125.317 
24576000    257.93584   -3831.5016   -3389.4084   -3831.5016            0    9728.1437    16.901506    19.907741    20.619798    6937.9599    12432.934    7999.1211    8752.3757   -39.699267   -2167.8738   -995.45638   -2405.0853 
24577000    259.68683   -3853.1744     -3408.08   -3853.1744            0    9478.3352    16.847501    19.844131    20.553912    6871.6663    9324.5304    9141.9163     9968.559    202.06125   -1287.9725   -721.29714   -2458.1973 
24578000    291.85895   -3835.0323   -3334.7961   -3835.0323            0     9350.527     16.84513    19.841338    20.551019    6868.7651    8922.0675    10469.605    8659.9088    136.82853    742.97607   -1095.6511   -2398.1174 
24579000    264.99565    -3845.129   -3390.9356    -3845.129            0    10003.845     16.89295    19.897664     20.60936    6927.4291    8078.3089    8849.6398    13083.585   -960.15219    634.31392   -259.73588   -2380.2527 
24580000    278.74093   -3820.2466   -3342.4942   -3820.2466            0    9261.4984    16.935134     19.94735    20.660823    6979.4543    9288.1903    8307.1816    10189.123   -619.55326    2188.1863    20.944916   -2399.7831 
24581000    265.77435    -3815.569   -3360.0408    -3815.569            0     12123.54    16.811019     19.80116    20.509404    6827.1224    13259.884    11835.088    11275.649   -59.852813    1323.7614   -1838.4453   -2152.9414 
24582000    268.81702   -3850.8577   -3390.1145   -3850.8577            0    11153.436    16.885064    19.888375    20.599739    6917.7319    9814.8752    10599.056    13046.377   -353.68105   -1100.0516    371.98274   -2264.8664 
24583000    264.58315   -3834.3449   -3380.8584   -3834.3449            0    10742.799    16.876992    19.878868    20.589891    6907.8157    9789.4454     10570.63    11868.322    170.98977    -1224.941   -291.47036   -2298.5922 
24584000    280.33066   -3802.8876   -3322.4104   -3802.8876            0    10175.936    16.907181    19.914426    20.626722    6944.9514    10338.022    9559.3348     10630.45    1071.0598   -417.01002    198.75452   -2291.7409 
24585000    278.62013    -3849.739   -3372.1936    -3849.739            0    11679.106    16.847308    19.843904    20.553677    6871.4304    8989.8162    13463.415    12584.087   -594.06496   -888.47079   -623.84912   -2201.7981 
24586000    257.79109   -3832.8619   -3391.0168   -3832.8619            0    9532.7767    16.926972    19.937737    20.650866    6969.3681    10546.736    9354.9125    8696.6814    2277.2625    330.78918     854.7692    -2422.095 
24587000    263.69817   -3839.9446    -3387.975   -3839.9446            0     10784.93    16.860002    19.858856    20.569163    6886.9745    11001.092    10396.052    10957.647   -89.191211   -804.05811   -944.29949   -2304.7424 
24588000    269.92546   -3800.2799   -3337.6369   -3800.2799            0    11964.046    16.847475      19.8441     20.55388    6871.6341    12318.174    12131.236    11442.729    1006.6431   -966.00462    1021.1717   -2138.6512 
24589000    270.88423   -3893.0827   -3428.7964   -3893.0827            0    9455.0409    16.894534     19.89953    20.611293    6929.3784    11534.997    8213.6905    8616.4353   -1102.6616   -225.49923    -1101.965   -2473.2901 
24590000    263.01559   -3852.8296   -3402.0299   -3852.8296            0    11078.338    16.828629    19.821902    20.530888    6848.5995    9924.2525    12165.229    11145.532    1033.9177   -1095.9011   -671.21019   -2295.5278 
24591000    251.79321   -3863.3975   -3431.8326   -3863.3975            0    11001.687     16.86174    19.860902    20.571283    6889.1037    9604.4609     10342.52    13058.079    579.75431    1118.5542    672.37703   -2326.4875 
24592000    280.42683   -3866.5435   -3385.9015   -3866.5435            0    10886.778    16.872853    19.873992    20.584842    6902.7346    11585.101    12841.124     8234.109     377.4858   -450.41807    869.13887   -2289.9372 
24593000    251.49747    -3834.202    -3403.144    -3834.202            0    12045.368    16.846302    19.842718    20.552449    6870.1991    12434.205    13075.832    10626.066    566.37747    1214.0528    2277.5402   -2196.2607 
24594000    261.08707   -3832.7941   -3385.2998   -3832.7941            0    9691.7292    16.885314    19.888669    20.600043    6918.0388    11437.132    7029.1349    10608.921   -687.81172    752.44334    451.42004    -2407.477 
24595000    268.31828   -3887.9738   -3428.0855   -3887.9738            0     9779.383    16.872321    19.873365    20.584192    6902.0811    9102.0019    11398.831    8837.3161     1806.936   -981.76181    466.72769    -2443.695 
24596000     275.5245   -3852.1432   -3379.9036   -3852.1432            0    10556.396     16.86636    19.866344    20.576919    6894.7679    8076.2252    11798.431    11794.533   -225.08327    41.482556    91.144485   -2318.4251 
24597000    278.56742   -3853.8081   -3376.3531   -3853.8081            0    8354.4366    16.938101    19.950845    20.664443    6983.1233    10416.853     7251.478     7394.979    477.48542    -472.2441   -265.26774   -2525.5231 
24598000    254.74275   -3826.0132   -3389.3928   -3826.0132            0    10732.978    16.832629    19.826613    20.535768    6853.4843    9485.4597    12320.566    10392.908    1962.8217   -25.678221    84.367658   -2316.6206 
24599000    269.87452   -3812.6895   -3350.1338   -3812.6895            0    9547.3643    16.848973    19.845865    20.555708    6873.4676    12602.872    7574.9804    8464.2408   -280.50143     151.1751    1061.7142   -2393.0823 
24600000    266.51691   -3823.5834   -3366.7825   -3823.5834            0    10771.083    16.855115      19.8531    20.563201    6880.9877    11281.504    11760.848    9270.8964   -2026.0171    -491.5183   -1973.2121   -2285.8812 
24601000    251.17407   -3822.6834   -3392.1796   -3822.6834            0    10034.191    16.870548    19.871278     20.58203    6899.9062    9988.9225    9939.0665    10174.585    966.15055   -1975.1639    1995.3249   -2382.4584 
24602000    276.32879   -3816.0412   -3342.4231   -3816.0412            0    8786.2501    16.925721    19.936264     20.64934    6967.8235    11024.952    8248.4418    7085.3562    1283.6179    329.52687    2091.2993    -2449.577 
24603000    260.67889    -3794.597   -3347.8023    -3794.597            0    8047.9614    16.909318    19.916943    20.629329    6947.5851    6601.0365    11173.973    6368.8751   -35.047156    105.34345   -92.911557   -2532.3555 
24604000    267.04104   -3858.5763    -3400.877   -3858.5763            0     8271.449    16.920912    19.930599    20.643473    6961.8853    7045.3773    6741.9462    11027.023   -431.38835   -1294.6553   -2285.5652   -2561.0607 
24605000    276.45643    -3840.622   -3366.7851    -3840.622            0    10852.332    16.857256    19.855621    20.565813    6883.6096    10616.871    11713.508    10226.618    1305.7561   -1491.1015    1282.9333   -2277.3153 
24606000    257.57208   -3842.9253   -3401.4556   -3842.9253            0    9944.5518      16.8531    19.850726    20.560743      6878.52    12818.497    7651.9473    9363.2111    -1228.985   -995.87036   -1019.9238   -2403.8563 
24607000    261.28702   -3818.3172   -3370.4802   -3818.3172            0    10534.592    16.824425     19.81695    20.525759    6843.4685    10235.173     12203.37    9165.2324    203.58292   -632.87585    77.526209   -2319.0756 
24608000     262.7505   -3820.6153   -3370.2699   -3820.6153            0    8871.6077    16.926419    19.937085    20.650191    6968.6848    8718.2716    8530.9665    9365.5851   -1414.1526   -943.71836   -1065.1834   -2468.6385 
24609000    262.00597   -3829.6627   -3380.5934   -3829.6627            0    10540.907    16.815399    19.806319    20.514747    6832.4601     11036.61    9754.7124    10831.397    1442.1639    228.10235   -1442.4099   -2330.2509 
24610000    258.01399    -3831.376   -3389.1489    -3831.376            0     9387.316    16.884159    19.887309    20.598635    6916.6197    7856.8231    10304.778    10000.347   -717.82631    -101.8088    548.87632   -2442.2334 
24611000    277.19732   -3860.0525   -3384.9458   -3860.0525            0    10226.893    16.868364    19.868705    20.579365    6897.2267    10248.461    11937.518    8494.7014    613.65016   -62.727614   -79.880493    -2356.233 
24612000    275.38119   -3861.6269    -3389.633   -3861.6269            0    10864.658    16.844223    19.840269    20.549912    6867.6555    9460.4129    12318.985    10814.577   -1652.4578    814.47334   -322.20166   -2301.4537 
24613000    263.88986   -3836.2632    -3383.965   -3836.2632            0    8916.0645    16.904596    19.911382    20.623568    6941.7667    9825.7625    8030.5744    8891.8566   -578.49606    54.725856   -2572.1339   -2481.3156 
24614000    278.83719   -3819.6537   -3341.7363   -3819.6537            0     10629.51    16.948313    19.962874    20.676902    6995.7621    11392.024    10702.327    9794.1779    180.55131    881.63405   -1930.3972   -2257.2498 
24615000    276.22306   -3832.5793   -3359.1425   -3832.5793            0     9059.796    16.931125    19.942629    20.655933    6974.4994    8868.3656    9671.2878    8639.7346   -650.58401    1285.2432    1901.4766    -2437.617 
24616000    262.96927    -3866.264   -3415.5437    -3866.264            0    10630.726    16.914337    19.922855    20.635452    6953.7734     12430.68    9976.4103    9485.0883    88.943811     60.54688    601.20577   -2337.4429 
24617000    252.97842   -3843.2455   -3409.6492   -3843.2455            0     10988.61    16.889432     19.89352    20.605068    6923.1021    9485.2551    10497.694     12982.88    582.48226    48.922899   0.72261571   -2300.1694 
24618000    249.60745   -3842.3093   -3414.4907   -3842.3093            0    10417.473    16.895074    19.900165     20.61195    6930.0418    11247.769    10103.018    9901.6311    866.29996    1121.8042    220.09917   -2361.6222 
24619000    275.79897   -3856.4998   -3383.7898   -3856.4998            0    9256.4971    16.887833    19.891636    20.603116    6921.1352    9984.9652    10079.386    7705.1406    211.04072   -398.90252    21.924847   -2449.4606 
24620000    264.62884   -3829.8726   -3376.3078   -3829.8726            0     11681.77     16.79242    19.779253    20.486713     6804.488     11717.15    13751.882    9576.2795     569.7226    -1302.545   -1425.8588     -2217.05 
24621000    252.33056   -3819.5372   -3387.0513   -3819.5372            0    10730.911    16.857422    19.855816    20.566015    6883.8129    11357.235    10013.698      10821.8    1953.0943    424.30214    -1387.953   -2309.7392 
24622000    277.04544   -3818.7641   -3343.9177   -3818.7641            0     10300.61    16.862045    19.861262    20.571656    6889.4783     12711.68    9505.3323    8684.8189   -281.02605    684.55058    196.93631   -2308.9539 
24623000    255.69339   -3863.4568   -3425.2071   -3863.4568            0    10330.572    16.862379    19.861655    20.572063    6889.8873    11447.413     10924.91    8619.3919    383.27802    874.31207    739.23708   -2387.1712 
24624000     269.9219   -3814.2593   -3351.6224   -3814.2593            0    9882.6181    16.843411    19.839314    20.548923    6866.6635    9335.4688    11868.344    8444.0411   -185.36204   -2060.9756    428.88184   -2361.9449 
24625000    271.24315   -3797.2211   -3332.3197   -3797.2211            0    8596.7869    16.898796     19.90455    20.616492    6934.6239    8380.4671    7912.7277    9497.1661    1281.3015    986.34767   -265.36297    -2462.889 
24626000    282.23456     -3860.75   -3377.0096     -3860.75            0    10666.406    16.820495    19.812322    20.520965    6838.6744    10148.058    9526.1013    12325.059   -491.40341   -1461.2957    477.15102   -2313.1951 
24627000    271.26911   -3838.9252   -3373.9792   -3838.9252            0    8834.2784     16.89998    19.905945    20.617937    6936.0816    10877.617    8557.5543    7067.6638    407.01736    904.71949   -162.28128   -2480.3422 
24628000    279.91669   -3854.5085   -3374.7408   -3854.5085            0    10396.287    16.848281     19.84505    20.554864    6872.6208    10785.887     9041.587    11361.387   -701.22024   -1760.6069   -545.48384   -2332.7197 
24629000    289.22155   -3868.8257   -3373.1099   -3868.8257            0    8592.6979    16.929869    19.941149      20.6544     6972.947      7647.67    10421.167    7709.2562   -206.19134   -1116.5193    247.86428   -2499.2902 
24630000    262.63741   -3875.8558   -3425.7043   -3875.8558            0    9157.5231     16.88221    19.885013    20.596256    6914.2243    9326.0553    10003.747    8142.7672    512.29123    662.34103    109.88082   -2502.2883 
24631000       265.41   -3891.4932   -3436.5896   -3891.4932            0    8974.5937    16.831372    19.825133    20.534234     6851.949    8971.7543    8591.9843    9360.0424    -254.1378    688.03243   -651.06957   -2539.7706 
24632000    273.02333   -3852.6153   -3384.6627   -3852.6153            0    9378.4466    16.881141    19.883754    20.594952    6912.9108    11407.597    9597.5208    7130.2225   -1440.0509    219.17019   -1113.5889   -2439.1491 
24633000    262.10388   -3870.9327   -3421.6957   -3870.9327            0    7716.4252    16.958928    19.975377    20.689853    7008.9151    6226.7026    6790.6718    10131.901    180.64844   -1645.2201   -564.76462   -2632.9394 
24634000    261.96943   -3893.7834   -3444.7767   -3893.7834            0    9207.8681    16.869897    19.870511    20.581235    6899.1075    8211.6823    8960.0707    10451.851   -1822.4114    63.833785   -5.8478902   -2518.3141 
24635000    258.71233   -3879.1798   -3435.7557   -3879.1798            0    11039.366    16.814942     19.80578    20.514189    6831.9027    12091.728    11190.058    9836.3104   -847.64367    367.76566   -782.08518   -2335.8342 
24636000    255.88576    -3851.086   -3412.5066    -3851.086            0    9795.0416    16.889643    19.893768    20.605325    6923.3609    9354.7676    11158.802    8871.5552   -1387.7228    1137.6774     -92.0538      -2423.5 
24637000    263.51417   -3875.0957   -3423.4414   -3875.0957            0    12373.501    16.830503     19.82411    20.533175    6850.8884    13096.771    11705.338    12318.395   -175.93874    836.48131    516.61974   -2187.1655 
24638000    263.65115   -3848.6812   -3396.7921   -3848.6812            0    11308.096    16.867715     19.86794    20.578572    6896.4298    11475.251    11180.692    11268.347    132.41732    650.29461   -678.04512   -2259.4537 
24639000    248.91128   -3894.7202   -3468.0948   -3894.7202            0    9990.7207    16.888743    19.892708    20.604226     6922.254    9927.0268    9415.7529    10629.382    178.66294    1417.4007   -214.70219   -2459.4918 
24640000    253.57368   -3819.8442   -3385.2276   -3819.8442            0    11352.658    16.851824    19.849222    20.559186    6876.9571    12784.648    7624.9939    13648.333   -1005.9399   -56.859895   -1652.6312   -2246.6313 
24641000    263.59043   -3906.0604   -3454.2755   -3906.0604            0    8932.9289    16.886921    19.890562    20.602004    6920.0143     8086.046    7618.1124    11094.628     1169.795    58.605793    670.46443   -2552.7526 
24642000    265.76745   -3884.9021   -3429.3858   -3884.9021            0    9822.7202    16.825968    19.818768    20.527642     6845.352    8737.1739    9440.7661    11290.221    1675.1277    1524.2479    2175.1245   -2448.7597 
24643000    246.21271   -3826.6527   -3404.6525   -3826.6527            0    12459.727    16.807107    19.796552    20.504631    6822.3577    13646.943    11265.334    12466.905     200.0947   -1060.5857   -2002.4231   -2164.9459 
24644000    253.11776   -3846.9563   -3413.1211   -3846.9563            0    11622.746    16.827534    19.820613    20.529553    6847.2636    12996.631    11782.441    10089.166   -521.79934    1194.4331    358.46875     -2252.47 
24645000    278.01611   -3836.9256   -3360.4155   -3836.9256            0    12525.315    16.763708    19.745434    20.451685    6769.6449    12210.318    13107.925    12257.703   -378.93739   -1099.4548    675.14511   -2123.8121 
24646000    265.82417   -3870.4012   -3414.7876   -3870.4012            0    9519.1836    16.811406    19.801615    20.509876    6827.5936     9910.373    10189.047    8458.1304   -472.19856   -2094.8408   -287.38299   -2466.9297 
24647000    256.50359    -3865.834   -3426.1956    -3865.834            0    12003.107    16.814331     19.80506    20.513444    6831.1581    11456.171    12278.617    12274.534   -319.98922    1199.0372   -289.54481   -2230.3808 
24648000    258.75472   -3897.0386   -3453.5419   -3897.0386            0    9590.0377    16.869331    19.869844    20.580545    6898.4133    8897.8928    10163.853    9708.3671   -4.5597467     1752.504   -583.23394   -2488.7238 
24649000    275.75421   -3846.3751   -3373.7418   -3846.3751            0    10522.406    16.922567    19.932549    20.645492    6963.9287    11665.362    9737.9588    10163.897    822.80678    1018.1806    777.10028   -2305.0678 
24650000    255.88316   -3881.0873   -3442.5123   -3881.0873            0     8805.698     16.88828    19.892163    20.603663    6921.6857    10130.601    7386.3094    8900.1839    1074.0797     1243.827    377.51666   -2553.6151 
24651000    272.24215   -3859.0244   -3392.4106   -3859.0244            0    10654.064    16.911117    19.919062    20.631524    6949.8031     10950.19     11227.05    9784.9519    -880.4952    770.23905    105.05156     -2312.56 
24652000    251.45445   -3896.6792   -3465.6949   -3896.6792            0    10598.282    16.967762    19.985782     20.70063    7019.8735    10074.732    10287.054    11433.058   -533.62859     218.8566    1592.9525   -2380.6677 
24653000    263.77465   -3875.9587    -3423.858   -3875.9587            0     10666.42    16.882931    19.885863    20.597136    6915.1106     11150.49    10075.429    10773.339     687.1504    1609.2661      1462.24   -2348.1518 
24654000    253.84664   -3871.7952   -3436.7107   -3871.7952            0    10589.077     16.86982    19.870419    20.581141    6899.0123    9614.9633    9745.5567    12406.711    30.840707    330.18766    1011.2458   -2371.2905 
24655000    264.36364   -3871.3063   -3418.1961   -3871.3063            0     10534.39    16.836987    19.831746    20.541084    6858.8087    8499.2145    10840.854    12263.101    1107.6224    1754.7542    1636.8389   -2364.4549 
24656000    253.89159   -3900.5298   -3465.3683   -3900.5298            0    7526.7167    16.918141    19.927335    20.640092    6958.4656    8916.1637    6915.1766    6748.8099   -1017.8423   -13.333419    663.51356   -2701.5414 
24657000    254.89329   -3866.4768   -3429.5985   -3866.4768            0    10519.763     16.85238    19.849877    20.559864    6877.6377    12456.206    9769.4538    9333.6306   -1625.9487    837.55498    698.92748   -2374.4316 
24658000    272.33524   -3884.7332     -3417.96   -3884.7332            0    9161.8843    16.859271    19.857995    20.568272    6886.0787    9351.4016    7759.9232    10374.328    39.305157    968.48915    549.56046    -2497.865 
24659000    270.19612   -3866.1305   -3403.0236   -3866.1305            0    9087.5226    16.893902    19.898785    20.610521    6928.6002    11020.954    9187.4241    7054.1892   -1006.1018   -406.11274    1052.5287    -2484.761 
24660000    288.89175   -3847.8681   -3352.7175   -3847.8681            0     12770.47    16.835708     19.83024    20.539525    6857.2465    13456.807    13059.148    11795.454    1541.0244    521.18648    160.65929   -2075.5951 
24661000    257.76318   -3875.1321   -3433.3348   -3875.1321            0    8329.6728    16.855162    19.853154    20.563258    6881.0443    9008.3406    7756.2213    8224.4565    339.05082   -234.48084   -1086.5931   -2597.4274 
24662000    270.88612   -3865.4945    -3401.205   -3865.4945            0    10279.423    16.815419    19.806343    20.514772    6832.4848    9243.6017    11095.632    10499.036    1758.7533    832.42937   -1442.7574   -2376.9141 
24663000    258.03469   -3832.9639   -3390.7013   -3832.9639            0     12240.93     16.80102    19.789382    20.497205    6814.9477    13385.103     14379.71    8957.9758   -1363.8343   -343.95021   -264.97396   -2174.0873 
24664000    259.41239   -3849.4097   -3404.7857   -3849.4097            0    11766.094    16.834526    19.828848    20.538082    6855.8016    11990.894    12359.402    10947.986   -675.94574    29.461608    330.21858   -2228.3548 
24665000     273.7071   -3873.1816    -3404.057   -3873.1816            0    11992.404    16.868096    19.868389    20.579038    6896.8976    12249.091     11067.01    12661.111   -1364.1567    31.461314   -892.45391   -2197.8109 
24666000    267.56941   -3827.8129    -3369.208   -3827.8129            0    10667.163    16.870221    19.870892    20.581631    6899.5051    11063.383    11655.191    9282.9155    1525.1251    723.50133   -544.52701   -2295.8546 
24667000    256.34303   -3871.8274   -3432.4643   -3871.8274            0    8314.3948    16.914855    19.923465    20.636084    6954.4125    10042.791    9069.9854    5830.4084   -92.472876   -262.16771   -1274.8724   -2589.1936 
24668000     281.6054   -3828.2803   -3345.6183   -3828.2803            0    10687.145    16.889754    19.893899     20.60546    6923.4976     11173.37    10976.007    9912.0587   -1460.9401    1446.2075   -1189.2676   -2266.5147 
24669000    284.55489   -3827.1347   -3339.4174   -3827.1347            0    11717.777    16.876981    19.878854    20.589877    6907.8013    13310.988    12876.092    8966.2523   -1005.6106   -263.82106   -171.38529    -2158.931 
24670000      279.801   -3860.0406   -3380.4713   -3860.0406            0    9580.3409    16.880974    19.883558    20.594749     6912.706    9273.9649    8994.7847    10472.273   -437.99366     -1613.59   -193.39677   -2414.6318 
24671000    264.13705   -3858.3579    -3405.636   -3858.3579            0    10052.441    16.946864    19.961168    20.675135    6993.9682    10500.576    9839.4263    9817.3201   -897.57353   -1222.5019   -1263.1995   -2380.2886 
24672000    270.00962   -3875.1405   -3412.3533   -3875.1405            0    12495.843     16.90826    19.915696    20.628037    6946.2805    11463.554    12382.762    13641.213    1125.5393    294.73187     584.3926   -2146.4697 
24673000    264.99153   -3857.2327   -3403.0463   -3857.2327            0    8768.1117    16.912831    19.921081    20.633614    6951.9157    8335.0281    9075.9325    8893.3746   -33.124755    1390.0262     1431.998   -2514.0776 
24674000    266.92591    -3881.896   -3424.3941    -3881.896            0    8966.0984    16.962565    19.979661     20.69429    7013.4255    8229.7125    9386.7872    9281.7957    690.24061     737.0485   -2530.9115   -2507.3092 
24675000    270.58339   -3834.5533   -3370.7826   -3834.5533            0     10136.97    16.906513    19.913639    20.625906     6944.128    10733.895     9938.777    9738.2391   -872.04743    224.23264   -843.93452   -2344.1813 
24676000    272.81189   -3889.6565   -3422.0663   -3889.6565            0    9341.1429    16.962645    19.979755    20.694387    7013.5245    9859.3879    8000.6655    10163.375   -698.94541    410.88836   -370.66963   -2466.6069 
24677000    268.55683   -3844.2409   -3383.9437   -3844.2409            0    10698.161    16.954324    19.969954    20.684235    7003.2074    10599.519      12310.5    9184.4637    1714.4405    488.06219    255.42075   -2291.2914 
24678000    276.52688   -3870.7008   -3396.7432   -3870.7008            0    8103.5997    16.966451    19.984238    20.699031    7018.2465    7516.9308    9419.7606    7374.1079   -1238.2928    571.25182    105.92576   -2567.3079 
24679000    269.89029   -3857.6043   -3395.0216   -3857.6043            0    8933.1531    16.953722    19.969245    20.683501     7002.462    8201.0907     9495.738    9102.6307   -606.08274    540.87875   -142.62608   -2482.7348 
24680000      254.554   -3831.3416   -3395.0448   -3831.3416            0    8710.5867    16.928539    19.939582    20.652778    6971.3036    8456.1241    8566.2641    9109.3719    733.42333   -371.97835   -369.40743   -2509.4454 
24681000    277.94719   -3830.2795   -3353.8875   -3830.2795            0     11434.69    16.874777    19.876259    20.587189    6905.0964     12070.54    10857.786    11375.743   -116.91976   -1304.8176   -839.35543   -2202.3714 
24682000    272.23131   -3809.0788   -3342.4837   -3809.0788            0    10152.255    16.882342    19.885169    20.596418     6914.387    10210.873    12665.605    7580.2866    279.62116    1047.4475   -1506.3527   -2318.7379 
24683000    269.95924   -3874.5967   -3411.8958   -3874.5967            0    8789.4087    16.913802    19.922224    20.634798    6953.1129    8067.9688    10363.168    7937.0894    774.05768   -1016.0724   -69.707014   -2520.6145 
24684000    262.88814   -3854.4742   -3403.8929   -3854.4742            0    8390.9117    16.889101     19.89313    20.604664    6922.6951    7275.4073    7731.0945    10166.233   -256.44916   -1326.6793   -294.34991    -2556.743 
24685000    274.36095   -3813.6741   -3343.4288   -3813.6741            0     10488.64    16.842239    19.837932    20.547492    6865.2291    10867.243     10307.55    10291.128   -2523.5025   -454.36771   -1037.1431   -2293.2818 
24686000    273.53713   -3839.1838   -3370.3505   -3839.1838            0    9799.9787    16.905665     19.91264    20.624871    6943.0827    10405.666    11537.158    7457.1119    295.20749     -80.4392    685.16458   -2378.0268 
24687000    257.47645   -3841.0563   -3399.7505   -3841.0563            0    12185.047    16.844281    19.840339    20.549984    6867.7276    12061.292    13511.227    10982.622    -826.5172    31.596987    864.63339   -2179.3113 
24688000    277.57764   -3824.7867   -3349.0281   -3824.7867            0    11468.428    16.866493    19.866501    20.577082     6894.932    10940.458    12081.387    11383.439     534.2792    181.85557    1615.4836   -2195.8145 
24689000    250.90246   -3849.5657   -3419.5275   -3849.5657            0    8419.5873    16.929884    19.941167    20.654419    6972.9661     8897.066    7480.9174    8880.7785   -544.61477   -544.68155    2309.6373   -2563.3097 
24690000    281.48272   -3806.6361   -3324.1844   -3806.6361            0    10727.988    16.887277    19.890982    20.602438    6920.4521    13600.809    10080.903     8502.252   -1215.3265    1032.8865   -29.446463   -2241.4332 
24691000     258.4004   -3812.6744    -3369.785   -3812.6744            0    9376.1778    16.865766    19.865644    20.576195    6894.0395    10120.187     9754.032    8254.3145    21.962111    976.28194   -987.33167   -2427.0807 
24692000    266.99174   -3822.9524   -3365.3377   -3822.9524            0    11569.826    16.913452    19.921812    20.634372    6952.6816    11667.548    12024.885    11017.044    1059.8086   -1091.8112   -1354.0619   -2192.1836 
24693000    263.06546   -3852.1606   -3401.2754   -3852.1606            0    8774.0958    16.992068    20.014412    20.730284    7050.0845    8401.9976    9403.2467    8517.0431   -2500.5347    23.273555    705.31443   -2499.1383 
24694000    269.39485   -3818.9841   -3357.2506   -3818.9841            0    9429.3083    16.882689    19.885578    20.596841    6914.8132    9980.6028    8120.6195    10186.702   -757.57353   -618.68078    -1555.714   -2406.3477 
24695000    260.43224    -3839.574    -3393.202    -3839.574            0    9342.4699    16.886842    19.890469    20.601908    6919.9173    8967.4697    12483.393    6576.5474   -700.13732    2171.8365    123.51353   -2450.3609 
24696000    270.13961   -3849.1555   -3386.1455   -3849.1555            0    8906.7102    16.889121    19.893153    20.604688     6922.719    9148.7264    7013.1335    10558.271    428.90075    1145.6844    553.26136   -2486.9173 
24697000    265.98779   -3845.1726   -3389.2786   -3845.1726            0    11643.048    16.842591    19.838348    20.547922    6865.6602    9440.2892    13438.094    12050.762     884.3105   -14.340296    1075.6269   -2223.4764 
24698000    262.25711   -3838.5559   -3389.0562   -3838.5559            0     10064.46     16.86125    19.860326    20.570686    6888.5041    11794.475    8877.9604    9520.9432   -1500.3017    -355.7591    165.78122   -2377.9628 
24699000    276.97294    -3837.827   -3363.1049    -3837.827            0    11259.309    16.844014    19.840023    20.549657       6867.4    10982.809    10997.072    11798.046    992.08835    654.92007   -1165.8538   -2235.4402 
24700000     271.3847   -3846.6936   -3381.5496   -3846.6936            0    12088.041     16.79728    19.784977    20.492643    6810.3978    13525.661    11924.128    10814.334    302.80232   -1491.0469   -1439.9642   -2180.9331 
24701000    263.86553   -3844.4795    -3392.223   -3844.4795            0    9886.6923    16.892182     19.89676    20.608423    6926.4846    10304.873    9347.2921    10007.912    236.43791    1912.1998   -142.13913   -2393.5121 
24702000    261.95312   -3819.2383   -3370.2596   -3819.2383            0     8719.247    16.911732    19.919786    20.632273    6950.5604    9726.6565    6345.1534    10085.931   -1106.5626    6.1185906   -1033.7143   -2486.4175 
24703000    265.40363   -3851.2343   -3396.3416   -3851.2343            0    10599.443    16.870944    19.871743    20.582512    6900.3911      12533.5    10858.952    8405.8762     1533.804    713.98689    1375.1266   -2329.6653 
24704000    264.03153   -3863.3034   -3410.7624   -3863.3034            0    11761.446    16.831295    19.825043    20.534141    6851.8557    11559.181    12427.769    11297.388    1944.0812    354.59138   -1308.3635    -2235.473 
24705000       252.87   -3852.3413   -3418.9308   -3852.3413            0    9970.3406    16.850254    19.847374    20.557271    6875.0359    10862.874    8618.1341    10430.014    906.74678   -180.50847    1686.5681   -2419.2511 
24706000    264.73258   -3834.6093   -3380.8667   -3834.6093            0    10573.713    16.862005    19.861215    20.571607    6889.4296    10438.838    10107.476    11174.825    1361.9802   -2079.0624     217.9245   -2318.4701 
24707000    257.61799   -3836.1326   -3394.5842   -3836.1326            0    10025.414    16.923038    19.933104    20.646067    6964.5104     9108.478    10363.598    10604.167   -131.33431   -903.59735   -1836.7223   -2376.3005 
24708000    274.19201   -3843.9663   -3374.0106   -3843.9663            0    9879.1301    16.913525    19.921898    20.634461    6952.7719    8776.2847    8180.5052    12680.601    354.78557   -40.353671   -1568.3245   -2372.2762 
24709000    263.71044   -3859.3821   -3407.3914   -3859.3821            0    10979.303    16.915715    19.924477    20.637132    6955.4724    11806.425    9901.4786    11230.006   -794.29399    1666.7474    1244.3055   -2293.6681 
24710000    272.25588   -3832.8285   -3366.1912   -3832.8285            0    12743.722    16.832246    19.826162    20.535301    6853.0168    14733.821    12985.301    10512.044   -243.40164    188.96778   -937.40285   -2092.5298 
24711000    262.59817   -3877.2823    -3427.198   -3877.2823            0    9025.8691    16.837113    19.831896    20.541239    6858.9637    9260.0202    10008.679    7808.9077    988.96775    1766.2351     469.6144   -2524.3317 
24712000    271.75388     -3861.87   -3396.0932     -3861.87            0    11357.477    16.873664    19.874948    20.585831    6903.7303     10648.29    12121.886    11302.254    575.11749   -1802.4301   -442.41312    -2252.579 
24713000    281.63692   -3856.0156   -3373.2996   -3856.0156            0    9359.7199    16.955041    19.970798     20.68511     7004.096    8879.0578    10124.388     9075.714    922.48336    1826.3869     -340.207   -2417.2271 
24714000    266.22207   -3870.3211   -3414.0256   -3870.3211            0    10398.813    16.892249    19.896838    20.608505    6926.5669    9612.0603    11085.623    10498.755   -1296.4617   -472.35047    163.69579   -2363.5701 
24715000    265.11335    -3899.404   -3445.0088    -3899.404            0    10743.399       16.828    19.821162    20.530121    6847.8325    10732.015    9604.0282    11894.155   -611.23788   -717.95504    567.04881   -2372.0804 
24716000    261.01008   -3841.0691   -3393.7067   -3841.0691            0    9880.7617    16.922783    19.932803    20.645755    6964.1948    11012.834    8666.1517    9963.2995    230.78242   -1107.5968   -661.97366   -2390.1609 
24717000    262.53941   -3864.0039   -3414.0203   -3864.0039            0    11027.587     16.86741    19.867581    20.578201    6896.0565    10135.646    12594.046    10353.069   -786.42497    211.18501    1542.4613   -2304.9549 
24718000    268.65411   -3809.8344   -3349.3705   -3809.8344            0    12646.917    16.799925    19.788092    20.495869    6813.6149    11690.066     12880.95    13369.736   -1527.2507    -141.5298    171.82093   -2092.6516 
24719000    274.71593   -3861.2695   -3390.4158   -3861.2695            0    11240.885    16.832209    19.826119    20.535256    6852.9716    12288.913    10338.031    11095.711    693.60902    364.05623   -292.60156   -2266.9617 
24720000    261.64972   -3897.9427    -3449.484   -3897.9427            0    10184.834    16.829909    19.823409    20.532449    6850.1625    8682.1131    10690.306    11182.084    1043.7397    452.07134   -41.268138   -2431.9926 
24721000    274.86216    -3878.511   -3407.4066    -3878.511            0      9080.38    16.884319    19.887498     20.59883    6916.8164    9201.9515    9744.2721    8294.9165    697.66736   -356.75324    1956.3346   -2491.4263 
24722000    257.44449   -3887.2409   -3445.9898   -3887.2409            0    6997.4985    16.984894    20.005961    20.721531    7041.1579    6445.7121    8859.6081    5687.1754   -427.85104    442.09498    469.30899   -2727.4302 
24723000    250.11465    -3889.114    -3460.426    -3889.114            0    7832.0127    16.923362    19.933485    20.646462    6964.9097     8016.494    8470.3609    7009.1832   -60.447816    165.37618    1834.4778    -2664.881 
24724000    258.08573   -3866.9719   -3424.6218   -3866.9719            0     10401.96    16.814752    19.805557    20.513958    6831.6714    8903.3164    11139.744    11162.818    1114.5292    374.55659     158.1491   -2388.2442 
24725000    264.82313   -3907.0665   -3453.1687   -3907.0665            0    10305.043    16.813055    19.803558    20.511888     6829.604    10655.216    8924.5812    11335.331    17.222823    813.29793    1121.3351   -2426.7579 
24726000      270.807   -3889.7965   -3425.6425   -3889.7965            0    11628.538     16.80637    19.795684    20.503732    6821.4603    12555.727    10703.714    11626.174   -990.22968   -395.06375    1261.4524    -2268.789 
24727000    269.09681   -3802.7182   -3341.4954   -3802.7182            0    10594.104    16.886593    19.890176    20.601604    6919.6111    9078.0728    11346.804    11357.435    1459.9157   -1075.9174    847.94627   -2272.3869 
24728000    269.27454   -3849.3744   -3387.8471   -3849.3744            0    10029.578    16.835577    19.830086    20.539365    6857.0863    12266.833     8409.578    9412.3227   -286.38268    740.02213   -386.51159   -2384.8535 
24729000    270.91527    -3847.114   -3382.7745    -3847.114            0    8806.6763    16.888819    19.892798     20.60432    6922.3478    9501.8941    7789.4207     9128.714    497.30055    296.77955   -843.97814   -2493.6935 
24730000    266.47884   -3817.2255   -3360.4899   -3817.2255            0    10777.289    16.852881    19.850468    20.560476    6878.2519    10943.488    9551.6038    11836.775    14.895157    1043.8073    263.33787   -2279.3958 
24731000    272.28708   -3846.7535   -3380.0628   -3846.7535            0    10810.368    16.891993    19.896536    20.608191    6926.2511    11785.975    9299.7167    11345.413    97.592697   -564.65215   -217.35887    -2288.083 
24732000    268.12364   -3853.4222   -3393.8674   -3853.4222            0    10804.738    16.890916    19.895268    20.606878    6924.9269    10641.376    11203.882    10568.956    1610.1121       991.24   -184.39541    -2302.665 
24733000    273.89677    -3897.927   -3428.4773    -3897.927            0    11495.209    16.869853    19.870458    20.581181    6899.0526    10507.228    10868.532    13109.866   -1595.5488    399.80082   -827.34506   -2271.8799 
24734000    267.41509   -3860.0103     -3401.67   -3860.0103            0    10860.487    16.848507    19.845316     20.55514    6872.8977    10902.457    9045.0035    12633.999   -1869.8685   -622.54052   -1074.2848   -2313.0782 
24735000      262.937    -3878.129    -3427.464    -3878.129            0    10275.739    16.803577    19.792395    20.500325    6818.0603    10134.509    10199.069     10493.64   -1599.2367   -629.92514     -1072.66   -2405.7019 
24736000    278.60461   -3894.5808   -3417.0621   -3894.5808            0    12550.118    16.800443    19.788702    20.496501    6814.2453    12620.339    12731.788    12298.228    80.103398   -600.61375   -958.87996   -2169.8467 
24737000    262.23054   -3875.5956   -3426.1415   -3875.5956            0    12254.862    16.792823    19.779727    20.487205     6804.978    11363.854    13107.695    12293.039    550.72422   -827.29148   -994.78882   -2209.9245 
24738000    273.61587   -3883.0581   -3414.0898   -3883.0581            0    10882.816    16.812599     19.80302    20.511331    6829.0473    9463.8897    13608.095    9576.4619   -360.35052    -958.6597   -968.38108   -2330.2196 
24739000    257.16501   -3858.3613   -3417.5892   -3858.3613            0    10076.136    16.861135     19.86019    20.570546    6888.3632     8447.203     10817.71    10963.496   -97.232305    410.24762    1342.0429   -2405.3435 
24740000    269.60039   -3865.6499   -3403.5641   -3865.6499            0    8840.0516    16.841592    19.837171    20.546703    6864.4383    9395.9981     8008.907    9115.2497    629.70967     771.9835   -703.10321   -2518.5795 
24741000    254.39715   -3863.8344   -3427.8064   -3863.8344            0       8624.4    16.857198    19.855553    20.565743     6883.539    6261.1266    10958.854    8653.2189   -250.84684   -439.73823   -1028.8768   -2562.0084 
24742000    276.85983   -3850.8852    -3376.357   -3850.8852            0     7950.915    16.899936    19.905893    20.617883    6936.0272    8241.2079    6904.9306    8706.6066   -873.99937   -1368.9492    533.48483   -2572.0834 
24743000    270.12538   -3795.8926   -3332.9069   -3795.8926            0    10506.562    16.848186    19.844938    20.554748     6872.505    10342.912    10677.016    10499.759   -227.47957   -124.44222    1006.8854   -2279.8506 
24744000    268.36142   -3815.1135   -3355.1512   -3815.1135            0    12494.352    16.860971    19.859996    20.570345    6888.1613     12615.84    13417.952    11449.265   -3.5125174   -912.61451   -429.03769    -2100.009 
24745000    282.37137   -3840.4635   -3356.4886   -3840.4635            0    8795.7562    16.975838    19.995295    20.710483     7029.902    9576.6908    7915.5587     8895.019    365.87807    612.72183   -1304.7324   -2454.7133 
24746000    266.73695   -3833.5209   -3376.3429   -3833.5209            0    8895.2722    16.848074    19.844806    20.554611     6872.368    7815.1458    10463.035    8407.6355   -467.82831    419.73607    391.06355   -2484.8015 
24747000    263.55822   -3839.2906   -3387.5609   -3839.2906            0    10496.431    16.901561    19.907807    20.619865    6938.0283    9382.0893     10936.03    11171.175   -719.38023   -280.20731   -486.64571   -2325.4897 
24748000    286.31686   -3835.3933    -3344.656   -3835.3933            0    9225.9443    16.921403    19.931178    20.644072    6962.4918      10177.9    6236.8592    11263.074   -1209.2665   -1353.0826   -2227.2104   -2407.8462 
24749000    261.03199   -3858.0685   -3410.6686   -3858.0685            0    10709.029    16.853025    19.850638    20.560652    6878.4283    10179.063    12046.129    9901.8944   -656.24195   -37.598693    284.58424   -2336.3943 
24750000    280.33641   -3844.5486   -3364.0616   -3844.5486            0    9690.8309    16.920672    19.930316     20.64318    6961.5893    11332.762    9412.2904    8327.4408    1633.6315    81.746741   -255.49403   -2380.1744 
Loop time of 475.799 on 64 procs for 250000 steps with 864 atoms

Performance: 90.795 ns/day, 0.264 hours/ns, 525.432 timesteps/s
99.0% CPU use with 64 MPI tasks x 1 OpenMP threads

MPI task timing breakdown:
Section |  min time  |  avg time  |  max time  |%varavg| %total
---------------------------------------------------------------
Pair    | 22.868     | 27.709     | 32.783     |  45.9 |  5.82
Bond    | 0.27653    | 0.2858     | 0.30082    |   1.0 |  0.06
Kspace  | 194.86     | 207.44     | 218.36     |  35.6 | 43.60
Neigh   | 5.6015     | 7.234      | 8.3253     |  26.5 |  1.52
Comm    | 99.85      | 109.9      | 125.35     |  54.7 | 23.10
Output  | 2.1888     | 2.1942     | 2.2058     |   0.4 |  0.46
Modify  | 112.25     | 116.31     | 119.19     |  18.5 | 24.45
Other   |            | 4.727      |            |       |  0.99

Nlocal:        13.5000 ave          19 max           8 min
Histogram: 1 3 7 12 12 9 7 7 3 3
Nghost:        2273.62 ave        2300 max        2237 min
Histogram: 1 0 4 8 12 9 12 6 8 4
Neighs:        4428.83 ave        6659 max        2257 min
Histogram: 1 2 8 7 19 7 12 3 4 1

Total # of neighbors = 283445
Ave neighs/atom = 328.06134
Ave special neighs/atom = 2.0000000
Neighbor list builds = 14567
Dangerous builds = 2

unfix		3
unfix		2
unfix		1

write_data	data.final.${pid}
write_data	data.final.0
System init for write_data ...
PPPM initialization ...
  extracting TIP4P info from pair style
  using 12-bit tables for long-range coulomb (../kspace.cpp:340)
  G vector (1/distance) = 0.37452573
  grid = 24 24 24
  stencil order = 5
  estimated absolute RMS force accuracy = 0.0031309967
  estimated relative force accuracy = 9.4289035e-06
  using double precision FFTW3
  3d grid and FFT values/proc = 2535 216
Last active /omp style is kspace_style pppm/tip4p/omp
WARNING: Not all mixed pair coeffs generated from mixing. Use write_data with 'pair ij' option to store all pair coeffs. (../write_data.cpp:312)

write_restart   restart.lmp.${pid}
write_restart   restart.lmp.0
System init for write_restart ...
PPPM initialization ...
  extracting TIP4P info from pair style
  using 12-bit tables for long-range coulomb (../kspace.cpp:340)
  G vector (1/distance) = 0.37452573
  grid = 24 24 24
  stencil order = 5
  estimated absolute RMS force accuracy = 0.0031309967
  estimated relative force accuracy = 9.4289035e-06
  using double precision FFTW3
  3d grid and FFT values/proc = 2535 216
Last active /omp style is kspace_style pppm/tip4p/omp
Total wall time: 0:07:58
