#include		in.partitions
include		in.temp
variable        temperature equal 130.22
variable	tempDamp equal 100.0
include		in.pressure
variable        pressure equal 1942.8
variable        pressureDamp equal 1000.0 # This is 1 ps
include		in.seed
variable        seed equal 745823

units		real
atom_style	full
#include		in.box
read_restart	restart.lmp.${pid}
read_restart	restart.lmp.0
Reading restart file ...
  restart file = 30 Jul 2021, LAMMPS = 30 Jul 2021
  restoring atom style full from restart
  orthogonal box = (0.14263622 0.19675886 0.048087118) to (18.064936 23.432419 22.165109)
  2 by 4 by 4 MPI processor grid
  restoring pair style lj/cut/tip4p/long/omp from restart
  restoring bond style harmonic/omp from restart
  restoring angle style harmonic/omp from restart
  864 atoms
  576 bonds
  288 angles
Finding 1-2 1-3 1-4 neighbors ...
  special bond factors lj:    0        0        0       
  special bond factors coul:  0        0        0       
     2 = max # of 1-2 neighbors
     1 = max # of 1-3 neighbors
     1 = max # of 1-4 neighbors
     2 = max # of special neighbors
  special bonds CPU = 0.002 seconds
  read_restart CPU = 0.009 seconds
include 	in.setup
variable	out_freq equal 1000
variable	out_freq2 equal 10000
variable	out_freq3 equal 1000

timestep	2.0

neigh_modify    delay 7 every 1

include		in.tip4p
# This is TIP4P/Ice

# create groups ###
group ox type 2
288 atoms in group ox
group hy type 1
576 atoms in group hy

# set charges - beside manually ###
set group ox charge -1.1794
Setting atom values ...
  288 settings made for charge
set group hy charge 0.5897
Setting atom values ...
  576 settings made for charge

# ### TIP3P Potential Parameters ###
pair_style lj/cut/tip4p/long/omp 2 1 1 1 0.1577 8.5
pair_coeff 1 1*2 0.000 0.000
pair_coeff 2 2 0.21084 3.1668
bond_style  harmonic
bond_coeff  1 450 0.9572
angle_style harmonic
angle_coeff 1 55 104.52
kspace_style pppm/tip4p/omp 1.0e-5
pair_modify tail yes

thermo          ${out_freq}
thermo          1000
thermo_style    custom step temp pe etotal epair emol press lx ly lz vol pxx pyy pzz pxy pxz pyz enthalpy

restart 	${out_freq3} restart.lmp.${pid} restart2.lmp.${pid}
restart 	1000 restart.lmp.${pid} restart2.lmp.${pid}
restart 	1000 restart.lmp.0 restart2.lmp.${pid}
restart 	1000 restart.lmp.0 restart2.lmp.0


include         in.dump
dump            myDump all atom ${out_freq2} dump.water.${pid}
dump            myDump all atom 10000 dump.water.${pid}
dump            myDump all atom 10000 dump.water.0
dump            myDump2 all dcd ${out_freq2} dump.dcd
dump            myDump2 all dcd 10000 dump.dcd
dump_modify     myDump append yes
dump_modify     myDump2 append yes


variable natoms 	equal  "count(all)"                        # NUMBER ATOMS
variable H      	equal  "enthalpy/v_natoms"                 # ENTHALPY-per-atom
variable Vol      	equal  "vol/v_natoms"                 # volume-per-atom
fix AVG all 		ave/time ${out_freq} 1 ${out_freq} v_Vol v_H file vol_enthalpy.dat
fix AVG all 		ave/time 1000 1 ${out_freq} v_Vol v_H file vol_enthalpy.dat
fix AVG all 		ave/time 1000 1 1000 v_Vol v_H file vol_enthalpy.dat


timer           timeout 23:50:00 every 1000
New timer settings: style=normal  mode=nosync  timeout=23:50:00

fix 		1 all shake 1e-6 200 0 b 1 a 1
       0 = # of size 2 clusters
       0 = # of size 3 clusters
       0 = # of size 4 clusters
     288 = # of frozen angles
  find clusters CPU = 0.001 seconds
fix             2 all nph aniso ${pressure} ${pressure} ${pressureDamp}
fix             2 all nph aniso 1942.8 ${pressure} ${pressureDamp}
fix             2 all nph aniso 1942.8 1942.8 ${pressureDamp}
fix             2 all nph aniso 1942.8 1942.8 1000
fix             3 all temp/csvr ${temperature} ${temperature} ${tempDamp} ${seed}
fix             3 all temp/csvr 130.22 ${temperature} ${tempDamp} ${seed}
fix             3 all temp/csvr 130.22 130.22 ${tempDamp} ${seed}
fix             3 all temp/csvr 130.22 130.22 100 ${seed}
fix             3 all temp/csvr 130.22 130.22 100 745823


run             250000
PPPM initialization ...
  extracting TIP4P info from pair style
  using 12-bit tables for long-range coulomb (../kspace.cpp:340)
  G vector (1/distance) = 0.37178628
  grid = 24 27 25
  stencil order = 5
  estimated absolute RMS force accuracy = 0.003155455
  estimated relative force accuracy = 9.5025589e-06
  using double precision FFTW3
  3d grid and FFT values/proc = 4410 672
Last active /omp style is kspace_style pppm/tip4p/omp
Neighbor list info ...
  update every 1 steps, delay 7 steps, check yes
  max neighbors/atom: 2000, page size: 100000
  master list distance cutoff = 10.8154
  ghost atom cutoff = 10.8154
  binsize = 5.4077, bins = 4 5 5
  1 neighbor lists, perpetual/occasional/extra = 1 0 0
  (1) pair lj/cut/tip4p/long/omp, perpetual
      attributes: half, newton on, omp
      pair build: half/bin/newton/omp
      stencil: half/bin/3d
      bin: standard
Per MPI rank memory allocation (min/avg/max) = 10.21 | 10.22 | 10.23 Mbytes
Step Temp PotEng TotEng E_pair E_mol Press Lx Ly Lz Volume Pxx Pyy Pzz Pxy Pxz Pyz Enthalpy 
24750000    129.19129   -4481.7987   -4260.3692   -4481.7987            0    1450.6236      17.9223     23.23566    22.117022    9210.3344    1218.5114    2709.5717    423.78782   -379.30398     190.3517    211.09951   -4065.5167 
24751000     131.2186   -4504.6987   -4279.7945   -4504.6987            0    1928.4345    18.024549    23.133675    22.074928    9204.6724    2331.2325    2651.8556    802.21532   -283.32556   -129.26704   -74.503197   -4020.9201 
24752000    132.25785   -4509.0849   -4282.3995   -4509.0849            0    1777.9685    17.868064     23.34603    22.082147    9211.5316    2211.4023     1285.774    1836.7292    -114.1098     -628.165     83.82814   -4043.5459 
24753000    126.06553   -4500.0795   -4284.0075   -4500.0795            0    2111.8849    17.871245     23.49192    21.934858    9208.9083    2687.9131    1713.1447    1934.5968   -222.62346   -1.9911958   -357.58738   -4000.3762 
24754000    123.83318   -4511.9731   -4299.7273   -4511.9731            0    1622.3832    17.998556    23.323325    21.960576     9218.746    1813.5269    1652.0837     1401.539   -415.94905    115.69332    19.307789   -4081.6044 
24755000    130.38145   -4496.9578   -4273.4885   -4496.9578            0     1441.989    18.001781    23.357824    21.966457    9236.5094    2307.6098    2041.1432   -22.785888    498.09934   -548.66893    241.13139   -4079.2453 
24756000    131.72214   -4492.5066   -4266.7394   -4492.5066            0    2438.6216    17.891623    23.481719     21.83804    9174.7296     3302.182    1385.7819    2627.9009   -87.757907   -320.88957    825.54709    -3940.442 
24757000    136.08059    -4514.347   -4281.1096    -4514.347            0    1711.2823    17.911271    23.468243     21.89841    9204.9103    605.26812    1832.3037    2696.2751    299.59222   -169.50713   -267.24487   -4051.3799 
24758000    127.48433   -4489.4014   -4270.8976   -4489.4014            0    2459.5609    18.110739    23.082631    21.949368     9175.791    3439.6673    2748.5927    1190.4228   -66.294983   -278.91165   -52.244531   -3941.7604 
24759000    141.66382   -4506.4989   -4263.6919   -4506.4989            0    1969.4848    17.931926    23.397114    21.961474    9214.0535    2834.6172    2074.5352    999.30211    -998.0583    73.681282    426.16525   -3999.0374 
24760000    125.51748    -4491.088   -4275.9553    -4491.088            0    1587.3054    17.908778    23.490417    21.890605    9209.0416    3507.5625    820.52182    433.83192     201.4099    646.38146    418.79639   -4062.7732 
24761000    135.09102   -4512.7901   -4281.2487   -4512.7901            0    2135.2742    18.051443    23.324949    21.831304     9192.048    1831.9893     1902.923    2670.9102    42.924435    385.20407    -362.2748   -3995.0011 
24762000    136.65941   -4491.2713   -4257.0418   -4491.2713            0    1356.6458    18.065248    23.258215    21.945127    9220.5834    1805.4744    2151.5808    112.88214   -132.55401    752.29069   -213.57034   -4074.6099 
24763000    136.04535   -4496.9053   -4263.7283   -4496.9053            0    2505.7301    17.926529    23.407248     21.82295    9157.1435     2260.925     2316.119    2940.1461    234.83606    336.38077   -332.85724   -3929.0942 
24764000    126.98863   -4508.3979   -4290.7437   -4508.3979            0    1599.6278    17.881577    23.342307    22.098489    9223.8485    1788.3371    1447.9691    1562.5772   -358.61601    89.850062    168.66753   -4075.5612 
24765000    127.00312   -4495.1084   -4277.4294   -4495.1084            0    3097.2698    17.911862    23.211356    22.058442    9170.9874    4117.3473    2708.3414    2466.1208   -701.49123   -280.91679   -40.792008   -3863.1713 
24766000    128.10584    -4497.305   -4277.7359    -4497.305            0    1468.7017    18.016539    23.343649    21.975281    9242.1826    1321.4919    1543.9676    1540.6457    472.93356   0.50281701   -246.15476   -4079.7729 
24767000    128.83927   -4496.8713   -4276.0452   -4496.8713            0    2513.9927    17.850684    23.575121    21.820901    9182.9344    2537.6405     3101.692    1902.6456   -520.30682   -452.68792    97.336376    -3939.362 
24768000    127.60923   -4513.5871   -4294.8692   -4513.5871            0    2275.1062    17.999928    23.236498    21.973477    9190.5229    2560.8936    1924.6749    2339.7503   -780.80896    163.25004    52.422745   -3989.9268 
24769000    129.58249   -4501.6407   -4279.5407   -4501.6407            0    1378.0384     17.97875    23.198244    22.117872    9224.8212    1498.2447    1988.5001    647.37048   -551.21843   -538.68982   -37.767512   -4094.1469 
24770000    131.34854   -4514.6685   -4289.5416   -4514.6685            0    1860.3066    17.796043    23.490347    21.987241    9191.4412    1731.1144     2106.151    1743.6544    426.82166   -89.628751   -937.16991   -4040.1717 
24771000    128.15737   -4513.4287   -4293.7713   -4513.4287            0    1566.9836    17.892339    23.449595     21.97629    9220.5506    2755.7564   -368.25929    2313.4538   -160.15878    387.51328    168.47944   -4083.0555 
24772000    134.31742   -4500.2109   -4269.9955   -4500.2109            0     2560.866     18.00157    23.230415    21.922623    9167.6889    1568.1172    2162.9176    3951.5632   -284.07634   -170.97692    270.90111   -3927.6043 
24773000    123.58418   -4503.5821    -4291.763   -4503.5821            0    842.93541    18.003258     23.33463     22.04047    9259.1874    1232.8556    479.57065    816.37998    421.49901   -616.34807   -334.83454   -4177.9366 
24774000    135.97414   -4484.6783   -4251.6233   -4484.6783            0    2419.9478    17.976349    23.396122    21.838957    9184.9598    1468.0019    2611.9346    3179.9068   -472.73819    342.16528    118.61835   -3927.4635 
24775000    128.07189   -4495.7409   -4276.2301   -4495.7409            0    1629.4382    18.003157    23.383106    21.933915    9233.5143     3124.235    668.70097    1095.3785   -493.53462    47.581973   -315.87292   -4056.8078 
24776000    135.11107   -4495.0204   -4263.4447   -4495.0204            0    2244.7176    17.903008     23.49671    21.838422    9186.5896    1822.1825    1012.1964     3899.774    577.04908   -204.23852    -327.9091   -3962.7042 
24777000    131.28974   -4493.0028   -4267.9766   -4493.0028            0    880.86782    17.908472    23.424544    22.070624    9258.5779    925.65901      1615.19    101.75445   -456.53162    -71.70833    692.20867   -4149.0358 
24778000    128.91315   -4508.0904   -4287.1377   -4508.0904            0    2254.2821    17.971553    23.236892     22.02858     9199.202    2761.9498     2593.509    1407.3874    351.15475    356.53283    614.27962   -3984.7011 
24779000    118.91146   -4501.1766   -4297.3664   -4501.1766            0    1109.4077    18.058041    23.187289    22.094512    9251.3481     384.1613     2095.783     848.2787    427.98146   -552.77504   -269.07978   -4147.6835 
24780000      135.353   -4501.4567   -4269.4663   -4501.4567            0    1642.0605    17.922577     23.36192     22.01232     9216.686    2347.1156    1274.1968    1304.8691     40.97301   -219.05894    157.30849   -4048.7472 
24781000    132.04549   -4488.6578   -4262.3363   -4488.6578            0     2787.746    17.771059     23.30057    22.149463    9171.5568     3240.781    2108.3478    3014.1092   -223.56154    232.50797    423.75949   -3889.4537 
24782000    130.22879   -4500.5783   -4277.3706   -4500.5783            0    612.73437    17.988972    23.260067    22.128074    9258.9327     925.9126    1191.3617    -279.0712   -241.58281   -702.33203   -153.13734   -4194.6318 
24783000    135.49267    -4509.752   -4277.5222    -4509.752            0    2400.2274    17.942728    23.342063    21.939954    9188.8978    1648.2759    2659.0351    2893.3712   -634.39243    12.698239    481.42412   -3955.8661 
24784000    124.25679    -4508.013   -4295.0411    -4508.013            0    1527.6526    18.012986    23.474448    21.757821    9200.1839    1080.3942    660.84597    2841.7177   -569.67416    333.91159    183.61623   -4090.0679 
24785000    124.93395   -4512.3308   -4298.1983   -4512.3308            0    2579.7744    18.070715    23.241374    21.832448     9169.372    1959.7001    2079.5874    3700.0358    170.34367    176.80889   -150.37487   -3953.2157 
24786000     126.5566   -4503.7649   -4286.8512   -4503.7649            0    2368.1782    17.918423    23.268537    21.992033     9169.259    3173.5585    2265.5579    1665.4181   -273.17677   -89.534698   -376.51916   -3970.1684 
24787000     135.2937   -4507.4174   -4275.5286   -4507.4174            0    1269.1394    18.058968    23.280229    21.933417    9221.1792    379.69708    1617.4925    1810.2286   -595.04516    209.64884   -321.63074   -4104.8529 
24788000    131.02197   -4503.9012   -4279.3341   -4503.9012            0    1330.1646    18.101832    23.251321    21.979527    9250.9963    1309.7556    2307.1316    373.60666   -861.68839    156.36135    26.034155   -4099.8732 
24789000    130.39095   -4500.5354   -4277.0497   -4500.5354            0     2291.017    17.853253    23.505776      21.9059    9192.9112    2444.2262    1468.7705    2960.0544    30.444494    402.73634   -80.721609    -3969.895 
24790000     125.1465   -4500.2938    -4285.797   -4500.2938            0    1253.5946    17.974241     23.37948    22.028447    9256.9795     2224.351    319.96191    1216.4711    337.83607    847.89852   -159.06967   -4116.5573 
24791000    130.11768   -4503.9889   -4280.9717   -4503.9889            0    1184.8069    18.074196    23.308283    21.936956    9241.5675     885.4858    1423.2982    1245.6368    139.02783   -311.75736   -341.99823   -4121.2849 
24792000    134.11129   -4513.9493   -4284.0871   -4513.9493            0    2039.7292    17.891163    23.483397    21.856769     9183.018    2719.6375    1936.5647    1462.9855    775.31904    90.907384    543.37519   -4010.9166 
24793000    128.47054   -4496.4768   -4276.2827   -4496.4768            0    880.71461    18.052728    23.382677    21.888204    9239.4725    504.66888    1050.5055    1086.9694   -348.93368    348.25659   -250.38934   -4157.6079 
24794000    128.26459   -4494.7919   -4274.9508   -4494.7919            0    1913.7817    18.035024    23.103344    22.053937       9189.2    2268.1031    2784.0674    689.17471    48.649228   -377.00508    274.76505   -4018.4752 
24795000    120.82967   -4513.8874   -4306.7895   -4513.8874            0    2000.9326    17.848261    23.454422    22.022603    9219.1161    2193.5073    1266.3809    2542.9097    304.14003    408.56833    647.58227   -4037.7614 
24796000    132.97205   -4500.0548   -4272.1453   -4500.0548            0     2038.152    17.885816    23.462896    21.983931    9225.6231    3014.3792    2261.1929    838.88402    593.84417   -413.69966    144.96852   -3997.9195 
24797000    128.10217   -4508.0762   -4288.5135   -4508.0762            0     1629.436    18.082136    23.199667    21.984776    9222.6035      1692.07    1963.2603    1232.9778   -6.2902791    -248.1311   -341.07529   -4069.3507 
24798000    129.31582   -4496.1893   -4274.5464   -4496.1893            0    1568.3276    17.997954    23.450274     21.88172     9235.332    586.22792    2027.8206    2090.9342    630.03654    450.36259   -102.27279   -4063.3117 
24799000    129.61664   -4495.4661   -4273.3076   -4495.4661            0    1239.3147    17.944306    23.592403     21.89124    9267.6405    1760.3323    1005.2778    952.33399    -392.3604    52.678158    1.6196983    -4105.803 
24800000    127.72736   -4506.9983    -4288.078   -4506.9983            0    2273.9012    18.029141    23.240936     21.93945     9192.939    1370.9823    2580.9969    2869.7246    640.99401   -21.521986    53.339195    -3983.217 
24801000    134.95325   -4501.3192   -4270.0139   -4501.3192            0    1327.4207    17.966938    23.261707    22.127267    9247.9064    2031.1193    1043.1539    907.98894   -662.98293    167.56624   -654.04734    -4090.983 
24802000    133.73901   -4512.1642   -4282.9401   -4512.1642            0    2128.3335    17.796679    23.577657    21.959691    9214.3743    1946.1975    1641.3456    2797.4573   -80.192945   -352.13431    77.434874     -3996.93 
24803000    129.99071   -4513.1152   -4290.3156   -4513.1152            0    2147.7628    18.011757    23.321983    21.912601    9204.8238    1847.9791    2549.4367    2045.8727    36.756448    485.59837     158.2726   -4001.9936 
24804000    130.88744   -4496.9406    -4272.604   -4496.9406            0    2677.7445    18.072378    23.095536    22.072625    9212.9209    2140.1342    3072.9829    2820.1165    502.69099   -507.37763    173.20254   -3912.8195 
24805000     129.9982   -4504.7883   -4281.9758   -4504.7883            0    2441.5095    17.844721    23.383888    22.070492    9209.5516    2808.2613    2305.7759    2210.4914   -369.06941    391.86782   -235.46706   -3954.0521 
24806000    135.70829   -4492.3272   -4259.7279   -4492.3272            0    1804.1222    17.918593    23.391675    21.951313    9200.8027    1185.1761    1509.7415    2717.4491   -6.7490909    269.59963   -91.419721    -4017.643 
24807000    130.43292   -4502.0263   -4278.4688   -4502.0263            0    1911.2775     18.05257    23.138856    22.098504    9230.8946    1218.9813    2327.3341    2187.5171    451.66004   -538.36223    341.66037   -4021.1666 
24808000    135.90783   -4515.7865   -4282.8451   -4515.7865            0     2045.484    17.965907    23.248649     22.04115    9206.2153    2658.8576    2703.0616    774.53289    408.85105   -355.05946    8.6959164   -4008.2119 
24809000     131.6866   -4504.1911   -4278.4847   -4504.1911            0    2899.6323    17.956055    23.372314      21.8343       9163.3    2518.9417    2964.1463    3215.8089   -637.79963    80.649271    210.15467   -3890.9856 
24810000    123.06993   -4510.7253   -4299.7877   -4510.7253            0    1019.0702    18.024671    23.531686    21.779656    9237.8605    1632.0498   -311.39548    1736.5562    312.82407    858.24088    457.34008   -4162.4937 
24811000    124.47493    -4496.277   -4282.9312    -4496.277            0    1383.2594    18.064414      23.3241    21.903228    9228.6227    2076.5868    1895.5012    177.69019    112.13274    231.05348   -127.08009   -4096.7583 
24812000    133.30839   -4499.8612   -4271.3751   -4499.8612            0     3055.702    17.859177     23.51427    21.816894    9161.9068    3709.3768    2723.3603     2734.369    659.47238   -754.84663    13.263031   -3863.0814 
24813000    136.80479   -4496.6416   -4262.1628   -4496.6416            0    2049.2863    17.920638    23.365628    21.952132    9191.9499    2493.1915    588.79926    3065.8681    1081.6934   -155.30535     253.3317   -3987.4454 
24814000    127.35325   -4500.2338   -4281.9547   -4500.2338            0    2184.6345    18.032631    23.267699    21.943292    9206.9189     1955.555    1895.9964    2702.3521    63.323749    3.0598985   -83.941704   -3988.6162 
24815000    132.29949   -4523.9328    -4297.176   -4523.9328            0    2479.2154    17.905943    23.349916     21.94536    9175.4046     2617.757    2505.1372     2314.752   -206.16107   -56.479536    156.75599   -3965.4226 
24816000    135.46978   -4498.0024   -4265.8119   -4498.0024            0    2273.1282    17.909636    23.421242    21.908549      9189.89    2530.5248    1244.9546    3043.9054   -311.41282   -269.58619    259.64019   -3961.1556 
24817000    122.41116   -4510.2191   -4300.4106   -4510.2191            0    1416.8684    18.019359    23.262341    21.980053    9213.4335    298.47193    2298.4817    1653.6517   -984.66794    220.91761    237.63974   -4110.0281 
24818000    133.10164   -4511.0891   -4282.9574   -4511.0891            0     1790.799    18.109021    23.397536    21.719736    9202.7924    1581.1576    868.43378    2922.8056   -270.14226   -311.52187   -356.13642   -4042.6084 
24819000    122.04288   -4511.9846   -4302.8073   -4511.9846            0    1583.4687    17.982445    23.443146    21.837672    9206.0002    1792.6162    665.45016    2292.3398   -237.55408    163.72806    444.58949   -4090.2107 
24820000    133.08965    -4508.143   -4280.0319    -4508.143            0    2246.7148    17.983164    23.308526     21.92554    9190.3328    1844.3391     3185.225    1710.5803     225.3139   -687.15785   -5.2656468   -3978.9012 
24821000    131.41276   -4506.8665   -4281.6296   -4506.8665            0    1723.0131    17.966187    23.166256    22.096305    9196.6877    1829.7495    1016.7196    2322.5704    238.59909   -262.47042    225.20925   -4050.5317 
24822000    138.42778   -4490.6776   -4253.4172   -4490.6776            0    1100.3978    17.866423    23.403331    22.106951    9243.6635    1894.0532    1214.5952    192.54507   -680.49072   -109.36849    565.32747   -4105.0733 
24823000    123.20761   -4508.7285   -4297.5548   -4508.7285            0    1602.6019     18.02581    23.259302    21.978471    9214.8647     1180.483    2038.7419    1588.5808    2.8018371   -230.12588    36.367071   -4082.1822 
24824000    135.42278   -4515.7215   -4283.6115   -4515.7215            0    2237.5029    18.057855    23.251818    21.950256    9216.4283    1446.2959    3323.9433    1942.2696     180.2611   -457.50011    209.45778   -3982.8639 
24825000    126.73571   -4501.7451   -4284.5244   -4501.7451            0    1647.1517    17.867533    23.469816    21.991509    9222.0888    2572.7539    1089.1474    1279.5538   -829.74958   -1028.5949    29.854293   -4062.9912 
24826000    130.95918   -4507.8032   -4283.3437   -4507.8032            0    1789.7656    17.902965    23.352539    21.997433    9196.6802    1521.4065    813.65749    3034.2327    155.69895    176.67598    -157.4894   -4043.2929 
24827000    131.60963   -4513.8893   -4288.3149   -4513.8893            0    2405.0741     17.98633    23.212442    21.978181    9176.0366    3268.9356     2485.264    1461.0226   -741.11429   -249.57359    296.64231   -3966.4604 
24828000    138.84345   -4495.3708   -4257.3978   -4495.3708            0    2463.1494    18.032578    23.247167    21.953256    9202.9442    2066.9156    2400.6141    2921.9186   -790.87988   -304.85143   -288.66728    -3926.805 
24829000    132.57007   -4512.0573   -4284.8367   -4512.0573            0    2397.8295    17.973802    23.378458    21.879539    9193.7773     1731.304     1223.627    4238.5574    889.43622   -80.552559   -84.071264   -3963.3314 
24830000    139.66919   -4501.9088   -4262.5205   -4501.9088            0    1545.5002    17.933202    23.499459    21.912229    9234.2635    1130.5181    607.18867    2898.7938   -377.48853   -97.737064   -143.44662   -4054.3845 
24831000    130.36335   -4501.4488   -4278.0105   -4501.4488            0    1744.2555    18.048098    23.213436    21.938203    9191.1935    131.43809    2834.4626    2266.8658   -42.548831   -883.64715     405.2619   -4044.2033 
24832000     124.6291   -4504.7828   -4291.1727   -4504.7828            0    2105.1647    18.068122    23.349825    21.874588    9228.6148    2186.3145    1950.5074    2178.6721   -565.63884    411.77002    300.21651   -4007.8389 
24833000    124.79851    -4506.062   -4292.1616    -4506.062            0    1975.7031    17.928874    23.551163    21.834704    9219.6125    1662.4036     1360.583    2904.1228   -1125.4777   -166.72074   -622.22297   -4026.5113 
24834000    133.15603   -4490.1687   -4261.9438   -4490.1687            0    1056.2721    18.007242     23.38323    21.983094    9256.3661     1338.635     1702.296    127.88542   -375.69722   -96.932082   -609.79832   -4119.3528 
24835000    130.41981   -4507.6842   -4284.1491   -4507.6842            0    2419.3832    17.852886    23.323033    22.012156    9165.4973    2249.2222    2424.7678    2584.1596    1268.0883   -158.46362    257.13153   -3960.7516 
24836000    133.27832     -4504.92   -4276.4855     -4504.92            0     1686.618    17.890775    23.383924    21.910701    9166.4843    1972.7099    559.67017    2527.4739     -24.0488   -470.47578     265.7948   -4051.0121 
24837000    126.25327   -4504.9613   -4288.5675   -4504.9613            0    1969.7776    17.812612    23.482347    21.987494    9196.9721    2862.3991    1217.3234    1829.6103   -312.18002   -387.47755   -347.11617   -4024.3644 
24838000    132.03746   -4492.1588   -4265.8511   -4492.1588            0    2070.6887    18.027644    23.156595    22.012277    9189.2202    2356.8453    2305.4919     1549.729    574.13557   -350.82935    19.225782    -3988.347 
24839000    121.88641   -4504.7885   -4295.8793   -4504.7885            0    908.59217    18.069362    23.270902    21.995973    9249.0945    134.28372    1270.9354    1320.5573   -388.81032    703.27962   -314.54275   -4173.3207 
24840000    127.66866    -4496.831   -4278.0113    -4496.831            0     2322.645    17.767372    23.539186    21.914878    9165.4482    2689.8545    1305.7397    2972.3408    680.44482   -143.12254    65.761018   -3967.5465 
24841000    128.94738   -4517.9358   -4296.9244   -4517.9358            0    2315.7365    17.937595    23.185605    22.082772    9184.0922    2627.2953    2209.0315    2110.8827    862.74024   -465.59879    78.143539   -3986.7534 
24842000    134.55125   -4500.0249   -4269.4087   -4500.0249            0     2786.188    17.949871    23.232487     21.93122    9145.7603    2551.4899    3421.4504    2385.6239     1022.536   -75.591607   -16.984584   -3897.7826 
24843000    125.89984   -4508.8347   -4293.0467   -4508.8347            0    2083.2691    18.001121    23.335622    21.894494    9197.1622    2461.3195    1478.8667     2309.621   -520.13979   -745.93757   -302.20531   -4013.6154 
24844000    135.94566    -4518.658   -4285.6518    -4518.658            0    1873.5764    18.037502    23.397911    21.797165    9199.2723     1039.734    1501.3583     3079.637     217.1486    726.80182    272.45986   -4034.2891 
24845000    127.26158   -4506.6198   -4288.4978   -4506.6198            0    3078.4626    17.932875    23.452759    21.786482    9162.8582    2967.1221    3933.9871    2334.2786     681.9921   -350.20931    163.70082   -3877.1201 
24846000    134.88164   -4502.7552   -4271.5727   -4502.7552            0    1771.7748    18.033021    23.228228    21.945331     9192.353    1661.4274    728.38249    2925.5145   -121.22256    816.32269   -67.903203   -4034.0467 
24847000     133.1232   -4508.9425   -4280.7739   -4508.9425            0    1317.4152    18.005362    23.389498    21.937701    9238.7642    1467.8412    841.71887    1642.6855    501.48367    475.70526    349.16358   -4103.2681 
24848000    128.35703   -4516.1422   -4296.1427   -4516.1422            0    2622.4669    17.832453    23.508595    21.926838    9192.0791    3055.8528     2470.169    2341.3789    136.21308    72.414035   -85.248094   -3944.5825 
24849000    129.04979   -4498.3274   -4277.1405   -4498.3274            0    2462.9365    17.933767    23.236359    22.015264    9174.1007    1986.6957    2270.4905    3131.6232   -690.61704    93.643225    112.19439   -3947.6123 
24850000    125.67142   -4508.2798   -4292.8833   -4508.2798            0      1919.16    17.805077    23.449284    22.053338    9207.6284    2291.7088     1448.748    2017.0231   -372.37244    50.451279   -79.572931   -4035.1712 
24851000    130.08276   -4524.1612   -4301.2038   -4524.1612            0    1116.9155    17.876436    23.436624    22.076286    9249.1537     1305.044    297.64329    1748.0593    55.110331   -438.98389   -192.74108   -4150.5437 
24852000    131.56431   -4497.3629   -4271.8662   -4497.3629            0    2676.1406    17.984499    23.256139    21.948414    9179.9244     2446.733    3337.4743    2244.2144    386.42198   -239.47101   -222.86126   -3913.5851 
24853000    137.16588   -4510.6147   -4275.5171   -4510.6147            0      1559.29    18.060403    23.387211    21.840546    9225.0634     1238.184    1724.0179    1715.6682    137.95016   -226.11727   -377.95255   -4065.7332 
24854000    132.36603   -4508.0886   -4281.2178   -4508.0886            0    1429.9185    17.896337    23.421267    22.067157     9249.557    1266.4099    806.61187    2216.7336    515.30263   -278.78066    224.39572   -4088.3285 
24855000    137.97644   -4501.9933   -4265.5064   -4501.9933            0    2015.8697    17.749652     23.34921    22.235161    9215.1479    3297.5595    2154.6446    595.40518     722.5025   -324.96556   -381.62876   -3994.5866 
24856000    126.80527   -4514.1838    -4296.844   -4514.1838            0       1960.4    17.984951    23.340466    21.926491    9204.2398     1335.006    1290.3608    3255.8332   -85.373139   -190.20293    190.31597   -4033.6908 
24857000    126.83888   -4509.5645    -4292.167   -4509.5645            0    1840.0525    18.087198    23.342212    21.822702    9213.4401    3050.2642    374.47991    2095.4134    855.17548    117.84122    6.1962018   -4044.9217 
24858000    127.80255   -4500.3032   -4281.2541   -4500.3032            0    2166.4176    17.984148     23.26411    21.981268    9196.6373    2113.6901    2780.7936    1604.7692    168.78263   -263.25793    87.228415   -3990.6865 
24859000    129.37375   -4510.0055   -4288.2633   -4510.0055            0     1367.857    18.011387    23.328115    22.008679    9247.4245    117.91219    1810.8308    2174.8279     904.0597   -100.55948     402.6979   -4103.7884 
24860000     125.4006   -4500.0135   -4285.0811   -4500.0135            0    2355.2395    17.837349     23.49735    21.911614    9183.8244    2271.1103    2184.0812    2610.5271    302.73501   -286.63991   -179.85299   -3969.6282 
24861000    131.59994   -4503.3217   -4277.7639   -4503.3217            0    2237.5603    17.998369    23.320232     21.90279    9193.1735    3393.1856    1053.0604    2266.4349    210.29455    261.84724    63.532127   -3977.7675 
24862000    134.59378   -4509.9591     -4279.27   -4509.9591            0    2137.6017     17.85635    23.477086    21.926839    9192.0613    2657.7564    1019.8661    2735.1825   -685.03209    635.34509    113.36222     -3992.71 
24863000    130.34899   -4506.2114   -4282.7977   -4506.2114            0    2630.6166     18.11847    23.221507    21.819932    9180.4785    1378.5615     3072.027    3441.2612   -149.97057    230.82382    986.15461   -3930.5901 
24864000     137.1722   -4497.1798   -4262.0714   -4497.1798            0    2787.7695    17.972582    23.279862    21.892474    9159.7938    3941.1886    2989.8737    1432.2463    170.49222    449.97926    713.44442   -3889.6638 
24865000    140.27324   -4512.1645   -4271.7409   -4512.1645            0    1066.7288    17.922508    23.408859    22.041352    9247.3488    945.54373    1303.4797    951.16284   -572.99049   -119.34563    13.681936   -4127.8786 
24866000    134.07749   -4517.7929   -4287.9887   -4517.7929            0    1808.3429    17.962438    23.194079    22.109083    9211.1351    1705.9838    2600.5632    1118.4818   -68.630142   -434.42949    435.91802    -4045.065 
24867000     127.1529   -4515.4612   -4297.5255   -4515.4612            0    2165.9481    17.927924    23.193202     22.08796    9184.3051    2959.2572    2038.0141    1500.5731   -162.53517    252.82906    448.19584   -4007.4105 
24868000    133.39052   -4519.6047   -4290.9779   -4519.6047            0    2571.2062    17.745367    23.398275    22.064856    9161.5704    3482.4422    2096.9084    2134.2679    113.37205    189.80478     39.76362   -3947.4336 
24869000    133.41859   -4503.3194   -4274.6445   -4503.3194            0    2751.4216    17.915759    23.303699    21.979125    9176.3608    3408.3045    2378.7915    2467.1686   -303.56506    282.15665    94.605861   -3906.4277 
24870000    127.41159   -4509.0158   -4290.6367   -4509.0158            0    2466.2079     17.87954    23.456928    21.933473    9198.8785    2742.3195    1721.5342      2934.77   -434.99139   -395.54204    -481.7748   -3959.7796 
24871000    130.70755   -4511.0735   -4287.0452   -4511.0735            0    2458.2589    17.938423    23.291346    21.946723    9169.5604    2604.9773     2201.641    2568.1584   -1056.9152    154.02007    234.60158   -3958.3056 
24872000    137.97989   -4501.3114   -4264.8186   -4501.3114            0    2692.0371    17.906862    23.398631    21.846957    9153.7888    2238.8513    2033.1965    3804.0634   -48.044244    134.48263   -232.85226   -3905.4353 
24873000    122.67537    -4508.979   -4298.7176    -4508.979            0    397.85556     18.14345    23.279506    21.973368    9280.9039   -406.02764    1660.0606    -60.46624     278.0397   -283.90319     -367.554   -4244.8669 
24874000    136.92639   -4506.7438   -4272.0567   -4506.7438            0    1412.1056    17.977334    23.359806    22.001825    9239.6014    1848.0919    1558.7967    829.42811    100.83104    138.12228   -322.49828   -4081.7753 
24875000    129.63392   -4484.7887   -4262.6006   -4484.7887            0     1288.442    17.919537    23.570319    21.939693    9266.6507    2506.3079    255.02578    1103.9924   -166.80142    265.17586    197.05163   -4088.4746 
24876000    131.79347   -4506.5964   -4280.7069   -4506.5964            0    3022.2718    17.966368    23.246582    21.948274    9166.8423    4532.7001    2834.8446    1699.2707    317.19082    41.358336   -26.595751   -3876.6624 
24877000    127.31594    -4493.649   -4275.4339    -4493.649            0    1288.4717    17.984611    23.368862    21.985899    9240.2313    1724.4026    383.99237    1757.0202    -38.75478   -256.78819    340.91222   -4101.8003 
24878000     126.4528   -4499.6616   -4282.9258   -4499.6616            0    416.39221    17.951783    23.484742    22.064889    9302.4024    585.21274   -216.09829    880.06219   -762.91847   -68.032261   -335.16823   -4226.4356 
24879000    136.16281   -4503.2426   -4269.8642   -4503.2426            0    2368.0414    18.040996    23.181311    22.030992    9213.6679    2981.4955    2574.7456     1547.883   -302.26622   -198.58898    -251.8826    -3951.666 
24880000    128.46106   -4513.3762   -4293.1984   -4513.3762            0    2294.7799    17.961632     23.29984    21.980116    9198.7479     2249.635    2223.7317     2410.973     549.1245    307.14729   -127.45194   -3985.3438 
24881000    120.80273   -4504.0758   -4297.0241   -4504.0758            0    2757.5193    17.957239    23.260696    21.954207    9170.2254    2580.3117    2726.4882     2965.758   -736.74264   -223.12255    547.29082   -3928.2381 
24882000    131.79713   -4496.0386   -4270.1428   -4496.0386            0    1905.4959    17.957295    23.362539    21.961303    9213.3813    1794.0647    1992.2218    1930.2013    154.06536   -181.59296    608.11319   -4014.1057 
24883000    131.92065   -4515.0654   -4288.9579   -4515.0654            0    1738.2274    17.866108    23.388632    22.007527    9196.1491    2057.8217    2253.4371    903.42355    52.063679   -77.233906    237.02608   -4055.8331 
24884000    128.78978   -4517.9618   -4297.2205   -4517.9618            0    1295.2916    17.989248    23.431731    21.916722    9238.3195    1156.4585    1052.2573    1677.1588    108.97674    1.0091797   -362.83328   -4122.7041 
24885000     127.2862   -4518.7507   -4300.5865   -4518.7507            0    714.84948    18.096392    23.271434    21.997737    9263.8847    1307.9281    178.29557    658.32477   -315.46472   -340.45786    605.73376   -4204.0073 
24886000    131.14102   -4505.9462    -4281.175   -4505.9462            0    1809.9775    17.935274    23.456464    21.888782    9208.5693    1077.6243     2348.635    2003.6734   -165.48809   -340.54347    397.92052   -4038.0995 
24887000    126.58278   -4512.2017   -4295.2431   -4512.2017            0    1161.7851    18.056289    23.369499    21.864874    9226.2429    1685.7944    503.65747    1295.9035   -397.82114    254.78785     189.9522   -4138.9188 
24888000    126.77782   -4502.2562   -4284.9633   -4502.2562            0    1409.3928      18.0102    23.399762    21.935509    9244.3776    1509.2084     981.0501    1737.9199   -467.96888   -289.22148    303.21997   -4094.9493 
24889000    125.74968    -4522.044   -4306.5133    -4522.044            0    1308.3611    17.829456    23.646234    21.849346    9211.6729    1249.4826     1721.213    954.38762    357.21128   -116.34391    249.92276   -4130.7444 
24890000    132.00075   -4511.6888   -4285.4441   -4511.6888            0    1770.4385    18.095744    23.249419    21.885414    9207.5335    1097.7262    1163.8852     3049.704   -893.95628    114.45971   -384.46291   -4047.7053 
24891000    121.57665    -4505.647   -4297.2688    -4505.647            0    2187.2864    17.984267    23.262227    21.966768     9189.888    1632.0799    2109.1843     2820.595    285.55773   -303.95725   -338.57228   -4004.1176 
24892000    130.03232   -4512.8782   -4290.0072   -4512.8782            0     1781.357    17.746859    23.487778    22.095848    9210.3073    2759.9615    1221.5469    1362.5626   -536.88219   -17.628787    60.467967   -4050.7302 
24893000    125.99378   -4504.6108   -4288.6618   -4504.6108            0    1782.2913    17.977096    23.297486    22.020573    9222.6816    2581.8294    1359.3192    1405.7253     23.07968   -279.44956    71.853711   -4048.9377 
24894000    125.04885    -4499.471   -4285.1416    -4499.471            0    2161.8485    18.109953    23.186956    21.926876    9207.4173     1510.692    2477.5884     2497.265   -594.77954   -184.80957    217.77467    -3994.847 
24895000    133.75946   -4498.6005   -4269.3414   -4498.6005            0    1960.8754    17.879511    23.462681    21.920707    9195.7639    1195.4002    2365.8744    2321.3517    767.29779   -156.36889    314.39247   -4006.3668 
24896000     122.1559   -4497.7055   -4288.3345   -4497.7055            0    1870.9046    17.897344    23.457495    21.892735    9191.1587    2219.5794     886.3035     2506.831    162.94376    472.87711    415.18556   -4037.5517 
24897000    122.36199   -4509.1528   -4299.4285   -4509.1528            0    2190.2272    18.201014    23.075307    21.890599    9193.9196    1766.8515    4243.6012    560.22884    54.463207   -39.473819   -50.892073   -4005.7543 
24898000    123.48912   -4512.7405   -4301.0844   -4512.7405            0    1780.7407     17.93604    23.396152    21.979976    9223.5524    1732.4286    1175.6615    2434.1321    474.75418    145.13248    629.63088   -4061.5461 
24899000    136.76557   -4495.4482   -4261.0367   -4495.4482            0     2307.225     17.76279    23.595876    21.984837    9214.4738    3927.6599    1424.5074    1569.5076   -304.17703    218.36311    -343.5592   -3950.9834 
24900000    130.23047   -4509.7223   -4286.5117   -4509.7223            0    2366.9311    17.932872    23.346404    21.955698    9192.1499     1610.093    2646.1352    2844.5651   -26.009461   -419.83068   -315.27921   -3969.2055 
24901000    134.51403   -4501.9925   -4271.4401   -4501.9925            0    685.88961     18.05757    23.221069     22.12177    9276.0137    365.24713    1575.2891    117.13262    233.32433   -69.807959    631.32863   -4178.6522 
24902000    122.74961   -4506.6801   -4296.2915   -4506.6801            0    2051.1018    17.934472    23.343114    21.975487    9199.9591    1081.8483     2642.225    2429.2323   -753.07731   -345.73755     100.4099   -4021.0911 
24903000    135.96991   -4510.5233   -4277.4755   -4510.5233            0    2299.5464    17.855711    23.487006    21.921889    9193.5398    2702.7968    2513.5894     1682.253    164.78445   -594.84149   -603.56311   -3969.1562 
24904000    121.27819   -4499.6806   -4291.8139   -4499.6806            0    2089.7495    18.025959    23.343796    21.853401    9195.7866    1997.7884    1557.2552     2714.205    137.46901    78.762834     7.554338   -4011.5553 
24905000    130.85734   -4509.3686   -4285.0836   -4509.3686            0    2649.8093    17.933997    23.400263    21.863094    9175.0716    2959.4621    2518.6881    2471.2777    616.28606    188.74949   -207.56166   -3930.5152 
24906000    121.53851   -4516.4339    -4308.121   -4516.4339            0    2738.6884    17.748511    23.519009    21.955859    9164.9771    3310.5246    1531.1118    3374.4287   -625.53893   -182.89132    138.95492    -3942.063 
24907000    130.89303   -4512.0357   -4287.6895   -4512.0357            0    1878.7327    17.944993    23.270012    22.023928     9196.756    1654.1571     3710.411    271.63012   -493.80641   -565.98594   -210.48911    -4035.704 
24908000    129.36069   -4513.5771   -4291.8573   -4513.5771            0    1040.8337    17.999474    23.280427    22.082905    9253.5195    1276.3252      987.325    858.85077    378.54593   -382.61873   -92.382972   -4151.3936 
24909000    128.92036   -4505.7013   -4284.7362   -4505.7013            0    1966.7596    17.821259    23.459583    21.979103    9189.0082    1651.1525    2090.5626    2158.5637   -779.84991    87.974867    122.59866   -4021.1663 
24910000     127.8042   -4489.4947   -4270.4427   -4489.4947            0    1526.8071    18.055995    23.396758    21.846878    9229.2517    1018.7789    1740.0225    1821.6199   -3.5507816   -126.88739      135.224   -4064.9357 
24911000    123.05247    -4511.046   -4300.1383    -4511.046            0    1854.0806    18.057123     23.23052    21.908982    9190.2999    1418.3542    1953.4715    2190.4162     36.92557    305.03457   -273.28549   -4051.6338 
24912000    122.00982   -4503.0827    -4293.962   -4503.0827            0    664.95656    17.914838    23.438361    22.034732    9252.2615    1034.7636    507.46562    452.64043    -809.3486    61.145063   -550.20252   -4204.2363 
24913000    132.40148   -4509.1351   -4282.2035   -4509.1351            0    2199.9908    17.992524    23.281498    21.919217    9181.8047    1921.0503    2703.5868    1975.3353    619.05703   -159.88406   -16.355339   -3987.6089 
24914000    125.19869   -4505.1028   -4290.5165   -4505.1028            0    3061.4892    18.048465    23.178856    21.866906     9147.862    2207.9403    3749.1844    3227.3428   -926.32932   -339.89594   -165.55232   -3882.0765 
24915000     130.6722   -4503.3199   -4279.3522   -4503.3199            0    3841.2553    17.922816    23.199262    21.913555     9111.571    3829.1086    4527.4059    3167.2514   -209.83043    137.71208    314.19283    -3768.915 
24916000    133.28399   -4503.2061   -4274.7619   -4503.2061            0    1828.1383    17.933834    23.418062    21.859079    9180.2808    1451.1151    2215.8183    1817.4813    32.447098    305.05874     443.2444   -4030.0016 
24917000    130.17847   -4520.6226   -4297.5011   -4520.6226            0    2536.8109    17.874207    23.401368    21.939586    9176.9098    3127.4111    2956.9076    1526.1139   -296.55043    633.77829   -248.49603    -3957.985 
24918000    139.02226   -4503.1988   -4264.9194   -4503.1988            0    1761.9843    17.991771    23.305864    21.929258    9195.2396    1851.8236    1675.8035    1758.3258    31.607514    398.18843    443.42741   -4028.6318 
24919000    139.49061   -4501.7775   -4262.6954   -4501.7775            0    2999.7137     17.98167    23.189511    21.921044    9140.7713    2363.9252    4559.6446    2075.5713    982.56907   -189.58142   -160.05862   -3862.8072 
24920000    137.19828   -4521.2816   -4286.1285   -4521.2816            0    1975.8752    17.838045    23.264267     22.16998    9200.2988    1989.2286    3218.5743    719.82259   -38.837795    88.417852    324.47138   -4021.0116 
24921000    125.84192   -4501.3458   -4285.6571   -4501.3458            0    1531.0073    17.874489     23.41853    22.032481    9222.6698     1778.836    1464.2924    1349.8934    44.401863    653.30519    609.40631   -4079.7317 
24922000    128.25766   -4506.3244   -4286.4952   -4506.3244            0    2040.1027    17.923088     23.33182    21.994466    9197.6074    2295.9444    2020.0014    1804.3622   -521.08843    1.6709596    308.67814   -4012.8406 
24923000    129.02965   -4509.6141   -4288.4617   -4509.6141            0    1978.6884    17.983381    23.391274    21.831786    9183.6327    2191.8089    1621.7547    2122.5018   -1122.4677    163.42971   -128.78268   -4023.4484 
24924000    132.15173    -4516.013   -4289.5094    -4516.013            0    2393.0904    18.077177    23.264169     21.81702    9175.1589    2962.9736    2983.4435    1232.8542   -494.85906   -131.45606     488.0036   -3969.2893 
24925000    136.48177   -4508.2237   -4274.2986   -4508.2237            0    1051.9954    18.037285    23.449549    21.896159    9261.3353    116.31427     848.4755    2191.1963   -700.37457   -64.423222    212.47896   -4132.2087 
24926000    129.97758   -4510.7423   -4287.9652   -4510.7423            0    1754.2445     17.93528     23.50021    21.846285    9207.8345    723.26726    1926.4752    2612.9911   -206.42416   -1014.1297    126.09293   -4052.3932 
24927000     128.0993   -4488.7467   -4269.1889   -4488.7467            0    1759.3643    17.991639     23.30967    21.961872    9210.3513    1393.0812    1473.8473    2411.1645   -584.17706    89.944832    931.24025   -4032.8649 
24928000    136.33761   -4505.5032   -4271.8252   -4505.5032            0    1892.6219    18.031487    23.120013     22.04147    9188.8291     1986.517     1988.226    1703.1227    -327.5262   -119.16797    496.11638   -4018.1956 
24929000    129.44077   -4503.7181   -4281.8611   -4503.7181            0     2006.899     17.80456    23.448306    22.055761    9207.9887    2568.8008    1860.0574    1591.8388    856.42307   -611.56581    339.23763   -4012.3565 
24930000    130.19434   -4508.6074   -4285.4588   -4508.6074            0    2333.4346    17.897107     23.31608    21.978103    9171.2506    1371.7944    3560.0229    2068.4864    122.63645   -20.314053    169.70846   -3973.3543 
24931000    133.62339   -4505.4161   -4276.3902   -4505.4161            0    2445.5456    17.987765    23.091467    22.082764    9172.3825     2720.775    2558.6719    2057.1898    661.03157    35.453493   -811.17702   -3949.2501 
24932000    131.54353   -4489.3012   -4263.8401   -4489.3012            0    1931.0314    17.889433    23.439804    21.967205    9211.3937    2242.3432    2274.4888    1276.2623    162.99398    538.30731    56.157681   -4004.4278 
24933000    124.82848   -4508.4766   -4294.5249   -4508.4766            0    2245.2051    17.863055    23.379099    21.977616    9178.3388    2223.2901    2024.2399    2488.0853    521.57072     367.9066   -183.01601   -3993.9892 
24934000    129.01092     -4514.05   -4292.9297     -4514.05            0    1071.8724    18.029099    23.320624    21.971578    9237.9466    916.69018    387.83373    1911.0932    -749.8267   -219.22582   -228.50408   -4148.5206 
24935000    134.72585   -4500.6036   -4269.6881   -4500.6036            0    2708.5381    17.892611    23.545078    21.729114    9154.1048    3138.2431    1532.1886    3455.1825    558.66866   -255.15233    -143.3741   -3908.0896 
24936000    133.83226   -4501.6467   -4272.2628   -4501.6467            0    1071.8624    17.999276    23.390648    21.979481     9253.685    1088.8382    600.64959    1526.0994    565.54384   -178.29256     25.60759   -4127.6091 
24937000    122.95278   -4500.3617   -4289.6248   -4500.3617            0    1740.2814    18.112013    23.249266    21.920356    9230.4648    1111.2734    1879.5493    2230.0215     444.1553   -375.82288    400.77898   -4055.3536 
24938000    131.69898    -4492.692   -4266.9644    -4492.692            0    1693.1617    17.884914    23.441551    21.957299    9205.6002    2628.7979    441.53748    2009.1496   -761.46003   -803.95866    136.89773   -4039.6503 
24939000    120.11949   -4502.7368   -4296.8561   -4502.7368            0    2096.9676    17.904325    23.412188     21.86976    9167.3533    2820.7272    1032.4531    2437.7224    979.79807    76.937625   -316.57187    -4016.499 
24940000    133.50863   -4485.5942    -4256.765   -4485.5942            0    2196.0572    18.079951    23.170585    21.903373    9175.8277    1840.3083    2356.2882    2391.5751   -142.06055   -160.71056   -114.82593   -3962.8886 
24941000    133.50528   -4506.7553   -4277.9318   -4506.7553            0     1638.137    17.937734    23.325141    21.993047    9201.8943    1294.2589    2106.0515    1514.1006   -361.65205   -44.504534    39.809069   -4058.0935 
24942000    129.76953   -4502.1814   -4279.7609   -4502.1814            0    1818.8815    17.989785    23.179767    22.086231    9209.9367    1884.9697    2295.7613    1275.9134   -127.13916   -680.04017    143.97626   -4035.4533 
24943000    129.27295   -4501.1987   -4279.6293   -4501.1987            0    1595.1969    17.968098    23.153153    22.086505    9188.3866    1365.1879    2477.2851    943.11779   -160.80537   -649.29803    262.95969   -4065.8678 
24944000    132.70507   -4496.0897   -4268.6377   -4496.0897            0    950.92563    17.975371    23.400622    21.922497    9221.3662    702.89189   -641.99692    2791.8819      701.532   -409.61218    37.630518   -4140.7533 
24945000    129.39185   -4505.8696   -4284.0964   -4505.8696            0    3352.3056    17.952021      23.3041    21.892265    9158.7536    3591.8457    3891.1139    2573.9573   -329.61078   -804.69924   -87.241553   -3836.3255 
24946000    130.10526   -4504.1188   -4281.1229   -4504.1188            0    659.82835    18.131608    23.367799    21.939356    9295.6127    182.16409    37.285641    1760.0353   -711.85933     229.8895    412.06139   -4191.6719 
24947000     133.5297   -4509.2543   -4280.3889   -4509.2543            0    2415.1402    17.865093     23.44101    21.892344    9167.9846    2453.1531    2073.8781    2718.3895   -312.11322   -225.59227     533.4786    -3957.471 
24948000    133.16075   -4509.1501   -4280.9171   -4509.1501            0    1994.0218    18.011402    23.260586     21.99436    9214.6638    2457.9747    1897.3127    1626.7781    59.749953   -40.837583    574.88599   -4012.9477 
24949000    132.11834   -4494.4497   -4268.0034   -4494.4497            0     1980.869    17.983986    23.263248     22.00357    9205.5436    1591.9185    2520.7329    1829.9556    189.42485    257.24409    261.43892   -4002.0649 
24950000    128.60782   -4503.2321   -4282.8027   -4503.2321            0    1309.2033    17.910007    23.320918    22.114222      9236.62    643.53202    1700.3743    1583.7036    736.64086    209.33485    -165.6523   -4106.4443 
24951000    125.98299   -4495.6529   -4279.7224   -4495.6529            0    1702.4483    17.842544    23.306666    22.153175    9212.4025    1748.1818     2478.571    880.59199   -24.403322    270.93425    114.89361   -4050.9926 
24952000    130.38545   -4500.7777   -4277.3015   -4500.7777            0    1630.2041    18.041683    23.166197    22.059829    9220.0639    1572.9031    1745.9717    1571.7374   -21.148283     -90.2872   -44.412033   -4058.0959 
24953000    133.67308   -4524.1386   -4295.0276   -4524.1386            0    1362.5313    17.970747    23.330425     21.99908    9223.4477     761.1677    1861.8246    1464.6016   -80.112264   -292.63855   -162.63048   -4111.7473 
24954000    128.33571   -4512.5738   -4292.6108   -4512.5738            0     1472.733    17.871812    23.522604    21.961759     9232.538    1197.3014    1570.9478    1649.9498    272.19695    458.74367    -97.70817   -4094.3116 
24955000    123.93633   -4508.4625   -4296.0399   -4508.4625            0    1537.7209    18.081226    23.297206    21.837957    9199.0655    388.44184    2553.9501    1670.7709   -289.10597   -673.02084    456.89644   -4089.7409 
24956000    129.75827   -4514.9742   -4292.5729   -4514.9742            0    2016.4407    17.966444    23.403635    21.857425    9190.6119    2474.1569    1792.2639    1782.9013   -1161.3968   -202.35533     722.0417    -4022.298 
24957000    121.99092   -4496.6394   -4287.5512   -4496.6394            0    1711.2795     17.90533    23.477106    21.917218    9213.2389    2293.4565    1005.2306    1835.1516     61.26409   -573.39179   -357.34003    -4057.614 
24958000    126.40039   -4484.4747   -4267.8287   -4484.4747            0    3011.5131    18.040145     23.17698    21.885181    9150.5464     3196.618    2815.6885    3022.2327    469.14279    634.57578    138.19737   -3865.9383 
24959000    132.86869   -4513.4582   -4285.7258   -4513.4582            0    1412.9042    17.958182    23.276571     22.10355    9239.3925     964.8543    2997.7234    276.13477   -894.99285    219.92354    312.37724   -4095.3411 
24960000    134.55671   -4499.8841   -4269.2585   -4499.8841            0    2311.3734    17.857756    23.403173    21.986182    9188.6449    2676.2041    1150.8132     3107.103   -448.70178    438.62405    349.41406   -3959.5184 
24961000    127.92642   -4507.6713   -4288.4098   -4507.6713            0     981.3388    17.964193    23.389743    22.007352    9247.0019    691.92325    1236.1528    1015.9404   -198.90368    -251.8098    347.45046   -4156.0684 
24962000     130.9168   -4503.3262   -4278.9393   -4503.3262            0    2520.8643    18.066508     23.16506    21.858678    9148.1134    2453.1415    1275.0727    3834.3786    -60.32628   -574.54248   -295.30217    -3942.616 
24963000    132.00444   -4500.4514   -4274.2003   -4500.4514            0    1291.2495    17.957668    23.532318    21.873621    9243.4766    2336.0181     -97.8731    1635.6035    979.31128    463.87536    123.63762   -4100.1314 
24964000    129.10732   -4507.6792   -4286.3936   -4507.6792            0    1701.9264    17.881258    23.495532     21.94753    9220.8084    2325.5037    1797.9215    982.35396   -684.25042   -598.93682    1019.9896   -4057.5253 
24965000    125.25332   -4523.4016   -4308.7217   -4523.4016            0     1787.688    18.085658    23.090739    22.032258    9200.9177    2007.7376    1632.9373    1722.3891   -847.13471    183.92109    201.82813   -4068.8391 
24966000    130.75975   -4515.3323   -4291.2146   -4515.3323            0     1370.561    17.927228    23.378705    21.968595     9207.376    1196.8788    1635.2003    1279.6037    58.017543    146.74138   -549.73555   -4107.1755 
24967000    132.99098   -4524.4096   -4296.4676   -4524.4096            0    1289.1865    17.897801    23.450634    21.940834     9208.892    1367.7404    1430.6233    1069.1959   -751.97353   -274.72466   -520.53867   -4123.3269 
24968000     131.9651   -4504.0509   -4277.8672   -4504.0509            0    1790.8822    17.990933    23.368865    21.903249    9208.7324     1854.477    1629.6217    1888.5478   -673.03279    196.29994    278.50772   -4037.3519 
24969000    135.09738   -4507.8761   -4276.3238   -4507.8761            0    2986.0848    18.040235    23.196872    21.934658    9179.1505    1926.1547    3369.3474    3662.7523    549.39791   -250.53366    198.32432   -3876.5812 
24970000     125.6852   -4509.8729   -4294.4528   -4509.8729            0    2926.9614    17.893423    23.361161    21.868969    9141.4728    2889.8837    1410.3986    4480.6018   -749.62295   -257.17307   -569.89062   -3904.2332 
24971000    123.34012   -4494.6665   -4283.2657   -4494.6665            0    3017.2126    17.977865    23.411911    21.755911    9156.9792    1551.0728    2947.8135    4552.7514    52.846472    293.48995    996.64997   -3880.3316 
24972000    132.68115   -4519.9347   -4292.5237   -4519.9347            0    1183.7664    18.129795    23.355592     21.84007    9247.7865    332.45245    1503.9424    1714.9042    264.20655   -383.27335   -227.24131   -4132.8698 
24973000    123.59894   -4501.2759   -4289.4315   -4501.2759            0    2135.0708    18.050109    23.306779    21.913164    9218.6467    1113.9173    1973.5463     3317.749   -397.81009    44.907895    453.37423    -4002.383 
24974000    133.97973   -4514.5303   -4284.8936   -4514.5303            0      1001.77    18.067175    23.297839    21.963899    9245.1789    1036.0646    1215.9083    753.33703   -170.41521    65.928176    337.02211   -4149.8235 
24975000    122.05351   -4501.2016    -4292.006   -4501.2016            0     1810.085    17.858008     23.45497    22.019381     9223.017    2226.3262    1804.1555    1399.7733   -512.85079    590.32977     636.2099   -4048.5347 
24976000    129.54771   -4503.0818   -4281.0415   -4503.0818            0    1065.4967    17.955657    23.348424     22.04481    9241.9846    1594.8545    1596.8245    4.8111377    743.83861   -377.00139    545.20202   -4137.4286 
24977000    139.77654   -4493.7894   -4254.2172   -4493.7894            0    801.87252    18.092139    23.321664    21.960964    9266.1825    1500.7862     1154.585   -249.75361   -538.80094   -135.81613   -540.95532   -4145.8539 
24978000    130.57738   -4495.5894   -4271.7843   -4495.5894            0    1331.0932    17.993117    23.483987    21.846528    9231.2528    1292.1395    1501.3775    1199.7626   -1063.5209    388.13414   -378.28427   -4092.5814 
24979000    128.71192   -4498.7724   -4278.1646   -4498.7724            0    1822.1673    17.918126    23.470342    21.911161    9214.6191    2302.3959    2031.1517    1132.9544   -778.15131    248.44991    41.281348   -4033.2912 
24980000    130.63113   -4489.7412   -4265.8439   -4489.7412            0    2117.5795     18.01502     23.36491     21.92563    9228.9209    1453.9439    2952.8733    1945.9212    932.48327    32.718097   -498.91176   -3980.8297 
24981000    130.66819   -4496.0693   -4272.1085   -4496.0693            0    2149.1723    18.012282    23.425646    21.862337    9224.7984    978.52049    1670.6637    3798.3328    -1328.942   -1130.7144    785.72677   -3982.9712 
24982000    135.61918   -4512.0232   -4279.5766   -4512.0232            0     2454.577    17.898113    23.448557    21.888319     9186.197    2605.9874    2920.9725    1836.7711   -1117.1969    -607.7254    408.06547   -3950.7338 
24983000     120.8236   -4500.2361   -4293.1485   -4500.2361            0    1323.4324    18.055062    23.214525    22.097344    9261.8736    1361.2754    1920.6378    688.38408   -191.01176    6.7642655    738.65767    -4114.386 
24984000    128.55209   -4494.2345   -4273.9006   -4494.2345            0    856.82387    17.941144    23.515635    22.005784    9284.1827    2014.8254   -937.15361    1492.7998    198.27868   -21.348409    -270.9394   -4157.8864 
24985000    128.86923   -4512.8332   -4291.9558   -4512.8332            0     2504.594    17.893125     23.40069    21.917646    9177.1694    1772.9919    3283.9068    2456.8833   -383.75604    596.87605   -47.340778   -3956.7419 
24986000    128.64296   -4505.5265   -4285.0369   -4505.5265            0    1697.6395    18.039973    23.205823    22.054459    9232.7112    2508.8253    2215.8299    368.26348    16.359875   -91.329862    330.80701   -4056.4504 
24987000    129.53549   -4504.7236   -4282.7042   -4504.7236            0    1998.5947    17.898231    23.265311    22.064238     9187.723    2124.5718    2068.3647    1802.8476   -62.641641   -29.055765    79.645745   -4014.9054 
24988000    134.14271    -4501.033    -4271.117    -4501.033            0     3684.821    17.837985    23.334867    21.925509    9126.4274    2646.5657    4154.0381    4253.8592   -171.50258   -363.80082    121.30106   -3780.6689 
24989000    125.68873   -4495.3505   -4279.9243   -4495.3505            0    1100.7375    18.021399    23.405646    21.929704    9250.0036    1767.3194    1152.2795    382.61358    108.10144    231.97067    42.131242   -4131.4328 
24990000    125.32046   -4495.8448   -4281.0498   -4495.8448            0    1836.6974    18.059787    23.513673    21.722224    9224.3843    950.52883    916.31785    3643.2457    144.67307   -537.38014    124.07074   -4033.9623 
24991000    127.33813   -4511.8058   -4293.5526   -4511.8058            0     2587.398     17.97766    23.369085    21.850815    9179.9968    2653.0761    1783.3562    3325.7616    497.42899   -172.78768   -41.689017   -3947.1496 
24992000    131.59962   -4508.7304   -4283.1732   -4508.7304            0    2375.0944    17.987639    23.384451    21.912828     9217.216    2802.8292    1254.6787    3067.7753    -511.1466    17.229324    677.03338   -3963.9043 
24993000     136.3468   -4503.0022   -4269.3084   -4503.0022            0    1516.5997    17.878672    23.504033    21.968696    9231.7049    1605.9312    1907.5351    1036.3329     587.1257   -366.91438    456.97297   -4065.1211 
24994000    128.90082   -4491.7277   -4270.7961   -4491.7277            0    3004.3529    17.972294    23.324469    21.846845    9158.0709    2502.2753    2904.3925    3606.3911    168.56546   -323.38159    1140.9341   -3869.5315 
24995000     138.2228   -4505.3302   -4268.4211   -4505.3302            0    1690.6762    18.055908    23.296082    21.971899    9242.0818    1588.0419    1579.3512    1904.6355   -343.82605    397.74125   -108.49942   -4040.5411 
24996000    125.32821   -4497.4004   -4282.5922   -4497.4004            0    2320.5109    17.920085     23.40554    21.904018    9187.1861    2575.6166    2325.9967    2059.9194   -374.24813   -229.29804    608.40736   -3971.6769 
24997000    127.84399   -4503.7163   -4284.5961   -4503.7163            0    3066.7466    18.020088     23.24842     21.88425    9168.1561    4265.9481    1882.1485    3052.1432   -728.92161    180.37972   -351.43944    -3874.547 
24998000    136.57378   -4499.9332   -4265.8504   -4499.9332            0    1764.4542     17.91228    23.299342    22.057734    9205.6701     2330.317    3009.2857   -46.239922    143.27495    389.32947    78.607686   -4028.9631 
24999000    125.19649   -4508.6294   -4294.0469   -4508.6294            0    1614.0155    17.905652    23.357755      22.0281    9212.9407    1108.4239    2083.6134    1650.0091    406.27996   -74.417613    2.5615071   -4077.1857 
25000000    138.86265   -4499.0714   -4261.0656   -4499.0714            0    1129.0845     17.98522    23.283127    22.035078    9227.2365     1334.485    1264.2348    788.53385   -213.72521   -392.75112    261.18395   -4109.1249 
Loop time of 370.479 on 64 procs for 250000 steps with 864 atoms

Performance: 116.606 ns/day, 0.206 hours/ns, 674.802 timesteps/s
193.4% CPU use with 32 MPI tasks x 2 OpenMP threads

MPI task timing breakdown:
Section |  min time  |  avg time  |  max time  |%varavg| %total
---------------------------------------------------------------
Pair    | 16.959     | 25.173     | 35.265     | 106.0 |  6.79
Bond    | 0.99534    | 1.2214     | 1.507      |  11.8 |  0.33
Kspace  | 183.43     | 195.18     | 205.58     |  43.7 | 52.68
Neigh   | 0.77224    | 0.8455     | 0.91824    |   4.5 |  0.23
Comm    | 53.51      | 59.165     | 64.828     |  33.3 | 15.97
Output  | 0.50421    | 0.50515    | 0.50663    |   0.1 |  0.14
Modify  | 67.389     | 69.751     | 73.499     |  19.3 | 18.83
Other   |            | 18.64      |            |       |  5.03

Nlocal:        27.0000 ave          39 max          18 min
Histogram: 5 6 4 3 1 3 1 4 1 4
Nghost:        2150.81 ave        2264 max        2048 min
Histogram: 8 3 5 0 0 0 1 7 1 7
Neighs:        6580.97 ave        9380 max        4601 min
Histogram: 6 7 2 3 1 3 1 4 1 4

Total # of neighbors = 210591
Ave neighs/atom = 243.73958
Ave special neighs/atom = 2.0000000
Neighbor list builds = 2796
Dangerous builds = 0

unfix		3
unfix		2
unfix		1

write_data	data.final.${pid} nocoeff
write_data	data.final.0 nocoeff
System init for write_data ...
PPPM initialization ...
  extracting TIP4P info from pair style
  using 12-bit tables for long-range coulomb (../kspace.cpp:340)
  G vector (1/distance) = 0.3718238
  grid = 24 27 25
  stencil order = 5
  estimated absolute RMS force accuracy = 0.0031461603
  estimated relative force accuracy = 9.4745682e-06
  using double precision FFTW3
  3d grid and FFT values/proc = 4410 672
Last active /omp style is kspace_style pppm/tip4p/omp

write_restart   restart.lmp.${pid}
write_restart   restart.lmp.0
System init for write_restart ...
PPPM initialization ...
  extracting TIP4P info from pair style
  using 12-bit tables for long-range coulomb (../kspace.cpp:340)
  G vector (1/distance) = 0.3718238
  grid = 24 27 25
  stencil order = 5
  estimated absolute RMS force accuracy = 0.0031461603
  estimated relative force accuracy = 9.4745682e-06
  using double precision FFTW3
  3d grid and FFT values/proc = 4410 672
Last active /omp style is kspace_style pppm/tip4p/omp
Total wall time: 0:06:10
