LAMMPS (30 Jul 2021)
Processor partition = 1
  using 2 OpenMP thread(s) per MPI task
using multi-threaded neighbor list subroutines
variable        pid world 0 1
variable        phase world IceVI Liquid

shell cd ${phase}
shell cd Liquid
include Restart.lmp
echo both
log log.lammps
#include		in.partitions
include		in.temp
variable        temperature equal 262.70
variable	tempDamp equal 100.0
include		in.pressure
variable        pressure equal 8250.0
variable        pressureDamp equal 1000.0 # This is 1 ps
include		in.seed
variable        seed equal 745823

units		real
atom_style	full
read_restart	restart.lmp.${pid}
read_restart	restart.lmp.1
Reading restart file ...
  restart file = 30 Jul 2021, LAMMPS = 30 Jul 2021
  restoring atom style full from restart
  orthogonal box = (0.62339737 1.8258110 0.76054334) to (17.584175 21.803367 21.452652)
  2 by 4 by 4 MPI processor grid
  restoring pair style lj/cut/tip4p/long/omp from restart
  restoring bond style harmonic/omp from restart
  restoring angle style harmonic/omp from restart
  864 atoms
  576 bonds
  288 angles
Finding 1-2 1-3 1-4 neighbors ...
  special bond factors lj:    0        0        0       
  special bond factors coul:  0        0        0       
     2 = max # of 1-2 neighbors
     1 = max # of 1-3 neighbors
     1 = max # of 1-4 neighbors
     2 = max # of special neighbors
  special bonds CPU = 0.002 seconds
  read_restart CPU = 0.007 seconds
include 	in.setup
variable	out_freq equal 1000
variable	out_freq2 equal 10000
variable	out_freq3 equal 1000

timestep	2.0

neigh_modify    delay 7 every 1

include		in.tip4p
# This is TIP4P/Ice

# create groups ###
group ox type 2
288 atoms in group ox
group hy type 1
576 atoms in group hy

# set charges - beside manually ###
set group ox charge -1.1794
Setting atom values ...
  288 settings made for charge
set group hy charge 0.5897
Setting atom values ...
  576 settings made for charge

# ### TIP3P Potential Parameters ###
pair_style lj/cut/tip4p/long/omp 2 1 1 1 0.1577 8.5
pair_coeff 1 1*2 0.000 0.000
pair_coeff 2 2 0.21084 3.1668
bond_style  harmonic
bond_coeff  1 450 0.9572
angle_style harmonic
angle_coeff 1 55 104.52
kspace_style pppm/tip4p/omp 1.0e-5
pair_modify tail yes

thermo          ${out_freq}
thermo          1000
thermo_style    custom step temp pe etotal epair emol press lx ly lz vol pxx pyy pzz pxy pxz pyz enthalpy

restart 	${out_freq3} restart.lmp.${pid} restart2.lmp.${pid}
restart 	1000 restart.lmp.${pid} restart2.lmp.${pid}
restart 	1000 restart.lmp.1 restart2.lmp.${pid}
restart 	1000 restart.lmp.1 restart2.lmp.1


include         in.dump
dump            myDump all atom ${out_freq2} dump.water.${pid}
dump            myDump all atom 10000 dump.water.${pid}
dump            myDump all atom 10000 dump.water.1
dump            myDump2 all dcd ${out_freq2} dump.dcd
dump            myDump2 all dcd 10000 dump.dcd
dump_modify     myDump append yes
dump_modify     myDump2 append yes


variable natoms 	equal  "count(all)"                        # NUMBER ATOMS
variable H      	equal  "enthalpy/v_natoms"                 # ENTHALPY-per-atom
variable Vol      	equal  "vol/v_natoms"                 # volume-per-atom
fix AVG all 		ave/time ${out_freq} 1 ${out_freq} v_Vol v_H file vol_enthalpy.dat
fix AVG all 		ave/time 1000 1 ${out_freq} v_Vol v_H file vol_enthalpy.dat
fix AVG all 		ave/time 1000 1 1000 v_Vol v_H file vol_enthalpy.dat


timer           timeout 23:50:00 every 1000
New timer settings: style=normal  mode=nosync  timeout=23:50:00

fix 		1 all shake 1e-6 200 0 b 1 a 1
Finding SHAKE clusters ...
       0 = # of size 2 clusters
       0 = # of size 3 clusters
       0 = # of size 4 clusters
     288 = # of frozen angles
  find clusters CPU = 0.001 seconds
fix             2 all nph iso ${pressure} ${pressure} ${pressureDamp}
fix             2 all nph iso 8250 ${pressure} ${pressureDamp}
fix             2 all nph iso 8250 8250 ${pressureDamp}
fix             2 all nph iso 8250 8250 1000
fix             3 all temp/csvr ${temperature} ${temperature} ${tempDamp} ${seed}
fix             3 all temp/csvr 262.7 ${temperature} ${tempDamp} ${seed}
fix             3 all temp/csvr 262.7 262.7 ${tempDamp} ${seed}
fix             3 all temp/csvr 262.7 262.7 100 ${seed}
fix             3 all temp/csvr 262.7 262.7 100 745823

run             250000
PPPM initialization ...
  extracting TIP4P info from pair style
  using 12-bit tables for long-range coulomb (../kspace.cpp:340)
  G vector (1/distance) = 0.37433064
  grid = 24 24 24
  stencil order = 5
  estimated absolute RMS force accuracy = 0.0031531346
  estimated relative force accuracy = 9.4955712e-06
  using double precision FFTW3
  3d grid and FFT values/proc = 3549 432
Last active /omp style is kspace_style pppm/tip4p/omp
Neighbor list info ...
  update every 1 steps, delay 7 steps, check yes
  max neighbors/atom: 2000, page size: 100000
  master list distance cutoff = 10.8154
  ghost atom cutoff = 10.8154
  binsize = 5.4077, bins = 4 4 4
  1 neighbor lists, perpetual/occasional/extra = 1 0 0
  (1) pair lj/cut/tip4p/long/omp, perpetual
      attributes: half, newton on, omp
      pair build: half/bin/newton/omp
      stencil: half/bin/3d
      bin: standard
Setting up Verlet run ...
  Unit style    : real
  Current step  : 7250000
  Time step     : 2
  Walltime left : 23:49:59.92
Per MPI rank memory allocation (min/avg/max) = 10.19 | 10.20 | 10.20 Mbytes
Step Temp PotEng TotEng E_pair E_mol Press Lx Ly Lz Volume Pxx Pyy Pzz Pxy Pxz Pyz Enthalpy 
 7250000    268.94713   -3843.0585   -3382.0923   -3843.0585            0    9742.4528    16.960778    19.977556    20.692109    7011.2083    10966.804    10779.744    7480.8098    207.38308   -2709.6083    1345.1469    -2385.914 
 7251000    271.49906   -3887.7382   -3422.3981   -3887.7382            0    6870.6713    17.036266    20.066471    20.784204    7105.2408    8303.4704    5842.7283    6465.8153   -962.84843    195.69891   -507.07451    -2710.441 
 7252000    264.79578   -3877.4239    -3423.573   -3877.4239            0    6354.2506    17.031563    20.060931    20.778467     7099.358    6662.6307    5916.3439    6483.7772    116.40459    844.59683   -763.30241   -2765.6739 
 7253000     261.1205   -3872.5969   -3425.0453   -3872.5969            0    8936.2888      16.9982    20.021634    20.737764    7057.7195    8928.1022    8635.5404     9245.224   -1413.5455   -1595.0226   -100.73343   -2505.2367 
 7254000    242.44918   -3892.5519   -3477.0023   -3892.5519            0     6905.656    17.000386    20.024209    20.740431    7060.4425    7863.5447    3948.1146    8905.3086   -923.62015    629.35794   -421.01073   -2765.9316 
 7255000     267.6739   -3883.8269    -3425.043   -3883.8269            0    5694.2919    17.048466    20.080841    20.799089    7120.5171    5748.3924    4931.0917    6403.3917    1080.1003   -453.51042   -1310.6295   -2833.7168 
 7256000     267.4997   -3883.5119   -3425.0265   -3883.5119            0    6677.6853    17.046317     20.07831    20.796467    7117.8249    5760.2425    7503.0766    6769.7367   -619.98491   -1767.2759    227.56473   -2731.8415 
 7257000    261.76505   -3864.3158   -3415.6594   -3864.3158            0    7943.5685     17.03117    20.060468    20.777987    7098.8666    6686.7489    8651.9945    8491.9622    1787.4924   -1001.1989     521.9685   -2593.2643 
 7258000    264.97668   -3888.5055   -3434.3446   -3888.5055            0    6706.9315    17.042073    20.073311    20.791289    7112.5096    8100.7584    4354.6818    7665.3543    895.41038     65.60476    1038.5689   -2738.6436 
 7259000    278.14852    -3888.979   -3412.2419    -3888.979            0    8059.0452    17.029764    20.058812    20.776272    7097.1088    8444.8071    7951.4772    7780.8514   -255.70415   -285.13579   -78.049809   -2578.0981 
 7260000    257.88363   -3880.5147    -3438.511   -3880.5147            0    6177.4149    17.067259    20.102977    20.822017    7144.0908    4349.8706    7669.8688    6512.5054   -1700.1348    936.78255   -389.10973   -2794.8908 
 7261000    257.04604   -3876.7547   -3436.1866   -3876.7547            0    8701.1439    16.985329    20.006474    20.722061    7041.6989    9761.2387     9105.536     7236.657   -194.72288   -646.74086    2043.7529   -2542.6143 
 7262000    277.97409   -3852.5171    -3376.079   -3852.5171            0    8590.2061    17.025914    20.054278    20.771576    7092.2973    6287.8481    10559.179    8923.5912    1435.1396   -315.97125   -1684.3675   -2487.5606 
 7263000    276.25172   -3853.9763   -3380.4903   -3853.9763            0    7959.0377    16.984313    20.005277    20.720822    7040.4359    7077.2908    7211.5811    9588.2413   -250.13896    1678.0377   -1474.6005   -2563.2759 
 7264000    256.67587   -3881.2764   -3441.3428   -3881.2764            0    9573.7066    16.975328    19.994694     20.70986    7029.2676    10191.919    9178.4312    9350.7694   -1771.3867    -791.5541   -1461.1648   -2459.8975 
 7265000    265.08849   -3866.5896    -3412.237   -3866.5896            0    7447.9017    16.981103    20.001496    20.716906    7036.4445    8335.7179    8742.6303     5265.357   -118.86545    789.24587    300.45385   -2647.9383 
 7266000    266.12251   -3863.2593   -3407.1345   -3863.2593            0    10165.763    16.940653    19.953852    20.667557    6986.2809    12120.389     8365.374    10011.525    647.71723    1060.1207   -357.11802   -2371.3679 
 7267000    274.49679   -3857.7078   -3387.2297   -3857.7078            0    8824.0235    16.942312    19.955806    20.669581    6988.3333    9062.1747    8723.1522    8686.7436    524.34476   -807.22342    1730.8689   -2487.9058 
 7268000    253.14283   -3868.2821    -3434.404   -3868.2821            0    8744.4845    17.014412     20.04073    20.757543    7077.9325    8299.7815    9255.0245    8678.6476   -280.48802    -417.7079    471.44572   -2531.7599 
 7269000     259.2488   -3867.8481   -3423.5045   -3867.8481            0    7362.1831      16.9894    20.011269    20.727029     7046.764    6414.3876    7417.0688    8255.0929    630.34456   -1149.3789   -259.28621   -2666.8942 
 7270000    251.06759     -3872.32   -3441.9988     -3872.32            0    6407.4672     17.01646    20.043143    20.760042    7080.4894    5083.6189    7750.1497    6388.6331    462.54457   -1118.7558   -991.83932    -2780.353 
 7271000    250.11273   -3855.4378   -3426.7531   -3855.4378            0    10722.079    16.945739    19.959842    20.673762    6992.5748    11068.131    11261.846    9836.2609    180.55061   -256.15432    516.22141   -2333.3205 
 7272000    272.55669   -3853.9751   -3386.8222   -3853.9751            0    7449.6594    17.036557    20.066814     20.78456    7105.6055    6787.2838    8830.0646    6731.6298    1747.7671   -878.29993    -203.7905   -2614.8292 
 7273000    255.82131   -3889.4564   -3450.9875   -3889.4564            0    7236.1113    17.067845    20.103667    20.822731    7144.8258    4724.3684    8723.0107    8260.9547    1119.5426     402.0947     816.9428    -2696.985 
 7274000    282.35316   -3847.7288   -3363.7851   -3847.7288            0    8821.3442    17.026107    20.054505    20.771811    7092.5379    8309.0218    8767.8491    9387.1616    498.40779    420.47526     1160.683   -2451.3283 
 7275000    266.92924   -3872.4163   -3414.9087   -3872.4163            0    8434.3867    17.002307    20.026471    20.742774    7062.8361     7172.404    9777.6287    8353.1274    106.61601   -547.47048    323.81776   -2546.1313 
 7276000    261.48577   -3827.1934   -3379.0158   -3827.1934            0    8594.0652    17.059893    20.094301     20.81303    7134.8448    7701.0098    8268.8166     9812.369   -445.96957    752.79832    951.21868   -2484.7655 
 7277000    275.07316   -3859.1377   -3387.6717   -3859.1377            0    8444.5227    17.047451    20.079645     20.79785    7119.2446    6490.8073    9858.5259    8984.2348    1072.1066   -485.57964   -911.66258   -2510.9033 
 7278000     261.4877   -3886.8436   -3438.6627   -3886.8436            0      7534.69    17.065424    20.100815    20.819777    7141.7858     5868.748    7705.2376    9030.0844    1105.1186   -634.35984    725.69757   -2653.8823 
 7279000    257.12028   -3868.4607   -3427.7653   -3868.4607            0    9435.3972    16.971704    19.990426    20.705439    7024.7673    7995.5687    10633.426    9677.1966   -869.31933    -202.4631   -329.61869   -2461.1181 
 7280000    265.48552   -3842.2919   -3387.2588   -3842.2919            0    8305.5774    17.024297    20.052373    20.769603    7090.2762    8328.8775    9120.1577    7467.6971   -1617.4321    1338.9842    2577.3384   -2528.4255 
 7281000    255.05404   -3816.2512   -3379.0973   -3816.2512            0    8979.1553    17.015718    20.042268    20.759136    7079.5626    7428.8117     10733.94    8774.7147    248.47039   -1170.5446     2284.488    -2452.016 
 7282000    271.82653   -3858.1588   -3392.2574   -3858.1588            0     9416.238    16.956939    19.973034    20.687426    7006.4487    8119.8865    9907.9159    10220.912    1242.3067    399.68532   -1.2043706   -2430.0886 
 7283000    267.28775   -3831.2293   -3373.1072   -3831.2293            0    9679.7069    16.907901    19.915274      20.6276    6945.8385     8961.853    9488.0205    10589.247   -1541.7761     676.9013    799.69795    -2392.573 
 7284000    247.92486   -3859.2576   -3434.3229   -3859.2576            0    7744.8268    16.949488    19.964258    20.678335    6997.2165    5824.8949     8443.525    8966.0603    450.70502   -372.03661    503.39682   -2643.9848 
 7285000    251.00977   -3840.1365   -3409.9144   -3840.1365            0     8246.728    16.953112    19.968527    20.682757    7001.7064    9760.4147    7386.1291    7593.6403    1790.7824   -615.94139    675.05537   -2567.8187 
 7286000    259.52573   -3863.0025   -3418.1843   -3863.0025            0    6894.2639    17.020321     20.04769    20.764752    7085.3092    5752.0329    6895.0388    8035.7199   -1098.3855    272.71748    1315.3344   -2705.7865 
 7287000    264.61742   -3852.9602    -3399.415   -3852.9602            0     8030.181    17.021543     20.04913    20.766243    7086.8363    7261.7155    8896.8218    7932.0058    1293.7517    230.29246   -582.43513   -2569.4617 
 7288000    260.97402   -3839.2719   -3391.9713   -3839.2719            0    8078.6039     16.94645     19.96068     20.67463    6993.4553    6068.7702    10466.948    7700.0936    265.43546   -988.79289    93.503089   -2568.0153 
 7289000    269.32072   -3867.0401   -3405.4336   -3867.0401            0     6501.413     17.00035    20.024166    20.740387    7060.3973    7458.4257    6078.3374    5967.4759    1172.2385   -76.987554    2007.3558   -2735.9919 
 7290000    250.75593   -3831.1123   -3401.3253   -3831.1123            0    10317.758    16.920051    19.929585    20.642423    6960.8229    8818.7564    10960.561    11173.956   -1180.7063    632.55179    254.03097    -2353.903 
 7291000    251.92519   -3841.0129   -3409.2217   -3841.0129            0    8934.9127    16.983762    20.004628     20.72015    7039.7508    8334.3745    8219.9334     10250.43    329.53263    455.23396     450.9505   -2491.8962 
 7292000    253.32621   -3864.6292   -3430.4368   -3864.6292            0    8880.4092    16.999583    20.023263    20.739452    7059.4423    9234.1153    8054.2891    9352.8234   -133.31682   -16.129377    936.48544   -2516.1567 
 7293000    275.62741   -3867.1283   -3394.7123   -3867.1283            0    8255.0329    16.994608    20.017404    20.733382    7053.2466     6223.454    10042.672    8498.9725   -175.23912    1462.9653    1075.4268   -2545.5636 
 7294000    268.68732   -3841.7533   -3381.2324   -3841.7533            0    7445.3523    16.977933    19.997762    20.713038    7032.5042    8194.0909    7505.6369    6636.3292    419.47578    1102.4289    -279.1371   -2617.6232 
 7295000    256.56534   -3872.0304   -3432.2862   -3872.0304            0    8679.3031    16.921157    19.930887    20.643772    6962.1876    10798.076    8297.5264    6942.3072   -230.88072   -301.14538    254.46339   -2551.0213 
 7296000    262.43349   -3832.4696   -3382.6676   -3832.4696            0    9255.0675    16.937882    19.950588    20.664177    6982.8536    8126.0902    10162.403    9476.7089   -275.42009    2484.2933    1509.3312   -2440.1522 
 7297000    264.40128   -3874.8592   -3421.6845   -3874.8592            0    8351.1732    16.953336     19.96879     20.68303    7001.9831    6678.6244    8718.7456    9656.1497   -1826.0396     783.5526     1047.862   -2568.8899 
 7298000     271.1162   -3865.2549    -3400.571   -3865.2549            0    7819.8704      16.9691    19.987358    20.702262    7021.5342    9174.0716     8287.465    5998.0745    222.01154    1631.9922     344.1235   -2599.8016 
 7299000    259.63728   -3825.9095   -3380.9001   -3825.9095            0    8449.6996    16.998621     20.02213    20.738277    7058.2433    6645.9672    9354.1633    9348.9684   -91.362838    -779.1589    -1448.101   -2511.1114 
 7300000     261.1761    -3838.247   -3390.6001    -3838.247            0    7632.6814    16.976125    19.995633    20.710833    7030.2583    6807.9525    9721.1274    6368.9642    318.40489   -938.41231   -624.97583   -2608.0281 
 7301000    261.37485   -3812.4276   -3364.4401   -3812.4276            0    7768.6123    17.015281    20.041753    20.758603    7079.0168    7624.0026    7632.5928    8049.2415    260.81839   -507.70105    313.50357    -2562.407 
 7302000    265.01553   -3875.1726    -3420.945   -3875.1726            0    9474.8984    16.974112    19.993262    20.708377    7027.7582     8332.454    10787.083    9305.1578   -1067.1716    2289.8135   -11.311402   -2449.8376 
 7303000    263.56181   -3911.3283   -3459.5924   -3911.3283            0    8236.4625    16.938129    19.950879    20.664478     6983.159    7186.6821    9345.9173     8176.788    100.69351   -485.94019   -719.19433   -2620.7728 
 7304000    279.79321   -3879.6316   -3400.0756   -3879.6316            0    6727.0844    17.011404    20.037186    20.753873    7074.1789    5133.1589    8571.0426    6477.0517    233.76608      1153.05    864.64927   -2706.0447 
 7305000    274.34111   -3873.6718   -3403.4606   -3873.6718            0    8426.8884     16.96402    19.981375    20.696065    7015.2299    6260.6741    10783.422    8236.5691   -408.14372   -41.417545    224.30304   -2541.3062 
 7306000    264.06776   -3829.5529   -3376.9498   -3829.5529            0    8800.1941     17.01045    20.036063    20.752709    7072.9889    7604.9231    8307.2821    10488.377   -20.974478    279.37913     470.1624   -2469.1897 
 7307000    273.12471   -3881.5992   -3413.4728   -3881.5992            0    6816.2347    17.044922    20.076667    20.794765    7116.0773    7557.1247     5940.728    6950.8515    320.13839     297.1831    -817.5321   -2706.0793 
 7308000    268.15197   -3866.6617   -3407.0584   -3866.6617            0    7224.9121    17.044885    20.076623     20.79472    7116.0307    10312.304    4217.0388    7145.3937   -2098.2514   -103.79817    1554.0088    -2657.257 
 7309000     269.5943   -3861.6739   -3399.5985   -3861.6739            0    8204.5268    17.022568    20.050336    20.767493    7088.1158    8512.9539    8324.7254    7775.9011   -999.97713   -221.95185    1402.0141   -2551.4728 
 7310000    253.07133   -3876.7085   -3442.9529   -3876.7085            0    7167.5032     17.03378    20.063543    20.781172    7102.1311    7923.7946    8075.4335    5503.2813    1381.9467   -255.98489    739.96927   -2700.5623 
 7311000    266.91779   -3870.8403   -3413.3524   -3870.8403            0    6813.2684    17.072384    20.109013    20.828268    7150.5274    7438.0489    4734.9672    8266.7891    2465.0056   -1210.3538    -602.5941   -2702.8436 
 7312000    257.56726   -3833.0424   -3391.5809   -3833.0424            0    7342.1007    17.024799    20.052965    20.770216     7090.904    6855.7913    7405.8659    7764.6448    849.44424     470.0434   -1457.7336   -2632.3081 
 7313000    269.91287   -3816.9788   -3354.3573   -3816.9788            0    7331.8621    17.033622    20.063357    20.780979    7101.9333    8175.7087    7823.7939    5996.0837    1225.9426    99.488802     628.3977    -2594.964 
 7314000    258.33609   -3839.2783   -3396.4991   -3839.2783            0    8256.2681    17.039947    20.070806    20.788695    7109.8474    8537.0411    7014.8959    9216.8672    152.33817    1789.7435    1630.2202   -2540.4081 
 7315000    242.84172   -3877.6617   -3461.4393   -3877.6617            0    7380.5314    17.045283    20.077092    20.795205    7116.5289    7721.8763    8323.2888    6096.4291    937.18189   -1155.0564     455.8324   -2695.4341 
 7316000    273.09654   -3860.7879   -3392.7098   -3860.7879            0    7001.9849    16.986172    20.007467    20.723091    7042.7484    6662.6683    6760.6031    7582.6834    145.46598   -205.18796    -520.3276   -2673.5271 
 7317000    251.80252   -3888.3723   -3456.7914   -3888.3723            0    9430.5674    16.949101    19.963802    20.677864     6996.738     10139.71    9542.5802    8609.4123   -813.25794    177.66992   -1396.8634   -2494.4939 
 7318000    253.24487   -3841.8547   -3407.8016   -3841.8547            0    8294.9446    16.937727    19.950405    20.663987    6982.6612    7797.9778    9215.6027    7871.2533   -68.410666    302.00125   -1115.8768   -2563.0863 
 7319000    246.54643   -3873.0876   -3450.5155   -3873.0876            0    7718.1143    16.995022    20.017891    20.733888    7053.7621    5425.1336    7251.0224    10478.187   -406.97694   -135.53603   -698.72075   -2656.5385 
 7320000     261.3842   -3848.8593   -3400.8557   -3848.8593            0    8214.4701    17.025046    20.053256    20.770517    7091.2126    9171.3712    7247.7402     8224.299   -326.58784    22.824027   -1751.6162   -2551.3312 
 7321000    261.35883   -3831.3535   -3383.3934   -3831.3535            0    8879.1219    16.938603    19.951437    20.665056    6983.7446     8752.628    8367.6504    9517.0873   -1254.2805    27.030842   -399.97343   -2479.0481 
 7322000    285.35042   -3827.7185   -3338.6376   -3827.7185            0      7741.96    17.039429    20.070196    20.788063    7109.1993    7956.4658    5342.5539    9926.8602    1122.7225   -695.67824    1782.4652   -2535.9482 
 7323000     255.1078   -3845.1282   -3407.8822   -3845.1282            0    7375.0622    16.992962    20.015465    20.731374    7051.1969    6421.5759    7392.3568     8311.254   -495.14178   -871.31914   -598.42768   -2649.4715 
 7324000    264.59031   -3856.9085   -3403.4097   -3856.9085            0    6301.2356    17.092461    20.132661    20.852762     7175.784    6841.0855    6296.6467    5765.9746   -736.32348   -1751.9139   -1347.0481   -2743.9763 
 7325000    256.53692    -3859.229   -3419.5335    -3859.229            0    10252.259    16.999748    20.023458    20.739653    7059.6479    9052.3234    12777.413    8927.0413   -904.33653    1205.8013    812.91841   -2363.9843 
 7326000    261.48095   -3872.6954    -3424.526   -3872.6954            0    6507.7969    17.080922     20.11907    20.838685    7161.2611    6659.6077    4726.2509     8137.532   -797.13516   -1344.9103     1337.239    -2744.854 
 7327000    257.66695    -3893.817   -3452.1847    -3893.817            0    7871.7498    17.004146    20.028638    20.745019     7065.129    7595.0975    9423.2153    6596.9364    1422.6422   -2125.2936   -1203.4316    -2641.098 
 7328000    278.54877   -3818.5704   -3341.1473   -3818.5704            0    10828.282    16.967298    19.985236    20.700064     7019.298    10056.874    12260.278    10167.694    845.61002   -160.38681   -1081.6906   -2232.6641 
 7329000    265.76948   -3867.8187   -3412.2989   -3867.8187            0    9082.3783    17.048081    20.080388    20.798619    7120.0346    8339.2137    10833.944     8073.977   -964.20342    232.57583   -979.71919   -2469.1992 
 7330000    262.28314   -3834.0447   -3384.5003   -3834.0447            0    8381.3297    17.095762     20.13655     20.85679    7179.9429    8267.0117    8168.3002    8708.6773   -812.74756    229.18201   -1206.0662   -2506.8737 
 7331000    247.16128   -3857.7144   -3434.0884   -3857.7144            0     7646.224    17.107129    20.149938    20.870657    7194.2735    9767.7825    7364.3336    5806.5559    542.35934   -952.00214   -276.79926   -2631.8382 
 7332000    251.41913   -3876.3354   -3445.4116   -3876.3354            0     7566.528    17.063518    20.098571    20.817452    7139.3936    8123.6621    4927.7429    9648.1789    245.56044   -261.12688   -954.06575   -2657.5792 
 7333000    246.53427   -3853.3536   -3430.8023   -3853.3536            0    6940.3386    17.068174    20.104054    20.823132    7145.2388    6747.8585    6366.6249    7706.5324   -780.24097   -1472.2445    2083.3237   -2707.5776 
 7334000    270.59595   -3799.2089   -3335.4167   -3799.2089            0    7614.3657    16.973095    19.992063    20.707136    7026.4941      7348.55    6584.9018    8909.6452   -180.87512    233.34835    619.92723   -2555.1406 
 7335000    260.06132   -3864.5574   -3418.8212   -3864.5574            0    8239.8882    17.019409    20.046616     20.76364    7084.1711    8567.3084    8497.6278    7654.7282    -953.8883    827.63677    355.59571   -2567.5141 
 7336000     269.3701   -3897.6536   -3435.9624   -3897.6536            0    7056.4715    17.051062    20.083899    20.802256    7123.7706    7244.1721    7744.6916    6180.5509   -137.04295    689.51429   -296.26049   -2702.8452 
 7337000     249.7351   -3879.2711   -3451.2337   -3879.2711            0    7675.7046    17.046494    20.078519    20.796683    7118.0465    8187.6293    7576.4426    7263.0418    2788.1932   -1806.5865    363.53718   -2654.4234 
 7338000    265.63657   -3850.8828   -3395.5908   -3850.8828            0    8316.2474    17.038799    20.069454    20.787294    7108.4105    7488.9763     8239.643    9220.1228    684.63291   -981.27225   -126.88848   -2533.4548 
 7339000     244.8721   -3890.6453   -3470.9429   -3890.6453            0    6573.5109    17.030093      20.0592    20.776674    7097.5206    6022.2257     6792.443    6905.8641    463.09381    804.58026   -59.260462   -2790.5184 
 7340000    259.31389   -3862.2101   -3417.7549   -3862.2101            0    8982.9086    16.935068    19.947274    20.660744    6979.3738    9678.6963    9114.0569    8155.9727    2480.6882    1748.3299     849.0043   -2503.4115 
 7341000    251.58216   -3873.6926   -3442.4894   -3873.6926            0      8189.76    17.000449    20.024283    20.740508    7060.5208    8484.1604    6928.5646     9156.555    629.96614    55.583121   -1147.1016   -2599.1861 
 7342000    256.02107   -3862.7538   -3423.9424   -3862.7538            0    8065.9714    17.045804    20.077706    20.795841    7117.1819     8258.885    7632.9945    8306.0349    840.45886    175.76295   -1178.7337   -2586.7204 
 7343000    260.50108   -3900.5523   -3454.0623   -3900.5523            0    7085.2077    16.992984    20.015491    20.731401    7051.2247    6101.7021    7108.5097    8045.4113   -1420.0011   -923.67193   -350.10791   -2725.4559 
 7344000    253.58568   -3881.3127   -3446.6756   -3881.3127            0    8002.3075    16.955512    19.971354    20.685686    7004.6808    8777.2452    7971.5775       7258.1   -1786.3011     302.8985   -830.91742   -2629.1912 
 7345000    253.44553   -3879.4346   -3445.0377   -3879.4346            0    8407.2355    16.920308    19.929888    20.642737    6961.1405     7176.155    8392.2283    9653.3231    1598.0288    20.391448    211.54476   -2591.5259 
 7346000    276.81426   -3873.9529   -3399.5028   -3873.9529            0    7998.5167    16.948411    19.962989    20.677021    6995.8827    5974.3662    7796.5766    10224.607   -247.03992    1520.6713    723.76295   -2583.4319 
 7347000    263.69662   -3876.0102   -3424.0432   -3876.0102            0    8348.2309    16.985466    20.006635    20.722228    7041.8692    8719.5652    8434.2652    7890.8624   -624.39018    259.93322   -620.60819   -2566.6929 
 7348000    249.95795   -3916.4806   -3488.0613   -3916.4806            0    8619.8518    16.954901    19.970634     20.68494     7003.923    9260.1681    8610.2579    7989.1294    1060.1878    593.60402    471.89786   -2607.5862 
 7349000    266.44676   -3868.0386    -3411.358   -3868.0386            0    8787.4532     16.89862    19.904342    20.616277    6934.4068    8087.1768    9691.0958     8584.087    392.47404    840.15619    1092.1125   -2522.6722 
 7350000    252.11087   -3869.4367   -3437.3273   -3869.4367            0    8874.4687    16.932985     19.94482    20.658202    6976.7984    7667.7244    10091.472    8864.2095   -184.15357    1347.0752   -322.39851    -2534.355 
 7351000    266.77153    -3903.042   -3445.8047    -3903.042            0    8179.8618     16.97848    19.998406    20.713705     7033.184    5716.8273    8292.5971    10530.161    1759.1182    1319.2196      594.756   -2606.7818 
 7352000    269.78745   -3865.8651   -3403.4587   -3865.8651            0    8527.2256    16.981442    20.001896     20.71732    7036.8664    9572.9054    7646.9469    8361.8246     946.0715   -1322.9647    -711.2032   -2528.3481 
 7353000    254.68278   -3850.9641   -3414.4466   -3850.9641            0    9807.7134    16.951444    19.966562    20.680723    6999.6401    9959.4571    10458.145    9005.5382   -699.27252    1656.1733    746.77211     -2413.25 
 7354000    266.12894    -3869.016   -3412.8801    -3869.016            0    9080.1364    16.925968    19.936554    20.649641    6968.1279    10675.707    7229.8827    9334.8192    586.49747    578.45145    1177.9748   -2490.1294 
 7355000     267.7033   -3839.1604   -3380.3261   -3839.1604            0    9267.4994    16.935942    19.948303     20.66181    6980.4544    9282.1726    9859.6179    8660.7078   -312.34858    380.99008    220.66536    -2436.869 
 7356000    254.68213   -3853.1469   -3416.6305   -3853.1469            0    6465.7282    16.975964    19.995443    20.710637    7030.0585    7829.0677    7340.8227    4227.2943    1096.1911   -1315.1928   -146.58588    -2753.724 
 7357000    264.46496   -3863.8634   -3410.5795   -3863.8634            0    10081.458    16.931099    19.942598    20.655901    6974.4669    9615.2075    9875.0804    10754.087    349.25853   -1349.7396   -90.098708   -2385.1395 
 7358000    259.63516   -3834.6643   -3389.6585   -3834.6643            0    7803.8254    17.047245    20.079403    20.797599     7118.987    10883.127    5291.4383    7236.9104   -254.94603   -238.15395   -160.60413    -2579.441 
 7359000     246.1112   -3814.5626   -3392.7364   -3814.5626            0    11337.663    16.961203    19.978057    20.692628    7011.7359     9973.149    12572.914    11466.925    719.50714    1070.4798    337.18564   -2233.3587 
 7360000     265.8366    -3867.375   -3411.7402    -3867.375            0    7787.6341    16.981128    20.001525    20.716936    7036.4755    7621.4846    7242.9999    8498.4177    1539.5445    55.854995    1120.2152   -2612.5749 
 7361000    257.01843   -3850.3996   -3409.8788   -3850.3996            0    7892.8295    17.019563    20.046798    20.763828    7084.3635    5734.5406    8048.3748    9895.5731    1359.0463   -1287.8846    1115.6503   -2594.4061 
 7362000    262.37674   -3882.8393   -3433.1345   -3882.8393            0    7085.3886    16.999854    20.023582    20.739782    7059.7798    8049.7684    6951.8046    6254.5928    1056.3751    521.80002   -517.22746   -2703.6254 
 7363000    249.77029   -3884.5976   -3456.4999   -3884.5976            0     6598.987    17.065368    20.100749    20.819709    7141.7156    5562.8159    6846.9444    7387.2008   -144.06607   -941.52952    1766.7917    -2769.185 
 7364000    269.57699   -3846.5267    -3384.481   -3846.5267            0    7803.0827    17.047832    20.080095    20.798316    7119.7228    9632.0581    6303.3783    7473.8118    1004.8039    1029.0547   -136.15445   -2574.2568 
 7365000    266.32791   -3864.2549    -3407.778   -3864.2549            0    7919.2344     17.08291    20.121412     20.84111    7163.7621    7482.3054    9012.9459    7262.4517    1055.9789    2580.1809    619.89173   -2580.4071 
 7366000    262.81883    -3899.229   -3448.7665    -3899.229            0    8348.0834    17.037831    20.068314    20.786114    7107.1993    9097.8368    6697.1398    9249.2736   -308.40955    1015.2396   -192.68363   -2583.4776 
 7367000    255.07116   -3921.5645   -3484.3813   -3921.5645            0    9041.3429    17.024771    20.052931    20.770181    7090.8683    6815.4557    9122.4859    11186.087   -263.61409   -557.04934      352.966   -2549.3886 
 7368000    260.84591   -3924.2813   -3477.2003   -3924.2813            0    7881.3536     17.04828    20.080622    20.798862    7120.2842    7625.6901    7080.8961    8937.4747   -381.58438    1699.7572    -14.64039   -2658.7845 
 7369000    261.95307   -3879.4314   -3430.4528   -3879.4314            0    7933.6472    17.073446    20.110264    20.829564    7151.8625    10970.598    4486.4526    8343.8911   -1006.8783    291.74138    1512.8169   -2602.9529 
 7370000    263.10275   -3897.1002   -3446.1511   -3897.1002            0     9950.191    16.941861    19.955274    20.669031    6987.7751     8907.346    9583.7876    11359.439   -63.529355    1581.0927   -837.02873   -2432.1318 
 7371000    263.61074    -3905.068   -3453.2482    -3905.068            0    6959.8349    17.029706    20.058744    20.776201    7097.0364    6158.7325    7828.3664    6892.4058    61.527637    882.97355   -752.35178   -2732.8845 
 7372000    272.13525   -3858.5961   -3392.1656   -3858.5961            0     9038.495     16.95857    19.974956    20.689416    7008.4713    10778.654    8655.8791    7680.9523   -61.361057    1268.7006    1794.4057   -2468.3287 
 7373000     250.4613   -3877.5476   -3448.2655   -3877.5476            0    7929.9238    16.999527    20.023198    20.739383    7059.3727    4979.2897    8018.2898    10792.192   -462.20186   -75.847606    906.96685   -2631.8504 
 7374000    267.61649   -3852.0137   -3393.3282   -3852.0137            0    8744.8926     17.00099    20.024921    20.741168    7061.1957    8727.9994    9390.5779    8116.1005     356.6105   -329.66136    238.09121   -2492.7766 
 7375000    276.96595   -3860.3647   -3385.6546   -3860.3647            0    8030.4099    17.005373    20.030083    20.746516    7066.6583    7885.7821    8997.6116    7207.8359   -512.76513    2401.5739    68.715447   -2558.0408 
 7376000    263.41094   -3875.7994   -3424.3221   -3875.7994            0     8685.598    17.018125    20.045103    20.762073    7082.5672    9315.4553    6849.3206    9892.0182    648.14905   -547.25148    489.68386   -2527.1695 
 7377000    259.75662   -3884.5986   -3439.3846   -3884.5986            0    7164.2762    17.039947    20.070807    20.788696    7109.8482    6992.4604    6872.7547    7627.6135    637.53912     55.58542    -321.3973   -2696.5219 
 7378000    264.78825   -3890.4416   -3436.6036   -3890.4416            0    10490.915    16.934958    19.947144    20.660609    6979.2373    10413.134     9162.836    11896.776    1319.2723   -1202.0087    355.42914   -2368.7856 
 7379000    258.86708   -3846.6703    -3402.981   -3846.6703            0    5895.9935     17.02377    20.051752    20.768959    7089.6172    5079.1907    5152.9282    7455.8617   -853.55038   -939.74494    15.806776   -2793.3659 
 7380000    252.74379   -3893.9331   -3460.7389   -3893.9331            0    7654.2376    17.001592     20.02563    20.741903     7061.946    8511.8063    7120.0143     7330.892   -178.71017    1049.4313    544.33868   -2672.4195 
 7381000    259.15864   -3913.3223   -3469.1332   -3913.3223            0    8562.8867    16.998592    20.022096    20.738243    7058.2082    9079.2444    8151.0361    8458.3797   -742.67173    1636.1266    1650.2778   -2587.6977 
 7382000    275.30618   -3873.5286   -3401.6632   -3873.5286            0    7455.8585    17.076998    20.114448    20.833897    7156.3265    7758.0739    7327.9871    7281.5145    111.14328   -943.63605   -460.86985   -2623.5126 
 7383000    253.62507   -3875.1189   -3440.4142   -3875.1189            0    7092.3809    17.028329    20.057122    20.774522    7095.3152    6268.3081    8809.4272    6199.4074     886.3118    301.71964    1040.2406   -2706.5096 
 7384000    259.25209   -3872.1262   -3427.7769   -3872.1262            0    9083.2864    17.026645    20.055139    20.772467    7093.2103    8003.1727    7812.0879    11434.599    387.36489   -1073.8523    935.35907   -2488.1364 
 7385000     257.5483    -3897.491   -3456.0621    -3897.491            0    8096.6763    16.976515    19.996093    20.711309    7030.7433    7968.6467    8115.6907    8205.6914     992.9086    214.98554   -1782.5661   -2625.8598 
 7386000    260.27488   -3869.1713   -3423.0691   -3869.1713            0    8920.2247    17.095663    20.136433    20.856669    7179.8185    7836.3834    9365.9985    9558.2923   -480.68015   -245.12626   -857.61431   -2489.0298 
 7387000    266.41118   -3886.0528   -3429.4332   -3886.0528            0     7328.808    17.043325    20.074785    20.792816    7114.0767    7951.5276    8710.2113     5324.685   -1202.3109   -529.11901    414.66138   -2669.0583 
 7388000    265.57285   -3834.0859   -3378.9031   -3834.0859            0    8482.2739    16.953789    19.969324    20.683583     7002.545    9216.6311    6695.1129    9535.0777    562.78692    409.80854     1438.836   -2512.6515 
 7389000     239.9684   -3881.5974   -3470.2998   -3881.5974            0    7013.5357    17.064141    20.099305    20.818213     7140.176    6380.7678    6247.9522    8411.8871    994.15354   -258.60644   -465.66094   -2739.9653 
 7390000    267.40978   -3880.3047   -3421.9735   -3880.3047            0    7524.0781    16.983653      20.0045    20.720017    7039.6148    8764.2883    7389.0076    6418.9385   -568.70973    614.01793   -203.90798   -2649.5098 
 7391000     251.9488   -3866.1575   -3434.3259   -3866.1575            0    8378.7633    16.949797    19.964622    20.678713    6997.5999    9628.3868    7837.5161    7670.3869     1597.936    1987.1503    746.67016   -2579.2495 
 7392000    254.13116   -3868.2788   -3432.7067   -3868.2788            0    7755.4819    16.988074    20.009707     20.72541    7045.1137    8397.6242    7079.0697    7789.7518   -78.558276   -796.28377    791.36661   -2635.8639 
 7393000    249.02784   -3870.5639   -3443.7387   -3870.5639            0    10257.229    16.942926    19.956528     20.67033    6989.0927     12114.56    8968.0133    9689.1144    1187.5278    1215.9796     13.56239   -2398.2322 
 7394000    264.25575   -3878.2087   -3425.2834   -3878.2087            0    7840.7732    16.971023    19.989624    20.704609     7023.922    6799.8527    8598.3795    8124.0874    409.58813   -641.92149    447.88091   -2622.1005 
 7395000    267.11439   -3855.3867   -3397.5618   -3855.3867            0    8879.3491    16.987334    20.008835    20.724507    7044.1927    10234.229    7288.0086      9115.81    645.32893    1131.5737    200.23996   -2485.3656 
 7396000    265.69315   -3888.3749   -3432.9859   -3888.3749            0    9135.3334    16.940627    19.953821    20.667526    6986.2488    9228.6695     7266.033    10911.298     -455.105     355.7927   -394.12042   -2502.2117 
 7397000    257.33194   -3916.4182   -3475.3601   -3916.4182            0    6280.6666    17.008824    20.034148    20.750726    7070.9616    5758.1003    5606.4601    7477.4394   -739.99061    777.99742    490.26837   -2827.6806 
 7398000    255.20191   -3920.7884    -3483.381   -3920.7884            0     8240.191     16.93994    19.953012    20.666687    6985.3989    10319.404    9422.2234    4978.9453   -1318.4091    663.29468   -518.84314   -2643.9126 
 7399000    278.58392   -3876.2567   -3398.7733   -3876.2567            0    8927.1636    16.911892    19.919975    20.632468    6950.7579    9693.5158    7602.7544    9485.2207   -423.31394   -790.66991   -840.92077   -2493.8297 
 7400000    275.67635   -3902.9892   -3430.4894   -3902.9892            0    10676.326    16.902949    19.909441    20.621558    6939.7372    12407.825     10447.34    9173.8138    440.76357    180.05538    559.41653   -2349.9497 
 7401000    265.42005   -3860.5957   -3405.6748   -3860.5957            0    6770.3563    17.043974     20.07555    20.793608    7114.8897    6910.5182    7452.4416    5948.1092   -148.08076    1828.5056    -661.8248   -2703.1598 
 7402000    244.79123   -3887.8133   -3468.2496   -3887.8133            0     7650.295     16.98891    20.010692     20.72643     7046.154     8169.719    7559.6558    7221.5102   -81.446279   -459.32689   -61.441739   -2682.0981 
 7403000    274.41428   -3899.4521   -3429.1154   -3899.4521            0    9197.5855    16.950547    19.965505    20.679628    6998.5286    7972.2612    8574.3199    11046.175    959.07553    988.96058    11.362934   -2490.3513 
 7404000    250.39202   -3903.3087   -3474.1453   -3903.3087            0    8999.0393    16.947066    19.961405    20.675381    6994.2178    9053.1647    8141.0348    9802.9184     322.9499    294.13506   -1752.7943   -2556.2119 
 7405000    251.80159   -3868.9653    -3437.386   -3868.9653            0    7691.2074    16.925643    19.936172    20.649246    6967.7275    7324.2889    8533.3471    7215.9861    1086.9169   -442.88326   -616.17022   -2655.8274 
 7406000    248.99236   -3892.6267   -3465.8623   -3892.6267            0     8411.031    16.933946    19.945951    20.659374     6977.986    8981.8545    10632.176    5619.0625    831.86525    302.24491   -86.685324   -2609.8989 
 7407000    259.00012   -3884.0751   -3440.1578   -3884.0751            0    7983.9247    16.948215    19.962759    20.676783    6995.6406    8919.7661    7106.4667    7925.5413   -1009.7123    103.93302    309.63706   -2625.6039 
 7408000    266.74798   -3885.3374   -3428.1405   -3885.3374            0    7440.6788     16.97401    19.993142    20.708253    7027.6311    7559.1795    8023.6354    6739.2216   -415.66728    374.27392    302.48444   -2665.5395 
 7409000    262.58134   -3866.4774    -3416.422   -3866.4774            0    9625.8653    16.934427    19.946518    20.659961    6978.5803    9143.2391     7361.938    12372.419   -536.25433    185.24332   -739.65335   -2436.7453 
 7410000    284.82606   -3880.1338   -3391.9517   -3880.1338            0    7897.4005    16.995908    20.018934    20.734967    7054.8644    6208.9902     5425.471     12057.74    385.27187    589.84651    187.96751   -2579.4043 
 7411000    255.17554   -3869.5913   -3432.2292   -3869.5913            0    8123.8007    16.918856    19.928178    20.640965    6959.3486    6379.2903    9693.7241    8298.3878   -103.17746    220.16891     -1422.63   -2607.7044 
 7412000    255.24211    -3890.361   -3452.8847    -3890.361            0    7504.3965    17.012704    20.038718    20.755459    7075.8011    6593.0369    6116.2642    9803.8884   -1234.5143      911.787    23.477227   -2678.4813 
 7413000    263.59105   -3915.1588   -3463.3728   -3915.1588            0    7992.5635    17.001893    20.025984    20.742269      7062.32     6269.733    9460.3198    8247.6376    1068.4141   -807.35996   -473.19703   -2640.1652 
 7414000    259.05964   -3931.5437   -3487.5244   -3931.5437            0    5102.3091     17.00749    20.032577    20.749098    7069.2976    4881.2081    6417.1759    4008.5434   -880.25515    37.960777   -1054.4319   -2961.4842 
 7415000    272.69496      -3941.9   -3474.5101      -3941.9            0      7352.62    16.960301    19.976994    20.691527    7010.6171    6588.2719    6861.8578    8607.7302    155.63033   -393.43673    524.73436   -2722.7587 
 7416000    258.64202   -3889.0859   -3445.7823   -3889.0859            0     7392.966    17.001621    20.025664    20.741938    7061.9819    6092.8125    8814.6432    7271.4423    -836.1297    492.34803   -2809.6229   -2684.3677 
 7417000    246.07634   -3906.4431   -3484.6766   -3906.4431            0    6909.5235    17.000842    20.024747    20.740988    7061.0113    5277.1488    7721.5904    7729.8311   -428.07204   -438.56915    -1091.461   -2773.1504 
 7418000    259.85204    -3822.467   -3377.0895    -3822.467            0     8929.028    16.938527    19.951348    20.664964    6983.6511    10742.671    7457.2853    8587.1273    529.04468   -86.385891   -1361.9611   -2467.6734 
 7419000    264.83059   -3825.8445    -3371.934   -3825.8445            0    8905.9232     16.94804    19.962553    20.676569     6995.424    7606.5018    8560.6404    10550.627   -76.357072    1189.3944    -372.4791    -2463.342 
 7420000    263.95933    -3857.851   -3405.4337    -3857.851            0      5911.26    17.031165    20.060463    20.777981    7098.8607     4141.202    5560.7856    8031.7925    386.31129   -717.06285    26.904061   -2793.4433 
 7421000    267.09864   -3891.7074   -3433.9095   -3891.7074            0    6458.7117    17.043294    20.074749    20.792779    7114.0386     7485.161    7358.0259    4532.9481    699.49079   -338.79361   -661.21883    -2763.812 
 7422000    265.22682   -3897.0932   -3442.5035   -3897.0932            0    10835.567    16.851448     19.84878    20.558727    6876.4972    10210.533     10568.56    11727.608   -1212.1669   -329.72523   -728.94224   -2355.8407 
 7423000    255.46016   -3880.1553   -3442.3053   -3880.1553            0    8833.7188    16.976691      19.9963    20.711524    7030.9621    9077.8439    10185.045    7238.2677   -1414.3587   -855.49997    234.87345   -2536.5013 
 7424000    243.65605   -3852.8678   -3435.2497   -3852.8678            0    7171.8896    17.075107    20.112221    20.831591    7153.9502    6374.3159    7308.5952    7832.7576    106.76888    62.183133     988.6134   -2686.9847 
 7425000    270.00067   -3888.0141   -3425.2422   -3888.0141            0    7486.8426    17.014721    20.041094     20.75792    7078.3184    6379.7498    9208.9576    6871.8204   -1535.1089    316.28944   -125.72873   -2652.3753 
 7426000    269.95948   -3926.5312   -3463.8299   -3926.5312            0    6808.6783     17.01638    20.043048    20.759944    7080.3892    7746.4683    6763.6172    5915.9495   -933.48077   -817.71888    198.09441   -2760.7643 
 7427000    260.05474   -3847.8263   -3402.1014   -3847.8263            0    7382.4493    17.022998    20.050844    20.768018    7088.6538    6483.7051    6993.7144    8669.9283   -865.97531   -852.17152    -21.32678   -2638.8983 
 7428000     263.4745   -3861.4081   -3409.8218   -3861.4081            0    7495.2311    17.016393    20.043064     20.75996    7080.4057    7467.3108    8438.1277    6580.2548   -435.25856   -14.314024   -470.67193   -2635.8608 
 7429000    256.23655   -3844.1787    -3404.998   -3844.1787            0    7466.4519    17.014043    20.040295    20.757092    7077.4718    5707.6706    6549.2958    10142.389    48.898221    463.78039   -92.695533   -2634.3283 
 7430000    252.48216   -3835.4486   -3402.7028   -3835.4486            0    10242.707    16.985078    20.006179    20.721756    7041.3877    9998.4986    10594.574    10135.047    200.98094   -915.50341    567.76823   -2350.8647 
 7431000      270.371   -3847.6151   -3384.2084   -3847.6151            0    6916.0435    17.025941     20.05431    20.771609    7092.3309    6230.6185    7571.7751    6945.7367   -521.95567   -1355.8693   -374.48067   -2668.8518 
 7432000    270.48936   -3834.4413   -3370.8318   -3834.4413            0    8515.7025    17.046524    20.078554     20.79672     7118.084     7661.252    10818.651    7067.2048   -253.64988    232.59185    1566.9045   -2486.8171 
 7433000    271.03866   -3878.9559   -3414.4049   -3878.9559            0    9351.1628    16.953808    19.969346    20.683606    7002.5686    8652.4003    10223.945    9177.1436    206.86486    -835.8132   -1743.2064   -2459.4148 
 7434000    255.96327   -3874.9126   -3436.2003   -3874.9126            0    7894.6036    17.005703    20.030471    20.746918     7067.069     7964.658    7249.4707    8469.6821   -220.60168   -756.45711    743.65005   -2622.5355 
 7435000    260.79813   -3829.9184   -3382.9194   -3829.9184            0    8711.0863    16.969693    19.988057    20.702986      7022.27    10504.244     9251.906    6377.1085    138.54765   -901.44586   -1407.6777   -2490.7943 
 7436000    273.96113   -3860.8473   -3391.2873   -3860.8473            0    9666.2147    16.934139    19.946179     20.65961    6978.2245    9331.1735    8789.3347    10878.136    91.898281    359.91281    1167.5223   -2407.5542 
 7437000    250.80928   -3856.7447   -3426.8662   -3856.7447            0    7033.6191    17.049877    20.082503    20.800811    7122.2853    6830.0212    6582.3749    7688.4611   -229.68609    88.053022   -985.82643   -2696.2756 
 7438000    265.89731   -3844.8151   -3389.0762   -3844.8151            0    8313.0938    17.063956    20.099086    20.817986     7139.943    8391.4342     8264.162    8283.6854     443.9076   -205.86028    1977.3194   -2523.4442 
 7439000    263.12392   -3897.6194    -3446.634   -3897.6194            0    8964.1896      17.0058    20.030586    20.747037    7067.1907    10269.131    7898.9816    8724.4565    -1290.482   -896.65758   -1.0325036   -2522.7153 
 7440000    262.36826   -3820.2573   -3370.5671   -3820.2573            0    9625.7293    17.028414    20.057222    20.774625    7095.4211    8717.7174    10828.647     9330.823    427.30583    789.10906    261.38127    -2374.502 
 7441000    264.37618   -3858.3251   -3405.1934   -3858.3251            0    6521.8988    17.049183    20.081685    20.799963    7121.4146    5218.2319    5777.9836    8569.4808    304.37619    150.23977    543.75761   -2727.8386 
 7442000    274.48065   -3876.3181   -3405.8677   -3876.3181            0    8370.3962    17.001354    20.025349    20.741612    7061.6487    7277.9821     6762.369    11070.837    574.98478    17.361142    596.34039   -2543.8265 
 7443000    272.09749     -3883.32   -3416.9542     -3883.32            0    8477.7552    16.961773    19.978728    20.693323    7012.4426    6987.7381    9669.7307    8775.7969    1243.8307   -417.44677    99.717254   -2549.9402 
 7444000     262.7774   -3844.1126   -3393.7211   -3844.1126            0    8375.4641    16.966428    19.984211    20.699002    7018.2174    8620.9047    6575.9067    9929.5808     981.7201    700.03612     92.76944    -2536.463 
 7445000    261.94921   -3859.6405   -3410.6685   -3859.6405            0    8078.1929    16.978117    19.997979    20.713263    7032.7335     7327.434    6737.4883    10169.656    477.47327    492.15931    -667.3651    -2582.127 
 7446000    244.04646   -3840.2527   -3421.9654   -3840.2527            0    6149.8496    17.045967    20.077897    20.796039    7117.3854    5864.2878     6275.868    6309.3929   -102.53455    820.48931   -1148.9913   -2783.6125 
 7447000    267.83447   -3861.3759   -3402.3168   -3861.3759            0    8779.5012    16.964168    19.981549    20.696245    7015.4137    7085.7091    8898.1812    10354.613    1276.4328    1510.3578   -291.76743   -2504.0631 
 7448000    268.37088   -3854.3805    -3394.402   -3854.3805            0    9898.3384    16.977867    19.997685    20.712959    7032.4233    11256.504    10416.446    8022.0647    162.80298    1267.7737   -196.51615   -2379.2217 
 7449000    266.81507   -3845.7425   -3388.4306   -3845.7425            0    7290.2661     17.00528    20.029974    20.746402    7066.5421    7070.6214    4847.6759    9952.5011    1107.3922    -1956.692     789.9152   -2637.1084 
 7450000    251.11637    -3856.127   -3425.7221    -3856.127            0    9022.3319    17.019387    20.046589    20.763612    7084.1427    10305.522    7816.4965    8944.9773    1675.7985    346.99692    179.37797   -2493.5803 
 7451000    268.90763   -3870.3902   -3409.4918   -3870.3902            0    8711.6426    16.954498    19.970159    20.684448    7003.4233    8059.3386    11228.008    6847.5808    2414.0089    297.60212    -1986.445   -2519.7042 
 7452000    266.82316   -3868.8576   -3411.5319   -3868.8576            0      8965.86     17.01881     20.04591    20.762909    7083.4228    7839.8081    11317.784    7739.9885   -186.46002    2127.1442    447.01542   -2485.3186 
 7453000    261.11665   -3888.1389   -3440.5939   -3888.1389            0    7886.9894    16.969825    19.988212    20.703147    7022.4341    6692.9061     9185.764    7782.2982   -360.21407    167.99888    -609.2881   -2632.8479 
 7454000    253.22052   -3862.8471   -3428.8358   -3862.8471            0    6262.0488    17.055155     20.08872    20.807249    7128.9012    6732.9164    6199.2327    5853.9974    886.70856    150.90158   -1877.2812   -2777.7849 
 7455000    261.28626   -3912.6455   -3464.8098   -3912.6455            0    6720.3273    17.032673    20.062239    20.779821    7100.7468    5172.7356    6644.3618    8343.8846    571.48756     342.7806   -594.98091   -2768.8721 
 7456000    262.34169   -3888.3783   -3438.7337   -3888.3783            0    8637.2403     16.98661    20.007983    20.723625    7043.2929    9024.0686     8507.761    8379.8912    1528.9186   -1339.5818   -53.754301   -2551.5232 
 7457000    268.00321   -3876.2501   -3416.9018   -3876.2501            0    7346.4958    17.063655    20.098732    20.817619    7139.5653     7679.949    7353.8415    7005.6968    479.49864    197.30658   -52.168309   -2651.9609 
 7458000    272.60326    -3890.348   -3423.1153    -3890.348            0    6279.1615    17.012858      20.0389    20.755647    7075.9936    5283.1303    4265.0511    9289.3032    107.91185     1886.839   -413.40521   -2775.1303 
 7459000    261.51429   -3873.6134   -3425.3868   -3873.6134            0    8195.8799    17.018566    20.045622     20.76261    7083.1177    8283.6379    8537.1883    7766.8134    230.28251    325.19932   -153.20643   -2578.7524 
 7460000    280.97116   -3867.2491   -3385.6742   -3867.2491            0    8200.4238    17.023522    20.051461    20.768657    7089.3082    8115.6326    7701.5594    8784.0792    533.00651    376.52693    759.97784     -2537.83 
 7461000    263.53453   -3870.8022    -3419.113   -3870.8022            0    8052.4033    16.989728    20.011655    20.727428    7047.1716    8170.9954    7037.4852    8948.7294    286.73164    533.12023   -555.74625    -2591.521 
 7462000    264.80584   -3866.5252   -3412.6571   -3866.5252            0    7670.1163    17.024859    20.053035    20.770288    7090.9781    7539.0939    8297.0094    7174.2457    725.39027    996.79036   -1153.1814   -2619.4547 
 7463000    269.82166   -3871.1401    -3408.675   -3871.1401            0     10359.89    16.999818     20.02354    20.739739    7059.7354    9397.2242    11962.388    9720.0583   -863.98092    212.18076    745.56484   -2342.0311 
 7464000    263.97776   -3872.7317   -3420.2829   -3872.7317            0    6877.3641    17.046307    20.078299    20.796455    7117.8125    6642.7338    6848.7792    7140.5792    909.37938    318.59636    557.05329   -2706.3713 
 7465000    254.28919   -3899.4482   -3463.6053   -3899.4482            0    6355.4996    17.071507    20.107981    20.827199    7149.4265    7986.3532    7480.4173    3599.7282   -257.69097   -429.42632    415.81314   -2800.9361 
 7466000    261.38454   -3883.4384   -3435.4342   -3883.4384            0    8636.2767    17.003876    20.028319    20.744688    7064.7914    8953.2056    9769.8862    7185.7383    302.01329   -2677.7043   -129.83179    -2545.615 
 7467000    263.36326    -3878.129   -3426.7334    -3878.129            0      9348.92    16.974104    19.993252    20.708367    7027.7478    8645.4288    10026.009    9375.3226   -874.15155    156.30113     725.7298   -2468.5393 
 7468000    267.56355   -3876.0464   -3417.4516   -3876.0464            0    9647.2117    16.936168    19.948569    20.662086    6980.7339    10403.433    9233.1224    9305.0794   -690.55958    -464.8248    692.53261   -2435.2994 
 7469000    264.96922   -3883.4434   -3429.2952   -3883.4434            0    6156.0464    17.112582    20.156361     20.87731    7201.1554     5200.753    6037.9573    7229.4289    518.39043    153.47677    811.01958   -2782.7782 
 7470000    252.29277   -3874.7312     -3442.31   -3874.7312            0    7810.4469    17.026308    20.054741    20.772056    7092.7887    7767.4584    7664.4058    7999.4764   -1200.1114   -63.972549   -637.56407   -2634.3892 
 7471000    254.54468   -3870.9277   -3434.6468   -3870.9277            0    8507.6256    16.947205    19.961568     20.67555    6994.3893    6757.3717    9726.5602    9038.9448    419.94008   -232.16834    299.62652    -2566.818 
 7472000     267.7584    -3896.922   -3437.9932    -3896.922            0    8537.3449    16.939619    19.952633    20.666295    6985.0011    6315.1433    10542.337    8754.5547   -148.75428    -994.6638    1522.7667   -2568.3018 
 7473000    258.91054   -3869.3791   -3425.6153   -3869.3791            0    8116.1235    16.944481     19.95836    20.672227    6991.0176    6999.6048    7999.7466    9349.0191    157.21989    -229.0721     140.2075   -2598.1212 
 7474000    268.56887   -3854.9028    -3394.585   -3854.9028            0    8404.8164    16.997574    20.020897    20.737001    7056.9399    8244.1357    8110.5018    8859.8118    843.64531    1462.0485   -1360.4117   -2529.5761 
 7475000    264.26681   -3888.2854   -3435.3411   -3888.2854            0    6805.4436     17.03404    20.063849    20.781489    7102.4563    8546.7676    5637.9164    6231.6469    1238.7197    182.91729    39.068297   -2730.4194 
 7476000     255.7386   -3861.8232    -3423.496   -3861.8232            0    6120.4449    17.079897    20.117862    20.837434    7159.9716    6623.3636    6351.7532     5386.218    1512.7396   -98.080949   -120.51631    -2784.394 
 7477000     262.3451   -3808.7584   -3359.1079   -3808.7584            0    6945.5272    17.101268    20.143035    20.863507    7186.8825    8479.8013    8297.5406    4059.2397   -445.60836    511.05726     125.4268   -2631.1242 
 7478000    269.10226   -3821.6137   -3360.3816   -3821.6137            0    9308.5303    16.985211    20.006336    20.721918    7041.5532     11253.98    9471.5885    7200.0224    746.16891    1980.8285    1108.7903    -2404.453 
 7479000    269.62703   -3857.2439   -3395.1124   -3857.2439            0    9428.2128    16.964169     19.98155    20.696247    7015.4149    10594.991    9796.3938    7893.2534   -1351.7007   -1029.9981   -1864.8662   -2430.4872 
 7480000    260.03883   -3837.7887   -3392.0911   -3837.7887            0    7477.1568    17.019112    20.046266    20.763277    7083.7996    7621.2421    7524.6552    7285.5732    1093.4057   -720.47492    -1466.036   -2619.6264 
 7481000    274.87565    -3880.327   -3409.1995    -3880.327            0    7489.4261    17.034674    20.064596    20.782263    7103.2499     6436.187    7693.5065    8338.5848   -1046.8756    523.62803    -1191.644   -2633.3428 
 7482000    267.77555   -3867.4629   -3408.5047   -3867.4629            0    8276.9298    17.029543    20.058552    20.776002    7096.8325    9069.1525    9431.2667    6330.3701   -415.76169    1271.3395   -1798.1288   -2551.8423 
 7483000    264.52002   -3878.9411   -3425.5629   -3878.9411            0    9707.2927    17.014137    20.040406    20.757207    7077.5892    9036.8046    10883.784    9201.2895   -1025.8904   -1185.9916    650.27401   -2423.5822 
 7484000      274.034   -3856.8395   -3387.1546   -3856.8395            0    7980.2532    17.010078    20.035625    20.752255    7072.5252    8114.2677    7640.6451    8185.8468   -1327.2262   -1549.9066    14.832815   -2564.0271 
 7485000     257.5326    -3868.708   -3427.3059    -3868.708            0     7348.879    17.048846    20.081288    20.799552    7120.9923    9315.9363    6262.5108    6468.1899    1987.8311    746.03769    157.17521   -2664.1075 
 7486000    265.11355   -3881.2627   -3426.8671   -3881.2627            0    8479.7142    16.989646    20.011559    20.727328    7047.0697    9502.8631    9857.6829    6078.5967   -936.49645   -950.64633   -1001.3978   -2555.3706 
 7487000    267.52031   -3864.9085   -3406.3878   -3864.9085            0     6756.977    17.042682    20.074028    20.792032    7113.2721    8116.2508    5841.6325    6313.0477     1260.831    309.80493   -1892.3827   -2705.4205 
 7488000    262.59675   -3848.1323   -3398.0504   -3848.1323            0    10735.382    17.015664    20.042205     20.75907    7079.4951    9917.7403    10431.394    11857.011    537.97849   -70.172898    2052.6553   -2289.6526 
 7489000     266.2476   -3839.9318   -3383.5925   -3839.9318            0    7771.1925    16.945759    19.959866    20.673787    6992.6003    8198.3056    8140.4712    6974.8008   -1176.6674   -293.14498    322.18863   -2591.0871 
 7490000    261.12065   -3853.4254   -3405.8736   -3853.4254            0    8954.6545    16.969481    19.987807    20.702727    7022.0068    7949.5968    9711.9961    9202.3706   -150.15461   -470.35635    1185.5094   -2488.8385 
 7491000    259.76173   -3870.8386   -3425.6159   -3870.8386            0    7928.2817    16.976759     19.99638    20.711606    7031.0461    8773.0489    7423.5176    7588.2786    133.18263    475.38881   -442.78352   -2612.6452 
 7492000    252.01591   -3849.2252   -3417.2786   -3849.2252            0    6910.9083    16.997497    20.020806    20.736906    7056.8433    5985.6479    7241.7054    7505.3714    1687.7918   -389.80056    569.98862   -2706.0299 
 7493000    281.14485   -3866.4477   -3384.5751   -3866.4477            0    9876.0121    16.916647    19.925575    20.638269    6956.6221    8551.1803    11170.252    9906.6042    35.370944   -971.57011   -2252.2878   -2382.6023 
 7494000    265.34793    -3857.545   -3402.7477    -3857.545            0    10706.294    16.916347    19.925222    20.637904    6956.2526    10105.462     10721.05    11292.372   -40.320385    713.88439   -225.05103   -2316.5962 
 7495000    283.00828   -3863.4978   -3378.4313   -3863.4978            0     8652.991    16.990702    20.012802    20.728617    7048.3838    9123.1983    8997.8765    7837.8982   -988.18704    66.321129    770.87914   -2488.9605 
 7496000    262.83612   -3865.9727   -3415.4806   -3865.9727            0    6435.3258    17.030008      20.0591     20.77657    7097.4145    6541.7319    5943.6111    6820.6343   -855.70934   -1816.9113   -1941.1258   -2749.3696 
 7497000    253.89341   -3847.9005   -3412.7358   -3847.9005            0    7658.7977    17.014917    20.041325    20.758159    7078.5633    6817.8834    8205.0534    7953.4562   -964.33024    967.14485   -67.569388   -2622.0907 
 7498000    269.67599   -3843.3495   -3381.1341   -3843.3495            0    8170.1258    17.003864    20.028306    20.744675    7064.7776    8154.6638    6748.5412    9607.1723   -574.68523    406.99731    764.99312   -2539.3453 
 7499000    262.37936   -3891.1148   -3441.4055   -3891.1148            0     7026.257    17.022552    20.050318    20.767474    7088.0963    6671.8521     6867.534     7539.385   -350.44567    201.74296    450.30126    -2715.083 
 7500000    269.62005   -3834.4917   -3372.3722   -3834.4917            0    8115.2299    16.998608    20.022114    20.738262    7058.2273    8034.0914    7159.1948    9152.4034   -850.35667    924.51136     2471.677   -2537.0147 
Loop time of 350.974 on 64 procs for 250000 steps with 864 atoms

Performance: 123.086 ns/day, 0.195 hours/ns, 712.303 timesteps/s
194.7% CPU use with 32 MPI tasks x 2 OpenMP threads

MPI task timing breakdown:
Section |  min time  |  avg time  |  max time  |%varavg| %total
---------------------------------------------------------------
Pair    | 26.872     | 33.454     | 38.789     |  54.9 |  9.53
Bond    | 0.8766     | 1.1587     | 1.4759     |  15.7 |  0.33
Kspace  | 154.99     | 162.63     | 168.47     |  25.3 | 46.34
Neigh   | 3.6599     | 4.0627     | 4.3136     |   9.7 |  1.16
Comm    | 67.614     | 71.788     | 77.052     |  24.6 | 20.45
Output  | 0.50786    | 0.50826    | 0.51004    |   0.0 |  0.14
Modify  | 66.053     | 67.902     | 70.093     |  12.8 | 19.35
Other   |            | 9.466      |            |       |  2.70

Nlocal:        27.0000 ave          32 max          23 min
Histogram: 1 3 4 5 5 8 3 1 1 1
Nghost:        2583.81 ave        2634 max        2539 min
Histogram: 1 4 5 4 4 3 3 5 2 1
Neighs:        8741.53 ave       11576 max        6723 min
Histogram: 2 2 8 4 9 1 0 4 1 1

Total # of neighbors = 279729
Ave neighs/atom = 323.76042
Ave special neighs/atom = 2.0000000
Neighbor list builds = 14093
Dangerous builds = 1

unfix		3
unfix		2
unfix		1

write_data	data.final.${pid}
write_data	data.final.1
System init for write_data ...
PPPM initialization ...
  extracting TIP4P info from pair style
  using 12-bit tables for long-range coulomb (../kspace.cpp:340)
  G vector (1/distance) = 0.37414687
  grid = 24 24 24
  stencil order = 5
  estimated absolute RMS force accuracy = 0.003174118
  estimated relative force accuracy = 9.5587622e-06
  using double precision FFTW3
  3d grid and FFT values/proc = 3549 432
Last active /omp style is kspace_style pppm/tip4p/omp
WARNING: Not all mixed pair coeffs generated from mixing. Use write_data with 'pair ij' option to store all pair coeffs. (../write_data.cpp:312)

write_restart   restart.lmp.${pid}
write_restart   restart.lmp.1
System init for write_restart ...
PPPM initialization ...
  extracting TIP4P info from pair style
  using 12-bit tables for long-range coulomb (../kspace.cpp:340)
  G vector (1/distance) = 0.37414687
  grid = 24 24 24
  stencil order = 5
  estimated absolute RMS force accuracy = 0.003174118
  estimated relative force accuracy = 9.5587622e-06
  using double precision FFTW3
  3d grid and FFT values/proc = 3549 432
Last active /omp style is kspace_style pppm/tip4p/omp
Total wall time: 0:05:51
