#include		in.partitions
include		in.temp
variable        temperature equal 124.63
variable	tempDamp equal 100.0
include		in.pressure
variable        pressure equal 5543.8
variable        pressureDamp equal 1000.0 # This is 1 ps
include		in.seed
variable        seed equal 745823

units		real
atom_style	full
box tilt large
read_restart	restart.lmp.${pid}
read_restart	restart.lmp.0
Reading restart file ...
  restart file = 30 Jul 2021, LAMMPS = 30 Jul 2021
  restoring atom style full from restart
  triclinic box = (-10.574106 -9.2104282 0.13070803) to (12.554106 12.200426 21.729291) with tilt (-9.2199042 2.0116551 2.7017189)
  4 by 4 by 4 MPI processor grid
  restoring pair style lj/cut/tip4p/long/omp from restart
  restoring bond style harmonic/omp from restart
  restoring angle style harmonic/omp from restart
  1296 atoms
  864 bonds
  432 angles
Finding 1-2 1-3 1-4 neighbors ...
  special bond factors lj:    0        0        0       
  special bond factors coul:  0        0        0       
     2 = max # of 1-2 neighbors
     1 = max # of 1-3 neighbors
     1 = max # of 1-4 neighbors
     2 = max # of special neighbors
  special bonds CPU = 0.013 seconds
  read_restart CPU = 0.027 seconds
include 	in.setup
variable	out_freq equal 1000
variable	out_freq2 equal 10000
variable	out_freq3 equal 1000

timestep	2.0

neigh_modify    delay 7 every 1

include		in.tip4p
# This is TIP4P/Ice

# create groups ###
group ox type 2
432 atoms in group ox
group hy type 1
864 atoms in group hy

# set charges - beside manually ###
set group ox charge -1.1794
Setting atom values ...
  432 settings made for charge
set group hy charge 0.5897
Setting atom values ...
  864 settings made for charge

# ### TIP3P Potential Parameters ###
pair_style lj/cut/tip4p/long/omp 2 1 1 1 0.1577 8.5
pair_coeff 1 1*2 0.000 0.000
pair_coeff 2 2 0.21084 3.1668
bond_style  harmonic
bond_coeff  1 450 0.9572
angle_style harmonic
angle_coeff 1 55 104.52
kspace_style pppm/tip4p/omp 1.0e-5
pair_modify tail yes

thermo          ${out_freq}
thermo          1000
thermo_style    custom step temp pe etotal epair emol press lx ly lz vol pxx pyy pzz pxy pxz pyz enthalpy

restart 	${out_freq3} restart.lmp.${pid} restart2.lmp.${pid}
restart 	1000 restart.lmp.${pid} restart2.lmp.${pid}
restart 	1000 restart.lmp.0 restart2.lmp.${pid}
restart 	1000 restart.lmp.0 restart2.lmp.0


include         in.dump
dump            myDump all atom ${out_freq2} dump.water.${pid}
dump            myDump all atom 10000 dump.water.${pid}
dump            myDump all atom 10000 dump.water.0
dump            myDump2 all dcd ${out_freq2} dump.dcd
dump            myDump2 all dcd 10000 dump.dcd
dump_modify     myDump append yes
dump_modify     myDump2 append yes


variable natoms 	equal  "count(all)"                        # NUMBER ATOMS
variable H      	equal  "enthalpy/v_natoms"                 # ENTHALPY-per-atom
variable Vol      	equal  "vol/v_natoms"                 # volume-per-atom
fix AVG all 		ave/time ${out_freq} 1 ${out_freq} v_Vol v_H file vol_enthalpy.dat
fix AVG all 		ave/time 1000 1 ${out_freq} v_Vol v_H file vol_enthalpy.dat
fix AVG all 		ave/time 1000 1 1000 v_Vol v_H file vol_enthalpy.dat


timer           timeout 10:00:00 every 1000
New timer settings: style=normal  mode=nosync  timeout=10:00:00

fix 		1 all shake 1e-6 200 0 b 1 a 1
       0 = # of size 2 clusters
       0 = # of size 3 clusters
       0 = # of size 4 clusters
     432 = # of frozen angles
  find clusters CPU = 0.001 seconds
fix             2 all nph tri ${pressure} ${pressure} ${pressureDamp}
fix             2 all nph tri 5543.8 ${pressure} ${pressureDamp}
fix             2 all nph tri 5543.8 5543.8 ${pressureDamp}
fix             2 all nph tri 5543.8 5543.8 1000
fix             3 all temp/csvr ${temperature} ${temperature} ${tempDamp} ${seed}
fix             3 all temp/csvr 124.63 ${temperature} ${tempDamp} ${seed}
fix             3 all temp/csvr 124.63 124.63 ${tempDamp} ${seed}
fix             3 all temp/csvr 124.63 124.63 100 ${seed}
fix             3 all temp/csvr 124.63 124.63 100 745823


run             250000
PPPM initialization ...
  extracting TIP4P info from pair style
  using 12-bit tables for long-range coulomb (../kspace.cpp:340)
  G vector (1/distance) = 0.36852418
  grid = 30 40 32
  stencil order = 5
  estimated absolute RMS force accuracy = 0.0042722865
  estimated relative force accuracy = 1.2865864e-05
  using double precision FFTW3
  3d grid and FFT values/proc = 5168 640
Last active /omp style is kspace_style pppm/tip4p/omp
Neighbor list info ...
  update every 1 steps, delay 7 steps, check yes
  max neighbors/atom: 2000, page size: 100000
  master list distance cutoff = 10.8154
  ghost atom cutoff = 10.8154
  binsize = 5.4077, bins = 7 5 4
  1 neighbor lists, perpetual/occasional/extra = 1 0 0
  (1) pair lj/cut/tip4p/long/omp, perpetual
      attributes: half, newton on, omp
      pair build: half/bin/newton/tri/omp
      stencil: half/bin/3d/tri
      bin: standard
Per MPI rank memory allocation (min/avg/max) = 9.445 | 9.450 | 9.455 Mbytes
Step Temp PotEng TotEng E_pair E_mol Press Lx Ly Lz Volume Pxx Pyy Pzz Pxy Pxz Pyz Enthalpy 
14250000    129.29267   -6684.8179   -6352.2204   -6684.8179            0    4290.2981    23.128213    21.410854    21.598583    10695.506    4738.6581    3855.2442     4276.992   -484.55374   -107.12686   -297.57357   -5683.0069 
14251000    127.29239   -6699.0069   -6371.5549   -6699.0069            0    5699.0504    23.094615    21.353377    21.580819    10642.538    5713.8461    5777.7238    5605.5812    274.47425    727.00399   -51.711688   -5487.0025 
14252000    132.37746   -6710.0004   -6369.4674   -6710.0004            0    4603.2212    23.074352    21.549932    21.468036    10674.996    5854.3804    4088.7466    3866.5368   -747.22067     26.20771   -974.86422   -5652.8201 
14253000    124.09795   -6695.9265   -6376.6921   -6695.9265            0    5252.3587    23.093682    21.392314    21.544274     10643.46    6023.0749    4404.5324    5329.4687    817.58174    137.96646     259.6449   -5561.4003 
14254000    119.50665   -6694.9895   -6387.5659   -6694.9895            0    6243.9714    23.095278     21.37792    21.477704    10604.165    6440.7365    5042.9694    7248.2082    384.52088   -45.975855    244.18503   -5421.9303 
14255000     123.8898   -6691.5012   -6372.8023   -6691.5012            0     5384.316    23.104357    21.342901    21.592136    10647.384    5662.8424    4392.3805    6097.7251   -122.21895    194.72629    630.41594   -5536.7193 
14256000    123.77036   -6683.2321   -6364.8404   -6683.2321            0    4096.3049    23.185557    21.432999    21.497648    10682.956    3555.9552    3284.3559    5448.6034   -285.68469    571.34651    986.56511   -5726.6363 
14257000    124.44172   -6698.5121   -6378.3934   -6698.5121            0    5797.4828    23.081237    21.288734    21.637928    10632.236    6906.7936    5045.2146    5440.4401    276.62551   -730.16496    794.65481   -5479.4342 
14258000    127.33479   -6694.5126   -6366.9516   -6694.5126            0      5675.77    23.170342     21.32701    21.480646     10614.75    5436.2388    5701.2141    5889.8571   -401.28079   -335.99954   -214.60046   -5488.3127 
14259000    132.55561   -6693.9983    -6353.007   -6693.9983            0    5664.5175    23.175637      21.2466    21.605592    10638.669    6184.3996    5795.4119     5013.741    10.848901   -811.67169   -476.49881   -5474.1341 
14260000    126.34915   -6689.9606   -6364.9351   -6689.9606            0    5207.4591     23.33454    21.242303    21.487538    10650.929    4817.1801     5628.618    5176.5791    506.99697     67.47976   -68.593738   -5556.0455 
14261000    121.99822    -6687.271    -6373.438    -6687.271            0    5798.4816    23.158037    21.191476    21.692764    10645.789    5936.3785    6691.5182     4767.548    608.02657   -311.38684   -103.26498   -5473.1779 
14262000     126.6417   -6677.8455   -6352.0674   -6677.8455            0    4355.1511    23.383261    21.282394    21.466144    10682.665    3476.5777    5018.5337     4570.342   -483.73672    1030.2975   -737.22224   -5673.5536 
14263000    121.93234   -6670.4621   -6356.7985   -6670.4621            0    6094.7096    23.187071    21.149152    21.699737    10641.266    6197.4531    7360.5743    4726.1013   -679.65136    277.66679    51.013438   -5410.9487 
14264000    120.21243   -6697.4971    -6388.258   -6697.4971            0    5566.9618    23.379813    21.168664    21.460725     10621.33    4992.8895    5260.2941    6447.7019    645.46669    19.620091    454.99451   -5525.9289 
14265000    127.60559   -6696.2896    -6368.032   -6696.2896            0    5323.4356     23.20087    21.160933    21.702306    10654.792    5632.5895    5530.6621    4807.0553   -1854.0544    244.79643    471.44717   -5540.8276 
14266000     128.3687   -6703.2395   -6373.0189   -6703.2395            0     5639.123     23.32668    21.236699    21.449647    10625.762    5052.3663    5945.0864    5919.9162   -729.09254     199.7063   -291.15272   -5499.1474 
14267000     126.2024   -6695.5101   -6370.8622   -6695.5101            0    5675.9937    23.206367    21.194574    21.633036    10640.188    5797.6424    6120.0299    5110.3088   -628.79098   -49.079485   -412.11078   -5490.0828 
14268000    122.12113   -6701.3046   -6387.1554   -6701.3046            0    5211.1574    23.320712    21.187695    21.523888    10635.214    5518.7453    4814.6283    5300.0987    450.69624   -1207.5579    682.67252   -5578.8857 
14269000    126.97102    -6702.605   -6375.9798    -6702.605            0    5145.2706    23.308765    21.151418    21.606616    10652.352    4424.1143     6271.735    4739.9625    381.09805   -699.24335   -491.79907   -5576.6434 
14270000      120.789   -6691.8163    -6381.094   -6691.8163            0     5343.783    23.299053    21.235538    21.535042    10654.848    3943.7228    6462.4343     5625.192    268.86884   -310.24301   -223.57014   -5550.7234 
14271000    121.91279   -6702.2308   -6388.6176   -6702.2308            0    5353.2756    23.368959    21.133658    21.526567    10631.359     4725.501    5664.3921    5669.9336   -242.91445   -251.92338   -316.02308   -5558.6057 
14272000    127.92189   -6694.3574   -6365.2862   -6694.3574            0    6687.4311    23.196382    21.113563    21.622099    10589.602    6760.1421    7580.0551    5722.0962   -314.75144   -212.16813    540.25999   -5332.4895 
14273000    127.47575   -6713.2598   -6385.3362   -6713.2598            0    5092.3928    23.301921    21.232212    21.546646    10660.232    4207.9815    5500.8256    5568.3712    116.99215   -66.821003    70.153833   -5593.6293 
14274000    132.03795   -6675.0361   -6335.3765   -6675.0361            0    5882.2615    23.225058    21.239914    21.570742    10640.809    6272.0623    5919.9898    5454.7322   -484.90795    318.88979   -644.50841    -5422.536 
14275000    131.11028   -6691.9347   -6354.6615   -6691.9347            0    5891.7216    23.217813    21.286863    21.532401    10642.053    6022.0495    5623.0649    6030.0505    262.01328   -709.03233    566.11167   -5440.2461 
14276000    128.86497    -6684.815   -6353.3177    -6684.815            0    6709.9873    23.140051    21.198617    21.667109    10628.521    6879.5388    6900.2956    6350.1275    47.441948   -1268.5845   -639.89105    -5313.229 
14277000    130.90909   -6700.5227    -6363.767   -6700.5227            0     5025.632    23.249169    21.342656     21.48412      10660.4    4637.9287    4584.4271    5854.5402   -500.40471   -44.427003      57.3228    -5582.427 
14278000    116.83729   -6689.8709   -6389.3141   -6689.8709            0    5239.9033    23.170568    21.288668    21.604085    10656.659     5170.823     4792.565    5756.3219    279.81664    91.674332   -126.05834    -5574.947 
14279000    128.67315   -6710.2923   -6379.2884   -6710.2923            0    6783.0053    23.112253    21.275053    21.518627    10581.019    7180.7663    6433.9244    6734.3253   -790.20974    719.03533    678.52903   -5332.5804 
14280000      128.433   -6684.5309   -6354.1448   -6684.5309            0    5662.8024    23.143951    21.292939    21.624547    10656.636    5709.2401    5684.7808    5594.3864   -577.36309    1106.3324   -445.34309   -5474.0541 
14281000    128.09458   -6689.3424   -6359.8269   -6689.3424            0    4855.6382    23.215952    21.390717    21.494481    10674.285    4490.3956    4072.4816    6004.0376   -277.84006    373.12999    620.04962   -5603.9327 
14282000    125.70314   -6686.8378   -6363.4741   -6686.8378            0    5873.5498    23.075869    21.319849    21.622307    10637.614    6733.4901    4696.4153    6190.7441   -1384.7839    531.59021    7.2317836   -5452.2593 
14283000    125.21996   -6690.8762   -6368.7555   -6690.8762            0     5194.593    23.262009    21.307738    21.449558    10631.705    5337.7143    3983.4004    6262.6643   -332.08046    637.28561    269.39048   -5563.3208 
14284000     123.1325   -6694.5734   -6377.8226   -6694.5734            0    6705.2897    23.127948    21.296799    21.508483     10594.03    7050.2696    6128.8425    6936.7569   -659.87433    -118.3899    84.758707   -5341.8348 
14285000    120.82691   -6696.7386   -6385.9187   -6696.7386            0    5713.2865    23.246009    21.334665     21.47953    10652.683     4667.527     5228.306    7244.0266    916.26126    50.308287    179.73899   -5498.3114 
14286000    120.62212   -6690.4552   -6380.1622   -6690.4552            0    5673.3144    23.119747    21.299157     21.60341    10638.191     5420.642    5958.1302    5641.1708    1255.4649    662.73424    528.73927   -5499.9639 
14287000    123.80406   -6685.2005   -6366.7221   -6685.2005            0    6097.0487     23.14203    21.299117    21.534174    10614.297    5680.0573    6627.6218     5983.467    165.39559    521.58809    490.19871   -5422.9073 
14288000    126.14834   -6701.3703   -6376.8614   -6701.3703            0    4859.0084    23.227175    21.350631    21.544129    10684.054    4746.0543     5479.705    4351.2661   -778.62485    308.86685   -1210.6447   -5619.7502 
14289000    129.55115   -6702.9547   -6369.6923   -6702.9547            0    5771.6685    23.204517    21.284568    21.556013    10646.474    5488.9103    6144.6091    5681.4862   -604.00914    -91.74858    -597.2606   -5473.5374 
14290000    125.41095   -6700.7109   -6378.0989   -6700.7109            0    5388.8941    23.188556    21.194655    21.622811    10627.037    5483.7344    5198.0567    5484.8912    403.94838   -530.88471    407.18976   -5542.9041 
14291000    126.17405    -6705.034   -6380.4589    -6705.034            0    5467.9083    23.189045    21.248659    21.553598    10620.236    5467.0986    5083.8056    5852.8206   -147.36329    258.10053    325.79685   -5533.5606 
14292000    122.27595   -6690.6426   -6376.0952   -6690.6426            0    5480.4761    23.179795    21.344976    21.536178    10655.501    5296.1516    5357.7501    5787.5265    537.76365   -417.42213   -942.75817   -5524.4317 
14293000      125.671   -6688.0281   -6364.7471   -6688.0281            0    6091.4166    23.138673    21.302801    21.550194     10622.49    6029.4039    6360.5761    5884.2697   -64.943901   -531.97067    55.577008   -5421.0763 
14294000    121.30415   -6678.9241   -6366.8765   -6678.9241            0    4788.6446    23.268756    21.312957    21.529771    10677.173    4192.6795    4912.9258    5260.3284   -541.63586    1151.7479    167.94314   -5621.2098 
14295000    117.98026   -6710.1687   -6406.6716   -6710.1687            0     4793.305    23.185758    21.326434     21.59353    10677.342    4444.1386    3973.2883    5962.4882   -648.12355    334.45259   -217.93026   -5660.2673 
14296000    126.31292   -6689.3947   -6364.4624   -6689.3947            0    5796.9201    23.274871    21.281033    21.432716    10615.909    6352.9481    5541.6133    5496.1989   -766.67034   -340.23238   -610.80928   -5466.9707 
14297000    126.97472   -6707.7214   -6381.0866   -6707.7214            0    6449.5164    23.201537    21.236115    21.517147    10601.725    6879.9515    5480.9738    6987.6238    -246.6454   -334.20334    301.36459   -5383.8929 
14298000    126.46873   -6684.2484   -6358.9153   -6684.2484            0    5918.3132    23.237665    21.197504    21.565345    10622.668    4490.2979    6860.8678     6403.774   -891.05525    1043.8376    273.64445    -5442.046 
14299000    127.13174    -6690.716   -6363.6774    -6690.716            0    5220.8877    23.233158    21.254472    21.590804    10661.723    5005.0271    5573.2765    5084.3594   -523.09746   -280.72582    702.47261     -5551.88 
14300000    125.01173   -6693.7665   -6372.1815   -6693.7665            0    5596.2703    23.252747    21.202798    21.598077    10648.355    4313.8411    7056.5072    5418.4627    676.74281   -80.250646   -464.10331   -5503.1068 
14301000    127.57388   -6689.9563   -6361.7802   -6689.9563            0     4496.387    23.290829    21.256173    21.591526    10689.401    4737.2035    5032.4668    3719.4907    13.596006    223.52524    -1094.321   -5660.8207 
14302000    119.91576   -6690.8476   -6382.3716   -6690.8476            0    5960.8043     23.18501    21.268618    21.526572    10615.035    7023.0948    5521.9921     5337.326   -1000.4437   -620.21711     158.8366   -5459.5831 
14303000    126.30055   -6708.1081   -6383.2076   -6708.1081            0     6318.795    23.254444    21.241336    21.452505    10596.582    5283.9789     6536.377    7136.0291    1003.1805    338.88505   -150.79968   -5406.6993 
14304000    126.02513   -6687.8293   -6363.6373   -6687.8293            0    5193.6474    23.169064    21.314989     21.61777      10675.9    4867.4549    6030.5288    4682.9586   -726.95813   -144.60283    82.770311   -5555.0017 
14305000    123.32083   -6680.2919   -6363.0566   -6680.2919            0    6141.3019    23.221872    21.222057    21.508001    10599.484    6095.4737    6197.4136    6131.0184   -683.10143    1062.4143   -531.67218   -5413.7181 
14306000    125.23909   -6681.1642   -6358.9943   -6681.1642            0    5175.6218    23.292462    21.272477    21.525489    10665.629    4887.9793    4434.8859    6204.0002    127.65397   -980.96238   -11.589606   -5553.9405 
14307000    126.73354   -6697.1984    -6371.184   -6697.1984            0    5676.4176    23.211459    21.284034    21.555179     10648.98    6262.9022    4793.1594    5973.1911    107.75699   -764.15249    1199.0836   -5489.6111 
14308000     125.9196   -6699.0344   -6375.1139   -6699.0344            0    5186.8292    23.306439    21.167966    21.550361    10631.869    4564.3106    6484.9049    4511.2722   -395.43476    523.21082   -187.42465   -5570.8707 
14309000        126.1   -6694.0729   -6369.6884   -6694.0729            0    5681.4262    23.194713    21.240821    21.594281    10638.957    5091.8704    7545.6438    4406.7645    490.97771   -974.70961    110.87652   -5488.1681 
14310000     122.0089   -6700.3903   -6386.5298   -6700.3903            0     5749.584    23.216364    21.246446    21.532164    10621.067    6541.1515    5422.9544    5284.6461   -235.58692   -180.26728   -391.18583   -5495.9343 
14311000    121.04879   -6688.0868   -6376.6962   -6688.0868            0    5541.7254    23.218988    21.304127      21.5102    10640.241    5021.6824    6150.9217    5452.5721   -451.14559   -386.55496     41.72661   -5516.7479 
14312000    126.61322   -6690.0125   -6364.3077   -6690.0125            0    5725.6252    23.171886    21.283521    21.575612    10640.646    4827.1198    6292.7717    6056.9842   -662.10669     536.6181    328.84523   -5475.7885 
14313000    131.84415   -6687.9965   -6348.8354   -6687.9965            0    5887.5646    23.211749     21.29682    21.504004    10630.213     5520.294    6027.4637    6114.9361    189.38474    456.67315   -633.66807   -5436.0819 
14314000    122.80121   -6698.8393   -6382.9407   -6698.8393            0    4809.9062    23.201156    21.342045    21.568004    10679.615    5066.4681    4836.3798    4526.8706   -534.19037   -896.38457    -553.0502   -5633.7918 
14315000    116.24139   -6692.1215   -6393.0976   -6692.1215            0    6272.3277    23.198553     21.19202    21.576557    10607.558    5966.8079    6891.0879    5959.0874    603.81084    161.00373    460.19946   -5422.7663 
14316000    125.18039   -6679.0267   -6357.0078   -6679.0267            0    4978.3598     23.26631    21.249894    21.553796     10656.34    4733.4603    5004.2543    5197.3649    290.10853   -55.152096    -589.4599    -5583.312 
14317000    123.21961     -6713.56    -6396.585     -6713.56            0    5282.2851    23.263377    21.283344     21.55476    10672.246    5165.8084    4840.3467    5840.7003    113.92173   -230.28946   -693.17864   -5574.4303 
14318000    125.95424   -6710.2273   -6386.2177   -6710.2273            0    4980.0186    23.252922    21.269349    21.538805    10652.544    4172.9074    5770.5551    4996.5934    267.54308    457.29401    233.66643   -5612.5397 
14319000    119.27007   -6705.3289   -6398.5139   -6705.3289            0    5306.5228    23.180826    21.297976    21.578307    10653.311    4858.3313    5405.2808    5655.9564   -705.74294   -22.128541    960.22972   -5574.0521 
14320000    125.95628   -6704.3027   -6380.2878   -6704.3027            0    4758.1408    23.247196    21.419294    21.440589    10676.095    4825.6409    3917.7741    5531.0074    495.28788   -793.92677    119.99248   -5639.4458 
14321000    127.19265   -6696.8259   -6369.6305   -6696.8259            0    5470.9898    23.122392    21.281619    21.616958    10637.314    6170.2533    5262.6019    4980.1142   -1207.7967    469.37195   -283.12409   -5520.8923 
14322000     128.2549   -6672.0718   -6342.1438   -6672.0718            0    6197.7041    23.156929    21.284648    21.562328    10627.793    5957.4216    6898.9126    5736.7781   -380.42642     1084.391   -210.53634   -5381.5278 
14323000    123.19135   -6700.6587   -6383.7565   -6700.6587            0    5716.9422    23.153642    21.386036    21.461271    10626.862    6476.3311    5296.9711    5377.5244   -434.08869   -769.26153   -1320.3065    -5497.734 
14324000    128.33046   -6704.1229   -6374.0006   -6704.1229            0    5479.0399     23.24922    21.236276    21.541952     10635.84    4725.6124    7206.3424    4505.1647     530.0708    132.00864   -755.49143   -5524.1313 
14325000    123.83776   -6690.2343   -6371.6692   -6690.2343            0    5132.2159     23.18983     21.31179    21.546454    10648.619    4733.1139    4691.9881    5971.5457    39.935345   -865.45329    1173.8452   -5574.6402 
14326000    119.80073    -6685.926    -6377.746    -6685.926            0    5373.0747    23.179434    21.297981    21.586696    10656.815    5978.5304    4312.1083    5828.5855   -235.62244   -37.320019     355.8807   -5542.6696 
14327000    125.18093   -6704.3482   -6382.3279   -6704.3482            0     6069.824     23.23695    21.331963    21.412413    10613.913    5640.0121     5897.512     6671.948   -233.23863   -393.36188     355.4266   -5442.7614 
14328000    127.53741   -6683.6318   -6355.5496   -6683.6318            0    5183.5285    23.271064     21.20943    21.599566    10660.812    4920.6776    5592.4036    5037.5042   -389.16175    1217.8968     -26.4449   -5549.6301 
14329000    120.19612    -6692.094   -6382.8968    -6692.094            0    5677.7058    23.159815    21.254736    21.593609    10629.578     5660.848    6481.4313    4890.8383    -836.5782   -166.48023    269.26777   -5502.7304 
14330000    128.56914   -6682.5164   -6351.7802   -6682.5164            0    6532.5973    23.170953    21.244356    21.540009    10603.112    6212.7234    7262.2973    6122.7712   -50.533395     760.9347   -485.86763   -5341.6086 
14331000    120.91659   -6692.5855   -6381.5349   -6692.5855            0    5664.0684    23.222614    21.265074    21.505004    10619.829    5022.6528    6425.4411    5544.1114    206.01931    371.69629     297.7666   -5504.2879 
14332000    123.28391    -6696.683   -6379.5426    -6696.683            0    5651.7632    23.181558    21.272573    21.561809    10632.805    5106.2317    6052.0217    5797.0361   -952.83445   -193.50614    616.33471   -5503.1319 
14333000    124.91299   -6696.2986   -6374.9675   -6696.2986            0    5871.5675    23.197547    21.267378    21.539561    10626.564    5907.1141    5465.6215     6241.967    -374.9825    706.21582   -274.93266   -5465.0064 
14334000    131.85792   -6686.5509   -6347.3545   -6686.5509            0     5140.372    23.132891    21.418556    21.511629    10658.434    5255.6826    5510.8732    4654.5603    129.15306   -813.04406    17.118536   -5548.3231 
14335000     123.8813   -6700.0333   -6381.3562   -6700.0333            0    4859.3369    23.226795    21.314965    21.568716    10678.204    4675.1342    4652.5605    5250.3159     684.8795   -507.96889    82.307748   -5624.6085 
14336000     122.2476   -6692.4779   -6378.0034   -6692.4779            0     6333.323    23.215702    21.282966     21.47759    10612.056    6585.7575    6390.8754    6023.3362   -788.79816    293.52814    148.71283   -5397.8207 
14337000    120.66944   -6701.0045   -6390.5897   -6701.0045            0    4493.0164    23.113049    21.310591    21.685786    10681.393     5398.735    4319.4944    3760.8197    349.59244   -864.55762   -255.28133   -5690.6803 
14338000    124.86176    -6693.512   -6372.3127    -6693.512            0    4679.0957    23.276326    21.334809     21.48035    10667.055    4157.8474    4444.6332    5434.8064      378.652    96.749774    576.34072   -5644.3949 
14339000    123.51545   -6717.0323   -6399.2964   -6717.0323            0    6081.9136    23.076242    21.298539    21.608241     10620.24    7218.5241    5549.7874    5477.4292    -571.3527   -242.08989    260.79007   -5457.2973 
14340000    118.36655   -6682.6436   -6378.1529   -6682.6436            0    6503.9934    23.149042    21.307279    21.509193    10609.261    6129.2724    6578.0434    6804.6645    486.38115   -320.28699   -568.12428   -5371.8213 
14341000    124.81321   -6709.0102   -6387.9358   -6709.0102            0    5487.5082    23.059246    21.361456    21.591488    10635.515    5886.8967    5521.3735    5054.2543   -583.05792    497.57576    198.28972   -5536.7789 
14342000    127.79846   -6701.4672   -6372.7134   -6701.4672            0    5699.6024    23.158836    21.333633    21.521203    10632.811    5785.4645     5857.356    5455.9868    905.29006   -792.54222    402.33319   -5488.8838 
14343000    127.18901   -6702.7319   -6375.5459   -6702.7319            0    5453.3037    23.158021    21.390161     21.48507    10642.711    5813.8691    4597.8385    5948.2033   -528.93775   -441.16492    -645.9356   -5529.1222 
14344000    126.55573   -6690.7436   -6365.1867   -6690.7436            0     7051.912    23.061376    21.357793      21.4943    10586.805    7678.8928    6788.2164    6688.6269     803.8883    -313.1128   -54.378927   -5276.3878 
14345000    119.75828   -6704.7183   -6396.6474   -6704.7183            0    4854.5089    23.168737    21.345058    21.563872    10664.155    4630.2408    4873.2162    5060.0698    855.41187    1497.0724    135.57512   -5641.6462 
14346000     130.4388   -6693.0694   -6357.5235   -6693.0694            0    5860.3757    23.041763    21.376858    21.583411    10631.135    6380.5063    6134.2445    5066.3762    11.739507   -141.10054   -549.36722   -5448.9062 
14347000    126.21218   -6705.0649   -6380.3917   -6705.0649            0    5370.4111    23.213233    21.313841    21.548007     10661.16    5420.1401    5771.8307    4919.2624    55.289914    164.14231   -1317.8571   -5545.3891 
14348000    123.14455   -6709.0835   -6392.3016   -6709.0835            0    5309.1013    23.133323     21.32583    21.577898    10645.182    5193.2701    5523.8919    5210.1421   -68.202915    322.50284    625.17917   -5568.0686 
14349000    122.46508   -6683.8954   -6368.8615   -6683.8954            0    5273.4975    23.207606    21.273702    21.529226    10629.231    5131.2592    5276.1695    5413.0639     997.4539    760.34943   -486.82372   -5551.3827 
14350000    124.18513   -6703.9814   -6384.5227   -6703.9814            0    5588.9215    23.114188    21.333399    21.579248    10640.818    5417.9027    5595.7148     5753.147   -941.22824   -386.54073    -663.2352   -5517.2036 
14351000    122.78798   -6701.9912   -6386.1266   -6701.9912            0    6591.4647    23.186055    21.262866    21.457268    10578.476    6863.6469    6420.9355    6489.8117    401.67995   -95.852456   -484.48534   -5369.2204 
14352000    123.13807   -6695.9195   -6379.1543   -6695.9195            0    5328.7307    23.187674    21.275824    21.585069     10648.71    5084.0833    6010.2756    4891.8333    122.62815   -194.32998    406.68118   -5551.5997 
14353000    128.38682   -6693.0303    -6362.763   -6693.0303            0     5455.963    23.156995    21.308464    21.571296     10644.14    5998.0141    5328.4357    5041.4392   -334.42172    386.93961   -266.75775   -5515.8127 
14354000    127.14196   -6696.2931   -6369.2281   -6696.2931            0    6506.5856    23.206231    21.294687    21.459366    10604.562    5844.0856     6158.618    7517.0531    879.35778    789.04588   -33.135978   -5362.9413 
14355000    126.58874   -6691.9592   -6366.3174   -6691.9592            0    5047.4434    23.074918     21.38374    21.628144    10671.933    5994.3427    5095.7063    4052.2812   -1905.9543    -442.5161    44.873506   -5580.7374 
14356000    119.71353   -6689.7511   -6381.7954   -6689.7511            0    5560.8287    23.203706    21.333392    21.469991     10627.94    5785.0485    4520.5139    6376.9238    345.21727    318.42278    299.29929   -5519.8802 
14357000    121.84774   -6692.1504   -6378.7046   -6692.1504            0    5913.6563    23.078944    21.291869    21.618213    10623.057    6158.1855     6565.002    5017.7815   -109.37381    -423.1241   -388.34987   -5462.5232 
14358000    122.51449   -6692.7553   -6377.5942   -6692.7553            0    5572.4432     23.28954    21.314833    21.417925    10632.129    4674.5916    6087.3736    5955.3644    362.47398    555.50495    38.995211   -5513.5384 
14359000    121.69274   -6692.9031   -6379.8559   -6692.9031            0    6155.3913    23.097999      21.2547    21.606815    10607.672    6108.0289    6565.8784    5792.2666    435.40866    762.65166    142.49515   -5427.6045 
14360000    123.51313    -6698.929    -6381.199    -6698.929            0    6522.9092    23.161841    21.327991     21.47654    10609.315    6376.0162     6891.812    6300.8995    700.52344   -142.50787   -393.23607   -5371.9355 
14361000    125.78375   -6697.6118   -6374.0407   -6697.6118            0    5159.0849    23.158217    21.364722    21.557434    10665.947    4811.6811    4980.8538    5684.7197    13.863957     329.8333    -50.33271   -5571.5353 
14362000     122.5965   -6686.1895   -6370.8175   -6686.1895            0     5244.635    23.118663    21.370827    21.564226    10654.128    5014.1033    5294.4107     5425.391    241.15349   -340.11709    267.39602   -5555.9086 
14363000    125.20759   -6694.6227   -6372.5339   -6694.6227            0    4471.2021    23.170208     21.33453    21.576588    10665.858    4573.6738     4386.402    4453.5305    459.59252    313.75828   -230.53494   -5677.0357 
14364000    127.82225   -6692.0127   -6363.1978   -6692.0127            0    6720.6347    23.067442    21.368356    21.476636     10586.12     6437.821    7221.3743    6502.7087   -401.05346   -186.10013   -8.1476081   -5325.6144 
14365000    124.86682    -6688.304   -6367.0917    -6688.304            0    6339.5775    23.148296    21.285479    21.566012    10626.061    6844.0898    6103.6743    6070.9685    786.96867    76.448733   -61.135174   -5384.6461 
14366000    117.92872    -6697.632   -6394.2676    -6697.632            0    4840.4447    23.154214    21.410405    21.491245    10654.094     4361.434    4684.7484    5475.1518    541.82503   -153.53156    187.79709   -5642.1639 
14367000    120.91889   -6718.9265   -6407.8701   -6718.9265            0     5780.649    23.103721    21.326996    21.553962    10620.348    5317.1332    5833.6862    6191.1275    432.47685   -53.676771   -56.590332   -5512.5234 
14368000    121.17646   -6702.9527   -6391.2337   -6702.9527            0    5485.8078    23.174351    21.361518    21.488224    10637.516     4560.848      6175.92    5720.6553   -16.266126   -317.23623   -733.62351   -5540.1805 
14369000    125.71897    -6703.871   -6380.4666    -6703.871            0    5599.4162    23.058979     21.44493    21.505897    10634.627    5500.5708    4858.8938    6438.7838   -488.17851    233.01085    379.38083   -5512.0244 
14370000    122.78101   -6692.3015   -6376.4548   -6692.3015            0    5716.0417    23.134059    21.292823    21.561893     10621.16    6447.2633    5360.6875    5340.1743    218.98411   -73.677459   -105.27781   -5491.0472 
14371000    124.76077   -6699.2383   -6378.2988   -6699.2383            0    5928.4528    23.132075    21.345035    21.503068    10617.246    6033.9918    6649.4527    5101.9139   -729.17304    357.06515   -878.41599   -5460.3274 
14372000    128.40444   -6681.4469   -6351.1343   -6681.4469            0    5919.8264    23.163117    21.335349    21.491042    10620.727    5355.7175    5495.1385    6908.6232    125.93841    301.66271   -505.24709   -5434.1982 
14373000    121.23981   -6692.0457   -6380.1637   -6692.0457            0    4990.6901    23.051356    21.409291    21.584701    10652.335    6198.2451    4136.9558    4636.8693    408.20782   -59.896252    675.33344   -5604.8431 
14374000    124.63116   -6692.0385   -6371.4324   -6692.0385            0    5839.1899    23.100995    21.372917      21.5221    10626.228    6424.0625    5512.5872      5580.92   -53.765951   -310.50439    186.39978   -5466.5178 
14375000    128.42273   -6690.9357    -6360.576   -6690.9357            0    6097.7393    23.006356    21.427298    21.561075    10628.835    7875.9901     5048.397    5368.8307   -1207.2715    617.11816   -659.42524   -5415.3615 
14376000    128.09122   -6704.6425   -6375.1357   -6704.6425            0     5193.459    23.064394    21.504846    21.460309    10644.233    4947.4349    4676.3301    5956.6119    926.63147    214.69015    -230.0262    -5568.928 
14377000    125.84315   -6699.6707   -6375.9469   -6699.6707            0    5607.3514     23.05752    21.380554    21.561185    10629.288    5798.4407    5150.6142    5872.9994   -500.25916    854.42528    430.20652   -5506.7106 
14378000    125.35123   -6694.9179   -6372.4595   -6694.9179            0    5978.2844    23.093787    21.370418    21.512686    10617.024    5977.6567    6214.4054     5742.791   -138.93961     198.7932   -458.96642   -5446.7915 
14379000    129.69198   -6690.2291   -6356.6044   -6690.2291            0    5207.0364    23.005396    21.502349    21.530031    10650.261    5970.3187    4351.8912    5298.8994   -50.872604    369.70555    158.56599   -5547.8312 
14380000    121.01069   -6710.1572   -6398.8646   -6710.1572            0    4902.9826    23.036223    21.500027    21.492431    10644.759    6046.4623    4221.9715    4440.5141   -433.81722    704.69894   -508.10435   -5637.7114 
14381000    121.32584   -6708.0456   -6395.9423   -6708.0456            0    4617.5466    23.067905    21.469506    21.551654    10673.597    5128.0009    3778.6842    4945.9548    60.902455    38.478895    20.798323    -5677.159 
14382000    126.94944   -6686.4671   -6359.8974   -6686.4671            0    5221.9988    23.107501    21.412397    21.554179    10664.727    4551.8678    5087.7249    6026.4039      212.214    665.90683   -562.86659   -5547.6985 
14383000    125.72621   -6689.4432   -6366.0201   -6689.4432            0    5809.9244    23.013514    21.421796    21.546564    10622.258     6562.732    5075.8473     5791.194    389.15718   -510.12622    712.69904   -5465.9772 
14384000    119.58265   -6696.6373   -6389.0183   -6696.6373            0    6043.5032    23.077699    21.417534    21.452642    10603.342    6382.6459    5822.1964    5925.6675   -196.45868    51.439841   -109.75602   -5454.4578 
14385000    117.56149   -6694.4525   -6392.0327   -6694.4525            0    5601.0174    23.126155    21.347829    21.535047    10631.706    5872.3189    5319.7539    5610.9793    758.51209   -329.66594   -996.26445   -5523.5809 
14386000    123.81994   -6683.3508   -6364.8316   -6683.3508            0    4998.0412    23.105678    21.406088    21.554849    10661.075    5525.0604    4571.7819    4897.2813     -734.387   -587.45991    157.35785   -5587.7319 
14387000    125.20892   -6702.9774   -6380.8851   -6702.9774            0    5113.4111    23.138342    21.361952    21.545096    10649.313    5015.1144    4249.5635    6075.5553   -201.27347     517.2419    730.49137   -5586.7248 
14388000    124.13496   -6709.5225   -6390.1928   -6709.5225            0    4632.7265    23.047554    21.421098    21.575389    10651.854    5172.6894     4275.954    4449.5361    33.225058     -271.608   -356.71957   -5670.5156 
14389000    123.49907   -6699.1761   -6381.4823   -6699.1761            0    5614.8686    23.030702    21.407435    21.555257     10627.35    6291.2325    5384.1286    5169.2447    618.65665     282.7862   -1307.9617   -5511.2394 
14390000    119.34066   -6687.5208   -6380.5243   -6687.5208            0    4452.7347     23.15815    21.448781    21.521684    10690.123    4805.8681    4030.2895    4522.0464   -508.59116    290.17647    75.356853   -5686.3229 
14391000     122.4018   -6697.1022    -6382.231   -6697.1022            0     6412.426    23.093961     21.28991    21.559939     10600.34    7469.8643     5208.699    6558.7148    95.778115   -268.91713    1202.4705   -5390.9015 
14392000    124.35004   -6689.2598   -6369.3769   -6689.2598            0    6281.1804    23.110428    21.312413    21.515011    10596.982    5926.7286    6623.3821    6293.4307    106.65064    610.52077   -1128.3957   -5398.6449 
14393000    126.54519   -6702.2768    -6376.747   -6702.2768            0    4032.9512    23.214578    21.417714    21.530857    10705.211    4005.1418    4213.2367    3880.4752    -288.7874   -592.32147   -958.25742   -5747.1045 
14394000    121.77597   -6696.6296   -6383.3683   -6696.6296            0    4998.7176    23.180092    21.312836    21.578351    10660.429    4777.3754    5070.3388    5148.4387   -962.97424    721.05692   -41.329002   -5606.2106 
14395000    127.91139   -6687.2048   -6358.1606   -6687.2048            0    6358.7844    23.122712    21.292215    21.553832    10611.679    6003.7252    6704.3153    6368.3126    409.86297     890.3571     393.1956   -5374.0722 
14396000    127.19544   -6709.2033   -6382.0008   -6709.2033            0    4796.6148     23.20364    21.340361     21.52045    10656.369    4838.4453    4837.1891      4714.21    22.743775    404.78715   -560.14456   -5636.5482 
14397000    125.31489   -6712.8609    -6390.496   -6712.8609            0    5065.4816     23.21322    21.299039    21.542895    10651.223    5704.2975    5229.5494    4262.5977    67.175056   -412.96203   -770.48377   -5603.6385 
14398000    123.53053   -6706.7308   -6388.9561   -6706.7308            0    5661.1218      23.2382    21.250432    21.481113    10607.842    5394.5755    5406.4086    6182.3815    319.36683    309.40948    401.09714   -5513.1551 
14399000    124.55436   -6680.5409   -6360.1324   -6680.5409            0    5674.7407    23.260525    21.196383    21.616696    10657.874    5073.8603    5868.5416    6081.8203     369.4508    923.51945    676.19633   -5478.0838 
14400000     121.8524   -6695.2981   -6381.8402   -6695.2981            0    5557.3916    23.243018    21.261049    21.547471    10648.134    5329.1362    6159.9674    5183.0712   -1186.1485    624.61934    477.53038   -5518.8211 
14401000    128.99803   -6691.9944   -6360.1548   -6691.9944            0    5691.6775    23.296344    21.171334    21.572421    10639.835    5886.8644    6263.9378    4924.2303   -162.68132   -333.17302   -1706.5482   -5476.9711 
14402000    121.98996   -6704.6302   -6390.8185   -6704.6302            0     5030.813    23.232705    21.282693    21.518044    10639.695    4562.7731    5768.8613    4760.8048   -372.97499   -367.95254    239.89494   -5610.1921 
14403000    126.31797   -6684.8247   -6359.8794   -6684.8247            0    5353.2087    23.189004    21.228507    21.628217    10646.877    5270.1717    5664.9796    5124.4747    -58.55253      520.001    510.01483   -5528.6665 
14404000    119.96664   -6683.6221   -6375.0152   -6683.6221            0    6318.1511    23.245646    21.307493    21.449287     10623.97    5821.3004    5642.6246    7490.5284   -356.02701   -114.02094   -103.15616   -5396.0828 
14405000    123.79483   -6706.8175   -6388.3629   -6706.8175            0    5176.1213    23.111824    21.260669    21.671403    10648.739    5884.8344    5158.2303    4485.2992   -883.90785   -312.59357   -170.75982   -5584.5064 
14406000    119.01199    -6707.082   -6400.9309    -6707.082            0    6081.4194    23.244187    21.241343    21.455021    10593.154    6160.4219      5368.75    6715.0864    72.673971    595.58143    105.42589   -5461.4107 
14407000    121.93804   -6701.3885   -6387.7103   -6701.3885            0    5039.3669    23.112762    21.336729    21.622647    10663.224    5203.7652    4957.6754    4956.6601   -150.68938   -307.48763    177.40822   -5604.0274 
14408000    123.77076   -6703.0548    -6384.662   -6703.0548            0    6564.8393    23.224472    21.242316    21.494051     10603.91    6899.6563    6887.2092    5907.6522   -329.66078    186.58461   -561.43276   -5369.4284 
14409000    128.72947   -6702.3174   -6371.1686   -6702.3174            0     5644.817    23.161578     21.27313    21.558898    10622.484    6221.6416    5312.2896    5400.5198    -2.240717   -75.602129   -243.47074   -5496.6847 
14410000    126.52831   -6704.6472   -6379.1609   -6704.6472            0    5944.9833    23.203439    21.236092    21.516259    10602.145     5695.156    6080.1874    6059.6065    257.42298   -107.39772    37.514004   -5459.9392 
14411000    122.80676   -6710.1633   -6394.2504   -6710.1633            0    5143.6489    23.274803    21.204112    21.581101    10650.738    4072.6541    5820.4117    5537.8808   -254.12514    902.23333   -642.32441   -5595.2869 
14412000    125.17831   -6696.7321   -6374.7185   -6696.7321            0    5894.6332    23.177254    21.306438     21.52651    10630.323    6302.5002    5277.2218    6104.1774   -634.97974    -49.52754     334.2704   -5460.8596 
14413000    124.25369   -6696.2385   -6376.6035   -6696.2385            0    5858.6523    23.176453    21.263671      21.5726    10631.332    6056.4004    6174.2353    5345.3211   -104.78966    -144.7003   -387.42594   -5468.2366 
14414000    120.66439   -6698.8423   -6388.4405   -6698.8423            0    5087.5553    23.229819    21.353908    21.486344    10658.245    4560.2011    4933.6246    5768.8403   -110.98878    124.60628    280.01956   -5597.6331 
14415000    125.92332   -6697.2661    -6373.336   -6697.2661            0    5193.5182    23.182927    21.233404    21.626736    10645.814    5077.7767    5551.9913    4950.7866    701.37629    577.89443    515.74591   -5566.9994 
14416000    133.10362    -6701.976    -6359.575    -6701.976            0    5846.8182    23.190201    21.294081      21.5067     10620.31     5748.853    5960.5725    5831.0293   -573.11253   -51.257698    112.39331   -5453.9829 
14417000    125.94408   -6706.9273   -6382.9439   -6706.9273            0    5070.2274    23.178599    21.320249    21.545619    10647.274    5234.4417    4673.4212    5302.8193    41.504108    11.484832   -426.74066   -5595.6412 
14418000    130.22145   -6698.6585   -6363.6717   -6698.6585            0    4775.0516    23.206243    21.290321    21.571717    10657.903    5343.9933    4839.3627    4141.7988    385.97406   -106.04599   -330.45892   -5621.4636 
14419000    131.76383   -6688.0308   -6349.0764   -6688.0308            0    5277.7326    23.162586    21.352292    21.541482    10653.863    5580.3618    3858.9578    6393.8783   -36.534445   -877.04755    317.34712   -5529.0452 
14420000    125.34927   -6698.5435   -6376.0901   -6698.5435            0     5671.038    23.349192    21.212314    21.466114     10631.96    4352.2949    6584.7546    6076.0644    670.60179    151.85716   -246.80573   -5496.7603 
14421000    124.05584   -6696.9194   -6377.7933   -6696.9194            0    4731.9743    23.256232    21.244188    21.550699    10647.333    3544.3755    6177.6636    4473.8837    485.83745   -139.64318    197.42039   -5643.0103 
14422000    124.99572   -6693.7003   -6372.1564   -6693.7003            0    5595.4984    23.244454    21.207464    21.590621    10643.225    5845.0031    5909.6932    5031.7991    307.30101   -133.94102   -618.08257   -5503.6203 
14423000    123.30102   -6701.9178   -6384.7334   -6701.9178            0    5968.5953    23.282854     21.20114    21.520459    10622.995    5944.6987    6499.3539    5461.7331   -1065.1467   -793.10601     70.46016   -5460.0459 
14424000    127.94753   -6718.3854   -6389.2482   -6718.3854            0    5179.2842    23.262874    21.257042    21.533038    10648.085    5111.1533    4927.7578    5498.9415   -435.35104   -1203.9538    208.16848   -5584.9499 
14425000    121.69711   -6687.6561   -6374.5978   -6687.6561            0    5499.4358    23.286154     21.22566    21.544406    10648.624    5516.7632    6100.2368    4881.3073     196.6716   -299.33893    105.65383   -5520.5395 
14426000     124.1732    -6707.104    -6387.676    -6707.104            0    5486.9826    23.241142    21.162301    21.661175    10653.747    5460.0699    6030.0441    4970.8337   -145.40032   -202.25789    306.62599   -5535.1417 
14427000    128.04616   -6682.9461   -6353.5552   -6682.9461            0    6021.1463    23.295227    21.209411    21.516861    10631.008    5824.3166    6181.2194     6057.903   -337.57051   -602.63867   -262.53639   -5420.0225 
14428000    126.52548   -6693.5347   -6368.0556   -6693.5347            0    4952.9994    23.298837    21.199366    21.603645    10670.484    4663.7357     5089.499    5105.7635   -674.86158    -282.6983    444.00697   -5597.2794 
14429000    121.93035   -6685.8456   -6372.1872   -6685.8456            0    6886.5026     23.26492    21.123696    21.569504     10600.14    6641.0733    6981.4705    7036.9639    405.25476   -484.10731    873.16411   -5307.5878 
14430000    125.64174   -6693.4828   -6370.2771   -6693.4828            0    5287.3904    23.345468    21.140803    21.555913    10638.747    4772.3939    5735.4793    5354.2981   -623.86102    43.700818   -85.608353   -5549.9109 
14431000    122.49875   -6692.8307   -6377.7101   -6692.8307            0    6202.1646    23.258808    21.115773    21.600947    10608.824    6448.3114    6922.9367    5235.2456   -442.72213    403.86363   -513.35699   -5418.1186 
14432000    125.01191   -6682.7607   -6361.1752   -6682.7607            0    6603.5116     23.31352    21.165275    21.469953     10594.07    5924.5447    7121.2027    6764.7874    15.974403    464.56424   -22.251302   -5340.9085 
14433000    123.66041   -6704.1315   -6386.0226   -6704.1315            0    4877.7287     23.31915    21.150186    21.582223    10644.447     4024.981    5714.7617    4893.4433    46.805994   -98.634517   -30.165198   -5628.8121 
14434000     125.6932   -6709.6312   -6386.2931   -6709.6312            0    4880.1794    23.394642    21.140495     21.52337    10644.906    4090.2983    5582.1329    4968.1071   -476.89808   -10.012938   -516.78177   -5628.6694 
14435000    122.18654   -6681.6989   -6367.3814   -6681.6989            0     5109.841    23.327064     21.22639     21.55585    10673.365    4364.7827    5499.8224    5464.9179    163.92309    120.93044   -482.76299   -5571.9832 
14436000    123.97732   -6686.1257   -6367.2016   -6686.1257            0    5276.6179    23.208309    21.224052    21.684295    10681.128    5214.0842    5813.6773    4802.0924    -339.7058   -357.19025    95.924889   -5545.2455 
14437000    125.52729   -6711.2878   -6388.3765   -6711.2878            0    5842.6874    23.296574    21.170919    21.509877    10608.884    5224.9981    5426.2297    6876.8345   -262.43267   -176.01983    236.08358   -5484.3978 
14438000     130.1048   -6693.4551   -6358.7684   -6693.4551            0    5731.4672    23.198716    21.261354    21.566765    10637.507      6161.67    5995.7043    5037.0273   -329.79795   -1287.4581   -871.55573    -5469.605 
14439000    119.64755   -6701.8485   -6394.0624   -6701.8485            0    5808.3512    23.300681     21.16264     21.53961    10621.266    5067.0613    6458.3577    5899.6346    452.76314    641.06546   -257.35055   -5494.3472 
14440000    131.88607   -6689.1902   -6349.9213   -6689.1902            0    4734.5821    23.250077    21.177823    21.691095    10680.391    4676.4752    5279.0821     4248.189   -809.75264    411.04681    441.77499   -5612.4507 
14441000    123.91368   -6680.2544    -6361.494   -6680.2544            0    5023.1208    23.295234    21.241609    21.581287     10679.03    4031.1621    5940.4615    5097.7387    738.66749   -504.35597   -81.913964   -5579.1796 
14442000    125.60581   -6691.3524   -6368.2391   -6691.3524            0    5115.9342    23.237875    21.259156    21.565987    10653.977    6160.3641    4870.5056    4316.9329   -45.772497   -305.21721   -268.18123   -5573.3389 
14443000    120.29842   -6694.1801   -6384.7198   -6694.1801            0    5469.1356    23.179988    21.237914    21.625445     10646.09    5394.1573    5871.9627    5141.2867   -142.10312   -95.354246    735.57418   -5535.5692 
14444000    124.52343   -6690.7416   -6370.4126   -6690.7416            0    5626.3732    23.230447    21.247058    21.519166    10621.401    5493.3057    5140.3163    6245.4977   -77.203497    264.69656     100.1736   -5498.8748 
14445000    130.27037   -6699.6252   -6364.5126   -6699.6252            0    5681.1255    23.152231    21.269823    21.553212    10613.747    6238.7147    5419.9466    5384.7151   -53.112453   -684.94971    59.388316   -5485.1277 
14446000    127.63682   -6709.1933   -6380.8554   -6709.1933            0    6355.0528    23.228003    21.218983    21.539372     10616.21    6118.4624    6037.8216    6908.8745   -64.818975    1277.2288    1215.5103   -5396.9246 
14447000     125.1679   -6696.0454   -6374.0586   -6696.0454            0      4741.25    23.242516    21.278603    21.598833    10682.097    5267.2717    4866.5453    4089.9331   -1377.9317    295.54927   -326.56204   -5635.4314 
14448000    128.28322      -6692.3   -6362.2993      -6692.3            0    6532.7595    23.169954    21.283666    21.483053    10594.186    7109.4191    6038.8197    6450.0396   -646.32753    136.66594   -1375.1577    -5352.953 
14449000    134.38749   -6712.3434   -6366.6398   -6712.3434            0    5034.3835    23.163428    21.321363    21.581138    10658.403    4475.0609    5557.1886     5070.901     66.82368     13.13711    285.84833   -5584.0858 
14450000    124.71564   -6701.5883   -6380.7649   -6701.5883            0    5818.4231    23.128458    21.296009    21.583273    10630.708    5542.3724    6081.1333    5831.7637    77.012073    748.00401     782.9748   -5478.6884 
14451000    124.91593   -6693.6641   -6372.3255   -6693.6641            0    4915.1116    23.201046    21.330815    21.558688    10669.335    5343.3778    3925.8571    5476.0999    374.48225    344.06258   -350.21576   -5607.5277 
14452000    126.14945   -6702.2455   -6377.7338   -6702.2455            0    5585.1328    23.130604    21.377082    21.512928    10637.386    4886.6142    5712.9093    6155.8748   -363.54478    -411.7755    765.79559   -5511.2821 
14453000    121.50188   -6717.7918   -6405.2356   -6717.7918            0     4945.353    23.146197    21.323502    21.577047    10649.524     5296.087     4363.698    5176.2741    224.14458    394.46717   -384.76329   -5637.1611 
14454000    121.99804   -6690.5905   -6376.7579   -6690.5905            0    6731.5071    23.069839    21.335379    21.536917    10600.552    7281.7385    5516.3514    7396.4314   -98.282924    1189.6178     518.4122   -5336.0792 
14455000    126.22833   -6708.5483   -6383.8337   -6708.5483            0    5573.6466    23.170367     21.38131    21.433142    10618.252    5840.1614    5215.7503    5665.0281   -1071.8834    230.04664   -277.35704   -5520.7193 
14456000    118.65719   -6701.5747   -6396.3363   -6701.5747            0    4413.7764    23.108235     21.36782    21.653554    10691.932    5707.8404    4191.9114    3341.5775   -927.19373    1074.9267   -317.89272   -5708.0923 
14457000    122.24745   -6701.7533   -6387.2791   -6701.7533            0     6110.354    23.114337    21.342464    21.486043    10599.428    5716.3407    6588.6583     6026.063    374.13765   -322.35071    -426.7456   -5442.7297 
14458000    124.66291   -6696.2748   -6375.5871   -6696.2748            0    5800.3166    23.108484    21.372455    21.517698    10627.269     5465.257    5479.8487    6455.8441   -66.405047    1446.7074    420.64601   -5476.6087 
14459000    125.48686   -6688.3235   -6365.5162   -6688.3235            0    5667.9886    23.084294    21.387925    21.556064    10642.771    5550.2599     6302.511     5151.195     944.8269   -512.34875   -393.95364   -5485.7656 
14460000    120.70726   -6686.9286   -6376.4165   -6686.9286            0    5922.5641    23.068431    21.370081    21.545312    10621.283    6127.3483    5894.7162    5745.6278      337.965     418.5377   -694.09516   -5459.0082 
14461000    123.62358    -6684.448   -6366.4339    -6684.448            0    4753.1139    23.109301    21.487818    21.493781    10673.133    4084.3674    5162.9691    5012.0053   -372.62684    1340.5832   -221.01203   -5626.5798 
14462000     123.9273   -6702.6026   -6383.8072   -6702.6026            0    6287.7698    23.062787    21.362126    21.541508    10612.858    7137.4816     5274.485    6451.3427    364.34553   -473.02936    601.99755    -5410.601 
14463000    121.06793   -6691.9635   -6380.5237   -6691.9635            0    5208.3676    23.115546     21.38892     21.54541    10652.407    5163.4712    4732.3806     5729.251   -112.09398    1162.8232    1203.0506   -5571.3807 
14464000    124.82715   -6693.4384   -6372.3282   -6693.4384            0    6048.3347    23.068125    21.349504    21.593883    10634.837    6175.4016    7020.9123    4948.6901    238.08918   -561.22158   -649.28673   -5434.2424 
14465000    119.62466   -6700.7805   -6393.0533   -6700.7805            0    5807.1483    23.187713      21.3591     21.44193    10619.516    6100.6666    4750.5798    6570.1985      642.901   -598.18411    -175.8434   -5493.6726 
14466000    121.69827   -6688.4237   -6375.3623   -6688.4237            0    5655.6089    23.126231    21.273579    21.595696    10624.601    6018.9851    5819.4934    5128.3481   -244.77178    540.39225   -448.56841   -5499.0319 
14467000    127.86685   -6708.0318   -6379.1022   -6708.0318            0    5893.5522    23.210928    21.295464    21.503131    10628.729    5217.3519    5805.3356     6657.969   -131.62072    737.89804    615.48411   -5465.5479 
14468000    126.69811    -6692.116   -6366.1928    -6692.116            0     5459.309     23.13691    21.323932    21.613103    10663.255    5324.1276    5540.1931    5513.6064   -311.55506    1190.4879   -751.92471   -5517.2013 
14469000     123.3954   -6693.8993   -6376.4722   -6693.8993            0    6492.1012    23.181804    21.317578    21.457746    10603.988    6321.7392    6335.0286    6819.5358    56.816907    44.311529    525.22394   -5372.4799 
14470000    119.77071   -6706.9514   -6398.8485   -6706.9514            0    4446.0482    23.121211    21.314384    21.649727    10669.296    5058.2019    4027.8226    4252.1201    275.29316     730.1477   -252.44713   -5707.0401 
14471000    120.00995   -6692.0266   -6383.3083   -6692.0266            0    5605.6295    23.177983    21.358113    21.458707    10622.875    5869.0666    5190.2265    5757.5956   -247.45497    241.07103   -218.51742   -5514.8633 
14472000    125.02839   -6708.9081   -6387.2802   -6708.9081            0    5391.4923    23.108804    21.310955    21.595438     10635.12    5836.8654    5475.3923    4862.2193   -154.88187    85.436719   -1214.7628   -5551.0472 
14473000    126.80047   -6711.1981   -6385.0117   -6711.1981            0    5961.2697    23.102039    21.392731    21.479213    10615.364    5867.0668    5795.9833     6220.759   -1018.3094    487.28938    -458.6026   -5462.1225 
14474000    134.85764   -6705.8024   -6358.8894   -6705.8024            0    5026.1051    23.180946    21.314444    21.580922    10662.896    5044.8169    5173.2695    4860.2287    540.14815     727.4016    151.03072   -5577.2928 
14475000    122.84229   -6701.3831   -6385.3788   -6701.3831            0    6061.4984    23.075573    21.347149    21.592367     10636.35    5098.2702     6877.735      6208.49    263.44003     996.8523   -389.36758   -5445.1176 
14476000    128.37528   -6705.7145   -6375.4769   -6705.7145            0    6223.9181    23.106116    21.367906    21.479878    10605.245    6304.4756    6219.5161    6147.7627    774.43021   -644.06005   -398.61836   -5412.8445 
14477000    127.18306   -6678.5168   -6351.3462   -6678.5168            0    5319.4824    23.114277    21.343041    21.612229    10661.938    4250.3593     5422.194    6285.8938    351.02876    924.56181   -692.13672   -5524.2016 
14478000    129.29199   -6677.4277   -6344.8319   -6677.4277            0    7659.4247     23.03661    21.416863    21.394071    10555.234    7858.9846    7371.7963    7747.4932    -622.6537     1728.873   -458.93718    -5165.761 
14479000    122.95085   -6687.8057   -6371.5221   -6687.8057            0    4663.3035    23.119816    21.407886    21.574974    10678.455    5053.3276    3711.3857    5225.1973    294.80176   -218.27627    290.72428   -5645.2857 
14480000    129.80838   -6691.7802    -6357.856   -6691.7802            0    5927.9617     23.07173    21.451029    21.498144    10639.697    5582.2762    6613.5923    5588.0166    58.641829    317.49564    763.07733   -5438.0198 
14481000    124.91633   -6680.5062   -6359.1665   -6680.5062            0    5266.9191    23.072638    21.337574    21.641833     10654.58    6470.0017    5612.2528    3718.5028     309.7775   -677.03195   -242.85208   -5540.7604 
14482000    124.28881   -6688.0584    -6368.333   -6688.0584            0    6007.7984    23.145276    21.452169    21.420534    10635.646    5628.2116    5660.6162    6734.5673   -152.50405   -216.79957    749.47041   -5436.4635 
14483000    121.18171   -6698.9602   -6387.2276   -6698.9602            0    4666.8866    23.129377    21.369619       21.586    10669.225    4949.7547    4922.2112     4128.694    740.82949   -154.01498   -67.249119   -5661.0614 
14484000    123.85395   -6694.5032   -6375.8965   -6694.5032            0    5652.0967    23.168818    21.382658    21.485504    10644.153    5148.8254    5795.0201    6012.4446  -0.31271553   -155.46445     423.7895   -5498.4986 
14485000    124.04639   -6697.1375   -6378.0357   -6697.1375            0    6734.9337    23.043566    21.297817    21.610288    10605.846    7678.2089    6633.5207    5893.0716   -1607.0056    1054.0826   -217.97859   -5336.3072 
14486000    121.35139   -6695.4491     -6383.28   -6695.4491            0    4314.0124    23.234221    21.435559    21.467386    10691.585    4489.8515    3028.8805    5423.3052    261.16132   -394.84224   -288.30551   -5710.6142 
14487000    123.99146   -6708.0368   -6389.0763   -6708.0368            0    4751.5274    23.150447    21.266078    21.654745    10661.047    5270.6551    4527.2938    4456.6332   -447.24194    533.95656    481.49121   -5650.3068 
14488000    135.67619   -6709.4553   -6360.4366   -6709.4553            0    6196.7899    23.195129     21.27718    21.510195    10615.861    5869.1206    6233.8018    6487.4472    181.64137   -92.930177    402.66301   -5401.0406 
14489000    123.25911   -6700.8121   -6383.7355   -6700.8121            0     4279.684    23.177781    21.289449    21.666123    10690.979    5298.7383    3744.3532    3795.9605   -885.21936    118.98755   -709.57656   -5716.4602 
14490000    126.91659   -6693.3351   -6366.8499   -6693.3351            0    5689.1055    23.222277     21.21695    21.532837    10609.355    5799.2803    5056.1076    6211.9287    726.49952   -163.76199    74.267872   -5486.5941 
14491000    121.17932   -6699.8627   -6388.1363   -6699.8627            0    4749.0888     23.17461    21.292912    21.631496    10674.168    4720.9436    5696.4682    3829.8546   -216.99159   -121.73212    404.40316   -5648.8371 
14492000    119.69318   -6684.8976   -6376.9942   -6684.8976            0     6481.229    23.270206    21.214271    21.483692    10605.649    5416.7409    6416.0035    7610.9425    679.26256      1986.82     458.1497   -5374.5262 
14493000    123.96309   -6691.6528   -6372.7653   -6691.6528            0    4751.1387    23.193601    21.312879    21.593209    10674.007    5625.8541    4763.6125    3863.9495   -387.65682   -527.31662   -722.98379   -5633.1582 
14494000    123.39259   -6692.5958   -6375.1758   -6692.5958            0     5218.451    23.253754    21.269461    21.514973    10641.194    4849.5264    5158.9874     5646.839   -285.32352     1248.052    468.54192   -5565.3197 
14495000     128.6127   -6683.5799   -6352.7316   -6683.5799            0    5507.6202     23.13382    21.281048    21.619794    10643.683    6090.1459    5115.3863    5317.3285    82.164851   -324.43654    445.08308   -5497.7992 
14496000    122.86027    -6701.598   -6385.5474    -6701.598            0    4925.1549    23.254198     21.28315    21.527774    10654.582    3700.3762    6074.4945    5000.5939   -188.56938    875.82544    95.600144   -5620.2466 
14497000    125.76691    -6696.043   -6372.5153    -6696.043            0    5735.8216    23.171747    21.193009    21.670503     10641.93     6478.049    6147.7667    4581.6492    416.30278   -48.196823    -636.8568   -5482.3064 
14498000    129.55505   -6700.5209   -6367.2485   -6700.5209            0    5263.8462    23.222152    21.288527    21.526548    10641.981    5259.5757    6013.4482    4518.5148    65.847996   -453.87203   -395.96355    -5550.287 
14499000    127.01574   -6705.9582    -6379.218   -6705.9582            0    6483.8667    23.168092    21.191372    21.585692     10597.79    7183.2608    6655.3935    5612.9459    -367.9105   -44.169477   -297.95829   -5377.0852 
14500000    130.24435   -6683.1594   -6348.1138   -6683.1594            0    5014.4989    23.293719    21.275154    21.496978    10653.418    4981.0564    5464.0442    4598.3962    499.89154   -1124.8009   -237.28021   -5569.0152 
Loop time of 536.201 on 64 procs for 250000 steps with 1296 atoms

Performance: 80.567 ns/day, 0.298 hours/ns, 466.243 timesteps/s
99.1% CPU use with 64 MPI tasks x 1 OpenMP threads

MPI task timing breakdown:
Section |  min time  |  avg time  |  max time  |%varavg| %total
---------------------------------------------------------------
Pair    | 29.621     | 41.36      | 53.252     | 111.8 |  7.71
Bond    | 0.28122    | 0.29055    | 0.30269    |   0.9 |  0.05
Kspace  | 270.45     | 282.69     | 294.89     |  43.1 | 52.72
Neigh   | 1.7928     | 1.8246     | 1.8481     |   1.1 |  0.34
Comm    | 90.559     | 92.975     | 96.503     |  19.1 | 17.34
Output  | 0.71488    | 0.71649    | 0.71811    |   0.1 |  0.13
Modify  | 102.79     | 105.76     | 109.55     |  16.1 | 19.72
Other   |            | 10.59      |            |       |  1.97

Nlocal:        20.2500 ave          27 max          14 min
Histogram: 9 7 3 6 5 9 10 5 7 3
Nghost:        2646.42 ave        2667 max        2618 min
Histogram: 1 2 4 6 11 11 6 12 7 4
Neighs:        6553.41 ave        8717 max        4607 min
Histogram: 9 7 4 5 5 11 5 8 7 3

Total # of neighbors = 419418
Ave neighs/atom = 323.62500
Ave special neighs/atom = 2.0000000
Neighbor list builds = 3351
Dangerous builds = 0

unfix		3
unfix		2
unfix		1

write_data	data.final.${pid}
write_data	data.final.0
System init for write_data ...
PPPM initialization ...
  extracting TIP4P info from pair style
  using 12-bit tables for long-range coulomb (../kspace.cpp:340)
  G vector (1/distance) = 0.36843022
  grid = 30 40 32
  stencil order = 5
  estimated absolute RMS force accuracy = 0.0043021852
  estimated relative force accuracy = 1.2955903e-05
  using double precision FFTW3
  3d grid and FFT values/proc = 5168 640
Last active /omp style is kspace_style pppm/tip4p/omp
WARNING: Not all mixed pair coeffs generated from mixing. Use write_data with 'pair ij' option to store all pair coeffs. (../write_data.cpp:312)

write_restart   restart.lmp.${pid}
write_restart   restart.lmp.0
System init for write_restart ...
PPPM initialization ...
  extracting TIP4P info from pair style
  using 12-bit tables for long-range coulomb (../kspace.cpp:340)
  G vector (1/distance) = 0.36843022
  grid = 30 40 32
  stencil order = 5
  estimated absolute RMS force accuracy = 0.0043021852
  estimated relative force accuracy = 1.2955903e-05
  using double precision FFTW3
  3d grid and FFT values/proc = 5168 640
Last active /omp style is kspace_style pppm/tip4p/omp
Total wall time: 0:08:56
