LAMMPS (30 Jul 2021)
Processor partition = 0
  using 4 OpenMP thread(s) per MPI task
using multi-threaded neighbor list subroutines
variable        pid world 0 1
variable        phase world IceII IceIh

shell cd ${phase}
shell cd IceII
include Restart.lmp
echo both
log log.lammps
#include		in.partitions
include		in.temp
variable        temperature equal 2.60
variable	tempDamp equal 100.0
include		in.pressure
variable        pressure equal 1990.1
variable        pressureDamp equal 1000.0 # This is 1 ps
include		in.seed
variable        seed equal 745823

units		real
atom_style	full
box tilt large
read_restart	restart.lmp.${pid}
read_restart	restart.lmp.0
Reading restart file ...
  restart file = 30 Jul 2021, LAMMPS = 30 Jul 2021
  restoring atom style full from restart
  triclinic box = (-10.557872 -9.1411072 0.14886479) to (12.537872 12.131105 21.711134) with tilt (-9.1086327 1.8728574 2.8404356)
  2 by 2 by 4 MPI processor grid
  restoring pair style lj/cut/tip4p/long/omp from restart
  restoring bond style harmonic/omp from restart
  restoring angle style harmonic/omp from restart
  1296 atoms
  864 bonds
  432 angles
Finding 1-2 1-3 1-4 neighbors ...
  special bond factors lj:    0        0        0       
  special bond factors coul:  0        0        0       
     2 = max # of 1-2 neighbors
     1 = max # of 1-3 neighbors
     1 = max # of 1-4 neighbors
     2 = max # of special neighbors
  special bonds CPU = 0.001 seconds
  read_restart CPU = 0.006 seconds
include 	in.setup
variable	out_freq equal 1000
variable	out_freq2 equal 10000
variable	out_freq3 equal 1000

timestep	2.0

neigh_modify    delay 7 every 1

include		in.tip4p
# This is TIP4P/Ice

# create groups ###
group ox type 2
432 atoms in group ox
group hy type 1
864 atoms in group hy

# set charges - beside manually ###
set group ox charge -1.1794
Setting atom values ...
  432 settings made for charge
set group hy charge 0.5897
Setting atom values ...
  864 settings made for charge

# ### TIP3P Potential Parameters ###
pair_style lj/cut/tip4p/long/omp 2 1 1 1 0.1577 8.5
pair_coeff 1 1*2 0.000 0.000
pair_coeff 2 2 0.21084 3.1668
bond_style  harmonic
bond_coeff  1 450 0.9572
angle_style harmonic
angle_coeff 1 55 104.52
kspace_style pppm/tip4p/omp 1.0e-5
pair_modify tail yes

thermo          ${out_freq}
thermo          1000
thermo_style    custom step temp pe etotal epair emol press lx ly lz vol pxx pyy pzz pxy pxz pyz enthalpy

restart 	${out_freq3} restart.lmp.${pid} restart2.lmp.${pid}
restart 	1000 restart.lmp.${pid} restart2.lmp.${pid}
restart 	1000 restart.lmp.0 restart2.lmp.${pid}
restart 	1000 restart.lmp.0 restart2.lmp.0


include         in.dump
dump            myDump all atom ${out_freq2} dump.water.${pid}
dump            myDump all atom 10000 dump.water.${pid}
dump            myDump all atom 10000 dump.water.0
dump            myDump2 all dcd ${out_freq2} dump.dcd
dump            myDump2 all dcd 10000 dump.dcd
dump_modify     myDump append yes
dump_modify     myDump2 append yes


variable natoms 	equal  "count(all)"                        # NUMBER ATOMS
variable H      	equal  "enthalpy/v_natoms"                 # ENTHALPY-per-atom
variable Vol      	equal  "vol/v_natoms"                 # volume-per-atom
fix AVG all 		ave/time ${out_freq} 1 ${out_freq} v_Vol v_H file vol_enthalpy.dat
fix AVG all 		ave/time 1000 1 ${out_freq} v_Vol v_H file vol_enthalpy.dat
fix AVG all 		ave/time 1000 1 1000 v_Vol v_H file vol_enthalpy.dat


timer           timeout 10:00:00 every 1000
New timer settings: style=normal  mode=nosync  timeout=10:00:00

fix 		1 all shake 1e-6 200 0 b 1 a 1
Finding SHAKE clusters ...
       0 = # of size 2 clusters
       0 = # of size 3 clusters
       0 = # of size 4 clusters
     432 = # of frozen angles
  find clusters CPU = 0.000 seconds
fix             2 all nph tri ${pressure} ${pressure} ${pressureDamp}
fix             2 all nph tri 1990.1 ${pressure} ${pressureDamp}
fix             2 all nph tri 1990.1 1990.1 ${pressureDamp}
fix             2 all nph tri 1990.1 1990.1 1000
fix             3 all temp/csvr ${temperature} ${temperature} ${tempDamp} ${seed}
fix             3 all temp/csvr 2.6 ${temperature} ${tempDamp} ${seed}
fix             3 all temp/csvr 2.6 2.6 ${tempDamp} ${seed}
fix             3 all temp/csvr 2.6 2.6 100 ${seed}
fix             3 all temp/csvr 2.6 2.6 100 745823


run             250000
PPPM initialization ...
  extracting TIP4P info from pair style
  using 12-bit tables for long-range coulomb (../kspace.cpp:340)
  G vector (1/distance) = 0.36801285
  grid = 30 40 32
  stencil order = 5
  estimated absolute RMS force accuracy = 0.004407369
  estimated relative force accuracy = 1.3272661e-05
  using double precision FFTW3
  3d grid and FFT values/proc = 11832 2400
Last active /omp style is kspace_style pppm/tip4p/omp
Neighbor list info ...
  update every 1 steps, delay 7 steps, check yes
  max neighbors/atom: 2000, page size: 100000
  master list distance cutoff = 10.8154
  ghost atom cutoff = 10.8154
  binsize = 5.4077, bins = 7 5 4
  1 neighbor lists, perpetual/occasional/extra = 1 0 0
  (1) pair lj/cut/tip4p/long/omp, perpetual
      attributes: half, newton on, omp
      pair build: half/bin/newton/tri/omp
      stencil: half/bin/3d/tri
      bin: standard
Setting up Verlet run ...
  Unit style    : real
  Current step  : 47500000
  Time step     : 2
  Walltime left : 9:59:59.96
Per MPI rank memory allocation (min/avg/max) = 12.76 | 12.77 | 12.77 Mbytes
Step Temp PotEng TotEng E_pair E_mol Press Lx Ly Lz Volume Pxx Pyy Pzz Pxy Pxz Pyz Enthalpy 
47500000    5.1819726   -7012.6637   -6999.3334   -7012.6637            0    1967.3093    23.095744    21.272212    21.562269    10593.491    2238.2409    1808.4542    1855.2326    74.066141    6.1494197    57.656254   -6695.3935 
47501000    2.5679835   -7019.8878   -7013.2818   -7019.8878            0     1959.875    23.057749    21.281126    21.585798     10592.04    2175.8489    1885.4984    1818.2778     48.91987    17.776495    83.983118    -6710.532 
47502000     2.600413    -7020.005   -7013.3156    -7020.005            0    1968.0924    23.061249    21.278319    21.583985    10591.361    2249.5342    1820.1027    1834.6403    71.619341    52.565031    70.058874   -6709.3159 
47503000    2.5956269   -7020.1445   -7013.4674   -7020.1445            0    1972.2225    23.075931    21.270425     21.57422    10589.379    2136.4397    1891.7607     1888.467    55.599292    -8.583239    68.453537   -6708.8868 
47504000    2.5043819   -7020.4257   -7013.9833   -7020.4257            0    1979.9912    23.090722    21.267444    21.561825    10588.595    2094.4649    1961.3585    1884.1502    8.9570131    20.883983    69.458588   -6708.2256 
47505000    2.7341746   -7020.6044   -7013.5709   -7020.6044            0    1994.0326    23.107557    21.259823    21.553358    10588.358    2066.3821    1972.3835    1943.3321   -39.291174    20.282736    5.7937601   -6705.6517 
47506000    2.6576727   -7020.0989   -7013.2622   -7020.0989            0    2003.8492    23.129224    21.251627    21.538292    10586.795     1942.533    2017.5923    2051.4223    44.496263   -41.567909   -74.854638   -6703.8728 
47507000    2.5598308   -7020.1471   -7013.5621   -7020.1471            0    1995.4555    23.151469    21.243363     21.52569    10586.658    1918.2379    2042.0305    2026.0982   -95.839933   -44.222165   -55.473737   -6705.4727 
47508000    2.6394688   -7019.8886   -7013.0988   -7019.8886            0    1988.9101      23.1679    21.236906    21.516079    10586.223    1803.4413    2067.3173    2095.9716   -94.752743   -47.549936   -55.721855   -6706.0325 
47509000    2.6890125   -7019.8243    -7012.907   -7019.8243            0    2003.8261     23.17812    21.233206    21.510051    10586.082    1785.6111     2081.573    2144.2942    37.268494   -31.228513   -94.466772    -6703.542 
47510000    2.6468373   -7020.0012   -7013.1924   -7020.0012            0    1969.7384    23.180577    21.234114    21.508728    10587.005    1808.4727    2053.9303    2046.8122   -73.142068   -44.554033   -55.760669   -6709.0636 
47511000    2.5687011   -7020.0078      -7013.4   -7020.0078            0    1982.3777    23.168816    21.237371    21.515436    10586.557    1797.5773    2076.8432    2072.7127   -80.982341   -23.961728   -59.987514   -6707.3326 
47512000     2.739702   -7019.8427    -7012.795   -7019.8427            0      1988.89     23.15384    21.243941    21.524904    10587.644    1904.7887     1942.842    2119.0394   -1.2635127   -64.669768   -34.881309   -6705.6906 
47513000    2.7074898   -7020.1491   -7013.1843   -7020.1491            0    1996.2064    23.132558    21.249887    21.538138    10587.378    1948.8291    2060.6862    1979.1041    3.3484412    7.8482036    25.066315   -6704.9579 
47514000    2.5863069   -7020.4028   -7013.7497   -7020.4028            0    1981.2397    23.116034    21.258021    21.547547    10588.489    1950.9295    2004.0738    1988.7158    18.766967    4.6134358    33.806319   -6707.8022 
47515000    2.6793664   -7020.3378   -7013.4453   -7020.3378            0    1988.5466    23.091035    21.268022    21.562149    10589.186    2129.1362    1808.7201    2027.7836    79.716649    41.028637    51.160269   -6706.3493 
47516000    2.6296985   -7020.2789   -7013.5142   -7020.2789            0    2000.6281    23.071416    21.273134    21.574032    10588.563    2166.3233    1965.7963    1869.7647    70.220223    66.589252      80.4349   -6704.5705 
47517000    2.6699737   -7020.1857   -7013.3173   -7020.1857            0    1991.8272    23.065311    21.275159    21.580244    10589.818     2179.124    1939.1472    1857.2104    92.913504     35.64903    43.749703   -6705.6963 
47518000    2.5250668   -7020.2303   -7013.7347   -7020.2303            0    1992.0991    23.063977    21.272262    21.582546    10588.893    2247.8353    1830.2094    1898.2526    82.140252    32.651726    71.824805   -6706.0985 
47519000    2.5986324   -7020.2377   -7013.5529   -7020.2377            0    2014.5315    23.075585    21.273239    21.569115    10588.115    2086.5088    2009.6156    1947.4701    24.729148    50.508183    136.29241   -6702.4754 
47520000    2.6789168   -7020.3955   -7013.5041   -7020.3955            0    2013.5039    23.087169    21.269805    21.563089    10588.761    2144.6521    1925.6689    1970.1908    99.067838    15.811074    56.363989   -6702.5663 
47521000    2.5949096   -7020.4752      -7013.8   -7020.4752            0    1986.0189    23.114647    21.253926    21.553399    10588.689    2011.5851    1965.3785    1981.0932    13.900374   -15.845312     36.35262   -6707.1087 
47522000    2.6844578   -7020.3771   -7013.4715   -7020.3771            0    1968.5779    23.138468    21.244678    21.540591    10588.693    1860.5247    2091.6036    1953.6053   -44.689766   -8.7810029   -25.034845   -6709.4734 
47523000     2.495262   -7020.0875   -7013.6686   -7020.0875            0    1977.1479    23.152619    21.244085    21.524806    10587.109     1925.097    1914.6074    2091.7393   -30.877566   -45.393506   -44.788225   -6708.3928 
47524000    2.7007327   -7019.6615   -7012.7141   -7019.6615            0    1983.2347    23.174076    21.238998    21.509122    10586.664    1764.5732    2104.3598     2080.771   -55.470976   -42.538289   -90.782772   -6706.5113 
47525000    2.7260614   -7019.8415   -7012.8288   -7019.8415            0    1991.0239    23.180713    21.231452    21.509976    10586.354    1804.5321    2111.8594    2056.6801   -66.848916   -26.739122   -107.05555   -6705.4324 
47526000    2.5722208   -7019.6375   -7013.0206   -7019.6375            0    1980.4734    23.174056     21.23158    21.516143    10586.412     1857.559    2029.5826    2054.2787   -70.984393   -113.65394   -102.80945   -6707.2514 
47527000      2.53786   -7019.6398   -7013.1114   -7019.6398            0    1988.2735    23.165692    21.235672    21.520992    10587.016    1786.9031    2195.1177    1982.7997   -73.636479    -23.82694    -76.33683   -6706.1204 
47528000    2.5206582   -7020.1041   -7013.6198   -7020.1041            0    1993.1951    23.147741    21.246954    21.526011    10586.901     1990.114    1957.9874    2031.4838   -34.799312    4.8829729   -70.051501   -6705.8723 
47529000    2.5600403   -7020.2446   -7013.6591   -7020.2446            0    1986.2793    23.131653    21.251439    21.536966    10587.161    1939.7219    2008.9608    2010.1553    36.104953   -44.171836   -27.452652   -6706.9718 
47530000    2.8222807   -7020.2662   -7013.0061   -7020.2662            0    1985.4998    23.106888    21.258285    21.556452    10588.805    1995.1132     2024.105    1937.2813    14.716692    23.502877    27.485482   -6706.3916 
47531000    2.7276813   -7020.1098    -7013.093   -7020.1098            0    1994.1923    23.080903    21.264362    21.575327    10589.185    2227.9849    1898.0294    1856.5625    12.100851    52.085606      73.0631   -6705.1251 
47532000    2.6097479   -7019.9815   -7013.2681   -7019.9815            0    1987.0753    23.068528    21.274571    21.578728    10590.258    2096.7554    1977.4886    1886.9819    84.674882    31.243411    67.394913   -6706.3682 
47533000     2.588847   -7019.9906   -7013.3309   -7019.9906            0    1988.0049    23.062172    21.279815    21.578995    10590.081    2323.9488    1747.1354    1892.9303    34.828482     15.88722    101.60552   -6706.2926 
47534000    2.5994082   -7020.2528    -7013.566   -7020.2528            0    2001.6761    23.071202     21.27014    21.577349    10588.603    2156.1606    1978.1278    1870.7399    37.622187    70.630572    80.486383   -6704.4594 
47535000     2.542134   -7020.3831   -7013.8436   -7020.3831            0    1992.5136    23.099065    21.259855    21.561335      10588.4      1944.87    2071.3501    1961.3208    54.915194   -3.5253409    1.4249572   -6706.1578 
47536000    2.6235324   -7020.2346   -7013.4857   -7020.2346            0    1997.2056    23.118091     21.25855    21.543475    10587.694    2151.7827    1839.0856    2000.7486   -27.793754   0.22382102   -12.740913   -6705.0959 
47537000    2.6744616   -7020.1405   -7013.2606   -7020.1405            0    1989.8289    23.146497     21.24475     21.53079    10587.584     1806.383    2123.8627     2039.241   -42.354301    30.580227   -44.893348    -6706.013 
47538000    2.6566157   -7020.2996   -7013.4656   -7020.2996            0    1995.3129    23.166297    21.233962     21.52241    10587.138    1798.8314    2057.1608    2129.9465   -43.047064   -109.42193   -62.211015   -6705.3842 
47539000    2.5545368   -7019.8957   -7013.3243   -7019.8957            0     1974.579    23.176313    21.229665    21.517501    10587.156    1850.6958     2010.524    2062.5174    -63.66122     21.63505   -12.970119   -6708.4438 
47540000    2.4971941    -7019.963   -7013.5391    -7019.963            0    2001.8663    23.179991    21.231135    21.509826    10585.792     1729.109    2165.9773    2110.5126      -15.088   -48.786745   -54.137651   -6704.4851 
47541000    2.4650631   -7019.9101   -7013.5688   -7019.9101            0     1974.871    23.164227    21.244642    21.512324    10586.553     1889.674     1873.305    2161.6339   -39.168251   -16.591971   -33.752449   -6708.6606 
47542000    2.5518274   -7020.0816   -7013.5172   -7020.0816            0    1971.5601    23.147112    21.242128    21.533429    10587.856    1853.3096    2112.7596    1948.6112   -50.313506   -9.1578573   -51.850941   -6709.0827 
47543000    2.7309877   -7020.3432   -7013.3179   -7020.3432            0    1972.9767     23.11965    21.250706    21.553662    10589.506    2007.6828    1991.7534    1919.4937    66.381157   -41.971896   -63.509482   -6708.6171 
47544000    2.6890953   -7020.2937   -7013.3761   -7020.2937            0    1987.7196     23.09212    21.266642    21.562665    10589.249    2166.9565    1826.8028    1969.3993    62.815902   -2.6455206    23.500338    -6706.406 
47545000    2.3940556   -7020.2508   -7014.0923   -7020.2508            0    2010.7479    23.073842    21.273039     21.57115    10588.215    2081.2136    2083.9503    1867.0798    61.162537    75.680402    50.416767   -6703.5961 
47546000    2.5834248   -7019.8481   -7013.2024   -7019.8481            0    1978.5938    23.063218    21.280647    21.577122    10590.055    2291.6125    1780.4563    1863.7126    58.839195   -22.194473    50.959203   -6707.6183 
47547000    2.4704009   -7020.2381   -7013.8832   -7020.2381            0    1967.4501    23.067433     21.27021    21.584197    10590.267    2169.0927    1937.2401    1796.0175   -12.740153   -27.122765    56.739535   -6710.0141 
47548000    2.6279069   -7020.0142    -7013.254   -7020.0142            0    1996.0308    23.080553     21.26466    21.575276    10589.148    2134.1269    2013.7879    1840.1776    13.528615    31.385951    59.623265   -6705.0033 
47549000    2.6422941   -7020.0865   -7013.2894   -7020.0865            0    1999.0677    23.093728    21.268276    21.557607    10588.315    2125.0599    1852.3036    2019.8397    71.396615    17.166568    15.318313   -6704.5939 
47550000    2.6651071   -7020.1974   -7013.3415   -7020.1974            0    1988.9587    23.119121     21.25651    21.543288    10587.058    1877.2327    2105.6083    1984.0351    49.142862    24.872416    21.403071   -6706.2436 
47551000    2.7262065   -7020.2093   -7013.1963   -7020.2093            0    1946.9531    23.145525    21.240474    21.538625    10588.861    1956.7185    1927.4333    1956.7073   -104.73566   -25.928184   -20.569889   -6712.5329 
47552000     2.610738   -7020.4691   -7013.7531   -7020.4691            0    1975.3342     23.16366    21.235268    21.523547    10587.143    1849.6337    2026.1714    2050.1975   -72.049064   -44.329305   -71.089621   -6708.7563 
47553000    2.4782597   -7019.8566   -7013.4814   -7019.8566            0    1992.2554     23.17536     21.23514     21.51183     10586.66    1706.9782    2165.9951     2103.793   -36.147532   -11.256744    -93.57082    -6705.886 
47554000    2.5464697   -7019.6232   -7013.0726   -7019.6232            0    2003.2714    23.180239     21.23573    21.505672    10586.152     1878.697    1950.7794    2180.3376   -83.473383   -34.145355   -24.558518   -6703.7912 
47555000    2.5932722   -7019.8501    -7013.179   -7019.8501            0    1987.0616    23.165899    21.237997    21.517882     10586.74    1799.4419    2090.1481    2071.5948   -73.323403   -31.265808   -69.083564   -6706.3832 
47556000     2.798013   -7020.1961   -7012.9984   -7020.1961            0    1986.4884    23.149047    21.245184    21.526394    10586.805    1897.4054    1964.2686    2097.7913    29.151295   -74.290609   -11.261081   -6706.2892 
47557000    2.5385338   -7020.0362    -7013.506   -7020.0362            0    1987.5055    23.123645    21.253167    21.544443    10588.032    2026.6661    1991.0089    1944.8414    39.241674    21.460142   -20.604933   -6706.6042 
47558000    2.5714811   -7020.0704   -7013.4554   -7020.0704            0    1992.9077    23.098785    21.262438    21.558809    10588.317    1984.9598    2035.2745     1958.489    39.620423    51.341264    89.599072   -6705.7111 
47559000    2.5187893   -7019.8383   -7013.3589   -7019.8383            0    2004.6122    23.078159    21.270338    21.571343    10588.946    2221.5504    1854.9287    1937.3577     62.34148   -16.180319    67.926094   -6703.7888 
47560000    2.5037038   -7020.2273   -7013.7867   -7020.2273            0    1983.8251    23.066649    21.271744    21.582881    10590.026    2154.4126     2006.589    1790.4736    89.395081    66.220802    33.531865   -6707.3954 
47561000    2.6239324   -7020.1375   -7013.3876   -7020.1375            0    1995.4543    23.066662    21.272002    21.580617    10589.049    2169.6242    1907.7627    1908.9761     76.23817    27.665583    93.184836   -6705.2288 
47562000    2.5930169   -7019.9006   -7013.2302   -7019.9006            0    1996.2292    23.074338    21.274682    21.569536    10588.468    2232.3709    1846.2574    1910.0593    16.602851    38.318282    87.878643   -6704.9686 
47563000    2.6256086   -7019.8553    -7013.101   -7019.8553            0    1988.4698    23.092604    21.265869    21.563065    10589.283    1977.9408    2026.6172    1960.8514    45.278754    95.304146      71.8996   -6706.0141 
47564000    2.7032362   -7020.5709    -7013.617   -7020.5709            0    1980.1491    23.111377    21.257781    21.551935    10588.392    2060.4659    1884.6597    1995.3218  -0.99308737   -15.493472    24.699219   -6707.8407 
47565000    2.6069985   -7020.5688   -7013.8625   -7020.5688            0    1985.0917    23.133364    21.248097    21.539229    10587.392    1940.9559    2017.6246    1996.6947   -39.868315    4.5821592    12.178519   -6707.3519 
47566000    2.6912093   -7020.0531   -7013.1302   -7020.0531            0    1993.2192    23.155167    21.237991    21.528773    10587.188    1802.9074    2142.7718    2033.9784   -3.4646569   -43.144242   -52.751638   -6705.3706 
47567000    2.4279104   -7020.0587   -7013.8131   -7020.0587            0    2015.5812    23.170104    21.234928    21.515349    10585.885    1894.2952    1960.8205     2191.628   -54.360947    8.3765213   -19.091311    -6702.639 
47568000    2.5852848   -7020.2245    -7013.574   -7020.2245            0    1996.6622    23.184533    21.230489    21.506035    10585.678     1700.269    2170.9807     2118.737   -100.94566   -12.300528   -72.280448   -6705.3267 
47569000    2.4852242   -7020.2028   -7013.8097   -7020.2028            0    2011.0558    23.178367    21.232322    21.508057    10584.772    1805.2785    2076.9128    2150.9761   -84.101014   -27.897424   -72.794764   -6703.3669 
47570000    2.5519588   -7020.1606   -7013.5958   -7020.1606            0    1991.9768    23.168119    21.240902    21.511568    10586.095     1911.619    1938.8424    2125.4688   -45.565499    -48.23345   -87.659336   -6706.0598 
47571000     2.512201   -7019.8705    -7013.408   -7019.8705            0    2003.3695    23.154664    21.238971    21.526735    10586.444    1806.8214    2186.3546    2016.9325    20.613485   -1.9752045   -63.753303   -6704.1029 
47572000    2.6624477   -7019.7136   -7012.8647   -7019.7136            0    1997.0652    23.130391    21.246777    21.544433    10587.931    2029.7313    1930.8952    2030.5691   -2.7938406    24.284804    30.779944   -6704.4896 
47573000    2.6066028    -7020.594   -7013.8886    -7020.594            0    1988.3543    23.103988    21.256908    21.560142    10588.603    2031.8579    1972.3883    1960.8167      22.2472    6.1153431    20.756951   -6706.8392 
47574000    2.6896447   -7020.3827   -7013.4637   -7020.3827            0    1992.9433    23.080478    21.271243    21.568087    10588.862    2153.8592    1926.1349    1898.8358    47.938412    13.587253    46.507424   -6705.6981 
47575000     2.582794   -7020.0863   -7013.4422   -7020.0863            0    1991.6754    23.074142    21.275174    21.569927    10588.815    2204.4917    1837.2803    1933.2541    92.987175    39.604629    87.910043   -6705.8737 
47576000    2.5029815   -7019.8636   -7013.4248   -7019.8636            0    1980.9171     23.07179    21.271618    21.577496     10589.68    2051.9634    2039.7202    1851.0676    77.097709    20.878341    60.758917   -6707.4927 
47577000    2.5484133   -7020.2834   -7013.7278   -7020.2834            0    1984.0371    23.066356    21.272942    21.581615    10589.866    2320.2489    1788.9471    1842.9152    25.382432    55.831061    56.429645   -6707.3084 
47578000    2.8729729   -7020.4148   -7013.0243   -7020.4148            0    1972.1001    23.081624    21.265811    21.574571    10589.867    2107.3607    1946.6059    1862.3337      71.0958   -40.514866    55.327754   -6708.4485 
47579000    2.5331213   -7020.3274   -7013.8111   -7020.3274            0    1984.8482    23.100246     21.25966    21.559325    10587.857    1998.1484    2051.7313    1904.6649    51.238687    8.0424489  -0.81957377   -6707.3247 
47580000    2.7345563   -7020.1207   -7013.0862   -7020.1207            0     1986.781    23.121336    21.257525    21.542068    10587.978    2125.5334    1878.1132    1956.6963   -67.521343    18.542125   -27.795151   -6706.2978 
47581000    2.4734363   -7019.9755   -7013.6127   -7019.9755            0     1985.165    23.143773     21.24479    21.533421    10587.651    1847.0779     2095.121    2013.2962    -21.47255   -70.834822   -76.619758   -6707.0833 
47582000    2.5627098   -7020.1547   -7013.5623   -7020.1547            0      1964.54    23.159835    21.236762    21.525839    10587.267    1879.5826    1993.2711    2020.7663   -31.634999   -48.710669   -50.919167   -6710.2287 
47583000    2.5974018    -7019.998   -7013.3163    -7019.998            0    1983.1445    23.174305    21.232757    21.513336    10585.731    1836.5449    2050.3961    2062.4926   -96.288643   0.90149139   -70.768519   -6707.1545 
47584000    2.6105761    -7019.371   -7012.6554    -7019.371            0    1988.6984    23.179802    21.229645    21.511537    10585.805    1704.2455    2166.4796    2095.3702    11.261128   -60.856802   -119.00754    -6705.634 
47585000    2.5595444   -7020.1634   -7013.5791   -7020.1634            0    1983.0864    23.170938    21.235898    21.515573     10586.86    1978.9291    1909.6022     2060.728   -86.002585   -88.441054    -102.6572   -6707.3935 
47586000    2.5182959   -7019.9343   -7013.4561   -7019.9343            0    1981.2309    23.158233    21.241567     21.52069    10586.397    1790.4429    2153.1557    2000.0941   -100.49014   -19.144982   -85.160233   -6707.5705 
47587000    2.5309024   -7020.3605   -7013.8499   -7020.3605            0    1975.2295    23.139268     21.24686    21.534631    10587.217    1893.7648     2024.683    2007.2406    51.032154   -94.808817   -67.839421   -6708.8671 
47588000    2.6232106   -7020.1719   -7013.4238   -7020.1719            0    1997.5996    23.115551    21.255962     21.54865    10587.784    2158.5474    1914.7148    1919.5367   -42.117227    21.454057     1.826396   -6704.9705 
47589000    2.4994035   -7020.2452   -7013.8156   -7020.2452            0    1985.7566    23.093925    21.265036    21.560828    10588.375    2023.1939     2062.316      1871.76    28.410553    45.993181    2.2715482   -6707.1739 
47590000     2.515463   -7019.9553   -7013.4845   -7019.9553            0    1996.6264    23.078122    21.273177    21.565683    10587.564     2213.266    1850.4765    1926.1366    133.52811   -31.160476    44.674759   -6705.1879 
47591000    2.6318048   -7020.4013   -7013.6311   -7020.4013            0    1978.4298    23.067132     21.27568    21.576457    10589.054     2167.694     1956.526    1811.0694    57.513748    55.499956    51.726982   -6708.1012 
47592000     2.667963   -7020.3118   -7013.4486   -7020.3118            0    1968.7591    23.062447    21.275346    21.583935    10590.407    2219.2842    1920.3547    1766.6383     10.36628    17.414614    57.189164   -6709.3733 
47593000    2.6249397   -7020.0867   -7013.3342   -7020.0867            0    1977.7687    23.074341    21.270711    21.576034    10589.682    2196.8823    1823.8541    1912.5698    44.001132    -31.58609    39.354736   -6707.8883 
47594000    2.6136193   -7020.0095   -7013.2861   -7020.0095            0    1981.7516    23.093683    21.263626    21.562697     10588.48    2016.2608    2044.0855    1884.9085    4.8499566    74.228883   -20.201533   -6707.2598 
47595000    2.5972301   -7020.4989   -7013.8177   -7020.4989            0    1981.6426    23.113812    21.256419    21.550701    10588.223    2144.5846     1888.821    1911.5223   -27.755607   -43.174393    17.316621   -6707.8156 
47596000     2.746126   -7019.9944   -7012.9302   -7019.9944            0    1997.1626    23.147434     21.24267    21.529884     10586.53    1817.5479    2063.1906    2110.7493    60.822858   -80.830073   -8.5264073   -6704.5809 
47597000    2.5850632   -7019.8792   -7013.2293   -7019.8792            0    1994.7902    23.167091    21.236653    21.516504    10585.937    1793.1455    2128.1419    2063.0831   -101.05913    -27.70411   -47.111792   -6705.2635 
47598000     2.436546   -7019.9187   -7013.6508   -7019.9187            0    2012.6653    23.171223    21.235553    21.513902    10585.996     1963.753    1944.6244    2129.6185   -96.098826   -34.080341   -66.786417   -6702.9237 
47599000    2.4882437   -7019.4509     -7013.05   -7019.4509            0    2019.2669    23.175892    21.230553    21.514161    10585.764    1661.4863    2201.3486    2194.9658    40.343911   -56.852947   -89.331485   -6701.3106 
47600000    2.5805028   -7020.2153   -7013.5771   -7020.2153            0    1983.3617    23.161134    21.242205    21.517593    10586.517    1895.3218    1943.3889    2111.3744   -52.830295     18.68781   -27.449081    -6707.359 
47601000     2.548983   -7020.3656   -7013.8085   -7020.3656            0    1982.0779    23.138217    21.248765     21.53298    10586.874    1965.2684    1961.6064    2019.3589    31.951268    27.797024    21.641527   -6707.7783 
47602000    2.5185522   -7019.8524   -7013.3735   -7019.8524            0    2016.9852    23.107456    21.257317    21.552409    10586.597    1917.6027    2116.0203    2017.3325    95.058271   -38.025249   -1.9777007   -6701.9618 
47603000    2.5551327   -7019.4912   -7012.9183   -7019.4912            0    2022.2116    23.076056     21.26879    21.573341    10588.191     2337.285    1799.4619    1929.8878     9.754095    82.528362    126.24939   -6700.6526 
47604000    2.7061904    -7019.999   -7013.0375    -7019.999            0     1992.163    23.068109    21.276584    21.573757    10588.627    2089.9246    1946.6436    1939.9207    84.899516    16.465928    85.179794   -6705.3992 
47605000    2.6318174   -7020.1254   -7013.3552   -7020.1254            0    1988.5705     23.06942    21.273458    21.576149    10588.848    2137.9646     1932.012     1895.735    111.26291    37.243517    55.980241   -6706.2653 
47606000    2.5396786   -7020.2718   -7013.7387   -7020.2718            0    1977.7778    23.093517    21.265662    21.562526    10589.333    2134.8584    1888.2663    1910.2086    -5.713182     36.90615    59.633854   -6708.3014 
47607000    2.5409772   -7020.1296   -7013.5931   -7020.1296            0    2016.2814    23.127273    21.249897    21.541464    10586.599    1862.2798    2100.6326    2085.9319    23.356413   -5.1239598   -21.188391   -6702.2899 
47608000     2.539324   -7019.9698   -7013.4375   -7019.9698            0    1987.7419    23.155956    21.242371    21.522352    10586.574    1932.5898    1913.6364    2116.9996   -53.369962   -27.582047   -26.006039   -6706.5414 
47609000    2.4812349   -7019.8421   -7013.4593   -7019.8421            0    1988.5551    23.174303    21.230906    21.516198    10586.216    1755.4106    2169.4481    2040.8067   -113.39733    10.604575   -61.789743   -6706.4481 
47610000    2.5377443   -7020.0141   -7013.4859   -7020.0141            0    1996.3942    23.176901    21.235107    21.507713    10585.321    1748.0959    2038.1504    2202.9361    -31.11477     -78.7878    -78.71512   -6705.2905 
47611000    2.5185147   -7019.8491   -7013.3704   -7019.8491            0     1986.732    23.163522    21.242672    21.513954    10586.051    1931.3852    1913.6689    2115.1419   -57.687515    -35.78039   -31.437797   -6706.6454 
47612000    2.6178193   -7020.0273   -7013.2931   -7020.0273            0    1999.3916    23.137605    21.243904    21.537684    10586.483    1876.3559    2209.7493    1912.0695   -16.969401    64.992481   -57.806498    -6704.601 
47613000    2.6399776   -7020.0514   -7013.2602   -7020.0514            0    2001.3478    23.101531    21.261656    21.556676    10588.139    2158.1177    1827.2551    2018.6704    71.764576   -61.937672    37.249488   -6704.2178 
47614000    2.7118628    -7020.097   -7013.1209    -7020.097            0    1995.2214    23.076934    21.270237    21.572765    10589.032    2135.7345    1935.5794    1914.3503    37.987512    40.257883    73.134005   -6704.9985 
47615000    2.6629092   -7019.9859   -7013.1357   -7019.9859            0    1996.6754    23.065906    21.273506    21.578989    10588.652    2125.9652    2033.2548    1830.8061     67.59214    64.255087    77.183248   -6704.7999 
47616000     2.431274   -7020.0989   -7013.8446   -7020.0989            0    1979.1761    23.063467    21.279303    21.576487     10589.19    2350.2296    1707.8771    1879.4216    82.151131   -42.823717    81.661944   -6708.1955 
47617000    2.4397382   -7020.3838   -7014.1077   -7020.3838            0    1985.8468    23.084544    21.264514    21.570364    10588.495    2003.3075    2076.0933    1878.1395    61.288966    39.339728    61.320927   -6707.4486 
47618000    2.6218371   -7020.4345     -7013.69   -7020.4345            0    2003.4423    23.111581    21.256568    21.549728    10586.797     2106.515    1913.2121    1990.5997   -17.320633   0.33118479    1.3418302   -6704.3634 
47619000    2.6094061   -7020.1395   -7013.4269   -7020.1395            0    2010.9193    23.138565    21.249083    21.529119    10585.293    2003.2073     1959.964    2069.5866   -33.698961   -8.7942311   -51.712282     -6702.99 
47620000    2.5230276   -7019.9149   -7013.4246   -7019.9149            0    1987.5782    23.167954    21.234407    21.520424     10587.14     1644.461    2257.3798    2060.8939   -21.566789   -36.277516   -83.366446   -6706.5374 
47621000    2.4535174   -7019.6581   -7013.3465   -7019.6581            0    2011.2566    23.173332    21.233945    21.513123    10585.775     1957.259     1887.674     2188.837   -74.655028   -63.414605   -51.913765   -6702.8434 
47622000    2.6410401   -7019.6003   -7012.8064   -7019.6003            0    2000.6265    23.182152    21.228662    21.508777     10585.03    1775.8267    2145.0001    2081.0528   -56.912578   -42.960257   -65.635073   -6703.9661 
47623000    2.6060901   -7020.2339   -7013.5299   -7020.2339            0    1989.7729    23.170644    21.235753    21.514375    10586.063    1754.9628    2119.2645    2095.0914   -15.378288   -60.660619   -44.545311   -6706.3351 
47624000    2.5820532   -7019.9959   -7013.3537   -7019.9959            0    1976.4511    23.145211    21.246313    21.530549    10587.656    2023.1849    1837.6444    2068.5239   -25.929364     5.090527   -40.266942   -6708.1697 
47625000    2.6072191   -7020.0505   -7013.3436   -7020.0505            0    1990.6516     23.12109    21.254226    21.546044    10588.176    1931.0611    2104.8694    1936.0242    13.708519   -35.588653    -16.91633   -6705.9518 
47626000    2.6469549    -7020.217   -7013.4079    -7020.217            0    1979.2429    23.097782    21.260669     21.56232    10588.701     2143.363    1888.8969    1905.4689    59.074873   -4.9128115    32.861179   -6707.7626 
47627000    2.6459355   -7020.2845    -7013.478   -7020.2845            0     1991.369    23.076923    21.268408    21.573607    10588.529    2178.3335    1962.5478    1833.2258     -28.3477    32.745239    62.282454   -6705.9651 
47628000    2.5782949   -7019.9597   -7013.3272   -7019.9597            0    1983.1731    23.067714    21.273944    21.578671    10589.544     2145.329    1947.5126    1856.6776     111.1879   -37.217292    45.108177   -6707.0506 
47629000     2.606132   -7019.6507   -7012.9466   -7019.6507            0    1970.0328    23.063954    21.278431    21.578196    10589.818    2313.5844    1769.2282    1827.2857    44.486319    17.473182    60.661422   -6708.6915 
47630000    2.3790803   -7019.9167   -7013.7967   -7019.9167            0    1985.2082    23.075366    21.268938    21.574705    10588.618    2068.6442     2078.266    1808.7145    31.657095    101.35608    57.982933   -6707.2326 
47631000    2.4836716    -7020.399   -7014.0099    -7020.399            0     1976.195    23.083233    21.270028    21.567232    10589.101    2173.9147     1800.151    1954.5193    38.927898   -32.960523    11.314117   -6708.8238 
47632000    2.8331289   -7020.4886   -7013.2005   -7020.4886            0    1971.7709    23.101119    21.264955     21.55546    10588.996    2146.4831    1910.7193    1858.1105   -46.414323    15.704919    9.3405646   -6708.7006 
47633000    2.6282332   -7020.0978   -7013.3369   -7020.0978            0    1951.7764    23.130663    21.251576    21.540671    10588.597    1785.6211    2150.5963    1919.1116    37.592817    39.676761   -22.990662   -6711.9361 
47634000    2.4575449    -7020.147   -7013.8252    -7020.147            0    1998.0095    23.143469    21.245241    21.531065    10586.579    1992.9789     1915.157    2085.8925    5.5513903   -100.89001   -99.173589   -6705.3437 
47635000     2.383098    -7019.749   -7013.6186    -7019.749            0    2005.6948    23.166865    21.230343    21.523407    10586.083    1803.5924    2154.9498    2058.5422    -137.5372    48.056361   -40.497095   -6703.9651 
47636000    2.7544789   -7020.0242   -7012.9385   -7020.0242            0    2012.6755    23.179592    21.229272    21.510854    10585.187    1826.4397    2083.7846    2127.8021   -87.023228   -58.264921   -75.107062   -6702.2335 
47637000    2.5248503   -7019.8518   -7013.3568   -7019.8518            0     2006.966    23.180243    21.233321       21.505    10584.622    1834.4109     2033.531     2152.956   -43.935457   -81.289133   -78.765486   -6703.5498 
47638000    2.4656665   -7019.9517   -7013.6089   -7019.9517            0    2001.5133    23.173052     21.23375    21.512846    10585.413    1743.4566    2196.0565    2065.0269   -99.810922    17.260788   -65.231976   -6704.6205 
47639000    2.5683863   -7020.2539   -7013.6468   -7020.2539            0    1992.0969     23.15803     21.23759     21.52585     10586.86    1988.7533      1933.54    2053.9974    -56.39624   -48.170234   -80.800198   -6706.0701 
47640000    2.7365554   -7020.5942   -7013.5546   -7020.5942            0    1975.2807    23.148968    21.242452    21.531815    10588.073    1852.2833    2045.5436    2028.0151    18.840023     -7.19704   -7.6027368   -6708.5393 
47641000    2.5923439   -7020.3253   -7013.6566   -7020.3253            0    1993.7214    23.126987    21.251014    21.542243    10587.408    1931.1908     2081.273    1968.7004    1.5926442    3.3537027   -25.393739   -6705.8131 
47642000    2.6641853   -7020.2882   -7013.4347   -7020.2882            0    1973.6997    23.101824    21.264803    21.554219    10588.634    2152.6005    1774.8132    1993.6855     10.40595    65.223365    34.464541   -6708.6474 
47643000    2.6498828   -7020.3333   -7013.5167   -7020.3333            0    2016.0887    23.089949    21.264202    21.562781    10587.096    1985.8551    2122.6474    1939.7638    85.344338    50.477375    68.903345   -6702.2287 
47644000     2.632613   -7020.2614   -7013.4892   -7020.2614            0    1998.8883    23.068603    21.274877    21.576255    10589.231    2259.7581    1852.3376    1884.5691    61.734122    70.021556    94.312711   -6704.7947 
47645000    2.7442451    -7020.155   -7013.0956    -7020.155            0    2016.6695    23.066354     21.27245    21.580257    10588.954    2221.6036    1872.6368    1955.7681    36.230244    2.4304161    87.234702   -6701.6633 
47646000    2.5901738   -7020.2417   -7013.5787   -7020.2417            0    1980.9988    23.071202    21.271087     21.57899    10589.879    2032.0073    2043.0329    1867.9562    84.236357    68.071393     73.35722   -6707.6282 
47647000    2.4761673   -7020.0894   -7013.7196   -7020.0894            0    1999.0015    23.078449    21.270464    21.571004    10588.976    2285.4553    1805.0988    1906.4506    44.620391    34.901364    74.724399   -6705.0151 
47648000    2.5678124   -7020.4823   -7013.8767   -7020.4823            0    2007.0207    23.101292    21.259789    21.557761    10587.633    1963.7172    2048.4341    2008.9109    48.248575     1.612546    2.4235278   -6703.9731 
47649000    2.7035881   -7020.2303   -7013.2755   -7020.2303            0     2004.768    23.124579    21.252346     21.54239    10587.041     1943.118    2021.0684    2050.1178    -45.65048    76.536302    35.487084    -6703.737 
47650000    2.5719581   -7020.2086   -7013.5924   -7020.2086            0    1992.8152     23.14998    21.242261    21.528398     10586.76    1960.2603    1929.9395    2088.2458   -35.001438    5.2594012    38.899042   -6705.9076 
47651000    2.5705992   -7019.7764   -7013.1637   -7019.7764            0    2010.3918    23.169634    21.231435    21.520005     10586.22    1673.3337    2225.4668    2132.3749    55.131132   -47.092726   -25.987499    -6702.781 
47652000    2.4939777   -7020.1702   -7013.7546   -7020.1702            0      1995.55     23.17738    21.230166     21.51429    10586.313    1840.8128    2007.9224    2137.9149   -96.325172    5.5549825   -29.247174   -6705.6606 
47653000    2.5686445   -7019.6404   -7013.0327   -7019.6404            0    1990.5419     23.18274    21.231329    21.508421    10586.453    1778.6448    2065.9586    2127.0222   -111.90681   -37.148428   -68.214784   -6705.7078 
47654000    2.5999699   -7020.1175   -7013.4293   -7020.1175            0    2010.8083    23.171332    21.239169     21.50841    10585.146    1796.3558     2070.168    2165.9012   -11.708151   -57.630717    -62.74286   -6703.0138 
47655000    2.4544316   -7020.1172   -7013.8033   -7020.1172            0    1997.8209    23.151446    21.246422    21.522098    10586.405    1993.2502    1901.5271    2098.6853    -62.27625    9.1794176    5.4945198    -6705.356 
47656000    2.4682179   -7020.4792   -7014.1299   -7020.4792            0    2017.7827    23.134135    21.244762    21.540316    10586.617    1888.2393    2168.2534    1996.8555   -28.675783   -7.8078182    5.9001771   -6702.5944 
47657000    2.5887258   -7020.3706   -7013.7112   -7020.3706            0    1994.4097    23.106134    21.261408    21.553397    10588.514     2075.941    1830.7776    2076.5106    61.332743   -4.1894142    11.477223   -6705.7292 
47658000    2.6341602   -7020.5378   -7013.7616   -7020.5378            0    2008.1242     23.08281    21.270297    21.565385    10588.135    2162.0963     1913.276    1949.0003     10.80657    38.816231    134.16375   -6703.6729 
47659000    2.6014436   -7020.0774   -7013.3853   -7020.0774            0    1997.3694    23.072256    21.273403    21.573419    10588.782    2070.4395    2005.5867    1916.0819    54.872787    80.165485    111.89277   -6704.9385 
47660000    2.5402477   -7020.0753   -7013.5407   -7020.0753            0    1996.8812    23.061446    21.279632    21.577053    10588.703    2261.2273    1756.6864    1972.7299    99.668364    20.972862    102.40037   -6705.1716 
47661000    2.5171035   -7020.2749   -7013.7998   -7020.2749            0    2002.7194    23.064983    21.276873    21.575782     10588.33       2142.8    2015.5558    1849.8026    34.291775    42.154589    97.167035     -6704.54 
47662000    2.6100426   -7020.2468   -7013.5326   -7020.2468            0     1971.856    23.086359    21.267691     21.56718    10589.346    2117.4253     1907.804    1890.3388    83.027377    45.167202    37.843891   -6709.0095 
47663000    2.5957599   -7020.2265   -7013.5491   -7020.2265            0     1994.683    23.105222    21.259593    21.554892    10587.927    2102.1253    1901.3936      1980.53   0.12109852   -23.871256   -34.293223    -6705.542 
47664000    2.5056155   -7020.2024   -7013.7569   -7020.2024            0    1982.0644    23.128891    21.249801    21.542184    10587.646    1876.5787    2116.9795    1952.6349   -15.015089   -1.1883953   -22.740814   -6707.7064 
47665000    2.5795794   -7020.1824   -7013.5466   -7020.1824            0     1998.596    23.149873    21.244461    21.525697    10586.479    1977.8831    1971.2994    2046.6056   -53.874695   -6.7118682   -80.752895   -6704.9774 
47666000    2.6023731   -7019.7975    -7013.103   -7019.7975            0    1993.2278    23.171917    21.239502      21.5092    10585.967    1767.0791    2058.3489    2154.2553    -92.94996   -83.150181   -70.282089   -6705.3776 
47667000    2.6576045    -7020.319   -7013.4825    -7020.319            0    1992.5862    23.177635    21.232328    21.510393     10585.59    1761.5131    2152.2748    2063.9706   -101.72279   -4.9961572   -108.83919   -6705.8671 
47668000    2.5876786   -7019.8452   -7013.1886   -7019.8452            0    1995.3562    23.168812    21.234459    21.516871     10585.81    1960.2975    1987.7697    2038.0014   -16.318926   -78.543161   -73.241969   -6705.1392 
47669000    2.6546419   -7019.7715   -7012.9426   -7019.7715            0    1993.6414    23.158468    21.237962    21.523748    10586.211    1799.3638    2152.6877    2028.8728   -31.979196   -31.726542   -114.14641   -6705.1462 
47670000    2.6581565   -7020.3548   -7013.5169   -7020.3548            0    1977.2454    23.137137    21.247989    21.535346    10587.156    1976.1243    2009.2503    1946.3617   -39.170931   -12.668002   -64.846285   -6708.2246 
47671000    2.6541884   -7020.3827   -7013.5549   -7020.3827            0    1971.8265    23.107645    21.261636    21.551524      10588.4    2042.9181     1924.303    1948.2585     73.94237   -25.982137    6.9246353   -6709.0636 
47672000    2.7033578   -7020.3336   -7013.3793   -7020.3336            0    1974.2361    23.084899    21.266997    21.568685     10589.07    2072.2339    2009.8677    1840.6067     55.35431    8.5604239    3.6769346   -6708.4966 
47673000    2.5216511   -7020.0093   -7013.5225   -7020.0093            0    1977.0255    23.065849    21.276556    21.578443    10589.877    2292.3363    1832.9289    1805.8113     4.088645    30.161132    73.102285   -6708.1857 
47674000    2.5705327   -7020.3082   -7013.6956   -7020.3082            0     1994.616    23.063892    21.274491    21.579157      10588.3    2157.3324    1971.1006    1855.4151    77.024198   -7.6277746     13.68177    -6705.688 
47675000    2.5147359   -7019.9801   -7013.5111   -7019.9801            0     1947.662    23.070758    21.276257    21.574931    10590.257    2218.3109    1803.4907    1821.1844     76.32898   -7.1588367    78.199487   -6712.6985 
47676000    2.5735417   -7020.4915   -7013.8712   -7020.4915            0    1984.6773     23.09047     21.26375    21.565105    10588.251    2160.5149    1939.6793    1853.8377   -3.6861917    52.340859     64.64398   -6707.3998 
47677000    2.6706863   -7019.8525   -7012.9823   -7019.8525            0      2003.79    23.117457    21.251562    21.550333    10587.292    1825.1534    2181.7668    2004.4499     60.95028   -2.9703101    9.8204276   -6703.5875 
47678000    2.6177327    -7020.068   -7013.3341    -7020.068            0    1981.4769    23.140466    21.245557    21.536134    10587.854    2008.7684    1875.0016    2060.6607   -36.945343   -44.724378    25.256487   -6707.3683 
47679000    2.6226342   -7020.1986   -7013.4521   -7020.1986            0    1988.5521    23.162627    21.236433    21.521816      10586.4    1904.1363    2043.8421    2017.6779   -67.184089   -42.916096   -62.817713   -6706.4359 
47680000    2.5037679   -7019.6897   -7013.2489   -7019.6897            0    2004.7833    23.178407    21.228455    21.512813    10585.202    1701.2736    2213.9778    2099.0986    -11.26563   -97.433107   -124.61402   -6703.7618 
47681000    2.4882298   -7019.9401   -7013.5392   -7019.9401            0    1976.7836    23.178693    21.233009    21.512087    10587.247    1898.2001    1946.6854    2085.4653   -86.966477   -12.470482   -55.044612   -6708.3157 
47682000    2.5346344   -7019.6027   -7013.0826   -7019.6027            0    2003.3789    23.168581    21.235318    21.515666     10585.54    1806.2033    2129.1661    2074.7673   -42.906844   -35.025281    -60.40754   -6703.8024 
47683000    2.5055673   -7020.1522   -7013.7068   -7020.1522            0    1983.1374    23.153813    21.244553    21.521697    10586.359     1873.844    1996.0374    2079.5307   -15.748882   -17.775299   -40.709111   -6707.5279 
47684000    2.5416657   -7020.2408   -7013.7025   -7020.2408            0    1980.4013    23.124061    21.253862    21.542941     10587.83    2027.5487    1964.1881     1949.467   -52.568969    6.7979225   -40.733763   -6707.9035 
47685000    2.7142009   -7020.2099   -7013.2278   -7020.2099            0     1983.821    23.096526    21.259951    21.564102    10588.643    1989.8805    2088.9388    1872.6437    51.273143    18.620042    1.3104571   -6706.8772 
47686000    2.6473758   -7020.0975   -7013.2873   -7020.0975            0    1995.4282    23.080128    21.268286    21.570735     10588.53    2263.0339    1803.2061    1920.0446    35.964169   -13.713284     54.79947   -6705.1476 
47687000    2.5982682   -7020.6531   -7013.9692   -7020.6531            0    1965.5369    23.069244    21.273058    21.578246    10589.597    2180.6519    1971.3524    1744.6064    22.070594    12.339254    3.9914207   -6710.4148 
47688000    2.7269342   -7020.1448   -7013.1299   -7020.1448            0    1965.2344    23.069601    21.272392    21.580101     10590.34    2169.3392     1925.671    1800.6931     70.71952   -22.988166    49.909339    -6709.601 
47689000    2.5124506   -7020.3469   -7013.8837   -7020.3469            0    1973.3497    23.074987    21.267388    21.577707    10589.145    2268.8857    1816.5366    1834.6267    25.748729    28.849826    48.501073   -6709.1358 
47690000    2.6819575   -7019.8812    -7012.982   -7019.8812            0    1988.7599    23.103015    21.259606    21.557203    10588.057    1944.9887    2124.1652    1897.1258   -32.637323    33.246705   -8.3318385   -6705.8858 
47691000     2.699617   -7020.0809   -7013.1363   -7020.0809            0    1974.9333    23.131292    21.253735    21.535719    10587.527    1947.6396    1911.4387    2065.7216    44.775306   -4.5762225   -3.2430608   -6708.1903 
47692000    2.6534277   -7020.1092   -7013.2834   -7020.1092            0    2003.1486    23.150987    21.243474    21.526405    10586.845    1871.6053     2066.336    2071.5045   -17.374184    19.777028    -34.48501   -6704.0007 
47693000    2.6381364   -7020.1733   -7013.3869   -7020.1733            0    2002.0158    23.167253    21.232714     21.52183    10586.667    1766.8925    2124.4638    2114.6912   -128.99662   -8.5604044   -60.487831   -6704.2843 
47694000    2.6088981   -7019.9663    -7013.255   -7019.9663            0    1992.7773    23.174498    21.231447    21.516128     10586.54    1898.8224     1953.096    2126.4135   -101.38441   -83.817991    -51.03661   -6705.5825 
47695000    2.5754285   -7019.6887   -7013.0636   -7019.6887            0    1992.7213    23.179494    21.232058    21.509279    10585.757    1674.6184    2155.5396    2148.0059   -45.561875   -23.289284   -40.838097   -6705.4225 
47696000    2.6445388   -7020.2918   -7013.4889   -7020.2918            0    2004.3671    23.170045    21.238352    21.510962    10585.406    1825.6992    2032.8581     2154.544   -49.987872    41.821093   -41.748983   -6704.0601 
47697000    2.7133793   -7020.4373   -7013.4572   -7020.4373            0    2004.4295    23.161344    21.240377    21.518118     10585.96     1884.432    1966.3397    2162.5169 -0.0070527912   -14.674131   -31.992486   -6704.0027 
47698000    2.5998586   -7019.8833   -7013.1953   -7019.8833            0     2022.881      23.1447    21.241067    21.533691    10586.353    1794.5173    2199.1454    2074.9803    -1.289017  -0.59455211    15.838792   -6700.8805 
47699000    2.6212081   -7020.0208   -7013.2779   -7020.0208            0    2004.7838    23.120882    21.252949    21.546516    10587.676    2131.0951     1829.978    2053.2784    3.7238981    22.291141    80.500602   -6703.7184 
47700000    2.6074497   -7020.3587   -7013.6512   -7020.3587            0    2008.2423      23.1036    21.257806     21.55721    10587.432    2055.7705    1952.7607    2016.1956    56.572754    49.189296    69.532784   -6703.5649 
47701000    2.5818563   -7019.9497    -7013.308   -7019.9497            0     2010.579    23.088264    21.263319    21.566738    10587.826    1986.6426    2079.4111    1965.6834     85.70807    33.480228    114.67462   -6702.8493 
47702000      2.51501   -7019.9371   -7013.4674   -7019.9371            0    1999.8987    23.071251    21.276826    21.570354     10588.52    2368.0152     1702.896    1928.7848   -13.033623    32.489583    108.23954   -6704.6376 
47703000    2.5479646   -7020.5099   -7013.9554   -7020.5099            0    1980.3125    23.067463     21.27382    21.578804    10589.433    2056.0115    2009.4813    1875.4448    112.21164    30.462925    81.901587   -6708.1238 
47704000    2.5375627   -7020.0384   -7013.5107   -7020.0384            0    2000.3248    23.069702    21.273597    21.576559    10589.247    2137.5004    1924.7754    1938.6987    75.867683    76.559007    76.923215   -6704.5939 
47705000    2.4696583   -7020.0158   -7013.6628   -7020.0158            0    1999.4473    23.076308    21.270142    21.573202    10588.912    2289.8151    1794.1542    1914.3727    19.944157    34.217036    131.24046   -6704.8913 
47706000    2.4350105   -7020.0508   -7013.7869   -7020.0508            0    1991.4187     23.09223    21.259592    21.566894    10587.866    1920.1698    2091.2204     1962.866    92.311781    38.229149    87.766924   -6706.2857 
47707000    2.5164079   -7020.3599   -7013.8866   -7020.3599            0    1997.1233    23.106127    21.259025    21.555189    10588.205    2101.4675    1857.3663    2032.5361   -10.677059    48.804753    56.051384   -6705.4947 
47708000    2.6286202   -7020.1371   -7013.3751   -7020.1371            0    2006.1598    23.127218    21.250847    21.542511    10587.562    1968.3057     1996.042    2054.1315   -31.856472    50.155153    44.067279   -6703.6065 
47709000    2.6296455   -7020.0091   -7013.2445   -7020.0091            0    2006.4428    23.147847    21.241018    21.530398    10586.149    1802.2994    2082.1099     2134.919    64.333256   -11.797946    12.104415   -6703.4736 
47710000    2.5458844   -7020.1462   -7013.5971   -7020.1462            0    1994.8587    23.161212    21.241894    21.517564    10586.384    1918.8861    1907.2986    2158.3914   -41.566551    30.519431   -29.121665   -6705.6078 
47711000    2.5071138   -7019.8038   -7013.3544   -7019.8038            0    1997.7439    23.179213    21.232732    21.509899    10586.269    1632.1701    2252.0268    2109.0349   -145.32006    26.760747   -71.865276    -6704.923 
47712000    2.5610182   -7020.3591    -7013.771   -7020.3591            0    1997.3358     23.17803    21.234724    21.508571    10586.069    1832.0785    1950.7937    2209.1351    4.8806593   -112.31436   -38.007893   -6705.4084 
47713000    2.6134063    -7020.353   -7013.6301    -7020.353            0    1996.9936    23.171028    21.236276    21.513489    10586.064    1855.7918    1993.7657    2141.4233    -65.66309    17.020736   -7.4800876   -6705.3205 
47714000    2.5095038   -7019.9763   -7013.5207   -7019.9763            0    1988.2218    23.163764    21.236169     21.52066     10586.22    1694.7846    2246.1445    2023.7362   -48.122513    25.160908   -71.658455   -6706.5608 
47715000    2.4787165   -7020.3508   -7013.9745   -7020.3508            0    1989.7292    23.141614    21.248411    21.530313     10586.94    2030.8243    1849.6958    2088.6677    66.074905   -71.964427   -10.528576    -6706.761 
47716000    2.5972393   -7020.3423    -7013.661   -7020.3423            0    2000.0989    23.122113    21.252927    21.544943    10587.456    1989.6273     2041.444    1969.2256   -27.972577   -15.836351    38.207681   -6704.8314 
47717000    2.6969288   -7020.6206   -7013.6829   -7020.6206            0    2005.5384    23.102597    21.260571    21.555392    10587.457    2039.7117    2010.2336    1966.6699    23.248082    45.251762   -3.9819896   -6704.0133 
47718000    2.7017755   -7020.3078   -7013.3576   -7020.3078            0    1982.0965    23.083354    21.269068     21.56742    10588.771    2150.8917    1907.6151    1887.7828     69.37901   -34.495443   -31.395316   -6707.2696 
47719000    2.5723456   -7020.1487   -7013.5315   -7020.1487            0    1974.3732    23.067819    21.273345    21.578526    10589.223    2128.7557    2059.8313    1734.5327    55.641533    31.553011    78.836288   -6708.6232 
47720000    2.4556911   -7020.1466   -7013.8295   -7020.1466            0    1977.6072    23.064219    21.274699    21.580559    10589.242    2331.4243    1774.4155    1826.9818    72.865039    31.092498    59.096985   -6708.4213 
47721000    2.5475014   -7020.1725   -7013.6192   -7020.1725            0    1973.5218    23.073373    21.269593    21.576785     10589.05    2080.4261    1999.8891    1840.2501    79.405553   -31.766935   -9.5860515   -6708.8474 
47722000    2.5674703   -7020.3987    -7013.794   -7020.3987            0    1980.1205    23.081796    21.267608    21.570746    10588.962    2104.4208    2028.0314    1807.9095   -28.353964    22.767672     93.50495   -6708.0057 
47723000    2.5764999   -7020.3357   -7013.7078   -7020.3357            0    1973.1489    23.100177     21.26368     21.55588    10588.136    2192.7167    1797.2222    1929.5078    24.311192   -3.2880892   -12.526708   -6709.0198 
47724000    2.6784974    -7020.132   -7013.2417    -7020.132            0    1967.3773     23.12457    21.254119    21.541991    10587.724    1801.7192    2124.2004    1976.2122    13.996315   -30.888487   -88.642619   -6709.4568 
47725000    2.6177273   -7020.4903   -7013.7564   -7020.4903            0    1982.8001    23.145226    21.247166    21.527941    10586.805    1958.3143    2012.0642    1978.0219   -116.96955   -23.658699   -23.532486   -6707.6166 
47726000    2.5616286   -7019.9137   -7013.3241   -7019.9137            0    1987.4988    23.162305     21.23758    21.520283     10586.07    1947.3289    1958.5144    2056.6532   -17.340792   -97.749545   -88.073223   -6706.4801 
47727000    2.5810507   -7019.3511   -7012.7115   -7019.3511            0    1992.4885    23.172864    21.226804    21.520515    10585.636    1748.5137    2240.5554    1988.3964   -37.114953   -54.740686   -164.23225   -6705.1098 
47728000    2.7326547    -7019.959   -7012.9294    -7019.959            0    1974.3026    23.178567    21.228597    21.514867    10586.357    1882.4493    2037.1372    2003.3214   -104.62161   -114.74573   -87.400346   -6708.1146 
47729000    2.6461082   -7020.0179   -7013.2109   -7020.0179            0    1970.4371    23.173386    21.236701    21.510499    10585.881    1788.1141    2070.5109    2052.6862   -37.130499   -74.092565   -114.20642   -6709.0065 
47730000    2.6234329     -7019.74   -7012.9914     -7019.74            0    1967.9294    23.155776    21.244783    21.519109    10586.099    1815.0342    2004.9954    2083.7585   -5.2599381   -47.114976   -89.600946   -6709.1679 
47731000    2.6163794   -7019.8033   -7013.0728   -7019.8033            0      1975.76    23.136729    21.248018    21.534901    10586.765    2025.8945    1946.1759    1955.2097   -63.407474     30.20413   -57.337063   -6708.0212 
47732000    2.6614342   -7020.1585   -7013.3121   -7020.1585            0     1967.612    23.117598    21.249308    21.554662     10588.36    1907.3525    2184.2129    1811.2706  -0.70997329   0.14801688   -45.399986   -6709.4727 
47733000    2.5825728   -7020.2076   -7013.5641   -7020.2076            0    1976.7388    23.089083    21.268059    21.562749    10588.603    2223.1156    1776.7488    1930.3521    68.380013   -103.82124   -12.280714   -6708.3084 
47734000    2.5995828   -7019.9859   -7013.2987   -7019.9859            0     1967.552    23.071981    21.278306    21.568145    10588.507     2270.208    1852.1488    1780.2992     45.40687    49.761852    5.2736308   -6709.4643 
47735000    2.6360361    -7020.206   -7013.4249    -7020.206            0    1987.3372    23.070729    21.275868    21.571023    10588.132    2047.8038    2108.9936    1805.2142    67.267236   -9.8747655   0.61986005   -6706.5462 
47736000    2.4909335   -7019.8531   -7013.4454   -7019.8531            0    1987.6118    23.069154    21.269108    21.580702    10588.794    2301.1796    1779.8376    1881.8181    19.790603   -23.255921    87.918015    -6706.505 
47737000    2.5081762   -7020.0309   -7013.5788   -7020.0309            0    1987.6444    23.087936    21.256757    21.574667    10588.299    2094.0888    2027.9081    1840.9361    -9.598068    61.973126    27.804803   -6706.6478 
47738000    2.7588533    -7020.095   -7012.9981    -7020.095            0    1970.2703    23.113471    21.252565    21.555976    10588.738    1963.7993    2022.9309    1924.0806    5.1754757   -31.145579  -0.91378664   -6708.7373 
47739000    2.6083182   -7020.0335   -7013.3238   -7020.0335            0    1989.1514    23.135779    21.249341    21.534226    10586.657    2038.6868    1949.3387    1979.4288    4.0358518   -6.2737928   -25.696708   -6706.2077 
47740000    2.5947703   -7019.7592   -7013.0843   -7019.7592            0    1991.0863    23.166016    21.235866    21.517957    10585.768    1752.7281    2149.1533    2071.3775 -0.060356046   -16.536104   -41.179224   -6705.6953 
47741000    2.4771714   -7019.8224     -7013.45   -7019.8224            0     2007.047    23.173794    21.230892    21.514173     10584.98    1890.0507    1999.4825    2131.6077   -44.086509   -76.886249   -22.798276     -6703.62 
47742000    2.5568765   -7019.9877   -7013.4103   -7019.9877            0    1999.4054    23.162833    21.235349      21.5208    10585.454    1833.1318    2107.1056    2057.9787   -99.969675    -25.00611   -63.853756   -6704.7461 
47743000    2.5777195   -7019.7328   -7013.1018   -7019.7328            0    1985.2417    23.127653    21.251427    21.540786    10587.202    1932.8577    2011.7195    2011.1478    17.328183    36.188458    1.6904907   -6706.5735 
47744000    2.6365299   -7020.0829   -7013.3005   -7020.0829            0    1985.2634    23.090844    21.262699    21.565543    10588.113    2182.1129    1848.9908    1924.6865    67.324913   -16.188176    19.971127   -6706.7426 
47745000     2.646523   -7019.6544   -7012.8464   -7019.6544            0    1989.1474    23.066387    21.274092     21.57886    10589.101     2114.139    2030.4718    1822.8313    51.318311    78.431165    74.409064     -6705.66 
47746000    2.5792469    -7020.252   -7013.6171    -7020.252            0    1986.3382    23.069026    21.277305    21.571336    10588.219    2204.7799    1825.1305    1929.1042    61.906252    46.625858    70.453627     -6706.89 
47747000    2.6201838   -7020.0449   -7013.3046   -7020.0449            0    2003.9745    23.088047    21.266845    21.561844    10587.079    2142.3747    1909.8394    1959.7095    66.041988    38.181187    74.611592   -6703.8876 
47748000    2.6481513   -7020.0592    -7013.247   -7020.0592            0     2014.926    23.119699    21.250293    21.548935        10587    1903.9987    2113.8969    2026.8824   -1.3238911    21.088658    39.618792   -6702.1414 
47749000    2.5336694   -7020.0897    -7013.572   -7020.0897            0    2007.6781    23.143602     21.24521    21.531444    10586.811    1974.5122    1925.5375    2122.9846   -43.552271   -3.1076114   -17.376315   -6703.5909 
47750000    2.6795932   -7019.5307   -7012.6377   -7019.5307            0    2014.5692    23.170276     21.23255    21.517068    10585.624    1775.0551    2140.4357    2128.2169   -11.667838    21.858675   -15.463743   -6701.6275 
Loop time of 646.938 on 64 procs for 250000 steps with 1296 atoms

Performance: 66.776 ns/day, 0.359 hours/ns, 386.436 timesteps/s
390.9% CPU use with 16 MPI tasks x 4 OpenMP threads

MPI task timing breakdown:
Section |  min time  |  avg time  |  max time  |%varavg| %total
---------------------------------------------------------------
Pair    | 38.66      | 49.146     | 58.196     |  81.0 |  7.60
Bond    | 1.425      | 1.7516     | 2.3417     |  17.7 |  0.27
Kspace  | 346.68     | 359.49     | 377.63     |  38.8 | 55.57
Neigh   | 0.12739    | 0.1376     | 0.15392    |   2.6 |  0.02
Comm    | 69.765     | 76.551     | 85.897     |  64.7 | 11.83
Output  | 0.45289    | 0.45314    | 0.45449    |   0.1 |  0.07
Modify  | 137.08     | 144.77     | 151.42     |  28.7 | 22.38
Other   |            | 14.64      |            |       |  2.26

Nlocal:        81.0000 ave          98 max          64 min
Histogram: 2 0 2 0 4 2 2 2 0 2
Nghost:        3727.19 ave        3763 max        3693 min
Histogram: 1 0 2 3 3 3 1 1 1 1
Neighs:        26358.6 ave       31837 max       20716 min
Histogram: 2 0 2 0 4 2 2 0 2 2

Total # of neighbors = 421737
Ave neighs/atom = 325.41435
Ave special neighs/atom = 2.0000000
Neighbor list builds = 250
Dangerous builds = 0

unfix		3
unfix		2
unfix		1

write_data	data.final.${pid}
write_data	data.final.0
System init for write_data ...
PPPM initialization ...
  extracting TIP4P info from pair style
  using 12-bit tables for long-range coulomb (../kspace.cpp:340)
  G vector (1/distance) = 0.36792793
  grid = 30 40 32
  stencil order = 5
  estimated absolute RMS force accuracy = 0.0044295481
  estimated relative force accuracy = 1.3339453e-05
  using double precision FFTW3
  3d grid and FFT values/proc = 11832 2400
Last active /omp style is kspace_style pppm/tip4p/omp
WARNING: Not all mixed pair coeffs generated from mixing. Use write_data with 'pair ij' option to store all pair coeffs. (../write_data.cpp:312)

write_restart   restart.lmp.${pid}
write_restart   restart.lmp.0
System init for write_restart ...
PPPM initialization ...
  extracting TIP4P info from pair style
  using 12-bit tables for long-range coulomb (../kspace.cpp:340)
  G vector (1/distance) = 0.36792793
  grid = 30 40 32
  stencil order = 5
  estimated absolute RMS force accuracy = 0.0044295481
  estimated relative force accuracy = 1.3339453e-05
  using double precision FFTW3
  3d grid and FFT values/proc = 11832 2400
Last active /omp style is kspace_style pppm/tip4p/omp
Total wall time: 0:10:47
