LAMMPS (30 Jul 2021)
  using 1 OpenMP thread(s) per MPI task
package omp 0
using multi-threaded neighbor list subroutines
echo both

include		in.partitions
variable        pid world 0
include		in.temp
variable        temperature equal 249.45
variable	tempDamp equal 100.0
include		in.pressure
variable        pressure equal 5125.0
variable        pressureDamp equal 1000.0 # This is 1 ps
include		in.seed
variable        seed world 745823

units		real
atom_style	full
box tilt large
read_restart	restart.lmp.${pid}
read_restart	restart.lmp.0
Reading restart file ...
  restart file = 30 Jul 2021, LAMMPS = 30 Jul 2021
  restoring atom style full from restart
  triclinic box = (-10.637292 -9.2737220 -0.023081095) to (12.617292 12.263720 21.883080) with tilt (-9.2378035 1.8593628 2.6961971)
  4 by 4 by 4 MPI processor grid
  restoring pair style lj/cut/tip4p/long/omp from restart
  restoring bond style harmonic/omp from restart
  restoring angle style harmonic/omp from restart
  1296 atoms
  864 bonds
  432 angles
Finding 1-2 1-3 1-4 neighbors ...
  special bond factors lj:    0        0        0       
  special bond factors coul:  0        0        0       
     2 = max # of 1-2 neighbors
     1 = max # of 1-3 neighbors
     1 = max # of 1-4 neighbors
     2 = max # of special neighbors
  special bonds CPU = 0.284 seconds
  read_restart CPU = 0.642 seconds
include 	in.setup
variable	out_freq equal 1000
variable	out_freq2 equal 10000
variable	out_freq3 equal 1000

timestep	2.0

neigh_modify    delay 7 every 1

include		in.tip4p
# This is TIP4P/Ice

# create groups ###
group ox type 2
432 atoms in group ox
group hy type 1
864 atoms in group hy

# set charges - beside manually ###
set group ox charge -1.1794
Setting atom values ...
  432 settings made for charge
set group hy charge 0.5897
Setting atom values ...
  864 settings made for charge

# ### TIP3P Potential Parameters ###
pair_style lj/cut/tip4p/long/omp 2 1 1 1 0.1577 8.5
pair_coeff 1 1*2 0.000 0.000
pair_coeff 2 2 0.21084 3.1668
bond_style  harmonic
bond_coeff  1 450 0.9572
angle_style harmonic
angle_coeff 1 55 104.52
kspace_style pppm/tip4p/omp 1.0e-5
pair_modify tail yes

thermo          ${out_freq}
thermo          1000
thermo_style    custom step temp pe etotal epair emol press lx ly lz vol pxx pyy pzz pxy pxz pyz enthalpy

restart 	${out_freq3} restart.lmp.${pid} restart2.lmp.${pid}
restart 	1000 restart.lmp.${pid} restart2.lmp.${pid}
restart 	1000 restart.lmp.0 restart2.lmp.${pid}
restart 	1000 restart.lmp.0 restart2.lmp.0


include         in.dump
dump            myDump all atom ${out_freq2} dump.water.${pid}
dump            myDump all atom 10000 dump.water.${pid}
dump            myDump all atom 10000 dump.water.0
dump            myDump2 all dcd ${out_freq2} dump.dcd
dump            myDump2 all dcd 10000 dump.dcd
dump_modify     myDump append yes
dump_modify     myDump2 append yes


variable natoms 	equal  "count(all)"                        # NUMBER ATOMS
variable H      	equal  "enthalpy/v_natoms"                 # ENTHALPY-per-atom
variable Vol      	equal  "vol/v_natoms"                 # volume-per-atom
fix AVG all 		ave/time ${out_freq} 1 ${out_freq} v_Vol v_H file vol_enthalpy.dat
fix AVG all 		ave/time 1000 1 ${out_freq} v_Vol v_H file vol_enthalpy.dat
fix AVG all 		ave/time 1000 1 1000 v_Vol v_H file vol_enthalpy.dat


timer           timeout 10:00:00 every 1000
New timer settings: style=normal  mode=nosync  timeout=10:00:00

fix 		1 all shake 1e-6 200 0 b 1 a 1
       0 = # of size 2 clusters
       0 = # of size 3 clusters
       0 = # of size 4 clusters
     432 = # of frozen angles
  find clusters CPU = 0.152 seconds
fix             2 all nph tri ${pressure} ${pressure} ${pressureDamp}
fix             2 all nph tri 5125 ${pressure} ${pressureDamp}
fix             2 all nph tri 5125 5125 ${pressureDamp}
fix             2 all nph tri 5125 5125 1000
fix             3 all temp/csvr ${temperature} ${temperature} ${tempDamp} ${seed}
fix             3 all temp/csvr 249.45 ${temperature} ${tempDamp} ${seed}
fix             3 all temp/csvr 249.45 249.45 ${tempDamp} ${seed}
fix             3 all temp/csvr 249.45 249.45 100 ${seed}
fix             3 all temp/csvr 249.45 249.45 100 745823


run             250000
PPPM initialization ...
  extracting TIP4P info from pair style
  using 12-bit tables for long-range coulomb (../kspace.cpp:340)
  G vector (1/distance) = 0.36840229
  grid = 30 40 32
  stencil order = 5
  estimated absolute RMS force accuracy = 0.004245652
  estimated relative force accuracy = 1.2785655e-05
  using double precision FFTW3
  3d grid and FFT values/proc = 5168 640
Last active /omp style is kspace_style pppm/tip4p/omp
Neighbor list info ...
  update every 1 steps, delay 7 steps, check yes
  max neighbors/atom: 2000, page size: 100000
  master list distance cutoff = 10.8154
  ghost atom cutoff = 10.8154
  binsize = 5.4077, bins = 7 5 5
  1 neighbor lists, perpetual/occasional/extra = 1 0 0
  (1) pair lj/cut/tip4p/long/omp, perpetual
      attributes: half, newton on, omp
      pair build: half/bin/newton/tri/omp
      stencil: half/bin/3d/tri
      bin: standard
Per MPI rank memory allocation (min/avg/max) = 9.435 | 9.440 | 9.445 Mbytes
Step Temp PotEng TotEng E_pair E_mol Press Lx Ly Lz Volume Pxx Pyy Pzz Pxy Pxz Pyz Enthalpy 
16750000    250.59822   -6285.1047   -5640.4561   -6285.1047            0    4506.7719    23.254583    21.537442    21.906161    10971.574    5105.4336    4359.7488    4055.1332    57.464735   -55.713692   -101.43655   -4919.3313 
16751000    259.66071    -6355.344   -5687.3826    -6355.344            0    5489.6095    23.437268    21.310686    21.829964    10903.286     4972.381    7055.7735    4440.6739     312.0018   -727.68877   -451.96228    -4814.462 
16752000    246.83025   -6317.6131   -5682.6573   -6317.6131            0    4671.9406    23.428724    21.599837    21.739394    11001.364    4060.1108    5123.3129     4832.398   -398.08806   -207.26054   -1566.1212   -4933.0743 
16753000    246.38232   -6311.0618   -5677.2583   -6311.0618            0    5968.1079    23.318957    21.539325    21.649643    10874.066    6178.8305    5011.3641    6714.1292   -188.07851   -866.21142    -473.1001   -4730.7934 
16754000     239.8459   -6336.1544   -5719.1654   -6336.1544            0    4921.6141    23.523449    21.304725    21.810718    10930.673    5071.0762    4762.7381    4931.0279    2059.1749   -982.18631    497.56814   -4934.5979 
16755000    248.97442   -6339.0499   -5698.5784   -6339.0499            0    3776.6521    23.283762    21.616442    21.828361    10986.478    5623.5312    2660.8568    3045.5683     46.34879    680.47963    133.98506   -5093.4586 
16756000    248.32315   -6302.6794   -5663.8832   -6302.6794            0    3977.9631    23.569973    21.367006    21.806254     10982.06    4603.9033    4087.1661    3242.8198    424.07955   -817.24082   -635.16898   -5026.7644 
16757000    246.04976    -6333.707    -5700.759    -6333.707            0    5766.8889     23.35817     21.60539    21.581189    10891.214    5808.1619    5644.7691    5847.7359    183.18336    571.97626   -377.40627   -4784.7625 
16758000    255.75183   -6332.9823   -5675.0763   -6332.9823            0    6070.4406    23.368084    21.436686    21.725493    10883.044    6207.7946    6293.5865    5709.9407   -450.37547    -947.9769    346.49729   -4711.5879 
16759000    260.04971   -6302.2648   -5633.3028   -6302.2648            0    6084.6527    23.241159    21.510233    21.830395    10913.511    6901.5554    5657.2976    5695.1051   -55.181836   -1051.7388    808.20537   -4664.8551 
16760000    249.51158   -6313.6294   -5671.7761   -6313.6294            0    4417.7128     23.48883    21.546974    21.622149    10943.255      4675.92    3953.0157    4624.2028    604.79183   -500.94916   -365.82485   -4966.7261 
16761000    248.05719   -6328.1934   -5690.0814   -6328.1934            0    4947.5108    23.435942     21.54156    21.677728    10943.931    4262.1281    5745.5458    4834.8583   -36.479263   -573.99408   -541.91086    -4900.429 
16762000    258.07858   -6303.2977   -5639.4062   -6303.2977            0    5466.9447     23.36478     21.52008    21.768269    10945.346    5089.0071    5752.0029    5559.8239   -226.56924   -868.98789    -494.9016   -4766.7362 
16763000    259.64489    -6328.159   -5660.2383    -6328.159            0    5101.2628    23.317596    21.645707    21.624602    10914.495     4896.753    4885.2064    5521.8292    810.73476    553.25751    1053.1208   -4848.2361 
16764000    245.67073   -6354.1139   -5722.1409   -6354.1139            0    4847.5778    23.528142    21.378339    21.699661    10914.769    3867.1188    6290.4579    4385.1567    636.75904   -132.61796   -1225.6638      -4950.5 
16765000    251.04872   -6313.6303   -5667.8228   -6313.6303            0    6248.6442    23.227007    21.405713    21.908986    10892.943     7102.559    6562.9008    5080.4727     1226.343   -8.8248476    298.81274   -4675.1482 
16766000    248.76438   -6319.5661   -5679.6348   -6319.5661            0     5929.131    23.263016    21.448819    21.770564    10862.733    6643.1564    6929.2377    4214.9988    144.92055    100.80487   -514.87809   -4740.3311 
16767000    249.16173   -6324.3576   -5683.4042   -6324.3576            0    4938.2012    23.497788    21.411852    21.727696     10931.88    4899.8223    4527.4885    5387.2928    656.26985     259.2482    202.58186   -4896.1055 
16768000    246.46396   -6349.1476    -5715.134   -6349.1476            0    4296.3875    23.362595    21.689399    21.622441    10956.537    3948.4939    3157.2951    5783.3734    1079.4249   -258.37692   -22.918638   -5028.6149 
16769000    247.38061   -6327.1605    -5690.789   -6327.1605            0    4630.7916    23.470773    21.216835     22.03655    10973.662    4856.2601    6069.6408    2966.4737   -184.17298   -1020.9384   -204.53678   -4949.6789 
16770000    244.07435   -6330.9579   -5703.0915   -6330.9579            0    4839.5626    23.283001    21.547147    21.771999    10922.625    5415.7434    4993.7532    4109.1911     1241.598   -963.89604   -552.67881    -4932.172 
16771000    237.22851   -6326.4777   -5716.2218   -6326.4777            0    4496.0611    23.419856    21.590528    21.651819    10948.178    4934.0539    4516.3783    4037.7511    -451.5794    -375.6263   -417.28082    -4998.345 
16772000    248.70255   -6319.6704   -5679.8983   -6319.6704            0    4303.0474    23.392018    21.436176     21.80591    10934.256    5519.3898    4021.8809    3367.8714   -1116.8619   -1370.9394    413.35515   -4993.7132 
16773000    245.95653   -6337.4286   -5704.7204   -6337.4286            0    4306.5941    23.159445     21.68796    21.835255    10967.436    4583.8893     3800.256     4535.637    686.39852    62.267252    2006.8216   -5015.8858 
16774000    256.17789   -6279.8659   -5620.8639   -6279.8659            0    4407.7988    23.618975    21.429063    21.716177    10991.263    4645.9144    4147.2134    4430.2685    140.72778    -1354.629    41.463422   -4914.3101 
16775000    252.08982   -6297.3521   -5648.8664   -6297.3521            0    5637.9352    23.390711    21.492576    21.788316    10953.567    5724.5085    5679.6408    5509.6564    58.508083    322.03475    -388.8756   -4748.2258 
16776000    257.76375   -6312.0508   -5648.9693   -6312.0508            0     5113.519    23.497005      21.5101    21.638821    10936.756     5270.768    3984.8233    6084.9659   -889.49189   -437.24666   -119.02043    -4833.356 
16777000    255.35871   -6317.5577   -5660.6629   -6317.5577            0    4683.6668    23.446833    21.357186    21.796938    10914.999    4278.6362    5008.6989    4763.6654    549.31125    1269.3549    408.66401   -4915.0978 
16778000    241.53251   -6344.2281   -5722.9004   -6344.2281            0    4022.4232    23.267321    21.546083    21.854553    10956.116    3788.9589    5513.5477     2764.763   -172.43504    491.48008    716.94656   -5080.1827 
16779000    243.14405   -6333.4558   -5707.9825   -6333.4558            0    4263.7368    23.354786    21.513424    21.811303    10958.902    4198.4115    5476.7382    3116.0607   -1062.4425   -80.648851   -1030.6662   -5026.5336 
16780000    261.58217   -6312.3145   -5639.4103   -6312.3145            0    4813.4409    23.501832    21.494185    21.691845    10957.695    5968.7159    4119.0611    4352.5456   -723.96283   -1752.0982   -9.0984781     -4870.19 
16781000    252.00194   -6307.4144   -5659.1547   -6307.4144            0    1884.0562    23.431643    21.706891    21.886304     11131.99    2312.7079    1612.0314    1727.4292    688.41393   -387.00848   -57.765362   -5353.2807 
16782000    250.86051   -6316.6053   -5671.2819   -6316.6053            0    2940.4026    23.561179    21.460709    21.797819     11021.84    3274.5489    2845.5461    2701.1127   -171.21438   -312.54861   -607.22793    -5198.635 
16783000    253.18453   -6334.5513   -5683.2495   -6334.5513            0      4652.57    23.416231    21.439537    21.790659    10939.633    4429.8817    4495.6445    5032.1837    256.80693    548.77135    327.62826    -4940.963 
16784000    242.80716   -6331.5504   -5706.9437   -6331.5504            0    4802.0238    23.294962    21.666108    21.629868    10916.836    4398.7175     4406.312    5601.0418    1678.5872    316.64338   -398.04245   -4942.4094 
16785000    246.39793   -6346.0839   -5712.2403   -6346.0839            0    5558.3691    23.568121    21.245107    21.675593    10853.126    4440.1586    6580.2448     5654.704   -287.21138    848.37323    920.08942   -4832.4521 
16786000    249.64561   -6355.0283   -5712.8302   -6355.0283            0    5501.5551    23.307589    21.504769    21.746587    10899.918    5198.3313    6127.0408    5179.2933    367.84915   -1058.6666    406.63708   -4838.2803 
16787000    257.58284   -6340.3653   -5677.7491   -6340.3653            0    6224.4309    23.366093    21.443498    21.672447    10858.996    6536.6137    6807.0753    5329.6036   -76.430563   -1307.6366   -1324.5413   -4692.0027 
16788000    252.97712   -6323.4455   -5672.6773   -6323.4455            0    8106.4635    23.339065    21.376296    21.627584    10790.061    7870.8127    7618.8358     8829.742   -1166.3972    120.02287   -1459.1066   -4397.0282 
16789000    254.83636   -6334.6713   -5679.1203   -6334.6713            0    6537.9201    23.229626    21.458618    21.846773    10890.085    7272.5606    7035.4622    5305.7374    263.98717     -451.252   -57.738926   -4640.7632 
16790000    252.28696   -6345.5494   -5696.5565   -6345.5494            0    6004.4283    23.349337    21.355015     21.78642    10863.264    6975.1211    5138.1643    5899.9995    36.580394   -1128.5276    2320.0697   -4745.2776 
16791000    245.65578   -6328.8303   -5696.8958   -6328.8303            0    4072.0849    23.440234     21.69024    21.576784    10970.162    4219.1408    2988.6553    5008.4587   -23.370054    4.5722592   -451.25202   -5045.4088 
16792000    247.93942   -6330.3948   -5692.5857   -6330.3948            0    3981.9352    23.462443    21.495821    21.794929    10992.152    2870.9711     4148.912    4925.9224    920.31127    840.38898    117.57395   -5054.2446 
16793000    249.58422   -6311.7145   -5669.6743   -6311.7145            0    5253.7308    23.488518    21.408728    21.724597    10924.416    5711.9702     5618.102    4431.1202   -153.35987    234.75845   -1292.1733   -4832.6425 
16794000     255.2043    -6332.397   -5675.8994    -6332.397            0     5867.431    23.277468    21.434512    21.792266    10873.059    7572.9433    3561.1094    6468.2402    861.51089   -910.08712    81.743254   -4745.4868 
16795000    232.07375   -6345.3553   -5748.3597   -6345.3553            0    5191.0704    23.416897    21.440646    21.646346    10868.054     4286.893     4748.787    6537.5313    919.46799    187.98686    1262.7893   -4925.5781 
16796000     250.6582   -6316.0742   -5671.2713   -6316.0742            0    5952.2959    23.311382    21.540526     21.73127    10912.128    5168.3435    6095.8379    6592.7062    125.73308   -5.6680996    1256.7367   -4724.0099 
16797000    249.28704   -6349.3352   -5708.0595   -6349.3352            0    6334.8629    23.297501    21.450178    21.802419    10895.444    6015.7188    7897.5511    5091.3187    -4.810192    584.07223    106.90225   -4701.4569 
16798000    252.95613   -6318.9807   -5668.2665   -6318.9807            0    6827.3192    23.344445    21.493155    21.652191    10863.896    6748.9004    6597.3643    7135.6929    1042.6508   -472.95747     84.10751   -4586.5544 
16799000    264.11874   -6343.1729   -5663.7435   -6343.1729            0    6083.9484      23.3185    21.531665    21.685625    10888.052    6780.2892    5620.5852    5850.9708    1074.8891    1097.1578    756.98276   -4697.6669 
16800000    257.88105   -6340.0228   -5676.6396   -6340.0228            0    7593.6172    23.288949    21.308743    21.786323    10811.642    7698.8445    8239.0288    6842.9783     -11.8842   -159.66223   -518.13407    -4479.303 
16801000    254.43642   -6303.2038   -5648.6816   -6303.2038            0     4693.156    23.319481    21.555517    21.736779    10926.285    4491.8039    5561.0998    4026.5643   -235.19678    30.957084    81.717368   -4900.8335 
16802000    247.57269   -6335.8266   -5698.9609   -6335.8266            0     4919.739    23.633114    21.410347    21.575602    10917.107    3369.7406    4978.4504    6411.0258   -891.13942   -544.06869    409.59693   -4915.6656 
16803000    248.21729   -6349.6018    -5711.078   -6349.6018            0    5142.8153    23.312063    21.474141     21.81756    10922.013    5339.3913    5256.9758    4832.0788   -364.92344   -1494.4201    621.92977   -4891.8977 
16804000    242.79288   -6293.0291   -5668.4592   -6293.0291            0     4533.007    23.314726    21.504328    21.858194    10958.988     4919.775    5321.7385    3357.5075    110.43864   -1744.1489   -524.55374   -4943.9687 
16805000    255.60004   -6337.4652   -5679.9496   -6337.4652            0    5243.3161    23.472759     21.54979    21.570978    10911.313    5929.4253    3470.6123    6329.9106   -2021.5196    237.85751   -808.79937   -4845.5791 
16806000    257.70718   -6305.4036   -5642.4676   -6305.4036            0    6255.4801    23.479579    21.439315    21.566141    10856.096     5451.972    6580.9848    6733.4834    968.03555    833.80692   -158.19076   -4652.0686 
16807000    263.48414    -6360.065   -5682.2681    -6360.065            0    4879.8088    23.307119    21.417543    21.886517    10925.338    6051.3523    4537.2556    4050.8185    -992.6056    766.39783   -92.147851   -4904.7445 
16808000    243.02077   -6313.8657   -5688.7096   -6313.8657            0    5919.2246    23.319307    21.409777    21.841695     10904.71     6315.419    6451.9347      4990.32   -238.89711     357.5653   -420.57459   -4747.3516 
16809000    257.24632   -6335.1694   -5673.4189   -6335.1694            0    5485.3634    23.464533    21.398843    21.653838    10872.692    5219.4916    5904.6777    5331.9209    384.93194    565.81336    704.60272   -4803.6209 
16810000     240.4642   -6336.1127   -5717.5332   -6336.1127            0    5185.1994    23.252247    21.557216    21.750703     10902.62    6345.6014     4751.111    4458.8858   -386.69372   -576.40401    152.47357   -4893.0682 
16811000    249.19222   -6325.1368    -5684.105   -6325.1368            0     3894.893    23.369258    21.529849    21.818746     10977.81    4983.2657    3652.1695    3049.2439   -840.38082    134.97545   -371.14295   -5060.5322 
16812000    249.71944   -6316.0917   -5673.7037   -6316.0917            0    3723.3979    23.409139    21.511998    21.859669    11008.034    2981.4632     4948.871    3239.8597   -20.490648    859.94345   -740.52797   -5075.9461 
16813000    260.95456   -6315.6127    -5644.323   -6315.6127            0    4295.7292    23.370188    21.603604    21.753968     10983.15    4574.8643    3929.2934    4383.0298   -535.27197    142.23357    1189.3259   -4956.2419 
16814000    244.81209   -6326.4286   -5696.6644   -6326.4286            0    3873.6668     23.45175    21.479103    21.832579    10997.563    3897.4936    4031.2148     3692.292   -1182.3426    847.79453    79.292252    -5075.374 
16815000    231.21263   -6331.0317   -5736.2513   -6331.0317            0    5664.3395    23.358096      21.3965    21.855748    10923.099    5463.0304     6447.566     5082.422   -596.76372    2241.1217    95.069013   -4833.9096 
16816000    259.61358   -6324.4312   -5656.5911   -6324.4312            0    4322.1752    23.351915    21.486888    21.841466    10959.174    4881.8308    4405.8873    3678.8075    119.40848    554.33061   -818.63252   -4965.7852 
16817000    239.61032    -6339.064   -5722.6811    -6339.064            0      5997.46    23.298614    21.465989    21.733014    10869.284    5877.3585    5236.0505    6878.9708    477.29544    110.51683    1120.7266   -4771.9795 
16818000    243.48256   -6331.5768   -5705.2328   -6331.5768            0    5262.4023     23.36435    21.507472    21.717965    10913.453    6438.4739    3585.2418    5763.4911   -2115.9025    -104.5212    654.04557   -4867.6609 
16819000    242.86838   -6360.9708   -5736.2067   -6360.9708            0    5457.7935    23.277353    21.420089    21.840999    10889.987    6277.6983    4698.9552    5396.7271    162.96824   -432.57154   -289.72967   -4869.4039 
16820000    254.29828   -6343.0851   -5688.9182   -6343.0851            0    5346.0536    23.282807    21.519922    21.741042    10893.223    5904.3687    5011.6566    5122.1356   -205.06482   -189.07913    244.15043   -4839.6095 
16821000    241.87017    -6300.413   -5678.2167    -6300.413            0    4201.4276    23.458184    21.517693    21.749413    10978.364    3109.6385     5623.147    3871.4972   -177.85263    260.59204   -341.99016   -5005.5338 
16822000    267.31137   -6310.8166   -5623.1744   -6310.8166            0    4984.9166     23.24069    21.631976    21.788433    10953.961    4665.0693    6113.5289    4176.1515   -1290.8046    563.96919   -207.07186   -4826.8225 
16823000    241.25913   -6328.5179   -5707.8935   -6328.5179            0    6030.7043    23.424139    21.347345    21.747738    10874.808    5574.9871    6638.5949    5878.5309   -681.82265    696.31698    32.991382   -4751.4363 
16824000    253.98093   -6338.6093   -5685.2588   -6338.6093            0    5474.5856    23.157688    21.509082    21.877243    10897.069    6701.4418    6141.1329     3581.182    156.92545    869.20935   -321.57269   -4815.2236 
16825000    253.88442   -6340.6253   -5687.5231   -6340.6253            0    5229.6805    23.351109    21.469701    21.812507    10935.511    6102.5989    5649.1544    3937.2884   -1105.1304   -91.405323   -1574.0411   -4853.4768 
16826000    239.82562   -6299.0011   -5682.0643   -6299.0011            0     5188.889    23.439284     21.36514    21.779617    10906.875    5108.0511    5360.2554    5098.3606     159.4566   -457.20245   -1415.1774   -4856.6906 
16827000    246.69371   -6339.5831   -5704.9785   -6339.5831            0     4437.832    23.263423    21.652553    21.707071    10934.123    4772.8874    4827.1386    3713.4701    370.28086   -406.28358   -397.84531   -4997.3086 
16828000     253.9301   -6295.2748   -5642.0551   -6295.2748            0    4104.1029    23.696301    21.165204    21.951783    11009.632    4518.3335    4264.7921    3529.1831   -1236.2208   -30.433512    379.59729   -4983.0832 
16829000    252.26554   -6361.7477   -5712.8099   -6361.7477            0    5309.6637    23.250792    21.564181    21.730683    10895.423    5103.2669    5177.5021    5648.2222    477.84558   -537.61489    520.31776    -4869.112 
16830000    263.38058    -6336.273   -5658.7425    -6336.273            0    5923.6252    23.324472    21.534917    21.746591    10923.107     6139.742    5804.5483    5826.5854   -643.32307   -960.52522    834.92712   -4715.0953 
16831000    241.80917   -6330.9235   -5708.8841   -6330.9235            0    5770.3436    23.488531    21.370286    21.682503    10883.676    7328.9052     4687.327    5294.7987    -345.4395   -1744.0378   -35.433817   -4792.9733 
16832000    252.45778   -6349.3696   -5699.9373   -6349.3696            0    4615.4839    23.286271    21.676507    21.643108    10924.684    4589.6428    4653.4851    4603.3237   -367.25686   0.47354039    8.1767148   -4964.5739 
16833000    247.57897   -6326.8024   -5689.9206   -6326.8024            0    4937.7291    23.531623    21.302573    21.777522    10916.726    4774.1712    5015.1303    5023.8857   -137.69966   -304.53717   -741.51805   -4903.7884 
16834000    265.11362   -6311.6497   -5629.6611   -6311.6497            0     5847.318    23.132347    21.723393    21.740941    10925.107    6578.3576    5383.2873     5580.309   -422.57971    1388.1415      -146.78   -4697.9993 
16835000    252.57703   -6352.0338   -5702.2948   -6352.0338            0    4099.0481    23.615503    21.363092    21.710609    10953.006    2635.7626    5530.9367    4130.4451     71.68094   -138.27837   -1562.4404   -5047.5196 
16836000    245.93289   -6340.5882   -5707.9408   -6340.5882            0    4046.1186    23.315709    21.622673    21.711185    10945.649    4907.3263     3610.965    3620.0645     521.7709   -73.155888   -313.00227   -5062.0546 
16837000    244.01875   -6347.9644   -5720.2411   -6347.9644            0    5116.4443    23.336239    21.501056    21.755199    10915.754     5959.535    4857.3285    4532.4695     1086.969   -838.28123    2.9969511   -4905.7284 
16838000     249.7357   -6323.4775   -5681.0477   -6323.4775            0    2618.7081    23.571332    21.543765     21.73542    11037.578    1418.9297    3407.8674    3029.3272    -386.4378     355.7786    585.26729   -5259.5096 
16839000    242.95226   -6358.1116   -5733.1317   -6358.1116            0    3856.8992    23.246783    21.616934    21.765018    10937.448    3698.8107    4020.5376    3851.3494   -186.16703   -514.76368   -136.67799   -5117.9121 
16840000    245.76919   -6342.8496   -5710.6234   -6342.8496            0    5469.4662    23.361438    21.415206    21.820757    10916.707    5840.8838    6448.1525    4119.3622   -879.33742   -78.836301    636.07017   -4839.8353 
16841000    248.22766   -6356.5994   -5718.0489   -6356.5994            0    5437.1304    23.251956    21.568635    21.653089    10859.305    5353.3244    4854.6004    6103.4665   -556.53732    327.22031    -19.32184   -4856.9607 
16842000    255.35795   -6339.5447   -5682.6519   -6339.5447            0    5262.1015    23.513952    21.400621    21.646513     10892.81    4039.3499    5226.8182    6520.1364    762.72365    927.31941    167.65219    -4846.712 
16843000    255.87447    -6345.097   -5686.8755    -6345.097            0    4578.9145    23.387256    21.567473    21.690078    10940.562    3690.8437    5519.4439    4526.4559     49.59415    821.10208   -342.63295   -4956.2783 
16844000     253.1487   -6333.0773   -5681.8677   -6333.0773            0    5009.2855    23.347629    21.512208    21.787061    10942.749    5386.8611    3541.3959    6099.5996   -567.93165   -523.70207    184.49672    -4882.442 
16845000    238.36863   -6346.4377   -5733.2489   -6346.4377            0    5574.5195    23.433454    21.450975      21.6572    10886.434      5831.17    4860.2761    6032.1125    -429.6809   -612.95606    1205.0178   -4848.1965 
16846000    254.51699   -6312.8417   -5658.1122   -6312.8417            0    5539.6109    23.178948    21.652254    21.746681    10914.147    5849.6125    5386.7739    5382.4462    468.23712    323.19661     123.3669   -4776.3633 
16847000    235.85247    -6294.473   -5687.7569    -6294.473            0    6130.5471    23.411669    21.188706     21.95538    10891.251      6069.71    7052.3499    5269.5815    271.97133   -1193.1091   -284.90754   -4713.9948 
16848000    241.31236   -6347.2335   -5726.4722   -6347.2335            0    5001.6481    23.166128    21.549562     21.84079    10903.357    6385.0496    4178.6971    4441.1974    100.03513   -684.17628   -154.03983   -4931.1387 
16849000    248.95902   -6326.5143   -5686.0824   -6326.5143            0    4182.5932    23.520703    21.531846    21.629433      10954.1    4056.0134    3126.0829    5365.6833    432.22304   -1066.0659   -64.083576   -5017.8951 
16850000    243.36173   -6338.9287   -5712.8955   -6338.9287            0    4766.9576    23.478855     21.49978    21.688359    10948.072    4971.2954     4204.656    5124.9215     705.7373   -2.8657641    523.29714   -4951.7725 
16851000    238.56604   -6332.2482   -5718.5516   -6332.2482            0    4580.1183     23.17293    21.513737    21.998141    10966.872    6059.7953    4593.1897      3087.37   -175.35468    86.295075    508.75538   -4986.0048 
16852000    253.44839   -6343.0813   -5691.1008   -6343.0813            0    3237.5341    23.485849    21.434291    21.856548    11002.641    3263.8745    3901.1775    2547.5502   -450.69482    49.482883   -1115.2897   -5171.5988 
16853000    251.77986   -6306.6283   -5658.9399   -6306.6283            0    5297.8375    23.429253     21.53572    21.683128    10940.566    5656.6803    4278.6887    5958.1434    712.15953    851.52508   -497.60092   -4813.6333 
16854000    247.75456   -6311.0908   -5673.7573   -6311.0908            0    4536.1213    23.430756    21.503403    21.757489    10962.315    5188.4616    4163.7476    4256.1546    892.48161    -296.4146    738.82224   -4948.5489 
16855000    251.59641   -6316.1977   -5668.9813   -6316.1977            0    5141.7494    23.228914    21.597742    21.811146    10942.479    5415.3441    5514.4147    4495.4894   -1405.6475   -745.28195    769.50688    -4848.436 
16856000    242.41098   -6330.6574     -5707.07   -6330.6574            0    4762.8497    23.406708    21.426081    21.752791     10909.33    5418.1788    4653.4156    4216.9545   -491.31615   -870.43066   -453.45133    -4949.294 
16857000    253.16984   -6348.6364   -5697.3724   -6348.6364            0     4827.524    23.413583    21.632141    21.529977     10904.63    3792.4064    3862.0156      6828.15    695.08206    330.75306    373.05956   -4929.6375 
16858000    242.25601   -6323.8367   -5700.6479   -6323.8367            0    3964.5271     23.31548    21.533084    21.826195    10957.933    4111.3082    3812.6356    3969.6375   -1110.7013    1181.2638   -790.46942    -5067.076 
16859000    249.28135   -6349.6492   -5708.3881   -6349.6492            0    3669.9388    23.358052    21.409503    21.956074    10979.887    5025.7588    3014.9749    2969.0828   -192.58547    581.20331     1332.481   -5120.7193 
16860000    248.21649   -6342.3197   -5703.7979   -6342.3197            0    4044.9169    23.505571    21.478875    21.691066    10951.238    3786.0083    3765.6007    4583.1418    1260.1369   -92.356087    328.58931   -5057.7738 
16861000    250.18851   -6325.2419   -5681.6472   -6325.2419            0    4704.3859    23.344719    21.585546    21.696012    10932.805    3927.8816     3668.499    6516.7772   -283.78592    717.53181   -493.38089   -4931.5622 
16862000    243.22274   -6316.6285   -5690.9528   -6316.6285            0     4783.426    23.538773    21.381116    21.705994    10924.307    3738.7213    6009.2902    4602.2666    -53.38167    280.37767     390.5034   -4928.8583 
16863000    248.07296   -6325.8067   -5687.6541   -6325.8067            0    6142.6364     23.30522    21.466216    21.776231    10894.101     7411.248    6394.8166    4621.8445   -925.86051   -776.72742   -483.73446   -4711.7163 
16864000    253.15159   -6322.9336   -5671.7166   -6322.9336            0    5348.1366    23.397154     21.48408    21.740049     10927.99    4488.6926    6031.7331     5523.984    87.964922   -571.27285    322.24438   -4819.3652 
16865000    242.74275   -6298.7253   -5674.2844   -6298.7253            0    5563.2443    23.534035    21.512352    21.582565    10926.658    3570.0175     6946.151    6173.5645    1145.7742   -127.36325    -122.8446   -4787.7586 
16866000    244.18477    -6353.969   -5725.8185    -6353.969            0    4994.9207    23.210584    21.525451    21.847957    10915.639     5662.286    4966.9555    4355.5206    1259.2636   -717.25954    4.5912922   -4930.6601 
16867000    232.82661   -6349.5661   -5750.6339   -6349.5661            0    5288.8798    23.432806    21.445595    21.682448    10896.091    4348.3788     5148.694    6369.5666    112.28683    1571.4425   -50.509841   -4910.1869 
16868000    244.67451   -6342.6381   -5713.2278   -6342.6381            0    4561.5547    23.435548    21.582043    21.571311    10910.489     4485.986    3667.9374    5530.7406    94.381939    152.26926   -240.12349    -4987.401 
16869000    249.50544   -6347.0586    -5705.221   -6347.0586            0    4187.8543    23.315195    21.446971    21.905405    10953.586    5336.0295     3333.925    3893.6085    1101.3648   -43.000782    174.74821   -5036.2247 
16870000    239.53873    -6310.199   -5694.0002    -6310.199            0    4484.8802    23.345282    21.442674     21.98618    11005.958       4612.2    4361.3233    4481.1174    1441.3472   -1515.4572    -292.3565   -4974.1294 
16871000    246.23173   -6335.7503   -5702.3342   -6335.7503            0    4756.3126    23.367432     21.60996    21.696124    10955.876    4390.9532    4556.6959    5321.2888   -141.58521   -189.33133   -149.26373   -4942.3696 
16872000    244.68721   -6283.0359   -5653.5929   -6283.0359            0    4581.7399    23.534551    21.462792    21.750423    10986.513     3990.212    5189.7806     4565.227   -507.24193    289.04577   -345.81909   -4919.4744 
16873000    245.78844   -6340.8801   -5708.6043   -6340.8801            0    4487.5785    23.290341    21.631941    21.743858    10954.888    4886.9882    4301.8541    4273.8931   -873.79818    775.87367   -392.28907   -4991.6427 
16874000    241.92589   -6301.8394   -5679.4998   -6301.8394            0    5428.4804    23.504059    21.303373    21.815448    10923.338    4553.1962    6402.2525    5329.9925    1289.5096    1217.3144   -124.13597    -4814.712 
16875000     250.2909    -6295.859   -5652.0009    -6295.859            0    6044.5188    23.272825    21.389825     21.85297    10878.445    5370.7991    5944.4174    6818.3399   -1.2930767     1455.116    99.915742   -4693.0322 
16876000    253.22248    -6341.086   -5689.6866    -6341.086            0    5178.1202    23.309548    21.640355    21.616253    10903.819    4285.1845    4471.9127    6777.2635   -781.30172    548.43936    -79.46445   -4866.2567 
16877000    256.26302   -6355.4869   -5696.2659   -6355.4869            0    3859.2912    23.643793    21.430404    21.661303    10975.696    2463.0286    3162.3485    5952.4965   -436.44571   -106.19214    1826.9782    -5078.512 
16878000    248.77008   -6329.6249    -5689.679   -6329.6249            0    4549.1305    23.220983    21.585495    21.823619    10938.793    5140.2782    4209.4728    4297.6404    307.45929   -1174.5617    414.16239   -4963.9513 
16879000    251.01286   -6293.5221   -5647.8068   -6293.5221            0    4199.8017    23.492252    21.370065     21.83903    10963.869    4823.7086    3828.5618    3947.1346   -558.08727   -603.19815    799.10903    -4976.272 
16880000    244.86386   -6374.5704    -5744.673   -6374.5704            0    4287.5704    23.344439    21.561661    21.689408    10917.252    3497.7308     3322.689    6042.2914    995.97671    1482.7918    620.97666   -5062.0192 
16881000    238.81151   -6347.7346   -5733.4065   -6347.7346            0    5129.1951    23.364803    21.359723    21.906242    10932.654    5106.0106    6020.9186    4260.6561   -620.70533    1417.1975   -751.91789   -4915.5997 
16882000    252.61721   -6312.4036   -5662.5613   -6312.4036            0    4259.3339    23.435534    21.491945    21.837971    10999.245    4295.6494     4259.177    4223.1753    426.56989   -1147.8276    218.53732     -4979.31 
16883000    253.79435   -6334.3233   -5681.4528   -6334.3233            0    4669.8015    23.346235    21.671445    21.592616    10924.712     5245.845    3634.5861    5128.9735    500.45595   -16.878369    531.38765   -4937.4334 
16884000    243.27994   -6356.9642   -5731.1413   -6356.9642            0    4388.6544     23.45947    21.311123    21.907809    10952.758    3835.0772    5386.2556    3944.6305   -281.78714   -733.45513    432.05344   -5030.1208 
16885000    234.71602   -6333.6365   -5729.8438   -6333.6365            0    6164.9003    23.115936    21.540715    21.787247    10848.607     7301.554    6322.8933    4870.2535   -608.00588   -339.65511    301.70209   -4754.4592 
16886000    260.57212   -6338.2851   -5667.9792   -6338.2851            0     6166.183    23.490833    21.395259    21.645011     10878.62    5368.2501    7297.7153    5832.5838   -941.17852    204.44039   -635.32874   -4689.6926 
16887000    248.13438   -6334.1216   -5695.8111   -6334.1216            0    7090.8205    23.453163    21.570698     21.41511    10833.928    7134.3956    6974.7469     7163.319    -75.39077   -139.65973   -1731.8006   -4575.4492 
16888000    241.88499   -6344.3013   -5722.0669   -6344.3013            0    5325.1282    23.296393    21.501614    21.758909    10899.256    5414.8292    4710.7006    5849.8549    750.76118   -375.12573   -231.53249    -4875.614 
16889000    244.16236   -6332.9605   -5704.8677   -6332.9605            0    7188.5751    23.406111    21.301813    21.719481    10829.173    7567.5662    7042.6578    6955.5013     975.3582    45.317606    780.45849    -4569.559 
16890000    255.71406   -6354.7238    -5696.915   -6354.7238            0    4255.4067     23.38334    21.519088    21.745574    10942.115    4259.9824     3795.364    4710.8738    1489.0488   -852.26395   -198.15357   -5017.8392 
16891000    254.53481   -6370.7792   -5716.0039   -6370.7792            0      4085.09    23.457433    21.528879    21.700651    10959.095    3768.7131    3779.5465    4707.0104     511.1743    759.75602   -232.56912   -5063.0956 
16892000    255.68887   -6353.5589   -5695.8148   -6353.5589            0    5254.3518    23.493089    21.462133    21.605474    10893.735    5060.3826      5050.12    5652.5528    1055.1376   -525.57024   -130.89704   -4861.0352 
16893000    237.18799   -6298.7926   -5688.6409   -6298.7926            0    5687.4627    23.237976    21.558273    21.776757    10909.516    6247.7649    5146.1833      5668.44     1038.091   -486.64099   -102.55469   -4783.7423 
16894000    245.24611   -6322.2857    -5691.405   -6322.2857            0    5744.8226    23.372928    21.460456    21.650669    10859.839    5997.0723    5626.6785    5610.7171   -207.73043   -1064.1698    88.748756   -4781.5422 
16895000    257.43406   -6312.3569   -5650.1235   -6312.3569            0    4994.2183    23.432514     21.48379    21.723127     10935.84    4701.5353    6250.0401    4031.0794    615.58393   -767.51667    -711.8665   -4853.6056 
16896000    245.98197   -6335.6341   -5702.8604   -6335.6341            0    4980.9596    23.366464    21.613463    21.585415    10901.286    4107.2162    4815.3028    6020.3598    759.82312    -344.3139   -114.35154   -4910.9671 
16897000    243.60948     -6352.57   -5725.8994     -6352.57            0    3883.5568    23.529484    21.378699     21.79401    10963.036    3290.2476    3753.5859    4606.8368    1673.5702    501.82303     872.6954   -5104.9784 
16898000    252.11881   -6369.3606   -5720.8004   -6369.3606            0    5136.5748    23.240987    21.436287    21.870817    10896.051     4979.246     5084.127    5346.3513    1023.0899   -3.9262955    1041.6233   -4904.5589 
16899000    251.68585   -6302.7022   -5655.2556   -6302.7022            0    4080.9642    23.515068    21.501254    21.633954    10938.202     3224.255    4593.7178    4424.9198    892.00813   -1229.8112    322.81967   -5004.2502 
16900000    244.90855   -6334.6564    -5704.644   -6334.6564            0    6256.6089     23.45611    21.463711    21.603387    10876.337    6063.2131    6259.8675    6446.7463    788.52387   -1714.1072    -1719.237   -4712.2194 
16901000    261.74996    -6333.223   -5659.8871    -6333.223            0    5177.3956    23.239621    21.554786    21.782622    10911.462    6174.9454    4912.6076    4444.6339   -1785.0268   -308.34146    -1162.539   -4835.9954 
16902000    245.18529   -6352.5516   -5721.8273   -6352.5516            0    5568.7376     23.43585    21.401434    21.714169    10890.976    5510.2314    5606.2265    5589.7549    747.98217   -400.76314    -201.2875   -4837.3241 
16903000    259.39717   -6329.6035   -5662.3201   -6329.6035            0    4652.4155    23.448483    21.534547    21.658244    10936.384     4663.903    4447.2257    4846.1178    426.46823   -797.54787   -388.88697   -4920.2787 
16904000    253.66715   -6337.8714   -5685.3281   -6337.8714            0    7360.0586    23.105301    21.537377     21.84747    10871.904    7943.0875    7096.6888    7040.3994    1672.3723   -213.88168    478.18514   -4518.3499 
16905000    242.57862   -6340.5597    -5716.541   -6340.5597            0    5675.2865    23.539913    21.347045     21.71642    10912.666    4586.6157    6375.9178     6063.326   -26.744725    -431.8995   -102.96349   -4813.3189 
16906000    239.22027   -6357.1629   -5741.7833   -6357.1629            0    5886.4272    23.148348    21.697138    21.647576    10872.558    6303.5309    5371.8014    5983.9492   -397.08444    764.49924    550.02052   -4808.4014 
16907000    243.92909   -6337.6339   -5710.1412   -6337.6339            0    5415.7438    23.492315    21.226227    21.936239    10938.576    5030.2208    6961.0161    4255.9946    626.35756    70.548387   -528.38358   -4846.1789 
16908000    244.57804   -6344.2153   -5715.0532   -6344.2153            0    3817.7676    23.368417    21.584485    21.751458    10971.332    4106.8561    3183.3496     4163.097    742.97918   -880.11177   -536.85331   -5104.1889 
16909000    250.42354   -6332.0587   -5687.8594   -6332.0587            0    5235.2419    23.338731    21.644541    21.579776    10901.156     4441.681    4581.4821    6682.5626   -435.69403    260.40049    379.78489   -4855.5493 
16910000    245.95479   -6332.6137     -5699.91   -6332.6137            0    5278.1652     23.43665    21.292386    21.817908    10887.621    4290.6582    6613.9957    4929.8418   -73.960494   -182.80568    111.89013   -4861.8177 
16911000    251.76812   -6370.4151    -5722.757   -6370.4151            0    5479.1007    23.255556    21.534812    21.714392    10874.655    5993.5356    5568.3059    4875.4606    726.91519   -1959.0284    553.87815   -4853.7952 
16912000    256.48823   -6345.1376   -5685.3372   -6345.1376            0    3580.0312    23.657448    21.311674    21.839954    11011.264    1952.2618    5382.2228    3405.6089    1527.5542   -196.18762   -479.13018   -5110.4272 
16913000    246.71871   -6331.4621   -5696.7932   -6331.4621            0    4527.5299     23.37051     21.56146    21.778486     10974.23    5119.6471    4067.0506    4395.8922    473.81854    148.35714   -884.55539   -4972.1716 
16914000    248.23394   -6351.5103   -5712.9437   -6351.5103            0    5467.7232    23.334533    21.482226    21.772095    10913.866    5705.1455    6483.8328    4214.1912    367.07943   -590.69419   -866.96214   -4842.6596 
16915000    250.52033   -6331.8041   -5687.3558   -6331.8041            0    6150.9414    23.440081    21.323416    21.719178    10855.736    4896.0859    7795.5684    5761.1699    465.64953   -568.28767    54.969638   -4713.5402 
16916000     259.2457   -6322.9295   -5656.0357   -6322.9295            0    5065.5539    23.234681    21.704904    21.632892    10909.608    5081.1689    4188.1118    5927.3809   -117.53804    212.39349    2408.8484   -4850.0785 
16917000    253.81913   -6363.7992   -5710.8649   -6363.7992            0    3583.4602    23.474517    21.407869    21.867242     10989.15    3488.4254    4393.2735    2868.6818   -847.27932    419.42743   -254.79393   -5136.5599 
16918000    240.93985   -6288.0481    -5668.245   -6288.0481            0    5186.4054    23.396205    21.522671     21.74992    10952.147    4608.5718    5946.5058    5004.1386     39.78643    1438.5357   -1077.2026   -4839.8421 
16919000    268.42022   -6333.9759   -5643.4813   -6333.9759            0    5196.5255    23.403629    21.479728    21.719185    10918.312    6497.2262     4345.343    4747.0074   -497.53353    342.10817   -637.72819   -4816.0261 
16920000    245.84793   -6319.1853   -5686.7565   -6319.1853            0    6230.5748     23.47869    21.293343    21.753583    10875.482    6000.8717    6803.8217     5887.031   -182.25324    430.15444   -726.76529   -4698.5391 
16921000    248.63364   -6324.0068   -5684.4119   -6324.0068            0     6797.333    23.138668    21.596589    21.649548    10818.632    7924.7773    5477.4152    6989.8065    629.32491   -234.25036     678.2844   -4611.9378 
16922000    247.00843   -6319.9438   -5684.5296   -6319.9438            0    5587.9296    23.378273    21.427358    21.711319    10875.951    5591.5592    4808.7354    6363.4941   -1099.0011     220.5368    1548.7391   -4798.2024 
16923000    244.91202   -6340.3369   -5710.3157   -6340.3369            0    3890.3918    23.327976     21.59326    21.749912    10956.019    3202.1173    3768.9118    4700.1464   -903.55936   -1449.6862   -185.74178   -5088.6999 
16924000     248.8991   -6358.5354   -5718.2576   -6358.5354            0    4399.0017    23.232414    21.613854    21.815563    10954.511    4456.8657     4441.723    4298.4165   -1563.4468    200.90816   -922.06991   -5015.4718 
16925000     240.7669   -6309.6319   -5690.2737   -6309.6319            0    5262.9465    23.636883    21.358171    21.666976    10938.369    4351.4151    7105.1091    4332.3152    597.41882    157.09193   -603.19527   -4850.7027 
16926000    252.01323   -6360.9869   -5712.6982   -6360.9869            0    5215.7414    23.325255    21.582732    21.602678     10875.28    6281.2637    4265.6301    5100.3305    1292.0597   -423.10246    664.19729   -4885.4566 
16927000    259.27657   -6318.3479   -5651.3747   -6318.3479            0     5439.373     23.36147    21.339528    21.888426    10911.878     4891.084    6203.1129     5223.922   -560.72912    434.54496    444.88109   -4785.7608 
16928000    240.88938    -6300.351   -5680.6777    -6300.351            0    5568.6988    23.481623    21.472432    21.723602    10953.204    4553.8868    6300.6307    5851.5789   -1449.6528    25.909008   -187.31575   -4791.1268 
16929000    244.36141   -6315.6172   -5687.0124   -6315.6172            0    4757.6788     23.50737    21.659985     21.49104    10942.578    4613.6904    4204.5698    5454.7764   -1051.0862   -459.88403      86.9913   -4927.7522 
16930000    245.59017   -6320.2177    -5688.452   -6320.2177            0    4674.1586    23.469053     21.42613     21.81248    10968.427    3698.1108    5426.3355    4898.0295   -136.64433    529.63694    280.51956   -4940.7584 
16931000    248.59117   -6331.6984   -5692.2127   -6331.6984            0     6218.074    23.363105    21.375015    21.774257    10873.775    5594.6215     7716.192    5343.4086   -202.63592   -217.72271   -375.91399   -4706.1328 
16932000    251.21334   -6313.6419   -5667.4109   -6313.6419            0    5095.2821    23.266723    21.470592    21.882411    10931.365    6610.3798    5411.9505    3263.5159    225.34273   -868.09187   -317.41508    -4855.107 
16933000     243.7552   -6339.9152   -5712.8698   -6339.9152            0    5613.8938    23.352108    21.499701    21.710066    10899.828    5814.9316    5332.0121    5694.7378   -530.25632    1684.7744   -514.11953   -4820.4695 
16934000    249.30865   -6349.9972   -5708.6659   -6349.9972            0    5211.0637    23.428425    21.459202    21.743002    10931.409    4180.7306    5055.2957    6397.1648   -481.13906    117.96897   -651.26813   -4877.9004 
16935000    245.73815   -6297.5528   -5665.4064   -6297.5528            0    5055.2131    23.294345    21.597088    21.784103    10959.365    5183.3119    4374.7416    5607.5857   -129.76752    1038.9015   -1075.8613   -4857.4262 
16936000     252.5015   -6310.9438   -5661.3991   -6310.9438            0    4129.5239    23.459752    21.308559     21.93955    10967.439    3595.4963    3169.0484    5624.0268    414.27025   -164.60146    470.83889   -5000.8865 
16937000    240.74895   -6342.6176   -5723.3056   -6342.6176            0    5269.2566    23.266713    21.690266    21.580053    10890.616    4095.7444    4936.5901    6775.4354   -268.23979    385.38511   -73.779593   -4886.3977 
16938000    247.33587   -6304.5352   -5668.2787   -6304.5352            0     5719.192    23.464651     21.34462    21.786315    10911.547    5247.7965     6510.428    5399.3515   -350.19522   -662.56755   -145.99094   -4758.1624 
16939000     241.3944   -6356.0158   -5735.0434   -6356.0158            0    4539.5589    23.336986    21.548746    21.710645     10917.91    4256.7945    5109.3626    4252.5195   -826.11775   -248.91765   -231.10687   -5012.2252 
16940000    252.64898    -6283.351   -5633.4269    -6283.351            0    5415.4261    23.266482    21.575258    21.814798    10950.599    6511.6365    4511.8369    5222.8049   -443.06631    -363.3294    1894.7771   -4768.5657 
16941000    264.04806   -6338.8517   -5659.6042   -6338.8517            0    4039.7713    23.561692    21.303777    21.801554    10943.356    3248.9454    4945.9854     3924.383   -369.54069     698.8033    495.50499   -5014.8663 
16942000    255.17487   -6329.5136   -5673.0917   -6329.5136            0    4915.0696    23.066491    21.740126    21.796876    10930.445    5631.7547    3554.1244    5559.3298    363.42024    1076.6803    660.40375   -4889.5838 
16943000    245.68049   -6333.9102   -5701.9121   -6333.9102            0    5853.4306    23.550223    21.302443    21.649874     10861.25    3345.0277    7714.8161    6500.4478   -901.15145    891.32455   -1175.1002   -4774.7276 
16944000    251.43321   -6330.4909   -5683.6943   -6330.4909            0     5439.842    23.257877      21.5827    21.757758    10921.694    6723.8299    4546.3749    5049.3211   -618.42422     -93.3656   -422.07173    -4817.227 
16945000     249.8641   -6319.9238   -5677.1637   -6319.9238            0     4918.086    23.382256    21.366128    21.856003    10919.003    5241.8585    4530.4519    4981.9476   -1284.5254    478.59568   -12.740653   -4893.9956 
16946000    252.95195   -6347.7157   -5697.0122   -6347.7157            0    6555.7222    23.367884    21.507089    21.575787    10843.455    6853.2454    5906.3625    6907.5586   -601.29747   -759.80975    540.60814   -4660.2859 
16947000    244.43687   -6310.7456   -5681.9467   -6310.7456            0    3816.5791    23.323322    21.728908    21.637132    10965.489    4020.0434    3066.6339      4363.06   -386.31931    226.29911    108.05553   -5071.5977 
16948000    249.50852   -6310.4566   -5668.6111   -6310.4566            0    5288.3694    23.535783    21.301191    21.861175    10959.886    5445.2947    5865.6384    4554.1751   -1146.1889    459.75651   -659.45653   -4823.3251 
16949000    255.84949   -6330.5962   -5672.4389   -6330.5962            0    5015.4661    23.225364    21.567376    21.819679    10929.699    4038.8873    5764.3388    5243.1721    1016.4111    1284.8588    1113.1554   -4872.9814 
16950000    250.53632   -6356.0913   -5711.6018   -6356.0913            0    5468.4537    23.500261    21.364161     21.63873    10864.013    4903.6603    5156.4259    6345.2748    433.43154   -482.74797    581.56099   -4845.1773 
16951000    258.46748   -6342.2028    -5677.311   -6342.2028            0    5687.0496    23.358576    21.456426    21.691287     10871.49    5193.2648    5463.7622    6404.1218   -630.01737   -54.826757    1087.1943   -4775.6319 
16952000    256.40049    -6345.305   -5685.7304    -6345.305            0    6227.2341    23.149748    21.478917    21.882738    10880.787    6711.1873     7290.449     4680.066   -260.81569   -40.936008   -1014.8836    -4697.561 
16953000     235.4472   -6347.2652   -5741.5916   -6347.2652            0    5053.5667     23.56193    21.312359    21.704126     10898.95    3766.9234    5613.3014    5780.4754    -510.2905   -283.29407   -742.57352   -4938.3271 
16954000    250.13333   -6346.9016   -5703.4488   -6346.9016            0    4687.0894    23.263969    21.638444    21.693018    10920.181    5658.6469    3159.7703    5242.8511    -634.5581     255.9074    11.345311   -4956.9847 
16955000    250.93448   -6360.8745   -5715.3609   -6360.8745            0    5077.3655    23.521742    21.322233    21.720734    10893.731    5345.7408    4974.7531    4911.6025   -63.598213   -397.54656   -1085.7284      -4908.7 
16956000    240.67769   -6346.8848   -5727.7561   -6346.8848            0    6284.4666    23.246489    21.364906    21.848906    10851.457    7589.6851    6498.6278    4765.0869   -55.695393   -1348.3845    -1479.707   -4733.1929 
16957000    241.82431   -6338.1711   -5716.0928   -6338.1711            0    5221.4063    23.273856     21.54254    21.724926    10892.399    6172.0966    5076.3428    4415.7794   -10.441077      -413.62   -22.000983   -4886.6491 
16958000    248.77594   -6331.6088   -5691.6479   -6331.6088            0     4358.056    23.621321    21.202191    21.853023    10944.513    3663.9474    5623.5726     3786.648   -54.658158   -979.83057    270.87561    -4996.039 
16959000    247.42998   -6312.1259   -5675.6273   -6312.1259            0    5231.4744    23.165802    21.706727    21.724006    10923.997    6296.7037    4103.6115    5294.1081   -129.25027   -763.21425   -299.40778   -4842.1735 
16960000    246.06656   -6331.2032   -5698.2119   -6331.2032            0    4601.7983    23.583791    21.376872    21.691382     10935.66    4819.9928    4694.5042    4290.8978    1729.1314   -58.950619   -247.38306   -4964.2924 
16961000    250.50984   -6322.4976   -5678.0763   -6322.4976            0    4353.9531     23.25893    21.538441    21.819472    10930.707     3899.005    5408.0742    3754.7802      670.627    84.511711   -738.89844   -4983.9989 
16962000    255.42212   -6369.5824   -5712.5246   -6369.5824            0    5559.7599    23.272846    21.438811    21.786809    10870.357    6099.0559     6325.091    4255.1327   -244.77082    734.88633   -18.186289   -4831.1192 
16963000    250.98732   -6343.2852   -5697.6356   -6343.2852            0    5771.6474     23.58522    21.389158    21.556138    10874.381     4206.115    5494.5731    7614.2541    1564.1547   -593.12469    1620.9491   -4782.3003 
16964000    263.31378   -6371.8261   -5694.4674   -6371.8261            0     5037.144    23.239271    21.607521    21.689072    10891.017     4867.837       5229.3    5014.2951    603.85365   -827.02305   -296.51658   -4894.3962 
16965000    239.00554   -6349.7149   -5734.8877   -6349.7149            0     4991.266    23.572806    21.212664    21.820108    10910.971    5124.5039    5682.0265    4167.2676   -888.98656   -450.95163   -478.00995   -4940.6509 
16966000    254.47404   -6353.4014   -5698.7824   -6353.4014            0    5408.4719    23.258859    21.598521    21.667133    10884.635    5369.9271    5669.0854    5186.4032   -264.09402   -299.21215    230.14228   -4840.2349 
16967000    257.70748   -6362.3497   -5699.4129   -6362.3497            0    4813.6898    23.418793    21.312719    21.846335    10903.902    5798.3881    5014.8822    3627.7989    1026.5859    133.35755    672.18683   -4933.9292 
16968000    257.25416   -6325.0926    -5663.322   -6325.0926            0    6622.0361    23.321337    21.457976     21.73814    10878.388    6771.4876    6965.6366     6128.984    481.19985   -1041.6177   -1294.6522    -4612.735 
16969000    247.43475   -6330.2486   -5693.7377   -6330.2486            0    6619.0525     23.38354     21.54117    21.603289    10881.767    6721.4006    5962.8306    7172.9263    184.39603   -639.27701   -717.14462   -4643.2981 
16970000    237.74861   -6350.7694   -5739.1756   -6350.7694            0    5404.6981    23.319472     21.41583    21.792286    10883.195    5581.7643    5159.5201    5472.8098   -488.04234   -484.12158    1322.6917   -4881.3407 
16971000    240.86188   -6322.7919   -5703.1894   -6322.7919            0    6085.0532    23.307202    21.458495    21.771836    10888.911    6712.5647    7011.3256    4531.2694    228.55668    178.87593   -536.68766    -4736.861 
16972000    255.79767   -6360.2442   -5702.2202   -6360.2442            0    6104.7986       23.367    21.430371    21.708334    10870.741    6060.2365    5091.7074     7162.452    1770.8281   -1659.7907    401.82642    -4734.374 
16973000    251.23893   -6360.2474   -5713.9505   -6360.2474            0    2547.9683     23.35008    21.554295    21.924722    11034.592     2865.108    2285.3752    2493.4218    291.76025   -344.60662    596.85997   -5303.9106 
16974000    257.39974   -6321.1027   -5658.9576   -6321.1027            0    4045.8248    23.413418    21.557541    21.735038     10970.45    3489.8001     3475.379    5172.2955    966.85556    244.63248    898.17096   -5011.6548 
16975000     245.4883     -6337.06   -5705.5563     -6337.06            0    4902.0784    23.562462    21.447156    21.635355    10933.379    3897.8055    4302.8382    6505.5914    413.22384    -47.41287    515.58632   -4923.9095 
16976000    247.40146    -6336.766   -5700.3408    -6336.766            0    4615.7405    23.226891    21.643504    21.739017     10928.45    5435.7948    4851.3124    3560.1144    1537.8233   -1275.8088   -1410.5179    -4964.683 
16977000    269.99652   -6326.0873   -5631.5377   -6326.0873            0    5951.1166     23.40333    21.219125     21.99516    10922.756    5136.2439    8872.7954    3844.3104    1089.3668    -1095.093   -699.24234   -4683.5415 
16978000    257.97893    -6316.477   -5652.8419    -6316.477            0    4391.3384    23.445773    21.563461    21.661299    10951.346    4902.9131    3992.0731    4279.0291    560.13431    1089.1621   -285.77629    -4951.483 
16979000    249.68981   -6322.9783   -5680.6664   -6322.9783            0    5163.1978    23.420341    21.480844    21.725787    10929.998     5052.219    4782.2403    5655.1341    1522.9807   -734.06872    556.72228   -4857.6382 
16980000    254.43982   -6319.1923   -5664.6614   -6319.1923            0    4279.3395    23.387134    21.344708    21.977898    10971.181    4609.7275    5433.9149    2794.3762    547.72094   -63.818419   -928.75655   -4979.9524 
16981000    261.08663   -6335.2444    -5663.615   -6335.2444            0    5808.1111    23.330806    21.536879     21.70167    10904.498    6643.1105    5036.1479    5745.0747    504.43065   -597.80841     -422.218   -4739.9457 
16982000     252.2679   -6329.1874   -5680.2436   -6329.1874            0    5954.9743    23.481666    21.527052     21.47889    10857.387    6549.0622    4524.4367    6791.4241    567.50076   -993.37895    790.81116   -4737.3101 
16983000    241.63469   -6331.4884   -5709.8979   -6331.4884            0    6107.1761    23.307814    21.443939    21.724516     10858.16     6704.859    6679.1973    4937.4719    389.18952    -379.8671    206.64431   -4742.7953 
16984000    251.02397   -6330.2221   -5684.4782   -6330.2221            0    6656.1804    23.346183    21.245206    21.908423    10866.457    7366.0411    7223.4585    5379.0415    39.046585   -784.89297   -545.11931   -4629.6326 
16985000     252.4361    -6334.298   -5684.9216    -6334.298            0     6999.527    23.324317    21.514457    21.505311     10791.58    6427.8435    6452.0253    8118.7122   -355.21189    1183.9438    -657.3308   -4583.3071 
16986000    246.39572   -6337.0846   -5703.2466   -6337.0846            0     4688.302    23.421255    21.397237    21.779778    10914.939    5257.5932    4045.0358    4762.2771   -654.18734   -266.01722     262.3327   -4956.9477 
16987000    245.99701   -6355.6179   -5722.8056   -6355.6179            0    3936.1831    23.389718    21.467301    21.830647    10961.476    3684.0086    4362.3562    3762.1844    219.84971    -647.5884   -16.116522     -5093.56 
16988000    255.17166   -6316.3896    -5659.976   -6316.3896            0    5574.2778    23.364396    21.559337    21.665307    10913.267    5620.7773    5768.4137    5333.6422   -1612.0905     367.2372    80.028243   -4772.7806 
16989000    249.12529   -6350.8447   -5709.9851   -6350.8447            0    4487.6698    23.381874    21.524016     21.74524    10943.767    4272.8621     4843.119    4347.0282   -1010.1534   -105.06121    619.93487   -4993.7368 
16990000    246.27215   -6314.2516   -5680.7315   -6314.2516            0    5285.0287    23.397788    21.543495    21.721443     10949.13    6030.2941    4310.6364    5514.1555   -165.50485    83.786705     266.4151   -4836.8085 
16991000    236.85047   -6323.2389   -5713.9555   -6323.2389            0    5525.5525    23.469237    21.390107     21.77892    10933.225    6675.4227    4994.2584    4906.9765   -373.51054    294.48647     712.1684   -4832.9069 
16992000    248.40834   -6345.7703    -5706.755   -6345.7703            0    5089.6346    23.292457    21.450549    21.839408    10911.754    4532.6758    5165.0964    5571.1315    861.24578    591.56627    250.98681   -4896.8071 
16993000    248.39324    -6317.321   -5678.3445    -6317.321            0    6063.2601    23.344542    21.472456    21.715308    10885.116    5187.4676    5960.9464    7041.3662   -577.40741    1756.6615   -972.66567   -4715.8125 
16994000    246.40423   -6322.3611   -5688.5013   -6322.3611            0    5547.3169    23.428741    21.320515    21.793368    10886.067    4919.6625    6479.6181    5242.6702   -113.89845    527.52345   -18.770998   -4807.7975 
16995000    252.81854   -6283.3498   -5632.9895   -6283.3498            0    6008.6647    23.246265    21.609751    21.721945    10911.932    6352.6391    5086.3915    6586.9635    954.95333   -534.41025    327.24405   -4676.7746 
16996000    248.60836   -6349.4605   -5709.9307   -6349.4605            0    5355.5826    23.305752    21.558964    21.697995    10902.112    5652.5135    5441.6187    4972.6154    -219.8501    696.07454    257.94619   -4858.4139 
16997000    256.18444   -6349.1859   -5690.1671   -6349.1859            0     5337.745     23.38769    21.313209    21.876668    10904.791    6319.0735    4977.2179    4716.9436   -624.93164    186.41989   -380.92047   -4841.2778 
16998000    244.28894    -6303.651   -5675.2326    -6303.651            0    5713.4376     23.16233    21.502868    21.885731    10900.331    6826.0168    6236.6075    4077.6884   -1562.4584    515.30644   -206.61234   -4766.9666 
16999000    260.72545    -6373.582   -5702.8817    -6373.582            0    5075.2811    23.377066    21.466014    21.706734    10892.709    5389.4387    5276.2397    4560.1649   -817.38078    35.098423   -946.95234   -4896.6276 
17000000    263.19338   -6313.1305   -5636.0816   -6313.1305            0    5320.4221     23.49594    21.473876    21.675983    10936.594    4702.0273    4584.4335    6674.8056    483.39385    316.71151    284.26599   -4787.4795 
Loop time of 618.457 on 64 procs for 250000 steps with 1296 atoms

Performance: 69.851 ns/day, 0.344 hours/ns, 404.232 timesteps/s
99.2% CPU use with 64 MPI tasks x 1 OpenMP threads

MPI task timing breakdown:
Section |  min time  |  avg time  |  max time  |%varavg| %total
---------------------------------------------------------------
Pair    | 29.515     | 38.493     | 47.352     |  94.3 |  6.22
Bond    | 0.26785    | 0.2762     | 0.29006    |   0.8 |  0.04
Kspace  | 317.13     | 333.03     | 345.57     |  38.4 | 53.85
Neigh   | 4.5809     | 5.019      | 5.6879     |  12.8 |  0.81
Comm    | 100.79     | 111.68     | 121.49     |  42.6 | 18.06
Output  | 1.2956     | 1.2972     | 1.3092     |   0.2 |  0.21
Modify  | 118        | 121.35     | 124.24     |  13.1 | 19.62
Other   |            | 7.32       |            |       |  1.18

Nlocal:        20.2500 ave          29 max          13 min
Histogram: 3 7 7 12 6 8 12 5 3 1
Nghost:        2556.16 ave        2590 max        2525 min
Histogram: 3 2 9 9 13 8 8 7 2 3
Neighs:        6382.19 ave        9084 max        4102 min
Histogram: 3 6 8 12 7 7 9 8 3 1

Total # of neighbors = 408460
Ave neighs/atom = 315.16975
Ave special neighs/atom = 2.0000000
Neighbor list builds = 9191
Dangerous builds = 1

unfix		3
unfix		2
unfix		1

write_data	data.final.${pid}
write_data	data.final.0
System init for write_data ...
PPPM initialization ...
  extracting TIP4P info from pair style
  using 12-bit tables for long-range coulomb (../kspace.cpp:340)
  G vector (1/distance) = 0.36775329
  grid = 27 40 32
  stencil order = 5
  estimated absolute RMS force accuracy = 0.0043976657
  estimated relative force accuracy = 1.324344e-05
  using double precision FFTW3
  3d grid and FFT values/proc = 4845 560
Last active /omp style is kspace_style pppm/tip4p/omp
WARNING: Not all mixed pair coeffs generated from mixing. Use write_data with 'pair ij' option to store all pair coeffs. (../write_data.cpp:312)

write_restart   restart.lmp.${pid}
write_restart   restart.lmp.0
System init for write_restart ...
PPPM initialization ...
  extracting TIP4P info from pair style
  using 12-bit tables for long-range coulomb (../kspace.cpp:340)
  G vector (1/distance) = 0.36775329
  grid = 27 40 32
  stencil order = 5
  estimated absolute RMS force accuracy = 0.0043976657
  estimated relative force accuracy = 1.324344e-05
  using double precision FFTW3
  3d grid and FFT values/proc = 4845 560
Last active /omp style is kspace_style pppm/tip4p/omp
Total wall time: 0:10:20
