#include		in.partitions
include		in.temp
variable        temperature equal 173.97
variable	tempDamp equal 100.0
include		in.pressure
variable        pressure equal 7369.9
variable        pressureDamp equal 1000.0 # This is 1 ps
include		in.seed
variable        seed equal 745823

units		real
atom_style	full

read_restart	restart.lmp.${pid}
read_restart	restart.lmp.1
Reading restart file ...
  restart file = 30 Jul 2021, LAMMPS = 30 Jul 2021
  restoring atom style full from restart
  orthogonal box = (0.047739060 0.071936311 0.10940433) to (19.952262 19.928065 20.590594)
  4 by 2 by 4 MPI processor grid
  restoring pair style lj/cut/tip4p/long/omp from restart
  restoring bond style harmonic/omp from restart
  restoring angle style harmonic/omp from restart
  972 atoms
  648 bonds
  324 angles
Finding 1-2 1-3 1-4 neighbors ...
  special bond factors lj:    0        0        0       
  special bond factors coul:  0        0        0       
     2 = max # of 1-2 neighbors
     1 = max # of 1-3 neighbors
     1 = max # of 1-4 neighbors
     2 = max # of special neighbors
  special bonds CPU = 0.002 seconds
  read_restart CPU = 0.008 seconds
include 	in.setup
variable	out_freq equal 1000
variable	out_freq2 equal 10000
variable	out_freq3 equal 1000

timestep	2.0

neigh_modify    delay 7 every 1

include		in.tip4p
# This is TIP4P/Ice

# create groups ###
group ox type 2
324 atoms in group ox
group hy type 1
648 atoms in group hy

# set charges - beside manually ###
set group ox charge -1.1794
Setting atom values ...
  324 settings made for charge
set group hy charge 0.5897
Setting atom values ...
  648 settings made for charge

# ### TIP3P Potential Parameters ###
pair_style lj/cut/tip4p/long/omp 2 1 1 1 0.1577 8.5
pair_coeff 1 1*2 0.000 0.000
pair_coeff 2 2 0.21084 3.1668
bond_style  harmonic
bond_coeff  1 450 0.9572
angle_style harmonic
angle_coeff 1 55 104.52
kspace_style pppm/tip4p/omp 1.0e-5
pair_modify tail yes

thermo          ${out_freq}
thermo          1000
thermo_style    custom step temp pe etotal epair emol press lx ly lz vol pxx pyy pzz pxy pxz pyz enthalpy

restart 	${out_freq3} restart.lmp.${pid} restart2.lmp.${pid}
restart 	1000 restart.lmp.${pid} restart2.lmp.${pid}
restart 	1000 restart.lmp.1 restart2.lmp.${pid}
restart 	1000 restart.lmp.1 restart2.lmp.1


include         in.dump
dump            myDump all atom ${out_freq2} dump.water.${pid}
dump            myDump all atom 10000 dump.water.${pid}
dump            myDump all atom 10000 dump.water.1
dump            myDump2 all dcd ${out_freq2} dump.dcd
dump            myDump2 all dcd 10000 dump.dcd
dump_modify     myDump append yes
dump_modify     myDump2 append yes


variable natoms 	equal  "count(all)"                        # NUMBER ATOMS
variable H      	equal  "enthalpy/v_natoms"                 # ENTHALPY-per-atom
variable Vol      	equal  "vol/v_natoms"                 # volume-per-atom
fix AVG all 		ave/time ${out_freq} 1 ${out_freq} v_Vol v_H file vol_enthalpy.dat
fix AVG all 		ave/time 1000 1 ${out_freq} v_Vol v_H file vol_enthalpy.dat
fix AVG all 		ave/time 1000 1 1000 v_Vol v_H file vol_enthalpy.dat


timer           timeout 02:55:00 every 1000
New timer settings: style=normal  mode=nosync  timeout=02:55:00

fix 		1 all shake 1e-6 200 0 b 1 a 1
       0 = # of size 2 clusters
       0 = # of size 3 clusters
       0 = # of size 4 clusters
     324 = # of frozen angles
  find clusters CPU = 0.000 seconds
fix             2 all nph aniso ${pressure} ${pressure} ${pressureDamp}
fix             2 all nph aniso 7369.9 ${pressure} ${pressureDamp}
fix             2 all nph aniso 7369.9 7369.9 ${pressureDamp}
fix             2 all nph aniso 7369.9 7369.9 1000
fix             3 all temp/csvr ${temperature} ${temperature} ${tempDamp} ${seed}
fix             3 all temp/csvr 173.97 ${temperature} ${tempDamp} ${seed}
fix             3 all temp/csvr 173.97 173.97 ${tempDamp} ${seed}
fix             3 all temp/csvr 173.97 173.97 100 ${seed}
fix             3 all temp/csvr 173.97 173.97 100 745823


run             250000
PPPM initialization ...
  extracting TIP4P info from pair style
  using 12-bit tables for long-range coulomb (../kspace.cpp:340)
  G vector (1/distance) = 0.37198279
  grid = 24 24 24
  stencil order = 5
  estimated absolute RMS force accuracy = 0.0035340744
  estimated relative force accuracy = 1.064276e-05
  using double precision FFTW3
  3d grid and FFT values/proc = 3211 432
Last active /omp style is kspace_style pppm/tip4p/omp
Neighbor list info ...
  update every 1 steps, delay 7 steps, check yes
  max neighbors/atom: 2000, page size: 100000
  master list distance cutoff = 10.8154
  ghost atom cutoff = 10.8154
  binsize = 5.4077, bins = 4 4 4
  1 neighbor lists, perpetual/occasional/extra = 1 0 0
  (1) pair lj/cut/tip4p/long/omp, perpetual
      attributes: half, newton on, omp
      pair build: half/bin/newton/omp
      stencil: half/bin/3d
      bin: standard
Per MPI rank memory allocation (min/avg/max) = 10.18 | 10.19 | 10.19 Mbytes
Step Temp PotEng TotEng E_pair E_mol Press Lx Ly Lz Volume Pxx Pyy Pzz Pxy Pxz Pyz Enthalpy 
17500000    185.22555   -4877.1227   -4519.8996   -4877.1227            0    7800.3616    19.904523    19.856128    20.481189    8094.7141    7551.2978    7369.0603    8480.7267   -502.05156    232.30102   -802.93027   -3599.0427 
17501000    175.96906   -4890.3366   -4550.9655   -4890.3366            0    8605.8128    19.725356     19.78573    20.561145    8024.6158    6914.5773    10104.913    8797.9482   -475.58875     597.5501   -413.57912   -3543.8204 
17502000    172.53027   -4885.4268   -4552.6877   -4885.4268            0    7507.9186    19.944075    19.679202    20.540493    8061.8042    7792.8413    7525.6787    7205.2359    177.58583    239.74798    196.48183   -3669.9581 
17503000    177.12287   -4894.2525   -4552.6562   -4894.2525            0     8516.325    19.604579    19.706511    20.623198    7967.5218     7989.288    9384.1013    8175.5858   -490.82646    11.908913    902.05218   -3563.0751 
17504000    166.96042   -4892.8464   -4570.8492   -4892.8464            0    8792.0563    19.878002    19.635573    20.513998    8006.9405    9279.9738    7500.3411     9595.854   -484.41564   -1422.1216   -31.185065   -3544.1743 
17505000    172.02079   -4882.7859   -4551.0293   -4882.7859            0    6747.9093     19.69254    20.062033    20.464214    8084.8458     8678.582    4213.6999     7351.446   -18.753883   -111.48361    370.71976   -3755.3888 
17506000    177.18808   -4887.9724   -4546.2503   -4887.9724            0    4631.4581    19.581756    19.965893    20.715302    8099.0047    6097.4102    3055.9776    4740.9865   -183.14584    300.74999    478.35799   -3999.2025 
17507000    170.77033   -4877.1544   -4547.8095   -4877.1544            0     7898.428    19.754808    19.830704    20.491088    8027.4196    6349.7875    8378.9306     8966.566    95.885477   -1258.0833   -13.102311   -3623.1273 
17508000    180.75622   -4895.4323   -4546.8288   -4895.4323            0    7727.5158    19.763806    19.853265    20.362353       7989.7    7654.8563    8947.2918    6580.3992   -235.65952   -493.87806   -692.58043   -3646.4064 
17509000    185.00909   -4882.9201   -4526.1145   -4882.9201            0    8016.0382    19.888757    19.517807    20.656616    8018.5868     7357.096    7688.0703    9002.9481    708.28731    929.90639    154.98198    -3588.696 
17510000     172.6895   -4872.1415   -4539.0953   -4872.1415            0    8031.5691    19.635286    19.891321    20.611849    8050.4065    9771.9146    6447.3615    7875.4311   -343.80429    223.43613    727.56801   -3596.1335 
17511000    171.24692   -4882.4356   -4552.1715   -4882.4356            0    7699.4881    19.757758    19.984642    20.315035    8021.4264    7978.8912    7085.8317    8033.7413    1203.8773    457.02246    814.05327   -3651.4524 
17512000    175.93734   -4867.3466   -4528.0366   -4867.3466            0    7944.1047    19.708306    19.857767    20.604325    8063.7698    7799.2849    8083.5575    7949.4719     669.4145    911.60011    448.05281   -3593.7955 
17513000     180.8245   -4874.7006   -4525.9654   -4874.7006            0    7312.7522    19.891709    19.799095    20.469993    8061.8579    6573.6597    8439.5937    6925.0032    585.47151    914.02936   -403.73125   -3666.1764 
17514000    177.73453   -4905.3107   -4562.5347   -4905.3107            0    7575.3565    19.885534    19.839288    20.471079    8076.1442    7188.6355    6880.0407    8657.3932    31.161531    103.13263    638.97039    -3670.292 
17515000    168.86037   -4894.0074    -4568.346   -4894.0074            0    6386.8727    19.825897    19.817408    20.745253    8150.7661    5862.2057     7352.809    5945.6033    293.16677    1665.8211   -476.59347   -3809.1348 
17516000    174.77847   -4876.8738   -4539.7989   -4876.8738            0    9739.9741    19.738957     19.87098    20.310417    7966.4041     9861.995    8868.1685    10489.759   -779.35476   -754.65471   -525.14135   -3408.1908 
17517000    184.05156   -4907.4033   -4552.4444   -4907.4033            0    7699.5216    19.636374    19.815485    20.701162    8054.9108    7934.2711    8770.8294    6393.4642   -271.44128     1048.427    2133.2487   -3647.9614 
17518000    169.13025   -4897.5992   -4571.4173   -4897.5992            0     7053.406    19.909176    19.823824    20.412787    8056.4373    6920.8737    6881.6754    7357.6689   -362.41526    957.15337   -10.132633   -3742.6782 
17519000    172.85266   -4889.6614   -4556.3005   -4889.6614            0    7340.8747    19.906412    19.744232    20.522059    8065.9246    6627.4841     8230.339    7164.8011   -235.98548    1045.7026    540.71451   -3692.7696 
17520000    172.49961   -4889.4416   -4556.7616   -4889.4416            0    8191.2548    19.672632    19.968663     20.40849    8017.1926     8491.362    8483.3436    7599.0588   -146.01962   -30.020027    343.38085   -3599.0193 
17521000    169.13733   -4899.6612   -4573.4656   -4899.6612            0    6859.0881    19.736469    19.881923    20.540618    8060.1172    7770.5481    5734.0687    7072.6474   -118.06173     -705.913    228.59694   -3767.1898 
17522000    179.04539   -4899.3869   -4554.0828   -4899.3869            0    6439.3601    19.798319    19.778161    20.679608    8097.6034    6614.6479    6591.0698    6112.3626   -289.16576   -1322.2817   -1645.9909    -3793.625 
17523000    181.20189   -4916.2951    -4566.832   -4916.2951            0    7398.2025    20.098212    19.842101    20.206618     8058.212    7418.9182    6478.2962    8297.3931    358.97247    959.52943    628.09635   -3697.3897 
17524000    177.35244   -4866.3479   -4524.3088   -4866.3479            0    7809.9239    19.791491    19.827995    20.654555    8105.3756    8758.0843    7425.0411    7246.6464   -149.03574    498.66383    670.21282   -3601.1087 
17525000    178.77075   -4873.2662   -4528.4918   -4873.2662            0    8844.8391    19.729723    19.863113    20.404899    7996.5516    8493.6045    8406.0682    9634.8446    276.12445    1452.5779   -667.66714   -3496.9934 
17526000    186.00395   -4893.5101   -4534.7858   -4893.5101            0     7411.023    19.826772    19.846582    20.632478     8118.749    6037.5218     8748.989    7446.5581    653.00681   -645.24475    563.07166   -3657.2938 
17527000    181.04658    -4883.092   -4533.9284    -4883.092            0    7264.6285    19.792418     19.89204    20.601123    8110.9004    7811.5649    7429.2244    6553.0962   -258.91363    757.58029    301.00305   -3674.6016 
17528000    167.18591   -4888.9898   -4566.5577   -4888.9898            0    7497.8405    19.878026    19.966205     20.35125    8077.1821    8348.5819    6903.7162    7241.2233    412.31809    3.0052263   -199.83267   -3683.3314 
17529000    178.78466   -4894.1011   -4549.2998   -4894.1011            0    7805.2799    19.803557    19.776334     20.64434    8085.1857    9299.8419     7091.582    7024.4157    -148.1993    1067.8239    381.91764    -3628.947 
17530000    182.84362   -4897.1497   -4544.5204   -4897.1497            0    6206.4971    19.776838    19.934535    20.553232    8102.9488    6816.7607    5205.2495     6597.481    141.59766     411.2022     649.7609   -3811.0788 
17531000    184.62171   -4879.9704   -4523.9119   -4879.9704            0    8177.0891    19.714221    19.901124    20.345686     7982.328    8438.6865    7843.1254    8249.4555   -91.833378   -1065.8987   -103.90205   -3571.9837 
17532000    177.59147   -4882.8252   -4540.3251   -4882.8252            0    7501.3482    19.734525    19.754107    20.568314    8018.3085    6549.3479    8966.1054    6988.5912   -65.212709      -862.03    639.96164   -3663.1264 
17533000    173.60287   -4883.2068    -4548.399   -4883.2068            0    6829.8598    19.594235    19.996652     20.54213    8048.7986    8950.1762    4932.6731    6606.7299   -365.74646   -216.61796   -201.81759   -3746.6864 
17534000    171.53148   -4890.2741   -4559.4612   -4890.2741            0    7995.6641    19.731412     19.85129    20.471349     8018.504    7346.9099     6949.793    9690.2895    426.72522    772.97947    825.77752    -3624.435 
17535000    167.22349   -4899.3489   -4576.8443   -4899.3489            0    7837.9307    19.962865    19.549326    20.487899     7995.619    7044.0801    8916.1757    7553.5364    92.844149   -764.34121     1383.955   -3662.8796 
17536000    162.96146   -4884.7656   -4570.4807   -4884.7656            0    7262.7533    19.924145    19.704089    20.484227    8041.8437    5190.1219    9615.6915    6982.4466   -143.51194    1321.4989    601.74859   -3718.6902 
17537000    173.36288   -4887.1148   -4552.7699   -4887.1148            0    8690.1016    19.906234    19.696443    20.459396    8021.7606    7487.3013    9014.4862    9568.5171   -288.44935    164.53372    56.054346   -3536.1223 
17538000    175.19529   -4876.9624   -4539.0836   -4876.9624            0    6445.6405    19.667956    19.940445    20.535618    8053.8187    5820.4756    6500.3548    7016.0912   -413.62455    963.23928   -535.11869        -3782 
17539000    161.06235   -4875.2571   -4564.6348   -4875.2571            0    6671.0355     19.92132    19.740196    20.445829    8040.3376    6988.1764    5288.8247    7736.1054    258.34009   -196.94344    732.35037   -3782.3887 
17540000    171.88645   -4890.3047   -4558.8073   -4890.3047            0    6474.9271    19.783714     19.90377      20.5864    8106.3168    8735.5625    4345.3711    6343.8476   -961.01841   -3.0796876    71.907295   -3793.3264 
17541000     168.8655   -4878.4704   -4552.7991   -4878.4704            0    7652.6472    19.843765    19.875922    20.414865    8051.8908    6484.8571    8704.4692    7768.6154    509.01026   -449.86386    617.91887   -3654.1597 
17542000    171.94245   -4893.3986   -4561.7931   -4893.3986            0    7582.5957    19.792922    19.815901    20.605809    8081.8989    7990.5882    8190.0842    6567.1146    111.77132    42.641393   -182.16742   -3668.0613 
17543000    172.79022   -4869.1156   -4535.8751   -4869.1156            0     7486.485    19.858715    19.816604    20.444733    8045.6628    8139.1332    6324.2659    7996.0558   -277.05221    1105.5268   -338.32703   -3657.4279 
17544000    172.21782   -4898.2098   -4566.0732   -4898.2098            0     8235.291     19.90038    19.910369    20.162384    7988.8186    8426.9753    7351.0545    8927.8433     744.9253    3003.5889   -557.97111     -3606.59 
17545000    170.52678   -4900.4296   -4571.5544   -4900.4296            0     8376.613    19.782074    19.732848    20.533188    8015.2667    8304.2914    7797.0163    9028.5312    299.95341    126.18468   -622.90553   -3592.3749 
17546000    175.80718    -4904.383   -4565.3241    -4904.383            0    7471.2518    19.805606    19.853667    20.502287    8061.7844    8096.8219    6710.8737    7606.0598   -568.15364    1087.7549   -225.57138   -3686.9077 
17547000    181.75182   -4904.8789   -4554.3552   -4904.8789            0    7787.9084    19.711007    19.913304    20.505697    8048.7174    9064.9701     7717.211    6581.5443    781.63421    629.20547   -1178.6069   -3640.1927 
17548000    172.87206   -4900.9422   -4567.5439   -4900.9422            0    8289.2911    19.504422     19.98017    20.455733    7971.6331    10318.485    6253.1383    8296.2498    492.97264    347.94611   -494.79929   -3603.8467 
17549000    177.55846   -4884.7621   -4542.3257   -4884.7621            0    8258.1003     19.83454    19.874546    20.411035    8046.0802    8466.3629    7103.1127    9204.8255   -361.77786    185.05135    -662.3192   -3573.2886 
17550000    170.59689   -4896.0113   -4567.0009   -4896.0113            0     8730.824    19.851968    19.759191    20.451819    8022.4064    8422.1659    8934.5483    8835.7576   -573.22483    -1059.432    800.10423    -3545.507 
17551000    189.65833   -4861.5809   -4495.8089   -4861.5809            0    8202.7474    19.934814    19.483331    20.557412    7984.4287    7998.2308    7673.9491    8936.0622   -237.41323    368.46889    1174.7289   -3540.6424 
17552000     173.0135   -4894.6422   -4560.9711   -4894.6422            0    8057.8906    19.860134    19.669578     20.50949    8011.8365    8279.3159    8388.4981    7505.8578   -507.05929    39.310935    1239.4686   -3619.4516 
17553000     163.2868   -4894.5598   -4579.6474   -4894.5598            0    6744.3998    19.684607    20.027938    20.439612    8058.1554    6826.0564     7512.332     5894.811   -96.528947   -1884.2309    686.37447    -3787.046 
17554000    174.97952    -4882.705   -4545.2423    -4882.705            0    5868.7625    19.778891     19.83493    20.643364    8098.6588    7024.4953    5821.3876    4760.4044   -68.526098    386.93422   -630.67597   -3852.0791 
17555000     176.2259   -4894.1409   -4554.2744   -4894.1409            0    6765.4153    19.894652     19.85522    20.511644    8102.3597    5611.6545    8951.8463     5732.745    621.02629    2.7449039    578.50514   -3754.8418 
17556000     178.0424   -4874.5733   -4531.2036   -4874.5733            0    5863.0125    19.804773    19.897161    20.603026     8118.803    6313.5789    5983.6335    5291.8251   -160.39293    1267.9238    984.95585    -3836.997 
17557000    168.45601    -4898.568   -4573.6865    -4898.568            0    8692.3388    19.633075    19.968398    20.460661    8021.4192    10143.733    7353.8736      8579.41   -1039.1882    114.88843    642.31162   -3556.8204 
17558000    181.71209   -4903.3133   -4552.8662   -4903.3133            0    7960.4372    19.661481    19.874718    20.638089    8064.6715    9645.8028    6949.9339     7285.575   -385.72758   -52.498608   -350.56918   -3616.5997 
17559000    172.57826   -4893.1996   -4560.3679   -4893.1996            0    6478.0665    19.900365     19.90741    20.352562    8062.9669    6607.5914    5318.7934    7507.8148    -332.0812    48.803166    1259.8335   -3798.6114 
17560000    174.97174   -4893.3146   -4555.8669   -4893.3146            0    6713.1583    19.872718    19.553847       20.692    8040.6648    7730.5326    6783.7276    5625.2147   -147.83781    876.82196   -1788.3116   -3768.6494 
17561000    174.31512    -4881.514   -4545.3326    -4881.514            0    9101.0211    19.706369    19.933329    20.473002    8042.0722     8955.999    8779.6209    9567.4433   -303.40899    523.94064   -1116.7593   -3477.9159 
17562000    189.39737   -4883.1944   -4517.9256   -4883.1944            0    9356.6689    19.711964    19.878621    20.487019    8027.7698    9757.4685     10107.81     8204.728   -524.12882    1003.1689   -1877.6627   -3422.4769 
17563000    175.81283   -4874.6536   -4535.5838   -4874.6536            0    7945.9857    19.833136    19.953748    20.366372    8059.8983    8405.8373    6483.3362    8948.7837    41.010129   -469.63172    479.32677   -3601.5701 
17564000    173.44759   -4894.4797   -4559.9714   -4894.4797            0    5320.6564    19.850348    19.863107    20.585992    8116.8422      5934.28    5664.0995    4363.5897   -233.66159    230.35489    230.42612   -3930.1343 
17565000    173.95644   -4894.6501   -4559.1605   -4894.6501            0    7894.7285    19.908903    19.749106    20.442588    8037.6786    7307.2593    8938.3475    7438.5788    158.30553    868.17668    1385.4244   -3633.7302 
17566000    178.59191   -4869.3518   -4524.9223   -4869.3518            0    7857.3057    19.686494    19.900803    20.536671    8045.7962    8152.4991    7983.9633    7435.4548   -250.32684     1111.313    960.24627   -3602.9485 
17567000    170.74018   -4887.2831   -4557.9963   -4887.2831            0    8231.0779    19.779914    19.661167    20.584573    8005.2618    8912.9593    8824.5535     6955.721   -305.99658    18.540904   -987.60876     -3597.03 
17568000    172.86933    -4884.129   -4550.7359    -4884.129            0    8462.4305    19.936245     19.81094    20.265511    8003.9801    7882.6553    8098.7627    9405.8735   -249.85844   -535.07393    1104.8995   -3562.9178 
17569000    165.40261   -4895.6831   -4576.6903   -4895.6831            0    7729.9032    19.588152    19.883257    20.597956    8022.4148     6685.371    8480.7053    8023.6334    24.616723    -262.7315    70.051449   -3672.3017 
17570000    173.45614    -4880.086   -4545.5612    -4880.086            0    5685.4775    19.687539    19.884837    20.629752    8076.2076    4247.1696    7479.4284    5329.8345    194.57291   -625.10828   -317.06973   -3875.9075 
17571000    170.44768   -4878.1124   -4549.3897   -4878.1124            0    7131.9722    19.966218     19.98448    20.245328    8078.1795    6601.5779    6830.3611    7963.9776   -279.92965    495.88362   -1115.6516    -3709.158 
17572000    186.43186    -4879.666   -4520.1164    -4879.666            0    7795.4707    19.874946    19.796454    20.520633    8073.9139    7781.5052    6899.7668    8705.1402   -381.20465    825.85132   -645.59666   -3602.2017 
17573000    166.12389    -4891.516   -4571.1321    -4891.516            0    9744.8509    19.449045    19.912452    20.590529     7974.263    11761.249    9717.2249    7756.0787   -113.70941   -17.057563    41.803872   -3437.8406 
17574000    167.82685   -4895.6172    -4571.949   -4895.6172            0     6505.774    19.819115    20.009928    20.362849    8075.4796    5540.8759    6269.4804    7706.9656   -45.467668    731.04333    315.94169   -3805.7472 
17575000    168.71138      -4891.3   -4565.9259      -4891.3            0    7476.7916    19.913285    19.717805    20.615058    8094.4253    7108.8269    7644.3705    7677.1773    355.75379   -11.931506   -881.51768    -3683.299 
17576000    170.56873    -4889.771   -4560.8149    -4889.771            0    5399.4705    19.783893    19.924865    20.582349    8113.3851    6268.3705    4883.0394    5047.0015   -562.50097   -185.56581   -82.033573   -3921.9204 
17577000     169.8688   -4906.4804   -4578.8742   -4906.4804            0    7714.9776    19.794526    19.789224    20.453924    8012.1766    7998.1406    8344.9538    6801.8385    308.73812    553.93418   -1774.9377   -3677.3838 
17578000    179.61166   -4876.4463   -4530.0501   -4876.4463            0    7509.9927    19.879169    19.945407     20.35807    8071.9365    5682.5199     8059.039    8788.4191    740.93647    1749.4382    1158.0737   -3645.9669 
17579000    172.64516   -4900.0599   -4567.0991   -4900.0599            0    7094.9416    19.819546    19.768129    20.652966    8091.7361    6837.9825    8191.8127    6255.0298   -193.02822   -45.514452    439.30198   -3729.8274 
17580000    177.64979   -4878.2683   -4535.6558   -4878.2683            0    6981.8984    19.745411     19.71018    20.699861    8056.0877    7385.3384    7859.2582    5701.0986    460.41223   -465.95359   -227.36961   -3715.3541 
17581000    179.52285   -4888.0875   -4541.8626   -4888.0875            0    6706.3147    19.852651    19.959473    20.332288    8056.6377    7906.1156    5023.7416    7189.0869   -222.46984   -887.61874    421.04634   -3753.8854 
17582000    170.21465   -4899.4342   -4571.1609   -4899.4342            0    6454.7296    19.775928    19.694384     20.70424    8063.7781    6081.0025    8063.6119    5219.5742   -393.90599     643.6138    302.23539   -3812.0722 
17583000    181.22735   -4898.3865   -4548.8743   -4898.3865            0    6829.7133    19.796465    19.828271    20.543159    8063.7992    6908.2433    6266.4571    7314.4394    36.802688   -357.25519   -1167.4266   -3745.6847 
17584000    186.43664   -4885.0884   -4525.5297   -4885.0884            0    7174.9458    19.876926    19.829552     20.41361    8046.0351    8388.8355    5899.2897    7236.7122   -574.13775    946.70223    1166.8744   -3683.5988 
17585000    175.30272   -4908.7929   -4570.7069   -4908.7929            0    6088.2723    19.662854    19.954167    20.535691    8057.2989    6587.9435    5976.4087    5700.4646   -317.41023    588.60205    98.654158   -3855.2896 
17586000    168.35951   -4890.0481   -4565.3526   -4890.0481            0    5314.0853    19.881575    19.791662    20.540295    8082.3883    4924.4772    5003.5232    6014.2555    15.749468    982.00986   -109.75942   -3938.9636 
17587000    170.91924   -4886.3567   -4556.7246   -4886.3567            0    9715.4331    19.873357    19.623174    20.485935    7989.0708    9055.7507      11060.6    9029.9484    9.0950779   -274.80431   -1507.1546   -3424.7561 
17588000    176.78915   -4896.0233   -4555.0706   -4896.0233            0    6243.2645    19.967245    19.788047    20.459339    8083.7464    4821.4633    7264.5168    6643.8133    267.10124    544.73104     395.7254   -3819.0325 
17589000    171.86863    -4910.814   -4579.3509    -4910.814            0    8693.1617    20.018335    19.852377    20.073684    7977.5137    9365.8195    6157.9607    10555.705   -520.85175   -430.58941    365.94856   -3567.9549 
17590000    176.92031   -4907.1367    -4565.931   -4907.1367            0      5782.31    19.865135    19.712382    20.684837    8099.9573    4242.1457    8380.9483     4723.836    -446.4663   -90.978887   -86.534137   -3882.8692 
17591000    171.47838   -4890.3553   -4559.6448   -4890.3553            0    7811.6045    19.981454    19.675656    20.389554    8016.1169    5797.5894    10002.671    7634.5531   -136.26433   -55.847778   -1395.7105   -3646.4148 
17592000    177.51305   -4898.5594   -4556.2106   -4898.5594            0    7564.5392    19.987265    19.728803    20.446503    8062.5637    7368.1128    7614.2249      7711.28   -957.86982    1094.1187   -254.03839   -3666.7401 
17593000    180.08354   -4879.1189   -4531.8127   -4879.1189            0    8288.8219    19.713665    19.789199    20.503742    7998.8713    6965.5461    9490.4042    8410.5154   -215.26052    522.57048   -34.133914   -3564.8774 
17594000    170.42575   -4883.2987   -4554.6183   -4883.2987            0    7596.2713    19.837397    19.711808    20.570848    8043.8386    6121.9039    9384.9456    7281.9643   -289.15894    1169.8744    67.930793   -3663.4911 
17595000    160.61041   -4888.2303   -4578.4796   -4888.2303            0    6604.6842    19.808858    20.054969    20.282095    8057.3875    7101.7216    6293.4077    6418.9232     312.6694    117.98801    384.65585   -3802.3716 
17596000    180.15518   -4892.7376   -4545.2932   -4892.7376            0    6869.5849    19.762395    19.860916    20.513381    8051.4872    5827.9466    8139.0805    6641.7275    20.896721    650.07199    79.592945   -3738.6481 
17597000    175.70749   -4889.4728   -4550.6062   -4889.4728            0    7039.9507    19.878993    19.800832    20.457546    8052.5116    5932.8929    7767.4105    7419.5487   -205.06173   -167.25857   -1153.5731   -3723.8511 
17598000    173.08063   -4890.9818   -4557.1812   -4890.9818            0    7424.1049    19.816397    19.919182     20.44503    8070.1933    8183.8308    7496.4073    6592.0765   -626.67596    662.28165   -236.73963   -3683.3976 
17599000    169.87793   -4880.3035   -4552.6796   -4880.3035            0    7269.2959    19.932448    19.447657    20.701471    8024.7062    6689.3251    9136.2057    5982.3567   -211.91651    752.91674   -1405.1735   -3701.9386 
17600000    173.25211   -4891.5354   -4557.4042   -4891.5354            0    6207.6641    19.768229    19.924907    20.485818    8068.9569    5502.6541    6039.6219    7080.7162   -1117.6374    727.55171   -1205.7439    -3826.902 
17601000     164.3369   -4899.4106    -4582.473   -4899.4106            0    7885.6842    19.915902    19.634208    20.560647    8039.8909     9568.853    7865.4273    6222.7722   -46.682513   -642.57375   -414.98926   -3657.8485 
17602000    174.18779    -4890.488   -4554.5522    -4890.488            0    7619.3945    19.827203    19.852749    20.464454    8055.3105    7841.6506    7513.9517    7502.5814   -133.81232    257.60077   -24.049205   -3659.4376 
17603000    172.92434    -4871.518   -4538.0189    -4871.518            0    7693.6992    19.832118    19.743354    20.555544    8048.5752    6834.2867    8815.9735    7430.8373   -348.24253    232.35963   -191.89995   -3634.9308 
17604000    163.41509    -4847.854   -4532.6943    -4847.854            0    8429.9412    19.826833    19.712833     20.36751       7960.5    7394.6949    8619.2325    9275.8962    120.53567    262.10437   -696.28236   -3554.0141 
17605000    176.85315   -4869.2215   -4528.1453   -4869.2215            0    5963.9483    20.001288    19.881964     20.38966    8108.2516    5641.2088    6532.9294    5717.7068    -567.7958     228.0424    467.29378   -3822.9053 
17606000     168.0907   -4894.8621    -4570.685   -4894.8621            0    6720.7332     19.86287    19.688644     20.62227    8064.8126    6603.1592    7278.7552    6280.2854    305.85396    934.18961    359.91528   -3780.2124 
17607000    166.39529    -4879.191   -4558.2837    -4879.191            0    7482.3246    20.001971    19.741887     20.47283    8084.2422    6765.5728    8286.1745    7395.2264   -101.63581    107.25267   -1532.5652   -3676.1148 
17608000    176.61536   -4872.8636    -4532.246   -4872.8636            0    7974.4144    19.868124    19.747848     20.44159    8020.3127    9677.9919    6469.0299    7776.2215   -326.60906   -467.13876    228.44425   -3599.4945 
17609000    172.16955   -4889.3349   -4557.2914   -4889.3349            0    6044.7991    19.727469    19.935806    20.609171    8105.2366     6690.335    5694.0243    5750.0381    484.62553   -908.37369    81.775343   -3842.7565 
17610000    180.93798   -4882.4065   -4533.4523   -4882.4065            0    6642.4635    20.063086     19.60312    20.475467    8052.9821    6823.8779     5909.229    7194.2836     72.78681    -1134.777   -839.14712   -3753.3316 
17611000    179.50031   -4878.3964    -4532.215   -4878.3964            0    7385.8987    19.811051    19.854354     20.50431    8065.0754    6771.3774    7284.1969    8102.1218    263.89904   -497.28753   -720.94409   -3663.4793 
17612000      174.091   -4886.7471    -4550.998   -4886.7471            0    6206.0981    19.784519    19.843995    20.609346    8091.3094    7159.4002    6110.5482    5348.3458   -413.20909    730.79756   -250.16295    -3818.657 
17613000    169.22198   -4889.5547   -4563.1959   -4889.5547            0    8022.7081    19.769834    19.782252    20.421747    7986.7789    8306.7739    8579.6081    7181.7423   -3.7590899    712.08841    1040.9137   -3628.7191 
17614000    180.61985   -4900.6329   -4552.2923   -4900.6329            0    5540.5238    20.063902    19.734412     20.50745    8119.9105    3412.9264     7348.806    5859.8391   -194.37739   -190.58448    495.40685   -3896.1804 
17615000    171.32501   -4891.8781   -4561.4634   -4891.8781            0    4416.6718    20.070961    19.822054    20.475979    8146.3209    5072.5492     3798.409    4379.0573   -688.08984   -354.93093   -359.04028   -4036.7374 
17616000    167.63308   -4890.4813   -4567.1868   -4890.4813            0    8398.5806    19.732083    20.076519    20.248614    8021.5197    8801.7096    7965.4796    8428.5526    366.72871   -226.63506   -235.95066   -3584.6735 
17617000    169.39833   -4907.8355   -4581.1366   -4907.8355            0    7177.4207    19.879804    19.808582    20.526988    8083.3373    6973.2079    7385.3001     7173.754   -631.67353   -656.23785     532.6245   -3735.0107 
17618000    170.11035   -4884.9765   -4556.9044   -4884.9765            0    8436.9977    19.845968    19.962937    20.227367    8013.7555    7979.1557    8552.8774    8778.9601   -245.92333   -291.22154    316.06784   -3570.8522 
17619000    168.80272   -4895.9515   -4570.4013   -4895.9515            0    6878.2467    19.758803    19.823111    20.620669    8076.7235    9098.5297    6035.7913    5500.4191   -4.5274185   -600.37297    675.06396   -3760.2076 
17620000    177.31415   -4901.3553   -4559.3901   -4901.3553            0    6240.3793     19.95368    19.928476    20.380859     8104.376    8104.4587    4411.3316    6205.3478    613.84269    350.79153   -794.19573   -3821.8146 
17621000    169.23893   -4897.4724   -4571.0809   -4897.4724            0    7941.1953    19.977488    19.669276    20.400214    8016.1158    6872.8198    8152.6044    8798.1616    340.28491    513.21671    280.99477    -3642.701 
17622000    176.73553   -4883.6936   -4542.8442   -4883.6936            0    6640.4222    19.709481    19.814112    20.779667    8114.9973    6528.1838    6964.9511    6428.1317    -30.34668   -120.13275    388.34468   -3756.9575 
17623000    172.07988   -4883.8212   -4551.9507   -4883.8212            0    8635.2581    19.901052    19.883154    20.312153    8037.4316    9518.6152     7918.989    8468.1702   -148.35941      426.466   -1137.8766   -3539.7456 
17624000    171.11732   -4881.7626   -4551.7485   -4881.7626            0    6868.8792    19.833958     19.72598    20.586255    8054.2539    6874.6524    8177.4854    5554.4998    873.33518    478.77264    475.50059   -3744.9091 
17625000    172.81946   -4863.8886   -4530.5917   -4863.8886            0    7229.6072    20.068205    19.816899    20.260372    8057.3392    6648.4266    6850.3901     8190.005   -1.2012693    534.53464     404.4546   -3681.0548 
17626000    165.13831   -4900.7264   -4582.2432   -4900.7264            0     7668.187    19.864944    19.806376     20.56584    8091.6822    7861.6286    8044.4593     7098.473   -505.23467   -345.22827    682.81764    -3677.329 
17627000    169.39579   -4882.2236   -4555.5295   -4882.2236            0    8217.8394    19.777599    19.648437     20.63689    8019.4729     9359.839    7791.9364    7501.7429   -372.78475   -988.57925   -64.611929   -3594.4057 
17628000    169.44576   -4894.5602   -4567.7698   -4894.5602            0    7986.0275    19.908258    19.814621    20.472258    8075.7857     7302.052    7863.3827    8792.6477    423.39526    854.21671    86.604237    -3627.199 
17629000     177.2504   -4860.1503    -4518.308   -4860.1503            0    8297.2094    20.029332    19.762525    20.317232    8042.1735    5855.2574    10994.463    8041.9082     478.8348   -936.37772    301.08591   -3545.1544 
17630000    162.77365   -4896.7009   -4582.7782   -4896.7009            0    6837.8639    19.726855    19.819729    20.600673    8054.4701     8015.649    6018.9925    6478.9503    -229.1666   -25.088374    698.36423   -3779.5604 
17631000    171.28024    -4917.109   -4586.7807    -4917.109            0    6763.8206     20.03838    19.971132    20.297679    8122.9102    5453.8223    7376.2129    7461.4267   -60.098545    528.68509   -161.57524   -3785.5093 
17632000    180.77854   -4881.5414   -4532.8948   -4881.5414            0    7136.8891    19.720354    19.859619    20.595244    8065.8948    9362.3122    5991.5843    6056.7707   -242.80225    1210.5928   -686.23926   -3693.3625 
17633000    187.43572   -4892.0213   -4530.5357   -4892.0213            0    7892.8677    19.786356    19.738982    20.586574    8040.3445    8566.7074    7293.3611    7818.5347    518.07793    1403.6155    273.30374   -3605.0166 
17634000    172.26021   -4896.1603    -4563.942   -4896.1603            0    7981.7654    19.837065    19.853297    20.385956     8028.624    8109.0649    7843.5817    7992.6496   -169.51832   -304.93992    695.50709   -3629.3631 
17635000    174.67585   -4901.1263   -4564.2492   -4901.1263            0    6023.0107    19.912804    19.877716    20.439208     8090.269    6514.1998    4141.9283     7412.904   -105.74966   -705.97431    280.29145   -3853.6045 
17636000    178.83665   -4890.0936   -4545.1921   -4890.0936            0    7907.1528    19.753393    19.593812    20.796579    8049.1967    7267.9437     9325.967    7127.5477   -181.54598    997.50785    479.71989   -3616.9772 
17637000    177.52574   -4902.9362   -4560.5629   -4902.9362            0    8541.7235    19.881377    19.709585    20.490084    8029.1152    6911.4129    10734.665    7979.0925    -735.9718     169.4278   -1688.6667   -3560.3577 
17638000    171.26701    -4889.391   -4559.0882    -4889.391            0    8400.7512    19.775655     19.78907    20.397603     7982.435    7863.3358    9342.3555    7996.5622   -383.55885    16.305066   -127.88984   -3581.1094 
17639000    167.36204   -4905.9349   -4583.1631   -4905.9349            0    7158.6089    19.879591    19.790896    20.491931    8062.2409    6479.3993    7184.2266    7812.2007   -270.96674   -645.62142    621.77257   -3741.4574 
17640000    173.84091   -4883.8307   -4548.5639   -4883.8307            0    5580.6048     19.90899    19.781657    20.572323    8102.0557    5073.7539    5886.2449    5781.8154   -486.65117   -290.60162   -309.75727   -3889.1587 
17641000    170.56591   -4891.8001   -4562.8494   -4891.8001            0    7409.6504    19.834117    19.823263     20.57051    8087.8496    7223.0626    7426.0066    7579.8819   -391.57065    493.45313    732.81483    -3688.859 
17642000     166.8136   -4875.6485   -4553.9345   -4875.6485            0    6779.2247    19.893704    19.927913    20.267648    8034.9065    7093.8293    5725.6333    7518.2115   -155.61903    149.84316   -11.461528    -3759.539 
17643000    173.91524   -4896.3924   -4560.9823   -4896.3924            0    6982.6069    19.542629    19.852001    20.721422    8039.0891    9277.8922    5026.6037    6643.3248    292.14549   -1317.0995    212.18881   -3742.3284 
17644000    176.71371   -4896.6946   -4555.8873   -4896.6946            0    6667.7388    19.774984     19.92434    20.500883    8077.4199    6431.5961    6549.5726    7022.0476   -486.09407   -1878.4283   -536.55963   -3770.4218 
17645000    171.47526   -4889.4055   -4558.7011   -4889.4055            0    6165.1087    20.018731    19.726273    20.482126    8088.2884    4982.5131    6341.8614    7170.9517   -152.55787    17.386276     260.9551   -3831.4686 
17646000    170.34034   -4892.6252   -4564.1095   -4892.6252            0    7168.0087    19.918727    19.683955    20.469786    8025.7801    5301.7855    9893.4068    6308.8337    678.69701   -446.62666   -783.50901   -3725.1101 
17647000    170.40109    -4908.438   -4579.8051    -4908.438            0    8179.7575    19.778456     19.77467    20.534906    8031.4572    10934.729    6354.5091    7250.0347     164.1976    951.23458    282.60956   -3621.7055 
17648000    170.08582   -4894.8756   -4566.8508   -4894.8756            0    5791.9001    19.721371     20.02404    20.519198    8103.0623    5733.9532    5727.4776    5914.2694   -607.77344    1597.9671   -65.317411   -3882.3939 
17649000    183.26428    -4888.908   -4535.4674    -4888.908            0    7902.5708    19.803467    19.803946    20.498576    8039.2707     7011.283    8094.3872    8602.0422    812.36529     1464.496   -490.23934   -3608.9343 
17650000    164.84259   -4879.1039   -4561.1911   -4879.1039            0    7225.5857    19.847051     19.84433    20.455573    8056.4569    6371.6378    8565.2332     6739.886    429.26258   -30.374618    1072.5051   -3712.2198 
17651000    181.93976   -4874.9313   -4524.0452   -4874.9313            0     8030.321    19.645888    19.760603      20.6732    8025.6379    7116.9143    9847.4859    7126.5627   -262.99253    416.74405   -1045.1562   -3584.1307 
17652000    173.35699   -4877.7026    -4543.369   -4877.7026            0    8246.9304    19.735677    19.975917    20.401973    8043.2383    10692.605     5872.797    8175.3895   -212.66668    203.48624    133.19785   -3575.9845 
17653000    165.85017   -4878.0559   -4558.1999   -4878.0559            0    7797.1616    19.802116    19.675729    20.673326    8054.7631    6802.3483    9599.7234    6989.4129    274.74187    1247.7386   -18.174394   -3642.2638 
17654000    174.28296   -4887.4962   -4551.3768   -4887.4962            0    8566.1075    19.941066    19.752554    20.353068    8016.8082    8174.1017    8765.8865    8758.3342    58.909428    417.93065    389.06034   -3549.8539 
17655000     175.7263   -4894.1997   -4555.2968   -4894.1997            0    8335.0039    19.901896    19.637078    20.532901    8024.5674    8129.0343    9583.2116    7292.7659   -273.00785    -209.0748   -89.767407   -3579.8505 
17656000    170.29611    -4896.882   -4568.4516    -4896.882            0     6716.296     19.98062    19.736152    20.470693    8072.4248    5601.5903    8118.7488    6428.5489   -9.3483684    719.08287   -297.06608   -3777.7553 
17657000    174.87407   -4885.5304    -4548.271   -4885.5304            0     7518.837    19.619876    19.860367      20.6262    8037.1626    8708.8891    7174.2546    6673.3673   -407.61879    1803.4602    280.96852   -3666.9598 
17658000    166.06332    -4900.608   -4580.3409    -4900.608            0    6298.0054     19.85505    19.930566    20.338044    8048.2195    5962.4456    5908.6906    7022.8802    180.50175    1791.5286    567.64614   -3841.1124 
17659000    176.78146   -4910.7334   -4569.7955   -4910.7334            0    6507.6913    19.864194    19.860789    20.488806    8083.2145    5799.6787    6271.2073    7452.1879   -635.97663   -356.78861   -599.74857   -3802.6338 
17660000    181.68526   -4895.6391   -4545.2438   -4895.6391            0    7865.7189      19.7269     19.78621    20.534313    8014.9649    7379.3498    8060.6759     8157.131   -578.06331   -640.73376    266.16808   -3625.8196 
17661000    170.84668   -4899.2766   -4569.7844   -4899.2766            0    6940.8387    19.870159    19.803717    20.528332    8077.9601    8527.8512    5907.5434    6387.1214   -262.56132   -108.37093    233.27077   -3752.0928 
17662000    173.70005   -4883.1111   -4548.1159   -4883.1111            0    8067.9052    19.724428    19.878387    20.459046    8021.7831    9442.1594    6549.9021     8211.654   -487.11288    112.23354    740.36022   -3604.2559 
17663000    180.30885   -4894.0828    -4546.342   -4894.0828            0    7794.4633    19.791338    19.872231    20.475608    8053.0167    7288.4918    8065.4578    8029.4403   -114.42933    875.04948   -570.31637   -3630.9213 
17664000    165.27476   -4880.1055   -4561.3592   -4880.1055            0    7829.3598    19.599723    19.777872    20.755616    8045.7243    8971.1843    6745.9419    7770.9533    527.99918    88.155298    1030.0381   -3642.6728 
17665000    173.72089   -4887.8868   -4552.8514   -4887.8868            0    8200.8417    19.983395    19.722454    20.376496    8030.8171    8779.2283    8836.0949    6987.2019   -332.42032   -353.62712   -350.64315   -3592.3588 
17666000     179.0596   -4895.5228   -4550.1913   -4895.5228            0    5643.6884    19.894035    19.779475    20.682421    8138.3993    5180.7477    6625.4205    5124.8971   -158.74653    608.77024   -152.68164   -3880.3407 
17667000    180.21444   -4901.6635   -4554.1048   -4901.6635            0    6175.1197    19.949979    19.855777    20.391711     8077.612    6119.5002    6029.5735    6376.2853    197.83596    70.094619    649.83952   -3826.6529 
17668000    180.32494   -4874.0021   -4526.2303   -4874.0021            0    6931.8854    19.757743    19.807658    20.438604    7998.7415    9032.9813    5743.0119     6019.663    170.84213    525.17932   -1380.8555    -3717.602 
17669000    183.58249   -4888.3036   -4534.2493   -4888.3036            0    7521.9659    19.824847    19.779512    20.570519    8066.2313    6271.3613    8230.7226    8063.8139   -90.268426   -252.54603    612.40362   -3649.3825 
17670000    173.32691   -4884.0907   -4549.8152   -4884.0907            0    7128.0444    19.910927    19.857643    20.419435    8073.5196    6614.9912    7127.0715    7642.0706   -155.99898    599.80527    327.13138   -3710.5307 
17671000    183.40344   -4891.8421   -4538.1331   -4891.8421            0    9007.1229    19.920483    19.662668    20.473044    8019.0831    7620.9125    10284.305    9116.1516    -664.0286    731.21797     730.6351   -3484.7492 
17672000    174.84329   -4907.5509   -4570.3509   -4907.5509            0    4664.3132    19.961607    19.778451    20.527284    8104.3703    5045.8338    4519.8562    4427.2495   -80.074634    1558.2754   -466.62465   -4019.0574 
17673000    164.25488   -4884.6303   -4567.8509   -4884.6303            0    8069.3684    19.828296    19.678963    20.549282    8018.3362    7402.2825    8385.9787    8419.8439    463.96155    -452.8622    -515.3574   -3624.2253 
17674000    175.73801   -4891.8758   -4552.9503   -4891.8758            0    8275.0202    20.029299    19.716186    20.423105    8065.1122    7754.0238    8663.0352    8408.0016   -324.63074    1694.2676    614.23014   -3579.6309 
17675000    171.09872   -4898.5207   -4568.5424   -4898.5207            0    6377.8317    19.972141    19.760763    20.557843    8113.4559    7695.3954    5445.6665    5992.4333   -262.25424   -428.29118   -1003.5412   -3813.8763 
17676000    170.92488    -4901.236    -4571.593    -4901.236            0    7478.4499    19.838746    19.860858    20.417183    8044.6666    6887.9384    7715.8299    7831.5816    -73.49227    294.00486    -848.8184   -3694.1973 
17677000    172.70293   -4878.6589   -4545.5868   -4878.6589            0    7760.7108    19.746096    19.721111    20.553592     8003.876    7480.1756    7430.2528     8371.704    231.00724    791.95301    447.39374    -3639.692 
17678000    172.32423   -4882.4219   -4550.0801   -4882.4219            0     8403.453    19.752819    19.868247    20.365878     7992.668    8170.4307    8155.6979    8884.2304    -603.3513    526.32431    49.209724   -3570.5328 
17679000    178.32801   -4878.9219   -4535.0013   -4878.9219            0    7772.5952    19.873147    19.728288    20.506437    8039.8184    7751.0143    8887.1214      6679.65   -255.45147   -801.54326   -947.82489   -3623.6451 
17680000    182.69608   -4895.6495   -4543.3047   -4895.6495            0    6642.1829     19.86461    19.889388    20.386944    8054.7781    7277.2972    5589.6156    7059.6359   -258.17934   -656.35244    207.90699    -3763.043 
17681000     164.7458   -4880.6456   -4562.9194   -4880.6456            0    7994.2027    19.838949    19.802513    20.476198    8044.3005    7899.6121    8049.7935    8033.2027   -91.333924    852.54932    86.485507   -3625.0566 
17682000    166.38361    -4880.704   -4559.8193    -4880.704            0    5818.1277    19.859145    19.912561     20.51643     8113.149    6290.5881    5344.0606    5819.7343   -26.063355   -97.097462   -68.807827    -3871.407 
17683000    166.28619    -4890.029   -4569.3321    -4890.029            0    6899.5022    19.710327    19.968447     20.44871    8048.2978    8931.7767    4754.5316    7012.1983    139.28612   -243.87104    225.84805   -3759.4949 
17684000    167.21215   -4901.9497    -4579.467   -4901.9497            0    5332.8424    19.892768    19.725961    20.649498    8102.9451    4675.2114    5674.4186    5648.8973    705.31051    242.28818    -117.2751   -3949.2682 
17685000    181.33871   -4890.6979   -4540.9709   -4890.6979            0     6815.057    19.768603    20.107641    20.269362    8057.0709    6423.2275    5977.5403    8044.4033   -512.17201    130.09007    154.78511   -3740.1737 
17686000    176.27194   -4875.6084   -4535.6532   -4875.6084            0     8349.384    19.668367     19.80725     20.61974    8032.9615    8119.0235    9446.4885    7482.6401    -241.1478     483.1152   -290.42455    -3557.502 
17687000    179.40983   -4901.6908   -4555.6838   -4901.6908            0    8833.3464     19.73859    19.840284    20.347734    7968.5639    10640.629    6882.3223    8977.0877    364.30963    560.64674   -412.60605   -3529.1312 
17688000    179.26064   -4897.8853   -4552.1661   -4897.8853            0    6743.9676    19.875979    19.785551    20.560753    8085.6643    6401.4433    7323.9659    6506.4935     260.2476    -124.7994   -390.40432   -3756.9099 
17689000    168.29292   -4892.3113   -4567.7443   -4892.3113            0    8727.7925    19.657002    19.961373    20.412914    8009.6347    10544.165    7550.9075    8088.3051    773.60341    679.06328   -605.81364   -3548.2307 
17690000    187.20384   -4890.6118   -4529.5735   -4890.6118            0    7017.0206    19.743453     19.91009    20.526325    8068.7738    7217.1702    6082.1963    7751.6953   -437.63496   -289.00786   -1047.9222   -3703.8471 
17691000    177.51771   -4890.9289    -4548.571   -4890.9289            0     7627.853    19.576814    19.856271    20.630316    8019.4689    7963.6566    7998.9795    6920.9229    59.737722    -614.8137   -521.95002   -3656.4499 
17692000     176.9979   -4885.4013    -4544.046   -4885.4013            0    7828.7126    19.881692    19.969811    20.238714      8035.45    8802.5228    6540.0387    8143.5762    852.57019   -394.05313    142.30937   -3626.6086 
17693000    177.27458   -4891.7834   -4549.8945   -4891.7834            0    6498.8391    19.811038    19.785503    20.617002    8081.2743    5117.7777    8058.3735    6320.3662    99.772371    -935.3764    -750.4671   -3783.9601 
17694000     179.4957   -4890.6126     -4544.44   -4890.6126            0    6285.8626    19.609187    20.102133    20.459737     8064.952    8632.7256     3384.757    6840.1052   -317.94945    914.21593    991.08091   -3805.1028 
17695000    170.04249   -4874.2168   -4546.2756   -4874.2168            0    8177.2765    19.608702    19.906174    20.536716    8016.1831    7180.8987    9443.6327    7907.2982   -587.54736    523.01974   -992.55963   -3590.2881 
17696000    176.04812    -4900.632   -4561.1084    -4900.632            0    5603.2663    19.821429     19.89187    20.455561    8065.3268    6557.0982    4105.4013    6147.2996    413.69992    288.40969    458.08604   -3902.0269 
17697000    174.37471   -4892.3512   -4556.0549   -4892.3512            0    6756.2368    19.860888    19.656426    20.728255     8092.188    6329.7597    8079.8479    5859.1028    366.47932   -1130.7173    1088.0073    -3758.709 
17698000    178.97537    -4894.882   -4549.7129    -4894.882            0    7742.1695    20.019742    19.868974    20.282732    8067.8976    7074.7168    8451.6669    7700.1249    106.03072      619.726    1382.8128   -3638.7537 
17699000    174.61534   -4881.4014   -4544.6411   -4881.4014            0    7114.4289     19.71059    19.812701    20.704434    8085.4962    9410.9113    5415.9638    6516.4116    275.35934    619.47836    243.51072   -3705.7171 
17700000    170.32409   -4888.2457   -4559.7613   -4888.2457            0    7083.9936    19.710729    19.962798    20.495871    8064.7418    7296.9349    6655.7941    7299.2518   -619.44951    238.16104    345.72505   -3726.5704 
17701000    171.05276   -4886.2002   -4556.3106   -4886.2002            0    7467.2006    19.814633    19.601627    20.717721    8046.7433     7033.271    8318.7772    7049.5536    248.19673    344.13525    167.26961   -3680.0085 
17702000    173.39161   -4882.1555   -4547.7552   -4882.1555            0    7846.3903    19.937013    19.849941    20.333896    8047.1095    7322.1974    8671.3015    7545.6719    441.96798   -662.75841   -1286.5962    -3626.912 
17703000    175.13583    -4911.066   -4573.3018    -4911.066            0    7836.8542    19.887712    19.815497    20.379175    8031.1251    7669.8365    7984.9027    7855.8235   -187.78565    667.83558    484.86498   -3655.4046 
17704000    165.47605   -4886.0925    -4566.958   -4886.0925            0    7618.0502    19.802274    19.690661    20.563431    8018.0904    8066.8339    7259.3243    7527.9922   -627.81516    373.80809   -277.37904   -3676.1365 
17705000    163.15522   -4894.2664   -4579.6078   -4894.2664            0    7713.9333    19.960833    19.803938     20.34472    8042.3307     8453.375    6664.8975    8023.5273   -385.40549    209.57638    221.81942   -3674.8472 
17706000    169.84233   -4898.8928   -4571.3376   -4898.8928            0    7505.1522     19.75832    19.795377    20.526511    8028.3987    8163.5692    7764.9795    6586.9078   -561.33898    794.43537    1107.9696   -3692.5896 
17707000    181.46982   -4906.8586   -4556.8788   -4906.8586            0    5527.6524    19.640018    20.193307    20.334326     8064.531    7611.1974    2825.9403    6145.8194   -238.33222   -20.126125    440.07235   -3906.7555 
17708000    176.55521   -4888.1385   -4547.6369   -4888.1385            0    8268.3948    19.683592    19.816957    20.628872    8046.6814    8547.6591    8645.2998    7612.2254    480.44357    364.38636    669.87476   -3577.3193 
17709000    171.58793   -4886.5448   -4555.6231   -4886.5448            0    7371.7682    19.748941     20.07257    20.341525    8063.6247    8081.3146    6335.5518    7698.4382    10.291051    186.56798    755.47985   -3688.7054 
17710000    181.18977   -4891.6276   -4542.1879   -4891.6276            0    5089.3303    19.904536    19.713566    20.717394    8129.2851    4165.8285    5628.3119    5473.8504    838.24421    592.74655    79.014528   -3938.8107 
17711000    177.23509   -4890.4526   -4548.6398   -4890.4526            0    7387.6175    19.739313    20.021497    20.362011    8047.2824    6634.2086    7814.9883    7713.6556    -81.96174   -102.66089    381.31039    -3681.619 
17712000    178.63084   -4901.1361   -4556.6315   -4901.1361            0    7660.4569    19.775546    19.717903    20.705049    8073.5676    6580.7339    8886.1166    7514.5202    -16.74139    1323.7106    1000.8897   -3654.6533 
17713000    179.43505   -4879.1697   -4533.1141   -4879.1697            0     7564.821    19.939488    19.707737    20.426467    8026.8293    6042.8699    8105.2185    8546.3746      138.882   -532.67848   -485.99036   -3647.5529 
17714000    170.77955   -4875.5604   -4546.1977   -4875.5604            0    6941.2889    19.830147    19.710686    20.613231    8057.0073    7177.3637    7945.7991    5700.7039   -262.42156    450.34285    514.78374   -3730.5742 
17715000    168.28819   -4906.2027   -4581.6448   -4906.2027            0    7649.1774    19.714561    19.919388    20.476296    8041.0821    8633.0917    6022.0126    8292.4278   -311.89955    60.048182   -193.90303   -3684.6186 
17716000     169.3106   -4891.0881   -4564.5583   -4891.0881            0    7272.7182    19.721638    19.873088    20.541936    8050.9981    7967.3079    7847.7981    6003.0485   -97.278579    40.059832     13.14997   -3710.6281 
17717000    173.83877   -4917.8045   -4582.5418   -4917.8045            0     6440.741     19.66385    19.969065    20.553598    8070.7544    7610.8057    5363.8986    6347.5186    104.63955   -352.92578   -415.46449   -3824.4429 
17718000    174.67055   -4882.8375   -4545.9707   -4882.8375            0    6826.5005    19.880823    19.916906    20.473965    8106.9631     5529.334    7710.7205    7239.4469   -543.28915    540.63743     288.5839   -3738.8616 
17719000    172.97745   -4872.9948   -4539.3933   -4872.9948            0    8553.6016     19.85454    19.719992    20.460267    8010.8363    9679.8936    6384.1935    9596.7175   -172.78232    753.82779    701.57421   -3540.0775 
17720000    174.92834   -4909.7899   -4572.4259   -4909.7899            0    6734.7902    19.821209    19.767493     20.53711    8046.7603    6449.1949    7574.0709    6181.1047   -551.31208    646.32987     319.1861   -3782.0731 
17721000    170.56684   -4883.9009   -4554.9484   -4883.9009            0    7555.3851    19.704461    20.001954    20.381793    8033.0297    9888.5066    5224.5127    7553.1362   -306.77385     804.0901    991.53445   -3669.8086 
17722000    163.39066   -4886.2926   -4571.1799   -4886.2926            0     7045.881      19.8192    19.881165    20.517578    8084.5164    7325.6623    6306.2859    7505.6948    403.41112    141.92303    349.59067   -3740.4397 
17723000    170.37979   -4896.6839   -4568.0921   -4896.6839            0    6916.5792    19.837171     19.81419    20.502486    8058.6556    4711.1052    8813.5015     7225.131    251.19711    1178.0028    1103.0797   -3755.2058 
17724000    168.70987   -4882.2208   -4556.8496   -4882.2208            0     7670.298    19.858006    19.842195    20.427701    8049.0541    8789.9993    6986.9756    7233.9191    350.47517    452.93412    370.89102   -3656.4548 
17725000    176.77256   -4907.8768   -4566.9561   -4907.8768            0    7660.2151    19.654556    19.629567    20.712821    7991.2224    8098.9603    8122.4499    6759.2351    384.68799    1322.3928    983.97406   -3674.2056 
17726000     173.8699   -4894.4538    -4559.131   -4894.4538            0    7103.4444    19.894126    19.948089    20.386482     8090.371    6467.5279    7362.1781    7480.6273    156.98116   -328.52214    37.667747   -3720.9973 
17727000    183.22647   -4873.1829   -4519.8152   -4873.1829            0    6663.5959    19.798002    19.879901    20.477689    8059.6563    6125.0504    5915.8585    7949.8787    311.68508   -73.777579    1.0836359    -3736.564 
17728000    173.90425   -4869.3513   -4533.9623   -4869.3513            0    7984.4373    19.666285    19.762702    20.640389    8022.0715    9243.1443    7596.0328    7114.1347   -173.63437    546.74095   -404.59637   -3599.8336 
17729000    173.15876   -4879.6196   -4545.6684   -4879.6196            0    7179.1765    20.014042     19.62459    20.526829    8062.2685    7850.9789    6940.6125    6745.9381   -653.77448    643.88958    -44.40311   -3701.5414 
17730000    177.40082   -4877.4481   -4535.3157   -4877.4481            0    6739.5933    19.826374    19.921389    20.550761    8116.9117    6258.1929    7158.4122    6802.1749   -570.53382    25.339864    1106.4019    -3737.504 
17731000    179.16874   -4887.2745   -4541.7325   -4887.2745            0    7209.9186    19.710361     19.82528    20.649076     8068.904    6532.6043    7968.7512    7128.4004   -537.93935    121.86866   -367.65546   -3693.2931 
17732000    171.26567   -4884.4801   -4554.1798   -4884.4801            0    6358.4607    19.684135    20.135818    20.436021    8099.9426    8463.8417    5266.6477    5344.8926     241.8512   -303.74179    1619.8657    -3803.059 
17733000    175.39989   -4901.6751   -4563.4016   -4901.6751            0    6381.9051    19.918528    19.777771    20.443288    8053.5124    6213.1034    6535.1558     6397.456   -702.88955   -351.01519   -306.95235   -3813.8327 
17734000     177.4175   -4882.3206    -4540.156   -4882.3206            0    7465.2938    19.708109    19.642117    20.715897      8019.31    7500.1341    7960.4439    6935.3036    132.39607    1797.7005   -27.736151   -3667.0644 
17735000    168.26341     -4894.36   -4569.8498     -4894.36            0    7855.0264     19.69595    19.905831    20.381892    7991.0113    7474.9334    7510.3831    8579.7626    121.89817     1377.289   -257.33117   -3654.4195 
17736000    180.67709   -4916.2708   -4567.8199   -4916.2708            0    7713.2479    19.815463    19.681656     20.66502    8059.3813    7301.6142    9715.6064    6122.5231   -120.70502    914.11821   -294.50042   -3661.2216 
17737000    175.30838   -4894.2624   -4556.1654   -4894.2624            0    7193.0573    19.852692    19.876289    20.434939     8063.583    6858.8963    7737.6191    6982.6564     -56.8511   -293.89523   -868.60268   -3710.2685 
17738000    178.43443   -4888.1448    -4544.019   -4888.1448            0    7755.6021    19.746806    19.727694    20.666094    8050.6617    7635.7306    7067.4704    8563.6053     167.6969   -788.67975    81.124484   -3633.4287 
17739000    173.57354    -4889.898   -4555.1469    -4889.898            0    6669.8012    19.857155    19.969639    20.293426    8047.1595    7423.8259    6054.7911    6530.7866    213.68167    622.01295    -283.7474   -3772.3819 
17740000    176.07922   -4884.1897   -4544.6061   -4884.1897            0    7937.6413    19.964783    19.700822    20.427925    8034.7652    8088.2906     8334.926    7389.7072   -578.06632   -790.87741    1082.4085   -3614.4828 
17741000    171.02783   -4896.6385    -4566.797   -4896.6385            0    6243.3695    19.825016    19.747307    20.568556    8052.3981    5317.8804    8420.7818    4991.4461   -207.17066    304.68131   -44.687184   -3833.6009 
17742000    170.72045   -4882.1227    -4552.874   -4882.1227            0    8796.1416    19.586121    19.912181    20.604669    8035.8702    10187.078    7695.4456    8505.9012    566.78714    344.97969    716.18826   -3522.0108 
17743000    167.86447     -4863.51   -4539.7693     -4863.51            0    7453.6354    19.617657    19.923953    20.637819    8066.5245    7987.8178    7215.9626    7157.1258   -230.94436   -694.08288   -668.54265   -3662.9088 
17744000    183.46807   -4896.5621   -4542.7285   -4896.5621            0    7827.7352    19.932482    19.859719     20.37085    8063.8719    7531.4357     8149.254     7802.516   -81.816073   -686.38745    157.54217    -3622.161 
17745000    182.89187   -4875.1121   -4522.3898   -4875.1121            0    7543.0862    19.724235    19.630802    20.755849    8036.7176    9112.7701    7483.0695    6033.4189   -450.02262   -1816.3937   -159.84322   -3638.2852 
17746000    166.58587   -4868.3166   -4547.0417   -4868.3166            0    6537.4377    19.892926     19.83596    20.479583    8081.1467    6680.1328    6974.1878    5957.9927   -569.93368    520.84317    -375.6274   -3776.5705 
17747000    168.14782   -4882.5547   -4558.2675   -4882.5547            0    7617.1102    20.039104    19.843945    20.216363    8039.1353    6190.4108    8298.0511    8362.8687    447.07514    1292.9789    -61.48464   -3665.2182 
17748000     180.5891   -4887.2147   -4538.9334   -4887.2147            0    6681.9401    19.863711    19.659552    20.633581    8057.6541    9364.2777    4879.7529    5801.7898   -361.79702   -636.19694    382.50806   -3753.7211 
17749000    166.26916   -4885.4751    -4564.811   -4885.4751            0     7345.132    19.498675    20.016148    20.557891    8023.5056    8501.7727    6501.1243    7032.4989    167.56999   -751.18755    1096.4708   -3705.3234 
17750000    179.37039   -4870.8115   -4524.8807   -4870.8115            0    6916.7435     19.86278    19.763771    20.468949    8035.3606    7525.3178    6040.4238     7184.489   -820.39512    375.72349    609.74353   -3714.3248 
Loop time of 338.362 on 64 procs for 250000 steps with 972 atoms

Performance: 127.674 ns/day, 0.188 hours/ns, 738.853 timesteps/s
196.0% CPU use with 32 MPI tasks x 2 OpenMP threads

MPI task timing breakdown:
Section |  min time  |  avg time  |  max time  |%varavg| %total
---------------------------------------------------------------
Pair    | 27.493     | 36.954     | 48.953     |  87.9 | 10.92
Bond    | 0.99782    | 1.3024     | 2.3446     |  24.1 |  0.38
Kspace  | 146.56     | 157.99     | 169.45     |  46.6 | 46.69
Neigh   | 1.2591     | 1.3744     | 1.5401     |   8.1 |  0.41
Comm    | 55.577     | 60.82      | 65.694     |  36.2 | 17.97
Output  | 0.51319    | 0.51358    | 0.51483    |   0.0 |  0.15
Modify  | 64.69      | 66.923     | 71.187     |  17.1 | 19.78
Other   |            | 12.49      |            |       |  3.69

Nlocal:        30.3750 ave          36 max          24 min
Histogram: 2 1 1 5 4 7 4 3 3 2
Nghost:        2691.06 ave        2724 max        2664 min
Histogram: 3 4 4 4 4 4 2 2 2 3
Neighs:        9767.56 ave       12205 max        7523 min
Histogram: 4 1 3 3 8 3 5 1 0 4

Total # of neighbors = 312562
Ave neighs/atom = 321.56584
Ave special neighs/atom = 2.0000000
Neighbor list builds = 4008
Dangerous builds = 0

unfix		3
unfix		2
unfix		1

write_data	data.final.${pid}
write_data	data.final.1
System init for write_data ...
PPPM initialization ...
  extracting TIP4P info from pair style
  using 12-bit tables for long-range coulomb (../kspace.cpp:340)
  G vector (1/distance) = 0.37217413
  grid = 24 24 24
  stencil order = 5
  estimated absolute RMS force accuracy = 0.0035107526
  estimated relative force accuracy = 1.0572527e-05
  using double precision FFTW3
  3d grid and FFT values/proc = 3211 432
Last active /omp style is kspace_style pppm/tip4p/omp
WARNING: Not all mixed pair coeffs generated from mixing. Use write_data with 'pair ij' option to store all pair coeffs. (../write_data.cpp:312)

write_restart   restart.lmp.${pid}
write_restart   restart.lmp.1
System init for write_restart ...
PPPM initialization ...
  extracting TIP4P info from pair style
  using 12-bit tables for long-range coulomb (../kspace.cpp:340)
  G vector (1/distance) = 0.37217413
  grid = 24 24 24
  stencil order = 5
  estimated absolute RMS force accuracy = 0.0035107526
  estimated relative force accuracy = 1.0572527e-05
  using double precision FFTW3
  3d grid and FFT values/proc = 3211 432
Last active /omp style is kspace_style pppm/tip4p/omp
Total wall time: 0:05:38
