LAMMPS (30 Jul 2021)
Processor partition = 0
  using 2 OpenMP thread(s) per MPI task
using multi-threaded neighbor list subroutines
variable        pid world 0 1
variable        phase world IceII IceIh

shell cd ${phase}
shell cd IceII
include Restart.lmp
echo both
log log.lammps
#include		in.partitions
include		in.temp
variable        temperature equal 202.60
variable	tempDamp equal 100.0
include		in.pressure
variable        pressure equal 2097.3
variable        pressureDamp equal 1000.0 # This is 1 ps
include		in.seed
variable        seed equal 745823

units		real
atom_style	full
box tilt large
read_restart	restart.lmp.${pid}
read_restart	restart.lmp.0
Reading restart file ...
  restart file = 30 Jul 2021, LAMMPS = 30 Jul 2021
  restoring atom style full from restart
  triclinic box = (-10.888396 -9.1404274 -0.017628975) to (12.868396 12.130425 21.877628) with tilt (-9.2811241 2.1641151 3.1094927)
  4 by 2 by 4 MPI processor grid
  restoring pair style lj/cut/tip4p/long/omp from restart
  restoring bond style harmonic/omp from restart
  restoring angle style harmonic/omp from restart
  1296 atoms
  864 bonds
  432 angles
Finding 1-2 1-3 1-4 neighbors ...
  special bond factors lj:    0        0        0       
  special bond factors coul:  0        0        0       
     2 = max # of 1-2 neighbors
     1 = max # of 1-3 neighbors
     1 = max # of 1-4 neighbors
     2 = max # of special neighbors
  special bonds CPU = 0.002 seconds
  read_restart CPU = 0.010 seconds
include 	in.setup
variable	out_freq equal 1000
variable	out_freq2 equal 10000
variable	out_freq3 equal 1000

timestep	2.0

neigh_modify    delay 7 every 1

include		in.tip4p
# This is TIP4P/Ice

# create groups ###
group ox type 2
432 atoms in group ox
group hy type 1
864 atoms in group hy

# set charges - beside manually ###
set group ox charge -1.1794
Setting atom values ...
  432 settings made for charge
set group hy charge 0.5897
Setting atom values ...
  864 settings made for charge

# ### TIP3P Potential Parameters ###
pair_style lj/cut/tip4p/long/omp 2 1 1 1 0.1577 8.5
pair_coeff 1 1*2 0.000 0.000
pair_coeff 2 2 0.21084 3.1668
bond_style  harmonic
bond_coeff  1 450 0.9572
angle_style harmonic
angle_coeff 1 55 104.52
kspace_style pppm/tip4p/omp 1.0e-5
pair_modify tail yes

thermo          ${out_freq}
thermo          1000
thermo_style    custom step temp pe etotal epair emol press lx ly lz vol pxx pyy pzz pxy pxz pyz enthalpy

restart 	${out_freq3} restart.lmp.${pid} restart2.lmp.${pid}
restart 	1000 restart.lmp.${pid} restart2.lmp.${pid}
restart 	1000 restart.lmp.0 restart2.lmp.${pid}
restart 	1000 restart.lmp.0 restart2.lmp.0


include         in.dump
dump            myDump all atom ${out_freq2} dump.water.${pid}
dump            myDump all atom 10000 dump.water.${pid}
dump            myDump all atom 10000 dump.water.0
dump            myDump2 all dcd ${out_freq2} dump.dcd
dump            myDump2 all dcd 10000 dump.dcd
dump_modify     myDump append yes
dump_modify     myDump2 append yes


variable natoms 	equal  "count(all)"                        # NUMBER ATOMS
variable H      	equal  "enthalpy/v_natoms"                 # ENTHALPY-per-atom
variable Vol      	equal  "vol/v_natoms"                 # volume-per-atom
fix AVG all 		ave/time ${out_freq} 1 ${out_freq} v_Vol v_H file vol_enthalpy.dat
fix AVG all 		ave/time 1000 1 ${out_freq} v_Vol v_H file vol_enthalpy.dat
fix AVG all 		ave/time 1000 1 1000 v_Vol v_H file vol_enthalpy.dat


timer           timeout 10:00:00 every 1000
New timer settings: style=normal  mode=nosync  timeout=10:00:00

fix 		1 all shake 1e-6 200 0 b 1 a 1
Finding SHAKE clusters ...
       0 = # of size 2 clusters
       0 = # of size 3 clusters
       0 = # of size 4 clusters
     432 = # of frozen angles
  find clusters CPU = 0.001 seconds
fix             2 all nph tri ${pressure} ${pressure} ${pressureDamp}
fix             2 all nph tri 2097.3 ${pressure} ${pressureDamp}
fix             2 all nph tri 2097.3 2097.3 ${pressureDamp}
fix             2 all nph tri 2097.3 2097.3 1000
fix             3 all temp/csvr ${temperature} ${temperature} ${tempDamp} ${seed}
fix             3 all temp/csvr 202.6 ${temperature} ${tempDamp} ${seed}
fix             3 all temp/csvr 202.6 202.6 ${tempDamp} ${seed}
fix             3 all temp/csvr 202.6 202.6 100 ${seed}
fix             3 all temp/csvr 202.6 202.6 100 745823


run             250000
PPPM initialization ...
  extracting TIP4P info from pair style
  using 12-bit tables for long-range coulomb (../kspace.cpp:340)
  G vector (1/distance) = 0.37584093
  grid = 30 40 36
  stencil order = 5
  estimated absolute RMS force accuracy = 0.002829863
  estimated relative force accuracy = 8.5220484e-06
  using double precision FFTW3
  3d grid and FFT values/proc = 8352 2400
Last active /omp style is kspace_style pppm/tip4p/omp
Neighbor list info ...
  update every 1 steps, delay 7 steps, check yes
  max neighbors/atom: 2000, page size: 100000
  master list distance cutoff = 10.8154
  ghost atom cutoff = 10.8154
  binsize = 5.4077, bins = 7 5 5
  1 neighbor lists, perpetual/occasional/extra = 1 0 0
  (1) pair lj/cut/tip4p/long/omp, perpetual
      attributes: half, newton on, omp
      pair build: half/bin/newton/tri/omp
      stencil: half/bin/3d/tri
      bin: standard
Setting up Verlet run ...
  Unit style    : real
  Current step  : 7500000
  Time step     : 2
  Walltime left : 9:59:59.92
Per MPI rank memory allocation (min/avg/max) = 10.67 | 10.70 | 10.81 Mbytes
Step Temp PotEng TotEng E_pair E_mol Press Lx Ly Lz Volume Pxx Pyy Pzz Pxy Pxz Pyz Enthalpy 
 7500000    206.17759   -6415.0438   -5884.6645   -6415.0438            0    1210.5569    23.756793    21.270853    21.895257     11064.27   -112.71862    2793.1227    951.26649   -422.56145   -773.55982   -548.32961   -5689.3278 
 7501000    205.54259   -6466.6084   -5937.8626   -6466.6084            0    1440.3758    23.242618    21.672208    21.830802    10996.587    1743.8108    658.65925    1918.6575   -543.11634    332.88676    477.33712   -5706.8638 
 7502000    205.17531   -6464.8346   -5937.0336   -6464.8346            0    2571.8179     23.41379    21.414124     21.84936    10954.959    2048.4739    3121.7431    2545.2366   -8.9062156    405.18332    -193.3266   -5526.1424 
 7503000    200.16544   -6454.6527   -5939.7393   -6454.6527            0    3226.6144    23.477027    21.432065    21.758132    10947.847    2673.2288    2997.5006    4009.1137   -1376.6118    134.67424    612.83398    -5424.568 
 7504000    194.19532   -6467.8751   -5968.3195   -6467.8751            0    2540.8755    23.212261    21.718976    21.729431    10954.817     3058.768    1857.7504     2706.108    231.32367   -555.44575   -719.00855   -5562.3771 
 7505000    204.38911   -6464.1436   -5938.3651   -6464.1436            0    2081.2407    23.474604    21.425644     21.82726    10978.206    1797.1828    2030.9204     2415.619   -948.19584   -334.98048    204.43971   -5605.1462 
 7506000    207.54646   -6448.8791   -5914.9785   -6448.8791            0    2254.1771    23.454052     21.52773    21.776578    10995.267    2564.6022    1686.7107    2511.2183    942.39779    -632.6629   -84.985041   -5553.5106 
 7507000    198.00212   -6455.6474    -5946.299   -6455.6474            0    2574.2021    23.186488    21.607675    21.936312    10990.226    3463.3443     2228.509     2030.753     180.5559    384.24642   -942.66608   -5533.7029 
 7508000    202.32975   -6453.3492   -5932.8682   -6453.3492            0    1724.7126    23.478796    21.316341    22.040582    11030.915    1286.2584    2684.2019    1203.6775   -60.578614    184.27453    721.97635   -5655.4058 
 7509000    212.16355   -6444.1597   -5898.3819   -6444.1597            0     2302.278    23.336331    21.624456    21.848289    11025.421    3450.6948    901.69511    2554.4442   -1194.4044   -208.30698   -276.60739   -5528.1883 
 7510000    207.89982   -6463.0906    -5928.281   -6463.0906            0    2931.6444    23.426264    21.539723    21.748805    10974.343    3049.5955     2290.443    3454.8948   -708.13349     158.1727   -154.34978   -5459.0726 
 7511000    204.63545   -6462.4434   -5936.0312   -6462.4434            0    1758.0123      23.3995    21.448351    21.843647    10962.904    1657.5113     2337.634    1278.8914    523.69542    48.317732    23.824973   -5654.9554 
 7512000    207.28543   -6436.2204   -5902.9913   -6436.2204            0    1443.7815    23.314513    21.619376    21.910246    11043.754    2119.6691    1709.4068    502.26864    206.23203    519.69893   -471.40933   -5670.4532 
 7513000    213.36191   -6464.5988   -5915.7382   -6464.5988            0    1289.9473     23.37375    21.467492    21.975796    11026.922    1643.6124    950.16854     1276.061    261.68158   -282.79561    69.898116   -5708.2936 
 7514000    197.89837   -6468.4553   -5959.3738   -6468.4553            0    2655.1654    23.373704    21.413848    21.892159    10957.484    2724.9917    2961.5128    2278.9918    669.76136    471.79478   -71.675211   -5535.0686 
 7515000    203.68653   -6455.2722    -5931.301   -6455.2722            0    2155.8266    23.417923    21.562009     21.78306    10999.083    1745.1962     2108.979    2613.3046    -654.8947    66.422425   -404.34187   -5585.4841 
 7516000    205.56667    -6465.013   -5936.2052    -6465.013            0    2633.7302    23.537124    21.504931    21.637293    10952.024    862.86706    4546.5495    2491.7739    462.38066    223.69625    180.40313   -5515.5352 
 7517000    203.94689   -6462.0765   -5937.4355   -6462.0765            0    2141.9679    23.511706    21.493563    21.700623    10966.417    2104.6547    1947.3455    2373.9035    297.12479   -418.55341    20.658373   -5594.8622 
 7518000    198.40911   -6471.7179   -5961.3226   -6471.7179            0    2167.0468     23.48153    21.573711    21.681991    10983.744    2089.0087    1094.1242    3318.0074   -961.48934   -281.92004   -256.74311   -5614.1907 
 7519000    202.86175   -6463.3693   -5941.5198   -6463.3693            0    3320.9364    23.335026    21.458088     21.83969    10935.679     4234.752    1887.5594    3840.4978    526.00288    685.26156    686.90918    -5411.878 
 7520000    200.37122   -6470.0392   -5954.5964   -6470.0392            0    1581.6478    23.337864    21.494635    21.956256    11014.111    1256.2375    2388.8887    1099.8172    403.04463    834.24068   -511.35751   -5700.5371 
 7521000    194.12008   -6463.4771   -5964.1151   -6463.4771            0     1075.282    23.304939    21.505715    22.047129    11049.787    1400.4056      991.739    833.70131     138.3826    -77.70672    401.04803   -5790.8336 
 7522000     202.2821   -6449.2832   -5928.9248   -6449.2832            0    1646.8397    23.322681    21.497388    21.997275    11028.922    3191.4282    2164.0934   -415.00262    493.32993   -534.22156    31.882768   -5664.0381 
 7523000    204.96463   -6471.9418   -5944.6828   -6471.9418            0    2557.6854    23.439452    21.493637    21.752238    10958.757    2915.6336    2313.9571    2443.4654    570.02684   -893.87355   -535.89062   -5535.9078 
 7524000    217.40286   -6442.8015   -5883.5459   -6442.8015            0    1995.4779    23.452845    21.514391    21.792073    10995.706    2124.4948    2207.3337     1654.605   -21.366055   -542.91394   -209.79197   -5563.5489 
 7525000    210.92182   -6446.1165   -5903.5329   -6446.1165            0    1066.3975    23.386018       21.574    21.860301    11029.177    1419.3443    561.00858    1218.8397    216.42659      821.755    1201.3803   -5732.0037 
 7526000    209.40136   -6444.4834   -5905.8112   -6444.4834            0    1623.0144    23.520657    21.517084    21.775282    11020.383    664.78653    2081.4867      2122.77   -602.50207    -605.0095    808.53117   -5644.9587 
 7527000    207.01167   -6454.2127   -5921.6878   -6454.2127            0    1775.4415    23.465995    21.557974    21.763867     11009.89    1744.7285      1892.15    1689.4461    155.00782    9.6445261    104.65153   -5636.6088 
 7528000    193.70599   -6457.4094   -5959.1125   -6457.4094            0    2762.7215    23.226794    21.588375     21.85271    10957.577    2995.2889    2470.3501    2822.5255    848.10284    1793.5516    1829.6485   -5517.6157 
 7529000     202.4931    -6476.966   -5956.0649    -6476.966            0     597.7469    23.647965    21.403081    21.831967    11050.016   -157.42062    450.21092    1500.4504   -728.79884   -78.746276    493.12921   -5859.7361 
 7530000    214.91165   -6455.7073   -5902.8602   -6455.7073            0    2043.1151    23.276901    21.653588    21.834996    11005.459    2370.7514    1441.5519     2317.042    444.78385    196.82355    218.26495   -5574.9334 
 7531000    207.32007   -6442.8678   -5909.5496   -6442.8678            0    1557.2724    23.334756    21.511381    21.900443    10993.208    1553.2498    3218.1582   -99.590882     519.0241     99.88987    317.74627   -5659.8804 
 7532000    210.64425   -6462.5591   -5920.6896   -6462.5591            0    2312.4035    23.526756    21.399608    21.834715    10992.979    1796.7529    2502.6922    2637.7655   -753.06227   -682.67106   -1395.9772    -5549.962 
 7533000    198.23589   -6446.9565   -5937.0067   -6446.9565            0    2977.1396    23.223872    21.559649    21.872475    10951.516    3770.7873    2386.8832    2773.7483   -31.903736    1274.0074    577.48436    -5461.508 
 7534000    201.43094   -6463.8573   -5945.6884   -6463.8573            0    2692.0938    23.401565    21.384413    21.885397    10952.081    3357.9562    3021.0593     1697.266   -609.56961    -295.1919    137.66344   -5515.6941 
 7535000    198.40949   -6473.5395   -5963.1432   -6473.5395            0    1833.0186     23.24793    21.586548    21.877879    10979.251    2529.5593    1037.9976    1931.4991   -1053.0471   -610.48171    326.00406   -5669.6382 
 7536000    193.49769   -6453.3477   -5955.5867   -6453.3477            0     1263.247    23.328501    21.452184    22.024363    11022.033    1611.8214    1726.7561    451.16353    702.57796   -147.03386    364.99592    -5752.526 
 7537000    201.55275   -6449.0541   -5930.5719   -6449.0541            0    2116.3026    23.471875    21.425704     21.89364    11010.343     1895.231    2631.0405    1822.6363    8.3359172   -218.58812    -100.3439   -5590.7476 
 7538000    198.62626   -6443.4769    -5932.523   -6443.4769            0    2824.6859    23.381473    21.578433    21.741441     10969.33     3492.466    2157.2594    2824.3322    -42.65903   -1061.6051   -1185.4537   -5480.6398 
 7539000    207.76086   -6465.1212    -5930.669   -6465.1212            0    3448.7981    23.361859    21.529401    21.673541    10901.072    3082.5413    3225.3235    4038.5295    929.84544    159.04359   -575.56553   -5382.3758 
 7540000    199.11696   -6458.4651   -5946.2489   -6458.4651            0    4050.4722    23.440504    21.391369    21.673167    10867.456    4000.0572    4064.9888    4086.3706     6.027543    114.90954    578.91933   -5304.2867 
 7541000    201.85951   -6474.5611   -5955.2898   -6474.5611            0    2007.8907    23.314665    21.715416    21.726313    10999.764    3044.8576    806.31299    2172.5014    677.86261   -1159.6448   -278.09246   -5633.1835 
 7542000    197.89753   -6447.6247   -5938.5453   -6447.6247            0    1763.5484    23.479239    21.504262    21.839479    11026.833    2721.2816    1152.9051    1416.4585    265.07429   -463.80957    957.05616   -5654.9402 
 7543000    200.12454   -6440.3606   -5925.5524   -6440.3606            0     1414.156    23.449118    21.639424    21.735993    11029.395     2023.267     429.9272    1789.2737    732.99042   -1189.6968    549.30782    -5698.082 
 7544000    200.95848   -6446.6326   -5929.6791   -6446.6326            0    1347.4222    23.353366     21.70108     21.73343    11014.356    2363.6075   -32.479959    1711.1391   -996.94681    43.770704   -196.58201   -5713.2385 
 7545000    189.57412   -6477.9135   -5990.2457   -6477.9135            0    1215.4297     23.55921    21.355276    21.901736    11019.057    240.09825    1925.3435    1480.8474   -618.21456    808.26611    853.76608   -5794.9241 
 7546000    198.80202   -6438.7932   -5927.3871   -6438.7932            0    3292.1475     23.28413    21.577345    21.761635    10933.257    3450.1447    2853.5737    3572.7241    138.44337    176.78479     523.4163   -5402.4531 
 7547000    207.63602   -6492.8025   -5958.6715   -6492.8025            0    3459.2832    23.341313     21.39196    21.831873    10901.013    5064.0456    3080.9684    2232.8357   -269.26514   -360.58719   -267.10043   -5408.7143 
 7548000    206.49182   -6459.2309   -5928.0433   -6459.2309            0    741.42828    23.475519    21.409895    21.984327    11049.507    220.22626    2413.9089   -409.85033   -414.61332   -750.01771   -76.699401   -5808.5653 
 7549000    209.38656   -6456.9268   -5918.2927   -6456.9268            0    1566.4094    23.350491    21.652991    21.824634    11034.709    2388.0638    939.67863    1371.4858    -410.1586    89.230062   -1148.7879   -5666.2106 
 7550000    204.57012   -6461.6803   -5935.4361   -6461.6803            0     1471.854    23.439873    21.383928    21.992195    11023.292    2647.7116    1030.9487    736.90151    730.03843    300.42825   -492.87502   -5698.8159 
 7551000    201.03493   -6429.5699   -5912.4198   -6429.5699            0    2544.0423     23.25115    21.540923    22.004581    11021.021     3029.699    2559.9005    2042.5275    1986.7776    381.65164    579.47492   -5503.5151 
 7552000    198.38347    -6469.025   -5958.6956    -6469.025            0    2788.8176    23.336649    21.555904    21.766843    10949.648    2780.3623    2069.9128    3516.1775    786.53894   -1052.3875    473.37192    -5513.351 
 7553000    200.64618    -6471.948    -5955.798    -6471.948            0    2360.4098    23.427375    21.407921    21.877964    10972.486    1898.5681    3752.0695    1430.5917   -84.280186   -516.86578    -141.0322   -5578.0794 
 7554000    209.54844   -6466.2131   -5927.1625   -6466.2131            0    1416.4358     23.42488    21.586724      21.8558    11051.744    854.20312     753.2755    2641.8289   -75.403043    960.47155    692.57948   -5698.8637 
 7555000    202.74676   -6448.4844   -5926.9308   -6448.4844            0     2458.919    23.393743    21.529042    21.838856    10999.028    2513.6952    1934.5978    2928.4639    835.42119    410.38303   -10.864849   -5532.4967 
 7556000    211.43958   -6443.7734    -5899.858   -6443.7734            0    3607.2528    23.346204    21.529703    21.762057    10938.412     3639.405     4062.222    3120.1313   -710.00412   -761.92409   -717.78411   -5324.4091 
 7557000    213.66201   -6487.3737   -5937.7412   -6487.3737            0    2524.8937    23.459963    21.456159    21.804044    10975.299    2307.3165    3134.0679    2133.2968   -825.37423   -497.30897   -768.78324   -5533.5979 
 7558000    194.55305   -6443.4981   -5943.0222   -6443.4981            0    2246.8013    23.275745    21.530875    21.952617    11001.491    2147.6243    2446.7432    2146.0365     530.2768    637.23523   -380.97585   -5582.5331 
 7559000    207.64758    -6462.555   -5928.3943    -6462.555            0    2570.2057    23.496006    21.335998    21.889243    10973.312    2264.9793     3907.353    1538.2849   -1095.7622   -130.95386   -824.47387   -5517.0727 
 7560000    197.08674   -6473.9716    -5966.978   -6473.9716            0    2445.2206    23.296035    21.653183    21.738912    10965.831    3570.3358    1315.7926    2449.5334    758.31338    -714.7791    873.14672   -5575.9251 
 7561000    198.35011    -6451.094   -5940.8505    -6451.094            0    1526.5177    23.441756    21.494987    21.908929    11039.476    2198.2376    1100.7084    1280.6071    358.05244   -761.32848    1060.6368    -5695.082 
 7562000    204.23471   -6443.1449   -5917.7635   -6443.1449            0    1506.9252    23.434229    21.510859    21.852962    11015.869    1222.5249     1599.948    1698.3028    -174.3409   -41.131654   -1390.0572   -5675.6682 
 7563000    202.81714   -6417.4468   -5895.7121   -6417.4468            0    2513.1804    23.255035    21.714209    21.778649    10997.449    3554.5679     2375.783    1609.1904    -165.4324    354.31866   -1109.3896   -5492.6318 
 7564000    199.73204   -6457.1151   -5943.3166   -6457.1151            0    2421.8638    23.439847    21.386971     21.83574    10946.417    1905.7127    3288.0417    2071.8369   -862.18833    292.99404    2.6290853   -5556.6848 
 7565000    192.38472   -6474.9722   -5980.0743   -6474.9722            0    1631.5295    23.406213    21.648948     21.66976    10980.498    918.09608    1397.3014    2579.1911    704.61116    -277.8177   -1041.7826   -5718.8023 
 7566000    201.24364   -6430.7169   -5913.0299   -6430.7169            0    916.74093    23.544253    21.542091    21.838302    11076.222    -308.0679    1987.6324    1070.6583    1663.3957     -7.24846    100.35341   -5764.9439 
 7567000    189.22736   -6456.8496   -5970.0737   -6456.8496            0     1452.462    23.336834    21.541892    21.907271    11013.214    1816.2162    1312.0426    1229.1273    402.51275    -916.4102    279.43445   -5736.7845 
 7568000     194.0268   -6455.0528   -5955.9307   -6455.0528            0    3406.1777    23.374291    21.504024    21.768709    10941.852    3660.0228    3445.4649    3113.0453     -523.531   -117.34447   -852.96755   -5412.3876 
 7569000    192.61532   -6482.8923   -5987.4011   -6482.8923            0    2695.1428    23.374462    21.480128    21.781677    10936.284    2354.0393    2886.3598    2845.0292    897.52242    152.71085    123.46737   -5557.5407 
 7570000    199.94067   -6463.7553   -5949.4202   -6463.7553            0    1782.5787    23.444814    21.476611    21.876797    11015.299    1368.4631    1462.2671    2517.0061    337.45326    1058.0739     833.0049   -5663.0545 
 7571000    206.53181   -6460.7847   -5929.4942   -6460.7847            0    823.07107    23.427356    21.648213    21.860011    11086.532    509.57694    550.42951    1409.2067   -334.50675    479.21176    1137.8218   -5796.4154 
 7572000    209.05351   -6420.8227   -5883.0453   -6420.8227            0    2283.7374    23.436773    21.443996    21.909482    11011.226    2953.1011    3218.8305    679.28061    532.16471   -501.68605    613.35788   -5516.3058 
 7573000    195.72787   -6460.2021   -5956.7041   -6460.2021            0    3557.5631     23.28685     21.49327    21.828612     10925.45    4181.3057    3049.1053    3442.2785    498.13047    -913.9522    -1081.025   -5389.8545 
 7574000    203.69372   -6463.9871   -5939.9974   -6463.9871            0    3987.5398    23.397213    21.379245    21.781463    10895.409    2857.8441    5101.2463     4003.529    540.24617     539.9426     970.7521   -5306.3839 
 7575000    203.53073   -6464.4826   -5940.9122   -6464.4826            0    2955.5926    23.287603    21.442977    21.897649    10934.712    2103.8217    4267.6465    2495.3096   -357.55614     592.8827    230.01279   -5469.5793 
 7576000    199.90181   -6459.0946   -5944.8594   -6459.0946            0    2697.0843    23.351573     21.49368     21.85818    10970.866     2704.691     2721.838    2664.7239   -182.12521   -359.53477   -2071.2158   -5513.3291 
 7577000    201.73247   -6475.5939   -5956.6494   -6475.5939            0    2759.3545    23.346026    21.395654    21.898206     10938.23    2801.5363    4093.6819    1382.8451    237.12891   -6.1420242   -454.59989   -5516.4693 
 7578000    210.15711   -6447.4696   -5906.8533   -6447.4696            0    1837.0982     23.39164    21.549382    21.825203    11001.548    2664.3816    1059.7174    1787.1955   -114.13573   -850.26623    620.60764   -5612.0977 
 7579000    196.42873   -6464.8072   -5959.5062   -6464.8072            0    2135.9419    23.433216    21.585975     21.68483    10968.812    1728.4578    2506.5953    2172.7727   -1446.8932    1090.6865   -928.01987    -5617.822 
 7580000    213.13845   -6452.9102   -5904.6245   -6452.9102            0    758.74349    23.631501    21.498899    21.764167    11057.312    231.11184    1395.2786    649.84004   -698.11723   -491.63105   -214.40852   -5782.2699 
 7581000    202.16518   -6475.8033   -5955.7456   -6475.8033            0    1476.6573    23.403882    21.649383     21.68543    10987.565    1926.4284    851.07602    1652.4676    244.01718   -88.581509    723.32783   -5719.1226 
 7582000    202.89834   -6470.6254   -5948.6817   -6470.6254            0    2173.3488    23.580118      21.4607    21.670956    10966.497    1725.9928    2338.2859    2455.7678     -415.955    915.12988    1.7221403    -5601.087 
 7583000    207.85795   -6473.3859    -5938.684   -6473.3859            0    2833.7869    23.307048    21.621723    21.667302    10918.988    2303.7214    2234.4952    3963.1439   -119.61189   -105.26523    131.57746   -5487.4254 
 7584000    215.54169    -6447.273   -5892.8051    -6447.273            0    1804.6532    23.462383    21.414346    21.946289    11026.509    1162.6071    2514.8374     1736.515   -95.133596    630.47609    1078.6605   -5602.5983 
 7585000    204.54632   -6478.1259   -5951.9429   -6478.1259            0    2332.1844    23.209688    21.619565    21.900132    10989.122    3884.8157    1550.9161    1560.8213   -935.20866    100.31158   -584.14557   -5578.1753 
 7586000    197.96924   -6463.7101   -5954.4463   -6463.7101            0    1067.4498     23.44388    21.413024    21.985733    11036.935    752.02646     2293.566    156.75679   -367.32354   -280.88517    877.50149    -5782.627 
 7587000    198.39275   -6477.4685   -5967.1153   -6477.4685            0    2810.7503    23.361612    21.427725    21.899461    10962.568    3642.2297    3154.4398    1635.5814    563.96438    533.81494   -943.87193   -5517.7387 
 7588000    206.24557   -6464.1756   -5933.6215   -6464.1756            0    2084.8697    23.261214    21.703311    21.763511    10987.208     2922.681    89.595452    3242.3326   -939.15316    520.30401    972.45814   -5599.5479 
 7589000    193.28122   -6478.2478   -5981.0437   -6478.2478            0    1951.6234    23.545944     21.36966    21.765635    10951.789    1494.2526    2181.8735    2178.7441    186.46273   -254.47007    782.07792   -5669.3292 
 7590000    201.34107   -6472.0478   -5954.1102   -6472.0478            0    1866.1587    23.370015    21.681222    21.694902      10992.6    1848.5617    1415.5733    2334.3411   -360.00752    274.44191    926.39556   -5654.9355 
 7591000    201.06577    -6482.312   -5965.0825    -6482.312            0    1847.9108     23.47931    21.548903    21.740399    10999.628    1228.0668    1671.7989    2643.8667      550.486   -463.19446    62.397241   -5668.6438 
 7592000    198.35259   -6445.0396   -5934.7897   -6445.0396            0    2066.2202    23.520733    21.420969     21.80731    10987.328    1558.5601    2129.9073    2510.1932   -263.13876    991.08447    246.21813   -5603.7008 
 7593000    196.55098    -6444.129   -5938.5136    -6444.129            0    3054.7362    23.169805    21.670588    21.840734    10966.305     3940.712    2946.5653    2276.9312   -224.08334    -665.9001     -279.232   -5449.9625 
 7594000    201.36286   -6452.8599   -5934.8662   -6452.8599            0    1868.0827    23.443983    21.432087    21.893545    11000.488    1107.5134    2630.3214    1866.4134   -71.754102    182.18423    614.66793   -5635.1681 
 7595000    196.77037   -6484.6301   -5978.4503   -6484.6301            0    2279.3339    23.278723    21.507292    21.921212    10975.125    3107.6618    2619.0395    1111.3006    477.07123   0.13835023    501.74725    -5613.618 
 7596000    204.82171   -6441.9151   -5915.0237   -6441.9151            0    1591.3641    23.303337    21.609823    21.995931    11076.733    1267.7016    3246.0798    260.31085    590.90862    38.775819   -736.34903   -5657.9503 
 7597000     196.6656   -6443.7239   -5937.8136   -6443.7239            0    1059.0304    23.282604    21.470204    22.171193    11082.986    2154.5183    1415.1513   -392.57852    524.70842   -126.17228   -21.828521   -5766.6383 
 7598000    197.79287   -6482.4736   -5973.6635   -6482.4736            0    1569.7974    23.462122    21.393174    21.860593    10972.471    2434.8767    1024.7472    1249.7684    1012.1348   -287.02307    339.67088    -5722.461 
 7599000    209.34404   -6475.9218    -5937.397   -6475.9218            0    1743.0938    23.325331    21.700649    21.770473    11019.665     2227.625   -365.34015    3366.9966   -110.00013    212.77201   -440.01675   -5657.2635 
 7600000    196.73515   -6467.3378   -5961.2486   -6467.3378            0    2038.8923    23.486958    21.402242    21.844777    10980.792    1956.5773    2034.8815    2125.2182    437.47177   -501.26568    536.36554   -5634.7331 
 7601000    192.40498   -6459.7476   -5964.7975   -6459.7476            0    2018.2656    23.377254     21.52924    21.824335    10984.068    1477.5573    2641.2706    1935.9689   -124.43757    1035.2671   -327.44521   -5641.4888 
 7602000     202.6635   -6463.1071   -5941.7676   -6463.1071            0     1398.941     23.24561    21.726271    21.812148    11016.017    2776.5944   -920.85735    2341.0858     172.2894    -155.5314    210.31246   -5717.0175 
 7603000    208.01221   -6450.2521   -5915.1534   -6450.2521            0    2036.5873    23.600416    21.365793    21.794765    10989.827     1969.447    1615.3277    2524.9871   -334.87947    231.36018    682.38728   -5588.7387 
 7604000    203.84008   -6454.2668   -5929.9007   -6454.2668            0    1583.1131    23.302526    21.648028    21.843517    11019.044    1212.5878    1747.9655     1788.786    315.92079   -266.21136    78.945838   -5675.4921 
 7605000    204.62445   -6452.3254   -5925.9414   -6452.3254            0    2218.1458    23.416317    21.516376    21.850295    11008.927    1620.7157    2629.4963    2404.2254     1017.674   -359.55023   -1162.1016   -5569.8094 
 7606000    196.03824   -6461.8949   -5957.5984   -6461.8949            0    2448.0474    23.532574    21.391142    21.818492    10983.181    2583.6306    2233.4931    2527.0185    672.81334   -324.83947    -306.2548   -5565.4741 
 7607000    196.68546    -6455.446   -5949.4846    -6455.446            0    2370.6258    23.285112    21.628756    21.780069    10969.053    3021.8989    320.06661    3769.9118   -575.11814    445.31126    1253.4712     -5570.25 
 7608000    202.61137   -6469.6501   -5948.4447   -6469.6501            0    2893.4283    23.331032    21.365821    21.984838    10959.148    3479.0277    3799.6919    1401.5653   -339.22745   -631.56101   -1147.8699    -5485.994 
 7609000     200.6848    -6472.887   -5956.6376    -6472.887            0    1343.4691    23.382442    21.535791    21.927085     11041.59    1203.3864    2104.7395    722.28133    1184.8373   -402.08596   -508.18023   -5740.2984 
 7610000    204.69547   -6477.9521   -5951.3855   -6477.9521            0    1752.7266    23.383986    21.509766    21.867202    10998.854    1212.5749    1835.8318    2209.7732    1114.6922    911.20029    876.07642   -5670.2359 
 7611000    201.60881   -6451.3425   -5932.7162   -6451.3425            0    1909.0164    23.480312    21.456456    21.819928    10992.974    881.55719    3078.5956    1766.8963   -1180.3537    420.41048   -672.55603   -5626.6603 
 7612000    201.96665   -6460.5194   -5940.9725   -6460.5194            0    1892.4509    23.353113    21.583684    21.834932    11005.815    2623.6601    1169.6525    1884.0401   -409.46294    369.31586    252.47445    -5637.218 
 7613000    208.20173   -6469.9884   -5934.4022   -6469.9884            0    1156.6623    23.426543    21.508587    21.876267    11022.835    1822.2886    716.55288    931.14533   -83.420403    542.74478    407.44971   -5748.4609 
 7614000    209.81164   -6469.4281   -5929.7005   -6469.4281            0    1115.5112    23.481337    21.578153    21.803498    11047.481      1697.34    416.27597    1232.9176     577.8633    538.29285   -694.47496   -5749.9736 
 7615000    206.98273   -6465.1271   -5932.6767   -6465.1271            0    2591.1771    23.316202    21.562446    21.768841     10944.38    1522.6199    2937.8436    3313.0678    428.88989    640.54162    853.97354   -5519.0923 
 7616000      206.815    -6507.885    -5975.866    -6507.885            0    2609.0847    23.401401    21.376921    21.771904    10891.393    3297.3587    2115.5085     2414.387   -1069.2543    -21.52648    354.36865   -5561.4395 
 7617000    193.11217   -6495.1016   -5998.3322   -6495.1016            0    1669.9867    23.427921     21.50077     21.84474    11003.596    975.23848    2539.6474    1495.0742    701.94418    39.966603   -304.52972   -5730.3392 
 7618000     199.0902   -6477.6742   -5965.5268   -6477.6742            0    1226.0836    23.358983    21.495772    21.940857     11016.93    2660.0247     212.2659    805.96019    505.11656   -774.36232    379.72986   -5768.5312 
 7619000    208.12643   -6484.5463   -5949.1537   -6484.5463            0    1207.7704    23.271825    21.638077    21.882829    11019.263    2756.5523    1171.6749   -304.91597   -1088.9329    -435.4178   -227.27398   -5755.0594 
 7620000    197.30576   -6451.7002   -5944.1431   -6451.7002            0    2869.4445    23.441724    21.402467    21.895472    10985.193     2021.447    4103.1026     2483.784    112.62878   -289.02298   -581.16424   -5484.4358 
 7621000     206.0167   -6480.2579   -5950.2925   -6480.2579            0    1872.3868    23.334248    21.511161    21.877433    10981.307     2260.867    1124.9201    2231.3733   -471.08885    688.60859   -111.32438   -5650.4277 
 7622000    208.39614    -6445.467   -5909.3806    -6445.467            0    1812.4749    23.410248    21.569157    21.818575    11017.056     2621.735    472.95685    2342.7329    238.22765   -741.49176     603.3735   -5618.1658 
 7623000    200.92036   -6467.6959   -5950.8405   -6467.6959            0    686.49548    23.608857    21.482579    21.777272    11044.978    72.761368    753.13728    1233.5878    -435.6063    399.25468   -258.24736     -5840.26 
 7624000    203.58237   -6453.2528   -5929.5496   -6453.2528            0    2022.6466    23.349927    21.653362    21.725418    10984.467    1087.4785    1354.0165    3626.4448    276.20889     1199.709    693.35032   -5605.5273 
 7625000    206.28444   -6446.4111    -5915.757   -6446.4111            0    2541.8885    23.442419    21.427357    21.841833    10971.351    3428.2904    2510.3959    1686.9791   -1067.3612    667.11813   -1462.7364   -5509.0398 
 7626000     201.4481   -6467.2615   -5949.0485   -6467.2615            0     1954.961    23.266575    21.635114    21.808705    10977.957    2600.4406    1377.6929    1886.7495   -763.25721    473.10915   -71.402426   -5636.0549 
 7627000    198.99397   -6456.4121   -5944.5122   -6456.4121            0     1191.935    23.422212    21.512826    21.903782    11036.833    1048.1021    1234.3842    1293.3189    172.14452    35.170905     504.2843   -5752.6573 
 7628000     202.7099   -6464.2978   -5942.8389   -6464.2978            0    2552.0106    23.433969    21.422744     21.90264    10995.561    1449.6454    4185.9613    2020.4251    614.12395    80.296394   -724.47655   -5533.6011 
 7629000      204.938   -6430.6671   -5903.4765   -6430.6671            0    3156.8063    23.272934    21.551982    21.858233    10963.606    2884.1602    3283.9096    3302.3492   -347.45725    347.06245    12.080831   -5398.7255 
 7630000    197.42813   -6487.8524   -5979.9806   -6487.8524            0    1619.1858    23.384163    21.329334    22.004201    10975.005    1152.7315    2626.2118    1078.6142    397.56602    749.11933    1532.3253    -5720.815 
 7631000    194.09355   -6474.8084   -5975.5146   -6474.8084            0    2406.6082    23.339507    21.515424    21.811229    10952.714    2427.9245    2745.6565    2046.2436   -143.16033   -346.17405   -1213.9904   -5591.0972 
 7632000    200.43847   -6431.8129   -5916.1971   -6431.8129            0    1643.7403    23.436847     21.57549    21.837277    11042.269    1263.3884    1765.6967    1902.1357    886.61975   -171.80096   -314.74552   -5651.4889 
 7633000    206.63128    -6460.727   -5929.1806    -6460.727            0    2105.3299     23.44471    21.515894    21.774368    10983.729    2511.8331    1470.8379    2333.3188    641.97863   -447.21902    543.22724   -5591.9353 
 7634000    189.63192   -6452.5235    -5964.707   -6452.5235            0    2923.9251    23.435786    21.610121    21.637625    10958.379    2270.4032    2961.7266    3539.6455   -771.30516   -77.973784    -108.8585   -5497.4149 
 7635000    209.32116   -6507.0986   -5968.6327   -6507.0986            0    2044.9089    23.371694    21.521111    21.724281    10926.984    1638.6924    2097.4328    2398.6016    212.95751    387.91727    933.78655   -5642.7583 
 7636000    204.38667     -6450.69   -5924.9178     -6450.69            0    1700.2608    23.538304    21.468156    21.788065    11010.032    1136.4681    2499.3825    1464.9319   -270.73202    223.81138   -652.18795   -5651.9069 
 7637000    203.53922   -6476.3768   -5952.7846   -6476.3768            0    1822.7875    23.460357    21.507191    21.793371    10996.203    2109.2302    1848.7828    1510.3496    -494.9306    517.29027   -235.80829   -5660.4672 
 7638000     192.2666    -6460.777   -5966.1829    -6460.777            0    783.07633    23.351441    21.623022    21.889901     11052.84    1913.3633    62.367095    373.49859     212.6708   -108.26071     443.5473   -5839.9554 
 7639000    199.78162   -6469.2117   -5955.2857   -6469.2117            0    2133.1603    23.533713    21.479717    21.778678    11009.067    1399.5578      2741.25     2258.673   -581.75602    301.44594   -847.74533   -5612.7941 
 7640000    204.06887   -6465.3908   -5940.4361   -6465.3908            0    1830.7697    23.321945    21.540546    21.885913     10994.77    2187.3309    1848.6191    1456.3592    354.51536    164.79608    558.23986   -5646.8769 
 7641000    202.64491    -6482.909   -5961.6174    -6482.909            0    2152.9783    23.331876    21.558169    21.840546    10985.632    2921.9233     1942.758    1594.2534   -549.86066    188.54987   -750.51748   -5616.6797 
 7642000    204.85824    -6469.463   -5942.4777    -6469.463            0    1703.4707    23.521086    21.492002    21.745296    10992.578    1022.6082    1511.2363    2576.5676   -1177.0041    497.75649   -455.20244    -5669.385 
 7643000    204.93995   -6464.0206   -5936.8251   -6464.0206            0    1378.4735    23.367167    21.598744    21.809067    11007.068    863.67076    1764.6956    1507.0543    1486.2506    1078.1456    201.74304   -5715.5432 
 7644000    199.33919   -6463.8538   -5951.0659   -6463.8538            0    2310.1005    23.431648     21.54061    21.803409    11004.878    2466.6622    2374.8817    2088.7577   -1365.6026    570.13862   -287.88592   -5580.3067 
 7645000    207.86159   -6445.0999   -5910.3886   -6445.0999            0    2504.8176    23.475562    21.475985    21.843252    11012.512    423.23215     3986.481    3104.7396    1145.7375   -591.49537    252.07838   -5508.0994 
 7646000    207.29355   -6488.4382   -5955.1882   -6488.4382            0    1702.7727    23.304592    21.662439     21.74561     10977.93    2790.1026   -211.89414    2530.1097    139.53572   -1158.2318    899.08536   -5682.5711 
 7647000    205.37272   -6486.0902   -5957.7814   -6486.0902            0    310.06881    23.698293     21.42165    21.757647    11045.412   -1057.1645    408.71147    1578.6595    1198.8752   -455.94388   -224.74669   -5907.8336 
 7648000    197.27601    -6469.292   -5961.8114    -6469.292            0    2487.5854    23.317596    21.613452    21.725091    10948.875    3005.0761    1984.8295    2472.8505   -382.16906    396.74167    532.46928   -5564.5985 
 7649000    204.18472   -6440.4906   -5915.2378   -6440.4906            0     2306.261    23.347366     21.53756     21.83235    10978.295    1728.2706    2761.8305     2428.682    1026.8429    554.49457    138.62798   -5545.9889 
 7650000    205.46806   -6484.2741     -5955.72   -6484.2741            0    2904.8191    23.413047    21.368837    21.826882    10920.198    3289.1034    3105.6099    2319.7439   -1161.2162    1382.4247    -332.9095   -5493.0988 
 7651000    205.69504   -6447.0474   -5917.9095   -6447.0474            0    1851.5014     23.17982     21.72125    21.845753     10999.22    2147.7963     1579.992    1826.7158    359.65291    324.38094    -1758.219   -5620.9058 
 7652000    198.73231    -6475.907   -5964.6802    -6475.907            0     2076.406    23.428614    21.314021    22.009802     10990.77    2269.4608    2737.1651    1222.5922     105.0439    60.162125    1048.1744   -5631.8549 
 7653000    209.54083   -6459.7942   -5920.7632   -6459.7942            0    1522.8761    23.354023    21.617881    21.844842    11028.685    2126.9691    1155.2193    1286.4399   -953.26872    343.62019   -288.83531   -5675.8207 
 7654000    198.93939   -6454.5893   -5942.8298   -6454.5893            0    1602.6772    23.450883     21.56166    21.803413    11024.677    912.85347    2428.0328    1467.1453    621.04457   -734.61715   -1343.6191   -5685.1456 
 7655000    202.21326   -6485.4352   -5965.2539   -6485.4352            0    1680.6318    23.445441    21.523758     21.73465    10968.044    876.05249    1372.7405    2793.1025    1253.2553    344.61966    595.90489    -5696.424 
 7656000    201.64984   -6502.8632   -5984.1312   -6502.8632            0    1715.4398    23.491887    21.430256    21.779816    10964.768    1890.0749    1648.7569    1607.4876    203.76387    641.12455   -459.84876   -5709.8154 
 7657000    198.78454   -6469.2943   -5957.9332   -6469.2943            0    2752.7904    23.432467     21.44995    21.793355     10953.89    2553.3317    2532.6881    3172.3514   -312.61443    597.15202   -879.74912   -5518.1715 
 7658000    195.57748   -6469.2132    -5966.102   -6469.2132            0    2015.4327    23.332754    21.514563    21.890872    10989.086    1721.6579    1989.6328    2335.0075     163.2241     1528.493    928.28315   -5643.0996 
 7659000    195.95379   -6448.2531    -5944.174   -6448.2531            0    1102.6312    23.345957    21.632471     21.91423     11067.36    1667.3742    1390.0067    250.51257     527.9882   -31.277222   -558.36357   -5766.2026 
 7660000    196.97345    -6457.541   -5950.8388    -6457.541            0    1936.5246    23.510432    21.402874     21.92647    11033.198    610.66203    3559.8973    1639.0146   -86.158512    824.38327    -100.0829   -5639.2367 
 7661000    191.45816   -6460.8746   -5968.3601   -6460.8746            0    2567.6318    23.311329       21.496    21.797712    10922.841     2288.976    3476.6837    1937.2358    994.28614   -266.73773    305.08051   -5559.3404 
 7662000    193.82469   -6439.2704   -5940.6682   -6439.2704            0    3189.6217    23.460313     21.50588    21.688571    10942.636    2211.2013    3216.0045    4141.6593   -660.00668    187.17584   -73.260647   -5431.6457 
 7663000    207.08891   -6481.8016    -5949.078   -6481.8016            0     1367.181    23.586357     21.45456    21.707251    10984.627    797.89981     2572.108    731.53518   -320.64954     9.512518   -1299.5211   -5730.0563 
 7664000     201.5323   -6477.5664   -5959.1369   -6477.5664            0     414.3108    23.391522     21.61005    21.866432    11053.305    293.91079    354.61458    594.40703    252.41221   -6.8732313    279.56973   -5892.3495 
 7665000    194.63368   -6440.9756   -5940.2923   -6440.9756            0    2907.8804    23.426714    21.454667    21.809776    10961.862      2223.66    2596.1368    3903.8444    164.68767   -84.755257    442.69268   -5475.4167 
 7666000    208.40089   -6457.0883   -5920.9897   -6457.0883            0     2167.111      23.3117    21.507443    21.923136    10991.714    2539.2238    2060.4168    1901.6925   -206.73251   -259.16919    156.48515   -5573.5955 
 7667000    192.44555   -6447.6655   -5952.6111   -6447.6655            0     1275.091    23.288934    21.581012    21.998211    11056.274    1864.3242    1562.3994    398.54935    585.10067    371.52241   -262.01829   -5747.0098 
 7668000    209.20578   -6449.5653   -5911.3962   -6449.5653            0    2472.1569    23.562399    21.408453    21.843904    11018.819    2701.3253    2508.3319    2206.8136    361.97904   -1614.5714   -263.41267   -5514.1251 
 7669000    209.41296    -6434.765   -5896.0629    -6434.765            0    2912.8507      23.2001    21.539445    21.900541    10944.079    4680.6476    2708.1118    1349.7927     439.7735   -544.33377   -307.98807   -5431.1482 
 7670000    201.99808   -6469.1823   -5949.5545   -6469.1823            0    2756.2495    23.366957    21.418402    21.885159    10953.148     3658.558     2733.671    1876.5196   -866.18514    70.782152   -354.80544   -5509.2701 
 7671000    194.16354   -6447.5268   -5948.0529   -6447.5268            0    2292.7876    23.451229    21.446419    21.881883    11005.381    2562.0125    1619.9887    2696.3614   -1844.8519    491.17532    153.44451   -5580.0555 
 7672000    203.90466   -6465.0383    -5940.506   -6465.0383            0    1606.1895     23.37806    21.619286    21.797866    11017.011    1934.8446    1077.9343    1805.7895   -38.078549    -246.2791    96.649705   -5682.4367 
 7673000    200.09005   -6468.5954   -5953.8759   -6468.5954            0    2115.1282    23.570572    21.421049    21.688914    10950.871    909.66372    1992.1811    3443.5397   -208.01055    674.93352    1220.0903   -5616.0747 
 7674000    198.08863   -6465.3179    -5955.747   -6465.3179            0    2156.6015    23.536332    21.513869    21.598355     10936.49    1312.6258    2529.2911    2627.8875    769.39803   -615.96527   -1466.1764   -5611.7744 
 7675000    193.48098   -6438.6751   -5940.9571   -6438.6751            0     2073.479    23.428881    21.596561    21.711912    10985.864     1469.135    2222.5279    2528.7739   -659.61943   -242.27448   -37.245687   -5608.7494 
 7676000    189.59974   -6453.7093   -5965.9756   -6453.7093            0    1856.1555    23.475149    21.461825    21.859149    11013.067    1294.9716    1760.5712    2512.9236    107.61656    391.77508    309.29111   -5667.8505 
 7677000    199.91143   -6424.8062   -5910.5462   -6424.8062            0    1556.1145    23.393635     21.55883    21.908224     11049.18    1614.4921     2075.378     978.4735    466.44988    538.81426   -868.80381   -5659.7924 
 7678000    204.78245   -6455.9039   -5929.1135   -6455.9039            0    2274.8714    23.344397    21.473678    21.924484    10990.526    3078.4326    1874.7845    1871.3972   -155.63389    821.38087   -550.70644   -5564.4845 
 7679000    201.53692   -6459.1363   -5940.6949   -6459.1363            0    1940.3272     23.44991    21.478369    21.838111     10999.11    1594.4849    1693.9613    2532.5354    1042.1051   -811.29903    802.60318   -5629.4456 
 7680000    207.48287   -6468.6935   -5934.9565   -6468.6935            0    1278.7092    23.464846    21.519919     21.80624    11011.314   -117.25716     2878.259    1075.1258    952.57214   -1581.0167    110.80776   -5729.6102 
 7681000    199.98701   -6459.0504    -5944.596   -6459.0504            0     3151.511    23.375837     21.44595    21.853668    10955.616    2945.9628    3384.0254    3124.5449    747.53881   -112.57656   -273.91637   -5441.0589 
 7682000    207.79725   -6460.3396   -5925.7939   -6460.3396            0    2684.4804    23.367198    21.467499    21.902547    10987.091    2008.5586    3229.6828    2815.1998    76.218768    984.69116    71.934506    -5495.645 
 7683000    201.63223   -6478.9514   -5960.2648   -6478.9514            0    1642.5797    23.425005     21.55638    21.758694    10987.233    1760.7312    1437.5196    1729.4883     461.4891   -511.02945   -348.41217   -5697.0619 
 7684000    199.91263   -6469.2155   -5954.9525   -6469.2155            0    2347.5526    23.456191    21.561135    21.675347    10962.135    1844.3631    2317.0727    2881.2219    170.90922   -18.390739   -1191.2521   -5579.6457 
 7685000    205.52858   -6452.8539   -5924.1441   -6452.8539            0    2719.0284    23.459596    21.416796    21.715225    10910.367    2534.8699    3245.0187    2377.1968    1240.8464   -37.550994   -70.658067   -5491.5018 
 7686000    203.20621   -6449.3991   -5926.6635   -6449.3991            0    1173.1422    23.420267    21.560517     21.83493    11025.615    1902.2061    611.85112    1005.3694    529.17196   -1866.2997   -636.11743   -5738.0255 
 7687000    197.22828   -6479.6449   -5972.2871   -6479.6449            0    1287.6673    23.379319    21.633107    21.844809     11048.39    932.00001    1412.3153    1518.6867   -343.05534   -260.61335    -375.4459    -5764.806 
 7688000    199.11802   -6430.1901   -5917.9711   -6430.1901            0    1816.3712    23.407897    21.482164    21.885291    11005.068    1759.4131    2671.1976     1018.503    -39.28887    781.83173   -314.40325   -5626.4478 
 7689000    193.47107   -6482.0144   -5984.3218   -6482.0144            0    827.38674    23.455564    21.476238    21.894033    11028.841    132.76524    2307.3356    42.059378    52.884985    729.47214   -123.30441   -5851.2414 
 7690000    206.75774   -6426.8953   -5895.0237   -6426.8953            0    1665.9412    23.391718    21.626284    21.848159    11052.457    869.46646    1701.8569    2426.5002    1071.3558   -750.20702    380.63211   -5626.4927 
 7691000    212.23896   -6465.0531   -5919.0813   -6465.0531            0    2055.9994    23.410889    21.464788     21.85844     10984.08    2219.5102     3129.258    819.23022    1502.1432    56.186613    171.61742   -5589.7276 
 7692000    200.37588   -6447.7565   -5932.3017   -6447.7565            0    2883.1033    23.335183    21.548858     21.80137    10962.744    3961.0787    2724.0767    1964.1546   -918.60739    383.77767   -454.94054   -5471.3501 
 7693000    202.51718   -6477.8463   -5956.8832   -6477.8463            0    1878.4493    23.390395    21.453462    21.958528    11018.898    1620.0469    2940.1174    1075.1837   -587.34664    601.72767    -519.2902   -5655.0177 
 7694000     195.8829   -6441.0621   -5937.1652   -6441.0621            0    4.9276194    23.436744    21.582536     21.94049    11098.034     114.2701   -135.35142    35.864178   -280.70742     823.5435    203.45146   -5936.3677 
 7695000    209.73688   -6463.8248   -5924.2895   -6463.8248            0    941.82407    23.439257    21.637199    21.806981    11059.625    1599.4052    657.02223    569.04482   -608.59374   -211.02678     -212.108   -5772.3796 
 7696000    194.46984   -6446.5194   -5946.2576   -6446.5194            0    1923.3001      23.3904    21.425407    21.920843    10985.605    1551.2119    2745.9299    1472.7585    312.71757    142.69334   -650.44163   -5638.1184 
 7697000     204.8793   -6465.4207   -5938.3812   -6465.4207            0    2804.7772     23.29625    21.513643    21.936472    10994.279     3390.105    2221.3774    2802.8492   -13.126408    239.49952      93.2771   -5488.6624 
 7698000    203.05986   -6446.2063   -5923.8472   -6446.2063            0    3140.9879    23.475674    21.379503    21.875878    10979.465    2627.4564    3085.6331    3709.8742   -605.74082    63.712371   -262.04376   -5420.8989 
 7699000     204.5323   -6447.9062   -5921.7593   -6447.9062            0      2611.75    23.196688    21.596054    21.881042     10961.46    3661.4211    3183.9365    989.89234    475.13828   -885.96159   -644.62717   -5504.2407 
 7700000    200.21786   -6472.9843   -5957.9361   -6472.9843            0    2575.4189    23.461933    21.426231    21.830017    10973.967    1834.0588    3594.5008    2297.6972   -127.08193    448.59256   -351.41462   -5545.7556 
 7701000    207.73495   -6472.7317   -5938.3462   -6472.7317            0    2509.8948    23.451207    21.507136    21.747443    10968.721    1638.9639    3087.0154    2803.7051    568.38136    858.15024   -945.21957   -5536.8445 
 7702000    208.07969   -6480.6032   -5945.3308   -6480.6032            0    2013.4399    23.276899     21.59346    21.815769    10965.234    2431.8285    1745.7667    1862.7245   -828.75822    180.37189    1029.3479   -5623.3482 
 7703000    188.55566   -6474.8373   -5989.7893   -6474.8373            0    2698.4037    23.534349    21.325253    21.800248     10941.02    1581.8983    4524.1371    1989.1758   -400.37281   -136.99204   -385.84568   -5559.2224 
 7704000    201.85046   -6471.7312   -5952.4832   -6471.7312            0    2243.3605    23.363824    21.637589    21.715308    10977.888    2243.2051    2477.5072    2009.3692    637.72895    640.54813   -342.22618   -5593.3184 
 7705000    200.63579   -6480.3185   -5964.1951   -6480.3185            0    2610.5477    23.364998    21.541754    21.793977     10969.41    1920.4383    2866.5711    3044.6338   -1255.1977    514.86751     122.3279    -5546.566 
 7706000    195.65627   -6477.4073   -5974.0935   -6477.4073            0    1542.3019    23.549561     21.56234    21.741424    11039.939   -52.813062     1799.667    2880.0519   -656.95258    1109.9131    871.41861   -5725.7733 
 7707000    195.44454   -6465.3337   -5962.5645   -6465.3337            0    2276.9382    23.376636    21.508733    21.780765    10951.408     2531.866    1906.8663    2392.0824    269.23271   -126.67297    419.81993   -5598.9032 
 7708000    207.33658   -6469.1815   -5935.8208   -6469.1815            0    4005.1453    23.378611    21.460508    21.665869    10870.132    4317.5275    3782.3296    3915.5789      775.907   -30.347483   -452.44042   -5300.8862 
 7709000    201.26085   -6446.5737   -5928.8424   -6446.5737            0    2835.8173    23.430466    21.453537    21.843108    10979.796    2370.2522     3159.557    2977.6426   -563.81339    83.412282    113.73052   -5474.7457 
 7710000    202.58565   -6470.9613   -5949.8221   -6470.9613            0    1180.7367    23.264293    21.627432    21.898106    11017.964    1559.2616    803.75099    1179.1975    350.47142    1267.9327    1380.6958   -5760.0946 
 7711000    195.74111   -6435.8977   -5932.3656   -6435.8977            0    1434.8116    23.464958     21.41262    22.005225    11056.442    1580.6152    2199.6333    524.18632    956.24034   -56.825655   -52.905442   -5701.0067 
 7712000     192.8908   -6457.1936   -5960.9938   -6457.1936            0    1310.9389    23.374911     21.44286    22.024328    11039.143    1226.0763    2069.2377    637.50269    -97.59569    138.83807   -492.79758   -5749.9398 
 7713000    198.26958    -6457.627   -5947.5906    -6457.627            0    1394.7201     23.28133    21.561446      21.9211    11003.934    1865.8781    1403.0066    915.27557   -278.56234   -46.478471    783.52969   -5723.7644 
 7714000    206.65065   -6475.0815   -5943.4853   -6475.0815            0    1357.9377     23.47611    21.419258    21.874874     10999.58    1617.5713    1559.5594     896.6823   -206.61771   -212.06994    255.63874   -5725.6482 
 7715000    194.54388   -6480.5271   -5980.0748   -6480.5271            0    2149.1528    23.290301      21.5509     21.86539    10974.829    1797.8689    1917.2681    2732.3213    715.50412    588.38863   -598.75429   -5636.0887 
 7716000    195.52634   -6454.5432   -5951.5636   -6454.5432            0    2012.8829     23.46174     21.33267    21.958312    10990.169    2527.6459    2181.6917     1329.311   -610.53128   -1457.1891    669.28697    -5628.938 
 7717000     202.5062   -6469.2302   -5948.2953   -6469.2302            0    2523.8922    23.384524    21.437009    21.908524    10982.617    2487.1035    3036.4756    2048.0976   -217.28352    596.87576    450.85078    -5544.043 
 7718000    215.80803    -6482.723     -5927.57    -6482.723            0    1524.9821    23.400053    21.608358    21.750367    10997.785   -165.98741    1928.5032    2812.4305    565.31912    1055.8063    39.640398    -5682.976 
 7719000     202.3013    -6468.603   -5948.1952    -6468.603            0    2129.1143    23.637504    21.438542    21.622784    10957.424    1091.1537    3023.4261    2272.7629    605.79229   -649.43772   -53.473517   -5607.9568 
 7720000    191.40267   -6469.3394   -5976.9677   -6469.3394            0    1629.1542    23.356954    21.647879    21.667326    10955.618    2604.1151    910.67218    1372.6753    730.07401    -873.0616   -567.92413   -5716.6673 
 7721000    199.64311   -6470.0713   -5956.5016   -6470.0713            0    1717.1217    23.565523    21.557888     21.59704    10971.791    1271.5062    1468.2668    2411.5921   -638.64745   -225.65767   -524.28765    -5681.741 
 7722000    196.48311   -6460.8509     -5955.41   -6460.8509            0      3791.19     23.55135     21.47271    21.485579      10865.5    2209.0055    4213.9811    4950.5835    603.63144     228.5831   -759.69504   -5354.6498 
 7723000     199.6642   -6479.3947   -5965.7707   -6479.3947            0    2900.8545    23.462658    21.462617    21.721192    10938.142    2576.2185    2829.9252    3296.4198    578.02984    1095.9322    235.13238   -5503.0218 
 7724000    202.39894   -6438.0026   -5917.3437   -6438.0026            0    3513.8357    23.359189    21.539808    21.760976    10949.089    3440.5772    2943.3785    4157.5516    -934.5534    338.67185    400.49389   -5356.2501 
 7725000    196.90883   -6463.4703   -5956.9343   -6463.4703            0    2225.4555    23.298141    21.461391     21.97833    10989.396    1894.3897    2331.8884    2450.0884    120.21279   -269.35739    430.86259   -5600.2626 
 7726000    209.40105   -6485.6135   -5946.9421   -6485.6135            0    1676.6601    23.278543    21.382494    22.113645     11007.14    1997.0426    2405.3386    627.59907    1076.0469   -229.22352   -72.570291   -5677.7914 
 7727000    204.34529   -6424.2986   -5898.6328   -6424.2986            0     1050.762    23.418466    21.488604    22.013197    11077.704    1982.4527    1803.4927   -633.65943    446.29076   -1010.1824   -291.36868   -5728.8749 
 7728000    208.47291   -6443.9393   -5907.6554   -6443.9393            0    1453.3488    23.300922     21.57737    21.996131    11059.053    1343.9054    2036.8033    979.33767    885.43701    997.72539     472.1502   -5673.2521 
 7729000    203.05382   -6446.1366    -5923.793   -6446.1366            0    2171.0463    23.324297    21.362144     22.07306    10998.056    2971.3887    2999.1681    542.58206   -457.94305    328.54889   -341.17753   -5575.5672 
 7730000    205.15319   -6439.1841     -5911.44   -6439.1841            0    2933.0096    23.297946    21.516235    21.895768        10976    3792.9791     2841.726    2164.3237   -1329.9429   -247.06305   -970.24821   -5441.9423 
 7731000    204.10706   -6445.7424   -5920.6894   -6445.7424            0    2320.2939    23.407727    21.541604    21.813468    10999.223     3083.482    1435.1482    2442.2515   -13.092783   -1506.2908    600.20504   -5548.4855 
 7732000     204.2817    -6466.053   -5940.5508    -6466.053            0     2156.318    23.506275    21.439191    21.805704    10989.105    2031.2841    2664.2133    1773.4566    445.06792    -278.3369    54.918202   -5594.9689 
 7733000    198.90313   -6469.9417   -5958.2755   -6469.9417            0    1679.7535    23.343328    21.663949     21.74763    10997.965    1690.6484    1116.4001     2232.212     472.2444   -109.52476    1092.2194   -5688.8531 
 7734000    206.54625   -6471.5975   -5940.2699   -6471.5975            0    2493.8419    23.533424    21.455306    21.773585    10993.849    2144.9445    2907.7662    2428.8149   -1326.7927    265.32297    443.81843   -5540.4222 
 7735000    200.27202   -6467.9614   -5952.7738   -6467.9614            0    2475.6585    23.402356    21.538415    21.756085    10966.147    1745.6507    1940.9039    3740.4208   -336.81283    234.84296    709.82387   -5556.8417 
 7736000    202.31085   -6470.6823     -5950.25   -6470.6823            0    2024.8491    23.373841     21.51533    21.866347    10996.496    1439.4626    2918.7503    1716.3345    673.84214    1180.7594   -459.60094   -5625.5196 
 7737000    190.51342   -6453.5018   -5963.4176   -6453.5018            0    1719.6755    23.537471    21.413732    21.867354    11021.695    1167.0413    2821.2382    1170.7468    418.77806   -260.78726   -587.45687   -5686.9968 
 7738000    202.93414   -6442.2488   -5920.2131   -6442.2488            0         1245    23.274973    21.647129    21.863435    11015.593    2430.4038    215.67644    1088.9197    530.28275   -119.88688    620.73869   -5720.2025 
 7739000    201.13322   -6468.1898   -5950.7868   -6468.1898            0    1713.7943    23.457923    21.345421     21.95281    10992.194    728.72223    2470.4968    1942.1638   -45.993945    686.34799    388.97201   -5676.0487 
 7740000    197.79681   -6439.9863   -5931.1661   -6439.9863            0    2383.9578    23.334896    21.515332     21.92079    11005.509    2324.0662    2872.3276    1955.4796   -549.19814     1410.235   -792.99328   -5548.5311 
 7741000    204.06661   -6483.0263   -5958.0773   -6483.0263            0    1879.2405    23.304102    21.498979    21.928154    10986.321    2770.1711    1483.1803      1384.37   -114.47046   -144.16966    337.32077   -5656.9775 
 7742000    208.46782   -6489.8828    -5953.612   -6489.8828            0    1077.4897    23.435405    21.466419    21.876783    11005.646    1511.4693    1418.1697    302.83018    230.99318   -1134.8938   -493.15873   -5780.6684 
 7743000    201.80496   -6446.5636   -5927.4326   -6446.5636            0     1935.036    23.402285    21.630078    21.724379    10996.734    1417.4469    1524.1403    2863.5206    297.56984   -7.8340358    21.981826   -5617.0991 
 7744000    199.79481   -6456.9573   -5942.9974   -6456.9573            0    2692.1589    23.545485    21.402658    21.753214    10962.227    3200.2846    1921.1761    2955.0161    521.63711   -247.21958   -448.70005   -5512.5943 
 7745000    210.14223   -6448.4912   -5907.9131   -6448.4912            0     3096.618    23.282683    21.509644    21.895804    10965.467    3068.7312    3457.4175    2763.7053    292.99635    764.56488    1092.8882   -5412.7016 
 7746000     197.8809   -6467.7076    -5958.671   -6467.7076            0     644.9873    23.405901    21.550242    21.876255    11034.445    392.20068    785.75823      757.003    53.300147      84.8015   -686.21646   -5854.8758 
 7747000    204.91647   -6464.9152   -5937.7801   -6464.9152            0    1255.8662    23.503991    21.480595    21.842662    11027.917    681.56117     1311.211    1774.8264    625.46872    389.29591   -71.260288   -5735.7981 
 7748000    205.24542    -6458.467   -5930.4856    -6458.467            0    2446.6689    23.398013     21.58692     21.71304    10967.062    2687.7435    1716.0395    2936.2238    1544.0291    326.28479    513.34192   -5539.1572 
 7749000    200.59567   -6473.6633   -5957.6431   -6473.6633            0    2605.1161    23.471937    21.516389     21.72455    10971.578    2288.7795    2009.2146    3517.3543    245.82906   -2446.4259    112.00311   -5540.8005 
 7750000    213.16201   -6450.0088   -5901.6625   -6450.0088            0    1218.9129    23.449909     21.55725    21.860274    11050.708     914.5202    1773.4376    968.78092   -1165.8797    540.19985    164.60975   -5705.2186 
Loop time of 616.406 on 64 procs for 250000 steps with 1296 atoms

Performance: 70.084 ns/day, 0.342 hours/ns, 405.577 timesteps/s
195.0% CPU use with 32 MPI tasks x 2 OpenMP threads

MPI task timing breakdown:
Section |  min time  |  avg time  |  max time  |%varavg| %total
---------------------------------------------------------------
Pair    | 35.986     | 47.221     | 55.949     |  81.4 |  7.66
Bond    | 0.65312    | 0.94961    | 1.2898     |  15.5 |  0.15
Kspace  | 311.94     | 321.32     | 333.61     |  32.7 | 52.13
Neigh   | 2.8912     | 2.9957     | 3.2307     |   4.5 |  0.49
Comm    | 79.427     | 85.067     | 89.247     |  28.7 | 13.80
Output  | 0.54852    | 0.54895    | 0.55067    |   0.0 |  0.09
Modify  | 106.03     | 113.53     | 148.85     | 121.8 | 18.42
Other   |            | 44.78      |            |       |  7.26

Nlocal:        40.5000 ave          51 max          31 min
Histogram: 4 3 4 4 1 2 2 4 6 2
Nghost:        3014.84 ave        3047 max        2975 min
Histogram: 1 1 4 3 4 4 7 3 2 3
Neighs:        12627.8 ave       15943 max        9536 min
Histogram: 4 4 3 4 1 3 1 6 5 1

Total # of neighbors = 404089
Ave neighs/atom = 311.79707
Ave special neighs/atom = 2.0000000
Neighbor list builds = 6333
Dangerous builds = 0

unfix		3
unfix		2
unfix		1

write_data	data.final.${pid}
write_data	data.final.0
System init for write_data ...
PPPM initialization ...
  extracting TIP4P info from pair style
  using 12-bit tables for long-range coulomb (../kspace.cpp:340)
  G vector (1/distance) = 0.36619789
  grid = 30 40 32
  stencil order = 5
  estimated absolute RMS force accuracy = 0.0047552827
  estimated relative force accuracy = 1.4320393e-05
  using double precision FFTW3
  3d grid and FFT values/proc = 7888 1280
Last active /omp style is kspace_style pppm/tip4p/omp
WARNING: Not all mixed pair coeffs generated from mixing. Use write_data with 'pair ij' option to store all pair coeffs. (../write_data.cpp:312)

write_restart   restart.lmp.${pid}
write_restart   restart.lmp.0
System init for write_restart ...
PPPM initialization ...
  extracting TIP4P info from pair style
  using 12-bit tables for long-range coulomb (../kspace.cpp:340)
  G vector (1/distance) = 0.36619789
  grid = 30 40 32
  stencil order = 5
  estimated absolute RMS force accuracy = 0.0047552827
  estimated relative force accuracy = 1.4320393e-05
  using double precision FFTW3
  3d grid and FFT values/proc = 7888 1280
Last active /omp style is kspace_style pppm/tip4p/omp
Total wall time: 0:10:16
