LAMMPS (30 Jul 2021)
  using 1 OpenMP thread(s) per MPI task
package omp 0
using multi-threaded neighbor list subroutines
echo both

include		in.partitions
variable        pid world 0
include		in.temp
variable        temperature equal 261.35
variable	tempDamp equal 100.0
include		in.pressure
variable        pressure equal 3250.0
variable        pressureDamp equal 1000.0 # This is 1 ps
include		in.seed
variable        seed world 745823

units		real
atom_style	full

read_restart	restart.lmp.${pid}
read_restart	restart.lmp.0
Reading restart file ...
  restart file = 30 Jul 2021, LAMMPS = 30 Jul 2021
  restoring atom style full from restart
  orthogonal box = (-0.058535176 -0.12137420 -0.16319213) to (20.058536 20.121375 20.863190)
  4 by 4 by 4 MPI processor grid
  restoring pair style lj/cut/tip4p/long/omp from restart
  restoring bond style harmonic/omp from restart
  restoring angle style harmonic/omp from restart
  972 atoms
  648 bonds
  324 angles
Finding 1-2 1-3 1-4 neighbors ...
  special bond factors lj:    0        0        0       
  special bond factors coul:  0        0        0       
     2 = max # of 1-2 neighbors
     1 = max # of 1-3 neighbors
     1 = max # of 1-4 neighbors
     2 = max # of special neighbors
  special bonds CPU = 1.146 seconds
  read_restart CPU = 1.423 seconds
include 	in.setup
variable	out_freq equal 1000
variable	out_freq2 equal 10000
variable	out_freq3 equal 1000

timestep	2.0

neigh_modify    delay 7 every 1

include		in.tip4p
# This is TIP4P/Ice

# create groups ###
group ox type 2
324 atoms in group ox
group hy type 1
648 atoms in group hy

# set charges - beside manually ###
set group ox charge -1.1794
Setting atom values ...
  324 settings made for charge
set group hy charge 0.5897
Setting atom values ...
  648 settings made for charge

# ### TIP3P Potential Parameters ###
pair_style lj/cut/tip4p/long/omp 2 1 1 1 0.1577 8.5
pair_coeff 1 1*2 0.000 0.000
pair_coeff 2 2 0.21084 3.1668
bond_style  harmonic
bond_coeff  1 450 0.9572
angle_style harmonic
angle_coeff 1 55 104.52
kspace_style pppm/tip4p/omp 1.0e-5
pair_modify tail yes

thermo          ${out_freq}
thermo          1000
thermo_style    custom step temp pe etotal epair emol press lx ly lz vol pxx pyy pzz pxy pxz pyz enthalpy

restart 	${out_freq3} restart.lmp.${pid} restart2.lmp.${pid}
restart 	1000 restart.lmp.${pid} restart2.lmp.${pid}
restart 	1000 restart.lmp.0 restart2.lmp.${pid}
restart 	1000 restart.lmp.0 restart2.lmp.0


include         in.dump
dump            myDump all atom ${out_freq2} dump.water.${pid}
dump            myDump all atom 10000 dump.water.${pid}
dump            myDump all atom 10000 dump.water.0
dump            myDump2 all dcd ${out_freq2} dump.dcd
dump            myDump2 all dcd 10000 dump.dcd
dump_modify     myDump append yes
dump_modify     myDump2 append yes


variable natoms 	equal  "count(all)"                        # NUMBER ATOMS
variable H      	equal  "enthalpy/v_natoms"                 # ENTHALPY-per-atom
variable Vol      	equal  "vol/v_natoms"                 # volume-per-atom
fix AVG all 		ave/time ${out_freq} 1 ${out_freq} v_Vol v_H file vol_enthalpy.dat
fix AVG all 		ave/time 1000 1 ${out_freq} v_Vol v_H file vol_enthalpy.dat
fix AVG all 		ave/time 1000 1 1000 v_Vol v_H file vol_enthalpy.dat


timer           timeout 02:55:00 every 1000
New timer settings: style=normal  mode=nosync  timeout=02:55:00

fix 		1 all shake 1e-6 200 0 b 1 a 1
       0 = # of size 2 clusters
       0 = # of size 3 clusters
       0 = # of size 4 clusters
     324 = # of frozen angles
  find clusters CPU = 0.714 seconds
fix             2 all nph aniso ${pressure} ${pressure} ${pressureDamp}
fix             2 all nph aniso 3250 ${pressure} ${pressureDamp}
fix             2 all nph aniso 3250 3250 ${pressureDamp}
fix             2 all nph aniso 3250 3250 1000
fix             3 all temp/csvr ${temperature} ${temperature} ${tempDamp} ${seed}
fix             3 all temp/csvr 261.35 ${temperature} ${tempDamp} ${seed}
fix             3 all temp/csvr 261.35 261.35 ${tempDamp} ${seed}
fix             3 all temp/csvr 261.35 261.35 100 ${seed}
fix             3 all temp/csvr 261.35 261.35 100 745823


run             250000
PPPM initialization ...
  extracting TIP4P info from pair style
  using 12-bit tables for long-range coulomb (../kspace.cpp:340)
  G vector (1/distance) = 0.37160112
  grid = 24 24 25
  stencil order = 5
  estimated absolute RMS force accuracy = 0.0035073025
  estimated relative force accuracy = 1.0562137e-05
  using double precision FFTW3
  3d grid and FFT values/proc = 2366 288
Last active /omp style is kspace_style pppm/tip4p/omp
Neighbor list info ...
  update every 1 steps, delay 7 steps, check yes
  max neighbors/atom: 2000, page size: 100000
  master list distance cutoff = 10.8154
  ghost atom cutoff = 10.8154
  binsize = 5.4077, bins = 4 4 4
  1 neighbor lists, perpetual/occasional/extra = 1 0 0
  (1) pair lj/cut/tip4p/long/omp, perpetual
      attributes: half, newton on, omp
      pair build: half/bin/newton/omp
      stencil: half/bin/3d
      bin: standard
Per MPI rank memory allocation (min/avg/max) = 9.224 | 9.228 | 9.234 Mbytes
Step Temp PotEng TotEng E_pair E_mol Press Lx Ly Lz Volume Pxx Pyy Pzz Pxy Pxz Pyz Enthalpy 
 3000000    269.07733   -4650.8263    -4131.888   -4650.8263            0    1094.2999    20.117071    20.242749    21.026382     8562.465    1647.8896    139.70176    1495.3084   -567.92661    455.32013    487.49164   -3995.2376 
 3001000    250.25715   -4664.3934   -4181.7514   -4664.3934            0    3749.1634    20.152992    20.038666    20.840951    8416.3905     5329.826    2888.6965    3028.9679    126.41372   -829.02678    405.14922   -3721.5625 
 3002000    270.63878   -4692.4651   -4170.5155   -4692.4651            0    3060.8453    20.361351    20.099987    20.609221    8434.5891    2256.3993    4132.8682    2793.2684    -355.4749    608.74139   -1011.7494   -3794.0014 
 3003000    264.23184   -4694.1451   -4184.5518   -4694.1451            0    2605.8084    20.236871    20.217662     20.87252    8539.8291    533.93128    3853.7439      3429.75   -574.43597    1039.4306   -1794.6134   -3860.0123 
 3004000    257.73006   -4714.1752   -4217.1211   -4714.1752            0     3401.749    20.005481    19.999455    20.841453    8338.6383    3057.6176    4264.0303    2883.5992    195.53407    705.60367    103.99458   -3803.4328 
 3005000    254.94395   -4669.3249    -4177.644   -4669.3249            0    3557.2001    19.953839    20.206462    20.900777    8427.1197    4987.8239    1982.3682    3701.4082   -887.09411     167.0763    870.29532    -3740.461 
 3006000    268.40692    -4682.198   -4164.5527    -4682.198            0    2358.0584     20.03691    20.234929     20.84675    8452.2199    3340.6034    712.38038    3021.1915    138.81002    10.386866    462.66089    -3873.882 
 3007000    265.35096   -4691.6312   -4179.8795   -4691.6312            0    2560.4513    20.040186    20.104598    20.778538    8371.6705    1972.8064    3959.3721    1749.1752   -92.981876    879.22733    1259.4962   -3867.2683 
 3008000    263.08789   -4679.1774   -4171.7903   -4679.1774            0    481.48462    19.958777    20.279071    21.091342    8536.6248    1187.2376   -857.35145    1114.5677    -440.6504    59.806047    -177.3233   -4111.8464 
 3009000     276.1051   -4677.5907   -4145.0988   -4677.5907            0    3560.3954    20.191779    19.904323    20.947485    8418.8716    3903.1105    4692.6602    2085.4154    274.99338    1474.3437    1025.7112   -3707.9513 
 3010000    272.89352   -4688.8708   -4162.5727   -4688.8708            0     1992.883    20.213986    20.312566    20.679206    8490.8392    1244.9154    1223.3301    3510.4036    35.832289      510.011    673.82503   -3915.7936 
 3011000    259.84711   -4684.7054   -4183.5684   -4684.7054            0    3969.1151    20.233268     19.94706    20.834906    8408.8477    3497.6993    4805.0035    3604.6424    52.864403   -192.53956   -92.374266   -3696.8183 
 3012000    271.46679   -4654.9143   -4131.3678   -4654.9143            0    4271.7474    20.092057    20.006121    21.043761    8458.8369    4143.5933    4976.7375    3694.9113    96.274916    1525.7471    784.43796   -3604.3903 
 3013000    273.99722   -4660.2106    -4131.784   -4660.2106            0     4838.365    19.894235    20.263688    20.792232    8381.9845    8100.5904    323.58382    6090.9209   -135.47844   -144.02818    -1580.096   -3540.3294 
 3014000    252.85392    -4671.721   -4184.0709    -4671.721            0    5143.0175    20.196053    19.895835    20.813973    8363.4153    3623.5295    7117.7808    4687.7421    284.18324    1222.3551    1093.1617   -3556.7676 
 3015000    253.07482   -4676.4386   -4188.3625   -4676.4386            0    2010.8737    19.981388    20.203015    20.915157    8443.1201    2227.9238     1842.828    1961.8691     837.9072    111.65412    139.31436   -3940.7551 
 3016000    260.29412   -4672.0399   -4170.0408   -4672.0399            0    4400.6611    19.871638     20.04296    21.008833    8367.5334    4771.5042    5492.8163    2937.6626   -360.46916    343.08925    1298.1213   -3633.0198 
 3017000    259.39499   -4687.9623   -4187.6972   -4687.9623            0    4119.5944    20.209363    20.028935    20.830497     8431.602    3388.9132     5533.411     3436.459   -516.16581    540.43693    140.11708   -3681.1261 
 3018000    255.77817   -4710.0763   -4216.7866   -4710.0763            0    2166.2873    20.120293    20.279569     20.71796    8453.5673    1967.3988    575.36294    3956.1003     -359.645    443.48305    275.91429   -3949.7123 
 3019000    256.53006   -4678.4204   -4183.6807   -4678.4204            0    4255.4733    20.275207    20.069991    20.801108    8464.4534    5596.3632    4512.0913    2657.9655   -460.83934   -518.23907    390.48843   -3658.3622 
 3020000    259.97295   -4683.0137   -4181.6341   -4683.0137            0     4015.276    19.904565    20.139805    20.868599    8365.6803    5198.9515    3559.0188    3287.8576    126.73213    -935.6788   -1465.0168   -3691.7508 
 3021000    249.64422   -4679.9841   -4198.5243   -4679.9841            0    2870.3212    20.243182    20.094104    20.916969    8508.3663    2764.2623    3677.3724    2169.3289   -89.540221   -812.19965    182.95758   -3842.3582 
 3022000    266.17077   -4695.3775   -4182.0448   -4695.3775            0    2660.1847    20.157734    20.326733    20.570786    8428.6923    2888.6048    1229.8044    3862.1448    -1043.647   -969.61146     337.8042   -3855.0447 
 3023000    256.63545   -4696.3611    -4201.418   -4696.3611            0    3300.9269    20.189602    20.122088    20.708111    8412.8139    3390.5177    2644.4577    3867.8053   -208.79803   -193.52778     65.57625   -3796.4198 
 3024000    272.40189   -4660.9761   -4135.6261   -4660.9761            0    1889.4137    20.081465    20.165126    21.201815    8585.5747    2083.2576    1764.2472    1820.7362    194.93938    1052.8801    425.33214   -3899.0493 
 3025000    276.30128   -4685.1171   -4152.2468   -4685.1171            0    4355.2853    20.084786    19.927219    20.991227    8401.4016    4881.9595    4611.6801    3572.2164   -129.86413   -1901.6175   -1395.2317   -3618.6119 
 3026000    283.21265   -4695.0188   -4148.8194   -4695.0188            0    1542.6311    20.430365    19.916589     20.78255    8456.4858   -502.46826    3547.4612    1582.9004   -1033.5882   -893.46849    474.42047   -3958.5679 
 3027000    268.45939   -4657.9795    -4140.233   -4657.9795            0    4472.5239    20.083268     20.20392    20.725149    8409.4514    5560.7388    3357.0081    4499.8249   -503.72161    1459.2116   -371.79018   -3591.7083 
 3028000     253.2289   -4679.7738   -4191.4006   -4679.7738            0     3776.407    20.052464    20.025549    21.008081    8436.0383    3745.7534    4768.3375    2815.1301   -130.12279   -768.14264    2651.1463   -3726.7856 
 3029000    259.93287   -4672.0915   -4170.7891   -4672.0915            0    2554.9723    20.025166    20.150298    21.003916    8475.3549    2572.2099    3294.5375    1798.1693   -949.67173   -1087.5712   -245.66491   -3854.9834 
 3030000     276.0963   -4695.6467   -4163.1717   -4695.6467            0    4071.7431    19.836095     20.29531    20.900509    8414.1207     5207.488    3587.3001    3420.4413    19.608992    127.39597    248.93946   -3663.5228 
 3031000    267.72188   -4660.4167   -4144.0926   -4660.4167            0    3404.8851     20.17551    20.100905    20.706145    8397.2947    3422.7922    3661.3748    3130.4885     87.51076    629.50414   -56.630801   -3727.1101 
 3032000    262.60824     -4665.76   -4159.2979     -4665.76            0    3329.0323    20.146059    20.203905    20.717903    8432.7885    4645.9342    2850.5269    2490.6359   -109.01334    123.65725    496.40044   -3749.8816 
 3033000    255.52296   -4668.3881   -4175.5906   -4668.3881            0     2515.834    20.147073    20.088983    21.149189       8559.8    1729.3964    3216.3856    2601.7199   -770.23415    1029.9752   -498.19389   -3861.5242 
 3034000    256.68764   -4695.0834   -4200.0397   -4695.0834            0    2360.8082    20.034657    20.101646     20.97969    8449.1417    3593.4756    1922.7762    1566.1729   -519.67521   -339.18776    596.29835   -3909.1361 
 3035000    251.09452   -4703.8569      -4219.6   -4703.8569            0    2832.2294    20.086972      20.1098    20.789279    8397.7252    925.60461    5306.9005    2264.1831   -305.37309    1674.5776     1316.406   -3872.7306 
 3036000    254.09446   -4691.4009   -4201.3584   -4691.4009            0    3818.0762    20.203393    19.995332      20.5988    8321.3705    4224.1108    2038.6556    5191.4623   -556.61952   -907.17468    411.54501   -3738.0018 
 3037000    264.66654   -4692.6146   -4182.1829   -4692.6146            0    3770.4131    19.936086    20.369314    20.861822    8471.6602    4213.5515    3910.8184    3186.8693    396.99892   -631.85036   -378.76749   -3716.3465 
 3038000    269.75306   -4686.7433   -4166.5018   -4686.7433            0    2667.5166     20.24599     20.10206    20.744482    8442.7159     1955.913    3921.7669    2124.8697    344.72236   -27.271733     15.68247   -3838.0549 
 3039000    259.30186   -4698.2436   -4198.1582   -4698.2436            0    4587.1924    20.094112    20.138519    20.669167    8364.1019     5366.759    4569.5849    3825.2333   -283.07083   -1077.2958    36.031996    -3638.604 
 3040000    258.06785   -4687.9072   -4190.2016   -4687.9072            0    3801.2049    20.139703      20.0172    21.043987    8483.6828    3722.9697    4561.0802    3119.5649   -87.232794   -662.53139   -722.06606   -3719.8944 
 3041000    269.08622   -4688.9759   -4170.0205   -4688.9759            0    3087.9917    19.949298    20.042162    21.034063    8409.9876     3974.434     2636.155     2653.386    311.01543   -390.38368    590.20013   -3791.2751 
 3042000    271.20619   -4716.1182   -4193.0742   -4716.1182            0    761.90626    20.192915    20.184075    20.808963    8481.2197     962.2439   -722.79482    2046.2697   -434.68932   -445.82195    1039.3727   -4098.8341 
 3043000       271.34   -4678.0794   -4154.7774   -4678.0794            0     4856.407    20.286819     20.04802    20.659504     8402.438    3118.8969    5940.5067    5509.8175   -320.00527    2243.7567       1292.6   -3559.6687 
 3044000     262.1104    -4711.467   -4205.9651    -4711.467            0    3264.5507    20.165983    20.010512    20.888941    8429.3488    2081.3326    4061.4295    3650.8901   -57.552925    44.315633   -400.35517   -3804.6427 
 3045000    259.93158   -4707.3133   -4206.0134   -4707.3133            0    4250.8803    19.938098    20.285017    20.657439    8354.7909    3652.2449    5015.6974    4084.6987    850.23772    883.17413   -298.50466   -3688.0604 
 3046000    259.13186    -4696.615   -4196.8574    -4696.615            0    4416.0422     20.21645    19.948788    20.874819    8418.6824    4668.7341    5024.3191    3555.0733    395.37659     162.8597   -770.64265   -3654.6653 
 3047000    259.80801   -4680.6274   -4179.5658   -4680.6274            0    3499.6391    20.229166    20.096763    20.875065    8486.5646    4582.9675    2936.6085    2979.3414    416.45453   -356.52213   -569.51491   -3746.4231 
 3048000     251.8693   -4686.1032   -4200.3521   -4686.1032            0    3564.3738    20.029234    20.012375    20.911157    8381.8723     3466.274    4280.2697    2946.5776   -690.93018    354.15036   -170.99159   -3764.6395 
 3049000    263.84845   -4685.0305   -4176.1766   -4685.0305            0    2713.9229    20.077424    20.275086    21.119604     8597.189    4402.8293    2085.0466    1653.8928   -80.668428    1194.7693   -680.75787   -3835.9018 
 3050000    250.97735   -4687.6742   -4203.6432   -4687.6742            0    1611.9331    20.120029    20.291631    20.832458    8505.2304    1986.4897    1567.4101    1281.8994   -149.44522   -910.22765   -2219.0122    -4003.699 
 3051000    273.34718   -4639.3467   -4112.1737   -4639.3467            0    1942.8275    20.321935    20.406897     20.72463    8594.6625    2337.2728    1759.1456     1732.064    41.642293   -472.02941   -270.78751   -3868.6513 
 3052000    255.60546   -4693.6584   -4200.7018   -4693.6584            0    3401.1286    20.209817    20.131959    20.823857    8472.4617    3453.8487    3777.5817    2971.9554   -544.95589    -854.1402   -601.36532    -3780.451 
 3053000    250.60803   -4704.4889   -4221.1702   -4704.4889            0    2602.8749    20.087619    20.019729    21.045645    8463.4789    2651.5703    3776.0278    1381.0267   -261.36002    409.66656    690.40232   -3899.8943 
 3054000    281.70918   -4692.9174   -4149.6175   -4692.9174            0     2399.177    20.220227    20.138105    20.847407    8489.0027    2627.8457    1358.8578    3210.8276   -20.086496   -86.839932   -325.58947   -3852.5913 
 3055000    265.21865   -4689.2852   -4177.7888   -4689.2852            0    4587.9307    20.040555    20.279618    20.701281    8413.3072    4360.5594    4553.3187    4849.9139    198.50197    447.71531    737.75432   -3614.8522 
 3056000    275.87882   -4660.9899   -4128.9344   -4660.9899            0    4520.1348    20.228721    20.172891    20.494413    8363.1914    6236.4339    3712.4005    3611.5699    596.24127    2727.0378    153.55942   -3577.6201 
 3057000    252.78911   -4704.4089   -4216.8838   -4704.4089            0    1422.6461    20.236822    20.273779    20.739399    8508.8957     678.7186    333.37034    3255.8493    -378.8316   -365.26931    626.83925   -4040.3427 
 3058000    255.51979   -4669.5993   -4176.8079   -4669.5993            0    2835.9558    20.106656    20.017457    21.021347    8460.7584    3517.3949    2963.1794    2027.2932    68.570873    -1078.111     1013.601   -3826.8751 
 3059000    255.54483   -4683.7504   -4190.9107   -4683.7504            0    1860.8268    20.026171    20.083516    21.061265    8470.7552    544.79555    3570.6627    1467.0222    274.64846    1053.6544    866.47633   -3961.0292 
 3060000    261.44488   -4690.8272   -4186.6088   -4690.8272            0    3361.2094    20.130395     20.02231    20.813162    8388.8908    4321.2249    3716.2526    2046.1507   -96.513158   -5.4328085   -315.41487   -3775.3871 
 3061000    267.48861   -4687.3111   -4171.4368   -4687.3111            0    2314.0348     20.30104    20.189971    20.672136    8473.0414     2271.445     2034.582    2636.0772    663.90972    1595.2106    285.24446   -3885.4901 
 3062000    264.07228   -4644.8387   -4135.5531   -4644.8387            0    2706.0277    20.172057    20.299802    20.715369    8482.7106     1554.796    2477.0139    4086.2731    144.61755    868.33145    345.47902    -3800.786 
 3063000     268.8851   -4662.4894   -4143.9219   -4662.4894            0    3007.2804    19.941363    20.117243    20.966084    8410.8641    3081.2389    3593.9237    2346.6786    1061.9683   -979.40102    1179.9804   -3775.0374 
 3064000    270.17587   -4703.0087   -4181.9518   -4703.0087            0     1758.933    20.309249    19.855158    21.188925    8544.2929     911.2015    3465.1593    900.43825   -254.66581    626.37292    142.46894   -3962.7716 
 3065000    264.72375   -4696.9688   -4186.4268   -4696.9688            0    4783.6171    20.043293     20.00366     20.86637    8366.1462    6426.1141    4273.7948    3650.9424    325.66632    1644.1626    83.802346   -3602.7697 
 3066000    257.64236   -4630.8521   -4133.9672   -4630.8521            0     2779.789    19.989224    20.430073    20.877915    8526.1505    5269.9692   -532.47796    3601.8759   -119.47364   -950.35057   -73.150384   -3788.3138 
 3067000    267.24011   -4713.3996   -4198.0046   -4713.3996            0     2556.227    20.332242    20.039427    20.659041    8417.4531    1295.6643    2586.2034    3786.8132    440.29489    17.868258   -1106.3821   -3884.2023 
 3068000    250.20744    -4663.885   -4181.3389    -4663.885            0    1759.5557    20.025035    20.196779    20.944547     8470.838    714.40626    3228.1399    1336.1209    70.037005     9.611815   -703.51906    -3963.966 
 3069000     256.6861   -4715.3835   -4220.3428   -4715.3835            0    2993.4776    20.220414    19.985155    20.822384    8414.4942    1554.0093    4159.3733    3267.0503   -762.32044    153.55073    589.41687   -3852.9929 
 3070000    260.12097   -4670.8274   -4169.1623   -4670.8274            0    3881.1756    20.124139    20.123438    20.936146    8478.4459    5290.4956    3025.2535    3327.7778    43.309214    1057.3512    239.20178   -3689.2571 
 3071000    262.68714   -4676.4238   -4169.8096   -4676.4238            0    3664.5424    20.166449    20.006175    20.750599     8371.902    1645.7737    4598.4945     4749.359    72.499282   -380.52259    924.28232   -3722.3851 
 3072000    278.39136     -4659.06   -4122.1588     -4659.06            0    1587.3941    20.505352    19.913376    20.917725    8541.3507    84.100796    3474.6276    1203.4541   -259.34013   -300.31299   -350.96359   -3924.4222 
 3073000    249.45684   -4685.9079   -4204.8094   -4685.9079            0    4291.6866    20.077954    20.136468    20.704004    8370.6096    4106.3287    4953.5314    3815.1996   -232.65968   -361.32061   -184.77939   -3680.8942 
 3074000    265.33681   -4718.3735   -4206.6491   -4718.3735            0    2640.7142    19.876547    20.219674    21.081295    8472.5154    3124.1418    3106.5461    1691.4548   -175.93444    959.73769    1754.7563   -3880.3547 
 3075000    266.45597    -4713.446   -4199.5633    -4713.446            0    3210.0221    20.184052    19.968769    20.970667    8452.2412    1035.3955    6248.9267     2345.744   -423.43921    1538.8917   -650.51619   -3803.8726 
 3076000    262.87192   -4685.4767   -4178.5061   -4685.4767            0    3701.3483    19.985614    20.176826    20.828584    8399.0486    3535.4643    3266.7901    4301.7905   -456.15686   -614.80668   -355.97984   -3725.1224 
 3077000    253.40049   -4707.2726   -4218.5684   -4707.2726            0     4950.098    20.179429    20.242808    20.473607     8363.229    4330.6313    5203.8035    5315.8591     701.5799   -152.85781    797.67152   -3614.8094 
 3078000    263.74592   -4655.0384   -4146.3822   -4655.0384            0    2515.9142     20.09848    20.235182    20.779441    8450.9235    2078.4766    2321.8876    3147.3783    99.244778    501.96586    -68.01361   -3836.3007 
 3079000    250.03176   -4685.4653    -4203.258   -4685.4653            0     3236.042     20.02336    20.195346    20.939135    8467.3399    4402.2574    1509.4477    3796.4208   -277.44295     25.24433    104.78554   -3803.6474 
 3080000    265.27032   -4667.9927   -4156.3966   -4667.9927            0    3674.8831    19.992866    20.211562    20.967365    8472.6403    2099.9236    4383.7046    4541.0212   -108.81995    -2000.859   -213.17808   -3702.3105 
 3081000    258.88528     -4670.99   -4171.7079     -4670.99            0    2240.8215    20.371813    19.845521    20.909032     8453.297    1260.3321    3986.8954    1475.2369   -753.57564   -689.98378    465.56773   -3895.4535 
 3082000    263.41334   -4716.6853   -4208.6706   -4716.6853            0    3829.5877    19.810059    20.231288    20.771048    8324.6832    5194.9677    3359.5927    2934.2026   -387.05289   -21.535137   -360.55456   -3743.7319 
 3083000    257.21261   -4669.2854   -4173.2293   -4669.2854            0     3976.392    20.252882    20.090126    20.807962    8466.4048     5142.763    3052.4329    3733.9802   -206.87392     91.83593    543.10106    -3682.249 
 3084000     275.3009   -4675.6514   -4144.7105   -4675.6514            0    2810.9179     20.18805    20.234802    20.681882    8448.5739    1780.6157    3610.3713    3041.7666   -127.66024   -690.55356    484.26687   -3798.3666 
 3085000    256.82381   -4701.8856   -4206.5792   -4701.8856            0    2408.6652    20.117416    20.076478    21.035035    8495.7744    2744.9853     1671.747    2809.2632    -425.4217   -1482.0848   -12.465591   -3908.1404 
 3086000    255.96489   -4695.0884   -4201.4386   -4695.0884            0    3767.4542    19.974686    20.134131     20.87499    8395.3561    3606.5183    4619.6974    3076.1469    294.63336   -958.54798     22.32677   -3740.1603 
 3087000    255.65482   -4691.1845   -4198.1327   -4691.1845            0    3579.0607    20.181808     20.17947    20.644151    8407.4995    4261.7083    2550.3596    3925.1143    246.05374   -659.32747   -1672.8708   -3759.2871 
 3088000    260.39231   -4685.7708   -4183.5823   -4685.7708            0    4363.9595    20.221687    20.022798    20.784742    8415.6333    3494.6869    5741.9878    3855.2037    1123.1617    1290.3848    1080.1177   -3647.9788 
 3089000    260.21304   -4731.3661   -4229.5234   -4731.3661            0    2402.0263    20.000859    20.210023    20.908718    8451.6762     2892.007    1500.1665    2813.9055   -493.25375    993.65893    721.04632   -3933.4519 
 3090000    269.16717   -4715.8269   -4196.7154   -4715.8269            0    3601.4143    20.356321    19.936216    20.741628    8417.5338    3320.0284    3616.5731    3867.6415   -219.93399    558.57998    1128.7576   -3754.6018 
 3091000    249.22469   -4676.3345   -4195.6838   -4676.3345            0    3176.9218    19.984606    20.279898     20.79074     8426.191    3295.2649    3392.4372    2843.0631   -77.804871     803.2556   -110.33223   -3805.2803 
 3092000    260.86445   -4682.0971   -4178.9981   -4682.0971            0    2460.3825    20.186955    20.058988    20.825911     8433.034    1948.8975    2629.5669    2802.6832   -664.61244    -673.9664    257.26912   -3876.4027 
 3093000    270.12278   -4672.7904   -4151.8359   -4672.7904            0    2284.2422    20.026248    20.076714    21.328972    8575.5533    2838.0012    1783.7755      2230.95    -811.1194   -634.12038   -489.61015   -3866.1557 
 3094000     268.3691   -4702.6368   -4185.0644   -4702.6368            0    3820.2992    20.067998    20.005953    20.797907    8349.9316    3673.9261    3553.1214    4233.8502   -244.89344    -791.6874    606.79126   -3719.8467 
 3095000    250.95337   -4705.7602   -4221.7755   -4705.7602            0    3602.9927    19.957352    20.280013     20.83287    8431.7991    4045.3248    2427.3223    4336.3311   -39.500638    1328.0934    160.76372   -3778.7186 
 3096000    273.96719   -4688.7105   -4160.3417   -4688.7105            0    3568.9591    20.219673    19.960223    21.034378    8489.2476    2641.3111    4981.0994    3084.4668   -580.86859    249.77804    1186.3201   -3718.4797 
 3097000    260.01493   -4679.3002   -4177.8396   -4679.3002            0      3787.86    20.181471    20.213151    20.743187    8461.7913     4058.248    2428.4358    4876.8962     100.4535    821.25197    1298.0206   -3710.3928 
 3098000    262.36112   -4698.7975    -4192.812   -4698.7975            0    3131.1631    20.376838    20.208611    20.483797    8434.9733    3436.3624   -683.84337    6640.9702   -428.41687    362.41237    858.24106   -3807.6306 
 3099000    261.24073    -4697.589   -4193.7643    -4697.589            0    2492.4113    20.091473    20.220055    20.883888    8484.0936    2589.0982    2297.8653    2590.2702   -104.79477    976.53997   -1236.9176   -3885.3738 
 3100000    253.41946   -4667.3547   -4178.6139   -4667.3547            0    3376.1105    19.900082    20.065298    21.090881    8421.6113    3423.5814    3523.5875    3181.1626     218.5666    459.82679    653.36761   -3763.9581 
 3101000    254.89357   -4716.0464   -4224.4628   -4716.0464            0    4629.7208    19.992874    20.051007    20.868839    8365.8432    4378.7982     5061.919    4448.4452   -565.43594    1252.4062   -680.74206   -3659.6033 
 3102000    253.59306   -4671.9601   -4182.8845   -4671.9601            0     1488.284    20.319658    20.421683    20.545111    8525.4324   -1208.7055    2490.8857    3182.6717   -240.88124    924.12571    148.74711   -3997.8392 
 3103000    260.91668    -4666.072   -4162.8723    -4666.072            0    3819.4006    20.044386    20.132516    20.775057     8383.648    5158.9031    3415.6134    2883.6852   -674.76187   -745.89435       1046.5    -3695.886 
 3104000    261.27609   -4657.9383   -4154.0454   -4657.9383            0     3157.244    20.005193     20.00146    21.045717     8421.087    3263.4382    3692.4503    2515.8435   -41.719604    466.38488   -302.90713   -3766.2951 
 3105000    273.88923   -4663.5472   -4135.3287   -4663.5472            0    1905.5347    20.020382    20.269918    20.901448    8482.0481    2368.1847    204.79845    3143.6208   -250.46253    310.24585     -1365.97   -3899.6103 
 3106000    260.05148   -4714.2732    -4212.742   -4714.2732            0    3997.9062    20.096306    20.136238    20.546271     8314.336    5328.2747    1958.7314    4706.7125    135.30895    1137.0895    286.50765   -3727.9717 
 3107000    265.40131   -4698.4383   -4186.5895   -4698.4383            0    2939.3561    20.098444    20.101253    20.895233     8441.756    2620.8396    2292.6855    3904.5432   -473.37188   -139.34806    418.27957   -3824.7126 
 3108000    280.60581   -4699.3144   -4158.1425   -4699.3144            0    3228.2419    20.068732    20.059698    20.919505     8421.622    3375.7292    3916.6259    2392.3707    -910.4787   -752.59167    784.83212   -3761.6475 
 3109000    254.20693   -4672.0469   -4181.7875   -4672.0469            0    3147.4133    20.075252     20.30778    20.665238    8424.8829    2751.2925    2339.8037    4351.1437   -414.53215    1054.5879   -1070.3692   -3795.0702 
 3110000     267.1995   -4672.2084   -4156.8917   -4672.2084            0    1909.7513    20.009436    20.149992     20.92213     8435.593    2719.9175     589.8381    2419.4982   -963.69118    1681.5039   -377.71276   -3921.9456 
 3111000    267.68799   -4662.4452   -4146.1864   -4662.4452            0    2310.8527    20.279041    19.816209    21.264811    8545.3437    1389.1858    4921.2306    622.14168    151.52791   -668.11793   -493.51159   -3858.1962 
 3112000     261.0324   -4674.8161   -4171.3932   -4674.8161            0    1496.7018    20.012377    20.325341    20.930197    8513.5333    1193.4472    1043.1461    2253.5121   -594.25103    89.717141    578.88964   -3985.5609 
 3113000    246.68987    -4689.671   -4213.9088    -4689.671            0    5089.1507    20.173731    19.968441    20.781652    8371.6384    4358.8498    5395.9754    5512.6268    34.787152    899.08246    562.32941   -3592.5654 
 3114000    256.27063   -4662.8284    -4168.589   -4662.8284            0    2677.5498    20.271323    19.995111    20.665838    8376.4293    1764.2619     2707.304    3561.0835   -219.86629    1051.4292   -1631.0519   -3841.4951 
 3115000    258.83023   -4682.3399   -4183.1641   -4682.3399            0    2140.1792     20.10794    20.045786    21.050214    8484.9091     1838.579    1585.4376    2996.5209    455.38861    1842.6134    60.125147   -3918.3304 
 3116000    252.50331   -4693.0725   -4206.0987   -4693.0725            0    3813.7236    20.035213    20.141104    20.847262    8412.5229    3168.5341    4252.6895    4019.9472  -0.17418045   -395.02153    796.46235   -3738.2005 
 3117000    248.11305   -4689.8746   -4211.3677   -4689.8746            0    3527.3344    20.063416    20.220706    20.634831    8371.4773    5439.7662    1543.4847    3598.7523   -195.96801   -1458.4392    392.08395   -3780.7175 
 3118000    245.45893   -4672.1744   -4198.7863   -4672.1744            0    2374.0997    20.216927     20.05723     20.90934    8478.6447    1791.4096    2817.1091    2513.7802    218.44969   -300.90323   -359.67101   -3905.2233 
 3119000    246.14998   -4684.7447   -4210.0238   -4684.7447            0    2607.3251    19.974298    20.164767    20.946441    8436.7459    3152.6412    697.34792    3971.9861   -333.83281    1750.9115    1482.5048   -3889.2151 
 3120000    262.78235   -4676.0056   -4169.2078   -4676.0056            0    2151.9148    20.302394    19.801405    21.170686    8510.9528    2640.4683    2287.1662      1528.11   -167.57006    738.40256   -737.70203   -3902.1045 
 3121000    262.54607   -4722.0796   -4215.7374   -4722.0796            0    2890.7896    20.107238    20.160062    20.745279    8409.3719    3577.3876    1804.6465    3290.3346   -133.82847   -89.290237    637.56429   -3861.2051 
 3122000    259.69407   -4648.1964   -4147.3546   -4648.1964            0     3320.604    20.358501    20.223513    20.691857    8519.2601    3008.5963    2032.7267    4920.4891   -633.23347    455.42241   -617.29813   -3734.7872 
 3123000    259.07926   -4680.8508   -4181.1946   -4680.8508            0    2212.1839    19.950571    20.189163    20.941079    8434.7593    2031.3413     2941.143    1664.0675   -107.31101    643.30517   -98.186549   -3909.0688 
 3124000    267.54597   -4687.8477   -4171.8628   -4687.8477            0    3255.8898    20.220684    19.968963    20.979293    8471.1466    1985.8388    5113.4087     2668.422    328.05358    -1669.898    612.53197   -3769.6204 
 3125000    267.89024   -4660.6627   -4144.0138   -4660.6627            0    3602.7542    20.082976    20.092494    20.830395    8405.4203    3626.4796    3481.2952    3700.4877   -563.73708    82.940547     174.1084   -3702.3722 
 3126000    260.12798   -4711.8914   -4210.2127   -4711.8914            0    2217.4729    19.815336    20.257003    20.956468     8411.912    3748.9569    372.89938    2530.5623   -291.88862    623.62786   -1109.0998   -3938.1751 
 3127000    250.55186   -4678.0095   -4194.7992   -4678.0095            0    2788.9301    20.107299    20.222253    20.838409    8473.2073    3835.3211    1045.2795    3486.1898   -683.61968   -313.89343   -1006.4756   -3850.1626 
 3128000    250.32512   -4681.6871   -4198.9141   -4681.6871            0    2276.7001    19.926301     20.23852    20.882339    8421.4053     2825.243    2025.8071    1979.0502   -143.93952   -631.77856   -1116.0746   -3919.2953 
 3129000    274.51775   -4667.9184   -4138.4879   -4667.9184            0    4040.3884    20.187367    20.142363    20.602664    8377.4814    4880.0551    3509.2263    3731.8838    312.38405     207.0462    576.06234   -3644.8454 
 3130000     252.7844   -4709.0164   -4221.5004   -4709.0164            0    3824.8312    20.143372    20.275643    20.586945    8408.1169    2683.6145    3390.0322    5400.8468   -77.828169   -179.08868    1345.4112   -3752.4852 
 3131000     246.5673   -4705.2196   -4229.6938   -4705.2196            0    3723.9659    19.964079    20.113667    20.934656     8406.329     4270.532    3976.1137    2925.2521    -810.3207   -631.80974   -970.50432   -3773.1442 
 3132000    262.50013   -4658.9753   -4152.7218   -4658.9753            0    1743.8563    20.081653    20.141746    21.209667    8578.8767    3057.2625    1019.4786    1154.8277   -140.71441     488.7972   -1433.0894   -3934.5407 
 3133000    270.93173   -4674.2763   -4151.7617   -4674.2763            0    4720.8157    19.965593    20.068052    21.000502    8414.2826    3840.3251    5301.9298    5020.1923   -23.583161   -261.77541    734.37314    -3572.453 
 3134000    258.26476   -4695.8698   -4197.7845   -4695.8698            0    4190.7299    20.015699    20.145236    20.696595    8345.3012    3535.9998    3918.9959     5117.194   -160.57972   -781.64557    1635.2794   -3687.7405 
 3135000    256.89892   -4688.7146   -4193.2635   -4688.7146            0    2623.0669     19.99526    20.232165    20.895585    8453.2541    4836.1195    889.72764    2143.3534   -789.75729   -817.75483    665.85541   -3869.8864 
 3136000    262.58043    -4677.857   -4171.4486    -4677.857            0    3543.4238    20.158224    19.920163     20.83594     8366.778    4481.8698    3345.3512    2803.0502    1281.1787    874.17946    1876.6004   -3739.0769 
 3137000    259.77861   -4702.7878   -4201.7829   -4702.7878            0    3478.0464    20.046516    20.235757    20.831994    8450.6322    2756.5207    3102.1097    4575.5088    -458.3854   -1052.8454    742.33562   -3773.1353 
 3138000    249.90768     -4679.72   -4197.7521     -4679.72            0    4869.4252    20.146615    20.102142    20.808545    8427.2553    4863.5529    5027.5195    4717.2033   -410.29433    660.42688    950.88242   -3599.2857 
 3139000    243.16241   -4698.9035   -4229.9443   -4698.9035            0    2035.1102    19.844361    20.172406    21.151018    8466.9326    4535.3066    217.68255    1352.3415    50.820619   -824.23294   -134.38404   -3978.6458 
 3140000    273.61097   -4705.2503   -4177.5685   -4705.2503            0     2714.536    20.087919    20.272924    20.876992    8501.9641    2467.6133     3974.162    1701.8327   -17.327376    -308.3741   -802.79992   -3840.9866 
 3141000    252.49568   -4681.4195   -4194.4604   -4681.4195            0     2622.541    20.206765    20.239782    20.679637    8457.5687    2785.9371    1241.0133    3840.6727   -891.60783     1155.262   -164.80369   -3870.9832 
 3142000     251.0722   -4673.1917   -4188.9778   -4673.1917            0    3651.8206    20.263573     20.16159    20.508981    8378.8591    1452.7311    4292.4502    5210.2806   -466.03888    2702.3805    1969.9343    -3742.736 
 3143000    260.60067   -4700.5304   -4197.9401   -4700.5304            0    2761.9565    20.086691    20.130615    20.879321    8442.7089    2918.1492    2401.6008    2966.1194    68.121303   -360.72414    280.59887   -3857.8653 
 3144000    271.76777   -4695.0795   -4170.9525   -4695.0795            0    3873.7318    19.772191    20.260133    20.839236    8347.9314    4433.0212    5067.1311    2121.0431    369.74017     629.0953    303.62502   -3699.3411 
 3145000    257.78594   -4661.7299    -4164.568   -4661.7299            0    3490.1054    20.121943    20.143753    20.781829    8423.5291    3922.7476    2115.6131    4431.9554    962.69658    860.45374    128.95337   -3735.8137 
 3146000    251.11982   -4688.2941   -4203.9885   -4688.2941            0    755.49683    20.068168    20.211229    20.990998    8513.9974   -405.18347    1933.9555    737.71849    425.01215   -694.47513   -390.42041     -4110.18 
 3147000    254.62191   -4691.2677   -4200.2079   -4691.2677            0     2637.958    20.208203    19.974642    20.770367    8383.9921    1314.8315    4270.9773    2328.0651   -876.49838    161.58094   -70.131959   -3877.6597 
 3148000    249.86735   -4687.8024   -4205.9122   -4687.8024            0    2709.6653    20.156956    20.182802    20.893296     8499.891    4125.0456    2067.8557    1936.0945    395.81439    1562.0621    1311.9185   -3870.0162 
 3149000    264.12105   -4677.2909   -4167.9112   -4677.2909            0    2194.4205    19.953439      20.1224    21.154092    8493.6022    2687.4517     3223.979    671.83073    868.89091    1815.0014    405.80622   -3896.0873 
 3150000    258.36458   -4699.6902   -4201.4124   -4699.6902            0    2917.1137    20.046012    20.106889    20.853206    8405.1541    2483.5149    4497.6989    1770.1273    214.39702    129.24757   -436.71771    -3843.831 
 3151000     272.0689   -4661.0067   -4136.2989   -4661.0067            0    3503.1057    20.195183    20.204887    20.487056    8359.5665     2730.197    3234.9922    4544.1278    75.317296    1681.6764   -733.97907   -3709.2153 
 3152000    268.64023   -4681.7239   -4163.6286   -4681.7239            0    4601.2619    20.194561    20.077228    20.711577    8397.5258    4025.6628     6173.698     3604.425   -312.42216   -295.29089    394.44068   -3600.1153 
 3153000    261.41714    -4700.579   -4196.4141    -4700.579            0    3692.0379     20.02922    19.978099    21.008372    8406.4104    3904.3435    4971.3326    2200.4377   -642.41769    -881.4002   -326.20595   -3743.7744 
 3154000    271.04744   -4709.8884   -4187.1506   -4709.8884            0    964.57012    20.158709    20.059264    20.948325    8470.8506    1099.3175    1627.8411    166.55167   -23.886952    1929.7086   -266.31975   -4067.9889 
 3155000    244.46903    -4658.609   -4187.1299    -4658.609            0    4515.8502    20.049723    20.145367    20.886909    8436.4109    6922.2445    2211.6493    4413.6569     399.6084   -1042.3325    1844.3866    -3631.516 
 3156000    254.09715   -4695.3459   -4205.2982   -4695.3459            0    4386.9355    20.149493    20.191535    20.518084    8347.7661    5500.4793    2273.3349    5386.9922    45.455367     205.1675    51.624994   -3671.2168 
 3157000    267.05205   -4692.2422   -4177.2099   -4692.2422            0    3577.9945    20.069334    20.139911    20.769379    8394.8707    1746.5929    5735.0201    3252.3706   -245.69377   -272.52886   -671.16509    -3739.154 
 3158000    247.98314   -4696.9504    -4218.694   -4696.9504            0    2522.4245    20.273478     20.03907    20.835819    8464.7944    1655.9708    2580.2585    3331.0441   -254.06782    -222.9146    372.14974   -3907.2998 
 3159000    254.95868   -4707.5709   -4215.8617   -4707.5709            0    3055.5849    20.014366     20.18556    20.914395    8449.4405    3207.7394    3738.2164    2220.7991   -15.820591   -747.09226    2022.8804   -3839.3329 
 3160000    265.01945   -4691.4084   -4180.2961   -4691.4084            0    3726.8461    19.972274    20.144023    20.933167    8421.8727    5032.0758    3511.1388    2637.3238    -408.7667    1065.5292   -233.13664   -3722.5486 
 3161000    258.38433   -4702.3377   -4204.0218   -4702.3377            0    5213.8387    20.229163    20.069845    20.502199    8323.8142    3681.8309    5930.4222    6029.2631   -453.11704    598.84562    1830.3657   -3571.0915 
 3162000    260.66806   -4680.6014   -4177.8811   -4680.6014            0    2905.3875    20.297686    19.975175    20.857213    8456.5533    1637.0939     2588.767    4490.3016    47.012652   -393.96482    1796.7969   -3819.5592 
 3163000    263.28447   -4682.3192    -4174.553   -4682.3192            0    2402.9415    20.176545    20.165486    20.886351    8498.0263    3002.6002    2572.0015    1634.2227    735.50741   -119.09293    647.60508   -3876.7444 
 3164000    265.45442   -4709.5527   -4197.6016   -4709.5527            0    3509.6745    20.020378    20.056306    20.831276    8364.4825    3779.2008    3419.3218     3330.501    42.142033   -427.84596   -249.71625   -3769.4655 
 3165000    255.22607   -4684.0388   -4191.8138   -4684.0388            0    3912.9708    20.464891    19.802558    20.773739    8418.7072   -324.84339    7012.7594    5050.9964    262.62389   -616.03291     1753.003   -3711.3863 
 3166000    252.76741    -4655.226   -4167.7428    -4655.226            0    1862.7389    20.094963    20.167765    21.006866    8513.4627    2933.6777     647.8358    2006.7032    389.51968   -471.90004    -63.50498   -3936.4649 
 3167000    262.10916   -4686.2338   -4180.7343   -4686.2338            0    4351.9903    20.030096    19.811744     21.10691    8375.8791    2737.2774    7634.0626    2684.6308   -239.84329   -576.23041    -520.8853    -3649.123 
 3168000    270.87748   -4670.2286   -4147.8186   -4670.2286            0     3197.261    20.194232    20.138927    20.805597     8461.432    4485.8533    2822.1803    2283.7494   -237.87291    -1039.212    73.168214   -3753.2724 
 3169000    270.85542   -4667.3658   -4144.9983   -4667.3658            0    3593.9069    20.002069    20.191067    20.923219    8450.1164    5709.5553    2415.0065     2657.159    471.57553   -30.486056    1875.2559   -3702.0986 
 3170000    268.71601   -4681.7401   -4163.4987   -4681.7401            0    4880.4913    20.255118    20.166183    20.582321    8407.2281    3899.4836    5790.7757    4951.2146    1205.8907   -1514.3306    908.47586   -3565.0978 
 3171000    256.47254   -4667.1983   -4172.5695   -4667.1983            0    1981.6962      20.2168    20.102653    20.869628    8481.6533     1851.377    1997.7415    2095.9701    120.71801    -864.8514   -1052.2442   -3927.4411 
 3172000    251.65024   -4680.3035   -4194.9748   -4680.3035            0     3206.334    19.885873    20.175376    21.120677    8473.7205    3266.7925    3954.2073    2398.0022   -459.33068   -1340.3561   -967.64817   -3798.7344 
 3173000     243.1932   -4688.5999   -4219.5813   -4688.5999            0    3037.7063    20.153452    20.053309    21.011651      8491.72    3198.9299     2908.655     3005.534    628.63086   -331.83254    64.145071   -3843.3826 
 3174000    268.77715   -4705.4536   -4187.0942   -4705.4536            0     2576.363    20.298179    20.158677    20.642264    8446.4931    2379.0366    2495.9016    2854.1507    -154.3348    848.16875   -69.679924    -3869.729 
 3175000    259.85821    -4698.539   -4197.3806    -4698.539            0    2093.2469    20.136258    20.140035    20.767664    8422.2207    2911.7952    479.83264    2888.1129    1.5176451   -1008.9722    227.74827   -3940.2682 
 3176000    256.52054   -4709.9613   -4215.2399   -4709.9613            0    3310.5409    20.168974    19.951094    21.002883    8451.4149    3710.4481    4140.9745    2080.2001    123.92867   -804.12433    274.74175   -3807.1984 
 3177000    263.76952   -4686.5479   -4177.8462   -4686.5479            0    3633.9094    19.932466    20.068142    20.999392    8399.9156     4676.232    4302.8848    1922.6114    553.87664   -1184.6932   -359.22327   -3732.6772 
 3178000    261.99405   -4689.2172   -4183.9396   -4689.2172            0    3510.5264    20.212136    20.029882    20.846389    8439.5915    2566.5093    3076.2129    4888.8571   -65.489225   -1304.8619    740.76408   -3751.8543 
 3179000     259.1384   -4660.2467   -4160.4765   -4660.2467            0    4791.7431    19.906146    20.363766    20.643101    8367.9724    6084.7536    3223.9039    5066.5717    -79.84277     156.8291    2086.6028   -3575.7003 
 3180000    267.28022   -4676.0697   -4160.5973   -4676.0697            0    3419.9024    20.107113    20.107071    20.752903    8390.2979    4949.1202    2462.2604    2848.3265    22.167308    758.35825    351.10648   -3742.1247 
 3181000    257.24053   -4699.1874   -4203.0774   -4699.1874            0      3382.99    20.027065    20.244745    20.922954    8483.0616    4945.2338    1626.8398    3576.8966   -377.66887   -994.88537   -358.45448   -3784.5448 
 3182000    246.43134   -4662.4254   -4187.1618   -4662.4254            0    3149.6813    20.011725    20.098659    21.050242    8466.5935    4154.8229    3024.1609    2270.0601   -982.49136    589.93624     678.0028   -3798.2499 
 3183000    248.44842   -4690.5544   -4211.4007   -4690.5544            0    3086.2371    20.297376     19.91264    20.888618    8442.6433    2321.8864    4050.0812    2886.7436   -24.821599    839.15007    690.28142   -3831.4007 
 3184000     254.6136   -4702.5337     -4211.49   -4702.5337            0    2061.6495    20.048661    20.209878    20.789692     8423.588    3323.3549    1094.7007     1766.893   -50.610678    1405.5615   -622.86467   -3958.2176 
 3185000    263.32917   -4662.8874    -4155.035   -4662.8874            0    2683.5151     20.12777    20.354593    20.638668    8455.5091    3487.5971    1571.1578    2991.7904    392.00848    295.10058    1104.1855   -3824.1175 
 3186000    267.40185    -4659.141   -4143.4341    -4659.141            0    4691.9604    20.186754     20.01922    20.643536    8342.5288     4325.355    4129.6502     5620.876    245.96497    665.47804     615.6397   -3572.5763 
 3187000    258.22255   -4701.4232   -4203.4193   -4701.4232            0    2019.0476    20.048284    20.120342    21.073393    8500.5501    3039.4725    2105.9682    911.70205   -707.98052    118.37575    108.01851   -3953.1144 
 3188000    260.74236   -4672.9158   -4170.0522   -4672.9158            0    4026.2753    20.075444    20.236959    20.812158    8455.2711    3090.6383    5258.9941    3729.1934    376.01652    441.96075   -229.82275   -3673.5663 
 3189000    239.88852   -4673.9929   -4211.3477   -4673.9929            0    2741.7068    20.157928      20.2647    20.575228    8404.8648    2106.3771    2986.8031    3131.9402     428.5943     28.43408   -114.03513   -3875.2794 
 3190000    262.14091   -4646.6409   -4141.0801   -4646.6409            0    4086.7594    20.072493    20.236766    20.778666    8440.3429    4385.9869    3421.9575    4452.3337   -918.06245    1124.0227    440.55854   -3638.0256 
 3191000    260.32325   -4681.8425   -4179.7873   -4681.8425            0    4548.0221    20.139533    19.967718    20.888891    8400.2694    4162.1672    5234.8977    4247.0013   -255.63832    28.274723    8.3074878   -3622.6122 
 3192000    259.23336   -4677.0903    -4177.137   -4677.0903            0    3280.3225    20.156436    19.989711    21.017445    8468.3769     3036.872    3667.9847    3136.1108   -730.74347   -1380.7683    409.15929   -3772.0087 
 3193000    270.57142    -4695.082   -4173.2622    -4695.082            0    3185.0129    20.126618     20.11354    20.832424    8433.3306    2887.2479    2833.0231    3834.7676    111.61175   -341.71801   -143.83798   -3781.5328 
 3194000    267.82821    -4673.264   -4156.7347    -4673.264            0    2267.5603    20.387536    20.071143    20.628806    8441.3311   -451.21155      3623.33    3630.5624    1228.0653   -1035.6459    591.03879   -3877.5796 
 3195000    256.92469   -4673.9572   -4178.4563   -4673.9572            0    3416.4436    20.234008    20.081444    20.673146    8400.0803    2360.6705    3827.0697    4061.5904    170.11759    1222.6156   -1042.4727   -3759.9196 
 3196000    263.25373    -4694.826    -4187.119    -4694.826            0    3273.7171    20.069713    19.991729    20.959968    8409.7312    2487.7667    4079.2238    3254.1607   -449.24089    764.95107    578.27992   -3785.6065 
 3197000    265.91745   -4705.2713   -4192.4271   -4705.2713            0    1720.4783    20.144851    20.091059    20.933746    8472.5442    682.75132    2154.0777    2324.6059    259.73894    184.70855   -36.743674    -3979.839 
 3198000     260.5802    -4682.999   -4180.4482    -4682.999            0    3562.3167     20.33473    19.872169    20.936489    8460.3344     3603.826    4536.6522    2546.4717    8.4912568    917.61163    1021.5052   -3740.9107 
 3199000    261.73946   -4662.9456    -4158.159   -4662.9456            0    2633.6742    20.229958    20.122417    20.735271    8440.8239    4161.6371    806.69153     2932.694   -342.12725   -1332.9194   -2078.8593   -3833.9518 
 3200000    246.55415   -4669.3188   -4193.8184   -4669.3188            0    4433.5598    20.005279    20.216841    20.846713    8431.3185    5622.5102    4355.1938    3322.9753   -439.74703   -696.18316   -471.47113   -3648.6584 
 3201000     259.6732   -4675.4127   -4174.6111   -4675.4127            0    2124.8992    20.245788    20.262289    20.749309    8511.9061    2801.8935    1574.9019    1997.9021    140.88152    33.571444    49.505772   -3910.8316 
 3202000     262.6635   -4695.1799   -4188.6113   -4695.1799            0    2308.1644    20.128261    20.121604     21.00089    8505.6311    1777.1378    2890.2092    2257.1461    -208.4503   -134.28503      466.112   -3902.2929 
 3203000    260.22679   -4703.0169   -4201.1476   -4703.0169            0    2218.9186    20.002622    19.917389    21.068209    8393.5746    2502.2377    1919.5307    2234.9872    522.58978    296.96238     170.6085   -3929.5261 
 3204000    258.75914   -4714.4427    -4215.404   -4714.4427            0    2669.6428    20.124743    20.125473    20.756621    8406.8463    661.38841    3965.2682    3382.2718    351.33827   -341.25701    428.27169   -3888.0918 
 3205000    247.04214   -4700.9067   -4224.4651   -4700.9067            0     2746.325    20.160665    20.098724    20.907527     8471.806    3486.9237    1251.7453     3500.306    181.48052   -1199.7533    407.02591   -3885.1495 
 3206000    250.94407   -4692.7225   -4208.7558   -4692.7225            0    4547.4389    20.413882    19.893637    20.404759    8286.5023    2629.1534    5220.7875    5792.3758    726.18012    1388.7928   -283.54286   -3659.1972 
 3207000    266.25323   -4708.0907    -4194.599   -4708.0907            0    945.09727    20.206544    20.094402    20.935321    8500.5444    1068.8486    1005.2176    761.22558   -271.90072    505.62584    -108.8735   -4077.4337 
 3208000    257.68025    -4669.206    -4172.248    -4669.206            0    2181.2899    20.092264     20.11495    20.986685    8481.8717    3654.1288    3387.7544   -498.01356   -168.33972   -133.70071    854.66361   -3902.4238 
 3209000    256.77786   -4693.5674   -4198.3497   -4693.5674            0    2246.0595    20.157945    20.364008    20.677053     8487.859   -309.26487    4598.3184    2449.1251   -454.89906    163.00556   -208.40795   -3920.3173 
 3210000    274.33457   -4677.9063    -4148.829   -4677.9063            0    4984.1266    20.228122    19.995454      20.6973    8371.4468     2753.911     6550.437    5648.0318    462.35862    459.60313    251.16776   -3540.3222 
 3211000    276.74875   -4716.4179   -4182.6847   -4716.4179            0    2633.3651    20.244713    19.942173    20.822112    8406.3772    1651.1581    3550.3773    2698.5599   -510.45144    441.86585   -2.6629958   -3859.8384 
 3212000    261.96428   -4686.4244   -4181.2043   -4686.4244            0    4791.1162    19.983873    19.980002    20.958516    8368.2704    4134.5754    4992.7636    5246.0097    443.39629    620.67006   -1713.5084   -3596.4838 
 3213000    280.51908   -4701.3694   -4160.3648   -4701.3694            0    2212.5348    20.136337     20.00942    20.865001    8406.8517    3539.9548    1703.6878    1393.9618    83.521617   -63.616663    1060.4253   -3889.0962 
 3214000    264.82908   -4679.1171   -4168.3719   -4679.1171            0    4423.7368    20.245612    19.996675    20.602166    8340.6821     3467.368    4779.7028    5024.1397   -636.85038    503.54707    326.30911   -3630.2673 
 3215000    257.91586   -4729.1683   -4231.7559   -4729.1683            0    3662.5843    20.106909    20.124842    20.630692     8348.176    3526.8385    3275.0112    4185.9033   -551.64244    332.78742    514.51234   -3785.8377 
 3216000    255.70762   -4697.7562   -4204.6025   -4697.7562            0    3712.4594    20.151142    20.071157    21.013028    8498.8607    2842.5871     4805.813     3488.978    558.70061    892.07764   -958.36564   -3744.4537 
 3217000    251.20995   -4706.9253   -4222.4458   -4706.9253            0    4461.9813    20.068333    20.100004    20.821142    8398.6984     2107.473    6270.3889    5008.0821    176.94878   -1182.3875   -844.53415   -3675.9138 
 3218000    258.98425   -4664.2601   -4164.7872   -4664.2601            0    3194.7649    20.104818    20.311551    20.807791    8497.0704     2737.981    3116.1891    3730.1247   -159.91532    602.11871    280.44237   -3768.8886 
 3219000    270.38073   -4694.9166   -4173.4647   -4694.9166            0    3437.6698    19.975211    20.149136    20.846107    8390.2087    3159.5029     4394.672    2758.8346    327.66425    801.47321    1830.7247   -3752.8225 
 3220000    255.38276   -4705.8165   -4213.2893   -4705.8165            0    3620.3928    20.064156    20.206757     20.70596     8394.849    4237.4689    2000.5139    4623.1957   -543.54576   -1198.5513    437.21365   -3770.0437 
 3221000    262.94204   -4698.4121   -4191.3062   -4698.4121            0    2455.2196    20.159097    20.255548    20.717891    8459.8102    2609.4757    1927.8544    2828.3288   -710.03084   -282.24971   -721.40341    -3888.387 
 3222000    256.77481   -4700.5201   -4205.3083   -4700.5201            0    3327.4206    20.109322    20.091321    20.745088    8381.4899    1625.3995    4756.3262     3600.536   -139.42201    597.30607   -916.45111   -3798.5796 
 3223000    252.81032   -4688.3323   -4200.7663   -4688.3323            0    2864.1876    20.057455    20.016069    21.030563    8443.1695    2228.9483    4960.7652    1402.8492     276.4735   -455.83786    954.67851   -3848.0846 
 3224000     269.3023   -4706.3736   -4187.0015   -4706.3736            0    1863.7058    20.256891    20.163078    20.903406    8537.8137    1484.6213    1968.7831    2137.7131    -421.4256    463.19505    -184.2067   -3954.9417 
 3225000     258.0544   -4706.2008   -4208.5212   -4706.2008            0    2586.0988     20.20591    20.173571      20.5885    8392.3947   -146.16164    3569.2074    4335.2506    -689.5392   -104.32305    369.01684   -3891.9971 
 3226000    253.11425   -4678.1459   -4189.9938   -4678.1459            0    3116.6167    20.161853    20.279585    20.742829    8481.2042    4086.2463    1941.7048     3321.899   -414.14321   -438.65173    644.28729   -3804.5005 
 3227000    269.39479   -4652.0354   -4132.4849   -4652.0354            0    1904.2846    20.119294    20.224108    20.933029    8517.5402    3006.1267      393.546    2313.1811    253.54923   -322.34204   -776.35433   -3895.9355 
 3228000    262.04305   -4664.9594   -4159.5873   -4664.9594            0    2655.4673    20.099581    20.126975    20.930376    8467.2531    3424.5752    2638.3967    1903.4301   -2.9525163     -201.121   -1414.8535   -3831.6737 
 3229000    291.72201   -4728.4733   -4165.8629   -4728.4733            0    3418.9075    19.947435    20.240145    20.768344      8384.99    5453.9685    1264.9699     3537.784   -21.454264    505.80637    584.84254   -3747.7767 
 3230000    269.47582   -4660.9825   -4141.2757   -4660.9825            0    3278.6809    20.380831    19.956325    20.850235    8480.3427    1872.5904    5561.0646    2402.3877    541.26264    1847.3248   -216.03936    -3735.778 
 3231000    263.71115   -4664.4709   -4155.8817   -4664.4709            0    2957.0161    19.940689    20.382342    20.868973    8481.9421    3430.5139    2559.1073    2881.4272    136.69239     2547.778   -1412.0943   -3790.0976 
 3232000    270.46996   -4699.0681    -4177.444   -4699.0681            0    4265.0263    20.107443    20.128432    20.575315    8327.4741     4074.159    3720.3349    5000.5848    43.640364   -1110.5039   -424.06655   -3659.4665 
 3233000    257.74069   -4692.4708   -4195.3962   -4692.4708            0    1201.6523     19.96539    20.391641    20.997738    8548.7474    2391.1976     883.8565     329.9029   -14.391739    484.13357   -270.03583   -4045.5806 
 3234000    273.00652   -4677.7021   -4151.1861   -4677.7021            0    4636.9875    20.074456    20.003814    20.892257    8389.6134    3803.7201    6094.8886    4012.3537    254.66011    368.45391   -1084.3783   -3583.8325 
 3235000    249.33624   -4687.6875   -4206.8216   -4687.6875            0    1753.0635    20.000089     20.18165    21.032725    8489.5399    4400.6512   -868.78659    1727.3261   -321.22502    518.03175   -161.15474   -3989.7727 
 3236000    261.42071   -4711.9076   -4207.7358   -4711.9076            0    3169.8954    20.315625    20.008658    20.707898    8417.5199    2403.1877    4021.5315    3084.9669   -282.52452   -2299.5305   -191.48293   -3818.5966 
 3237000    255.71653   -4661.6118   -4168.4409   -4661.6118            0    5145.5444    20.028763    20.306867    20.536821    8352.7653    6068.3489    3983.9759    5384.3084    619.61758    1340.6806    52.002296   -3541.6286 
 3238000    270.21838   -4690.4799    -4169.341   -4690.4799            0    3681.1562    20.093741    20.160768     20.78569    8420.3919     4063.741     4193.564    2786.1637    254.44267    421.28551    255.32003   -3717.2848 
 3239000    253.06887    -4674.349   -4186.2845    -4674.349            0    3234.8654    20.060652    19.894012    21.142025     8437.504     4784.336    2766.8912    2153.3692   -817.00154     353.0015    55.447177   -3788.2267 
 3240000    270.93532   -4692.3538   -4169.8323   -4692.3538            0    3731.5432    20.136373    20.036884    20.844911    8410.2996    4544.4516    2950.9738    3699.2043   -149.35432   -358.56513    697.77541   -3712.1376 
 3241000    253.52853   -4687.9809   -4199.0298   -4687.9809            0    1638.4036    20.196705    20.341935    20.655328    8486.0363    1794.9338    905.03712    2215.2398    510.36008    1089.3035     -701.025   -3996.2607 
 3242000    265.42086   -4699.0076   -4187.1212   -4699.0076            0     3525.765    20.204741    20.148271    20.735945    8441.4085    4054.6527    2484.1798    4038.4624   -202.64333   -387.97837   -722.58446   -3753.0668 
 3243000    259.99118   -4658.7479    -4157.333   -4658.7479            0    3423.6312    19.907632    20.202525    21.086685    8480.7365    4549.4503    3443.9946    2277.4486   -138.69824    112.58536    140.55124   -3733.8886 
 3244000    261.52931    -4675.072   -4170.6908    -4675.072            0    2673.2309    20.069467    20.160406    20.824863    8425.9188    3334.5019     2882.287    1802.9036    186.83672    276.44375   -251.13386   -3842.1951 
 3245000    280.25529   -4683.9121   -4143.4162   -4683.9121            0     1463.961    20.286523    20.409062    20.550117    8508.3426    871.99327    991.24794    2528.6418   -151.07711    874.04686    47.989254     -3961.76 
 3246000    262.92513   -4671.2368   -4164.1635   -4671.2368            0     3829.923     20.08312    20.112357    20.768482    8388.7821    5735.0589    2180.0942     3574.616   -743.38378    63.744118   -1216.1635   -3695.6039 
 3247000    258.00638   -4683.4334   -4185.8464   -4683.4334            0    3775.0971     20.04345     20.08203    20.781649    8364.8872    4758.0702    3664.7286    2902.4926    373.64761    -448.1723   -324.64429   -3725.3099 
 3248000    266.39011   -4676.7867    -4163.031   -4676.7867            0    3258.6995    20.222685     20.03686    20.835354     8442.467    1825.8436    5202.5541    2747.7008   -668.88993   -505.14153    316.07386   -3761.8045 
 3249000    253.19737   -4695.6807   -4207.3683   -4695.6807            0    1936.8018    20.064812    20.066544    21.061644    8480.0799    299.82273    4718.0653    792.51742   -457.32539    35.765851    280.54622   -3967.8377 
 3250000    264.41761   -4657.8146    -4147.863   -4657.8146            0    1733.8585    20.120891    20.334643    20.693289    8466.6826    3862.9339   -1754.5657    3093.2073   -210.52655    385.03583   -477.29203   -3933.7698 
Loop time of 420.741 on 64 procs for 250000 steps with 972 atoms

Performance: 102.676 ns/day, 0.234 hours/ns, 594.190 timesteps/s
99.1% CPU use with 64 MPI tasks x 1 OpenMP threads

MPI task timing breakdown:
Section |  min time  |  avg time  |  max time  |%varavg| %total
---------------------------------------------------------------
Pair    | 19.756     | 27.809     | 36.575     |  77.8 |  6.61
Bond    | 0.26085    | 0.27766    | 0.2877     |   0.9 |  0.07
Kspace  | 171.81     | 185.08     | 196.42     |  41.4 | 43.99
Neigh   | 3.1053     | 3.5013     | 3.8881     |  11.5 |  0.83
Comm    | 89.766     | 95.454     | 102.48     |  33.9 | 22.69
Output  | 1.7372     | 1.7389     | 1.7518     |   0.1 |  0.41
Modify  | 97.304     | 99.627     | 103.14     |  12.9 | 23.68
Other   |            | 7.253      |            |       |  1.72

Nlocal:        15.1875 ave          19 max          11 min
Histogram: 3 4 6 11 0 10 11 12 4 3
Nghost:        2175.70 ave        2201 max        2147 min
Histogram: 1 1 2 8 16 14 11 8 1 2
Neighs:        4650.06 ave        6566 max        3070 min
Histogram: 3 4 8 11 13 10 7 4 2 2

Total # of neighbors = 297604
Ave neighs/atom = 306.17695
Ave special neighs/atom = 2.0000000
Neighbor list builds = 8455
Dangerous builds = 0

unfix		3
unfix		2
unfix		1

write_data	data.final.${pid}
write_data	data.final.0
System init for write_data ...
PPPM initialization ...
  extracting TIP4P info from pair style
  using 12-bit tables for long-range coulomb (../kspace.cpp:340)
  G vector (1/distance) = 0.3707567
  grid = 24 24 24
  stencil order = 5
  estimated absolute RMS force accuracy = 0.003690811
  estimated relative force accuracy = 1.1114768e-05
  using double precision FFTW3
  3d grid and FFT values/proc = 2197 216
Last active /omp style is kspace_style pppm/tip4p/omp
WARNING: Not all mixed pair coeffs generated from mixing. Use write_data with 'pair ij' option to store all pair coeffs. (../write_data.cpp:312)

write_restart   restart.lmp.${pid}
write_restart   restart.lmp.0
System init for write_restart ...
PPPM initialization ...
  extracting TIP4P info from pair style
  using 12-bit tables for long-range coulomb (../kspace.cpp:340)
  G vector (1/distance) = 0.3707567
  grid = 24 24 24
  stencil order = 5
  estimated absolute RMS force accuracy = 0.003690811
  estimated relative force accuracy = 1.1114768e-05
  using double precision FFTW3
  3d grid and FFT values/proc = 2197 216
Last active /omp style is kspace_style pppm/tip4p/omp
Total wall time: 0:07:03
