LAMMPS (30 Jul 2021)
  using 1 OpenMP thread(s) per MPI task
package omp 0
using multi-threaded neighbor list subroutines
echo both

include		in.partitions
variable        pid world 0
include		in.temp
variable        temperature equal 259.76
variable	tempDamp equal 100.0
include		in.pressure
variable        pressure equal 7375.0
variable        pressureDamp equal 1000.0 # This is 1 ps
include		in.seed
variable        seed world 745823

units		real
atom_style	full
read_restart	restart.lmp.${pid}
read_restart	restart.lmp.0
Reading restart file ...
  restart file = 30 Jul 2021, LAMMPS = 30 Jul 2021
  restoring atom style full from restart
  orthogonal box = (0.55865053 1.7495478 0.68155234) to (17.648922 21.879630 21.531643)
  4 by 4 by 4 MPI processor grid
  restoring pair style lj/cut/tip4p/long/omp from restart
  restoring bond style harmonic/omp from restart
  restoring angle style harmonic/omp from restart
  864 atoms
  576 bonds
  288 angles
Finding 1-2 1-3 1-4 neighbors ...
  special bond factors lj:    0        0        0       
  special bond factors coul:  0        0        0       
     2 = max # of 1-2 neighbors
     1 = max # of 1-3 neighbors
     1 = max # of 1-4 neighbors
     2 = max # of special neighbors
  special bonds CPU = 1.893 seconds
  read_restart CPU = 2.387 seconds
include 	in.setup
variable	out_freq equal 1000
variable	out_freq2 equal 10000
variable	out_freq3 equal 1000

timestep	2.0

neigh_modify    delay 7 every 1

include		in.tip4p
# This is TIP4P/Ice

# create groups ###
group ox type 2
288 atoms in group ox
group hy type 1
576 atoms in group hy

# set charges - beside manually ###
set group ox charge -1.1794
Setting atom values ...
  288 settings made for charge
set group hy charge 0.5897
Setting atom values ...
  576 settings made for charge

# ### TIP3P Potential Parameters ###
pair_style lj/cut/tip4p/long/omp 2 1 1 1 0.1577 8.5
pair_coeff 1 1*2 0.000 0.000
pair_coeff 2 2 0.21084 3.1668
bond_style  harmonic
bond_coeff  1 450 0.9572
angle_style harmonic
angle_coeff 1 55 104.52
kspace_style pppm/tip4p/omp 1.0e-5
pair_modify tail yes

thermo          ${out_freq}
thermo          1000
thermo_style    custom step temp pe etotal epair emol press lx ly lz vol pxx pyy pzz pxy pxz pyz enthalpy

restart 	${out_freq3} restart.lmp.${pid} restart2.lmp.${pid}
restart 	1000 restart.lmp.${pid} restart2.lmp.${pid}
restart 	1000 restart.lmp.0 restart2.lmp.${pid}
restart 	1000 restart.lmp.0 restart2.lmp.0


include         in.dump
dump            myDump all atom ${out_freq2} dump.water.${pid}
dump            myDump all atom 10000 dump.water.${pid}
dump            myDump all atom 10000 dump.water.0
dump            myDump2 all dcd ${out_freq2} dump.dcd
dump            myDump2 all dcd 10000 dump.dcd
dump_modify     myDump append yes
dump_modify     myDump2 append yes


variable natoms 	equal  "count(all)"                        # NUMBER ATOMS
variable H      	equal  "enthalpy/v_natoms"                 # ENTHALPY-per-atom
variable Vol      	equal  "vol/v_natoms"                 # volume-per-atom
fix AVG all 		ave/time ${out_freq} 1 ${out_freq} v_Vol v_H file vol_enthalpy.dat
fix AVG all 		ave/time 1000 1 ${out_freq} v_Vol v_H file vol_enthalpy.dat
fix AVG all 		ave/time 1000 1 1000 v_Vol v_H file vol_enthalpy.dat


timer           timeout 23:50:00 every 1000
New timer settings: style=normal  mode=nosync  timeout=23:50:00

fix 		1 all shake 1e-6 200 0 b 1 a 1
       0 = # of size 2 clusters
       0 = # of size 3 clusters
       0 = # of size 4 clusters
     288 = # of frozen angles
  find clusters CPU = 0.302 seconds
fix             2 all nph iso ${pressure} ${pressure} ${pressureDamp}
fix             2 all nph iso 7375 ${pressure} ${pressureDamp}
fix             2 all nph iso 7375 7375 ${pressureDamp}
fix             2 all nph iso 7375 7375 1000
fix             3 all temp/csvr ${temperature} ${temperature} ${tempDamp} ${seed}
fix             3 all temp/csvr 259.76 ${temperature} ${tempDamp} ${seed}
fix             3 all temp/csvr 259.76 259.76 ${tempDamp} ${seed}
fix             3 all temp/csvr 259.76 259.76 100 ${seed}
fix             3 all temp/csvr 259.76 259.76 100 745823

run             250000
PPPM initialization ...
  extracting TIP4P info from pair style
  using 12-bit tables for long-range coulomb (../kspace.cpp:340)
  G vector (1/distance) = 0.3737026
  grid = 24 24 24
  stencil order = 5
  estimated absolute RMS force accuracy = 0.0032253726
  estimated relative force accuracy = 9.7131137e-06
  using double precision FFTW3
  3d grid and FFT values/proc = 2535 216
Last active /omp style is kspace_style pppm/tip4p/omp
Neighbor list info ...
  update every 1 steps, delay 7 steps, check yes
  max neighbors/atom: 2000, page size: 100000
  master list distance cutoff = 10.8154
  ghost atom cutoff = 10.8154
  binsize = 5.4077, bins = 4 4 4
  1 neighbor lists, perpetual/occasional/extra = 1 0 0
  (1) pair lj/cut/tip4p/long/omp, perpetual
      attributes: half, newton on, omp
      pair build: half/bin/newton/omp
      stencil: half/bin/3d
      bin: standard
Per MPI rank memory allocation (min/avg/max) = 9.235 | 9.238 | 9.240 Mbytes
Step Temp PotEng TotEng E_pair E_mol Press Lx Ly Lz Volume Pxx Pyy Pzz Pxy Pxz Pyz Enthalpy 
13500000    273.12616   -3874.5442   -3406.4153   -3874.5442            0    5639.5617    17.090271    20.130082    20.850091     7173.027    5855.1069    5824.0965    5239.4815    1916.9286    339.13434   -151.82701   -2816.4538 
13501000    269.30311   -3934.9962   -3473.4199   -3934.9962            0    5910.2431     17.13319    20.180635    20.902452     7227.204    6550.3237    4261.0315    6919.3742    185.72867   -555.89237    163.08731   -2850.4723 
13502000    263.96678   -3889.8908   -3437.4608   -3889.8908            0    7150.2459    17.052102    20.085123    20.803524    7125.0732    6863.9494    7293.4871    7293.3011    681.69497    2188.8777    539.69531   -2694.4653 
13503000     263.0072   -3895.2491   -3444.4638   -3895.2491            0    9791.3035    17.024089    20.052128    20.769349    7090.0166    9157.0001     11847.52    8369.3902    1741.5557   -135.02452   -1053.1901   -2432.0369 
13504000    249.23611   -3934.1386   -3506.9565   -3934.1386            0     4926.844    17.159487     20.21161    20.934535    7260.5334    4365.6759    6279.9108    4134.9453   -531.51197    1516.8817   -369.40117   -2985.2656 
13505000     258.0304   -3890.9032   -3448.6479   -3890.9032            0     6373.705    17.105808    20.148383    20.869046    7192.6081    6567.2172    4760.0261    7793.8718   -42.812344    1228.6135    -2090.163   -2780.0665 
13506000    264.22739   -3883.9557    -3431.079   -3883.9557            0    7883.1442    17.074291     20.11126    20.830595    7152.9245    7671.0636    7940.8029    8037.5662   -1500.1333    750.13772     43.89905   -2608.7246 
13507000    261.74415   -3872.0048   -3423.3843   -3872.0048            0    8220.9949    17.037992    20.068504     20.78631    7107.4007    8357.8921    9289.3786    7015.7142   -1131.6594    707.81199    -24.22295   -2571.2441 
13508000    260.91104   -3855.6338   -3408.4412   -3855.6338            0    6329.9498    17.098781    20.140106    20.860473    7183.7478    6545.9563    6073.2905    6370.6028   -83.218803   -684.87277    -448.7112   -2745.2676 
13509000    286.07867    -3896.446   -3406.1169    -3896.446            0    7681.4636    17.114378    20.158477    20.879501    7203.4236    9209.7842    7339.6014    6495.0051   -2369.6761   -295.84593   -1376.6879   -2599.1443 
13510000    249.06014   -3841.1806      -3414.3   -3841.1806            0    6638.9742    17.088629    20.128147    20.848087    7170.9589    6347.6135    7384.3772     6184.932   -194.57118    530.40618   -1284.7636   -2719.9889 
13511000    264.15483   -3859.1839   -3406.4316   -3859.1839            0    8034.7401    17.037529    20.067958    20.785745    7106.8213    8315.6054    7424.2593    8364.3555    37.680792    319.06206   -310.07441   -2573.6653 
13512000      279.849    -3850.101   -3370.4494    -3850.101            0    8547.8942    17.053879    20.087217    20.805692    7127.3012    8292.7075    8838.3959    8512.5793     422.9334    182.26696    -137.6388   -2481.9439 
13513000    264.73335   -3837.4046   -3383.6607   -3837.4046            0    7713.9512    17.037662    20.068115    20.785907    7106.9875    7031.8855    7385.7055    8724.2626   -281.26745   -308.61166   -445.89925   -2584.1241 
13514000    249.27492   -3873.3651   -3446.1165   -3873.3651            0    7264.4824    17.033073     20.06271    20.780309    7101.2467    7073.9464    5660.2289     9059.272   -313.07025   -1829.7944   -709.88677   -2693.7747 
13515000    264.05325   -3882.0948   -3429.5165   -3882.0948            0    6593.6015    17.050302    20.083003    20.801328    7122.8169    6738.7054    5992.0857    7050.0134    830.03327    -339.6881    176.68154   -2744.5799 
13516000    260.21274   -3862.9453   -3416.9495   -3862.9453            0    7389.0186    17.055769    20.089442    20.807998    7129.6707    6685.8297    8268.7697    7212.4562   -228.89983    705.68704     477.5894   -2648.6473 
13517000    268.17164   -3869.5507   -3409.9137   -3869.5507            0    9990.1042    17.009132    20.034511    20.751101    7071.3451    10472.542    9545.6849    9952.0856    1239.7919    1209.7228     -148.016    -2379.651 
13518000    252.09495   -3892.7959   -3460.7138   -3892.7959            0    6084.0693    17.066907    20.102563    20.821587    7143.6486    6216.2374    6798.0222    5237.9483    327.06932   -937.24438    1417.2443   -2826.8585 
13519000    250.19807   -3824.2821   -3395.4511   -3824.2821            0    8723.4911    17.035929    20.066074    20.783794      7104.82    10169.671    8877.3218    7123.4808    689.98588   -86.657343    176.25415   -2491.5534 
13520000    242.85377    -3836.351   -3420.1079    -3836.351            0    6822.5739    17.041528    20.072669    20.790625    7111.8274     7637.597    6316.7407    6513.3841    202.26276   -1217.9249    1070.0721   -2712.4794 
13521000    252.23932   -3862.4067   -3430.0771   -3862.4067            0    6210.8627    17.114911    20.159105    20.880152    7204.0968    6261.3915    5591.5807    6779.6161    806.79294   -599.90854   -37.753844   -2777.5368 
13522000     270.3154     -3846.73   -3383.4187     -3846.73            0    9067.9597    16.992001    20.014333    20.730202    7050.0012    9175.2459    9567.7097    8460.9236   -1009.2396    2137.9504   -446.26643   -2451.0779 
13523000    249.77808   -3864.2092   -3436.0981   -3864.2092            0    6603.5784     17.06723    20.102943    20.821981    7144.0538    6212.0144    7720.3486    5878.3722   -526.05864    418.47555    156.88816   -2748.0799 
13524000     273.3106   -3809.8135   -3341.3685   -3809.8135            0    8501.0186    17.054371    20.087796    20.806292    7127.9178    7776.8247    9617.0878    8109.1434   -425.54259   -332.63525    938.98127    -2457.659 
13525000    259.37979   -3838.1628   -3393.5947   -3838.1628            0    7903.6673     17.05071    20.083485    20.801827    7123.3293    7891.7457    8531.0694    7288.1868    2078.1826    709.32995    1026.2641   -2572.5107 
13526000    273.25253   -3827.9473   -3359.6018   -3827.9473            0    7669.1393    17.026474    20.054937    20.772258    7092.9965    8809.4967     7464.101    6733.8202   -812.38232   -904.97041    240.66096   -2566.2747 
13527000    268.37386   -3844.3281   -3384.3445   -3844.3281            0    5822.1167    17.074202    20.111154    20.830486    7152.8122    5605.1664    6815.9375    5045.2462   -40.268786   -1545.4971   -1686.5793   -2777.0021 
13528000    262.49423   -3876.1104   -3426.2042   -3876.1104            0    4294.3771    17.156891    20.208551    20.931367    7257.2376     6019.135    2901.5619    3962.4344    -54.17827   -1268.6519    277.31445   -2971.6901 
13529000    242.86079    -3847.885   -3431.6299    -3847.885            0     8613.616    16.952757    19.968108    20.682323    7001.2659    8812.9337    8807.5079    8220.4065   -583.44429    1023.8136    136.10567   -2552.1256 
13530000     263.8074   -3843.7985   -3391.6416   -3843.7985            0    7797.6572    17.026965    20.055515    20.772857    7093.6098    6074.7477    8636.5502    8681.6737    588.75866   -687.41516    99.958122   -2584.9504 
13531000    261.72719   -3825.5001   -3376.9087   -3825.5001            0    7327.3435    17.012907    20.038957    20.755707    7076.0543    6268.6067    8075.6281    7637.7956   -1088.5578    985.47855   -1104.2623   -2620.7488 
13532000     262.9615   -3866.8749   -3416.1679   -3866.8749            0    6850.3704    17.105637    20.148181    20.868837    7192.3918    6861.9122    9147.5627    4541.6364   -66.926702   -28.842521   -194.16307   -2697.6075 
13533000    265.07787   -3850.3682   -3396.0338   -3850.3682            0     7404.866    16.979239      19.9993    20.714631    7034.1272    8248.0467    7026.4104    6940.1409    228.66153   -1393.1044    512.35924   -2636.4017 
13534000    249.07493    -3885.718   -3458.8121    -3885.718            0    7174.2643    17.016972    20.043745    20.760666    7081.1281    7333.9739    8730.4017    5458.4172   -247.42009   -144.21471   -963.79893   -2717.9187 
13535000    249.41165   -3910.0401    -3482.557   -3910.0401            0    7689.6633    17.004665     20.02925    20.745652    7065.7758    7188.5783    7478.9935    8401.4182    -436.3506   -621.03438   -924.07392   -2690.1596 
13536000    243.96273   -3897.0052   -3478.8614   -3897.0052            0    5146.6195     17.09088    20.130799    20.850834    7173.7932    5101.4803    5271.3926    5066.9855    356.61871    1201.5218   -1074.8403   -2940.4096 
13537000    254.09117   -3863.6503   -3428.1467   -3863.6503            0    7272.9711    17.016813    20.043558    20.760472    7080.9296    8181.8026    8639.8198     4997.291    574.37109    -119.3109   -283.31441   -2677.0809 
13538000     271.5963    -3909.829   -3444.3222    -3909.829            0    7030.8271    17.003927     20.02838    20.744752     7064.856    7008.1468    6789.0397    7295.2948   -1362.1948    369.34948    -563.4147   -2719.9102 
13539000    255.63893   -3856.6552   -3418.4988   -3856.6552            0    7936.7894    17.013013    20.039082    20.755836     7076.187    6930.8597    7963.6942    8915.8144   -123.16218     -273.421   -426.75585   -2599.4307 
13540000    264.48045    -3870.882   -3417.5716    -3870.882            0    5994.5744    17.099732    20.141225    20.861633    7184.9458    5348.9285    6812.0376     5822.757   -716.72763   -876.09865   -862.65801   -2789.4297 
13541000    244.58366   -3829.7547   -3410.5467   -3829.7547            0    6275.1184     17.12373    20.169492     20.89091    7215.2384    5047.8949    6352.3591    7425.1012     467.5497   -1757.7396    540.21311   -2750.2357 
13542000    267.64953    -3884.486   -3425.7439    -3884.486            0    8728.4427    17.046487     20.07851    20.796674    7118.0373    7806.1238    9449.8125    8929.3917     842.2542   -672.05053    169.88751   -2519.6506 
13543000    266.46168   -3880.7401   -3424.0339   -3880.7401            0    6082.7371    17.133449    20.180939    20.902767    7227.5306    7282.9672    7019.1587    3946.0856   -6.2440667    556.40874    1333.6582   -2782.8762 
13544000    274.56643   -3926.5493   -3455.9518   -3926.5493            0    8644.2764    17.141337    20.190231    20.912391    7237.5184    9520.6102    8447.1826    7965.0362    1308.3512    853.03237    1552.8738    -2543.533 
13545000    243.51952   -3922.2632   -3504.8791   -3922.2632            0    6515.8657    17.088636    20.128156    20.848096    7170.9677    6829.1858    6566.6088    6151.8024    77.213855    342.06245   -592.02576    -2823.442 
13546000    266.62549   -3883.5622   -3426.5753   -3883.5622            0     7519.563    17.124003    20.169814    20.891244    7215.5838    6366.8006    8581.5721    7610.3163    1092.3942   -434.68195    481.84976   -2635.2775 
13547000    256.68097   -3907.2158   -3467.2734   -3907.2158            0    5740.2074     17.18574    20.242532    20.966563    7293.9084    6321.7171    3619.7801     7279.125    -415.4316    128.75555    717.05582   -2856.6636 
13548000    260.81431   -3899.2573   -3452.2305   -3899.2573            0    7383.1563    17.092022    20.132144    20.852227    7175.2312    8561.5233    7077.7787     6510.167   -131.87614    324.79324   -442.43491    -2679.632 
13549000    267.07937    -3888.416   -3430.6511    -3888.416            0     7044.402     17.04114    20.072212    20.790151    7111.3411    6004.7725    8795.5005     6332.933    110.17115    430.57466    1285.7776   -2700.0648 
13550000    253.91322   -3877.9222   -3442.7237   -3877.9222            0    7985.4792    17.028529    20.057358    20.774766    7095.5657    7683.4737     7327.468    8945.4957   -907.82556    1136.0127    -197.2519   -2616.3739 
13551000    262.95201   -3868.3029   -3417.6121   -3868.3029            0     5282.914    17.102696    20.144717    20.865249    7188.6828    4958.8982    5191.8068     5698.037    533.21796    2128.6087   -1610.8647   -2863.7537 
13552000    259.39017   -3875.4052   -3430.8193   -3875.4052            0    8196.0547     17.03927     20.07001     20.78787    7109.0008    9266.7984    8675.2144    6646.1512   -1274.5886   -995.91946   -562.60515    -2581.073 
13553000    250.52938   -3892.3566   -3462.9578   -3892.3566            0    7294.4123    17.114865     20.15905    20.880095    7204.0384    6177.8002    7044.9917     8660.445   -725.26104    703.07692    -10.92071   -2696.5812 
13554000    268.54623   -3890.2463   -3429.9672   -3890.2463            0    6497.1672    17.067879    20.103707    20.822773     7144.869    5522.5664    6837.9933    7130.9417   -891.46598   -1518.6455    125.19192   -2752.9586 
13555000    249.08314   -3858.2261   -3431.3062   -3858.2261            0    7246.2831    17.054568    20.088029    20.806534    7128.1657    5779.4879    8264.6826     7694.679   -825.73651   -718.23158   -606.47003   -2678.0044 
13556000    276.08064   -3860.0912   -3386.8984   -3860.0912            0    7579.3491    17.063289      20.0983    20.817173    7139.1058     5448.286    8804.1772    8485.5842   -728.34657     554.9969    1398.6195   -2597.7628 
13557000    258.76385   -3853.3417   -3409.8293   -3853.3417            0    7089.6248    17.156128    20.207652    20.930436    7256.2693    7886.1916    7210.3429      6172.34    326.96286    516.73332   -829.69814    -2659.568 
13558000    260.82234   -3885.2857   -3438.2452   -3885.2857            0    9384.1618    17.083919      20.1226    20.842341    7165.0316    8070.1896    9784.7441    10297.552   -358.60142     54.65384    642.85711   -2457.6506 
13559000    260.71791   -3879.2134   -3432.3518   -3879.2134            0    6610.2583    17.078322    20.116007    20.835513    7157.9912    6433.9975    4864.3255     8532.452    888.35354   -157.59308   -927.76464    -2742.294 
13560000    256.72274   -3911.7784   -3471.7645   -3911.7784            0    5831.2434    17.095501    20.136243    20.856472    7179.6145    5158.6839    5739.5645    6595.4819   -792.07406     37.84075   -586.09571   -2861.1906 
13561000    259.15617   -3894.5237   -3450.3389   -3894.5237            0    7069.2161    17.112827    20.156649    20.877609    7201.4649    6970.5054    5752.0507    8485.0923    430.79177    794.00709   -70.027761   -2707.8875 
13562000    252.39974   -3842.7568   -3410.1523   -3842.7568            0    8103.1568    17.113506     20.15745    20.878438    7202.3227    8112.9114    6951.3723    9245.1865   -99.379929     617.5583   -2434.7876    -2559.009 
13563000    277.51964   -3851.5187   -3375.8595   -3851.5187            0    9457.8956    17.075804    20.113041     20.83244    7154.8254    9879.5967     8541.464    9952.6261    317.21914   -27.753483    2144.7168   -2388.9679 
13564000    250.92317   -3861.3337     -3431.26   -3861.3337            0    5125.7481    17.145444    20.195069    20.917402    7242.7222    5372.9258    2254.2353    7750.0831   -749.14863   -430.02051   -578.22944   -2889.8392 
13565000    252.19372   -3906.3331   -3474.0817   -3906.3331            0    8038.5002    17.086441    20.125571    20.845419    7168.2055    9307.7449    7428.7874    7378.9683    391.52542   -9.4739355   -987.99685   -2633.7295 
13566000    263.30429   -3860.8726   -3409.5781   -3860.8726            0    6631.2952    17.165102    20.218223    20.941385    7267.6632    6489.4619    7666.8461    5737.5774    1174.9579    292.16032   -746.39335   -2706.7177 
13567000     249.5483   -3917.8313   -3490.1141   -3917.8313            0    7640.8443    17.084188    20.122917     20.84267      7165.37    7752.4394    7424.4477    7745.6459   -819.91124   -701.87709   -722.48951   -2691.6491 
13568000      256.258    -3891.813   -3452.5956    -3891.813            0    6053.1116    17.103774    20.145986    20.866564    7190.0419    7400.9207    4229.7495    6528.6647   -32.884656    491.89906   -633.62963     -2817.87 
13569000    252.19682   -3925.6539   -3493.3972   -3925.6539            0     7819.918    17.044033    20.075619     20.79368    7114.9633    6781.1289     7424.351     9254.274    182.97437   -357.69345   -327.46064   -2681.9678 
13570000    251.08958   -3857.3435   -3426.9846   -3857.3435            0    6473.0231    17.093088      20.1334    20.853527    7176.5741    7247.9687    6090.3346     6080.766    117.54881   -503.23962   -278.77691   -2749.4987 
13571000    265.90659   -3900.5298    -3444.775   -3900.5298            0    5731.9278    17.131327    20.178441    20.900179    7224.8464    4357.1178    6796.4655    6042.2001   -978.01143   -1386.6902   -1012.4486   -2840.8191 
13572000     270.1562   -3835.3418   -3372.3033   -3835.3418            0    6530.3336    17.220305    20.283245    21.008732    7338.0074    6125.8865    6536.9645    6928.1497    43.053966    328.89271    3039.9361   -2673.4445 
13573000    248.59798   -3900.2025    -3474.114   -3900.2025            0    8037.5075    17.007928    20.033093    20.749633    7069.8441    6704.3521    7861.6421    9546.5283   -813.53704    584.56559    289.96806   -2645.3954 
13574000    257.71865   -3887.7377   -3446.0168   -3887.7377            0    6579.0317     17.04248     20.07379    20.791786    7113.0189    5975.0189    6246.3145    7515.7616      67.7629     -2046.11    880.84953   -2763.5338 
13575000     262.6819   -3892.5846   -3442.3568   -3892.5846            0    6903.7996    17.064451     20.09967    20.818591     7140.565    8776.9774    5194.0293     6740.392   -694.25535   -937.05486    546.32087   -2723.4102 
13576000     251.4549     -3879.03   -3448.0449     -3879.03            0    7312.2545    17.043025    20.074433    20.792451     7113.702    8988.4213    5584.6709    7363.6711    782.15192    114.47292   -64.839209   -2689.4274 
13577000    246.95983   -3871.7512   -3448.4705   -3871.7512            0    7518.0427    17.023573     20.05152    20.768719    7089.3715    7023.8686    8470.1358    7060.1236   -233.90968   -319.92253    49.990406    -2671.171 
13578000    270.26746   -3846.6054   -3383.3762   -3846.6054            0    8075.6176    17.001275    20.025256    20.741516    7061.5504    8558.1516    8408.8824    7259.8189    1553.1347   -1035.9965    630.58391   -2551.7049 
13579000    266.39324   -3889.4519    -3432.863   -3889.4519            0    8722.9919    17.002424     20.02661    20.742918    7062.9828    10930.146    6612.5392    8626.2905    347.97765    795.73148    569.32169   -2534.3393 
13580000    271.20276   -3846.2061   -3381.3738   -3846.2061            0     8914.788     17.00826    20.033483    20.750037    7070.2572    8150.0276    6716.7586    11877.578   -440.18941   -1447.3518    1547.6011   -2462.1482 
13581000    259.33021   -3841.2712   -3396.7881   -3841.2712            0    5015.6722    17.090185    20.129981    20.849986    7172.9185     4404.992    6432.2847    4209.7397    387.90443    271.93674    863.97945   -2872.1003 
13582000    261.79123   -3883.8422    -3435.141   -3883.8422            0    5537.1475     17.06282    20.097748    20.816601    7138.5173    5993.5509    5878.0999    4739.7918    506.36344   -17.240383   -259.17884   -2858.6799 
13583000    251.49281   -3857.7319   -3426.6818   -3857.7319            0     7345.844    17.006148    20.030996    20.747461    7067.6241    5975.5872    7950.5913    8111.3537   -144.94612    107.86402   -637.75951   -2669.5159 
13584000    287.74253   -3868.4114   -3375.2305   -3868.4114            0    6203.0593    17.087983    20.127387    20.847299    7170.1461     5079.523     8409.083    5120.5719   -544.66031   -1426.3291    284.34841   -2726.5814 
13585000    262.51341   -3879.8329   -3429.8939   -3879.8329            0    7531.2661    17.138104    20.186423    20.908447    7233.4237    7102.7651    7858.2384    7632.7949    -708.3787    1530.2718     646.3038   -2635.4051 
13586000    268.21721   -3866.1198   -3406.4046   -3866.1198            0    8162.9033     17.06066    20.095204    20.813965    7135.8064    10534.145    7377.7759    6576.7892    1372.3327   -869.16212   -236.17818   -2556.9042 
13587000     242.2048   -3850.3607     -3435.23   -3850.3607            0     7517.385    17.051133    20.083982    20.802342     7123.859    7182.5161    8182.3323    7187.3064    1112.2315    1750.0623    1319.4453   -2654.2175 
13588000    264.03282   -3852.1812    -3399.638   -3852.1812            0    8721.4968    17.042564     20.07389    20.791889    7113.1246    8357.8579    9905.1224    7901.5099   -945.33303    464.28686    -2252.254   -2494.8907 
13589000     247.9812   -3893.7414   -3468.7101   -3893.7414            0    8074.0567    17.066559    20.102152    20.821162     7143.211    9537.3823    8321.5906    6363.1973    269.58357    -608.2566    114.06004   -2627.5839 
13590000    252.59932   -3871.3988   -3438.4522   -3871.3988            0    6983.3745    17.116279    20.160716    20.881821    7205.8245    7365.3143    6895.2689    6689.5404   -451.92675    163.48118   -1115.5055   -2704.5724 
13591000    252.46804   -3889.7606    -3457.039   -3889.7606            0    5362.8556    17.118809    20.163696    20.884908    7209.0205    4812.4824    6006.2046    5269.8798    1180.8525   -1952.0413   -214.20707   -2893.2089 
13592000    264.16529   -3853.0089   -3400.2387   -3853.0089            0    9018.4861    17.051522    20.084441    20.802818    7124.3471    8676.1951    8962.6816    9416.5818   -100.18529   -1485.5004    -679.8549   -2463.2063 
13593000    257.47906   -3875.9538   -3434.6435   -3875.9538            0    8468.8608    17.011462    20.037255    20.753943    7074.2511    7748.3933    9410.8648    8247.3245    12.039138   -858.61048   -380.26926   -2560.9052 
13594000    251.31626   -3864.4025    -3433.655   -3864.4025            0    6050.2723    17.068002    20.103852    20.822923    7145.0232    6210.2633     5798.704    6141.8495    659.13015    280.94406   -52.341635   -2803.1995 
13595000    257.19727    -3905.134   -3464.3066    -3905.134            0     7310.261    17.073356    20.110158    20.829454    7151.7493    9484.5168    4684.8621    7761.4043     -86.9187   -917.71335   -1456.4533   -2701.8396 
13596000    261.69992   -3853.8599   -3405.3152   -3853.8599            0    7165.0212    17.079399    20.117276    20.836827    7159.3458    6470.2572    7652.1034    7372.7029   -882.64307    36.991829    1210.0513   -2657.2031 
13597000    264.03764     -3869.68   -3417.1286     -3869.68            0    8315.5345    17.091484    20.131511    20.851571    7174.5541    9317.6897    7612.5702    8016.3436   -1403.7155    618.39772     1119.738    -2547.045 
13598000    258.03335   -3911.2914   -3469.0311   -3911.2914            0    6965.0575     17.14613    20.195876    20.918238     7243.591    6326.5463    8375.0145    6193.6118   -3.0298654    515.89567    1099.9353     -2733.24 
13599000    267.55655   -3881.5264   -3422.9437   -3881.5264            0    5760.1106    17.151466    20.202162    20.924749    7250.3564    6468.7924    5329.4236    5482.1157   -281.71636   -717.81922   -1705.3636   -2813.8753 
13600000    248.05688   -3852.0507   -3426.8897   -3852.0507            0    10217.707     16.98581     20.00704    20.722648     7042.297     8948.571    9975.0344    11729.514   -476.88126   -1959.4254   -1374.2713   -2377.4834 
13601000    260.99357   -3909.2746   -3461.9406   -3909.2746            0    7780.4012    17.030548    20.059737    20.777229    7098.0899    8993.8061    7344.6119    7002.7854   -335.02545   -279.81492   -518.51234   -2656.5262 
13602000    253.55451   -3835.6812   -3401.0975   -3835.6812            0    6554.2982    17.067403    20.103146    20.822192     7144.271    6243.3299    7063.6848    6355.8798    298.68806    1347.5622   -1806.0398   -2718.1929 
13603000    256.95839   -3854.9036   -3414.4857   -3854.9036            0    7736.7781    17.133149    20.180587    20.902402    7227.1521    7242.6889    7962.6387    8005.0065   -1370.8514    -380.0508   -51.313069   -2599.0246 
13604000    252.83264   -3878.5608   -3445.2144   -3878.5608            0     7926.966    17.076975    20.114421    20.833869    7156.2978    7195.3687     7815.371    8770.1582    2709.2663   -19.359448    552.33026   -2617.8986 
13605000    266.93827   -3869.0353   -3411.5122   -3869.0353            0    8207.4279    17.121938    20.167382    20.888725     7212.974    7137.2591    8261.9075    9223.1171    971.67121    2115.9523    664.99826   -2548.1415 
13606000    246.74167   -3895.6742   -3472.7674   -3895.6742            0    5506.4222    17.120463    20.165644    20.886925    7211.1095    3599.2944    6528.5632    6391.4089    680.71862   -293.97099   -848.26727   -2893.6755 
13607000    251.44205   -3887.1425   -3456.1794   -3887.1425            0    7790.3457    17.049938    20.082574    20.800884    7122.3608    6855.3685     8455.207    8060.4615    437.11437    356.69411   -429.57181   -2646.9781 
13608000    257.62608   -3880.9473    -3439.385   -3880.9473            0    8367.8409    17.131009    20.178065    20.899791    7224.4434    10230.973    6994.5058    7878.0437    238.92587   -2148.1481   -965.40128   -2557.7401 
13609000    255.22435   -3866.3138    -3428.868   -3866.3138            0     5524.402    17.131949    20.179173    20.900938    7225.6334    6896.8792    4519.9478    5156.3791    -352.9329   -829.56173   -583.41322   -2846.7151 
13610000    252.90402   -3866.6938    -3433.225   -3866.6938            0    6549.5117    17.139749     20.18836    20.910454    7235.5067    7098.9262    5919.2484    6630.3604    761.59546   -679.66016   -597.04536   -2742.1045 
13611000    263.34901   -3868.0381   -3416.6669   -3868.0381            0    5864.1554    17.069282    20.105359    20.824484    7146.6307    7094.8833    5106.4006    5391.1824   -781.84776    -1309.225   -111.74798   -2805.4678 
13612000    268.15099   -3896.0351   -3436.4334   -3896.0351            0    8394.3391    17.047419    20.079607    20.797811    7119.2046     8354.002    8285.9295    8543.0858    789.78577    1450.7206   -1016.7624   -2564.8803 
13613000    256.40442   -3895.5973   -3456.1289   -3895.5973            0    7116.7258    17.033141     20.06279    20.780392     7101.332    7101.3271    7603.0658    6645.7845    797.54182    254.62134    151.80459   -2719.0806 
13614000    271.23548   -3858.3051   -3393.4168   -3858.3051            0    8246.1677    17.028328    20.057121     20.77452    7095.3134    8836.5528    8498.9845    7402.9657    218.19378    1796.6818    1645.9356   -2540.1209 
13615000    273.37059   -3872.1849    -3403.637   -3872.1849            0    6385.4469    17.055386    20.088992    20.807531    7129.1911    5879.7966    8538.2745    4738.2696    176.42019    689.47637    1270.1145   -2739.7297 
13616000    249.19558   -3856.3666   -3429.2539   -3856.3666            0    7788.9185     17.06421    20.099385    20.818296    7140.2621    6690.6641    9275.0141    7401.0773    55.710691   -1356.7698   -578.73624   -2618.1673 
13617000    252.29946   -3899.8543   -3467.4217   -3899.8543            0    6665.8488    17.064639    20.099891     20.81882     7140.801    5743.2243    9822.0598    4432.2621    419.37541    35.013902    157.18331   -2773.2318 
13618000    261.05646   -3906.8046   -3459.3628   -3906.8046            0    8672.7015    16.977858    19.997674    20.712947    7032.4117    6686.3641    9905.7949    9425.9456    2376.6138    122.54024    1578.2015   -2569.8861 
13619000    252.79875   -3867.3368   -3434.0484   -3867.3368            0    6229.9916    17.120324    20.165481    20.886756    7210.9344    2821.7579    8902.9316    6965.2852    328.20278    2.3993213   -562.39072    -2778.877 
13620000    252.13487   -3906.0047   -3473.8542   -3906.0047            0    7041.1036    17.024076    20.052112    20.769332    7089.9995    6623.5884    7849.4561    6650.2664    242.82986   -683.92433     907.0939   -2745.8015 
13621000    249.82618   -3894.1606   -3465.9671   -3894.1606            0    7996.5835    17.002073    20.026197     20.74249    7062.5452    7423.0279    7596.5451    8970.1774   -1649.3652   -564.53009    414.07248   -2642.3191 
13622000     261.7952   -3839.6665   -3390.9584   -3839.6665            0    6168.3475    17.020648    20.048075    20.765151    7085.7183    6079.4767    6226.8021    6198.7639    236.96723   -1448.7931   -1043.1775   -2753.5342 
13623000    246.91256   -3904.0308   -3480.8312   -3904.0308            0     6739.011    17.053566    20.086848    20.805311     7126.909    7097.9357    7120.1245    5998.9729    1407.9582   -1426.5713   -543.97591   -2780.3874 
13624000    249.79875   -3850.0456   -3421.8991   -3850.0456            0    9542.4294    17.033304    20.062982    20.780591    7101.5354    8687.5838    8580.2295    11359.475    780.03442   -561.95006    689.97631   -2433.6029 
13625000    269.19175   -3855.7854   -3394.3999   -3855.7854            0     7455.291    17.054916    20.088439    20.806958    7128.6019    6931.6892    7450.5281    7983.6556    30.954993     387.6421    677.52239   -2619.3229 
13626000    255.40234   -3880.7243   -3442.9734   -3880.7243            0    7408.3309    17.115651    20.159976    20.881054    7205.0307    9378.3366    5382.0767    7464.5795    475.61318    760.18214    1127.7221   -2664.5209 
13627000    275.70709   -3895.8506    -3423.298   -3895.8506            0    7314.4004    16.987136    20.008602    20.724266    7043.9467    6849.6326    6651.7322    8441.8363   -352.22485   -824.00808    1396.9042   -2671.8989 
13628000     260.8173   -3889.8092   -3442.7773   -3889.8092            0    9713.0419    17.028931    20.057831    20.775256    7096.0674    10237.479    9491.6447    9410.0019     457.5476    281.17403    655.98142   -2437.5856 
13629000     263.0746   -3860.6106   -3409.7097   -3860.6106            0    7198.3889    17.058635    20.092818    20.811494    7133.2655    7587.8115    7066.0684    6941.2867   -1166.8734   -546.57045   -741.15166   -2660.8515 
13630000    245.80065   -3885.5356   -3464.2416   -3885.5356            0    9836.3562    17.036067    20.066237    20.783962    7104.9925    11503.987    7624.1516     10380.93   -389.98162    -1278.187    197.60493    -2445.008 
13631000    267.19696   -3941.7782   -3483.8117   -3941.7782            0    5261.1416    17.065099    20.100432    20.819381     7141.378    5730.6541    5403.8402    4648.9306    186.69842    312.47679    -36.98557   -2935.8655 
13632000    259.74654    -3863.369   -3418.1723    -3863.369            0    7048.3722    17.068429    20.104355    20.823443    7145.5593    6383.1236    7602.6635    7159.3294    208.43412   -692.35342   -747.71949   -2683.6568 
13633000    247.30437   -3886.5762    -3462.705   -3886.5762            0    7471.1419     17.02045    20.047842    20.764909    7085.4706    7735.2274    6844.2086    7833.9896    12.881903   -69.833308    184.67276   -2690.6796 
13634000    258.55217   -3913.9087   -3470.7591   -3913.9087            0    6568.8949    17.032376    20.061889    20.779459    7100.3754    6447.9784    6019.0759    7239.6304   -250.90528   -382.55124   -186.39584    -2790.539 
13635000     256.3956   -3925.6073    -3486.154   -3925.6073            0     8597.054    16.976731    19.996347    20.711572    7031.0113    7576.3107    7797.1416     10417.71    -1204.253   -1558.3629    296.02467   -2604.6113 
13636000    257.04554   -3896.9047   -3456.3375   -3896.9047            0    8409.5219    17.070715    20.107048    20.826233    7148.4311     8488.936    7237.2618     9502.368   -232.39114   -367.72787   -492.41071   -2579.6235 
13637000    257.81046   -3913.6102   -3471.7319   -3913.6102            0    5722.0582    17.074321    20.111294    20.830631    7152.9615    5381.6387    7716.4792    4068.0567   -245.75772   -821.72198    721.14892   -2874.8147 
13638000    259.31207   -3884.1858   -3439.7338   -3884.1858            0    7654.4034    17.001836    20.025917      20.7422    7062.2493    7563.4377    8950.5227    6449.2498    1250.4286    -1224.609    -283.5442   -2651.3634 
13639000    242.64314   -3920.8964   -3505.0143   -3920.8964            0    5258.8476    17.092387    20.132574    20.852672    7175.6913    4882.9576    4838.9316    6054.6538    817.08151   -203.87911    1996.2339   -2954.6754 
13640000     254.6872   -3907.4194   -3470.8943   -3907.4194            0    5444.8773    17.094831    20.135453    20.855654    7178.7703     6425.355    4445.5086    5463.7683    575.76136    -1675.228    75.806478   -2900.8429 
13641000     263.0685   -3910.2614    -3459.371   -3910.2614            0    8083.9853    16.996953    20.020165    20.736242    7056.1658    7423.3809    9021.4395    7807.1354   -176.85019    649.32872    1325.9049   -2627.4728 
13642000    260.89731   -3914.3248   -3467.1557   -3914.3248            0    7944.5237    17.074301    20.111271    20.830607    7152.9364    7625.1763    9182.1422    7026.2526    1099.2629    616.45702    902.70063    -2638.397 
13643000     254.6166   -3886.8898   -3450.4857   -3886.8898            0    7603.4206     17.06099    20.095592    20.814367    7136.2202    10310.235     4938.612    7561.4152   -738.39695   -302.45043   -284.83706   -2659.1638 
13644000    253.51599     -3861.28   -3426.7623     -3861.28            0    7775.6464    17.051865    20.084845    20.803235    7124.7764    7288.6083    7438.2345    8600.0965   -918.27644    273.89211    565.61476   -2618.8139 
13645000    266.72285   -3855.7148    -3398.561   -3855.7148            0    7238.6032    17.107257    20.150089    20.870813     7194.435    6762.6457    7352.3724    7600.7915   -132.19922   -585.91665   -28.686038   -2639.0617 
13646000    257.11894     -3892.55   -3451.8569     -3892.55            0    7810.5752    17.048251    20.080588    20.798827    7120.2479    7383.8247    9612.1976    6435.7032   -1994.9024   -2492.9142   -1796.0272    -2640.795 
13647000    238.47797    -3881.388   -3472.6449    -3881.388            0    7648.8619    17.054609    20.088077    20.806583     7128.217    9089.3801    7894.4972    5962.7085   -458.22179    305.89862   -1086.8031   -2677.4865 
13648000    256.04574   -3895.5542   -3456.7006   -3895.5542            0    7074.4911    17.023399    20.051316    20.768507    7089.1544    5763.9728      8435.51    7023.9906   -478.98594   -357.83215   -1503.5536   -2725.2828 
13649000    264.93397   -3848.1101   -3394.0223   -3848.1101            0    7500.2539    17.040434    20.071381     20.78929    7110.4578     6271.812    8881.3584    7347.5913   -686.52294     1192.263    711.13627   -2616.2555 
13650000    261.85773   -3887.0168   -3438.2016   -3887.0168            0    7689.9768    17.053538    20.086815    20.805276    7126.8734    7719.1512    8456.4713     6894.308    1866.2445   -306.21843   -983.48885   -2638.9197 
13651000          265   -3866.7563   -3412.5554   -3866.7563            0    6473.0626    17.110135    20.153479    20.874325    7198.0676    8990.7896    4068.9914    6359.4067   -490.79553    733.58151   -218.03036   -2733.0363 
13652000    242.67198     -3865.74   -3449.8085     -3865.74            0    6298.6735    17.115138    20.159372    20.880428    7204.3828    7482.4705    6919.8382    4493.7118   -841.34307    285.91697    766.32424   -2788.0161 
13653000    258.19874   -3847.3723   -3404.8285   -3847.3723            0    5660.0368    17.161949    20.214509    20.937538    7263.6588    5122.8286    6949.1995    4908.0822    909.00058    219.99395    1024.5475   -2805.2437 
13654000    257.41773   -3877.3843   -3436.1791   -3877.3843            0    8476.9227    17.066952    20.102615    20.821641    7143.7042    7432.5252    9851.2847    8146.9583   -464.24596   -1120.5035   -1343.1972   -2553.0228 
13655000     265.0688   -3884.8454   -3430.5265   -3884.8454            0    6688.8076    17.077088    20.114554    20.834007    7156.4397    5784.0942    8450.6128    5831.7158    358.77425    -429.9715    133.84866   -2732.4201 
13656000     244.7704   -3882.2178   -3462.6897   -3882.2178            0    5963.7277    17.113232    20.157126    20.878103     7201.976    6346.5881     5871.172     5673.423    688.15666    -839.9569   -735.46774    -2836.299 
13657000    245.63259   -3849.5374   -3428.5316   -3849.5374            0    6092.5264    17.057353    20.091308     20.80993    7131.6574    6185.4759    6616.8854     5475.218    1588.7462   -601.91539   -2295.0928   -2794.8607 
13658000    257.66217   -3866.3389   -3424.7148   -3866.3389            0    10192.005    16.999974    20.023723    20.739928     7059.929     9420.047    10668.734    10487.234    527.40812   -387.04689   -694.11662   -2375.3274 
13659000     252.4828   -3880.8203   -3448.0734   -3880.8203            0    6544.7986    17.143951     20.19331     20.91558    7240.8298    8204.7958    6069.5432    5360.0569     553.0638    552.62013   -1060.2781   -2756.9422 
13660000    262.73153   -3849.1183   -3398.8055   -3849.1183            0     6242.667    17.151826    20.202585    20.925187     7250.812    6536.7033    7922.2216    4269.0761   -976.84269   -661.60362   -925.06463   -2738.6706 
13661000    256.42421   -3901.1045   -3461.6022   -3901.1045            0    8759.3356    17.001986    20.026093    20.742383    7062.4359    9753.9118    9111.1481    7412.9468   -272.24943      743.495    344.64762   -2559.4048 
13662000    249.13802   -3891.1623   -3464.1482   -3891.1623            0    8442.2844    17.028763    20.057634    20.775051    7095.8578    9072.5676    8333.1219    7921.1637   -935.37466    -148.8741   -115.58396   -2590.4916 
13663000    261.66374    -3888.313   -3439.8303    -3888.313            0     7241.205    17.035257    20.065283    20.782974    7103.9789    6485.9789    8019.7867    7217.8493    1052.2204   -261.73639    58.424956   -2689.6107 
13664000    250.50061   -3868.7089   -3439.3594   -3868.7089            0    7845.4039    17.101779    20.143637    20.864131     7187.527    8764.8891    5510.2779    9261.0446   -68.546895   -1000.5605   -213.46402   -2616.9829 
13665000    254.42135   -3884.0269   -3447.9574   -3884.0269            0    7210.2591    17.107754    20.150675    20.871421    7195.0632    5627.0424     6306.762    9696.9728   -1172.4977   -926.71851    620.03908    -2691.366 
13666000    254.09487   -3839.9746   -3404.4647   -3839.9746            0    8478.4717    17.091727    20.131796    20.851867    7174.8597    8181.4415    6979.3552    10274.618   -305.59322   -949.29818    1631.6034   -2517.2946 
13667000    247.77213   -3889.3795   -3464.7066   -3889.3795            0     7855.798    16.991338    20.013552    20.729393    7049.1758    7888.7533     8395.907    7282.7337   -183.97568   -54.861943     794.8511   -2657.0913 
13668000    271.48137   -3878.6587   -3413.3489   -3878.6587            0    7720.2611    17.102748    20.144778    20.865312    7188.7479    7128.7281    7721.2367    8310.8184    586.29792   -1819.7062    1032.1539   -2603.9527 
13669000    265.47344   -3889.4373   -3434.4249   -3889.4373            0     6695.167    17.132538    20.179867    20.901657     7226.379    6526.5561    6299.9208    7259.0243   -751.03701   -1143.4063    1697.6971   -2728.8257 
13670000    265.64982   -3906.8289   -3451.5142   -3906.8289            0    5574.6074    17.203257    20.263165    20.987934    7316.2351     7162.983    4547.5192    5013.3202    -1398.926    139.04314    747.17261   -2856.7048 
13671000    251.47586   -3871.9794   -3440.9584   -3871.9794            0    7189.1023    17.119433     20.16443    20.885668    7209.8077    6323.2365    7301.3885     7942.682    231.43913    905.35175    1276.4005   -2685.0412 
13672000    251.72132   -3871.1989   -3439.7572   -3871.1989            0     7213.399    17.111723     20.15535    20.876262    7200.0717    7307.1266    5767.7462    8565.3242     556.7743   -1216.3708   -253.80895   -2682.3095 
13673000    261.53725   -3887.3531   -3439.0872   -3887.3531            0     7981.419    17.059272    20.093569    20.812272    7134.0654    6740.0323     8961.505    8242.7197    910.62872   -636.95317   -501.03858   -2608.6762 
13674000    256.35561   -3893.5509   -3454.1662   -3893.5509            0    8108.0108    17.039004    20.069696    20.787545    7108.6675    7694.3647    8760.0945    7869.5734    135.41179    455.51126    922.58885   -2613.5874 
13675000    268.40076   -3881.7928   -3421.7631   -3881.7928            0    7376.6976    17.028312    20.057102    20.774501     7095.294    7494.8877    6349.3104    8285.8948   -547.98005     1738.682    797.43415   -2658.4403 
13676000    244.72485   -3860.4396   -3440.9896   -3860.4396            0    5617.0454    17.064661    20.099916    20.818846    7140.8277     6236.762    6879.2416    3735.1326    354.81267   -96.827161    235.42569   -2856.0213 
13677000    261.82455   -3855.4003   -3406.6419   -3855.4003            0     8240.978    17.036123    20.066303    20.784031    7105.0629     8813.983    9439.1332     6469.818    159.67327    131.54617   -2009.1106   -2552.7113 
13678000     269.9718   -3887.0162   -3424.2937   -3887.0162            0    8034.8541    17.061427    20.096107    20.814901    7136.7685    7508.8332    8360.1402     8235.589    1096.0666    363.99646    596.60659   -2588.0065 
13679000     261.4349    -3874.923   -3426.8325    -3874.923            0    7953.4352    17.056842    20.090707    20.809307    7131.0168    8100.5523    7688.2238    8071.5294   -646.71923    1545.7796    31.069874   -2599.6866 
13680000    252.17305   -3851.9469   -3419.7309   -3851.9469            0    7278.6007    17.051796    20.084763    20.803151    7124.6896    8035.0807    7460.3539    6340.3674   -626.38501    515.37581    2102.3266   -2663.4386 
13681000    257.43578   -3813.4244   -3372.1883   -3813.4244            0    7564.7267     17.00522    20.029903    20.746329    7066.4674    7130.5652    7311.1701    8252.4448   -627.46348   -540.90345    -495.9723   -2592.5889 
13682000    267.94752   -3817.0204   -3357.7675   -3817.0204            0    7172.8714     17.05487    20.088385    20.806902    7128.5445    8615.2586    7543.9841    5359.3715   -1041.1417    1387.7807   -132.80249   -2612.0578 
13683000     260.8507   -3865.0787   -3417.9895   -3865.0787            0    5403.9751    17.069916    20.106107    20.825258    7147.4278    6184.8842    5455.0528    4571.9883    678.64375    1069.5937   -171.42375   -2854.6905 
13684000    266.14909   -3898.6692   -3442.4988   -3898.6692            0    7452.6322     17.09535    20.136064    20.856287    7179.4231    6648.5064    8519.0149    7190.3752    548.63007    1330.0479   -117.55923   -2662.1745 
13685000     264.5856    -3864.231   -3410.7403    -3864.231            0    8040.0093    17.107381    20.150235    20.870964    7194.5914    7883.9501    8057.7473    8178.3305   -1793.3065    897.34123   -1159.8868   -2567.1364 
13686000    257.26256   -3847.7683   -3406.8291   -3847.7683            0    7230.1506    17.124839    20.170798    20.892263    7216.6406    9944.2255    5858.9276    5887.2988    -313.4382    1392.4917    -875.3513   -2645.8752 
13687000    255.44297   -3876.8019   -3438.9814   -3876.8019            0    6948.8211    17.082956    20.121466    20.841167    7163.8201    6032.7637    6370.1954    8443.5042    1276.7716   -757.23816   -701.72953   -2712.9896 
13688000    273.19889   -3853.7863   -3385.5327   -3853.7863            0    7411.7686    16.970535    19.989048    20.704013    7023.3154    6367.4342    8284.7248    7583.1466    484.73031   -658.21361    500.88685   -2626.3612 
13689000    243.65964   -3902.6598   -3485.0355   -3902.6598            0    4687.0554    17.135886     20.18381    20.905741    7230.6157     5462.291    5731.8603    2867.0151   -472.29224    643.37315    -772.8384   -2990.7803 
13690000    282.29485   -3874.2553   -3390.4116   -3874.2553            0    7851.3919     17.01192    20.037795    20.754503     7074.823     9334.454    6489.9319    7729.7899    894.49727   -1504.9416    542.49083   -2580.3125 
13691000    261.12121   -3879.9091   -3432.3563   -3879.9091            0     5539.382    17.089045    20.128638    20.848595    7171.4832    4028.7736    6079.6462    6509.7262    400.74508    -842.1703    846.41152   -2852.9994 
13692000    264.66028    -3861.896   -3408.2773    -3861.896            0    6237.7625     17.07041    20.106688    20.825861     7148.048    6248.6039    7193.0833    5271.6003   -47.723432    523.66172   -839.05991   -2758.0096 
13693000    252.25504   -3838.6094   -3406.2529   -3838.6094            0    5751.3635    17.109012    20.152156    20.872955    7196.6499    4392.7214    5471.6718    7389.6973    63.951258   -17.584611   -1514.2408   -2802.6141 
13694000    271.88941   -3868.8323   -3402.8232   -3868.8323            0    6871.3736    17.069686    20.105835    20.824977    7147.1378    6495.3122    6267.4305    7851.3781    447.70507   -412.24686    562.91073   -2686.5946 
13695000    261.26721   -3876.0118   -3428.2088   -3876.0118            0    6415.0421    17.060038    20.094472    20.813207    7135.0266    7410.2656    5088.2621    6746.5986    123.43247    1839.6848   -725.64078   -2760.6785 
13696000    268.82532   -3882.5142   -3421.7568   -3882.5142            0    5925.2757      17.0841    20.122813    20.842562    7165.2589    7076.5793    5625.8026    5073.4452   -539.52979   -109.44026   -45.869037   -2802.5776 
13697000    256.95601    -3862.033   -3421.6192    -3862.033            0     6677.999    17.076356    20.113692    20.833114    7155.5198    6746.1148     5998.287    7289.5953    2086.5667   -266.49434    2262.5596   -2724.7305 
13698000    266.05404   -3868.4421   -3412.4346   -3868.4421            0    8701.2213    17.052978    20.086156    20.804594    7126.1721    8254.5557    8433.8321    9415.2762   -567.75158   -466.28026   -938.27413   -2508.1348 
13699000    268.46995   -3844.4185   -3384.2702   -3844.4185            0    7503.9484    17.072018    20.108582    20.827822    7150.0678    7919.7827    7714.8732    6877.1894    1452.6651   -1118.1343   -631.76223   -2601.7855 
13700000    257.72755   -3867.3946   -3425.6584   -3867.3946            0    6768.9203    17.027285    20.055893    20.773248    7094.0107    6190.0178    6317.0953    7799.6478    74.022016   -2087.0408    -1764.197   -2725.3535 
13701000    253.83532   -3866.0578   -3430.9927   -3866.0578            0    6838.8613    17.092939    20.133225    20.853346     7176.387    6039.0676    7843.5621    6633.9541    229.46045   -573.14014    873.37141   -2715.2358 
13702000    256.24493   -3841.3391   -3402.1441   -3841.3391            0    8903.4963    17.092345    20.132524    20.852621    7175.6381    9868.7397    10105.726    6736.0229    1193.0265    2165.4342    762.48723   -2470.3993 
13703000    254.06753   -3893.9112   -3458.4482   -3893.9112            0    9131.8714    17.064666    20.099922    20.818852    7140.8339    13182.329    8617.6435    5595.6418    1353.9118    497.04495   -184.82183   -2507.4392 
13704000    251.78776   -3871.8149   -3440.2593   -3871.8149            0    8594.7061    17.089091    20.128692    20.848651    7171.5406    9095.4854    9558.8166    7129.8162    359.51771   -226.71648    275.95037   -2541.3427 
13705000    259.33305   -3898.6278   -3454.1398   -3898.6278            0    6762.6069    17.071827    20.108357    20.827589    7149.8282     7773.449    5841.0077    6673.3639   -181.38054   -472.55368    1542.8238   -2748.9831 
13706000    254.69296   -3869.9709   -3433.4359   -3869.9709            0    6063.9846    17.067352    20.103086    20.822129    7144.2066    5136.2061    6576.0769    6479.6708     952.1917   -1100.0845    721.36278   -2801.6237 
13707000    247.45333    -3864.676   -3440.5495    -3864.676            0    6587.8454    17.165914    20.219179    20.942375    7268.6937    6410.8467    7283.7084    6068.9812    24.140045    1491.4907   -1772.0212   -2742.1954 
13708000    257.28979   -3850.3249    -3409.339   -3850.3249            0    6965.0994    17.129077    20.175791    20.897435    7222.0004    8030.8254    9105.7211    3758.7517   -1002.1726   -434.59674    641.46342   -2675.7366 
13709000    256.40786   -3858.7856   -3419.3113   -3858.7856            0    6781.3206    17.079231    20.117079    20.836622    7159.1351    6538.2104    7588.3297    6217.4217    138.21834    199.32856    1986.4476   -2711.2828 
13710000    271.83103   -3867.4971    -3401.588   -3867.4971            0    6562.7332    17.086448    20.125579    20.845427    7168.2145    7786.7704    6883.0734    5018.3557   -163.32049    817.23631    448.76438   -2715.5129 
13711000    268.82741   -3895.5297   -3434.7688   -3895.5297            0     8071.549    17.030346    20.059498    20.776982    7097.8367    9005.3642    8476.2327    6733.0502    1292.7557   -618.29094    151.29197    -2599.245 
13712000    269.79417   -3884.8081   -3422.3901   -3884.8081            0    6516.2647    17.036332    20.066548    20.784285    7105.3233    5279.7564     7071.999    7197.0387   -932.41773    1000.2291     72.64749   -2747.1497 
13713000    266.64336   -3870.2442   -3413.2266   -3870.2442            0    7846.0252    17.074595    20.111618    20.830966    7153.3067    6775.9586    8494.4354    8267.6817    774.55908   -634.55901   -575.75813   -2594.7007 
13714000    255.36971    -3883.341    -3445.646    -3883.341            0    5607.9103    17.157643    20.209437    20.932284    7258.1922    5186.2928    6137.3066    5500.1314   -731.13222   -748.30421    647.90791   -2852.0303 
13715000    241.16872   -3900.3889    -3487.034   -3900.3889            0    7036.6843    17.067485    20.103242    20.822291    7144.3734    6734.1054    6282.6745     8093.273     2099.692   -1513.2056   -119.96879   -2753.8582 
13716000    243.55561   -3870.1096   -3452.6636   -3870.1096            0    6065.1029    17.107261    20.150094    20.870819    7194.4407    7047.6953    5251.3178    5896.2958   -1744.4134   -891.03369    700.83105   -2816.2916 
13717000    246.69355   -3861.0736   -3438.2493   -3861.0736            0    8550.4819    16.994906    20.017754    20.733745    7053.6168    10151.044    6183.7907    9316.6112   -777.51216    101.55167    1421.5788   -2558.6632 
13718000    246.06599   -3826.7682   -3405.0196   -3826.7682            0    8272.6876    17.051844     20.08482     20.80321    7124.7504    8208.7967    8891.5035    7717.7627   -454.34289    469.53235      79.1119   -2545.4279 
13719000    270.51096   -3862.8266     -3399.18   -3862.8266            0    7462.1807    17.087339    20.126629    20.846514    7169.3358    8035.7948    7458.7416    6892.0058    478.81111   -825.38088   -434.62489   -2618.9538 
13720000    247.86382   -3870.7816   -3445.9515   -3870.7816            0    6638.4087    17.087317    20.126603    20.846487    7169.3082    5713.0882    7224.4656    6977.6725    1206.9793    987.24209   -395.28849   -2751.8594 
13721000     254.6425   -3856.4761   -3420.0276   -3856.4761            0    5912.7862    17.046458    20.078476    20.796639    7118.0014    6528.4242    6084.6399    5125.2944     84.07161   -1154.9146   -504.89956   -2806.2286 
13722000    257.35587   -3871.8011   -3430.7019   -3871.8011            0     7810.909     16.98357    20.004402    20.719915    7039.5116    7716.1869     8607.502    7109.0382   -168.08965   -439.96564   -323.76836   -2628.8023 
13723000    258.19052   -3899.5664   -3457.0367   -3899.5664            0    5809.7031    17.095592    20.136349    20.856582     7179.728    6497.6313    4478.4753    6453.0027    1536.8974    159.87623    912.40119   -2848.7087 
13724000    256.20357   -3884.5082    -3445.384   -3884.5082            0    7582.2857    17.039201    20.069928    20.787785    7108.9138    8358.4271    5753.5295    8634.9004     1541.001    1122.5019   -155.84448   -2659.2814 
13725000    260.43335   -3910.9244   -3464.5506   -3910.9244            0    7443.0058     17.03164    20.061022    20.778561    7099.4546    7930.0569    7113.8306    7285.1299   -1138.3199   -150.27579   -266.81259   -2693.9147 
13726000    247.84387    -3872.253   -3447.4571    -3872.253            0    7200.9694    17.042474    20.073783    20.791778    7113.0111    7571.7763    7339.5324    6691.5994   -863.68396    514.36422   -901.09178   -2700.4575 
13727000    264.72153   -3820.1729   -3366.4492   -3820.1729            0     10027.23    17.046835     20.07892    20.797098    7118.4729     11827.18    9384.6927    8869.8183    181.55006    1853.8628    979.04859    -2325.466 
13728000    268.67007   -3865.9645   -3405.4732   -3865.9645            0    6964.7379    17.010765    20.036434    20.753093    7073.3817    6867.2935    7360.9729    6665.9473   -493.46621    23.373946   -873.13426   -2687.0046 
13729000    264.84255   -3852.8098   -3398.8787   -3852.8098            0    6495.2879    17.033252    20.062921    20.780528    7101.4709    6513.8318    6477.3663    6494.6657    1181.2511    9.6110354    296.74061   -2726.1769 
13730000    266.17099    -3882.233    -3426.025    -3882.233            0     6080.197    17.085067    20.123952    20.843742    7166.4758    4974.4755    7476.4746    5789.6409   -644.02959   -256.56409    1425.1838    -2790.549 
13731000    269.12918   -3882.5426   -3421.2644   -3882.5426            0    9329.1831    16.951113    19.966172    20.680318    6999.2294    11428.598    7279.4279    9279.5238    2076.2461    78.206173   -457.83058   -2468.9733 
13732000    255.35345   -3847.3436   -3409.6766   -3847.3436            0    5873.1652    17.032305    20.061805    20.779372    7100.2858    7174.8251    4950.9198    5493.7506    1351.5836   -1172.7687      134.034    -2801.508 
13733000    257.98781   -3886.4713    -3444.289   -3886.4713            0    6299.9809    17.053375    20.086623    20.805077    7126.6691    5336.9135    6705.6643    6857.3649    1529.9222   -135.21542    102.40886   -2789.4995 
13734000    264.66811   -3860.4433   -3406.8112   -3860.4433            0    7255.6951    17.062087    20.096884    20.815706    7137.5969    8241.5877    7345.0642    6180.4333    800.90314    565.98429   -1269.3252   -2651.5331 
13735000    246.16535   -3869.6689   -3447.7499   -3869.6689            0    5802.1297    17.106695    20.149428    20.870128    7193.7271    7025.1782    5625.8483    4755.3626   -774.89384   -452.91737   -1919.2264   -2839.0303 
13736000    264.34996    -3885.219   -3432.1322    -3885.219            0    6399.6872      17.0001    20.023872    20.740082    7060.0865    5631.4703    6279.2639    7288.3275   -392.87527   -1349.9697   -331.84613    -2773.194 
13737000    265.06385   -3889.0543   -3434.7439   -3889.0543            0    7501.9945     17.06926    20.105333    20.824457    7146.6029    6448.7666    10219.076    5838.1405   -1596.3342   -582.23609   -2564.5946    -2652.842 
13738000    267.94067   -3884.6119   -3425.3708   -3884.6119            0    7866.6455    16.999613    20.023298    20.739488    7059.4793    8421.4015    8907.1128    6271.4223   -166.11935   -490.43471   -431.33052   -2615.4582 
13739000    244.04524   -3870.2492    -3451.964   -3870.2492            0    5660.2173    17.130841    20.177868    20.899586    7224.2309    6174.4685    6437.3063     4368.877    674.32644    239.98955   -1342.7347   -2855.6148 
13740000    252.58806   -3844.5933   -3411.6661   -3844.5933            0    8009.3332    17.019585    20.046823    20.763854    7084.3908    5838.4475    8193.3994    9996.1525   -78.649479    221.72604    200.20056   -2584.1532 
13741000    253.39467   -3891.6488    -3457.339   -3891.6488            0    6889.9222    17.021547    20.049134    20.766248     7086.841     6426.182    6774.0659    7469.5187    538.17365    128.23907    376.16022   -2745.2359 
13742000    262.26045   -3867.6856   -3418.1802   -3867.6856            0    6840.8735    16.991161    20.013343    20.729176    7048.9548    4408.9678    7481.4733    8632.1794    252.83676   -1254.7522    46.031841   -2714.9262 
13743000    260.35432   -3825.3506   -3379.1122   -3825.3506            0    7921.8397    17.005647    20.030406     20.74685    7067.0001    7265.1399    10115.027    6385.3525    -1203.766   -777.43934    494.44753   -2562.6482 
13744000    256.55498   -3835.4713   -3395.7448   -3835.4713            0    8307.1779     16.99158    20.013837    20.729688    7049.4771    9110.5704    7103.6844    8707.2789   -1096.7585   -907.40105    1581.9885   -2541.6889 
13745000    266.05339   -3826.0085   -3370.0021   -3826.0085            0    6231.9787    17.083796    20.122455    20.842191    7164.8769    6986.0906    5580.3335    6129.5121    1309.3152    214.25518    490.68115   -2718.8078 
13746000     267.8336   -3862.2636   -3403.2059   -3862.2636            0    8088.7136    17.050761    20.083544    20.801888    7123.3922    10302.155    6545.5824    7418.4036    949.71551    -126.5469    1494.9049   -2562.8908 
13747000     252.5529   -3860.9535   -3428.0865   -3860.9535            0    7618.4765    17.062497    20.097368    20.816207    7138.1121    6371.3335    7955.2958    8528.8002    632.12318   -1606.9568   -1206.9464   -2634.9875 
13748000    263.78541   -3854.4847   -3402.3655   -3854.4847            0    7098.3846    17.025018    20.053222    20.770482    7091.1771     7365.394    5934.9942    7994.7655    517.75401   -537.92614    -224.5946    -2668.268 
13749000    253.76323   -3888.5185    -3453.577   -3888.5185            0    7963.3319    16.995481    20.018431    20.734447    7054.3326    7072.6748    10386.359    6430.9617   -654.40862    550.08964    316.20272   -2634.3078 
13750000     273.2555   -3856.0655   -3387.7149   -3856.0655            0    6849.5337    17.055487     20.08911    20.807654    7129.3171    7417.1848    7369.6484    5761.7677    -136.1927    367.11761   -588.07342    -2675.543 
Loop time of 485.929 on 64 procs for 250000 steps with 864 atoms

Performance: 88.902 ns/day, 0.270 hours/ns, 514.478 timesteps/s
99.1% CPU use with 64 MPI tasks x 1 OpenMP threads

MPI task timing breakdown:
Section |  min time  |  avg time  |  max time  |%varavg| %total
---------------------------------------------------------------
Pair    | 21.603     | 26.837     | 31.364     |  48.2 |  5.52
Bond    | 0.27503    | 0.28535    | 0.29877    |   1.1 |  0.06
Kspace  | 199.48     | 217.18     | 234.43     |  54.3 | 44.69
Neigh   | 5.1939     | 6.9365     | 8.9644     |  38.6 |  1.43
Comm    | 93.35      | 112.47     | 129.37     |  83.5 | 23.14
Output  | 1.4903     | 1.4925     | 1.4992     |   0.1 |  0.31
Modify  | 113.03     | 115.71     | 119.03     |  14.6 | 23.81
Other   |            | 5.027      |            |       |  1.03

Nlocal:        13.5000 ave          19 max           8 min
Histogram: 2 1 7 13 11 13 5 5 4 3
Nghost:        2220.94 ave        2257 max        2175 min
Histogram: 1 4 7 4 9 8 10 14 4 3
Neighs:        4324.92 ave        6902 max        2260 min
Histogram: 1 4 10 13 13 10 9 2 1 1

Total # of neighbors = 276795
Ave neighs/atom = 320.36458
Ave special neighs/atom = 2.0000000
Neighbor list builds = 13886
Dangerous builds = 0

unfix		3
unfix		2
unfix		1

write_data	data.final.${pid}
write_data	data.final.0
System init for write_data ...
PPPM initialization ...
  extracting TIP4P info from pair style
  using 12-bit tables for long-range coulomb (../kspace.cpp:340)
  G vector (1/distance) = 0.37387102
  grid = 24 24 24
  stencil order = 5
  estimated absolute RMS force accuracy = 0.0032058538
  estimated relative force accuracy = 9.6543336e-06
  using double precision FFTW3
  3d grid and FFT values/proc = 2535 216
Last active /omp style is kspace_style pppm/tip4p/omp
WARNING: Not all mixed pair coeffs generated from mixing. Use write_data with 'pair ij' option to store all pair coeffs. (../write_data.cpp:312)

write_restart   restart.lmp.${pid}
write_restart   restart.lmp.0
System init for write_restart ...
PPPM initialization ...
  extracting TIP4P info from pair style
  using 12-bit tables for long-range coulomb (../kspace.cpp:340)
  G vector (1/distance) = 0.37387102
  grid = 24 24 24
  stencil order = 5
  estimated absolute RMS force accuracy = 0.0032058538
  estimated relative force accuracy = 9.6543336e-06
  using double precision FFTW3
  3d grid and FFT values/proc = 2535 216
Last active /omp style is kspace_style pppm/tip4p/omp
Total wall time: 0:08:11
