LAMMPS (30 Jul 2021)
Processor partition = 1
  using 2 OpenMP thread(s) per MPI task
using multi-threaded neighbor list subroutines
variable        pid world 0 1
variable        phase world IceIh IceIII

shell cd ${phase}
shell cd IceIII
include Restart.lmp
echo both
log log.lammps
#include		in.partitions
include		in.temp
variable        temperature equal 137.72
variable	tempDamp equal 100.0
include		in.pressure
variable        pressure equal 1920.7
variable        pressureDamp equal 1000.0 # This is 1 ps
include		in.seed
variable        seed equal 745823

units		real
atom_style	full

read_restart	restart.lmp.${pid}
read_restart	restart.lmp.1
Reading restart file ...
  restart file = 30 Jul 2021, LAMMPS = 30 Jul 2021
  restoring atom style full from restart
  orthogonal box = (0.0035417751 -0.0057203655 -0.067360635) to (19.996459 20.005721 20.767359)
  2 by 4 by 4 MPI processor grid
  restoring pair style lj/cut/tip4p/long/omp from restart
  restoring bond style harmonic/omp from restart
  restoring angle style harmonic/omp from restart
  972 atoms
  648 bonds
  324 angles
Finding 1-2 1-3 1-4 neighbors ...
  special bond factors lj:    0        0        0       
  special bond factors coul:  0        0        0       
     2 = max # of 1-2 neighbors
     1 = max # of 1-3 neighbors
     1 = max # of 1-4 neighbors
     2 = max # of special neighbors
  special bonds CPU = 0.002 seconds
  read_restart CPU = 0.006 seconds
include 	in.setup
variable	out_freq equal 1000
variable	out_freq2 equal 10000
variable	out_freq3 equal 1000

timestep	2.0

neigh_modify    delay 7 every 1

include		in.tip4p
# This is TIP4P/Ice

# create groups ###
group ox type 2
324 atoms in group ox
group hy type 1
648 atoms in group hy

# set charges - beside manually ###
set group ox charge -1.1794
Setting atom values ...
  324 settings made for charge
set group hy charge 0.5897
Setting atom values ...
  648 settings made for charge

# ### TIP3P Potential Parameters ###
pair_style lj/cut/tip4p/long/omp 2 1 1 1 0.1577 8.5
pair_coeff 1 1*2 0.000 0.000
pair_coeff 2 2 0.21084 3.1668
bond_style  harmonic
bond_coeff  1 450 0.9572
angle_style harmonic
angle_coeff 1 55 104.52
kspace_style pppm/tip4p/omp 1.0e-5
pair_modify tail yes

thermo          ${out_freq}
thermo          1000
thermo_style    custom step temp pe etotal epair emol press lx ly lz vol pxx pyy pzz pxy pxz pyz enthalpy

restart 	${out_freq3} restart.lmp.${pid} restart2.lmp.${pid}
restart 	1000 restart.lmp.${pid} restart2.lmp.${pid}
restart 	1000 restart.lmp.1 restart2.lmp.${pid}
restart 	1000 restart.lmp.1 restart2.lmp.1


include         in.dump
dump            myDump all atom ${out_freq2} dump.water.${pid}
dump            myDump all atom 10000 dump.water.${pid}
dump            myDump all atom 10000 dump.water.1
dump            myDump2 all dcd ${out_freq2} dump.dcd
dump            myDump2 all dcd 10000 dump.dcd
dump_modify     myDump append yes
dump_modify     myDump2 append yes


variable natoms 	equal  "count(all)"                        # NUMBER ATOMS
variable H      	equal  "enthalpy/v_natoms"                 # ENTHALPY-per-atom
variable Vol      	equal  "vol/v_natoms"                 # volume-per-atom
fix AVG all 		ave/time ${out_freq} 1 ${out_freq} v_Vol v_H file vol_enthalpy.dat
fix AVG all 		ave/time 1000 1 ${out_freq} v_Vol v_H file vol_enthalpy.dat
fix AVG all 		ave/time 1000 1 1000 v_Vol v_H file vol_enthalpy.dat


timer           timeout 02:55:00 every 1000
New timer settings: style=normal  mode=nosync  timeout=02:55:00

fix 		1 all shake 1e-6 200 0 b 1 a 1
Finding SHAKE clusters ...
       0 = # of size 2 clusters
       0 = # of size 3 clusters
       0 = # of size 4 clusters
     324 = # of frozen angles
  find clusters CPU = 0.000 seconds
fix             2 all nph aniso ${pressure} ${pressure} ${pressureDamp}
fix             2 all nph aniso 1920.7 ${pressure} ${pressureDamp}
fix             2 all nph aniso 1920.7 1920.7 ${pressureDamp}
fix             2 all nph aniso 1920.7 1920.7 1000
fix             3 all temp/csvr ${temperature} ${temperature} ${tempDamp} ${seed}
fix             3 all temp/csvr 137.72 ${temperature} ${tempDamp} ${seed}
fix             3 all temp/csvr 137.72 137.72 ${tempDamp} ${seed}
fix             3 all temp/csvr 137.72 137.72 100 ${seed}
fix             3 all temp/csvr 137.72 137.72 100 745823


run             250000
PPPM initialization ...
  extracting TIP4P info from pair style
  using 12-bit tables for long-range coulomb (../kspace.cpp:340)
  G vector (1/distance) = 0.37234425
  grid = 24 24 25
  stencil order = 5
  estimated absolute RMS force accuracy = 0.003415281
  estimated relative force accuracy = 1.0285017e-05
  using double precision FFTW3
  3d grid and FFT values/proc = 3458 576
Last active /omp style is kspace_style pppm/tip4p/omp
Neighbor list info ...
  update every 1 steps, delay 7 steps, check yes
  max neighbors/atom: 2000, page size: 100000
  master list distance cutoff = 10.8154
  ghost atom cutoff = 10.8154
  binsize = 5.4077, bins = 4 4 4
  1 neighbor lists, perpetual/occasional/extra = 1 0 0
  (1) pair lj/cut/tip4p/long/omp, perpetual
      attributes: half, newton on, omp
      pair build: half/bin/newton/omp
      stencil: half/bin/3d
      bin: standard
Setting up Verlet run ...
  Unit style    : real
  Current step  : 23000000
  Time step     : 2
  Walltime left : 2:54:59.97
Per MPI rank memory allocation (min/avg/max) = 10.19 | 10.19 | 10.21 Mbytes
Step Temp PotEng TotEng E_pair E_mol Press Lx Ly Lz Volume Pxx Pyy Pzz Pxy Pxz Pyz Enthalpy 
23000000    144.85474   -4953.1293   -4673.7648   -4953.1293            0    2776.0533    19.992917    20.011442    20.834719    8335.7025    3186.5384    3035.5588    2106.0627    253.47799   -521.09003    317.15036   -4336.2864 
23001000    134.77146   -4964.8071    -4704.889   -4964.8071            0    1245.1715    20.071857    20.135945    20.606879    8328.5961    774.13413    304.24387    2657.1365   -411.14121    371.93602    120.00045   -4553.6454 
23002000    136.21335   -4965.4445   -4702.7456   -4965.4445            0    2368.9959    19.939183     19.95319    20.937057    8329.8144     3076.925    2247.0518    1783.0111   -239.72159   -549.75332    840.31993   -4414.9557 
23003000    134.20452    -4966.442   -4707.6173    -4966.442            0    521.70102    19.993072    20.078266    20.713225    8314.8319    1131.3484   -718.94257    1152.6972    -680.4556    882.58056   -193.91752   -4644.3542 
23004000    130.76946   -4977.7655   -4725.5656   -4977.7655            0    1542.5946    19.993662    19.928069    20.836106    8301.8355    1774.9667    1886.6063    966.21091     95.76568    241.31762   -388.86263   -4538.7979 
23005000    137.98523    -4973.489   -4707.3728    -4973.489            0    1672.5203    19.991714    19.989635    20.956436    8374.7589    1372.2374    2827.4163    817.90736   -333.15944    234.93027   -360.64827   -4503.0958 
23006000    137.96884   -4959.5323   -4693.4478   -4959.5323            0    2868.3763    20.073649    19.893663    20.768313    8293.5853    1122.9847    3998.1924    3483.9517    289.46109    895.80639   -1273.3765   -4346.5078 
23007000    134.10593   -4962.0612   -4703.4266   -4962.0612            0    1672.3939    20.122355    19.915346     20.86867    8362.9871   -150.01022    2918.6014    2248.5904   -488.99104   -86.468343    107.66053   -4499.4521 
23008000    138.32671   -4968.0511   -4701.2764   -4968.0511            0    1350.0841     20.12857    19.897521    20.901643    8371.2889   -65.445496    2362.2568    1753.4409   -736.37791   -621.41027    789.35835   -4536.4492 
23009000    141.00148   -4963.4991   -4691.5659   -4963.4991            0    2930.4015    20.034894     20.06409    20.685681    8315.2695    4155.1053    1878.8958    2757.2033   -18.821198   -91.893928    911.61848    -4336.197 
23010000     139.8906   -4969.7029   -4699.9121   -4969.7029            0    1275.8856    19.997357    20.015405    20.891658    8361.9951     1019.224    1792.7696    1015.6633   -230.54463    608.69936    359.50714   -4544.3164 
23011000    137.47729   -4970.6292   -4705.4927   -4970.6292            0    2134.7312    19.969882    19.914448    20.814824    8277.8302    2231.8031    2758.2225     1414.168    160.46605    904.00081   -1403.0752   -4447.7801 
23012000    144.12403   -4958.0776   -4680.1223   -4958.0776            0    761.80451    20.029801    19.983499    20.914496    8371.3512   -751.29568    2695.4912    341.21796   -346.02571    514.16542   -594.45819   -4587.1154 
23013000    139.49395   -4952.4374   -4683.4116   -4952.4374            0    3490.3285    19.964234    19.996229    20.762502    8288.5858    4560.6246    2596.5458    3313.8152   -243.57912   -565.92796   -102.31209   -4261.4989 
23014000    131.85261   -4969.1396   -4714.8507   -4969.1396            0    1360.5782    20.108415    20.035783    20.797318    8378.9867    102.82134    1897.0304     2081.883   -330.00206    184.20682   -684.82869   -4548.5895 
23015000    136.10933    -4969.086   -4706.5878    -4969.086            0    2417.1187    19.973802    19.962216    20.959523    8357.0089    1538.5551    3319.8992    2392.9017   -201.41424    1482.4874     -568.477   -4411.9932 
23016000    135.45515   -4964.8822   -4703.6455   -4964.8822            0    3369.5004    19.924348    19.961609    20.861534    8297.0918    3494.6933    3092.6113    3521.1967    641.96587   -40.219847     998.6167   -4295.9206 
23017000     139.7596   -4978.5741    -4709.036   -4978.5741            0    2121.6423    20.100932    20.113418    20.680925    8361.2656     1479.922     2825.301    2059.7038    26.908813    374.17731    566.46928   -4450.3219 
23018000    133.68636   -4979.2525   -4721.4271   -4979.2525            0    1304.8865    19.967795    20.031031    20.936547    8374.1062    2148.0923    455.82343    1310.7438   -455.63887    4.4679817   -218.58693   -4562.0643 
23019000    137.39673   -4974.3384   -4709.3573   -4974.3384            0    1876.2729    19.969149    20.064232    20.791103    8330.2806     2816.418     938.6503    1873.7504   -33.603149   -1239.9794    705.75193   -4481.4115 
23020000    143.58633   -4982.4516   -4705.5332   -4982.4516            0     2571.879    19.984519    20.100484    20.639368    8290.8032    2516.7588     1235.048      3963.83   -86.633596    -569.4058   -4.6907917     -4394.56 
23021000    137.54856   -4986.0743   -4720.8003   -4986.0743            0    2145.7388    20.005703    19.893751     20.89779    8317.0796     2759.569    2373.9484    1303.6988    192.58671    757.83586   -32.755299   -4460.5306 
23022000    139.63083   -4971.6482   -4702.3584   -4971.6482            0    2008.6563     20.17101    19.855305    20.794543    8328.2468     1717.317    2808.4739     1500.178   -45.438416    188.94226    621.84147   -4458.3891 
23023000    137.30079   -4982.5431    -4717.747   -4982.5431            0    2199.9445    20.114815    19.882667    20.772642     8307.731    910.47865    3273.5271    2415.8279    89.865054   -542.62436   -331.20552   -4451.2023 
23024000    144.98917   -4959.2088    -4679.585   -4959.2088            0    2158.6778    19.995062    19.934448    20.922974    8339.6995    2310.0539    2274.7664    1891.2131   -743.31388   -210.05821    668.68383   -4417.0337 
23025000    145.27437   -4969.0902   -4688.9163   -4969.0902            0    2357.9448    19.933644    20.082513    20.771046    8315.0163    4085.2901    547.89971    2440.6447    38.168615    114.37434    1086.4763   -4402.9778 
23026000    140.57107   -4954.7772    -4683.674   -4954.7772            0    1885.4264    20.044433    19.898382    20.858392    8319.4066    1375.0518    3107.8105    1173.4167    262.33222   -176.15636    -364.3863   -4454.9152 
23027000    149.45961   -4978.6207   -4690.3753   -4978.6207            0    380.10119    20.158961    20.047001    20.957551    8469.5062    570.87437    643.92364   -74.494421    52.890539     381.2025   -393.21278   -4643.4255 
23028000    140.63437   -4985.6425   -4714.4173   -4985.6425            0    2155.8932    19.988167     20.07702    20.776126    8337.5182    1122.0387    1859.9622    3485.6789   -461.58904   -229.84494    1281.2065   -4452.2733 
23029000    139.28715   -4968.5867   -4699.9597   -4968.5867            0    1408.8332    19.949346    20.022786    20.885526    8342.5457    1953.8279    1417.7229    854.94886   -84.516381    761.73863   -136.25699   -4528.5506 
23030000    144.88289   -4975.9726   -4696.5538   -4975.9726            0    996.17129    19.974625    20.024371    20.987834    8394.6992    1465.6792     1478.313    44.521618   -736.36812   -1048.2973   -671.93861   -4574.5944 
23031000    136.88206   -4952.7149   -4688.7263   -4952.7149            0    1539.5842    20.171804    20.086103    20.594608    8344.3776    927.10045    1751.2563    1940.3959   -827.39219    82.808497      67.1043   -4501.3678 
23032000    147.76799   -4981.5588   -4696.5758   -4981.5588            0    2284.0292    19.985499    20.012848    20.777544    8310.3272    2220.8003    1778.4445    2852.8427   -189.59101   -515.33441   -309.75092    -4419.757 
23033000    135.88175   -4962.4209   -4700.3615   -4962.4209            0     2018.333    19.941034    19.893352    21.103121    8371.4817     1395.426    3620.1367    1039.4363    280.85572    158.55836   -695.97697   -4453.9443 
23034000    134.09238   -4975.2913   -4716.6828   -4975.2913            0    3210.7978    20.077349    19.889223    20.757877    8289.0948    2210.9102    4075.7456    3345.7376    543.82126    604.60393     247.6736   -4328.5361 
23035000    126.26635   -4973.8221   -4730.3069   -4973.8221            0    3833.5771    20.032345    19.915849    20.664805    8244.4545    2944.3477    4272.8001    4283.5833   -611.12233    424.79728   -236.29755   -4269.3694 
23036000    136.11962   -4982.9137   -4720.3955   -4982.9137            0    613.31187    20.057004    19.974624    20.865192    8359.2453     675.4558   -466.89335    1631.3732   -73.295415    121.99105    34.345563   -4645.6261 
23037000    136.67838   -4970.2518    -4706.656   -4970.2518            0    1889.4363     19.84369    20.080608    20.959298     8351.722    2090.7271    2137.2612    1440.3205   -483.02534    193.62219    736.58761   -4476.5202 
23038000    138.56187    -4962.278   -4695.0498    -4962.278            0    2423.3571    19.932088    20.088128    20.738799    8303.7805    3881.1306    628.20389    2760.7368    65.150951   -392.96985   -79.523045   -4401.5761 
23039000    135.43622   -4976.5062   -4715.3061   -4976.5062            0    2419.4061    19.994217    19.879561    20.888979    8302.8732    2476.0408    2521.9636    2260.2141    378.87503    12.644384     384.5631   -4422.3429 
23040000    130.63131   -4960.6689   -4708.7355   -4960.6689            0    1145.5842    20.062615    19.964373     20.95393    8392.8351    1671.0577    1415.5186     350.1763   -45.207815    819.81362    719.37735    -4568.515 
23041000     139.8305   -4976.5149     -4706.84   -4976.5149            0    918.44309    19.945639    20.093947    20.896735    8375.1317    1178.1951    688.02066    889.11354   -223.61343    126.14135   -354.72233   -4594.6589 
23042000    133.33678   -4968.8416   -4711.6904   -4968.8416            0    1394.4799    20.157451    19.995703    20.747434    8362.5107    859.89782    1358.9135    1964.6285   -181.65923    -48.34805    63.286516   -4541.6216 
23043000    137.33495   -4961.5977   -4696.7357   -4961.5977            0    1506.3541    19.964227    19.925683    20.941229    8330.4386    1559.2887    1487.1623    1472.6114   -5.2147469    733.32471   -207.02484   -4513.7273 
23044000    133.64389   -4980.2913   -4722.5478   -4980.2913            0    1373.6527    20.035014    20.180642    20.636295    8343.6556    1492.1921    636.38878    1992.3773    256.37533    380.61919    149.95869   -4555.3967 
23045000    129.86298    -4978.305   -4727.8533    -4978.305            0    2579.6262    20.070215    19.941102    20.824079    8334.2589    1523.4344    3702.8723    2512.5719   -100.74405   -257.74601   -1180.9734   -4414.3084 
23046000    134.73258    -4975.791   -4715.9479    -4975.791            0    1770.7574    19.875785     20.01987    21.124901    8405.8227    2818.6236    1783.3746    710.27405   -226.13237    473.52731   -417.48424   -4498.8702 
23047000    133.63626   -4967.3199   -4709.5911   -4967.3199            0    2754.0288    19.981456    19.842082    20.874955    8276.3707    2202.9406    3700.4019    2358.7439   -339.79687   -160.18756    818.50184   -4377.1733 
23048000    132.12449   -4974.9189   -4720.1057   -4974.9189            0    1942.6704    19.942236    19.988889    20.880099    8323.2908     2762.709    1351.5997    1713.7024   -284.32188    1300.8977   -147.11551   -4484.2914 
23049000    136.86759   -4964.3851   -4700.4245   -4964.3851            0    769.22062    20.168996    20.089706    20.694483     8385.181   -839.27278    451.02757    2695.9071    -457.4718    298.00357    81.945466   -4606.3571 
23050000    133.60996   -4975.1479   -4717.4699   -4975.1479            0    2503.3683    20.024077    19.923156    20.835823    8312.3017    2406.1198     2225.493    2878.4923   -231.08209    734.99331   -541.01042   -4413.9956 
23051000    143.45222   -4943.8976   -4667.2379   -4943.8976            0    1811.6854    20.062716    19.826479    20.913998     8319.024    1112.1812    2733.9379    1588.9372    325.14382    84.681035    129.53467   -4447.4362 
23052000    129.87452   -4969.2584   -4718.7845   -4969.2584            0    2062.0249    19.953864    20.038525    20.789587     8312.633    1038.7395    3006.8453      2140.49    48.412291    -14.00107   -150.45412   -4468.8027 
23053000    127.11795   -4967.7126    -4722.555   -4967.7126            0    1211.9465    19.924177    20.164292     20.73142    8328.9911    1667.4558    917.93117    1050.4526    52.565871   -234.98991    1050.5746   -4575.3401 
23054000    139.66306   -4964.2847   -4694.9327   -4964.2847            0    2276.5961    20.015641    19.905442    20.932136    8339.7855    2232.1553    2257.9726    2339.6605   -92.681335    150.97444    405.18624   -4418.0367 
23055000    140.75737   -4975.3933   -4703.9309   -4975.3933            0    2419.6647    20.038473    19.869808    20.917806    8328.6462    2090.9318    2414.6897    2753.3727   -421.11016    303.77399   -454.18434   -4410.0269 
23056000    148.98615   -4970.0396   -4682.7073   -4970.0396            0    2546.8658    20.014169     19.94109    20.844197    8319.0097    2013.5341    3207.0685    2419.9948   -229.36352    1080.8623    260.46591   -4373.7108 
23057000     131.1382   -4980.4801   -4727.5691   -4980.4801            0    764.65509     20.11612    20.042263    20.800214     8386.076    1748.9463   -610.11055    1155.1296     74.69127    290.53735     974.7662     -4634.05 
23058000    134.49593   -4963.9392   -4704.5525   -4963.9392            0    1780.5984    19.982695    20.095145    20.797592    8351.3802    2536.8605     1007.738    1797.1967    85.171782    729.17399   -156.89767   -4487.6822 
23059000    140.98507   -4983.5253   -4711.6238   -4983.5253            0    1991.5439    19.910294    20.080764    20.887628    8351.1643    2160.8977    1340.6616    2473.0723   -53.488865    94.502253    214.12646   -4469.0673 
23060000    137.70519   -4974.4431    -4708.867   -4974.4431            0    2076.1517    20.062456    19.998003    20.850674     8365.479    1415.0078    3029.7139    1783.7332   -151.42329    342.71462    324.48198   -4455.5725 
23061000    138.84938   -4968.1906   -4700.4079   -4968.1906            0    2072.6926    20.084998    20.094979    20.587604    8309.3136    2004.5142    2026.4316    2187.1319    139.80088   -58.343879     562.6503   -4449.2332 
23062000    141.57988   -4958.1112   -4685.0625   -4958.1112            0    2055.0418    20.058784    19.923425    20.950075    8372.4814     2786.933    2294.1104     1084.082    151.41072    237.86046    1353.4851   -4434.1336 
23063000    134.70605   -4947.8272   -4688.0353   -4947.8272            0    3093.9872    19.961731    20.029033    20.608227    8239.4612     2477.685    3932.1577    2872.1189    275.12917   -1245.7492    24.712705   -4316.2491 
23064000    134.58344   -4964.7276   -4705.1721   -4964.7276            0    2799.4203    19.981831    20.035722    20.822771    8336.4047    2217.0147    3278.7658    2902.4803    -155.0432   -173.23268   -89.024657   -4364.8244 
23065000     133.6967   -4968.6639   -4710.8186   -4968.6639            0    2419.0364    19.947228    19.944909    20.938006    8330.0941    1913.1649     2538.347    2805.5971    36.363818   -409.57911    219.79639   -4416.9399 
23066000    142.48102   -4955.8686    -4681.082   -4955.8686            0    1834.0359    19.993728    19.957586    20.799945    8299.7305    493.32009    2961.3838    2047.4038   -220.45607    220.49293   -563.69115   -4459.0847 
23067000    138.91825   -4982.1976    -4714.282   -4982.1976            0    1504.1325    19.857631    20.094904    20.834588    8313.7752    1600.3419    1085.3412    1826.7144    9.2666417   -343.05048   -245.77559   -4531.9092 
23068000    138.68986   -4970.7687   -4703.2936   -4970.7687            0    2047.7934    19.799234    20.049694    20.868449     8284.119    2527.3731     3137.086    478.92103    41.013587   -333.39505    420.45061   -4455.8887 
23069000    135.81198   -4988.8632   -4726.9384   -4988.8632            0    2576.6767    20.168464    19.974399    20.503279    8259.8063    2798.2881    1218.3198    3713.4221   -175.93645    388.80993     1120.482   -4416.5499 
23070000    133.12967   -4955.9209   -4699.1691   -4955.9209            0    1513.5097     19.94436     20.01909    20.893824    8342.2342    2309.9639    1264.8994    965.66569   -470.83605    127.67603    420.33223   -4515.0311 
23071000     139.8641   -4974.9979   -4705.2582   -4974.9979            0    2344.7225    19.998351    19.998675    20.910765    8363.0622    2689.2089    2479.8639    1865.0946     34.16975    382.17103    462.09393   -4419.2802 
23072000    145.32954   -4955.2761   -4674.9958   -4955.2761            0    1030.4156    20.137011    20.089309    20.715159     8380.082    798.27972    960.13275    1332.8342    103.77769  -0.90574694   -945.64172   -4549.0637 
23073000     130.6774   -4978.4834   -4726.4611   -4978.4834            0    1278.4089    19.932326    20.003334    21.031451    8385.5124    1214.6607    1739.2248    881.34128    312.12614     1134.366   -785.71244   -4570.1192 
23074000    134.68611   -4978.5397   -4718.7863   -4978.5397            0    2963.6885    19.904185    19.917073     20.95704    8308.0644    2672.1079    3032.2839    3186.6735    -188.0918    776.99014    214.47151   -4359.6921 
23075000    139.39021   -4980.7878    -4711.962   -4980.7878            0    1927.3685    19.988752    20.084459     20.70885    8313.8425    2835.8887    1698.3831    1247.8338   -399.52529   -215.43732   -361.51366   -4478.2708 
23076000    138.54015   -4976.8454   -4709.6591   -4976.8454            0    1014.0073    20.046475    20.054574    20.772787    8351.1491    814.89447    953.72265    1273.4048   -435.01473    908.95732    880.79309   -4586.1602 
23077000    132.42876    -4984.506    -4729.106    -4984.506            0    1026.7002    19.883336    19.995212    21.017765    8356.0649    1221.3744    485.70451    1373.0216   -480.84754   -743.54339    215.49686   -4603.9876 
23078000    141.46463   -4957.8572   -4685.0308   -4957.8572            0    1683.3959    19.923071    20.091178    20.873544    8355.2198    1170.3019    2536.0324    1343.8535   -118.99269    528.74061    59.086608   -4479.9051 
23079000     139.1074   -4987.4388   -4719.1585   -4987.4388            0    2284.1781    19.970481    20.035208    20.831034    8334.7623    3581.1461    1111.1112    2160.2771    432.73427    292.94542    555.90032   -4441.5076 
23080000    143.06634   -4966.5776   -4690.6621   -4966.5776            0    2073.3184    20.002167     20.06768    20.692067    8305.7358    1796.2302    2069.5235    2354.2014    369.43792   -358.68349    -212.9102   -4439.5197 
23081000    139.20552   -4968.2548   -4699.7852   -4968.2548            0    2956.6286    20.042985    19.801802    20.985306    8328.7999    2097.6846    4832.3788    1939.8224   -238.90679      434.116    619.43113   -4340.6524 
23082000     132.9933   -4976.6685   -4720.1797   -4976.6685            0     2132.755    20.081421    19.932583    20.855609    8347.9705    1483.5419    2937.2172    1977.5057   -163.56364   -341.57654    349.83514   -4460.5241 
23083000    141.37215   -4975.2186   -4702.5706   -4975.2186            0    655.54247    20.077874    20.037706    20.815903    8374.5398    746.40132    659.18191    561.04418   -178.97466    161.02285    343.91066   -4622.5065 
23084000    138.37343   -4951.9312   -4685.0665   -4951.9312            0      1573.53    19.986254    20.000065     20.79162    8310.9589     2509.563    659.66697    1551.3601    174.92721    84.260306    812.74575   -4494.3439 
23085000    136.72814   -4981.2131   -4717.5214   -4981.2131            0    2166.9214    19.938397      20.0062    20.787948     8292.137    3213.6149    254.62739     3032.522    101.34768    403.45398   -451.20086   -4455.4706 
23086000    136.46287   -4976.2371   -4713.0569   -4976.2371            0    2029.2359    20.122214     19.89639    20.737769     8302.561    1147.0941     3125.664    1814.9496    -302.7835   -118.08515   -790.67419   -4467.3483 
23087000    136.67477   -4979.8191   -4716.2303   -4979.8191            0    2350.6611    20.021396    19.860594    20.859869    8294.6519    1274.4716    2702.6071    3074.9046    71.059716    219.97123    720.57992   -4431.8732 
23088000     137.4317   -4972.1454   -4707.0968   -4972.1454            0    3423.7551    19.983843    19.955879    20.759815    8278.9133    2868.2069    3462.0254     3941.033   -212.51846      -1006.1   -485.58092   -4293.7144 
23089000    133.05965    -4986.969   -4730.3523    -4986.969            0    1194.4507    20.165211    20.131927     20.55287    8343.7366    585.28567    531.61007    2466.4565   -626.57643   -87.284741   -719.71603   -4585.0057 
23090000    139.29733   -4981.2322   -4712.5856   -4981.2322            0    1719.8245    19.980641    20.017161    20.853016    8340.2824    697.15535    2507.8609    1954.4573   -125.77151   -60.117911    -317.5851   -4503.3957 
23091000    143.38339   -4993.8111   -4717.2842   -4993.8111            0      607.791    20.000536     19.88551    20.969396    8339.9659    935.31984    973.22535   -85.172184   -281.25684    1340.8728    375.14902   -4643.3587 
23092000    132.28566   -4965.1672   -4710.0432   -4965.1672            0    2336.1324    20.027285    19.837779    20.772064    8252.6759    1385.2383    2940.1965    2682.9625    483.06317    224.75588    109.28047   -4428.8737 
23093000    144.00673   -4971.8167   -4694.0876   -4971.8167            0    1893.0533    20.098251    19.963572    20.757477    8328.5823    1962.5488    1447.0394    2269.5718    298.02349   -15.455617    256.06374   -4464.1501 
23094000    134.37609   -4965.9201   -4706.7645   -4965.9201            0     2222.017    19.971403    20.073187     20.75089    8318.8183    3025.0577     1201.836    2439.1574   -132.18983       981.72   -316.51452   -4437.1862 
23095000    128.95879     -4976.58   -4727.8721     -4976.58            0    2353.6682    19.991546    19.975301    20.806631    8308.8611    2429.7637    2022.2733    2608.9677   -423.28592    27.274889    905.87761   -4442.6635 
23096000    134.36249   -4960.1877   -4701.0584   -4960.1877            0    2174.7159     20.06724    19.848937    20.831495    8297.4632    602.59181    3662.8019     2258.754    445.33738    396.37754   -796.77007    -4437.896 
23097000    138.79991   -4976.1096   -4708.4223   -4976.1096            0    817.53453    20.096312    19.957086    20.919838    8390.1901     295.4016    1399.2427    757.95927    226.64958   -972.36199    -248.4861   -4608.3869 
23098000    139.70208   -4981.0838   -4711.6566   -4981.0838            0    1576.9155    20.063157    19.859413    20.836994    8302.3443    1176.9317    2826.6134    727.20124   -216.60192    44.680397    736.59136   -4520.7218 
23099000    131.48571    -4965.456   -4711.8748    -4965.456            0    2100.3495    19.928683    20.019684    20.824324    8308.1961    2331.2706    2713.2799     1256.498   -336.89625   -45.762142   -346.62558   -4457.3827 
23100000     135.9634   -4972.3625   -4710.1457   -4972.3625            0    2405.3837    19.994207     20.02415    20.844525    8345.4599     2847.853     1994.722    2373.5761    546.62166    747.76339     118.0596   -4417.3865 
23101000     131.4628   -4981.7656   -4728.2285   -4981.7656            0    1533.5325    20.006893    20.032211     20.75759    8319.2748    1685.8153    1615.5256    1299.2565   -614.94859    1036.5009   -221.97775    -4542.168 
23102000    135.62782   -4967.4522   -4705.8826   -4967.4522            0    1800.2582    20.021369    19.870411    20.928157    8325.9078    1583.2958    1899.4641    1918.0146    293.45133    -183.4881    44.932072   -4487.2865 
23103000     137.9229   -4964.5934   -4698.5975   -4964.5934            0    1168.3602    20.094378    19.905207    20.901508    8360.2428   -438.96648    2824.3765    1119.6705   -652.63367    1333.6118    1128.2999   -4556.1445 
23104000     140.4738   -4969.5964   -4698.6808   -4969.5964            0    919.50704     19.87064    20.029542    20.864351    8304.0082    2361.4228    67.441836    329.65643   -191.32827   -6.1941843   -40.969359   -4587.3235 
23105000    141.04079   -4956.3535   -4684.3444   -4956.3535            0    3122.4288    19.951581     19.99509    20.884046    8331.3489    4289.9054    2890.7464    2186.6345   -106.11235    689.76947    489.81316   -4304.9563 
23106000    130.44834   -4971.5306     -4719.95   -4971.5306            0     2018.512    20.034017    19.923188    20.846403    8320.6642    1673.1418    2990.3025    1392.0916   -210.29903   -398.27141   -97.067075   -4475.0069 
23107000    135.08773   -4961.9642   -4701.4361   -4961.9642            0    2366.7342     20.13411    19.934979    20.680279    8300.5065    2537.4687    1848.0207    2714.7133    260.02364   -260.66989    1080.3444   -4414.9326 
23108000    142.31686   -4968.5979   -4694.1279   -4968.5979            0    2665.4378      19.9267    20.140992    20.757274    8330.7969    3496.4752    838.07199    3661.7662    105.84561    464.67718   -776.18103   -4370.2875 
23109000    141.49088   -4983.1665   -4710.2894   -4983.1665            0     2799.261    19.975498    20.028944    20.918304    8369.1649    2622.6639    3512.4404    2262.6786   -303.78357    202.82143    55.636633   -4368.6237 
23110000    146.51119   -4976.3247   -4693.7655   -4976.3247            0    2586.9754    20.026282    19.901416    20.794291    8287.5931    2396.4086    2611.4311    2753.0866   -20.749616    700.35868    -120.0508   -4381.0881 
23111000    141.61802   -4965.0058   -4691.8836   -4965.0058            0    2364.5989    19.983892    20.001542    20.718871     8281.512    3223.2682    2553.6523    1316.8764    65.859565    -363.0346   -386.24271   -4406.2936 
23112000     137.0532   -4963.0232   -4698.7046   -4963.0232            0    2085.9411    19.984033    19.904537    21.011523     8357.815    2254.1903    2946.0392    1057.5939    143.19603   -224.64957   -110.38641   -4444.4489 
23113000    134.17457   -4978.9375   -4720.1706   -4978.9375            0    3028.0433    19.925638     19.99629    20.830314    8299.6062    3709.7144    1923.6847    3450.7308   -105.88585    66.168364    85.202408   -4353.6525 
23114000     139.9206   -4968.6954   -4698.8468   -4968.6954            0    2679.2881    20.067072    20.007163    20.689249     8306.427    2534.8334    2324.4482    3178.5827    -105.3792   -654.50903   -362.38766   -4374.2759 
23115000    135.86474   -4965.6332   -4703.6066   -4965.6332            0    1473.1102    20.000256    20.035895    20.830664    8347.3268    909.63581    1614.6006    1895.0942   -274.83035   -594.73594   -544.17811   -4524.2743 
23116000    128.82277    -4970.411   -4721.9655    -4970.411            0    2217.5799    19.862506    19.927077    21.086637    8346.1265    3028.6443    2009.5869    1614.5084    67.463235    550.84178    278.92165   -4452.0424 
23117000    135.27229   -4988.9337   -4728.0497   -4988.9337            0    396.98773    20.127813    20.096832    20.837542    8428.8961    1389.4067   -947.57513    749.13161   -265.90109   -624.15565   -522.23622   -4679.2493 
23118000    126.29878   -4964.7646   -4721.1867   -4964.7646            0    657.55646    20.036471     20.04309    20.915281    8399.4259    554.87462    870.35749    547.43726    374.58119   -216.24016   -845.14795    -4640.638 
23119000    133.90997   -4980.3399   -4722.0833   -4980.3399            0    2314.8169    19.920207    19.937396    21.043397    8357.5331    2069.2362    3128.6488    1746.5658    86.031807    3.9879448   -347.39713   -4439.9394 
23120000     142.9431   -4975.7812   -4700.1034   -4975.7812            0    3890.6369     20.12335     19.83598    20.684776    8256.6671    2948.9107    5428.6926    3294.3075    188.01861    476.95126    591.51087   -4231.6122 
23121000    135.75083   -4989.7842   -4727.9773   -4989.7842            0    338.22439    20.008411    19.988238    21.077476    8429.5757    689.99658    10.144982    314.53162    58.788374   -506.06925   -234.90006   -4686.3971 
23122000    139.17625   -4960.4812   -4692.0681   -4960.4812            0    430.17712    20.114703    20.066791    20.776915    8386.3428   -372.95896    511.01818    1152.4721   -130.25117    307.73856    1062.0174   -4639.4548 
23123000    133.28127   -4962.6931   -4705.6489   -4962.6931            0    996.33385    19.932178    20.030602    20.914939    8350.3634     1522.846    851.01843    615.13712    102.81414   -1183.7768    235.05809   -4584.3139 
23124000    136.84319   -4966.4941   -4702.5805   -4966.4941            0    1935.8369    20.164675    19.952001    20.857221    8391.3942    1350.8803    2523.4363    1933.1941    43.117114   -453.05622   -664.80104    -4465.673 
23125000    139.82701   -4960.7973   -4691.1292   -4960.7973            0    1904.6253    20.092564    19.904771    20.851643    8339.3618    1605.8682     2356.874    1751.1335    293.01465   -40.205796    891.52582   -4459.4867 
23126000    131.31508   -4979.4699   -4726.2178   -4979.4699            0    1572.4257    19.947264    20.118555    20.761947    8331.9798     1975.341     944.5077    1797.4284   -854.43967   -940.90146   -440.06018    -4535.147 
23127000    138.95147   -4980.4763   -4712.4967   -4980.4763            0    643.70659    20.045379    19.996923    20.901466    8378.2671    82.284561    848.67466    1000.1605    266.39289    357.41621   -216.95698   -4633.8433 
23128000    136.92372   -4981.2749    -4717.206   -4981.2749            0    1371.2757    20.048427    20.133123    20.678012    8346.4203    465.53286    1493.1996    2155.0948   -322.67855    745.24614    538.21517   -4550.2888 
23129000    143.77759   -4961.7602    -4684.473   -4961.7602            0    1140.8937    20.135762    20.028294    20.708316    8351.3523    1240.5326    653.02016    1529.1283   -634.47763   -506.47808    691.79552   -4545.5168 
23130000    132.28505   -4983.3866   -4728.2638   -4983.3866            0    3563.3464    19.878929    19.958351    20.944685    8309.8175     4381.143    3024.5575    3284.3387    227.59678     302.9797    576.04986   -4296.4213 
23131000    137.21041   -4994.2115   -4729.5897   -4994.2115            0    1478.8569    20.044195    20.057072    20.807859    8365.3388    2135.3111   -71.090978    2372.3507    436.27709    131.52817   -236.22842   -4549.1693 
23132000    144.92067   -4969.4377    -4689.946   -4969.4377            0     1358.192    20.152253    19.956216    20.776334    8355.4665   -165.88053    2243.7917    1996.6649   -67.859433    256.87237    714.73182   -4524.4423 
23133000    140.15519   -4962.7818   -4692.4807   -4962.7818            0    1339.9671    20.167897    19.856563    21.003306    8411.0915    431.93996    2462.7704     1125.191    -49.78044   -296.52702   -286.05569   -4528.1107 
23134000    132.63144   -4969.7883   -4713.9974   -4969.7883            0    3360.2506    19.928567     19.99006    20.741551    8262.8791    3428.3656    3240.0102    3412.3762    -340.7443   -115.75435   -492.13862   -4309.0683 
23135000    136.34364   -4975.9734   -4713.0233   -4975.9734            0    1092.3735    20.036881    19.990703    20.828317    8342.8101    964.38976    1297.4543    1015.2763    257.51536    75.834522    822.24641   -4580.1127 
23136000    136.69924   -4965.3716   -4701.7357   -4965.3716            0     2427.111     19.94297    19.890736    20.975355    8320.5111    2748.2395    2920.5391    1612.5543    263.88632   -382.60704    200.03787   -4407.2152 
23137000    131.46863   -4970.8273    -4717.279   -4970.8273            0    2503.0655    20.039639    19.906189    20.894768    8335.1912    1043.8892    4062.6415    2402.6657   -4.4000501    876.87909   -637.01186   -4413.0058 
23138000    139.10984   -4978.4799   -4710.1949   -4978.4799            0    2630.6562    20.148679    19.855322    20.702908    8282.3747    1410.5412    2472.4587    4008.9688   -419.45675   -812.49781   -510.15262   -4392.4381 
23139000    129.66772   -4979.1851     -4729.11   -4979.1851            0    2170.8895    19.999332    20.127052     20.75011    8352.4921    1726.9857    2331.5508     2454.132   -396.05341   -126.66632   -5.7191807   -4464.6685 
23140000    140.53531   -4971.7341      -4700.7   -4971.7341            0    1895.3436    20.061082    20.056485    20.659513    8312.4542     1976.921    1495.2278     2213.882    62.396452    302.09111    656.40497   -4470.9301 
23141000    136.05572   -4975.7994   -4713.4045   -4975.7994            0    1303.8682    19.953355    20.076581    20.943698    8389.9439    1470.8143    1201.9294    1238.8608    -679.9292    390.81063    316.86954   -4553.8648 
23142000    137.63719   -4973.5837   -4708.1388   -4973.5837            0    2235.0631    19.973166    19.901332    20.921947    8316.3195    1804.6355    2378.2827    2522.2712   -506.04247   -202.24242   -111.59173   -4437.0592 
23143000    134.04385   -4970.6026   -4712.0877   -4970.6026            0    1509.4499    20.070357    20.027043    20.728769    8331.9266     722.9032    2461.6309    1343.8156   -78.217864   -196.94908   -529.34484   -4528.6705 
23144000    140.30572    -4978.447   -4707.8556    -4978.447            0    717.51694    20.016071    20.079806    20.738798    8335.3132    1448.2028   -244.25943    948.60741    193.88015    209.98568   -172.44226   -4620.6328 
23145000    137.78628    -4974.527   -4708.7946    -4974.527            0    2188.5822     20.05821    19.889431    20.883123    8331.2463    924.30221    3341.3554     2300.089   -165.54073   -284.23583    -1424.525    -4442.876 
23146000    136.36206    -4983.445   -4720.4593    -4983.445            0    1321.6152    20.146196    19.965842    20.825889    8376.9176     120.9519    1700.3904    2143.5033    -630.1967    315.81385     243.6849   -4558.9992 
23147000    136.03041   -4984.9735   -4722.6275   -4984.9735            0    925.89585    20.026984    20.046254    20.906958     8393.433    1017.9864    748.45415     1011.247    322.69492    122.72233   -876.80391   -4609.2889 
23148000    132.63969   -4976.6305   -4720.8237   -4976.6305            0    2716.8268    20.001544    19.892387    20.890311    8311.8047    1952.6461    3801.0438    2396.7905    49.752685     220.5879    336.70887   -4391.4922 
23149000    139.07444   -4963.8246   -4695.6078   -4963.8246            0    2292.4914    20.192602    19.893856    20.791734    8352.2207    1277.7547    2198.0246    3401.6951   -590.66069   -394.94682    236.92626   -4416.3627 
23150000    137.40879   -4979.5553   -4714.5509   -4979.5553            0    1136.0388    20.046152    19.970472    21.028576    8418.3934   -86.894317    2391.2769    1103.7338   -195.43468   -492.24296   -132.61372   -4575.0753 
23151000    142.45861   -4961.0702   -4686.3268   -4961.0702            0    2061.1634    20.068182    19.973461    20.683348    8290.5282    2379.1857    1590.7255    2213.5791   -246.86625    141.95554   -513.63534   -4437.1139 
23152000    139.42877   -4967.5388   -4698.6387   -4967.5388            0    2738.7069    20.078791    19.946729    20.742928    8307.6715    2395.9525     2718.728    3101.4402   -316.63946    604.35248   -103.72097   -4366.8201 
23153000     130.8328   -4966.1402   -4713.8182   -4966.1402            0    1533.7637    19.889853    20.033537    21.012358    8372.6705    3014.3853    434.69532    1152.2105    503.52412   -750.36215   -115.28414   -4526.5352 
23154000    141.01521   -4979.7504   -4707.7907   -4979.7504            0    2051.6045    19.920752    19.978671    20.760581    8262.5068    2376.4311    1487.1934    2291.1891    593.94672    391.19956   -870.53938    -4460.572 
23155000    130.85945   -4962.8355    -4710.462   -4962.8355            0    1567.1703    20.032631        20.03     20.79024    8342.1585    259.94573    2387.4443    2054.1207   -522.42614   -954.79854   -51.272487   -4519.7972 
23156000    134.79261   -4980.7492   -4720.7903   -4980.7492            0    1222.8529    19.948083    20.008329    20.879252      8333.49     1389.179    1293.2288    986.15099   -279.01215    1167.0687    215.40758   -4572.1704 
23157000    138.25476   -4968.9083   -4702.2723   -4968.9083            0     1650.114    19.874722    20.003028    20.895237    8306.9981    1757.3495    1679.4403    1513.5521   -17.613413    475.45453    1636.4848   -4502.3626 
23158000     134.8802   -4981.5663   -4721.4385   -4981.5663            0     1911.122    19.907381     20.12917    20.722035    8303.7143    2422.2389    1023.6001     2287.527    169.73411    1019.3374   -3.3901369   -4489.9994 
23159000    135.14374   -4976.2528   -4715.6167   -4976.2528            0    2674.3238    19.863959    19.997189    20.921515    8310.5139    4016.9179    2308.6426    1697.4111    223.98512    574.60144   -789.69133   -4391.4878 
23160000    140.63102   -4975.7964   -4704.5776   -4975.7964            0    1575.1154    20.054378    19.956199    20.944488    8382.1758     1148.356    2261.8895    1315.1006    289.00788   -337.25797    420.05494    -4512.027 
23161000    136.05718   -4977.7819   -4715.3842   -4977.7819            0    2129.8803    20.101419    19.918784    20.731458    8300.7894     1770.017    2554.7758    2064.8482   -896.29243    52.378312   -1025.4301   -4457.5441 
23162000    135.35321   -4965.5035   -4704.4635   -4965.5035            0    596.89617    20.027252    19.954839    20.940267    8368.5808    666.91864    806.79494    316.97494   -201.18456    615.77708   -350.61548    -4631.614 
23163000    139.54421   -4973.0136   -4703.8909   -4973.0136            0    2643.5411    19.964739    19.927398    20.922515    8323.9242    1616.6377    3662.1905    2651.7952   -51.331418    777.55605    305.65743   -4382.9758 
23164000    129.84135   -4966.2487   -4715.8387   -4966.2487            0    1415.7731    19.971547    20.005549    20.865886    8336.7926    1746.3007    1624.2618    876.75677   -133.38621    1069.0311    81.859424   -4543.7039 
23165000    140.56766   -4980.5799   -4709.4833   -4980.5799            0    1867.5266    20.059466    20.038839    20.700918     8321.115    1039.5091    2129.5545    2433.5163   -741.01747   -285.98601    546.64215   -4482.8497 
23166000    132.92983   -4957.0915   -4700.7251   -4957.0915            0    1419.0551    20.041697    19.957133    20.940082    8375.5049    1301.7251     1688.502    1266.9381   -244.12099    493.24697    644.70306   -4527.3902 
23167000    139.12221     -4974.37   -4706.0612     -4974.37            0    2408.2517    20.007672     19.82828    20.938329    8306.6061     1505.845    3319.6111     2399.299   -38.068044    1217.6503    446.01818   -4414.3175 
23168000    140.35092   -4957.9805   -4687.3019   -4957.9805            0    2296.3874    19.945679    20.001567    20.853837    8319.5304    2121.0878    3206.0521    1562.0224   -361.10577    394.35155   -1254.1641   -4408.6771 
23169000    140.28614   -4958.3202   -4687.7666   -4958.3202            0       3253.1    19.990057    20.042904    20.665404    8279.7763    2883.0724    4054.4545    2821.7732    134.54465   -338.40137   -829.61554   -4294.9481 
23170000     136.5886    -4967.032   -4703.6094    -4967.032            0     2296.061    20.016649    19.964466    20.891125    8348.5473    2225.5953    2657.9692    2004.6184   -174.99332   -240.27461    514.65744   -4424.0525 
23171000    139.76911   -4967.7689   -4698.2124   -4967.7689            0    666.35997    20.070858    19.964751    20.900606    8375.0755    514.31792    339.52646    1145.2355   -631.45347   -729.06007   -799.49977   -4616.8219 
23172000    139.88364   -4987.2835   -4717.5062   -4987.2835            0    2647.4146    20.036977     20.02981    20.856327    8370.4123    2074.8711    3202.8688     2664.504   -376.35027    847.17742   -254.37364    -4394.326 
23173000     133.8583   -4978.4539   -4720.2969   -4978.4539            0    750.72699    20.194948    19.885835    20.906832     8396.046   -470.69591    2432.4803     290.3966    273.95322    398.12337   -353.25835   -4628.3721 
23174000    138.02763   -4973.7554   -4707.5575   -4973.7554            0    1866.9457    20.081297    19.885098    20.934687    8359.6094    62.229988    2260.2059    3278.4012   -505.61127    1028.3222   -91.667407   -4479.9463 
23175000    133.80267   -4971.8295   -4713.7798   -4971.8295            0    1795.1818    19.938802    20.054129    20.880515     8349.185     2655.074    552.54825     2177.923    112.62076   -635.94775    181.96516   -4495.1907 
23176000    138.92001   -4991.3995   -4723.4806   -4991.3995            0    1804.0202    19.963528    20.008808    20.805524    8310.6915    3031.6595    -19.82848    2400.2297   -10.051049    833.88905    342.55948   -4504.8281 
23177000    138.08011   -4972.3228   -4706.0237   -4972.3228            0    1230.1853    19.974049    20.156065    20.740997    8350.2886    451.19296    1645.3115    1594.0515   -200.43999    365.85503    -92.52413   -4556.2112 
23178000     138.1416    -4970.855   -4704.4373    -4970.855            0    1784.0133    20.050689    19.905189    20.874187    8331.1543    2279.1915    2173.3302    899.51817    386.73547     1544.586   -174.04817   -4487.6773 
23179000    140.41664   -4965.0958   -4694.2905   -4965.0958            0     1239.185    19.940817    20.025008    20.950538    8365.8642    1817.8212    1210.2596    689.47424   -5.9147922    259.41273   -580.94062   -4543.1006 
23180000    144.82194   -4973.9026   -4694.6013   -4973.9026            0    1144.7987    20.020103    20.002787    20.851729    8350.2388    2661.5626   -79.632927    852.46652   -344.11591    682.03555   -912.23133   -4555.1881 
23181000    138.87249    -4979.432   -4711.6047    -4979.432            0    1716.9294    20.077509    19.974356    20.840248    8357.6752    1155.8088    2608.8869    1386.0926   -242.19736    79.895603   -876.14046   -4502.3314 
23182000    138.27346   -4976.6281   -4709.9561   -4976.6281            0    499.72668    20.126767    20.043876    20.751769    8371.6455    948.66977    228.80104    321.70924     153.4328   -558.64591   -689.96306   -4648.9435 
23183000    132.15256   -4977.5223    -4722.655   -4977.5223            0    1676.8118    19.963898    20.111801    20.851204    8371.9654    2337.6476    1875.9869    816.80085    33.389961    335.34443   -39.922994   -4517.9221 
23184000    140.63254   -4993.9179   -4722.6962   -4993.9179            0    1799.6973    19.890088     20.04062    20.931307     8343.422    2757.3599    2238.2915    403.44059    417.59914    597.24141    387.54239   -4503.7086 
23185000    141.09799   -4967.3428   -4695.2235   -4967.3428            0    2362.8192    20.020364    20.010413    20.836603     8347.471    2191.4418    1917.0161    2979.9998   -374.26923   -11.338726    311.19624   -4407.5755 
23186000     133.9848   -4950.8169   -4692.4159   -4950.8169            0    2696.5051     20.10796    19.943367    20.770404    8329.3563    2413.1275    3001.5967    2674.7912   -120.55585   -524.32227    366.55117   -4364.8576 
23187000    142.91039   -4986.5726   -4710.9579   -4986.5726            0    3284.6775    19.909832    19.994416    20.720446    8248.5086    5045.0919    1105.7663    3703.1744    177.34168    775.41822    238.08925   -4315.8242 
23188000    138.82934   -4967.3725   -4699.6284   -4967.3725            0    1103.4473    19.919904    20.057572     20.95323    8371.7566     1431.673    1167.7647    710.90429   -262.80481    -32.90114   -2.7192528   -4564.9047 
23189000    129.53391   -4974.5428   -4724.7257   -4974.5428            0    689.25674    20.064345     19.86995    21.022336     8381.133   -163.24153    2128.7101    102.30168   -150.50638    303.41608   -712.32366   -4640.4777 
23190000    134.56655   -4944.3034   -4684.7805   -4944.3034            0    2384.0243    20.133205    19.917308    20.700415    8300.8508    1998.0326    1644.9261    3509.1143   -242.49725   -10.809183   -399.48627    -4396.172 
23191000    137.06323   -4968.1203   -4703.7823   -4968.1203            0      2543.68    19.956781    20.052346    20.841375    8340.3074    2914.7589     2221.724     2494.557   -186.34919    622.87982   -1561.0993   -4394.3823 
23192000    136.26134    -4963.382   -4700.5906    -4963.382            0    1627.1221    19.800808    20.101081    21.078113     8389.461    3055.0927    862.49718    963.77643   -717.38677   -463.41729   -223.31916   -4501.5095 
23193000    136.10058   -4967.2732   -4704.7918   -4967.2732            0    3379.5808    19.980481    20.008443    20.708546    8278.8273    3741.1403    3967.5222    2430.0799    335.40639    1130.7342    192.34695   -4296.7473 
23194000    143.41429   -4969.7658   -4693.1793   -4969.7658            0    3119.8289    19.957043    20.002295    20.699072    8262.7937    2650.8271    3754.9842    2953.6752   -168.98365   -328.25113    871.04678   -4317.2262 
23195000    135.68333   -4970.1851   -4708.5084   -4970.1851            0    609.21434    20.043911    20.126053    20.853077    8412.2319    1657.9525   -604.33167    774.02215   -121.42549    463.64478   -432.59943   -4633.7677 
23196000    137.62735   -4977.5909   -4712.1649   -4977.5909            0    3293.8915    19.987767    19.849235    20.923564    8301.2541    3340.7557    3754.0784    2786.8402   -562.93788    402.70639    674.42574   -4313.3891 
23197000    137.78891   -4977.9441   -4712.2066   -4977.9441            0    1706.4695    19.957185    20.017557    20.917274    8356.3271    2890.4889    902.55044     1326.369    359.95993   -663.10997    -1235.574   -4504.2418 
23198000     137.1104   -4968.4098   -4703.9809   -4968.4098            0     2315.323    19.929215    20.068097    20.830701    8331.0601    1126.1382    3394.8558    2424.9751   -448.29191     268.6888    265.45667   -4422.6692 
23199000    141.46184   -4963.6115   -4690.7904   -4963.6115            0    1734.0485    20.064692    19.963625     20.82182    8340.4715   -832.02371    4183.3448    1850.8245   -263.44067   -597.35182    79.205426   -4479.8655 
23200000    134.42412   -4973.2352   -4713.9869   -4973.2352            0    1779.8044    19.974412    19.981062     20.96725    8368.2385    3463.6159    918.78072    957.01668    231.65564     14.64725    666.89693   -4496.7757 
23201000    129.51784   -4961.8115   -4712.0254   -4961.8115            0    1575.7601    19.964015    19.969287    20.923944    8341.6889    1455.4998    1937.4241    1334.3563   -322.17654    36.558724   -99.328385   -4520.3264 
23202000    138.00262   -4974.3275   -4708.1778   -4974.3275            0     1057.615    20.097165     20.08634    20.702976    8357.3459    646.06135    527.43758     1999.346   -58.394735   -17.415176    584.95528   -4579.2722 
23203000    134.67439   -4980.9344   -4721.2035   -4980.9344            0    2768.7945    20.005304     20.10903     20.74733    8346.3864    5677.1915     689.8324    1939.3597     18.15376    1080.3982    29.426421   -4384.1762 
23204000    133.35974   -4977.3327   -4720.1372   -4977.3327            0    1428.9531    20.098795    19.939142    20.844733    8353.5836    411.77369    2144.5885    1730.4972   -153.79531    588.92598   -445.38818     -4546.05 
23205000    134.65923   -4984.4786    -4724.777   -4984.4786            0    2425.1512    20.105653     19.83609     20.80863    8298.8466    1754.4543    2633.8713     2887.128   -360.87817    1936.0106   -961.14916   -4431.2605 
23206000    138.27248     -4987.97   -4721.2999     -4987.97            0    2368.1764    20.112357    19.860669    20.831258    8320.9388    3559.7438    1734.8936    1809.8918    26.024084     298.6703     420.2087   -4433.9162 
23207000    136.44667   -4971.3518   -4708.2029   -4971.3518            0    2307.8352    20.206289    20.009514    20.558673    8312.2421    1224.3217    2185.2102    3513.9738   -361.61026   -850.05129   -392.21003   -4428.4344 
23208000    137.00606   -4965.5295   -4701.3018   -4965.5295            0    1873.9592    19.999675     19.95407    20.922281    8349.5572    2331.0826    1265.0303    2025.7648   -209.06556   -414.84784   -1040.1495   -4473.1103 
23209000    135.44768   -4968.8149   -4707.5927   -4968.8149            0    2820.2674     20.15235    19.780779    20.744757    8269.4654    2018.4188    4796.2149    1646.1686    127.20449    1373.0283    868.51954   -4367.4637 
23210000     145.9548   -4972.0449   -4690.5588   -4972.0449            0     1022.744    20.107755    20.021898    20.801348    8374.5272    2035.2776    460.51288    572.44154   -23.434785   -83.555529    406.63907   -4565.6471 
23211000    138.55582   -4969.6613   -4702.4447   -4969.6613            0    1629.0427    20.027274    20.009268    20.858827    8358.7805    2321.5242    1213.1276    1352.4764     -311.076    300.04412    208.74674   -4503.8575 
23212000    133.73132     -4962.58   -4704.6679     -4962.58            0    2456.3676    20.060074    19.946912    20.703064    8284.0521    1685.7892    2429.5025    3253.8112   -399.82868   -320.19659    68.487855   -4407.9033 
23213000     144.7246   -4975.0572   -4695.9436   -4975.0572            0    1999.5233    20.064684    19.926576    20.842297    8333.1768    1845.0576    2039.3177    2114.1946   -64.780682    959.62992   -225.67448   -4452.9399 
23214000    140.67741    -4978.681   -4707.3728    -4978.681            0    431.47709    20.029742    19.955869    20.949519    8373.7515     640.7876    518.86848    134.77518    -95.44224    192.55533    661.68004   -4654.6797 
23215000    136.15067   -4994.5876   -4732.0096   -4994.5876            0    2226.4455    20.033794    19.960714    20.683421    8271.0688     1614.389    1823.6228    3241.3248   -448.13565    202.97464    554.80123   -4463.4445 
23216000    133.90757   -4972.5326   -4714.2806   -4972.5326            0     1496.952     20.01862    19.883667     20.84582    8297.5448    960.70669    1724.6139    1805.5355   -467.98567    285.14018   -933.97659   -4533.1326 
23217000    130.16261    -4975.433   -4724.4035    -4975.433            0    3085.9915      20.0889     19.71817    20.944642    8296.5151    1851.5218    4612.9691    2793.4837    102.40057    206.23567   -176.06616   -4351.0103 
23218000    139.10901    -4962.915   -4694.6316    -4962.915            0    2094.6015    19.972212    20.028815    20.857154    8343.2732    1889.8103    1464.3103     2929.684   -192.71091   -682.11466   -904.67762   -4439.7645 
23219000    137.19627   -4966.8088   -4702.2142   -4966.8088            0    2976.6738    20.065495    20.123056    20.574514    8307.5582    2538.4036    2119.2325    4272.3854    32.064615   -851.90949   -39.667519   -4341.5687 
23220000    139.86016   -4992.2884   -4722.5563   -4992.2884            0    1722.7564    20.057574    19.902873    20.883908     8336.926    3060.8257    1094.4376    1013.0058   -253.15356     576.4269   -147.30608   -4513.0941 
23221000    135.81673   -4970.7525   -4708.8185   -4970.7525            0     2285.905     20.14337    19.881133    20.810519    8334.0513    1778.2752    2466.2017    2613.2383   -502.75497   -104.84827   -39.985724   -4430.9814 
23222000    130.11763   -4970.6577   -4719.7149   -4970.6577            0    1411.3205    20.161484     19.87819    20.960876    8400.5699    430.64744    1775.9846    2027.3294   -504.56096    593.82803    1277.7201   -4546.8089 
23223000    132.22191    -4970.636    -4715.635    -4970.636            0    1003.4734    20.023213    19.968452    20.859514    8340.3129    870.97441    1553.7697    585.67617    92.486691    7.5177021     105.5629   -4593.5776 
23224000    135.38183   -4969.3951   -4708.2999   -4969.3951            0    1962.7522    19.870344    19.990053    20.956121    8323.9647    2902.4378    960.35949    2025.4595    36.304581    263.41498   -1847.3515   -4470.0287 
23225000    134.94051   -4979.8807   -4719.6366   -4979.8807            0     3278.171    19.960964      19.9536    20.886524    8318.9583     1950.171    4096.7932    3787.5488    290.97072    651.55027    702.49352   -4321.9175 
23226000    135.18654   -4969.4063   -4708.6877   -4969.4063            0    1462.6271    20.082344    19.993134    20.875581    8381.7339    1193.2236    1431.0451    1763.6127   -401.36284   -111.27907    248.22853   -4529.8976 
23227000    145.52019   -4956.6468   -4675.9988   -4956.6468            0    1344.5598    20.120232    20.033202    20.790553    8380.1035    1920.9355    569.13018    1543.6137   -259.12534    604.42719    848.39005   -4511.6732 
23228000    138.94476   -4964.9752   -4697.0086   -4964.9752            0    2076.9822    19.980561    20.011604    20.871685     8345.399    2531.6301    1880.1256    1819.1907   -6.2667999    208.75203   -8.0511984    -4444.221 
23229000    141.24641   -4976.5684   -4704.1628   -4976.5684            0    132.34074    20.067985    20.076594    20.969285    8448.4571    812.65848   -330.42518   -85.211082   -328.39616    403.38688   -170.05212   -4687.8568 
23230000    140.79356   -4959.9938   -4688.4616   -4959.9938            0    2137.4889    19.988582    20.022376    20.914772    8370.4869    2491.5292    2250.7231    1670.2144   -704.64981   -203.88724   -550.63335   -4427.5277 
23231000    141.10845   -4966.5533   -4694.4138   -4966.5533            0    2703.9108    20.015173    20.116351    20.590664    8290.4655    2196.8388    2927.3839    2987.5097    136.95243    594.54623    786.07929   -4367.4895 
23232000    137.43943   -4972.6036   -4707.5401   -4972.6036            0    1469.1625    19.937162    20.053532    20.874188    8345.7199    1750.0056    1370.5269    1286.9551    215.15634    1211.3472   -1467.3659   -4528.7228 
23233000    137.24554   -4977.6155    -4712.926   -4977.6155            0    2214.9296    19.971155    19.855176    20.981195    8319.6902    1644.4347    3756.0737    1244.2805    -33.81932    812.92064   -312.17772   -4444.1794 
23234000    139.78927   -4967.8476   -4698.2523   -4967.8476            0    2103.2906    19.988269    19.999711    20.857936    8338.1601    3217.7831    897.56201    2194.5268   -483.41915    839.70791   -181.38042   -4442.4847 
23235000    136.64023    -4983.334   -4719.8118    -4983.334            0    1631.9412    20.081505    20.018177    20.671184     8309.715     1053.066    2645.5635    1197.1942     175.6876    407.88976   -664.30371    -4522.039 
23236000    135.78944   -4981.6157   -4719.7344   -4981.6157            0    2108.6106     20.10551    19.911016    20.808053    8329.9033    1292.8129    2349.6285    2683.3905   -75.388137   -703.69176   -326.34405   -4463.5739 
23237000    134.97429   -4966.2974   -4705.9882   -4966.2974            0    2049.0894    19.996534    19.816728    21.071715    8350.0021    2477.8919    2884.0637    785.31255   -187.76447    -847.7331    372.90962   -4456.4578 
23238000    139.82188   -4969.2002   -4699.5419   -4969.2002            0    1950.7778    20.063578    19.933927    20.832975    8332.0628    2162.3215    2216.0326    1473.9793   -385.72362    1034.5798    1012.2366   -4462.4939 
23239000    135.84016   -4970.9437   -4708.9645   -4970.9437            0    2630.8877    20.119677    19.946967     20.84669    8366.3297    1836.8496    3352.1755    2703.6378   -37.586863    -183.3034    899.82103   -4387.9585 
23240000    135.98088   -4965.3501   -4703.0995   -4965.3501            0    1963.1729    20.211021    19.881333    20.713573    8323.1702    792.13162    2703.2166    2394.1706   -242.85774    -880.9803   -543.12048      -4464.8 
23241000    129.68016   -4968.3814   -4718.2823   -4968.3814            0     1264.245    20.073703    19.846516    20.959793    8350.2364   -431.45399    2885.3953    1338.7937   -545.02416    581.37709     935.1645    -4564.323 
23242000    133.60518   -4967.4406   -4709.7718   -4967.4406            0    1070.7379    19.952849    20.082027    20.834629    8348.3035    995.39923    345.13603    1871.6785    -12.25286    76.047121   -305.75829   -4579.4079 
23243000    145.54999   -4978.7133    -4698.008   -4978.7133            0    1953.4023    19.954956    20.042144    20.699678    8278.6314    1646.9197    2383.9586    1829.3284   -153.81734    97.961434    946.14444   -4462.1633 
23244000    139.37872   -4966.9364   -4698.1328   -4966.9364            0    1545.5133     19.96902    20.010728    20.877547    8342.5554    1279.1436    1431.0915    1926.3048   -321.87987    612.29831    363.14401   -4510.0939 
23245000    143.21432   -4962.4901   -4686.2892   -4962.4901            0    1328.9819    19.857023    19.923244    21.235276    8401.0214    2346.4884    896.54982    743.90735    86.160659    166.79181    832.92218    -4523.462 
23246000    141.13925   -4969.7184   -4697.5195   -4969.7184            0    529.96156    19.988623    20.160795    20.690228    8337.8832    752.06677   -237.38946    1075.2074   -158.53037   -11.518734   -85.510468   -4633.0764 
23247000    138.56387     -4977.82    -4710.588     -4977.82            0    1824.7328    20.014001    20.026607    20.816627     8343.565    1337.6577    2289.3749    1847.1657   -53.555271   -101.07503   -567.14328   -4488.5502 
23248000    139.58222   -4967.2381   -4698.0421   -4967.2381            0    1454.2713    20.042142    19.884522    20.986662    8363.7812    3052.9091    505.94688     803.9578   -458.62562    102.33224   -435.19067   -4520.6542 
23249000    139.15267   -4985.0133   -4716.6456   -4985.0133            0    1856.3128    20.128085    19.946296    20.762983    8335.9375    1364.4227    2448.2912    1756.2246    -336.1381    -312.2191   -1051.4124   -4490.9716 
23250000    147.50727   -4967.9489   -4683.4687   -4967.9489            0    1847.5112    20.052171    19.892999    20.800061    8297.0991    2131.7651    2123.5313    1287.2372    -521.3127    1789.6629   -182.54855   -4459.9112 
Loop time of 335.664 on 64 procs for 250000 steps with 972 atoms

Performance: 128.700 ns/day, 0.186 hours/ns, 744.793 timesteps/s
195.1% CPU use with 32 MPI tasks x 2 OpenMP threads

MPI task timing breakdown:
Section |  min time  |  avg time  |  max time  |%varavg| %total
---------------------------------------------------------------
Pair    | 27.801     | 34.223     | 40.501     |  62.1 | 10.20
Bond    | 1.0202     | 1.1839     | 1.5429     |  10.1 |  0.35
Kspace  | 149.81     | 155.75     | 163.85     |  32.2 | 46.40
Neigh   | 0.92023    | 0.97042    | 1.0413     |   4.0 |  0.29
Comm    | 57.887     | 62.42      | 66.369     |  29.0 | 18.60
Output  | 0.55531    | 0.55566    | 0.55746    |   0.0 |  0.17
Modify  | 64.59      | 67.572     | 71.759     |  17.7 | 20.13
Other   |            | 12.99      |            |       |  3.87

Nlocal:        30.3750 ave          39 max          26 min
Histogram: 4 5 5 9 1 3 3 0 1 1
Nghost:        2617.66 ave        2647 max        2592 min
Histogram: 3 1 3 4 8 3 5 4 0 1
Neighs:        9500.81 ave       12535 max        7952 min
Histogram: 8 4 5 3 2 4 3 1 1 1

Total # of neighbors = 304026
Ave neighs/atom = 312.78395
Ave special neighs/atom = 2.0000000
Neighbor list builds = 3097
Dangerous builds = 0

unfix		3
unfix		2
unfix		1

write_data	data.final.${pid}
write_data	data.final.1
System init for write_data ...
PPPM initialization ...
  extracting TIP4P info from pair style
  using 12-bit tables for long-range coulomb (../kspace.cpp:340)
  G vector (1/distance) = 0.37246897
  grid = 24 24 25
  stencil order = 5
  estimated absolute RMS force accuracy = 0.0034002765
  estimated relative force accuracy = 1.0239832e-05
  using double precision FFTW3
  3d grid and FFT values/proc = 3458 576
Last active /omp style is kspace_style pppm/tip4p/omp
WARNING: Not all mixed pair coeffs generated from mixing. Use write_data with 'pair ij' option to store all pair coeffs. (../write_data.cpp:312)

write_restart   restart.lmp.${pid}
write_restart   restart.lmp.1
System init for write_restart ...
PPPM initialization ...
  extracting TIP4P info from pair style
  using 12-bit tables for long-range coulomb (../kspace.cpp:340)
  G vector (1/distance) = 0.37246897
  grid = 24 24 25
  stencil order = 5
  estimated absolute RMS force accuracy = 0.0034002765
  estimated relative force accuracy = 1.0239832e-05
  using double precision FFTW3
  3d grid and FFT values/proc = 3458 576
Last active /omp style is kspace_style pppm/tip4p/omp
Total wall time: 0:05:35
