LAMMPS (30 Jul 2021)
  using 1 OpenMP thread(s) per MPI task
package omp 0
using multi-threaded neighbor list subroutines
echo both

include		in.partitions
variable        pid world 0
include		in.temp
variable        temperature equal 252.38
variable	tempDamp equal 100.0
include		in.pressure
variable        pressure equal 5750.0
variable        pressureDamp equal 1000.0 # This is 1 ps
include		in.seed
variable        seed world 745823

units		real
atom_style	full
read_restart    restart.lmp.${pid}
read_restart    restart.lmp.0
Reading restart file ...
  restart file = 30 Jul 2021, LAMMPS = 30 Jul 2021
  restoring atom style full from restart
  triclinic box = (-3.2305505 -0.24209001 -0.093836468) to (14.840549 22.822089 19.323834) with tilt (0.032583161 -6.3075539 0.013702101)
  4 by 4 by 4 MPI processor grid
  restoring pair style lj/cut/tip4p/long/omp from restart
  restoring bond style harmonic/omp from restart
  restoring angle style harmonic/omp from restart
  1008 atoms
  672 bonds
  336 angles
Finding 1-2 1-3 1-4 neighbors ...
  special bond factors lj:    0        0        0       
  special bond factors coul:  0        0        0       
     2 = max # of 1-2 neighbors
     1 = max # of 1-3 neighbors
     1 = max # of 1-4 neighbors
     2 = max # of special neighbors
  special bonds CPU = 1.953 seconds
  read_restart CPU = 2.342 seconds

include 	in.setup
variable	out_freq equal 1000
variable	out_freq2 equal 10000
variable	out_freq3 equal 1000

timestep	2.0

neigh_modify    delay 7 every 1

include		in.tip4p
# This is TIP4P/Ice

# create groups ###
group ox type 2
336 atoms in group ox
group hy type 1
672 atoms in group hy

# set charges - beside manually ###
set group ox charge -1.1794
Setting atom values ...
  336 settings made for charge
set group hy charge 0.5897
Setting atom values ...
  672 settings made for charge

# ### TIP3P Potential Parameters ###
pair_style lj/cut/tip4p/long/omp 2 1 1 1 0.1577 8.5
pair_coeff 1 1*2 0.000 0.000
pair_coeff 2 2 0.21084 3.1668
bond_style  harmonic
bond_coeff  1 450 0.9572
angle_style harmonic
angle_coeff 1 55 104.52
kspace_style pppm/tip4p/omp 1.0e-5
pair_modify tail yes

thermo          ${out_freq}
thermo          1000
thermo_style    custom step temp pe etotal epair emol press lx ly lz vol pxx pyy pzz pxy pxz pyz enthalpy

restart 	${out_freq3} restart.lmp.${pid} restart2.lmp.${pid}
restart 	1000 restart.lmp.${pid} restart2.lmp.${pid}
restart 	1000 restart.lmp.0 restart2.lmp.${pid}
restart 	1000 restart.lmp.0 restart2.lmp.0


include         in.dump
dump            myDump all atom ${out_freq2} dump.water.${pid}
dump            myDump all atom 10000 dump.water.${pid}
dump            myDump all atom 10000 dump.water.0
dump            myDump2 all dcd ${out_freq2} dump.dcd
dump            myDump2 all dcd 10000 dump.dcd
dump_modify     myDump append yes
dump_modify     myDump2 append yes


variable natoms 	equal  "count(all)"                        # NUMBER ATOMS
variable H      	equal  "enthalpy/v_natoms"                 # ENTHALPY-per-atom
variable Vol      	equal  "vol/v_natoms"                 # volume-per-atom
fix AVG all 		ave/time ${out_freq} 1 ${out_freq} v_Vol v_H file vol_enthalpy.dat
fix AVG all 		ave/time 1000 1 ${out_freq} v_Vol v_H file vol_enthalpy.dat
fix AVG all 		ave/time 1000 1 1000 v_Vol v_H file vol_enthalpy.dat



fix 		1 all shake 1e-6 200 0 b 1 a 1
       0 = # of size 2 clusters
       0 = # of size 3 clusters
       0 = # of size 4 clusters
     336 = # of frozen angles
  find clusters CPU = 0.241 seconds
fix             2 all nph tri ${pressure} ${pressure} ${pressureDamp}
fix             2 all nph tri 5750 ${pressure} ${pressureDamp}
fix             2 all nph tri 5750 5750 ${pressureDamp}
fix             2 all nph tri 5750 5750 1000
fix             3 all temp/csvr ${temperature} ${temperature} ${tempDamp} ${seed}
fix             3 all temp/csvr 252.38 ${temperature} ${tempDamp} ${seed}
fix             3 all temp/csvr 252.38 252.38 ${tempDamp} ${seed}
fix             3 all temp/csvr 252.38 252.38 100 ${seed}
fix             3 all temp/csvr 252.38 252.38 100 745823


run             250000
PPPM initialization ...
  extracting TIP4P info from pair style
  using 12-bit tables for long-range coulomb (../kspace.cpp:340)
  G vector (1/distance) = 0.38274116
  grid = 24 30 32
  stencil order = 5
  estimated absolute RMS force accuracy = 0.0020024533
  estimated relative force accuracy = 6.0303286e-06
  using double precision FFTW3
  3d grid and FFT values/proc = 4080 384
Last active /omp style is kspace_style pppm/tip4p/omp
Neighbor list info ...
  update every 1 steps, delay 7 steps, check yes
  max neighbors/atom: 2000, page size: 100000
  master list distance cutoff = 10.8154
  ghost atom cutoff = 10.8154
  binsize = 5.4077, bins = 5 5 4
  1 neighbor lists, perpetual/occasional/extra = 1 0 0
  (1) pair lj/cut/tip4p/long/omp, perpetual
      attributes: half, newton on, omp
      pair build: half/bin/newton/tri/omp
      stencil: half/bin/3d/tri
      bin: standard
Per MPI rank memory allocation (min/avg/max) = 9.339 | 9.345 | 9.348 Mbytes
Step Temp PotEng TotEng E_pair E_mol Press Lx Ly Lz Volume Pxx Pyy Pzz Pxy Pxz Pyz Enthalpy 
 5250000    259.73458   -4808.8518   -4289.3505   -4808.8518            0    4942.3795      18.0711    23.064179    19.417671    8093.1898    5800.4754    4492.4766    4534.1864   -219.42905   -765.85404    625.74184   -3705.9972 
 5251000    251.19048   -4840.6836   -4338.2716   -4840.6836            0    4826.9764    18.077415    23.038761    19.419069    8087.6776    5879.4613    4043.8947     4557.573   -1889.7037    -10.58252   -481.67284   -3768.9275 
 5252000    251.48366   -4834.9896   -4331.9912   -4834.9896            0    3863.9388    18.355254    22.894436    19.336862    8125.9913    1641.5869     4740.101    5210.1286     414.9041    1501.8427    2085.5937   -3874.0787 
 5253000    251.19693   -4839.3973   -4336.9724   -4839.3973            0    7101.4964    18.086153    22.727223    19.469335     8002.832    7468.1829     7682.051    6154.2553   -315.66557    1571.7837   -1406.0482   -3508.1348 
 5254000    241.43188   -4853.9969   -4371.1033   -4853.9969            0    5502.5576    18.280633    22.798154    19.331573    8056.7165    4703.3222     5710.574    6093.7767   -583.11194    302.85167   -2274.0259   -3724.5586 
 5255000    257.66892   -4838.2126   -4322.8429   -4838.2126            0    6233.1827    18.126224    22.843073    19.362654    8017.2743    4485.1349    7582.2198    6632.1933    717.35522     1611.716    2182.8589    -3594.036 
 5256000     252.4857   -4813.0005   -4307.9979   -4813.0005            0    5569.0112    18.117562    23.025817    19.335053    8066.0363    4779.8518    5825.7634    6101.4184    707.10587   -58.757861    761.84675    -3652.888 
 5257000    261.16467    -4854.739   -4332.3774    -4854.739            0    6608.4616    17.969305    23.109079    19.221578    7981.8384    6735.6791    5533.6141    7556.0916    934.78061   -58.972013   -1000.9572   -3563.1067 
 5258000    259.14783   -4844.2673   -4325.9397   -4844.2673            0    5715.6048    18.095342     23.11462    19.267355     8058.898    4775.6435    6441.3039    5929.8671   -17.752148    908.05417    397.90819   -3654.1803 
 5259000    247.64237   -4786.5879   -4291.2726   -4786.5879            0    6474.7158    17.961458    23.299317    19.242271    8052.6924    5938.7697    6820.0148    6665.3629    1312.0355    1433.7581     3.403654   -3530.8803 
 5260000    264.18805   -4837.3856   -4308.9769   -4837.3856            0    5017.0781    18.125885    23.022511    19.303821    8055.5501    4816.1878    5150.9316    5084.1149    -454.8002   -799.96154    -949.9197   -3719.5608 
 5261000    256.71944   -4845.9608   -4332.4902   -4845.9608            0    7051.5765    17.981175    22.880758    19.367695    7968.3137     6664.033     7295.147    7195.5496    1391.6113   -1201.7484   -754.22067   -3513.0287 
 5262000    270.58131    -4827.299   -4286.1029    -4827.299            0    6193.4399    18.137303    22.896036    19.412398    8061.4322    6319.8929    5979.4938     6280.933   -217.92715    800.21288    411.53974   -3557.9543 
 5263000    264.96734   -4821.8837   -4291.9163   -4821.8837            0    5888.7579    18.207842    22.765043    19.429181    8053.4405    6545.3788    4904.6944    6216.2004    760.23149    1209.7275     187.1798   -3600.2748 
 5264000    251.84529   -4842.0721   -4338.3504   -4842.0721            0    5751.0115    18.172611    22.708539    19.482228    8039.7984    5771.6341    5792.8856    5688.5148    208.37985   -175.72651    10.752009   -3664.0315 
 5265000     269.8439   -4865.9489   -4326.2278   -4865.9489            0    5577.4764    18.265761    22.710776    19.350921    8027.3346    5005.7688    6384.9206      5341.74   -874.73567   -336.41512   -316.12822   -3673.2701 
 5266000    266.50756   -4852.6188   -4319.5708   -4852.6188            0    7024.0938    18.049218    22.699943    19.553979    8011.5823    7544.9069    7192.6117    6334.7627    1349.9111   -659.06081    601.33654   -3498.8707 
 5267000    251.28067   -4823.8007   -4321.2083   -4823.8007            0     7607.115    18.273215    22.752357    19.245193    8001.3568    5365.8487    8313.4835    9142.0128   -1037.6743    525.22754   -1444.0854    -3433.522 
 5268000    251.72224    -4861.928   -4358.4524    -4861.928            0    4606.7843    18.006531    22.942852    19.474498    8045.3273    5748.0965    4155.2538    3917.0025   -1135.0896   -622.29968    479.58936   -3817.9253 
 5269000    250.42509   -4828.4899   -4327.6087   -4828.4899            0    6065.6122    18.000792    23.157526    19.260745    8028.9148    5526.8008    5505.4212    7164.6147   -996.61257    664.86511    2163.7533    -3617.365 
 5270000    260.80185   -4858.5214   -4336.8855   -4858.5214            0     4031.591    17.885232    23.263217    19.383402    8064.8139    4945.9176    3047.9424     4100.913   -1558.6708    1139.8735   -18.107895   -3862.7017 
 5271000    246.81097    -4831.568   -4337.9156    -4831.568            0    6314.5035    17.962305    23.115698    19.236164    7987.0713     6516.015     5865.162    6562.3334    893.95197   -551.50414    1711.9295   -3602.3817 
 5272000    242.67734   -4811.3568   -4325.9722   -4811.3568            0    5319.9412    18.108004    22.976036    19.380116    8063.1004    5584.7685    4602.8628    5772.1924   -1413.1427   -410.11326   -2065.3581   -3700.3894 
 5273000     246.1691   -4851.3531   -4358.9844   -4851.3531            0    5877.2525    18.140434    22.779968    19.429597     8029.058    5120.0175    6155.3894    6356.3507    1153.0063    43.851874    885.30935   -3670.7842 
 5274000    262.55737   -4805.5741   -4280.4269   -4805.5741            0    5202.4106    18.179398    22.767509    19.520842    8079.6688    4633.1797     6465.278    4508.7739    1545.4318   -487.59754    2037.5053   -3667.4077 
 5275000    257.02991   -4822.8154   -4308.7238   -4822.8154            0    4617.0373    18.293921    22.520975    19.610635    8079.5213    5010.8772    5781.7907    3058.4442    497.54928   -1018.3706   -896.11797   -3764.6912 
 5276000    254.23648   -4814.9768   -4306.4724   -4814.9768            0    3643.6823    18.252617    22.606297    19.657277     8111.066    2349.5994    4296.3617    4285.0857    121.80788    353.46078   -1514.4353   -3875.4555 
 5277000    262.42899   -4823.1298   -4298.2394   -4823.1298            0    4436.9711    18.229736    22.843513    19.470934    8108.3043    4539.4449    4370.6489    4400.8197    119.61547    738.12415   -592.59911   -3773.5618 
 5278000     243.3398   -4823.8636   -4337.1539   -4823.8636            0    6142.5943    18.056115    22.887408    19.386632    8011.6744    6405.2694    6190.7226     5831.791    886.09026   -168.61004    371.03033   -3619.4406 
 5279000    251.00097   -4827.6928   -4325.6598   -4827.6928            0    4868.4187    17.944538    23.114395    19.437556    8062.2537    5792.8092    3620.4022    5192.0445   -1334.8842   -658.90567   -967.09421   -3753.2326 
 5280000    263.04187   -4823.5994   -4297.4831   -4823.5994            0    7705.4065    17.998098    22.997795    19.318407    7996.2087    7818.5551    8156.9702     7140.694    766.72572    652.43118     395.8527   -3398.9056 
 5281000    255.42116   -4807.2256   -4296.3518   -4807.2256            0    2413.0566    18.236491    23.136215    19.359609    8168.2718    1815.0424    2316.1032    3108.0241   -124.90385   -436.67305   -1554.0491   -4008.8943 
 5282000    254.25495   -4823.8403    -4315.299   -4823.8403            0      4799.28    17.907383    23.214461    19.439675     8081.272    6254.6711    3767.0186    4376.1503   -2202.8847   -469.19443   -1390.1233     -3749.67 
 5283000    254.08911   -4829.0804   -4320.8708   -4829.0804            0    5467.5305    18.124743     22.87205    19.422136    8051.4475    5335.3495    6152.0492    4915.1928   -828.53848     657.2338   -186.22904   -3678.8618 
 5284000    233.71903   -4823.0916   -4355.6247   -4823.0916            0    5432.6518    18.271224    22.657788    19.469209     8059.971     5803.779    5879.8616    4614.3147   -407.37607   -495.70669   -182.78236    -3717.036 
 5285000    241.48181   -4836.7404    -4353.747   -4836.7404            0    5944.1924    18.002311    22.864218    19.479643    8017.9917    8475.1696    5632.1128    3725.2947    1077.6112    115.89726   -1244.1465   -3658.6677 
 5286000     246.7712   -4849.3605   -4355.7876   -4849.3605            0    5073.8574    18.236198    22.875556    19.256149    8032.9558    3260.2048    5483.4193     6477.948    676.77709    38.508525    955.10238   -3761.3729 
 5287000     257.1431   -4838.2399   -4323.9219   -4838.2399            0    6146.3186     18.04357    22.763265    19.500055    8009.2686    6465.2546    5954.2608    6019.4406   -122.05653   -151.90329   -1697.9903   -3605.9891 
 5288000    242.29571   -4817.0186   -4332.3972   -4817.0186            0    6107.3563    18.140962    22.700596    19.554927     8052.927    6552.1934    6122.2768    5647.5986    795.39165   -1611.1177     2.598043   -3615.1268 
 5289000    259.21569   -4849.9765   -4331.5131   -4849.9765            0     5109.163    18.096537    22.882531    19.373193    8022.3338    5607.2213    4862.7718    4857.4958    1494.0025   -1381.6075    1276.4442   -3733.7537 
 5290000    251.20955   -4827.2707   -4324.8205   -4827.2707            0    6062.7273    18.086411    22.853249    19.500198    8060.0803    7478.7823    5613.6751    5095.7246   -769.74594     78.20835    -1497.937    -3612.159 
 5291000     244.7013    -4808.231   -4318.7982    -4808.231            0    5874.7888    18.075904    23.085383    19.326281    8064.6475    6033.4497    5383.1258    6207.7909   -377.80742   -434.04778    252.33264   -3627.8371 
 5292000    264.18799    -4842.059   -4313.6504    -4842.059            0    5867.1481     17.85593    23.184378    19.309849    7993.8647     6826.677    4936.9699    5837.7973   -806.78457    -621.0214   -779.65567   -3629.6447 
 5293000    257.48767   -4827.6705   -4312.6633   -4827.6705            0    4669.6544    18.089154    23.189746    19.271138    8083.9128    4563.4763    3747.7742    5697.7126   -476.23026   -2.9772401     340.8501   -3762.1318 
 5294000    250.66736   -4857.2937    -4355.928   -4857.2937            0    7493.2686    17.980301    23.019787    19.244304    7965.2697    7016.9372    8512.0254    6950.8433     1636.373    540.57425    -348.9909   -3485.4703 
 5295000    246.30236   -4842.9645   -4350.3294   -4842.9645            0    5983.3646     18.07301    22.926321    19.339101    8013.1108    6063.2229    6730.2582    5156.6126   -104.18042   -36.497011   -856.26136   -3651.0954 
 5296000    250.10536   -4850.4665   -4350.2248   -4850.4665            0    5581.4373     17.93329    23.000917    19.469753    8030.9248    5503.1762    5820.1466    5420.9891     1723.714   -289.66169    1257.4287   -3696.5113 
 5297000    249.39483   -4824.9192   -4326.0987   -4824.9192            0     6410.246    18.030686    22.964184    19.342865    8009.1068    5559.3411     6743.286     6928.111   -806.51943    -1190.338   -2997.0579   -3577.3524 
 5298000    245.35781   -4843.8485   -4353.1026   -4843.8485            0    5968.5587    18.082913    22.983252     19.36978    8050.1608    4941.8806    6832.5759    6131.2196    1011.9534    777.80144   -1183.0657   -3652.3739 
 5299000     267.9713   -4835.0925   -4299.1168   -4835.0925            0    8460.7476    18.145411    22.745066      19.3818    7999.2285    7680.2638    8902.4581    8799.5209    1052.7925    985.89674   -2135.2487   -3312.0813 
 5300000     244.5366   -4834.6081   -4345.5047   -4834.6081            0    5780.2402    18.145972    22.735115    19.560581    8069.7326    5775.8105    5604.2752    5960.6348    35.798353     1064.972   -135.40859   -3665.2353 
 5301000    264.21111   -4786.6627   -4258.2078   -4786.6627            0    5602.7694    18.145957     22.82883     19.52452     8088.051    3362.9975    6598.9144    6846.3964    674.82328    147.77801   -341.04263   -3597.3279 
 5302000    245.44743   -4846.5785   -4355.6533   -4846.5785            0    6187.5664    18.161577    22.823802    19.377669    8032.3586    4748.3709    6191.7703     7622.558    956.84739   -770.63105    294.40768   -3630.8188 
 5303000    254.17044    -4873.163   -4364.7907    -4873.163            0    6573.3835    18.080277    22.761435    19.397558     7982.736    6459.3283    5974.2075    7286.6146    1534.7107   -1717.5481   -682.76067   -3599.5173 
 5304000    264.41544   -4827.6659   -4298.8023   -4827.6659            0    4800.0635    18.165125     22.88147    19.486462     8099.446    2543.1842    5495.3267    6361.6796   -240.62971    36.508058   -1539.0324   -3731.8087 
 5305000    263.98423   -4830.0058   -4302.0047   -4830.0058            0    6216.1516    18.136901    22.964589    19.274177    8027.8197    5518.0777    6052.2697    7078.1074   -259.04282   -759.83187   -1104.0639   -3574.2331 
 5306000    266.29488   -4819.7753   -4287.1526   -4819.7753            0    5036.2059    17.826905    23.154212    19.650801    8111.2203    5832.7954    4262.7362    5013.0859    803.53948    756.44829   -131.40166   -3691.4006 
 5307000    239.89334   -4845.7678   -4365.9515   -4845.7678            0    4902.2533    18.217278    22.985976    19.291221    8078.0429    3809.5332    5151.6573    5745.5693   -57.368404   -558.61717    419.11282   -3788.4171 
 5308000    249.16815   -4821.9456   -4323.5785   -4821.9456            0    4598.2491     18.00532    22.848077    19.607021    8066.0719    5384.2982    4903.6519     3506.797    559.74823   -1481.1736    665.30179   -3782.6617 
 5309000    246.79933   -4828.6743   -4335.0452   -4828.6743            0    4373.4662    18.197543    23.003508    19.270594    8066.8116    3208.0324    5442.2482    4470.1179   -1578.2977    238.70884    827.41154   -3820.5236 
 5310000    247.00376   -4827.0067   -4332.9687   -4827.0067            0     5861.063    17.972161    22.996229    19.476679    8049.5541    6479.6928    5457.2766    5646.2194   -1126.4104    -450.0243   -288.79917   -3644.9122 
 5311000    255.65402   -4821.7617   -4310.4221   -4821.7617            0    5207.5115    18.253256    22.885724    19.326587    8073.4688    4019.9859    4917.7026     6684.846    720.83358    442.97666    2039.8615   -3697.2727 
 5312000    270.08091   -4815.7574   -4275.5622   -4815.7574            0    5900.2912    18.010384    22.928859    19.576852    8084.4087    6078.2914    5212.2997    6410.2827   -1281.2968   -525.70613    127.47809   -3579.9013 
 5313000    267.80319   -4826.7009   -4291.0614   -4826.7009            0    3927.7699    18.129853    23.176991    19.268652    8096.5996    3907.4226    3590.6449    4285.2423   -231.47164   -732.91758    826.17585    -3827.268 
 5314000    249.39438   -4830.8084   -4331.9888   -4830.8084            0    4898.3547    17.937032    23.098828    19.453285     8059.971     4195.419    5606.0135    4893.6318   -266.17104   -47.589552    992.46846   -3756.2048 
 5315000    245.50637   -4844.7403   -4353.6972   -4844.7403            0    5231.0027    18.106958    23.147554    19.178647    8038.3806      4476.14    4114.0814    7102.7865   -1389.8588    -610.1909    690.81551   -3740.4588 
 5316000    254.17283   -4798.3137   -4289.9366   -4798.3137            0    5264.2497    18.077671    22.826616    19.624019    8097.8916      5905.48    5406.7478    4480.5211     416.5406   -163.12856     294.5312   -3668.2316 
 5317000    245.32131   -4837.2805   -4346.6076   -4837.2805            0    6377.9886    18.161871    22.774176    19.330642    7995.5718    6596.1472    6076.3971    6461.4214   -400.22561    1408.3168   -1598.9914   -3602.8881 
 5318000    246.48857   -4817.6939   -4324.6863   -4817.6939            0    5466.4674    18.183883    22.850086    19.357828    8043.2415    4326.1936    6570.7443    5502.4645   -644.69759    162.08115   -1427.7535   -3683.4564 
 5319000    241.41932   -4844.4589   -4361.5904   -4844.4589            0    6455.9344    18.036759    22.962623    19.348858    8013.7418    6607.4161    5955.6794    6804.7076   -149.52305   -1122.1858     1498.705   -3607.0711 
 5320000    250.69429   -4814.0741   -4312.6546   -4814.0741            0     5210.308    18.086668    23.016689    19.329097    8046.6105    4687.8298    5927.5681    5015.5262   -665.86025   -668.97263    965.13725   -3701.2168 
 5321000    244.87605   -4807.8302   -4318.0479   -4807.8302            0    6643.6568    17.953104    23.061866    19.402286    8033.1691    5015.2893    7851.4046    7064.2766   -314.59648   -755.76759   -2827.7119   -3539.7067 
 5322000    263.75648   -4797.5081   -4269.9626   -4797.5081            0     6566.642    18.087138    23.113044    19.296922    8067.0558    6499.1428    6072.1266    7128.6565    808.04627    436.58037   -488.58768   -3497.3989 
 5323000    241.93386   -4841.1872   -4357.2896   -4841.1872            0    7430.5835    17.875615    22.969268    19.420269    7973.7646    8071.1653    6580.2947    7640.2904    1712.3351    -718.5669   -2438.2345   -3493.1931 
 5324000    243.96964    -4859.553   -4371.5835    -4859.553            0    4798.4659    18.112426    23.077758    19.357798    8091.4474     6446.115    3766.5548    4182.7278   -135.70192   -382.93687    234.08955   -3805.3384 
 5325000    256.67756   -4850.5319   -4337.1451   -4850.5319            0    6385.6276     18.16682     22.83996     19.30261    8009.2213    4697.8963    6967.4863    7491.5002    602.51794    310.56459    673.35087   -3591.2637 
 5326000    249.75096   -4822.4579   -4322.9251   -4822.4579            0     4670.869     18.09487    22.886385    19.566869     8103.152    4367.1656     5609.296    4036.1454    255.04659    726.92927    901.39926   -3770.9397 
 5327000    239.64255   -4856.9618   -4377.6471   -4856.9618            0    6095.0222    18.087828    22.877606    19.374169    8017.1518    5634.4902    5527.2038    7123.3725   -308.14646   -631.63688   -737.16711   -3665.0053 
 5328000    275.86233   -4835.9124   -4284.1536   -4835.9124            0    5467.8433    18.041251    22.919405    19.382546    8014.5811    4216.3496    6546.8591    5640.3211    757.21131    1100.9568   -252.89599   -3645.0478 
 5329000    244.49996   -4838.3016   -4349.2715   -4838.3016            0    5935.7223    18.124281    22.971214    19.385756    8071.0025    3815.1872    5987.7092    8004.2705    535.16461    1334.9816   -30.308185   -3650.5937 
 5330000    271.27979    -4828.854   -4286.2609    -4828.854            0    6792.2597    18.076116    22.886921     19.37818    8016.8822    6920.4671    6575.7765    6880.5356    891.72502   -312.12771   -586.09569   -3492.1234 
 5331000    244.99205    -4817.648   -4327.6336    -4817.648            0    3007.5267    18.025053    23.097482    19.483722     8111.723    2181.7823    4387.5172    2453.2807   -989.91903   -328.86069   -1362.6454   -3971.8397 
 5332000    254.06717   -4868.9909   -4360.8251   -4868.9909            0    6333.7085    17.848445    23.138011    19.316226    7977.1667    7907.9609    5459.4088    5633.7557    1405.6709   -574.94852     651.5632   -3623.9691 
 5333000     261.4075   -4838.3094   -4315.4621   -4838.3094            0    5656.6886    18.050023    23.070631    19.348005    8057.0014    5713.6079    5630.8302    5625.6277    248.79845    1373.7848   -998.68361   -3650.7836 
 5334000     269.2417    -4835.349   -4296.8323    -4835.349            0    4981.1294    18.035391    23.117074    19.308736    8050.3035    5151.9681     4735.257    5056.1633   -237.97702    7.1626246    772.57377   -3712.0207 
 5335000    254.90985   -4847.9138   -4338.0626   -4847.9138            0    5686.5574    17.994699    23.015461    19.465331    8061.6894    4945.9418    5173.6505    6940.0799   -660.70199     553.3267    944.34173   -3669.4857 
 5336000    257.58149   -4855.3228    -4340.128   -4855.3228            0    5552.0745    18.042414    23.100921    19.295563    8042.3207    6214.9974    4769.1387    5672.0874   -558.82806   -352.71616   -1285.7363   -3688.9307 
 5337000    246.01887   -4829.8015   -4337.7334   -4829.8015            0    6990.0476    17.933447    23.046763    19.310228    7981.0699      7516.65    6634.8806    6818.6122   -351.30321   -21.287874    621.61484   -3524.1218 
 5338000    255.18956   -4845.1416    -4334.731   -4845.1416            0    4661.9385    18.109023    23.215684    19.216418    8078.8388    6288.4326    3448.8754    4248.5075   -1118.4794   -385.88296    2726.4923    -3785.454 
 5339000    237.95331   -4851.5151    -4375.579   -4851.5151            0    6582.8514    17.975611     22.89794    19.429392    7997.2244     8797.693    5787.6905    5163.1706   -1625.3582    1282.1928      1191.49   -3607.8124 
 5340000    242.94547   -4825.2553   -4339.3344   -4825.2553            0     8438.101    18.140605    22.908871    19.235193    7993.7762    6138.4752    9379.0372    9796.7907   -621.51623    1369.1075    211.28857   -3355.6119 
 5341000    242.46109   -4823.2826   -4338.3304   -4823.2826            0    5132.4945    17.899164    22.967623    19.623312    8067.1677    8014.3519    5198.6481    2184.4834   -26.481016   -999.56927     119.2941   -3734.4855 
 5342000    241.71531    -4820.636   -4337.1755    -4820.636            0    7822.1676    18.066701    22.949135    19.241979    7978.0158    7060.2837    6619.7231    9786.4961    1026.8368   -677.25732    93.228981   -3427.0571 
 5343000     257.9327   -4824.8811   -4308.9838   -4824.8811            0    5302.4666    17.968666     22.83163    19.662681    8066.6924    5661.4205    5773.0031    4472.9761   -1706.5823    95.434731   -2620.6412   -3685.1781 
 5344000    251.01276    -4830.166   -4328.1094    -4830.166            0    6368.8721    18.092123     23.17339    19.159295    8032.6459    5829.6543    6757.7952    6519.1668    1118.1096      2044.61    443.41572   -3582.0095 
 5345000    247.26825   -4865.3836   -4370.8166   -4865.3836            0    6411.3148    17.922366    23.074466    19.339148    7997.6856    5685.6923    5869.5678    7678.6843    6.1403638     1054.336    1105.7262   -3623.0134 
 5346000     262.9038   -4842.9443   -4317.1042   -4842.9443            0    6015.9005    18.095076    23.041935     19.27472    8036.5087    5486.3478    6562.8949    5998.4589   -696.48794    329.59164    1492.2779   -3612.0152 
 5347000    254.22225   -4827.3735   -4318.8976   -4827.3735            0    6842.7644    18.040092     22.89255     19.30644    7973.2449    6782.0014    5931.2444    7815.0474    -423.7251   -1855.3602   -169.63934     -3523.21 
 5348000    254.20544   -4845.8939   -4337.4516   -4845.8939            0     4496.194    18.093748     22.92728    19.503906    8091.0089    4157.8146    4305.8714     5024.896   -88.752375   -361.42353    -739.2453   -3806.9049 
 5349000    256.01991   -4851.2801   -4339.2087   -4851.2801            0    6597.2361    18.115005    22.803132    19.360499    7997.4129    6406.0964    5972.7486    7412.8633   -673.97698   -932.23804    -163.9727   -3569.7462 
 5350000    251.36731   -4836.6644   -4333.8987   -4836.6644            0    6253.5472    17.987195    22.909489     19.48332    8028.6367    8645.3261    4555.5844    5559.7311    451.75108   -290.30657   -11.352891   -3601.6744 
 5351000    240.26348   -4852.4306   -4371.8739   -4852.4306            0    4503.0902    18.141659    22.905388     19.51818    8110.6186    3696.7215    5067.1593    4745.3898   -138.84368    2023.6849    76.302815   -3839.2257 
 5352000    247.72921    -4826.832    -4331.343    -4826.832            0    5731.4015    18.157743    22.796702    19.410282    8034.6269    4201.2671    6712.8439    6280.0934   -233.80506    2026.3327   -1277.6939   -3659.7558 
 5353000    243.73868   -4801.8752   -4314.3677   -4801.8752            0    6013.1955    18.121359    22.725764    19.498549    8029.9262     4864.503    5947.0555    7228.0281    914.03676   -977.86938   -1173.1184    -3610.173 
 5354000    260.34722   -4836.7809   -4316.0543   -4836.7809            0    5364.6073    18.250128    22.455774    19.567526    8019.1784    5508.2659    6992.8234    3592.7326   -253.57922   -67.382224   -1540.1888   -3688.6554 
 5355000    251.57873   -4789.5105    -4286.322   -4789.5105            0    6474.0073    18.222155    22.706346    19.438308    8042.7662    6087.4437    7541.0275    5793.5509    408.34242    920.68756    1.7552297   -3526.9501 
 5356000    252.87004   -4871.6112   -4365.8398   -4871.6112            0    5648.7881    18.178796    22.746602    19.503716    8064.9003    6187.3219    5861.0894    4897.9531   -1003.8335     287.1771   -591.06964    -3701.439 
 5357000    251.99543   -4822.3976   -4318.3756   -4822.3976            0    5285.9461    17.984686    22.775004    19.654712    8050.5954    6807.1708    5818.7736    3231.8939    693.35879    19.129094   -844.64832   -3697.7544 
 5358000    238.99889   -4777.1639   -4299.1366   -4777.1639            0    7286.0932     18.08199    23.005478    19.324507    8038.7019    6844.1431    6647.8298    8366.3068   -995.71426   -1707.1414   -220.86388   -3444.9426 
 5359000    247.72356   -4835.4472   -4339.9695   -4835.4472            0     6500.708    17.953337    23.103132    19.342381    8022.8003    7227.3844     6303.243    5971.4966    159.94488   -126.85259   -499.32306   -3579.3586 
 5360000     254.4588   -4817.7495   -4308.8005   -4817.7495            0     5522.356    18.111698    23.073229    19.321125    8074.2086    6974.1281    4565.3823    5027.5576    428.28659    441.27892    1230.8438   -3658.5207 
 5361000    259.10892   -4807.2919    -4289.042   -4807.2919            0    6547.8598    17.982939    23.041976    19.415863    8045.2047    6440.8761    7115.4301    6087.2732   -3.7607011    247.69034   -835.83499   -3520.7747 
 5362000    260.35335   -4842.8341   -4322.0953   -4842.8341            0    4591.6809    17.999172    23.129655    19.318767    8042.6857    5143.4613    3678.5283     4953.053   -500.96133    73.902147   -1973.1342   -3783.5172 
 5363000    253.65494   -4850.7006   -4343.3594   -4850.7006            0    5514.8123    17.850766    23.104301     19.38536    7995.0938     5409.217     5892.678     5242.542   -1365.8651   -697.77501    95.582679    -3700.331 
 5364000    250.72572   -4808.1292   -4306.6468   -4808.1292            0    4468.9354    18.038049    23.120291    19.393381    8087.9114     4093.689    4345.9308    4967.1865    -529.4559   -1730.7324   -193.41337   -3779.5185 
 5365000     248.5293   -4837.1136   -4340.0243   -4837.1136            0    5520.1049    18.031953    23.096048    19.334072         8052    6164.1324     4715.251    5680.9312    927.41261    481.55964   -1656.0745   -3691.7975 
 5366000    251.10847   -4860.0099   -4357.7619   -4860.0099            0    6819.0616    18.054449    23.001748    19.254175    7995.9484     7039.089    5975.4444    7442.6514    401.96834    75.893498    419.31712   -3562.5727 
 5367000    249.39048   -4860.5409   -4361.7291   -4860.5409            0    4903.7454    18.069044    22.900839    19.437002    8042.9592    4790.0797    5008.7302    4912.4261   -926.70115    999.33691   -25.545153    -3786.528 
 5368000    248.38762   -4846.3932   -4349.5873   -4846.3932            0    7468.8735     18.11002    22.811442    19.300799    7973.4626    8079.6633    7072.6964    7254.2608    538.22498    728.15636    -3017.614    -3481.071 
 5369000    234.59155    -4822.846    -4353.634    -4822.846            0    4596.7004    18.133617    22.897108    19.477972    8087.3979    5336.0412    4312.2626    4141.7974     253.3415   -95.469827    1006.2131   -3811.4697 
 5370000    247.07068   -4829.0582   -4334.8863   -4829.0582            0    5168.5975    18.126413    22.918064    19.396686    8057.8156    3699.2131     5870.426    5936.1533    456.71465   -248.12994   -301.59287   -3727.4987 
 5371000    249.68771   -4852.8081   -4353.4018   -4852.8081            0    5761.1915    18.138514    22.554192    19.601168    8018.8284    6931.3271    6357.9056    3994.3418    513.17986    500.77509   -1156.7091   -3679.6513 
 5372000    253.37302   -4805.2566   -4298.4792   -4805.2566            0    5949.4979    18.253759    22.647304    19.469258    8048.5606    4618.8064    7640.7624    5588.9249    1107.7625    1302.3694   -160.88545   -3600.1272 
 5373000    259.05533    -4855.838   -4337.6953    -4855.838            0    4517.6236    18.243504    22.787208    19.380644     8056.893    3858.9521    4569.1355    5124.7831   -1601.2221   -448.87217   -432.66752   -3806.8677 
 5374000    255.34564   -4823.4683   -4312.7454   -4823.4683            0    7232.2464    18.104374    22.667282     19.46122    7986.4364    6595.3106    7989.2954    7112.1332    295.93823     182.8789    1098.3034   -3470.3769 
 5375000    244.33949   -4788.2737   -4299.5645   -4788.2737            0    4968.2462    18.146136    23.037329    19.375756    8099.8119     7228.929    3618.5335     4057.276    626.90153   -1119.8262    989.69093   -3712.6783 
 5376000    255.74773   -4859.2156   -4347.6886   -4859.2156            0    4856.1945    18.282487    22.879508     19.28174    8065.4422    5287.9844    4461.1788    4819.4203   -1100.6984   -166.24726   -516.25072   -3776.4729 
 5377000    254.69872   -4854.9857   -4345.5568   -4854.9857            0    7049.0356    18.015117    22.906374    19.343859    7982.4562    7353.2194    7111.1536    6682.7338    683.40621    466.01489     1200.246   -3524.9367 
 5378000    251.80652    -4850.401   -4346.7568    -4850.401            0    6257.1458    18.082979    22.959303    19.342967    8030.6698    7570.3191    6295.0142    4906.1041   -1751.6522    1157.0957    -2551.656   -3613.9257 
 5379000    264.35721   -4812.2246   -4283.4775   -4812.2246            0    4879.9398    18.197294     22.92402    19.347202    8070.7847     2904.574    5202.0379    6533.2075    -47.85199   -55.113154     2569.563   -3709.0885 
 5380000    238.60122   -4846.2868   -4369.0549   -4846.2868            0     5113.285    18.235256    22.789757    19.373772    8051.2952      2557.86    6853.4488    5928.5462   -1507.0461    200.33511   -419.06356   -3768.6535 
 5381000    242.54357   -4850.0781    -4364.961   -4850.0781            0     7048.083    18.135661    22.666664     19.42792    7986.3311     7810.628    6639.7473    6693.8737   -93.196044   -801.63052    1036.1246   -3544.0536 
 5382000    263.42483   -4830.3592    -4303.477   -4830.3592            0    6086.3129    18.138829    22.708814      19.5521    8053.7309    7367.8325    5222.9205    5668.1857   -1134.6049   -916.47955   -801.60207   -3588.6067 
 5383000    260.31404   -4831.6034   -4310.9432   -4831.6034            0    4565.4375    18.146712    22.890791    19.467389    8086.6092    4739.8969    4650.3723    4306.0433    187.96546   -420.71981    401.35126   -3772.5188 
 5384000    239.77492   -4839.4286   -4359.8491   -4839.4286            0    3857.3101    18.130941    23.071959     19.33998    8090.2294    4168.2798    4527.3438    2876.3067   -1568.5366    723.22267   -1575.4577    -3904.734 
 5385000    242.18921   -4820.3831   -4335.9748   -4820.3831            0    7469.5796    18.125287    22.909716    19.262022    7998.4618     6775.674    6985.0522    8648.0127   -74.578586    1359.1136    1314.9615   -3464.6531 
 5386000     262.5778   -4840.0661   -4314.8781   -4840.0661            0    5988.8466    18.160439    22.852299    19.428401    8062.9377    5067.5982     6882.831    6016.1107    -1358.536    1168.7377    1225.7688   -3610.6515 
 5387000    254.55306   -4849.5085    -4340.371   -4849.5085            0    4797.6266    18.093977     22.98329    19.316527    8032.9541    3414.8329     5561.914    5416.1329    367.35516   -253.93985    963.39534   -3778.3175 
 5388000    247.26764   -4824.4868   -4329.9209   -4824.4868            0     6418.928     17.90888    22.983488    19.469556    8013.8353    6603.4578    6760.2039    5893.1224   -1871.7663    114.34883    1297.7045   -3579.7179 
 5389000    241.54218   -4848.2353   -4365.1211   -4848.2353            0     6016.469    18.168661    22.887275    19.293946    8023.0237    4939.8279    7107.7486    6001.8306   -710.95819    1822.6941    1766.0046   -3661.1487 
 5390000    266.12559   -4857.2715   -4324.9875   -4857.2715            0    4254.5511    18.078587    22.838653    19.551061    8072.4489    5042.2323    4372.1094    3349.3116   -328.07251    758.52802   -566.63258    -3824.106 
 5391000    252.22551   -4837.0282    -4332.546   -4837.0282            0    8057.0991    18.156684      22.6544    19.353196    7960.5266    7253.5197    9120.8917    7796.8859   -185.03557    796.90322      414.552   -3397.1481 
 5392000    250.78296   -4828.9127   -4327.3158   -4828.9127            0    5749.3273    18.238928    22.575402    19.584898    8064.1038    4022.8253    7601.8753    5623.2814   -401.30349    163.78355    926.17009   -3651.1565 
 5393000    251.09711   -4851.0094   -4348.7841   -4851.0094            0     5108.053    18.228757     22.49951    19.635227    8053.1546    5751.2701    6027.6566    3545.2325    985.28079    203.48524   -1448.8546   -3748.8586 
 5394000    261.99245   -4857.1957   -4333.1784   -4857.1957            0    4581.7916    18.300158    22.593636     19.50485    8064.6139     4705.596    6130.6395    2909.1395   -1073.8318    395.98121   -2828.5648    -3794.295 
 5395000     245.0358   -4824.8627   -4334.7609   -4824.8627            0    4116.5304     18.12592     22.91533    19.491834    8096.1563    3902.1462    4654.3867    3793.0583    266.44224    575.12332    368.32047   -3848.7051 
 5396000    256.88346   -4855.9881   -4342.1894   -4855.9881            0    6510.0384    18.106502    22.918401    19.317695    8016.3036     6815.048    5520.0109    7195.0563    -50.92332   -447.44458     571.1425   -3581.1037 
 5397000    248.53656   -4859.9568    -4362.853   -4859.9568            0    5873.4037    18.121218     22.91173    19.370289    8042.3199    4214.0649    6752.6292    6653.5171    711.89182    1188.1383    -298.0138   -3673.9674 
 5398000    252.49926    -4836.163   -4331.1333    -4836.163            0    7117.5859    18.003382    22.878239    19.366466    7976.7698    9038.8967    6263.8986    6049.9623   -154.13269   -364.62584    692.52127   -3503.1231 
 5399000    265.47982   -4833.0018   -4302.0094   -4833.0018            0    6432.1501    18.185736     22.94992    19.193957    8010.8125    5570.9101     5847.911    7877.6293   -82.745392   -306.32154    1753.3502   -3550.5446 
 5400000    247.77413   -4849.5833   -4354.0044   -4849.5833            0    5374.4623    18.155568    22.884683    19.393154    8057.5538    4011.1182    6128.3998     5983.869   -421.48924    663.09208   -1246.8676   -3722.4451 
 5401000    262.71792   -4809.6344   -4284.1661   -4809.6344            0    5164.7446    18.103124    22.961851     19.39333    8061.4437    5002.2559    4405.0114    6086.9665    2067.0128     -199.902    2129.8555    -3676.958 
 5402000    250.77479   -4824.8375    -4323.257   -4824.8375            0     7839.658    18.103829    22.934072    19.258086    7995.8519    7544.1612    6929.6177    9045.1952   -223.54657   -245.83261   -1661.2638   -3409.0643 
 5403000    235.07325   -4778.2727   -4308.0971   -4778.2727            0    5535.6861    18.056946    23.201948    19.236292    8059.1663    6242.4347    5088.4871    5276.1366   -496.81862    319.29219    1696.1468   -3657.4621 
 5404000     253.4002   -4845.7813   -4338.9496   -4845.7813            0    4593.9705     17.89106    23.257743    19.413273    8077.9732    4608.5278    4316.4625    4856.9212   -2022.3957   -306.62648   -1890.0152   -3797.7387 
 5405000    246.30574   -4835.2905   -4342.6486   -4835.2905            0    6572.0203    18.048446     23.18176    19.128465    8003.2493    7623.6434    5276.1218    6816.2958     735.6584    510.59208    634.52784   -3575.5678 
 5406000    254.39661   -4861.8226    -4352.998   -4861.8226            0    5266.2777    17.781564    23.328589    19.308632     8009.584    7437.2378    4671.1667    3690.4287   -1586.6199    32.040244    82.347374   -3737.8358 
 5407000    256.39608   -4843.4234   -4330.5996   -4843.4234            0     5644.617    17.939981    23.224703     19.27889    8032.5633    5924.2763    4834.8696    6174.7052    156.51563    -477.7664    802.77198   -3669.3514 
 5408000    234.60159   -4830.2413   -4361.0092   -4830.2413            0    7820.3998    18.049275    22.817144    19.317128    7955.4291    8092.7092    7557.8232     7810.667    -710.0183   -600.95533    1977.2233   -3453.6725 
 5409000    235.99079   -4824.1634   -4352.1527   -4824.1634            0    5111.4753    18.153103    22.697871    19.547464    8054.2746     5981.724    5427.2026    3925.4993   -701.31031   -402.99606    231.25772   -3751.7417 
 5410000    244.09527   -4812.7446   -4324.5239   -4812.7446            0    6375.7993    18.221085    22.659795    19.456853     8033.463    5876.5124    7449.5206     5801.365   -338.62016    227.89087   -3088.5234   -3577.5364 
 5411000    244.78181   -4845.8947   -4356.3008   -4845.8947            0    5432.1379    18.110945    22.666078     19.56574    8031.8165    5236.7999    6528.9092    4530.7046    1277.5071  -0.93761289    334.78719    -3720.003 
 5412000    268.41386     -4864.58   -4327.7191     -4864.58            0    5457.9212    18.237732    22.676923    19.415309    8029.6991    4786.1185    6050.7471    5536.8981    -1416.911   -981.47023    216.40116   -3688.5696 
 5413000    259.61296   -4853.9324   -4334.6744   -4853.9324            0    6142.3115    18.081678    22.570547    19.651918    8020.2103    5601.5932    6790.7599    6034.5814    -176.2497    703.07407   -106.82155   -3616.2295 
 5414000     259.2564   -4869.1919   -4350.6471   -4869.1919            0    5894.4526    18.119763    22.901681    19.357906     8033.009    6698.0985    5015.9033    5969.3561    768.96567   -624.46931    400.32567   -3660.0931 
 5415000    246.92778   -4833.4164   -4339.5303   -4833.4164            0    6223.6763    17.927382    23.172556    19.249472    7996.6784    6758.9593    6330.6302    5581.4393    393.41811   -198.01766     191.1261   -3613.7043 
 5416000    256.28565   -4807.0733   -4294.4703   -4807.0733            0    5890.3581    17.900228    23.354065    19.163577    8011.2007    7245.5613     4589.984    5835.5288   -264.42182   -210.55817    1151.3189   -3606.2695 
 5417000    248.50008   -4836.4467   -4339.4158   -4836.4467            0    6328.5744    17.912679    23.165602    19.328265    8020.4182    5505.9993    4866.6655    8613.0584    776.69673    1089.5762    1387.2361   -3599.1652 
 5418000    249.77072   -4811.5399   -4311.9676   -4811.5399            0    5786.4087    17.897245    23.325193    19.259494    8040.0048    7449.8708    3772.8842     6136.471   -647.37266   -262.32427    1343.8643    -3633.481 
 5419000    271.92565   -4840.2539    -4296.369   -4840.2539            0     3571.518    17.975497    23.147721    19.471611    8101.9775    4604.2275    3344.8086    2765.5178      795.535   -16.963324    2871.7218   -3874.3619 
 5420000    244.57319    -4811.109   -4321.9324    -4811.109            0      5943.58     18.07089    23.063792    19.296452    8042.4378    6813.8953    4760.3777    6256.4671    -1216.778   -379.45133   -2605.0036   -3624.8057 
 5421000    254.15946   -4827.6113    -4319.261   -4827.6113            0     5282.382     17.96825     23.11298    19.413322    8062.3486    6480.1668    4945.9224    4421.0568   -338.88282    433.10781    -103.9023   -3698.1528 
 5422000    247.01038   -4839.9133    -4345.862   -4839.9133            0    6100.3816    18.076398    22.919829    19.397179    8036.4053    6586.7156    6214.5541     5499.875   -1144.4445    330.50923    64.099187   -3630.8806 
 5423000    248.81877   -4862.5088   -4364.8405   -4862.5088            0     4969.278    18.119886    22.878775     19.40497    8044.5397    3796.3714    5080.1308    6031.3318    781.00136   -777.23175    545.64261   -3781.8381 
 5424000    260.31949   -4852.8077   -4332.1366   -4852.8077            0    6204.1255    18.085309    22.712137    19.524792    8019.9254    5708.5067    6870.0779     6033.792   -1292.3076     92.09668   -594.29115   -3606.4873 
 5425000     251.8713   -4842.7341   -4338.9603   -4842.7341            0    5555.9217    18.374355    22.630601    19.323537     8035.165    3826.8448    5702.4203    7138.4999   -562.97033    716.68675    2723.7334   -3687.8917 
 5426000    239.33553   -4816.5269   -4337.8263   -4816.5269            0     6764.121    18.188242    22.709616    19.348809    7991.9866    5433.3455    7794.3125    7064.7052   -2280.0538    288.33112   -950.92593   -3549.4347 
 5427000    257.85803   -4826.0168   -4310.2689   -4826.0168            0    5604.2134    18.057241     22.82063    19.463391    8020.4277    3897.3134    7425.5936    5489.7333   -355.75664     322.4356   -227.36136   -3654.7457 
 5428000    249.10689   -4814.6561   -4316.4116   -4814.6561            0    7303.2669    18.179886    22.881683    19.227925    7998.5548    7783.7192    6029.6996    8096.3819   -1320.7454    567.05492   -2077.0097   -3464.4803 
 5429000    255.22043   -4816.4931   -4306.0207   -4816.4931            0    5611.7329    17.725984    23.276269    19.480486     8037.547    7853.8061    4348.6945    4632.6981   -1170.0982   -1256.3636    722.51707   -3648.2169 
 5430000    247.09265   -4809.7802   -4315.5644   -4809.7802            0      6896.01    17.871134     23.19922    19.242712    7977.9588    8851.5005     5806.202    6030.3275   -21.707344   -1212.1366     475.9579   -3513.2112 
 5431000    252.01138   -4854.8924   -4350.8385   -4854.8924            0    6056.5117    17.942462    23.302155    19.171693    8015.6469    5437.1009    5836.3059    6896.1283     -137.926     238.4799    310.44933   -3642.8324 
 5432000    245.00242   -4810.5996   -4320.5644   -4810.5996            0    5308.1773    17.995266    23.134393    19.355382    8057.8304    5459.9541     6106.481    4358.0967    60.101663    834.87092   -1709.2194    -3696.773 
 5433000    242.56951   -4843.7045   -4358.5355   -4843.7045            0    6658.1986    17.969311    23.033192    19.344647    8006.5672    6540.0452    6613.9279    6820.6227    237.64401    77.991912    1833.4354   -3581.0738 
 5434000     242.1212   -4842.2713    -4357.999   -4842.2713            0    6003.1492    17.964195     22.99769    19.417693    8022.1283    7000.6152    5634.2368    5374.5956   -1298.1553   -266.95455   -1158.8947   -3655.6635 
 5435000    255.35805   -4824.7057   -4313.9581   -4824.7057            0    5695.1183    18.227357     22.97675    19.268279    8069.6599    4964.6193      5676.45    6444.2856    1172.9387   -1249.5897    1305.2338   -3643.7126 
 5436000    256.55829   -4825.9606   -4312.8124   -4825.9606            0    8293.8607     17.94012    22.745895    19.591771    7994.6981    10236.211    7227.7341    7417.6368    -1292.386   -1292.5448   -647.68873   -3345.7941 
 5437000    254.40235   -4847.9001    -4339.064   -4847.9001            0      6989.48    18.225836    22.592977    19.317955    7954.6681      5300.98    8042.6829    7624.7772    547.73799   -104.20056   -300.46591   -3528.2097 
 5438000    248.09752   -4804.7032   -4308.4776   -4804.7032            0    6809.1688    18.246429    22.686201    19.406655    8033.2329    4572.3847    7974.6628    7880.4588   -1099.1058   -347.95336    69.653268   -3510.7394 
 5439000    249.22166   -4860.8201    -4362.346   -4860.8201            0    5999.8427    18.117327    22.727467    19.454434    8010.5765    6424.4236    6535.3728    5039.7318     161.4314    341.11395     -743.689   -3661.4081 
 5440000    264.69558   -4820.6068    -4291.183   -4820.6068            0    5925.6893     18.15615    22.850179     19.45774    8072.4574    5720.3439    5845.7109    6211.0131   -335.55172   -1006.6286    543.32472   -3593.5604 
 5441000     259.7679   -4834.2989    -4314.731   -4834.2989            0    5873.4346    18.041349    22.991397    19.395259    8045.0723    6007.2167    5283.9159    6329.1713   -1677.2212   -50.324345   -2115.0752   -3625.6061 
 5442000    254.63947   -4829.8867   -4320.5763   -4829.8867            0    4927.6274    18.098874    22.899484    19.385161    8034.2746    5504.6778    5704.3288    3573.8756    60.232608   -387.94183    529.98711   -3743.1981 
 5443000    249.62345    -4827.627   -4328.3493    -4827.627            0    7368.2963    18.077573    22.870381    19.376301    8010.9568    6259.4972    7320.2223    8525.1696   -1159.9717   -359.22043    -1531.617   -3467.4995 
 5444000    248.71626   -4822.2112    -4324.748   -4822.2112            0    3964.3117    18.108979    22.965274    19.494431    8107.2986    3735.4158    4146.1608    4011.3584    850.54764   -1082.1147   0.98867379   -3856.0211 
 5445000    257.03992   -4842.2469   -4328.1353   -4842.2469            0    6793.9147    17.928305    23.317281     19.12069    7993.2004    5436.2064    5927.4891    9018.0485    667.02911      212.134    -181.6082   -3536.1508 
 5446000    246.32291   -4835.6605   -4342.9842   -4835.6605            0    4657.2923    17.909012    23.187768    19.367118    8042.5833    5086.5059    4075.7977    4809.5733    448.71941   -365.50808    1299.8887   -3796.7173 
 5447000    255.05414   -4843.1079   -4332.9681   -4843.1079            0    5769.4869    18.074683    23.053232    19.291805    8038.5067    5125.3142    5048.5628    7134.5836    194.94061   -692.48078   -451.95141   -3656.5917 
 5448000    257.54248   -4845.0191   -4329.9023   -4845.0191            0    5437.8321    17.875981    23.436555    19.144228    8020.5015    6777.9403    4159.4278    5376.1282    1084.1396    321.39436   -371.93748   -3693.8348 
 5449000    253.50627   -4820.5478    -4313.504   -4820.5478            0    5219.0526    18.097291    23.231152    19.199338    8071.8032     5076.391    4436.0324    6144.7344    221.87781    -348.6999    1235.4483   -3699.1225 
 5450000    256.11776    -4847.138   -4334.8709    -4847.138            0    5123.4041    17.986902    23.131541    19.275713    8019.9447    3326.6647    6203.8076    5839.7401    705.38219   -633.62401     283.9264   -3735.6239 
 5451000    245.38623   -4824.9266   -4334.1239   -4824.9266            0    5103.9108    17.991125    22.982996     19.42507    8032.0711    5075.8101    4775.7944    5460.1279   -561.16772   -849.94763   -1723.4767   -3736.2542 
 5452000    254.62644   -4842.9932   -4333.7089   -4842.9932            0    5209.7089    18.155851    22.943073    19.311974    8044.4223    4453.8353    5954.3923    5220.8991    65.313512    1194.5202   -280.84291   -3722.5077 
 5453000    237.88965   -4838.6336    -4362.825   -4838.6336            0    6738.3433    18.131563    22.749781     19.41951    8010.3358    6675.2423    8167.7122    5372.0753   -1462.1266    1684.7633   -1973.5873   -3575.6346 
 5454000    245.23572   -4858.3633   -4367.8616   -4858.3633            0    5697.8282    18.200552    22.849774    19.273289    8015.3466    5285.2831    5453.4992    6354.7023   -3.8835894   -583.66914   -204.49512   -3701.8105 
 5455000    254.80843   -4864.2767   -4354.6283   -4864.2767            0    6561.6353    17.814614    22.942954    19.540928    7986.7658    7098.6748     6979.898    5606.3333    53.167862    -622.3051   -1523.6939    -3590.337 
 5456000    252.46788    -4854.896   -4349.9291    -4854.896            0    5010.0846    18.147326    23.047306    19.278469    8063.1616    2548.4013    6079.3726    6402.4799   -784.21729   -19.283336    2157.4021   -3760.7785 
 5457000     243.8501   -4822.3034   -4334.5731   -4822.3034            0    4229.9486    17.942113    23.189931    19.418058    8079.3947    6186.5761    3156.3218     3346.948   -270.91516     465.1074   -472.99387   -3836.1596 
 5458000    248.16939   -4808.8042   -4312.4347   -4808.8042            0    4833.4685    18.193862    23.080651    19.176783     8052.833    3935.6109    5271.5398    5293.2548   -533.70952    608.60945     897.9061    -3744.781 
 5459000    249.33249   -4830.2076   -4331.5118   -4830.2076            0    5399.6157    17.986013    23.156833    19.335871    8053.3727    4265.2026    5971.5668    5962.0777   -225.85051   -141.57886    118.32496    -3697.326 
 5460000    264.98783   -4844.3381   -4314.3297   -4844.3381            0    4879.5135    17.965424    22.991657    19.549953    8075.2033    6007.1102     4197.228    4434.2024    10.929673   -88.979966    1399.7367   -3739.6764 
 5461000    254.88848   -4832.7193   -4322.9109   -4832.7193            0    6236.2709    18.307412    22.840613    19.230942    8041.4665    4338.8253    6882.0383    7487.9492   -187.77486   -76.988293    1097.4802   -3591.5426 
 5462000    252.43999   -4832.5931    -4327.682   -4832.5931            0    6827.4206    17.993739    22.909573    19.437527    8012.7098     6568.112     7475.281    6438.8689   -367.70485    722.30518    121.92785    -3529.849 
 5463000    253.14714   -4840.3392   -4334.0136   -4840.3392            0    4551.3008     18.20702    23.042392    19.261148    8080.6931    5704.1842    4150.9358    3798.7825   -578.76403    547.30297   -676.55761   -3797.6491 
 5464000    249.94938   -4833.4991   -4333.5694   -4833.4991            0    6995.9446    17.852113    23.234474    19.273778    7994.4638    8291.9135    6620.4306    6075.4897   -1025.2824    295.85464    689.27679   -3517.9049 
 5465000    241.39842   -4862.5745   -4379.7478   -4862.5745            0    5530.6097    17.906815    23.254365    19.249667    8015.7849    3919.2156    5962.6878    6709.9257   -359.94978   -206.13993    1217.1337   -3733.2085 
 5466000    247.19956   -4828.0857    -4333.656   -4828.0857            0    6630.1609    17.995724    23.082705    19.385452    8052.5227    7087.5036    6388.9406    6414.0383    -697.0197    202.71416    457.36337   -3555.0246 
 5467000    233.10476   -4840.3552   -4374.1169   -4840.3552            0    5571.9209     18.10141     22.95459    19.351375    8040.6984    3940.1496    6459.7049    6315.9083    1041.2697     1951.282    702.52029   -3720.7237 
 5468000    253.11682   -4811.1147   -4304.8498   -4811.1147            0    6155.9003     18.03528    22.805106    19.520976    8028.9086    6349.4786    6527.0072     5591.215   -645.13518     13.32583   -314.02057   -3584.0345 
 5469000     248.9958   -4834.5877   -4336.5653   -4834.5877            0    6239.4374    18.170112    22.758151    19.445408    8041.0291    3987.5467    7628.0993    7102.6662   -745.70659    463.51483   -17.706269   -3604.8655 
 5470000    254.67286   -4865.3884   -4356.0112   -4865.3884            0    7532.6654    17.938923    22.680055    19.479275    7925.2552    8320.3054    8115.8251    6161.8657   -831.59741   -24.261281    1277.5206   -3485.3728 
 5471000      258.328   -4864.7877   -4348.0997   -4864.7877            0    4907.0013     18.15598    22.892999    19.389692    8059.2248    5509.5711    4090.5217    5120.9112    323.30252   -497.73238     722.4043   -3771.3527 
 5472000    247.11869   -4866.3929    -4372.125   -4866.3929            0     5503.738    18.072986    22.922886    19.417643    8044.4384    6073.7257    5873.8388    4563.6495    372.40231    814.21935    718.54822   -3726.4271 
 5473000    242.46257   -4847.5703   -4362.6152   -4847.5703            0    4718.2064    18.223595     22.91634    19.351235    8081.4261    4042.2975    4855.2199    5257.1017   -1945.4758   -408.02609   -888.60598   -3806.5306 
 5474000    257.88236   -4847.2483   -4331.4517   -4847.2483            0    6680.4499    18.059385    22.715734    19.531308    8012.3707    6815.2565    5828.5237    7397.5693    2228.4971   -788.04779    602.69322   -3550.8264 
 5475000    253.51141   -4844.4112    -4337.357   -4844.4112            0    8309.4751    18.138969    22.574354    19.445014     7962.257    6868.5628    9322.0216     8737.841   -764.61843   -652.25043    563.44678   -3372.4496 
 5476000     259.0596   -4857.8214   -4339.6702   -4857.8214            0    7270.1259    18.081182    22.550023    19.641327    8008.3794    7261.4196    7833.4512     6715.507    1124.2675   -2.9102756   -954.59686   -3490.5631 
 5477000    258.78553   -4778.1678   -4260.5648   -4778.1678            0    8193.8112    18.261455    22.728498    19.324616    8020.7869    8644.6903    7820.1633    8116.5799   -614.84402   -130.38673    2655.2869   -3302.0941 
 5478000    271.41611   -4846.9392   -4304.0735   -4846.9392            0    5265.0399    18.205442    22.598721    19.532977    8036.2515    4440.1603    5450.0462    5904.9131   -809.87101    948.24173      1113.25   -3687.0083 
 5479000    256.51579   -4829.4117   -4316.3484   -4829.4117            0     5759.528    18.168825    22.822889    19.368348    8031.3773    4312.9247    7003.6056    5962.0539    302.71156   -230.75059    190.35149   -3641.7383 
 5480000    264.42616   -4819.0788   -4290.1938   -4819.0788            0    4733.1715    18.039954    22.917563    19.547653    8081.6208    4940.1767    4863.0931    4396.2447   -629.99677   -310.27308   -369.08973   -3732.3321 
 5481000    260.03721   -4819.1995   -4299.0929   -4819.1995            0    7008.1472    18.139237    23.036891    19.161368    8006.9917    5128.9351     6129.556    9765.9504   -1522.4391   -1692.0281   -729.12974   -3480.7252 
 5482000    255.60481   -4839.7128   -4328.4716   -4839.7128            0    4490.6222     17.99396    23.157194    19.389952    8079.5916    4025.4676    4570.5325    4875.8663    1241.3064    34.680013    250.20806   -3799.3301 
 5483000    247.51946   -4840.8386   -4345.7691   -4840.8386            0    4836.6088    18.001135      23.1391    19.317987    8046.5226    5393.2111    5037.8166    4078.7988    -589.5606    461.38686    -368.5961   -3778.1917 
 5484000    264.21219   -4839.4288   -4310.9718   -4839.4288            0    5479.0151    18.085664    23.250392    19.092308    8028.2922    4386.2084    4457.4721    7593.3648     217.6286    490.19354    692.55528   -3669.4646 
 5485000    258.11165   -4874.6962    -4358.441   -4874.6962            0    5451.9871    18.035755    22.972449    19.353486    8018.6418    4810.4891    5805.8332    5739.6389    -749.3127     336.0036   -1861.3276   -3720.8657 
 5486000    248.05864   -4841.9047   -4345.7568   -4841.9047            0    3716.3322     18.05543    22.956648    19.468427      8069.51    2881.6432     3365.679    4901.6743    815.75573   -966.95981    902.08539   -3908.3983 
 5487000    250.34029   -4844.6737   -4343.9622   -4844.6737            0    4261.9307    18.025891    22.867145    19.664833    8105.8569    4792.5811    3957.2566    4035.9542   -605.80817    486.52876    91.783536   -3840.1355 
 5488000     255.1845   -4814.4215    -4304.021   -4814.4215            0    5592.4325    18.136076    22.803176    19.460544    8048.1055    6424.8338     6271.931    4080.5328    324.00355   -933.45998    561.57567   -3647.6183 
 5489000    244.66317   -4814.8831   -4325.5265   -4814.8831            0     6015.794    18.083144    22.790936     19.44198    8012.6577    6527.9056    7141.4463      4378.03    679.27853    11.154189    1313.0971   -3622.5425 
 5490000    260.21512   -4830.8441   -4310.3818   -4830.8441            0    6489.3371    18.078476    22.869964    19.398305    8020.3086    5881.8134    6954.8291    6631.3688    -881.8302    54.458542    1013.7195   -3551.3371 
 5491000    244.73311   -4837.0262   -4347.5297   -4837.0262            0    6226.6765    17.995076    23.073475     19.33897    8029.7131    7336.2574    4560.8034    6782.9688    273.58895   -609.72168    1069.0388    -3618.354 
 5492000    259.64088   -4861.7803   -4342.4665   -4861.7803            0    5025.8311     18.04418    23.169188    19.264129    8053.7348    6605.1678    3426.5115     5045.814    431.56945    60.726133   -1047.6621   -3752.1552 
 5493000    258.01536   -4819.1293   -4303.0667   -4819.1293            0    5814.7007    18.134036    23.114095    19.238517      8063.86    5437.3032    4838.0085    7168.7903    -164.6978   -247.34535   -412.08752   -3619.2398 
 5494000    252.84491   -4817.4972   -4311.7762   -4817.4972            0    7987.0051    17.976617    22.995246    19.298284    7977.4618    7090.8247    8269.0365    8601.1542   -1462.7497    716.66029    -715.2661   -3382.5432 
 5495000    263.78702   -4810.2051   -4282.5984   -4810.2051            0    5811.3027    17.993646    23.172057    19.244571      8024.02     4241.658    6771.9233    6420.3269   -67.540468   -1034.3145  -0.82536502   -3602.5476 
 5496000     256.1985   -4853.6698   -4341.2412   -4853.6698            0    2999.3785    18.138055    22.872457       19.552    8111.3794    3862.9856    2783.5758     2351.574    237.30854   -683.22565    57.341702   -3986.4263 
 5497000    258.32904   -4856.7976   -4340.1076   -4856.7976            0    4992.8126    18.180346    22.719732    19.415749    8019.7251    3521.2453    6073.1665    5384.0261    443.82186    81.238039    470.26379   -3756.1509 
 5498000    253.51191   -4816.7326   -4309.6774   -4816.7326            0    5741.8659    18.154786    22.600643     19.63757    8057.4883    5769.6732     7385.222    4070.7024   -1281.4748    564.88339   -1076.0628   -3634.9496 
 5499000    258.39781   -4871.1068   -4354.2792   -4871.1068            0    4650.4681    18.147562    22.715612    19.581597    8072.1802    4257.0729    6725.4075    2968.9239   -2092.4163   -575.93725   -804.43034   -3806.8053 
 5500000    270.30456   -4832.8868   -4292.2443   -4832.8868            0    6334.8772    17.971414    22.946547    19.391866    7996.8548    8047.2315    4316.5278    6640.8724    567.14603   -1666.4177    1440.5993   -3553.4334 
Loop time of 607.001 on 64 procs for 250000 steps with 1008 atoms

Performance: 71.170 ns/day, 0.337 hours/ns, 411.861 timesteps/s
99.0% CPU use with 64 MPI tasks x 1 OpenMP threads

MPI task timing breakdown:
Section |  min time  |  avg time  |  max time  |%varavg| %total
---------------------------------------------------------------
Pair    | 28.418     | 32.203     | 36.734     |  30.5 |  5.31
Bond    | 0.28894    | 0.29935    | 0.31325    |   0.9 |  0.05
Kspace  | 291.33     | 302.3      | 310.64     |  27.6 | 49.80
Neigh   | 4.7125     | 5.4768     | 6.0541     |  16.2 |  0.90
Comm    | 109.39     | 120.27     | 134.45     |  52.2 | 19.81
Output  | 1.5074     | 1.5093     | 1.5149     |   0.1 |  0.25
Modify  | 130.04     | 136.67     | 140.74     |  23.8 | 22.52
Other   |            | 8.27       |            |       |  1.36

Nlocal:        15.7500 ave          20 max          12 min
Histogram: 5 3 6 13 0 17 10 4 4 2
Nghost:        2479.34 ave        2506 max        2449 min
Histogram: 2 2 3 10 13 13 5 9 3 4
Neighs:        5227.39 ave        6752 max        3927 min
Histogram: 5 3 6 13 11 9 7 4 4 2

Total # of neighbors = 334553
Ave neighs/atom = 331.89782
Ave special neighs/atom = 2.0000000
Neighbor list builds = 9250
Dangerous builds = 0

unfix		3
unfix		2
unfix		1

write_data	data.final.${pid}
write_data	data.final.0
System init for write_data ...
PPPM initialization ...
  extracting TIP4P info from pair style
  using 12-bit tables for long-range coulomb (../kspace.cpp:340)
  G vector (1/distance) = 0.37846816
  grid = 24 27 32
  stencil order = 5
  estimated absolute RMS force accuracy = 0.0025480318
  estimated relative force accuracy = 7.6733222e-06
  using double precision FFTW3
  3d grid and FFT values/proc = 3825 384
Last active /omp style is kspace_style pppm/tip4p/omp
WARNING: Not all mixed pair coeffs generated from mixing. Use write_data with 'pair ij' option to store all pair coeffs. (../write_data.cpp:312)

write_restart   restart.lmp.${pid}
write_restart   restart.lmp.0
System init for write_restart ...
PPPM initialization ...
  extracting TIP4P info from pair style
  using 12-bit tables for long-range coulomb (../kspace.cpp:340)
  G vector (1/distance) = 0.37846816
  grid = 24 27 32
  stencil order = 5
  estimated absolute RMS force accuracy = 0.0025480318
  estimated relative force accuracy = 7.6733222e-06
  using double precision FFTW3
  3d grid and FFT values/proc = 3825 384
Last active /omp style is kspace_style pppm/tip4p/omp
Total wall time: 0:10:11
