LAMMPS (30 Jul 2021)
  using 1 OpenMP thread(s) per MPI task
package omp 0
using multi-threaded neighbor list subroutines
echo both

include		in.partitions
variable        pid world 0
include		in.temp
variable        temperature equal 258.36
variable	tempDamp equal 100.0
include		in.pressure
variable        pressure equal 2375.0
variable        pressureDamp equal 1000.0 # This is 1 ps
include		in.seed
variable        seed world 745823

units		real
atom_style	full
read_restart	restart.lmp.${pid}
read_restart	restart.lmp.0
Reading restart file ...
  restart file = 30 Jul 2021, LAMMPS = 30 Jul 2021
  restoring atom style full from restart
  orthogonal box = (0.32039876 1.4689187 0.39088574) to (17.887174 22.160259 21.822310)
  4 by 4 by 4 MPI processor grid
  restoring pair style lj/cut/tip4p/long/omp from restart
  restoring bond style harmonic/omp from restart
  restoring angle style harmonic/omp from restart
  864 atoms
  576 bonds
  288 angles
Finding 1-2 1-3 1-4 neighbors ...
  special bond factors lj:    0        0        0       
  special bond factors coul:  0        0        0       
     2 = max # of 1-2 neighbors
     1 = max # of 1-3 neighbors
     1 = max # of 1-4 neighbors
     2 = max # of special neighbors
  special bonds CPU = 0.990 seconds
  read_restart CPU = 1.269 seconds
include 	in.setup
variable	out_freq equal 1000
variable	out_freq2 equal 10000
variable	out_freq3 equal 1000

timestep	2.0

neigh_modify    delay 7 every 1

include		in.tip4p
# This is TIP4P/Ice

# create groups ###
group ox type 2
288 atoms in group ox
group hy type 1
576 atoms in group hy

# set charges - beside manually ###
set group ox charge -1.1794
Setting atom values ...
  288 settings made for charge
set group hy charge 0.5897
Setting atom values ...
  576 settings made for charge

# ### TIP3P Potential Parameters ###
pair_style lj/cut/tip4p/long/omp 2 1 1 1 0.1577 8.5
pair_coeff 1 1*2 0.000 0.000
pair_coeff 2 2 0.21084 3.1668
bond_style  harmonic
bond_coeff  1 450 0.9572
angle_style harmonic
angle_coeff 1 55 104.52
kspace_style pppm/tip4p/omp 1.0e-5
pair_modify tail yes

thermo          ${out_freq}
thermo          1000
thermo_style    custom step temp pe etotal epair emol press lx ly lz vol pxx pyy pzz pxy pxz pyz enthalpy

restart 	${out_freq3} restart.lmp.${pid} restart2.lmp.${pid}
restart 	1000 restart.lmp.${pid} restart2.lmp.${pid}
restart 	1000 restart.lmp.0 restart2.lmp.${pid}
restart 	1000 restart.lmp.0 restart2.lmp.0


include         in.dump
dump            myDump all atom ${out_freq2} dump.water.${pid}
dump            myDump all atom 10000 dump.water.${pid}
dump            myDump all atom 10000 dump.water.0
dump            myDump2 all dcd ${out_freq2} dump.dcd
dump            myDump2 all dcd 10000 dump.dcd
dump_modify     myDump append yes
dump_modify     myDump2 append yes


variable natoms 	equal  "count(all)"                        # NUMBER ATOMS
variable H      	equal  "enthalpy/v_natoms"                 # ENTHALPY-per-atom
variable Vol      	equal  "vol/v_natoms"                 # volume-per-atom
fix AVG all 		ave/time ${out_freq} 1 ${out_freq} v_Vol v_H file vol_enthalpy.dat
fix AVG all 		ave/time 1000 1 ${out_freq} v_Vol v_H file vol_enthalpy.dat
fix AVG all 		ave/time 1000 1 1000 v_Vol v_H file vol_enthalpy.dat


timer           timeout 23:50:00 every 1000
New timer settings: style=normal  mode=nosync  timeout=23:50:00

fix 		1 all shake 1e-6 200 0 b 1 a 1
       0 = # of size 2 clusters
       0 = # of size 3 clusters
       0 = # of size 4 clusters
     288 = # of frozen angles
  find clusters CPU = 0.030 seconds
fix             2 all nph iso ${pressure} ${pressure} ${pressureDamp}
fix             2 all nph iso 2375 ${pressure} ${pressureDamp}
fix             2 all nph iso 2375 2375 ${pressureDamp}
fix             2 all nph iso 2375 2375 1000
fix             3 all temp/csvr ${temperature} ${temperature} ${tempDamp} ${seed}
fix             3 all temp/csvr 258.36 ${temperature} ${tempDamp} ${seed}
fix             3 all temp/csvr 258.36 258.36 ${tempDamp} ${seed}
fix             3 all temp/csvr 258.36 258.36 100 ${seed}
fix             3 all temp/csvr 258.36 258.36 100 745823

run             250000
PPPM initialization ...
  extracting TIP4P info from pair style
  using 12-bit tables for long-range coulomb (../kspace.cpp:340)
  G vector (1/distance) = 0.37299665
  grid = 24 24 25
  stencil order = 5
  estimated absolute RMS force accuracy = 0.003215111
  estimated relative force accuracy = 9.6822112e-06
  using double precision FFTW3
  3d grid and FFT values/proc = 2730 288
Last active /omp style is kspace_style pppm/tip4p/omp
Neighbor list info ...
  update every 1 steps, delay 7 steps, check yes
  max neighbors/atom: 2000, page size: 100000
  master list distance cutoff = 10.8154
  ghost atom cutoff = 10.8154
  binsize = 5.4077, bins = 4 4 4
  1 neighbor lists, perpetual/occasional/extra = 1 0 0
  (1) pair lj/cut/tip4p/long/omp, perpetual
      attributes: half, newton on, omp
      pair build: half/bin/newton/omp
      stencil: half/bin/3d
      bin: standard
Per MPI rank memory allocation (min/avg/max) = 9.235 | 9.240 | 9.246 Mbytes
Step Temp PotEng TotEng E_pair E_mol Press Lx Ly Lz Volume Pxx Pyy Pzz Pxy Pxz Pyz Enthalpy 
 6750000    260.23991   -3840.0409   -3393.9986   -3840.0409            0    2295.0269    17.566775     20.69134    21.431424    7789.8967    683.32976     3389.507    2812.2439    445.22855    3.7299802     100.8655   -3133.2659 
 6751000     270.3796   -3899.0762   -3435.6548   -3899.0762            0    1352.7947    17.519648    20.635832     21.37393    7727.3706    364.05973    2811.5641     882.7602   -763.93633   -905.68507    1116.9427   -3283.2006 
 6752000     261.5405   -3876.9371   -3428.6656   -3876.9371            0    1963.8731    17.544969    20.665656    21.404821    7760.9232     1947.412    3153.7211    790.48609   -2011.6256    637.93002    238.87538   -3206.3844 
 6753000    270.12176   -3877.5532   -3414.5738   -3877.5532            0    2921.7473    17.539324    20.659007    21.397934    7753.4345    1227.8954    3812.7868    3724.5596   -1307.3874    974.57536    8.1015823   -3084.1946 
 6754000    243.36037   -3872.7642   -3455.6529   -3872.7642            0    1798.3204    17.582163    20.709466    21.450198    7810.3863    1864.0639    1594.6828    1936.2145    723.31087     2077.545    1445.0273   -3250.8125 
 6755000    255.66102   -3846.5076   -3408.3133   -3846.5076            0   -105.80935    17.635239    20.771982     21.51495    7881.3322     650.9153   -90.787198   -877.55616   -1212.1465    52.049347   -655.53458   -3420.4752 
 6756000    269.46682   -3877.6505   -3415.7936   -3877.6505            0    3388.7117    17.652029    20.791759    21.535435     7903.865     2839.407    3169.2226    4157.5056   -399.60762   -1753.8505   -619.48371   -3025.1776 
 6757000     270.3893   -3916.0191   -3452.5811   -3916.0191            0    3963.4912    17.590162    20.718887    21.459956    7821.0505    3170.0166    4959.6354    3760.8215   -172.37526     1269.065   -938.44723   -3000.4974 
 6758000    262.13852    -3885.212   -3435.9155    -3885.212            0    3454.6013    17.562779    20.686634     21.42655    7784.5822    3145.2134    3251.1328    3967.4578   -774.23696    1448.7906    141.21381   -3043.7141 
 6759000    269.88483   -3891.0007   -3428.4274   -3891.0007            0    2262.5968    17.626226    20.761365    21.503954    7869.2539    1207.6215    2299.4075    3280.7614    406.37896    1241.7823   -59.253968   -3168.7605 
 6760000    258.02264   -3887.3525   -3445.1105   -3887.3525            0    2300.7898     17.62688    20.762136    21.504752    7870.1301    1444.2384    1809.8546    3648.2764   -494.35991   -820.10756   -2076.4051    -3181.031 
 6761000    252.05197   -3878.6646   -3446.6562   -3878.6646            0    2948.0839    17.609227    20.741343    21.483216    7846.5086    3784.8544    2111.8714     2947.526   -883.48963    306.61072   -73.746434   -3109.2972 
 6762000    265.40992   -3863.5014   -3408.5979   -3863.5014            0    3009.3988    17.681744    20.826759    21.571687    7943.8475     2096.405    3438.2436    3493.5476    17.542034    333.55851   -1463.7255   -3059.9504 
 6763000    261.25169   -3865.8115    -3418.035   -3865.8115            0    814.79136    17.724383    20.876982    21.623706    8001.4552    -3.992242    1416.6293     1031.737    1160.5629   -873.89391    86.597949   -3322.9546 
 6764000    260.00605   -3904.0903   -3458.4489   -3904.0903            0    2658.6457    17.615542    20.748781     21.49092     7854.953    2106.9475     2740.606    3128.3837   -98.660209   -597.92872   -1564.7888   -3153.8839 
 6765000    262.44976   -3888.1015   -3438.2716   -3888.1015            0    2271.5864    17.695757    20.843264    21.588782    7962.7485    992.20951     3003.905    2818.6448    2437.8956   -279.96238    289.58985   -3174.4756 
 6766000    262.65842   -3879.5901   -3429.4026   -3879.5901            0    2664.5398    17.755637    20.913795    21.661835    8043.8568    2422.1444    2710.7516    2860.7233    1328.8566   -1029.8871    854.36911   -3116.8217 
 6767000    265.12124    -3889.105   -3434.6963    -3889.105            0    2317.8243    17.712298    20.862748    21.608963    7985.0999    1253.9641    1584.3665    4115.1423    -116.1079    123.73545    1073.5061   -3164.7752 
 6768000    251.97618   -3894.8208   -3462.9422   -3894.8208            0     3097.052    17.654313    20.794449    21.538221    7906.9332    3316.9699    3783.9891    2190.1971     304.0844   -121.05669   -603.81345   -3105.8072 
 6769000    268.72439   -3901.4277   -3440.8433   -3901.4277            0    2634.1246    17.636815    20.773839    21.516873    7883.4457    2331.2796    3286.7261    2284.3682    554.31134    1884.5552   -819.08809   -3137.9928 
 6770000    257.02862   -3896.5181   -3455.9799   -3896.5181            0    2927.9087    17.549787    20.671331    21.410699    7767.3189    4405.4912     2294.626    2083.6089   -535.52812    310.73924     260.4237   -3124.3111 
 6771000     246.6951    -3852.468   -3429.6411    -3852.468            0    3202.7013    17.631736    20.767856    21.510677    7876.6371     2990.213    3593.9687    3023.9221    932.57357    640.52935    1802.6488   -3061.7382 
 6772000    270.87668   -3873.9839   -3409.7106   -3873.9839            0    2414.7485    17.669498    20.812334    21.556746     7927.353    1984.4996    1578.6367    3681.1091   -1129.8039    882.07093   -1079.1631   -3130.5359 
 6773000    253.78879   -3886.8398   -3451.8545   -3886.8398            0     1088.889    17.605621    20.737096    21.478816    7841.6893    172.02357    1360.0613    1734.5821   -841.63747    765.09613    274.95285   -3327.3259 
 6774000    271.75145   -3844.6916   -3378.9189   -3844.6916            0    433.13722    17.731616    20.885501     21.63253    8011.2541    152.90457    489.15162    657.35548   -332.22379    231.07912    736.72481   -3328.3129 
 6775000     243.8371   -3833.2502   -3415.3217   -3833.2502            0    2912.1251    17.511293     20.62599    21.363736    7716.3198    2532.8612    3733.7864    2469.7276   -815.39691    488.18105    1416.6396   -3087.6069 
 6776000    267.87428   -3829.8121   -3370.6847   -3829.8121            0    759.44372    17.658102    20.798912    21.542843     7912.025    2773.7016    497.43904   -992.80948    -941.8062   -1368.7453     16.53024   -3283.0535 
 6777000    262.22493   -3852.9665   -3403.5219   -3852.9665            0    3328.8869    17.605229    20.736635    21.478339     7841.166    4437.7327    2660.1774    2888.7505    1777.1192   -1289.6904     1856.324   -3022.8459 
 6778000    245.82046   -3888.9778   -3467.6499   -3888.9778            0    541.67013    17.654638    20.794831    21.538617    7907.3694    1748.1123   -87.196279   -35.905659    204.77905    739.94093    826.73563    -3405.184 
 6779000    245.98572   -3901.8698   -3480.2587   -3901.8698            0    1795.6564    17.601067    20.731732     21.47326    7835.6056    1991.3309    2511.4988    884.13942    -246.5692    668.49774   -350.38229   -3275.0614 
 6780000    262.95867   -3880.8604   -3430.1582   -3880.8604            0    2069.7319     17.68151    20.826483    21.571401    7943.5315    1500.6438    2795.1511    1913.4009    414.25951   -426.00666   -863.37218   -3190.3834 
 6781000    260.45497   -3851.4933   -3405.0823   -3851.4933            0    3328.9701    17.597213    20.727192    21.468558    7830.4592      2872.15    3579.8367    3534.9235    535.46669    145.93778    1465.5729   -3024.9166 
 6782000    253.93291   -3844.6074   -3409.3751   -3844.6074            0    1657.2124    17.626934      20.7622    21.504819    7870.2032    1301.0172    1507.2057    2163.4142   -141.43566   -378.46242    161.82864   -3219.1622 
 6783000    269.48995   -3871.8392   -3409.9427   -3871.8392            0    3145.5177    17.514343    20.629583    21.367458    7720.3529    1141.4129    4031.6522     4263.488    1281.1402   -111.29364    568.47957    -3055.778 
 6784000    250.89795   -3897.7028   -3467.6723   -3897.7028            0     3133.534    17.581443    20.708618     21.44932    7809.4269    2914.2965    3748.1376    2738.1677   -544.53175   -104.07979   -859.99606   -3110.7864 
 6785000    251.36335   -3913.8633   -3483.0351   -3913.8633            0    3096.1891    17.589772    20.718428     21.45948    7820.5301    2225.4025    2473.2232    4589.9415   -1084.8191    1212.8901   -1752.3499   -3129.9011 
 6786000     254.1816   -3904.9211   -3469.2625   -3904.9211            0    851.68231    17.749472    20.906533    21.654314    8035.4813    1063.6787   -619.11841    2110.4867   -858.28769    155.40653   -613.51322   -3369.4545 
 6787000    266.83936   -3877.6887   -3420.3351   -3877.6887            0    3141.5585    17.641244    20.779055    21.522276     7889.386    3197.1666    2461.7912    3765.7178    -1085.739    200.29308   -223.76471   -3058.8718 
 6788000    260.79279   -3849.4008   -3402.4109   -3849.4008            0    3060.6091    17.579124    20.705886     21.44649    7806.3364    3411.5273    1891.2193    3879.0806    42.235931   -377.69653    1216.1838   -3053.9685 
 6789000    260.55441   -3873.6947   -3427.1133   -3873.6947            0    3931.4832    17.541703    20.661809    21.400836    7756.5898    3921.5546    3976.1439     3896.751    431.98179   -1094.7097   -475.29803   -2982.3764 
 6790000    264.44691   -3909.4027   -3456.1498   -3909.4027            0    2603.2211    17.617771    20.751407    21.493639    7857.9355    3372.2746    813.45614    3623.9326    214.65645   -233.99667    68.009397   -3157.8208 
 6791000    255.63757   -3873.1354   -3434.9813   -3873.1354            0    2328.2491     17.63487    20.771548    21.514501    7880.8381    2772.5596    2149.9652    2062.2225   -945.79288    1342.5772   -1271.1569   -3167.3865 
 6792000    250.39542   -3887.0283   -3457.8591   -3887.0283            0    2586.0028    17.620235    20.754309    21.496645     7861.233    2836.2734    1458.7811     3462.954   -72.282968   -151.34158   -870.90932    -3161.379 
 6793000    277.45362    -3907.747    -3432.201    -3907.747            0    1814.4208    17.674976    20.818787    21.563429    7934.7286    1084.4339    2633.0828    1725.7456    2412.7942   -1239.9019    204.59707   -3222.2365 
 6794000    260.81661   -3907.3023   -3460.2716   -3907.3023            0    2733.8592     17.60408     20.73528    21.476936    7839.6299    2864.6202    2575.4482    2761.5091   -307.43552    580.74925   -617.16177   -3147.7014 
 6795000    251.31736   -3957.0289   -3526.2795   -3957.0289            0    2554.9237    17.654652    20.794849    21.538635     7907.389    2036.0738    2750.1257    2878.5717     5.164243   -326.14764    1186.6033   -3231.6428 
 6796000    270.39127   -3908.5438   -3445.1024   -3908.5438            0    1804.1495    17.584986    20.712791    21.453642    7814.1489    2819.0995    1731.6292    861.71969    82.880416    58.680483     130.2247   -3239.4991 
 6797000    246.17013   -3890.7069   -3468.7797   -3890.7069            0    3217.2039    17.586126    20.714133    21.455032    7815.6682    2359.6025    4020.5515    3271.4577   -140.80021    -944.0043    461.32106   -3102.0715 
 6798000    265.18542   -3900.1391   -3445.6203   -3900.1391            0    2899.3546    17.550372     20.67202    21.411413    7768.0958    3320.6804    2086.3429    3291.0406   -751.31965    40.942013   -535.43879   -3117.1533 
 6799000    266.16097   -3877.4694   -3421.2786   -3877.4694            0      2127.76    17.595057    20.724653    21.465929    7827.5824    2177.6953    2166.0988     2039.486   -161.44145    1472.2988    954.18303   -3178.3794 
 6800000    260.30181    -3900.119   -3453.9706    -3900.119            0    3524.3393    17.513777    20.628916    21.366767    7719.6046    4304.2569    3627.5286    2641.2324    55.208845    764.83897    229.90158   -3057.1916 
 6801000     267.2189   -3865.1707   -3407.1666   -3865.1707            0    1655.2427    17.536367    20.655523    21.394326    7749.5134    2492.5841    928.18704    1544.9571    1261.1594   -1152.1991    522.11499   -3220.0933 
 6802000     256.4735   -3896.6591   -3457.0723   -3896.6591            0      3010.18     17.66745    20.809922    21.554247     7924.597    3203.6502    3959.8137    1867.0761   -202.33941   -1580.1086    503.42572   -3109.1794 
 6803000    257.40082   -3915.6252    -3474.449   -3915.6252            0    3078.6805    17.695077    20.842463    21.587953     7961.831    2877.4658    3283.5044    3075.0713   -717.33763   -244.54727    12.131097   -3116.9676 
 6804000    263.03303   -3875.1065   -3424.2769   -3875.1065            0    2788.2849    17.698709    20.846742    21.592384     7966.735    1264.6124    4448.0343     2652.208   -538.26566   -889.54978    858.37981   -3100.3154 
 6805000    260.39541   -3866.1666   -3419.8577   -3866.1666            0    2890.0827    17.749822    20.906946    21.654742     8035.957    2510.5244    2051.2049    4108.5187   -783.39901    519.26455   -298.29689   -3081.1511 
 6806000    273.30711   -3874.5359   -3406.0969   -3874.5359            0    2423.2336    17.762647    20.922052    21.670388    8053.3883    1134.2679    3423.1711    2712.2619   -527.69669   -739.91298   -1896.4453   -3121.4871 
 6807000    260.04928   -3902.8323   -3457.1167   -3902.8323            0    5097.8955    17.645458    20.784018    21.527417    7895.0407    3760.0271    5740.3957    5793.2636    -901.5333   -1013.6326   -1589.5979   -2870.1396 
 6808000    256.38331   -3907.9876   -3468.5554   -3907.9876            0    3273.6016    17.704893    20.854025    21.599928    7975.0882    3478.9657    2602.6925    3739.1466   -518.65176    -46.69012   -100.83873   -3087.8078 
 6809000    259.16889   -3906.1902   -3461.9836   -3906.1902            0    2231.3147    17.719167    20.870838    21.617342    7994.3925    2839.7423    2162.9387     1691.263     435.1296   -1069.9858    1054.1551   -3201.8346 
 6810000    258.22332   -3936.0879   -3493.5019   -3936.0879            0    1943.8238    17.748247    20.905091     21.65282    8033.8182     788.8819    2484.7331    2557.8565    194.30761    408.86574    145.60201   -3265.7538 
 6811000     252.6327   -3883.3414   -3450.3376   -3883.3414            0    1816.2524     17.78962    20.953822    21.703295    8090.1317    565.85072     3450.748    1432.1586    574.04022    779.48909    119.74656   -3236.0448 
 6812000    269.66685   -3887.8989   -3425.6992   -3887.8989            0    1220.3655    17.816177    20.985103    21.735694    8126.4176    1014.1455    243.93357    2403.0175   -539.44165   -312.10234   -1002.9205    -3281.067 
 6813000    266.02168   -3855.3363   -3399.3842   -3855.3363            0    2602.0725    17.637571    20.774729    21.517796    7884.4599    4022.1094    1523.0279    2261.0802    145.44508    -1093.336   -180.79845   -3100.1803 
 6814000    253.53825    -3848.225   -3413.6691    -3848.225            0    1978.9875    17.683986      20.8294    21.574422    7946.8694    2928.2294    1513.6322    1495.1008    1058.6716   -826.81678    746.25268   -3184.3105 
 6815000    246.89549   -3892.0666   -3468.8962   -3892.0666            0    878.08382    17.757305     20.91576    21.663871    8046.1251      1896.82    75.336425    662.09506     174.3472     144.1893    751.41484   -3365.8579 
 6816000    269.57152   -3884.9291   -3422.8927   -3884.9291            0     2758.973    17.747677    20.904419    21.652125    8033.0441    2750.8853    2571.7268    2954.3068   -389.34412   -982.78242    -137.3842   -3099.6688 
 6817000    249.46145    -3905.156   -3477.5876    -3905.156            0    3333.6225    17.738676    20.893817    21.641143     8020.828    3014.6179    2866.7695    4119.4801   -458.06868   -470.47818    969.07875   -3087.6353 
 6818000    252.80906   -3881.3799   -3448.0739   -3881.3799            0    2172.6274    17.749247    20.906268     21.65404    8035.1756    2598.2354    1919.5783    2000.0686    1389.0597    279.53128    622.32311    -3193.475 
 6819000    246.05281   -3893.2896   -3471.5635   -3893.2896            0    3967.1857    17.525712    20.642974    21.381328    7735.3975    2542.4569    5417.5418    3941.5584   -1478.4843   -310.81785    1800.6018    -3024.014 
 6820000    251.09739   -3867.5287   -3437.1564   -3867.5287            0    1461.3163    17.678982    20.823506    21.568317    7940.1256    833.72991    1921.6726    1628.5464    585.68742    917.32254    572.10144    -3267.938 
 6821000    254.24062   -3881.7571   -3445.9973   -3881.7571            0    2023.2385    17.614784    20.747889    21.489995    7853.9395    2345.5109    1850.5202    1873.6844    588.19148    184.26962   -28.193499   -3214.2523 
 6822000     270.4522   -3860.1598    -3396.614   -3860.1598            0    3031.2635    17.628354    20.763873    21.506551    7872.1051    3353.1766    2586.7659    3153.8479   -340.30356   -12.680676    739.97156    -3048.605 
 6823000    249.24464   -3880.9583   -3453.7615   -3880.9583            0    2968.4583    17.595723    20.725437    21.466741    7828.4705    3615.1633    2992.2601    2297.9515    -2339.704    698.57045    -983.7995    -3114.852 
 6824000    257.97779   -3906.4971    -3464.332   -3906.4971            0     3269.916    17.652953    20.792847    21.536562    7905.1059     3082.149    4788.1277    1939.4714    314.72984    355.23692    781.42985   -3087.3504 
 6825000    261.23725   -3886.2118   -3438.4601   -3886.2118            0    1626.8859    17.577741    20.704257    21.444803    7804.4942    1974.8356    1985.4466    920.37569      681.015    639.93925     176.3442    -3253.287 
 6826000    262.21582   -3911.3956   -3461.9667   -3911.3956            0    2916.2727    17.577421     20.70388    21.444412    7804.0678    2715.6558    2974.9992    3058.1631   -1215.6374   -172.34421   -672.31975   -3130.0531 
 6827000    261.86453    -3917.765   -3468.9381    -3917.765            0    1898.0242     17.51236    20.627247    21.365038    7717.7307    2076.2175    1802.4107    1815.4443   -2.9342937    1236.7953   -864.57961   -3255.3057 
 6828000    273.45026   -3844.7507   -3376.0663   -3844.7507            0    1945.0435    17.531239    20.649484     21.38807    7742.7172    1766.0461    2710.6928    1358.3914   -1114.2194   -29.814132   -600.03409   -3156.4328 
 6829000    273.75287   -3907.2784   -3438.0754   -3907.2784            0     1242.975     17.65574    20.796129    21.539961    7908.8498    192.17943    2819.9812    716.76449   -412.54374    687.12816    758.17507   -3294.7076 
 6830000    278.21707   -3857.2961   -3380.4415   -3857.2961            0    1920.0115    17.589921    20.718604    21.459663      7820.73    3006.9232    2198.5173    554.59395    642.12817    294.90029   -1035.1781   -3161.4501 
 6831000     256.8323   -3857.2913   -3417.0896   -3857.2913            0    1841.8503    17.579098    20.705856    21.446459    7806.3023     1274.704    1878.0453    2372.8017   -295.33609    115.75525    244.20028   -3207.4006 
 6832000    257.05767   -3892.0537   -3451.4657   -3892.0537            0    2531.8618    17.616617    20.750048    21.492232    7856.3921    4547.2003    924.32339    2124.0617    1628.7824    414.35858    851.51712   -3161.3715 
 6833000    256.10261   -3890.0572   -3451.1061   -3890.0572            0    2178.2638    17.691576    20.838339    21.583681    7957.1058    2661.3982    2126.8636    1746.5295   -450.52852   -183.98197    976.21315   -3198.3268 
 6834000    270.20809   -3862.8978   -3399.7703   -3862.8978            0    2114.5695    17.705637    20.854902    21.600836    7976.0938    1183.0919    2103.9062    3056.7103    754.93992    163.57485   -583.89401    -3153.797 
 6835000    271.36469   -3899.4611   -3434.3513   -3899.4611            0    3056.0543    17.647765    20.786736    21.530232    7898.1379    2977.4052    2248.7163    3942.0413    231.26508   -630.22139   -369.70821   -3082.3359 
 6836000    265.72335   -3892.1036   -3436.6629   -3892.1036            0    3275.2218    17.640342    20.777993    21.521176    7888.1759    2042.7815    3205.1926    4577.6912   -1020.0483    1370.3388    1614.7088   -3059.8782 
 6837000    259.07554    -3908.984   -3464.9374    -3908.984            0    2108.4334    17.563514      20.6875    21.427446    7785.5596    1635.9259     1878.049    2811.3253    594.16584   -1146.9794     284.9628   -3225.5366 
 6838000    257.73709   -3850.3164   -3408.5639   -3850.3164            0    2816.9551    17.637702    20.774884    21.517956    7884.6353    3207.0385    3888.1371    1355.6897   -502.02294    818.03566   -356.42175   -3084.6441 
 6839000    248.13978   -3900.2235   -3474.9204   -3900.2235            0    1171.9707    17.609294    20.741422    21.483297    7846.5978    604.93278    1983.4914    927.48789   -193.15103   -754.69339    490.71066   -3340.8064 
 6840000    255.24165   -3874.2964   -3436.8209   -3874.2964            0     2506.069    17.607185    20.738938    21.480725    7843.7796    2791.3627    3194.5726    1532.2718   -605.37927    956.00711    358.19593    -3150.143 
 6841000    252.97323    -3894.039   -3460.4515    -3894.039            0    1718.4727    17.658518    20.799402    21.543351    7912.5841    2479.3566    85.537321    2590.5241   -276.38355   -209.27486    1457.5753   -3262.1451 
 6842000    260.43601   -3860.0408   -3413.6623   -3860.0408            0    2072.3157     17.68812    20.834269    21.579465    7952.4439    1572.5497    2999.5095     1644.888   -567.68031    -233.3802   -224.76591   -3173.3188 
 6843000    256.18321   -3878.6409   -3439.5517   -3878.6409            0    1846.0354    17.657112    20.797746    21.541636    7910.6948    1754.6674    1199.7115    2583.7273   -812.42972   -1143.7954     22.59621   -3226.5757 
 6844000    251.54464   -3861.3678   -3430.2289   -3861.3678            0     3537.043    17.682298    20.827411    21.572362    7944.5939    5458.2673    3009.6862    2143.1755   -545.18392   -350.46254    301.71185   -3020.4138 
 6845000    255.20537   -3898.3439   -3460.9307   -3898.3439            0     2492.225    17.624485    20.759316    21.501831    7866.9232    2752.0863    804.31002    3920.2788   -5.7652951   -1118.4972    93.402974   -3174.9952 
 6846000    265.77748   -3890.4838   -3434.9503   -3890.4838            0    2486.4234    17.600293    20.730821    21.472317    7834.5727    3344.1509    3356.5028    758.61637   -106.29262    715.69131   -539.02264   -3150.8535 
 6847000    258.98412   -3896.8546   -3452.9647   -3896.8546            0    2043.1712    17.613676    20.746584    21.488644    7852.4577     4137.465    1278.4297    713.61885    593.78642    410.57423   -20.130987   -3218.9806 
 6848000    250.73027   -3930.8453   -3501.1022   -3930.8453            0     2657.733    17.607326    20.739104    21.480897    7843.9679    2666.7454    3359.0629    1947.3907   -24.808843   -766.48581   -419.89244   -3197.0675 
 6849000    259.22238    -3908.668   -3464.3698    -3908.668            0    3148.5162     17.55838    20.681453    21.421183    7778.7344    4369.5878    1697.6243    3378.3364   -556.56859   -518.53993   -567.37732   -3107.1868 
 6850000    248.89549   -3904.6645   -3478.0661   -3904.6645            0    2977.1437    17.549926    20.671495    21.410869    7767.5038    4812.6922    2765.2154    1353.5233    1324.3774   -645.82353   -5.7078395   -3140.8121 
 6851000    253.85379   -3901.8283   -3466.7316   -3901.8283            0    2979.7802     17.55737    20.680263    21.419951    7777.3922    3384.7806    2886.8961    2667.6639    187.27742     107.0144    353.30823   -3128.7492 
 6852000    262.73368   -3891.6394   -3441.3229   -3891.6394            0    3504.1787    17.639889    20.777459    21.520623    7887.5679    3462.8771    3239.5936    3810.0655    1034.6538    98.264127    -1413.302   -3038.2299 
 6853000    245.60987   -3878.3191   -3457.3522   -3878.3191            0    1226.8075    17.742372     20.89817    21.645652    8025.8419    1441.8272    2192.5649    46.030441    575.00011     1307.219    795.65199    -3313.756 
 6854000    251.65298   -3867.3034   -3435.9788   -3867.3034            0     3165.485    17.621166    20.755406    21.497782    7862.4799    3140.3996     3687.871    2668.1844    270.98389    1156.4692    525.40164   -3073.0047 
 6855000    264.36544   -3879.2675   -3426.1542   -3879.2675            0    2979.0219    17.629277    20.764959    21.507676    7873.3412    2593.1195    2658.7917    3685.1544   -558.20514     526.9091   -1061.7252   -3084.0892 
 6856000    249.46753   -3908.7333   -3481.1545   -3908.7333            0    3023.9654    17.639803    20.777357    21.520518    7887.4524    4043.5467    2750.5131    2277.8365   -369.59952   -237.96296   -28.725038   -3133.3065 
 6857000    250.52328   -3895.4093    -3466.021   -3895.4093            0    2330.5216    17.562015    20.685734    21.425617    7783.5659    1940.5007    1972.0461    3079.0181    1051.5045   -618.80708    366.32937   -3201.4711 
 6858000    252.87066   -3885.5112   -3452.0996   -3885.5112            0    2607.6755     17.70215    20.850795    21.596582    7971.3824    2398.2613    1839.1931    3585.5722    -228.5531    -704.2796    1705.6925   -3148.9457 
 6859000    258.37443   -3903.6268   -3460.7818   -3903.6268            0    2689.3869    17.745974    20.902414    21.650047    8030.7319    2367.4818    3497.4974    2203.1814   -371.56351   -565.65265   -273.09634   -3145.8009 
 6860000    262.06475   -3907.0523   -3457.8823   -3907.0523            0    2003.3075    17.675957    20.819943    21.564627    7936.0505    3380.7725    1327.2526    1301.8974   -679.18569   -181.87907    627.71623   -3226.0212 
 6861000      258.015   -3885.2563   -3443.0275   -3885.2563            0    1516.7505    17.691174    20.837866    21.583191    7956.5638    2185.4947    2547.8208   -183.06389    672.70386   -1077.0384    461.49311   -3267.0263 
 6862000    259.91433   -3912.4721   -3466.9878   -3912.4721            0    2895.8438    17.621818    20.756174    21.498577    7863.3525    1499.7297    3305.2958    3882.5057    -22.89021    1393.9463    1470.1662   -3134.8955 
 6863000    264.50919    -3931.449   -3478.0894    -3931.449            0    2443.4849    17.652335    20.792119    21.535808    7904.2761    2412.1951    2418.5119    2499.7479    615.76052   -563.31149    634.79475   -3196.4148 
 6864000    270.53778   -3894.0971   -3430.4046   -3894.0971            0    1111.8475    17.826697    20.997495    21.748529    8140.8221    478.97508   -589.79311    3446.3605    907.07818   -182.08497    444.37458   -3298.3999 
 6865000    258.34425   -3883.6153   -3440.8221   -3883.6153            0     3991.691    17.732085    20.886054    21.633103     8011.891    2506.1634    4582.5806     4886.329    34.673012    30.298779     159.8839   -2974.4121 
 6866000    251.52839   -3914.4717   -3483.3607   -3914.4717            0    2948.1668    17.655405    20.795735    21.539553    7908.4003    2034.8941    3084.4888    3725.1174    754.32374    292.79929    421.55714   -3143.3312 
 6867000    250.83793   -3914.5846    -3484.657   -3914.5846            0    3015.6488    17.610875    20.743285    21.485227    7848.7121    2709.2841    4532.0659    1805.5963   -1925.8059    163.78322   -493.23087   -3139.4695 
 6868000    238.02842   -3881.1559   -3473.1833   -3881.1559            0    1611.2841    17.636438    20.773395    21.516413    7882.9401    2579.5891    1462.0069    792.25634    837.77349   -1863.6873    -301.5534   -3287.9427 
 6869000    264.96604   -3879.3878   -3425.2451   -3879.3878            0    3420.7132    17.560798    20.684301    21.424133    7781.9486    4449.5979    2957.9687     2854.573   -701.65938   -1736.0543   -688.18261   -3037.0224 
 6870000    260.42054   -3900.8652   -3454.5133   -3900.8652            0     1103.592    17.627199    20.762512    21.505141    7870.5574    1617.7045    907.25343      785.818    586.23822   -1104.2789    -1175.932   -3327.8386 
 6871000    255.42153   -3903.1522   -3465.3684   -3903.1522            0    2612.6883     17.54917    20.670605    21.409947    7766.5002    3547.5237    709.48678    3581.0545    723.68465   -522.61151    578.99487   -3169.4385 
 6872000    259.69086   -3855.6764   -3410.5751   -3855.6764            0    1836.3628    17.553004     20.67512    21.414623    7771.5906    1991.8553    2339.7809    1177.4521   -1216.1623   -1012.9785    -1207.498   -3202.4405 
 6873000    257.13756   -3921.8951   -3481.1702   -3921.8951            0    1239.7008    17.548423    20.669725    21.409035    7765.5083    1480.7363    843.64509     1394.721     9.666053   -1471.6019    2036.8819   -3340.7716 
 6874000    264.82526   -3894.4263   -3440.5248   -3894.4263            0     1442.092    17.650208    20.789614    21.533213    7901.4188    1708.4617   -936.80254    3554.6168   -154.44783    82.069114    -1667.516   -3274.3467 
 6875000    272.09768   -3886.8109   -3420.4448   -3886.8109            0    1382.6663    17.702065    20.850694    21.596478    7971.2672    2395.4705    1259.0382    493.49025    822.47911   -1055.5069   -185.75554   -3259.7061 
 6876000    263.91216   -3896.8818   -3444.5454   -3896.8818            0    2151.8258    17.521873    20.638452    21.376644    7730.3145    3851.6681    524.25499    2079.5542    217.41721   -1410.5938    1400.7125   -3201.9513 
 6877000    268.83314   -3894.1758    -3433.405   -3894.1758            0    3036.8039    17.501581     20.61455    21.351887    7703.4879    2275.0669    2977.7525    3857.5924    1359.3951    114.43934    322.64269   -3092.2278 
 6878000    256.27571   -3912.8348    -3473.587   -3912.8348            0    3611.9494    17.613897    20.746844    21.488913    7852.7534    2486.8969    4013.9964    4334.9549    18.104725    530.11161    867.35144   -3059.9309 
 6879000     260.8564   -3875.9798   -3428.8809   -3875.9798            0     1887.284     17.72524    20.877991    21.624751    8002.6155     1348.057    414.12297    3899.6719    328.49782   -761.32123   -509.97996   -3208.6161 
 6880000    249.88003   -3901.1996   -3472.9138   -3901.1996            0     1859.754    17.701589    20.850134    21.595897    7970.6245     3190.171    1241.5151    1147.5759    123.94082      63.7062   -369.02196   -3256.7297 
 6881000    244.98194   -3891.6872   -3471.7966   -3891.6872            0     2865.316     17.62994    20.765741    21.508486    7874.2305    2881.6175    2449.1251    3265.2055   -2189.8354   -502.64416    1090.7868   -3142.7506 
 6882000    260.14948   -3852.5735   -3406.6862   -3852.5735            0    3553.2685    17.635454    20.772235    21.515213    7881.6205    4346.7207    3800.0305    2513.0543    1387.5676    -1783.162     1398.033   -2998.2545 
 6883000    258.30467   -3882.0653   -3439.3399   -3882.0653            0    2685.2698    17.683322    20.828617    21.573611    7945.9737    4047.0606    2820.0383    1188.7105   -575.54915   -562.90982   -373.77777   -3128.1604 
 6884000    247.84007   -3878.7432   -3453.9538   -3878.7432            0    2487.9656    17.588579    20.717023    21.458025    7818.9394    2861.4521    3125.6296    1476.8151    286.75102   -211.08696   -373.98596    -3170.248 
 6885000    252.66687   -3897.5188   -3464.4564   -3897.5188            0    2386.3936    17.566469     20.69098    21.431051    7789.4891    1629.7508    2964.4046    2565.0254    176.62111   -1766.6559    137.05862   -3193.3581 
 6886000    256.99645   -3869.4319   -3428.9488   -3869.4319            0    1953.1978    17.624146    20.758916    21.501417    7866.4691    643.35598    1390.0474    3826.1899    122.17407   -444.47239    -1170.468   -3204.8694 
 6887000    251.44025   -3876.5641   -3445.6041   -3876.5641            0    1591.1719    17.664816     20.80682    21.551035    7921.0537    577.43815    3446.5381    749.53936   -297.16152   -1605.9394   -776.60772   -3261.7912 
 6888000      266.467   -3880.4912   -3423.7759   -3880.4912            0    1074.7698    17.748839    20.905788    21.653542    8034.6216     1133.985    1638.1975    452.12703   -1110.8215   -14.195165    362.43203   -3297.8379 
 6889000    249.52508   -3922.3207   -3494.6433   -3922.3207            0    1174.7295    17.678443    20.822871     21.56766    7939.3995    587.53454    1716.1269    1220.5272    694.09119   -106.23798    -322.3678   -3358.6237 
 6890000    252.91681   -3862.1099   -3428.6192   -3862.1099            0     3290.534    17.612167    20.744806    21.486802    7850.4394    3543.2335    3041.0647    3287.3039   -271.14162    13.162934    -793.7213   -3051.8839 
 6891000    250.81371   -3891.2521    -3461.366   -3891.2521            0    1299.3458    17.619286    20.753191    21.495487    7859.9625     2901.552    500.06722    496.41832    617.76945   -404.56625    582.27031   -3312.4227 
 6892000    249.89697   -3878.2265   -3449.9116   -3878.2265            0    3139.9135    17.615211    20.748392    21.490517    7854.5112    4208.5538    1898.2522    3312.9345    -1078.715   -233.51792    914.22217   -3090.2346 
 6893000    243.26803   -3877.6167   -3460.6636   -3877.6167            0    561.18968    17.743338    20.899309    21.646831    8027.1539     247.8081    1414.0008    21.760099   -852.79582    53.730837    1228.7616   -3394.9664 
 6894000    263.57407   -3884.2147   -3432.4578   -3884.2147            0    2846.7169    17.676558     20.82065    21.565359    7936.8593    3977.0936    2793.2344    1769.8227     301.7318    99.209731   -902.00734   -3102.9476 
 6895000    262.74023   -3843.0097   -3392.6819   -3843.0097            0    1894.4165    17.613597    20.746491    21.488547    7852.3521    2744.3241    1435.1132    1503.8123    1301.2957   -836.38518    1752.0406   -3175.7362 
 6896000    250.52435   -3849.5103   -3420.1202   -3849.5103            0    2775.2732    17.516152    20.631713    21.369664    7722.7449    1266.1931    3512.1323    3547.4943    1250.7544    1460.8548    1147.9544   -3107.5458 
 6897000    248.04694   -3878.6037   -3453.4598   -3878.6037            0    2625.9729    17.640054    20.777654    21.520825    7887.7901    4303.6838    2640.2957    933.93909   -314.66349    1157.3511   -522.78735   -3151.3801 
 6898000    254.05468   -3886.6966   -3451.2555   -3886.6966            0     1160.124     17.72566    20.878486    21.625264    8003.1844    2102.1437     924.8642     453.3641    1475.8177    5.1524643    103.23736   -3315.8479 
 6899000    271.27569   -3841.2082    -3376.251   -3841.2082            0    4504.5599    17.636284    20.773213    21.516225    7882.7336    4862.4469    2786.1394    5865.0933   -181.37637    -797.5919    269.68631   -2858.3997 
 6900000    258.27887   -3892.9123   -3450.2312   -3892.9123            0    1665.8747    17.676565    20.820658    21.565368    7936.8685     2142.359    1596.9216    1258.3435    -1061.337   -1690.9201    963.39603   -3257.4044 
 6901000    263.14259   -3869.3927   -3418.3753   -3869.3927            0    2338.5707    17.621422    20.755707    21.498093    7862.8215    412.11711    3443.1142    3160.4807   -207.88293     613.9564   -801.85594   -3150.2086 
 6902000    239.80139   -3848.3976   -3437.3862   -3848.3976            0    1490.3379    17.672146    20.815454    21.559977    7930.9186    1664.8918    1976.2206    829.90144    112.06808    215.98228   -67.096553   -3265.0073 
 6903000     250.9023   -3865.6779   -3435.6399   -3865.6779            0    1526.6515    17.687866     20.83397    21.579156    7952.1019    1087.1263     173.0602    3319.7681    486.66112    286.36972   -100.07584   -3258.5892 
 6904000     249.4435   -3909.5547   -3482.0171   -3909.5547            0    4185.0555     17.54661    20.667588    21.406823     7763.101    4255.9613    4640.5781    3658.6272    292.56369    313.01388    1071.6945   -3008.1982 
 6905000    252.09679   -3879.1345   -3447.0492   -3879.1345            0    2146.7629    17.677243    20.821457    21.566195    7937.7821    3432.5697    2824.7462    182.97289   -641.31373    162.52562    69.732267   -3198.5304 
 6906000    232.74879   -3879.4891   -3480.5656   -3879.4891            0    2965.4567    17.627272    20.762598    21.505231    7870.6561    3852.6315    2576.6443    2467.0945    419.81643     175.5483   -525.12064   -3140.1744 
 6907000    251.66933   -3885.8483   -3454.4956   -3885.8483            0    2398.2608    17.649285    20.788526    21.532086    7900.1787    3659.2423    2117.0981    1418.4419    434.26393    93.076134   -1262.2677   -3178.1776 
 6908000    255.88311   -3891.6641   -3453.0892   -3891.6641            0    2857.8932    17.590298    20.719048    21.460122    7821.2322    3667.9458    1694.1055    3211.6284     1907.477   -771.95517    196.97963   -3127.1047 
 6909000    246.08454   -3843.9983   -3422.2179   -3843.9983            0    3054.5934    17.612927    20.745702     21.48773    7851.4565     3141.721    2989.8647    3032.1945    732.05972   -308.25299    573.37374   -3072.4503 
 6910000    272.08894   -3853.9941    -3387.643   -3853.9941            0    3769.9123    17.521186    20.637642    21.375805    7729.4049    2709.7811    6015.0309     2584.925    593.92816   -31.095698   -281.24974   -2962.6779 
 6911000    245.77668    -3869.983   -3448.7302    -3869.983            0    1809.3958    17.631371    20.767426    21.510232    7876.1479    3321.8016    301.94549    1804.4404   -7.5397361   -694.20601    538.35944   -3240.8929 
 6912000    242.09478   -3858.2332   -3443.2911   -3858.2332            0    2245.4123    17.620608    20.754749    21.497101    7861.7326    1648.9915    1296.4736    3790.7718   -367.52099    -391.2853    1207.9856   -3185.8426 
 6913000    253.04714   -3853.8171    -3420.103   -3853.8171            0    2388.9923    17.649099    20.788307    21.531859    7899.9289    3391.3766    2327.3058    1448.2945    306.91398     1374.317    741.87233   -3144.8615 
 6914000    251.07085   -3857.0356   -3426.7087   -3857.0356            0    2572.1519     17.60272    20.733678    21.475277     7837.813    2548.4398    2482.1957    2685.8202    1306.5384   -963.47038    974.65715   -3132.6951 
 6915000     259.8468     -3887.09   -3441.7215     -3887.09            0    2449.3945    17.625234    20.760198    21.502744    7867.9261     1659.787    4113.2664    1575.1302    1029.7935   -602.24326    56.547496   -3160.6642 
 6916000    268.12198   -3867.0182   -3407.4663   -3867.0182            0     3147.955    17.515908    20.631426    21.369367    7722.4222     1976.272    3966.7849    3500.8081   -394.91688    7.2118738   -1379.6198   -3052.9323 
 6917000    253.45093   -3903.6313   -3469.2251   -3903.6313            0    2123.6493    17.536495    20.655675    21.394483    7749.6835    1974.5868    3698.9034    697.45786    169.57132    781.56761    1748.7173   -3229.2078 
 6918000    277.45031   -3884.2465   -3408.7062   -3884.2465            0    1670.1922    17.562231    20.685989    21.425881    7783.8537     2315.412      1728.45    966.71461     357.2377    1680.2063    626.07459   -3219.1068 
 6919000     275.3031   -3901.0916   -3429.2315   -3901.0916            0    2840.7295    17.537384    20.656722    21.395568    7750.8628    3799.6625     3389.094    1333.4321    1962.9095    833.41461    1829.3322     -3108.12 
 6920000     267.1152   -3896.7865   -3438.9602   -3896.7865            0    2986.8663     17.53662    20.655822    21.394635     7749.849    3378.4937    2387.2169    3194.8882    400.08882    354.48569    665.65282   -3101.3738 
 6921000    249.98392   -3869.6686   -3441.2047   -3869.6686            0    199.16219    17.711656    20.861991    21.608179    7984.2308    580.56575   -430.61401    447.53482    1180.6792   -268.35317    226.10459   -3418.0139 
 6922000     257.8549   -3901.7805    -3459.826   -3901.7805            0    4291.5053    17.634358    20.770944    21.513876    7880.1511    3580.5975    3135.8174    6158.1009   -298.55813    393.93806   -378.95816   -2966.6294 
 6923000    261.69969   -3908.6865   -3460.1422   -3908.6865            0    2706.2559     17.71616    20.867296    21.613674    7990.3237    3256.5903    1507.3061    3354.8714      526.693    1528.2977    648.81344   -3144.7804 
 6924000    254.29992   -3879.0917   -3443.2303   -3879.0917            0     3381.993    17.657569    20.798283    21.542192     7911.308    3475.6258    3420.4944    3249.8589   -1777.4372   -99.886275     480.7103   -3053.0216 
 6925000    266.44596    -3873.103   -3416.4237    -3873.103            0    2976.2398    17.574128    20.700001    21.440395    7799.6822    2403.2134     2944.151    3581.3549    1860.4649   -204.21468   -527.72643   -3077.8754 
 6926000    252.15687   -3894.7774   -3462.5892   -3894.7774            0    3221.2796     17.59966    20.730074    21.471544    7833.7263    3449.9622     2853.057    3360.8195   -468.53329    -215.6425    767.51241   -3094.5681 
 6927000    266.25922   -3868.4524   -3412.0932   -3868.4524            0    1164.1141    17.624032    20.758782    21.501278    7866.3165      2705.53    478.53575    308.27665   -1033.3054    -573.8307      1057.04   -3278.5435 
 6928000    264.07547   -3868.0633    -3415.447   -3868.0633            0    3019.3316    17.688285    20.834463    21.579666    7952.6663    4350.0173    2091.9138    2616.0636     633.3184    995.94142   -484.68702   -3065.2604 
 6929000    253.77234   -3864.0864   -3429.1293   -3864.0864            0    1572.6537    17.675363    20.819243    21.563902    7935.2503    1794.7688    1757.0102     1166.182    884.27786   -966.22355    584.29965     -3247.13 
 6930000    247.57764   -3870.8524   -3446.5128   -3870.8524            0    2179.3961    17.723374    20.875793    21.622475    8000.0884    1250.2187    3163.5205     2124.449    461.44151    72.011546    872.40655   -3192.2359 
 6931000    261.38171    -3860.671   -3412.6717    -3860.671            0    2392.7568    17.627326    20.762661    21.505296    7870.7274    2468.1299    4009.2097    700.93075   -426.60513   -540.88218   -562.25022   -3138.0155 
 6932000    261.63677   -3839.6757   -3391.2392   -3839.6757            0    2861.0153    17.572304    20.697854     21.43817    7797.2551    3048.8091     2891.502    2642.7349    -447.5099   -748.07791    1909.9224   -3065.8989 
 6933000    242.94684   -3878.7343   -3462.3317   -3878.7343            0     1240.558    17.727609    20.880782    21.627642    8005.8252    2159.2868    419.05129    1143.3359    -341.9879   -205.74706   -1599.2236   -3317.4882 
 6934000    249.95786   -3913.6058   -3485.1866   -3913.6058            0    372.65094    17.671995    20.815276    21.559793    7930.7152    94.882971   -556.41568    1579.4855    58.557115     376.3049    171.81746   -3442.0853 
 6935000    265.68984   -3891.4894   -3436.1061   -3891.4894            0    3017.3662    17.667082    20.809489    21.553798    7924.1017     3811.674    3624.4626     1615.962   -906.31983   -180.57915   -163.83357   -3087.4045 
 6936000      261.038   -3881.9067   -3434.4965   -3881.9067            0    1486.1495    17.817064    20.986148    21.736776    8127.6315    1214.9044    669.61346    2573.9306    382.22904    340.24544    161.34273   -3258.3385 
 6937000    249.04669   -3892.4202   -3465.5627   -3892.4202            0    2457.9573    17.670298    20.813276    21.557722    7928.4297    1779.8315    3965.1636    1628.8769    -207.4425   -181.88719    352.29718    -3181.354 
 6938000    266.43133   -3885.4125   -3428.7583   -3885.4125            0    2336.1714    17.680989    20.825869    21.570765    7942.8294     1923.867    3175.7917    1908.8555   -805.11002   -689.81394    571.24154   -3158.1409 
 6939000     250.5816   -3914.9514   -3485.4631   -3914.9514            0    2481.9628    17.705108    20.854279    21.600191    7975.3796    1852.8085    3274.7625    2318.3173    1173.0707   -815.10295    124.75557   -3196.7793 
 6940000     269.8805   -3870.6072   -3408.0413   -3870.6072            0    3314.8636    17.685702    20.831421    21.576515    7949.1829      2828.81    3272.4595    3843.3214    650.51167     1070.111    531.38915   -3023.7469 
 6941000    255.53004   -3872.7997   -3434.8299   -3872.7997            0    4729.6488    17.628225    20.763721    21.506393    7871.9323    5832.1893    5879.0976    2477.6596   -173.73637   -826.25311   -664.42748    -2891.847 
 6942000    259.99948   -3881.2504   -3435.6202   -3881.2504            0    3377.3967    17.753435    20.911201    21.659149    8040.8646     3171.039    3138.3796    3822.7715   -179.64153   -1431.1371    272.77461   -3039.5604 
 6943000    258.04421   -3880.1472   -3437.8683   -3880.1472            0    533.96463    17.836856    21.009461    21.760923    8154.7476    704.01782    1748.5796   -850.70351    616.41779   -300.43935   -236.48838   -3374.3646 
 6944000    257.80951   -3854.2417   -3412.3651   -3854.2417            0    2079.6559    17.712061    20.862468    21.608672    7984.7781     2656.248    2085.6065    1497.1133   -299.96356   -1218.8867    930.05445   -3170.1895 
 6945000     253.8692   -3868.8786   -3433.7554   -3868.8786            0    1941.3162    17.646073    20.784743    21.528168    7895.8665    1414.6818    2504.3148     1904.952   -638.52416    -239.7605   -898.90417   -3210.2068 
 6946000    249.79564   -3836.6972    -3408.556   -3836.6972            0    957.05625    17.714154    20.864934    21.611227      7987.61    763.40476    1292.4746    815.28943    482.59973    499.31122     52.32421   -3297.0674 
 6947000     263.0084   -3854.7894    -3404.002   -3854.7894            0    3445.7964    17.682795    20.827996    21.572968    7945.2633    3446.7277     1982.554    4908.1075    49.501796   -364.33649    -109.8598   -3004.7255 
 6948000    254.81383   -3848.3575   -3411.6154   -3848.3575            0    3449.6181    17.705406     20.85463    21.600554    7975.7817    4047.5142     3969.179    2332.1611    720.81639    162.48212    1970.1978   -3010.3606 
 6949000    268.38973   -3872.0989    -3412.088   -3872.0989            0    2548.1756    17.673437    20.816975    21.561552    7932.6566    1622.7962    3257.1183    2764.6122   -248.79393   -926.83557     382.2464   -3117.2905 
 6950000    268.09536   -3883.8429   -3424.3366   -3883.8429            0    2634.6937    17.787748    20.951617    21.701011    8087.5778    3291.5839    2536.9325    2075.5648   -218.39141    150.71943    640.34077   -3113.5771 
 6951000    256.46277   -3871.6455   -3432.0771   -3871.6455            0     3438.692    17.685334    20.830988    21.576067    7948.6873    3285.6461    4027.8408    3002.5892   -199.20618    251.73626   -1120.6961   -3033.4521 
 6952000     262.6222   -3868.0427   -3417.9172   -3868.0427            0    1733.7229    17.743032    20.898948    21.646458    8026.7384    2281.2421    2391.8139     528.1127    -930.3005   -762.48694   -988.18999   -3214.9646 
 6953000    250.17734   -3904.8383   -3476.0429   -3904.8383            0    2259.4358    17.695486    20.842945    21.588452    7962.3833    1862.4032    2675.7398    2240.1643   -1646.7677   -835.92735    1139.5237     -3213.67 
 6954000    252.68525   -3921.2371   -3488.1432   -3921.2371            0    3195.7046    17.624749    20.759626    21.502152     7867.276    3435.3898    2639.5092    3512.2149    -843.6246    1245.5936   -1127.9582   -3121.4803 
 6955000     239.8804   -3908.4516   -3497.3049   -3908.4516            0    3482.8626    17.674534    20.818266     21.56289     7934.133    2956.6812    3664.7661    3827.1403    247.79422    151.70518   -386.49473   -3094.2987 
 6956000    248.75607   -3913.3076   -3486.9482   -3913.3076            0    2781.8276    17.768484    20.928927    21.677508    8061.3297    2335.8177    3755.5712     2254.094   -756.61928    417.86398   -268.33416   -3159.8992 
 6957000    248.98983    -3906.948   -3480.1879    -3906.948            0    -317.8373    17.730427    20.884102     21.63108    8009.6439   -1940.2818    1254.3355   -267.56561    565.30862    -441.6086    376.01371   -3517.3153 
 6958000    266.16799   -3917.6038   -3461.4009   -3917.6038            0    2544.8628    17.694478    20.841758    21.587222    7961.0232    3253.0026    2605.1973    1776.3884   -1060.3642    707.49503   -1506.9138   -3165.9338 
 6959000    262.58358   -3937.2699   -3487.2106   -3937.2699            0    3534.6206    17.607189    20.738943    21.480729    7843.7844    3941.5148     3003.696    3658.6511   -583.45594   -212.97086    833.84657   -3082.8728 
 6960000    259.93017   -3911.0578   -3465.5464   -3911.0578            0    1471.0452    17.722116    20.874312    21.620941    7998.3858    1584.5414    983.03369    1845.5605    496.35284    491.82272    1378.8609   -3293.9515 
 6961000    251.26003   -3903.0182   -3472.3671   -3903.0182            0     1215.609    17.742539    20.898368    21.645856    8026.0693    1353.1327    2084.4823     209.2121   -374.45027   -438.98081    340.66396   -3330.0776 
 6962000     257.6102   -3889.1085   -3447.5735   -3889.1085            0    1917.3928     17.69178     20.83858     21.58393    7957.3814    2213.7796    2810.5967    727.80197    940.60364   -648.62339    455.03472   -3225.0596 
 6963000    266.51063   -3897.5535   -3440.7634   -3897.5535            0    1615.6385    17.776499    20.938368    21.687287    8072.2442    1660.2963    1923.0679    1263.5514     242.8057   -918.13178    133.57906   -3250.5617 
 6964000    264.89513   -3918.5823   -3464.5611   -3918.5823            0    2206.5287    17.701289    20.849781    21.595532    7970.2196    1939.3544    1160.8908    3519.3408    1057.1946   -300.27639    549.25033   -3208.0798 
 6965000    239.89065   -3954.8448   -3543.6805   -3954.8448            0    2217.9607    17.675497    20.819401    21.564065    7935.4308    1045.8266    3806.1995    1801.8559    490.97154   -964.48143    391.01911   -3286.9956 
 6966000    259.12954   -3948.5251   -3504.3859   -3948.5251            0    1866.2203    17.748942     20.90591    21.653668    8034.7622    2395.5433    1371.5254    1831.5921    666.44636    386.10376     329.4065   -3285.7045 
 6967000    264.75917   -3956.0574   -3502.2693   -3956.0574            0    2009.3895    17.648394    20.787476    21.530999    7898.9821    2318.3523    1040.8019    2669.0142    -609.6682   -587.71224   -128.77293   -3270.7905 
 6968000    256.10704   -3898.6133   -3459.6546   -3898.6133            0    2436.5475    17.592644    20.721811    21.462985    7824.3626    1551.4323    3682.2367    2075.9734    709.98175    795.94891    64.351145   -3181.6194 
 6969000    262.63662   -3902.4783   -3452.3282   -3902.4783            0    1909.2136     17.60324    20.734291    21.475911     7838.508    1068.5918    3041.1857    1617.8633    542.35858    477.34782   -1288.5066   -3234.0734 
 6970000    253.85109   -3921.0866   -3485.9946   -3921.0866            0    3133.8291    17.596338    20.726162    21.467491    7829.2913    2906.2758    3723.4896    2771.7219    1386.1778    131.73409    776.35763   -3128.1671 
 6971000    256.34686   -3886.5463   -3447.1766   -3886.5463            0    1500.9161    17.687461    20.833493    21.578662    7951.5557    361.99778    2808.5621    1332.1883    889.94844    127.36085   -1012.3715   -3273.1224 
 6972000    245.90587   -3886.7856   -3465.3114   -3886.7856            0    3276.3087    17.668067     20.81065    21.555001     7925.428    3715.5702    4341.3184    1772.0375    235.58519    658.15817    907.87536   -3086.6217 
 6973000    259.25236   -3910.2226    -3465.873   -3910.2226            0    3309.5143    17.641475    20.779327    21.522558    7889.6958    4820.0466    2931.8771    2176.6191   -800.94669    478.65589   -572.20668   -3085.0699 
 6974000     255.5991   -3869.8504   -3431.7623   -3869.8504            0     4774.877    17.644678      20.7831    21.526466    7893.9938    4841.8312    4857.5032    4625.2964    425.06715    1297.5592   -60.873791   -2882.0507 
 6975000    244.47681   -3872.9401   -3453.9152   -3872.9401            0     3165.371    17.618912    20.752751    21.495032    7859.4626    1934.6403    2040.9823    5520.4904   -138.01223    479.12328    409.42287   -3091.0934 
 6976000    262.33167   -3905.8243   -3456.1968   -3905.8243            0    1711.0136    17.794396    20.959448    21.709122      8096.65    1923.1614    1682.6493    1527.2299   -811.49577   -182.02321    876.84796    -3254.158 
 6977000    277.24025   -3857.0351   -3381.8548   -3857.0351            0    1556.9277    17.822859    20.992974    21.743847    8135.5653    1388.4038    2802.4145    479.96483    -1701.865   -1167.9692   -92.324281   -3197.1271 
 6978000    259.58735   -3857.3729   -3412.4491   -3857.3729            0    1946.7543    17.688443     20.83465    21.579859      7952.88    1934.3703    1792.3491    2113.5433   -67.591034   -309.40306   -181.44193   -3186.6556 
 6979000    265.23852   -3849.3137   -3394.7039   -3849.3137            0    4139.7144    17.613561    20.746448    21.488503    7852.3035    3784.0558    5339.9897    3295.0976   -1101.7896    2278.0654    867.51428    -2920.633 
 6980000    251.53977   -3810.8798   -3379.7493   -3810.8798            0    2552.4053    17.651035    20.790588    21.534222    7902.5297     3039.702     1369.576    3247.9379     1.497087    500.79142    429.41711   -3085.5838 
 6981000    266.47677   -3862.0813   -3405.3492   -3862.0813            0    2200.9942    17.642657     20.78072    21.524001    7891.2823    2410.7266    871.59835    3320.6577     15.61317    385.30468    1391.0448    -3152.045 
 6982000    268.85295   -3892.2146   -3431.4098   -3892.2146            0     1275.774    17.674998    20.818813    21.563456    7934.7583    1486.4154    456.36039    1884.5462    357.94571    241.39579    -740.3675   -3283.7769 
 6983000    252.81456   -3879.5583   -3446.2428   -3879.5583            0    1587.9698    17.651459    20.791088    21.534739    7903.0994    1419.6432    1327.2617    2017.0045   -1055.6103    6.1906692   -752.55621   -3263.2157 
 6984000    263.64252   -3897.1316   -3445.2574   -3897.1316            0    1276.0776    17.716398    20.867577    21.613964    7990.6456    1132.4506    1313.3695    1382.4128   -227.01251    915.59137   -499.30692   -3296.5492 
 6985000    254.26175   -3897.6007   -3461.8048   -3897.6007            0    2380.7264    17.636681    20.773681     21.51671    7883.2658    908.66689      3110.02    3123.4923   -555.83598     -209.117   -1410.8331   -3188.0942 
 6986000    257.12213   -3887.3263   -3446.6278   -3887.3263            0    2981.8885    17.529252    20.647143    21.385646    7740.0847    4039.2924    2848.1288    2058.2443   -168.73521    784.72819   -389.16843   -3110.0287 
 6987000    250.33213   -3865.8124   -3436.7517   -3865.8124            0    2307.9578    17.552951    20.675058    21.414559    7771.5209    1552.2676    3291.9168    2079.6892   -187.99168   -103.34814   -514.74709   -3175.1686 
 6988000    264.34708   -3889.7088    -3436.627   -3889.7088            0    3210.0711    17.577569    20.704055    21.444594    7804.2659    2440.6798    2164.2983     5025.235   -617.04467     1274.824    639.33275   -3071.2656 
 6989000    262.51217   -3894.4223   -3444.4854   -3894.4223            0    2127.2869    17.559141    20.682349    21.422111    7779.7452    2619.0402    2378.2671    1384.5534   -278.39972     1097.653    911.58471   -3203.1243 
 6990000    256.77964   -3856.4336    -3416.322   -3856.4336            0    2995.0328    17.512418    20.627315    21.365109    7717.8071    4395.0485    3816.7574    773.29264    900.83995   -56.387095   -311.83206   -3079.2122 
 6991000    240.15262   -3872.1299   -3460.5165   -3872.1299            0    2148.0531    17.669377    20.812192    21.556598    7927.1901    2180.4277    2012.5341    2251.1975   -410.01589    1329.6752    596.29029   -3212.1802 
 6992000    264.22723    -3874.862   -3421.9856    -3874.862            0    1509.0353      17.6098    20.742019    21.483915    7847.2752    3131.5148    451.68496    943.90604    440.28418    1068.5095   -1724.4209   -3249.2849 
 6993000    266.08168   -3866.0844   -3410.0295   -3866.0844            0    2450.6194    17.555816    20.678432    21.418054    7775.3262    1418.8526    1319.9544    4613.0512    114.27387   -508.11363     674.4589   -3132.1412 
 6994000    271.32108   -3888.9079   -3423.8728   -3888.9079            0    2772.5731    17.647588    20.786528    21.530017    7897.9011    1998.0832    3451.0291     2868.607   -799.71136   -579.84696    166.29099   -3104.5201 
 6995000    260.20621   -3832.9013   -3386.9168   -3832.9013            0    807.61123    17.739943     20.89531     21.64269    8022.5472   -154.92969    1220.7589    1357.0045     365.5024   -1745.1531   -830.93025   -3292.4258 
 6996000    254.31863    -3857.028   -3421.1345    -3857.028            0    1072.6656    17.684162    20.829607    21.574636    7947.1067     1853.402    917.56098    447.03381   -568.64342    -233.7896    1160.5905   -3296.8122 
 6997000    260.62469   -3898.5834   -3451.8816   -3898.5834            0    1957.1518    17.658433    20.799301    21.543247    7912.4695    2840.6312    1779.1053    1251.7189   -1321.3968    259.20158    -492.8728   -3226.0356 
 6998000     259.2402   -3860.4783   -3416.1495   -3860.4783            0    2761.0692    17.723399    20.875823    21.622505    8000.1225    3720.7508    2489.4029    2073.0538    837.21343     329.7733    667.89357   -3094.0056 
 6999000    245.55282   -3901.0165   -3480.1474   -3901.0165            0    2118.8985    17.656714    20.797276    21.541149    7910.1589     1602.038    2600.0547    2154.6027     902.1336   -722.70443    1491.1886    -3235.708 
 7000000    273.59813   -3882.9556   -3414.0177   -3882.9556            0    2046.9694    17.622592    20.757086    21.499522    7864.3888    3207.6475    1475.0872    1458.1735   -269.48805   -399.90189    11.862117   -3179.2425 
Loop time of 439.819 on 64 procs for 250000 steps with 864 atoms

Performance: 98.222 ns/day, 0.244 hours/ns, 568.416 timesteps/s
99.1% CPU use with 64 MPI tasks x 1 OpenMP threads

MPI task timing breakdown:
Section |  min time  |  avg time  |  max time  |%varavg| %total
---------------------------------------------------------------
Pair    | 19.787     | 23.784     | 27.817     |  40.2 |  5.41
Bond    | 0.26507    | 0.2774     | 0.28601    |   0.7 |  0.06
Kspace  | 193.65     | 204.46     | 215.7      |  37.7 | 46.49
Neigh   | 4.6618     | 5.4136     | 6.5543     |  25.8 |  1.23
Comm    | 85.561     | 98.193     | 109.43     |  60.0 | 22.33
Output  | 1.7713     | 1.7786     | 1.7872     |   0.5 |  0.40
Modify  | 96.345     | 99.991     | 105.23     |  19.5 | 22.73
Other   |            | 5.919      |            |       |  1.35

Nlocal:        13.5000 ave          19 max           8 min
Histogram: 3 2 7 6 13 15 6 7 3 2
Nghost:        2066.17 ave        2115 max        2017 min
Histogram: 1 2 9 8 12 12 9 5 4 2
Neighs:        3924.12 ave        5386 max        2222 min
Histogram: 3 2 6 7 10 11 8 7 4 6

Total # of neighbors = 251144
Ave neighs/atom = 290.67593
Ave special neighs/atom = 2.0000000
Neighbor list builds = 13611
Dangerous builds = 0

unfix		3
unfix		2
unfix		1

write_data	data.final.${pid}
write_data	data.final.0
System init for write_data ...
PPPM initialization ...
  extracting TIP4P info from pair style
  using 12-bit tables for long-range coulomb (../kspace.cpp:340)
  G vector (1/distance) = 0.37273386
  grid = 24 24 25
  stencil order = 5
  estimated absolute RMS force accuracy = 0.003245618
  estimated relative force accuracy = 9.7740823e-06
  using double precision FFTW3
  3d grid and FFT values/proc = 2730 288
Last active /omp style is kspace_style pppm/tip4p/omp
WARNING: Not all mixed pair coeffs generated from mixing. Use write_data with 'pair ij' option to store all pair coeffs. (../write_data.cpp:312)

write_restart   restart.lmp.${pid}
write_restart   restart.lmp.0
System init for write_restart ...
PPPM initialization ...
  extracting TIP4P info from pair style
  using 12-bit tables for long-range coulomb (../kspace.cpp:340)
  G vector (1/distance) = 0.37273386
  grid = 24 24 25
  stencil order = 5
  estimated absolute RMS force accuracy = 0.003245618
  estimated relative force accuracy = 9.7740823e-06
  using double precision FFTW3
  3d grid and FFT values/proc = 2730 288
Last active /omp style is kspace_style pppm/tip4p/omp
Total wall time: 0:07:22
