LAMMPS (30 Jul 2021)
Processor partition = 0
  using 4 OpenMP thread(s) per MPI task
using multi-threaded neighbor list subroutines
variable        pid world 0 1
variable        phase world IceVI IceV

shell cd ${phase}
shell cd IceVI
include Restart.lmp
echo both
log log.lammps
#include		in.partitions
include		in.temp
variable        temperature equal 113.27
variable	tempDamp equal 100.0
include		in.pressure
variable        pressure equal 8268.2
variable        pressureDamp equal 1000.0 # This is 1 ps
include		in.seed
variable        seed equal 745823

units		real
atom_style	full
read_restart	restart.lmp.${pid}
read_restart	restart.lmp.0
Reading restart file ...
  restart file = 30 Jul 2021, LAMMPS = 30 Jul 2021
  restoring atom style full from restart
  orthogonal box = (-0.00071520283 0.043878785 -0.035974477) to (24.730716 24.686122 22.845974)
  4 by 2 by 2 MPI processor grid
  restoring pair style lj/cut/tip4p/long/omp from restart
  restoring bond style harmonic/omp from restart
  restoring angle style harmonic/omp from restart
  1920 atoms
  1280 bonds
  640 angles
Finding 1-2 1-3 1-4 neighbors ...
  special bond factors lj:    0        0        0       
  special bond factors coul:  0        0        0       
     2 = max # of 1-2 neighbors
     1 = max # of 1-3 neighbors
     1 = max # of 1-4 neighbors
     2 = max # of special neighbors
  special bonds CPU = 0.001 seconds
  read_restart CPU = 0.008 seconds
include 	in.setup
variable	out_freq equal 1000
variable	out_freq2 equal 10000
variable	out_freq3 equal 1000

timestep	2.0

neigh_modify    delay 7 every 1

include		in.tip4p
# This is TIP4P/Ice

# create groups ###
group ox type 2
640 atoms in group ox
group hy type 1
1280 atoms in group hy

# set charges - beside manually ###
set group ox charge -1.1794
Setting atom values ...
  640 settings made for charge
set group hy charge 0.5897
Setting atom values ...
  1280 settings made for charge

# ### TIP3P Potential Parameters ###
pair_style lj/cut/tip4p/long/omp 2 1 1 1 0.1577 8.5
pair_coeff 1 1*2 0.000 0.000
pair_coeff 2 2 0.21084 3.1668
bond_style  harmonic
bond_coeff  1 450 0.9572
angle_style harmonic
angle_coeff 1 55 104.52
kspace_style pppm/tip4p/omp 1.0e-5
pair_modify tail yes

thermo          ${out_freq}
thermo          1000
thermo_style    custom step temp pe etotal epair emol press lx ly lz vol pxx pyy pzz pxy pxz pyz enthalpy

restart 	${out_freq3} restart.lmp.${pid} restart2.lmp.${pid}
restart 	1000 restart.lmp.${pid} restart2.lmp.${pid}
restart 	1000 restart.lmp.0 restart2.lmp.${pid}
restart 	1000 restart.lmp.0 restart2.lmp.0


include         in.dump
dump            myDump all atom ${out_freq2} dump.water.${pid}
dump            myDump all atom 10000 dump.water.${pid}
dump            myDump all atom 10000 dump.water.0
dump            myDump2 all dcd ${out_freq2} dump.dcd
dump            myDump2 all dcd 10000 dump.dcd
dump_modify     myDump append yes
dump_modify     myDump2 append yes


variable natoms 	equal  "count(all)"                        # NUMBER ATOMS
variable H      	equal  "enthalpy/v_natoms"                 # ENTHALPY-per-atom
variable Vol      	equal  "vol/v_natoms"                 # volume-per-atom
fix AVG all 		ave/time ${out_freq} 1 ${out_freq} v_Vol v_H file vol_enthalpy.dat
fix AVG all 		ave/time 1000 1 ${out_freq} v_Vol v_H file vol_enthalpy.dat
fix AVG all 		ave/time 1000 1 1000 v_Vol v_H file vol_enthalpy.dat




fix 		1 all shake 1e-6 200 0 b 1 a 1
Finding SHAKE clusters ...
       0 = # of size 2 clusters
       0 = # of size 3 clusters
       0 = # of size 4 clusters
     640 = # of frozen angles
  find clusters CPU = 0.000 seconds
fix             2 all nph aniso ${pressure} ${pressure} ${pressureDamp}
fix             2 all nph aniso 8268.2 ${pressure} ${pressureDamp}
fix             2 all nph aniso 8268.2 8268.2 ${pressureDamp}
fix             2 all nph aniso 8268.2 8268.2 1000
fix             3 all temp/csvr ${temperature} ${temperature} ${tempDamp} ${seed}
fix             3 all temp/csvr 113.27 ${temperature} ${tempDamp} ${seed}
fix             3 all temp/csvr 113.27 113.27 ${tempDamp} ${seed}
fix             3 all temp/csvr 113.27 113.27 100 ${seed}
fix             3 all temp/csvr 113.27 113.27 100 745823


run             250000
PPPM initialization ...
  extracting TIP4P info from pair style
  using 12-bit tables for long-range coulomb (../kspace.cpp:340)
  G vector (1/distance) = 0.37516519
  grid = 30 30 30
  stencil order = 5
  estimated absolute RMS force accuracy = 0.0031858344
  estimated relative force accuracy = 9.5940458e-06
  using double precision FFTW3
  3d grid and FFT values/proc = 7920 1800
Last active /omp style is kspace_style pppm/tip4p/omp
Neighbor list info ...
  update every 1 steps, delay 7 steps, check yes
  max neighbors/atom: 2000, page size: 100000
  master list distance cutoff = 10.8154
  ghost atom cutoff = 10.8154
  binsize = 5.4077, bins = 5 5 5
  1 neighbor lists, perpetual/occasional/extra = 1 0 0
  (1) pair lj/cut/tip4p/long/omp, perpetual
      attributes: half, newton on, omp
      pair build: half/bin/newton/omp
      stencil: half/bin/3d
      bin: standard
Setting up Verlet run ...
  Unit style    : real
  Current step  : 30000000
  Time step     : 2
Per MPI rank memory allocation (min/avg/max) = 12.56 | 12.56 | 12.57 Mbytes
Step Temp PotEng TotEng E_pair E_mol Press Lx Ly Lz Volume Pxx Pyy Pzz Pxy Pxz Pyz Enthalpy 
30000000    121.77995   -9733.5251   -9269.2444   -9733.5251            0    8059.6885    24.731431    24.642243    22.881949    13945.128    8278.7555    8529.0013    7371.3087    121.84374     191.7478    585.17632   -7630.1021 
30001000    113.25142   -9733.2857   -9301.5197   -9733.2857            0    7922.8663    24.791047    24.740778    22.761252    13960.609    7255.8113    8597.1384     7915.649   -5.6618272    -81.27313    931.10303   -7688.4149 
30002000    114.30916   -9725.9246    -9290.126   -9725.9246            0    8501.4972    24.692849    24.705819    22.801332    13910.114    9540.0717    8694.0039     7270.416   -1020.4491    -488.9656    750.50202   -7565.4719 
30003000    115.09141   -9732.6097   -9293.8288   -9732.6097            0    8805.8477    24.720942    24.677142    22.813024    13916.908    8878.9142    9747.7976    7790.8312   -449.47978   -238.68366   -885.02604   -7506.5602 
30004000    113.53416    -9741.176    -9308.332    -9741.176            0    8779.2456    24.766077    24.793839    22.646666    13906.097    8173.7669    9414.3988    8749.5712   -567.07335   -586.25788    44.701397   -7527.8469 
30005000    111.30559   -9713.5028   -9289.1551   -9713.5028            0    7552.8081    24.719719    24.767139    22.815712    13968.616    7793.5795    7487.4178    7377.4269   -119.77743   -109.68051    205.04592   -7750.5126 
30006000    120.76632   -9734.2717   -9273.8554   -9734.2717            0     8894.123    24.657802    24.708989     22.82823    13908.541    9449.7786    8689.0591    8543.5311   -209.86283   -440.99877    603.38215   -7469.7554 
30007000    114.08747   -9742.6602   -9307.7068   -9742.6602            0    7618.8224    24.727841    24.796032    22.756979    13953.495       7755.6    7395.9188    7704.9483    126.03945    17.689362    902.65553   -7757.2962 
30008000    110.69351    -9724.501   -9302.4868    -9724.501            0    8466.0331    24.734399    24.704063    22.791609    13926.589    7316.0997     9579.109    8502.8905   -40.386633   -1279.5275   -395.84022   -7582.9931 
30009000    116.11141   -9716.8331   -9274.1634   -9716.8331            0    8952.4373    24.689156    24.722076    22.797931    13915.109     8818.047    8919.0854    9120.1794    343.38013    427.06297    528.93888   -7457.3774 
30010000     114.6902   -9720.9211   -9283.6698   -9720.9211            0    8621.3585    24.677913    24.776841     22.74547    13907.507    9133.5422     8334.899    8395.6344    -841.3166    85.275029   -305.53251   -7535.0279 
30011000     112.4954   -9727.0069   -9298.1231   -9727.0069            0    7865.3334     24.63272    24.843021    22.788778     13945.62    9876.7733    6388.7057    7330.5211   -667.82497   -223.39541   -213.66153   -7698.4514 
30012000    115.76316   -9714.3868   -9273.0448   -9714.3868            0    8482.7388    24.653983    24.746927    22.839811    13934.804    8756.7549     8739.819    7951.6424    242.94869    187.59695    113.11185   -7549.1417 
30013000    113.13356   -9716.2224   -9284.9056   -9716.2224            0    7902.0485    24.696117    24.831213    22.769221    13962.873    8392.1087     7681.649    7632.3877   -628.32167   -612.73881    225.61991   -7675.7785 
30014000    113.09939   -9744.5764   -9313.3899   -9744.5764            0    8641.8002    24.651917    24.727133    22.825072    13913.507    8637.6126    8669.2172    8618.5707    281.18523     668.0987   -218.58717   -7559.8457 
30015000    113.22222   -9721.8532   -9290.1985   -9721.8532            0    8439.5361    24.673864    24.773104    22.768936    13917.471    8432.4084    8185.7335    8700.4664   -537.97062    123.65194    72.877711   -7577.2086 
30016000    114.33048   -9726.0502   -9290.1703   -9726.0502            0    8499.3486    24.693271    24.781175     22.77229    13935.008    8966.1912    8113.3811    8418.4735   -1018.7382   -611.37411    259.15625   -7562.8664 
30017000    115.32811   -9733.1909   -9293.5075   -9733.1909            0    7040.2899    24.770975    24.884327    22.697394    13990.879    6821.9444    6528.0623     7770.863   -73.357764    250.39156   -121.64955   -7856.9884 
30018000    113.78102   -9747.0388   -9313.2537   -9747.0388            0     8175.643    24.734466    24.702014    22.823453    13944.927    8075.3034    7567.8474    8883.7781   -99.518219    -501.9604    228.17158   -7650.5531 
30019000    111.24255   -9727.5307   -9303.4234   -9727.5307            0    7463.4468    24.761474    24.681018    22.846445    13962.339     7163.047    8412.7645    6814.5289   -407.25925   -524.43632    487.42308   -7783.6686 
30020000    114.49218   -9737.3128   -9300.8163   -9737.3128            0    7860.4517    24.755352    24.750528    22.752103    13940.396    7333.6111    8060.9214    8186.8227    80.749044    262.85296    329.82964   -7702.7363 
30021000    108.52685   -9718.1266   -9304.3728   -9718.1266            0    8268.7541    24.767283    24.727977    22.760202    13939.368     7697.789    8771.0979    8337.3755    -407.0069   -434.95637   -165.15936   -7623.4063 
30022000    114.97003   -9721.4966   -9283.1784   -9721.4966            0    7756.0019    24.769245    24.737165    22.803359    13972.095    7438.0348    7732.3435    8097.6273     113.6856     105.3639   -141.02736   -7702.7482 
30023000    111.09892   -9741.6255   -9318.0657   -9741.6255            0    8422.1899    24.737324    24.700929    22.789407    13925.123     7696.593    9511.3683    8058.6085     90.30167   -205.06596    597.30548   -7607.6568 
30024000    115.74132   -9711.0004   -9269.7417   -9711.0004            0    7803.3892    24.760002    24.726626    22.838143    13982.226    7578.5824    8146.7244    7684.8607    518.53036    897.77951   -174.65078   -7678.5024 
30025000    114.12155   -9721.4974    -9286.414   -9721.4974            0    8691.3613    24.757956    24.669898    22.780142    13913.569     8481.478    9153.8602    8438.7457    295.36997    1170.2026    371.58732   -7522.8052 
30026000    112.63408   -9712.3461   -9282.9336   -9712.3461            0    8026.9802    24.788018    24.723124     22.76991    13954.249     7550.968    8036.4137    8493.5588   -941.95976   -495.79087   -157.73972   -7649.3757 
30027000     113.2973    -9719.752    -9287.811    -9719.752            0    8675.6307    24.761014    24.669714    22.800292    13927.493    7976.5752    9393.1528    8657.1642    88.924984    337.69278    934.95769   -7525.6325 
30028000    114.70584   -9736.8937   -9299.5827   -9736.8937            0    9267.6154    24.739859    24.651477    22.771284    13887.615    9186.2922    10189.662    8426.8921   -394.29324   -17.462728    -30.54781   -7422.5512 
30029000    113.05237   -9741.5731   -9310.5659   -9741.5731            0    7518.3671    24.868087    24.711081    22.726804    13966.015    7825.4527    7144.6479    7585.0007    305.65451   -689.80875   -278.27815   -7779.2249 
30030000    114.35518    -9717.909   -9281.9349    -9717.909            0    8593.9678    24.737564    24.683215    22.802935    13923.532    8121.8955    9393.1936    8266.8142    219.40854   -911.05415   -63.401161   -7536.8401 
30031000    117.42123   -9725.2064   -9277.5431   -9725.2064            0    7476.0168    24.866029     24.68254    22.780011    13981.386    5650.8649    8805.1917    7971.9937   -581.11834    488.83154    448.30752   -7753.1521 
30032000    118.59613   -9727.7225   -9275.5799   -9727.7225            0    8217.0973    24.780286    24.697018    22.754623     13925.81     7709.046    8921.5961    8020.6498    36.786659    530.93585   -566.66732   -7606.7396 
30033000    119.16098   -9742.4877   -9288.1917   -9742.4877            0    8050.7479    24.743989    24.686373    22.834073    13947.951    7705.1537    9148.8667    7298.2232    244.95164   -74.703968    1036.3324   -7650.5363 
30034000    111.46704    -9736.829   -9311.8658    -9736.829            0    8157.2418    24.803814    24.712519    22.722159    13927.882    7529.9837    8553.9377    8387.8041    236.02382    343.83878    243.90485   -7654.9353 
30035000    111.29057   -9745.2667   -9320.9763   -9745.2667            0    8623.2758     24.75431    24.681654    22.784844    13921.023    8005.4931    9478.9477    8385.3867     160.6677   -643.08413   -311.94762   -7570.2457 
30036000    108.15971   -9714.2744   -9301.9203   -9714.2744            0    7596.0736    24.776742     24.68937    22.839994     13971.73    6460.1677    8879.3398    7448.7134   -633.28607    326.91764    -112.4166   -7754.1189 
30037000    113.16869   -9728.5878   -9297.1372   -9728.5878            0    7349.4669    24.842798    24.770167    22.727179    13985.402    6472.3512     7276.034    8300.0154   -247.86798   -228.76712   -489.53692   -7798.1197 
30038000    115.25541   -9721.8948   -9282.4886   -9721.8948            0    8666.6675    24.771202    24.705932    22.743545     13918.95    7579.0298    9883.8996    8537.0733    257.94766   -85.601124    103.06732   -7523.2105 
30039000    113.80009   -9738.9064   -9305.0486   -9738.9064            0    8127.9733    24.762294    24.628639      22.8353    13926.372    7451.5147    9038.8424    7893.5629    31.203315    54.576797    445.86331   -7654.2421 
30040000    111.39086   -9724.3915   -9299.7187   -9724.3915            0    8871.4372    24.793182     24.67388    22.743941    13913.469    7716.9144    9265.8654    9631.5319   -783.48425    44.862961    395.73958   -7499.5828 
30041000    108.66117   -9733.9871   -9319.7212   -9733.9871            0    7525.8195    24.845411    24.727485    22.701752    13947.151    6256.4981    8515.0028    7805.9577   -578.40775   -601.15046   -359.94383   -7788.9326 
30042000    115.13832   -9737.0458    -9298.086   -9737.0458            0     8050.414    24.720623    24.678472     22.84081     13934.43    8286.3792    8276.3627       7588.5    -113.1887    439.61165    11.971504    -7662.086 
30043000    112.16928   -9713.1759   -9285.5355   -9713.1759            0    8735.3634    24.694923    24.706855    22.819614     13923.02    8142.7132    9697.4876    8365.8893   -287.70477    392.66206   -842.10638    -7511.794 
30044000    114.91291   -9734.6664    -9296.566   -9734.6664            0    7534.3112    24.886582    24.723662    22.683054    13956.598    6138.0013    8943.1637    7521.7686   -569.36095   -360.61339   -146.04071   -7763.0122 
30045000    110.72412   -9743.4763   -9321.3455   -9743.4763            0    8268.8186    24.743062    24.657403     22.82371    13924.738    7952.3052    9154.3822    7699.7683   -625.26227    74.002375   -591.25203   -7642.1302 
30046000    114.98605   -9708.6688   -9270.2895   -9708.6688            0    8645.9603    24.767202    24.688689    22.780135    13929.363    8325.0039    9184.3733    8428.5037    237.53244    324.14305    178.57594   -7513.9019 
30047000    114.20523   -9740.2364    -9304.834   -9740.2364            0    7826.2422    24.813633    24.730993    22.713367    13938.416    7114.7812    7874.9127    8489.0327    305.32477    -106.1344   -6.9852928    -7713.935 
30048000     111.0503   -9719.4492   -9296.0748   -9719.4492            0    9008.3278     24.71437     24.66154    22.824512    13911.413    9095.1752    9640.1551     8289.653   -610.93603   -912.59165    862.25593   -7468.4321 
30049000    113.38441   -9717.6456   -9285.3725   -9717.6456            0    7996.8784    24.777114    24.772395    22.736138    13955.179    7763.7005    7764.3066     8462.628   -530.20887   -517.23704    59.722516   -7657.8321 
30050000    115.44225   -9720.0551   -9279.9366   -9720.0551            0    8205.3061    24.687852    24.746682    22.807349    13933.977     8331.933    8371.8884    7912.0968    260.41918   -693.44714   -633.08733   -7612.5136 
30051000     114.1543   -9730.4418   -9295.2336   -9730.4418            0     7995.452    24.670966    24.824183    22.759393    13938.685    8500.3223    7364.6557    8121.3781    61.253677   -859.76532   -409.78602   -7669.9068 
30052000    113.83315   -9729.0793   -9295.0954   -9729.0793            0    8824.4143    24.633367     24.79112    22.791442    13918.477    8768.0629    8379.6452    9325.5348   -606.46743   -602.70767   -140.55801   -7503.8566 
30053000    112.19783   -9729.4656   -9301.7163   -9729.4656            0    7265.8248    24.688638     24.81693     22.81647    13979.564    7819.1209    7010.2005     6968.153   -511.96738   -200.80826   -427.62935   -7820.3774 
30054000    113.00735   -9718.9471   -9288.1116   -9718.9471            0    8125.9835    24.676708    24.808433    22.794254    13954.425    8140.8193    8358.0725    7879.0586   -598.18821   -1005.2442    166.36809   -7634.3848 
30055000    113.64302   -9711.9162   -9278.6572   -9711.9162            0    8802.3139      24.6607    24.828001    22.713018    13906.633    9603.3859    7902.3204    8901.2355   -87.981297   -519.37278   -433.82237   -7493.4249 
30056000    116.99851   -9726.3148   -9280.2631   -9726.3148            0    8365.4195    24.690701    24.753581    22.797662     13933.55    8405.9688    8270.4764    8419.8134   -400.29625    709.37631    67.490171   -7580.3553 
30057000    109.61471   -9713.2483   -9295.3471   -9713.2483            0    7898.8388    24.683762    24.825334    22.776717    13957.176    8528.9399    7003.0238    8164.5526    94.596501   -50.518916    270.14012   -7687.5297 
30058000     112.8414    -9730.931   -9300.7281    -9730.931            0    8469.8885    24.641151    24.856182    22.736083    13925.508    9361.9512    7431.3013    8616.4129   -396.47258    134.76482    565.35505   -7580.5848 
30059000    115.76203   -9735.6733   -9294.3357   -9735.6733            0    9320.8155    24.641048    24.744636    22.795561    13899.223    9676.2608    8889.1159    9397.0698    638.54682    111.59725    446.94375   -7404.9513 
30060000    111.77244   -9744.9456   -9318.8181   -9744.9456            0     7446.892    24.717838    24.741314    22.820301    13955.796    7240.3081    7655.6466    7444.7212   -246.27186   -875.80885    874.52785    -7803.145 
30061000    114.02561   -9733.3289   -9298.6113   -9733.3289            0     9043.615    24.755002    24.712981     22.70232    13888.596    8205.0879    9287.9262    9637.8308     73.76601    301.90843    524.51552   -7466.8186 
30062000    115.39347   -9739.7171   -9299.7846   -9739.7171            0    8182.5591    24.717346    24.719895    22.817371    13941.646    8211.2098    8701.5909    7634.8765    599.11308   -579.41265   -134.12137    -7636.069 
30063000    117.87072   -9722.9957   -9273.6187   -9722.9957            0    8540.0062     24.72241    24.690203    22.812185    13924.588    8288.3843    9725.6915    7605.9429   -148.09158    55.367043    437.41893   -7539.3499 
30064000    115.79437   -9733.6049    -9292.144   -9733.6049            0    8866.5242    24.667597    24.768014     22.73831    13892.366    9742.6191    8067.6203    8789.3333   -30.781422      90.2846   -68.119478   -7495.7338 
30065000    110.22085    -9738.695   -9318.4828    -9738.695            0      8134.07    24.700749    24.812925    22.737074    13935.503    8147.7558    8105.4204    8149.0338    164.58374   -485.22898   -521.99112   -7665.3549 
30066000    120.19113   -9721.8084    -9263.585   -9721.8084            0    8675.2924    24.647357     24.68992    22.874193    13919.891    8832.4121    9182.4228    8011.0424   -317.20565    238.41285   -532.61124   -7502.4371 
30067000    111.20542   -9737.9121   -9313.9463   -9737.9121            0    8169.5882    24.681608    24.779868    22.767818    13924.957    9102.0066    7271.9528     8134.805    266.34594    357.22793    351.57824   -7654.8564 
30068000    112.28814   -9738.2459   -9310.1523   -9738.2459            0    8178.0539    24.739368    24.821606    22.701717    13940.462    8224.1026    7300.6804    9009.3788    107.40448    262.33682    71.441157   -7647.4939 
30069000    113.35854   -9744.3538   -9312.1794   -9744.3538            0    7702.9694    24.659527    24.712064    22.877899    13941.513    8073.0905    8039.1918     6996.626   -316.24187   -528.10262    844.89661   -7745.9911 
30070000    112.87133   -9740.2162   -9309.8992   -9740.2162            0     8013.531    24.730581    24.737359    22.795389    13945.519    8303.6126    7813.2003    7923.7803   -658.92946   -692.80999   -679.51414   -7680.0986 
30071000    113.73826   -9734.1865   -9300.5644   -9734.1865            0    6833.2377    24.794148    24.836615    22.754912    14012.537    7034.4975    5722.1704    7743.0451   -77.603476   -231.62244    148.28481   -7904.1343 
30072000    115.41185      -9727.1   -9287.0974      -9727.1            0    7425.5734    24.777002    24.759986    22.782294    13976.441    7056.4793    7796.6537    7423.5873   -455.87391   -14.656172    332.28799   -7773.5275 
30073000    109.96019   -9746.0352   -9326.8168   -9746.0352            0    8883.1716    24.693713    24.681004    22.821703    13909.044    8936.7161    9474.3625    8238.4361    270.99954    -18.24328    776.64794   -7524.8731 
30074000    112.34755   -9713.4046   -9285.0845   -9713.4046            0    7720.4476    24.764861    24.766383    22.755003    13956.463    6779.3291    8366.3106    8015.7031   -372.02815   -726.17583    118.90825   -7713.6593 
30075000    115.27343   -9707.7872   -9268.3123   -9707.7872            0    9357.6009    24.668369    24.758034    22.737563    13886.747    10312.849    8092.6081    9667.3453     -130.485   -878.16692    1218.8734    -7373.174 
30076000    113.06342   -9726.5664   -9295.5171   -9726.5664            0    8695.9515    24.651006    24.764498    22.786852    13910.685    9525.8165    8497.5297    8064.5083   -703.72621   -96.789338   -472.28822   -7531.3427 
30077000    109.97331   -9732.5519   -9313.2835   -9732.5519            0     7271.127     24.70921    24.830099    22.769217    13969.646    7925.7666    6374.0322    7513.5822   -141.09968    551.64768   -199.05474   -7831.9152 
30078000    115.51681   -9719.3716   -9278.9688   -9719.3716            0    8408.4084     24.65097    24.806521    22.784653    13932.925     9698.379    7751.2898    7775.5565    655.23801    270.60465   -389.96269   -7570.4019 
30079000    111.63578   -9727.5544   -9301.9479   -9727.5544            0    8054.8645    24.645425    24.776112    22.842165    13947.833     8673.804    7327.2857    8163.5037   -202.51843   -532.15351    410.48112   -7663.4689 
30080000    112.31103   -9724.6305   -9296.4497   -9724.6305            0    8217.9675    24.715465    24.754428     22.75952    13924.666    7992.5972    8414.1163     8247.189   -441.39932    246.03687    196.71124   -7627.5698 
30081000    118.38274     -9729.83    -9278.501     -9729.83            0    8724.1854    24.701936    24.792751    22.724123    13916.911    8710.5963    8595.3331    8866.6267    252.65754   -567.51199    600.86703   -7507.8066 
30082000    114.24926   -9735.8287   -9300.2584   -9735.8287            0    8149.9577    24.675958    24.726724    22.851433     13942.93    8527.9058    8391.1733    7530.7941   -177.66267    123.82561   -806.67371   -7643.0188 
30083000    111.45368   -9739.2631   -9314.3508   -9739.2631            0    9091.6104    24.666571    24.751195    22.754948    13892.513    10202.101    8355.8877    8716.8423    -469.0525    -381.0023    228.91823   -7472.3174 
30084000    118.12328   -9730.2616   -9279.9218   -9730.2616            0    7769.1817    24.741136    24.809826    22.750265    13964.642    8248.1476    6975.6852    8083.7124   -610.32131   -194.62822    466.29751   -7697.6504 
30085000    109.12819      -9716.2   -9300.1535      -9716.2            0    8731.2729    24.765005    24.665494    22.793512    13923.213    7825.8239    9659.8937    8708.1011   -447.28368    -371.3801    439.14395   -7527.2181 
30086000    112.83704    -9725.914   -9295.7278    -9725.914            0    8123.4803    24.750268    24.673524     22.82959    13941.489    7724.2736    8920.3625    7725.8047   -205.28778    85.544037    230.51827   -7644.0429 
30087000    111.50658   -9716.7551   -9291.6411   -9716.7551            0    8569.3526    24.764717    24.733854    22.698002    13903.137    8416.2021    8333.9856    8957.8702   -95.363694    124.09816   -376.44746   -7554.0936 
30088000    113.57935    -9709.336   -9276.3197    -9709.336            0    8984.9264     24.71329    24.742695    22.748707    13910.229    9130.3571    9074.5519    8749.8701    212.75612   -227.46462    524.90291   -7453.5798 
30089000    107.19101    -9733.098    -9324.437    -9733.098            0    7885.6568    24.674265    24.692942    22.912049    13959.857    7386.7635    8987.6861    7282.5207    262.25954    152.82185    214.87407   -7718.9946 
30090000    116.44851   -9730.1366   -9286.1817   -9730.1366            0    8237.3195    24.774995    24.741581    22.738908    13938.327    7956.3359    8485.8046    8269.8181    77.960251   -486.71895    319.43649   -7611.7307 
30091000    109.99082   -9731.1311   -9311.7959   -9731.1311            0    8150.8441    24.739687     24.75789    22.744523    13931.076    7457.9428    9049.4764    7945.1131    -180.2617    658.93466   -306.77806   -7655.7853 
30092000    115.89848   -9734.1672   -9292.3094   -9734.1672            0     8596.805    24.675179    24.718557    22.823387    13920.779    8825.1309    8995.0672    7970.2169   -108.29456   -363.40724   -523.66547   -7546.9836 
30093000     115.8377   -9729.2599   -9287.6338   -9729.2599            0    8675.9416    24.732093    24.765088    22.737261    13926.401    8387.8637    7964.1953    9675.7657   -363.36198     780.1736   -294.76408   -7525.5303 
30094000    110.38164   -9716.3238   -9295.4986   -9716.3238            0    9006.6996    24.712053    24.736981    22.751485    13908.019    9154.0761    8800.9987    9065.0241   -201.54566    123.97286   -159.60947    -7468.632 
30095000    106.29166   -9727.7625   -9322.5303   -9727.7625            0    8345.1588    24.619729    24.753756    22.880261    13943.935    9011.7366    8542.6917    7481.0479    131.60942   -28.227519   -15.165591   -7625.4756 
30096000    113.08569   -9720.8215   -9289.6873   -9720.8215            0    8663.6852    24.745067    24.794008    22.692281    13922.381    8296.5296    8188.4804    9506.0457    122.71943    14.431286    87.020213    -7530.581 
30097000    113.35757   -9716.1778   -9284.0071   -9716.1778            0    8376.0985    24.758992    24.757096    22.738602     13937.87    7707.8592    8389.0085    9031.4278    175.43879   -334.06823    668.93245   -7581.4014 
30098000    110.20604   -9736.8661   -9316.7105   -9736.8661            0     9112.106    24.638459    24.642761    22.891205    13898.616    9245.9125    9842.6096    8247.7961    -341.1621    24.307092    1.8610257   -7469.7134 
30099000    113.68281   -9718.1855   -9284.7748   -9718.1855            0    8392.4814    24.681074    24.753083    22.798183    13928.155    8303.0634    8470.0838    8404.2969    170.01034    16.645374   -594.38356   -7580.0281 
30100000    115.42234   -9748.9902   -9308.9476   -9748.9902            0    9126.6741    24.657014    24.816359    22.701801    13891.172    9136.9868    8532.9954      9710.04    135.57506   -265.19778   -151.53912   -7459.9884 
30101000    110.77868    -9724.882   -9302.5431    -9724.882            0    8007.4438    24.683506    24.766051    22.820535    13950.489    8321.7677    7742.0434    7958.5203   -217.39964   -253.31868    922.06441   -7673.4001 
30102000    112.04649   -9709.5929   -9282.4206   -9709.5929            0    7913.3242    24.761035    24.795945    22.746379    13965.668    7169.5479    7581.0912    8989.3335    2.6968876   -144.31095   -529.83928   -7670.6747 
30103000    117.84198   -9744.4032   -9295.1358   -9744.4032            0    7341.8178    24.733143    24.791143    22.782083    13969.128    7270.0304     7354.031     7401.392    5.0011828   -148.45368   -738.94444    -7799.421 
30104000    114.89794   -9734.5705   -9296.5272   -9734.5705            0    8461.1591    24.675649    24.686796    22.875087     13934.65    7945.8851    9443.1329    7994.4594   -1321.1474   -1334.3823    123.46831   -7577.0287 
30105000    114.47373    -9721.344   -9284.9179    -9721.344            0    9033.8904      24.7176     24.80052    22.662755     13892.48    9325.0728    8287.2106    9489.3877   -352.33725   -140.55535   -287.03252   -7454.5833 
30106000    109.06484    -9727.233   -9311.4281    -9727.233            0    8139.2562    24.735027     24.72536    22.771735    13926.793    7629.3526    8596.6196    8191.7962    134.68024   -209.74668   -179.55243   -7658.2801 
30107000    112.61078    -9727.723   -9298.3994    -9727.723            0    7735.7116    24.774707    24.707139    22.811044    13962.917    7344.1077    8274.7164    7588.3107     454.6545   -104.01515    172.07934   -7723.1392 
30108000    113.28824   -9721.5953   -9289.6889   -9721.5953            0     9746.942    24.698346    24.731972     22.70825     13871.08    9152.5643    10610.894    9477.3671    308.10197    235.29493    344.26453   -7317.9266 
30109000    110.93802   -9730.5998   -9307.6535   -9730.5998            0    7786.3731    24.758667    24.760395     22.79157    13972.016    7243.0097     8174.114    7941.9957    -498.3152   -650.59433   -583.30081   -7721.0435 
30110000    113.96612    -9741.366   -9306.8752    -9741.366            0    7810.6023     24.71902    24.751425    22.784245    13940.107    8147.2907    7890.4287    7394.0876   -1026.0935    327.49139   -300.16947   -7718.9629 
30111000    110.00038   -9710.7628   -9291.3912   -9710.7628            0    9028.9623    24.717593    24.727254    22.748361    13903.757    8341.7243    9548.3073    9196.8555    77.178254   -172.84966    16.237021   -7460.5701 
30112000    113.32448    -9723.585   -9291.5404    -9723.585            0    8189.6766     24.67577    24.798877    22.782808    13941.515     8938.102     7897.056    7733.8717   -318.24039   -628.55849     679.6839   -7626.3933 
30113000    113.69173   -9728.0738   -9294.6291   -9728.0738            0    9080.7097    24.699526    24.721818    22.788108     13914.81    8486.2701    9532.9842    9222.8748    35.291833   -394.09055    895.50807   -7451.8513 
30114000    121.22326   -9726.4922   -9264.3338   -9726.4922            0    8466.7252    24.786371     24.80973    22.642355    13923.761    8210.7038    7557.9655    9631.5062   -103.20028   -601.15073    536.90445   -7545.0486 
30115000     119.7814    -9734.423   -9277.7617    -9734.423            0    7494.8241     24.71523    24.728052    22.871411     13978.08    7339.3462    7745.8064    7399.3196    -559.4085     45.74737    874.66059   -7749.8971 
30116000    113.84261    -9733.742   -9299.7221    -9733.742            0    9041.8737    24.715748    24.644613    22.809713    13893.625     9200.212    9031.0174    8894.3917    271.27415   -189.48176    -566.2958    -7467.619 
30117000    110.52099   -9740.3542   -9318.9978   -9740.3542            0     8635.548    24.726962     24.70803    22.764505    13908.077    8051.1817    8957.4243    8898.0379    187.11337     63.70255    259.49826    -7567.406 
30118000    110.03082   -9738.5836    -9319.096   -9738.5836            0      7886.49    24.805804    24.668134    22.755424    13924.337    6631.6156    8823.6257    8204.2288    605.76355   -813.58476    250.41846   -7717.5693 
30119000     114.7186   -9732.3045   -9294.9449   -9732.3045            0    8696.2683     24.77299    24.591294    22.831153    13908.736    7695.3021    10510.786    7882.7171   -491.68478   -80.796708   -495.26756   -7530.9534 
30120000    110.46474   -9721.2764   -9300.1344   -9721.2764            0    8660.7177    24.781179    24.694281    22.759497    13927.751    7427.4088    9766.6612     8788.083    278.30614    396.61027    507.17161   -7540.9524 
30121000    110.76544   -9719.6045   -9297.3162   -9719.6045            0    8988.5529    24.854165    24.600013    22.744266    13906.135    7237.2932    10644.039    9084.3267    642.51289    -577.0002   -516.32709   -7474.3773 
30122000    113.08323   -9719.5683   -9288.4434   -9719.5683            0    8077.8935    24.735114    24.736967    22.805608    13954.106    7906.3789    8358.3949    7968.9068   -4.6708222   -303.42027   0.56532714   -7644.5411 
30123000    114.71551   -9748.0687   -9310.7209   -9748.0687            0    7019.8263    24.760978     24.73437    22.814693    13972.795    7110.2821    7186.0364    6763.1603   -44.482308   -94.387574    88.147744   -7880.2286 
30124000    118.67029   -9728.5724   -9276.1471   -9728.5724            0    8964.7727    24.663993    24.738428      22.7965    13909.248    8646.0166    9635.1561    8613.1454   -346.70426   -311.35116     613.2271    -7457.624 
30125000    115.18649   -9712.9916   -9273.8481   -9712.9916            0    8871.8726    24.645597    24.851828    22.709714    13909.431    9470.2193      7860.97    9284.4285    4.7009472   -5.0896481    1121.0742   -7474.1464 
30126000    111.59037   -9725.2187   -9299.7853   -9725.2187            0    8082.4621    24.671266     24.78058    22.818571    13950.551    8335.3113    7813.8301    8098.2449    412.05156   -767.55464   -111.69058   -7655.3723 
30127000    110.68131   -9712.0456    -9290.078   -9712.0456            0    8191.9907    24.720923    24.756999    22.787962    13946.595    9091.4924    7884.0715    7600.4081   -94.747252    253.85542     435.2388   -7623.8535 
30128000    113.36272   -9734.6531   -9302.4627   -9734.6531            0    8469.2384    24.726435    24.726278     22.76775    13920.036    8433.2601    8172.8043    8801.6508    617.76017    393.54981   -457.59174   -7583.1272 
30129000    115.09331   -9729.1386   -9290.3505   -9729.1386            0     8097.752    24.810612    24.676837    22.748169    13927.508    7678.2329     8387.556    8227.4673    365.64658   -222.51035     207.1213   -7645.5479 
30130000    108.62324   -9732.5224   -9318.4011   -9732.5224            0    7401.4542    24.761511    24.734928    22.819848    13976.568    7023.0702    7467.0019    7714.2905    237.66328    99.898223   -275.55443   -7809.7337 
30131000    112.81215   -9737.2058   -9307.1144   -9737.2058            0    9457.7257    24.734645    24.696918     22.71377     13875.15    10091.908    8846.8215    9434.4481   -314.08893   -520.53505    587.16238    -7393.298 
30132000    113.36045   -9733.0523   -9300.8706   -9733.0523            0    7998.3871    24.724267    24.665351    22.876677    13950.946    7586.9251    8987.2795    7420.9568   -9.2068682     280.1132     404.5224   -7673.5168 
30133000    110.81728   -9724.6427   -9302.1567   -9724.6427            0    8109.8926    24.816882    24.746702    22.713054    13948.904    7811.2428    7397.2542    9121.1808    -586.5564   -67.602808    1677.0843   -7652.3575 
30134000    113.66304    -9741.999   -9308.6636    -9741.999            0    8206.0513    24.669546    24.743027    22.799072    13916.537    8738.5899    7990.0003    7889.5636    98.272323    47.353434    314.84645   -7643.1765 
30135000    114.74183   -9751.3512    -9313.903   -9751.3512            0    8677.4235     24.59703    24.727391    22.831048    13886.309    9942.1639     8749.005    7341.1016   -688.84017    220.73817    678.85129   -7556.5723 
30136000    113.01914   -9722.1981   -9291.3176   -9722.1981            0    8552.0507    24.668796     24.79328    22.751887    13915.517    9429.4057    7770.4234    8456.3231    312.69332   -151.55866    198.00751   -7555.7342 
30137000    112.29575   -9744.0388   -9315.9162   -9744.0388            0    7186.2219    24.674153    24.754568    22.892052    13982.419     7235.094    7322.0001    7001.5715     480.2261    -820.8906    364.88457   -7850.5073 
30138000     115.0942   -9736.5313   -9297.7398   -9736.5313            0    7852.9758    24.775817    24.760433    22.765765    13965.885    7100.7329     7842.478    8615.7164   -209.58566    103.86142   -2.5951743   -7698.2605 
30139000    109.01118   -9726.6653    -9311.065   -9726.6653            0    8306.0422    24.807113    24.673682    22.747324    13923.247    6500.0673    9656.1297    8761.9297    50.375504   -205.21537    14.336631    -7624.471 
30140000    117.85761   -9744.2725   -9294.9455   -9744.2725            0    8971.1512    24.755623    24.674129    22.762671    13903.973    8062.5437    9224.3284    9626.5813    -257.2046   -68.269131    123.75169   -7475.8187 
30141000    112.85068   -9737.9818   -9307.7435   -9737.9818            0    8735.4377     24.73226     24.69722    22.757988     13900.99    8495.2514    8852.1209    8858.9408    16.829389   -38.305803    285.76285   -7536.7935 
30142000    112.99081   -9744.3623   -9313.5898   -9744.3623            0    8136.0646    24.748598    24.669758    22.813673    13928.704    7566.7347    8817.8402     8023.619   -234.88189   -807.46719    280.97706   -7660.8634 
30143000     115.0158   -9733.3973   -9294.9046   -9733.3973            0    8656.6248    24.765053    24.681701    22.766199    13915.695    8173.3523    9146.0217    8650.5003    171.05043   -367.26086     687.7084    -7538.076 
30144000    111.84401   -9727.4188   -9301.0185   -9727.4188            0    8233.7667    24.780519    24.737742    22.744344    13942.603    7290.7219    8510.8611    8899.7171   -536.53211    382.43455    348.55962   -7626.7762 
30145000    113.88855   -9707.9567   -9273.7616   -9707.9567            0    7838.0463    24.724103    24.772418    22.814247    13973.174    8195.7137    7497.1364    7821.2889   -226.28223   -12.512847    181.61952     -7676.49 
30146000    112.02765   -9729.5139   -9302.4135   -9729.5139            0    7994.5627    24.647898    24.732515    22.881662    13948.764    7952.9674    7876.4079    8154.3129   -134.13701    356.83066    245.04118   -7676.0922 
30147000    110.83417   -9724.2573   -9301.7069   -9724.2573            0      8904.49    24.732201    24.735851    22.753112    13919.718    8356.7275    8888.3705    9468.3719    496.70599    166.99398   -129.43805   -7494.0526 
30148000    111.03868   -9740.4876   -9317.1575   -9740.4876            0     8285.587    24.804553    24.648728    22.794755    13936.729    7076.5326     9595.437    8184.7913    -783.9079    -318.4339    237.71335   -7633.0879 
30149000    111.16178   -9722.8597   -9299.0603   -9722.8597            0     7907.844    24.745127     24.71796    22.824088    13960.332    8261.0614    7807.1454    7655.3254    161.45631   -50.666785   -284.98126    -7689.046 
30150000    114.02957   -9736.7012   -9301.9685   -9736.7012            0    8574.1198    24.853123    24.637024    22.715276    13908.723    7490.4069    9764.8511    8467.1013    303.73585   -311.22233    239.71661   -7562.7558 
30151000    112.31099   -9721.1107     -9292.93   -9721.1107            0    8079.7221    24.788069    24.697476    22.795972    13955.756    7021.0839    8636.3236     8581.759    -835.9386   -168.98133   -260.29639    -7648.461 
30152000    110.45748   -9726.8878   -9305.7736   -9726.8878            0    8991.5239    24.690841    24.691083    22.799085    13899.316    8672.6402    8968.4508    9333.4806     93.64918   -31.551147    386.20507   -7483.1263 
30153000    112.72114   -9722.0147   -9292.2703   -9722.0147            0    7976.0339    24.762861    24.801073     22.69596    13938.623    9278.4904    6725.5788    7924.0325    99.196737    373.32432   -15.446499    -7670.898 
30154000    107.90365    -9726.295    -9314.917    -9726.295            0    7706.8592    24.718251    24.740287    22.834422    13964.085    7747.3977    8702.4382    6670.7417    -395.2392    62.045105   -162.96315   -7745.4008 
30155000    114.29404   -9736.3431   -9300.6021   -9736.3431            0    8118.7465    24.737363     24.74076    22.767992    13934.493    8712.3307    7577.6519    8066.2569     132.7848    229.15907   -413.47729   -7650.7081 
30156000    105.96076   -9738.2834   -9334.3126   -9738.2834            0    8878.0442    24.777197    24.694391    22.718374    13900.414    7866.9896    9446.0615    9321.0816     86.39299   -299.18884    661.60085   -7534.5264 
30157000    113.79116   -9732.4712   -9298.6475   -9732.4712            0    8316.2053    24.681316    24.657643    22.888715    13929.684     8037.778    9191.9791    7718.8589    301.70215    678.02282    834.15072    -7609.209 
30158000    112.26095    -9720.528   -9292.5381    -9720.528            0    8845.4345    24.703555    24.743657    22.762066    13913.457    9191.4289     8307.138    9037.7366    138.52358    334.24174   -217.72003   -7497.6801 
30159000    115.23136   -9727.4584    -9288.144   -9727.4584            0    7750.3876    24.783049    24.786389    22.713791    13952.679    7275.0581    7244.9628    8731.1419    87.121664   -276.39739    -159.9415   -7711.0523 
30160000    110.57547   -9723.0561   -9301.4919   -9723.0561            0    7578.1655    24.688733     24.75163    22.868674    13974.735    8817.7792    7168.2146    6748.5028   -508.98064   -252.46598    506.11406   -7757.0075 
30161000    109.11121   -9734.8287    -9318.847   -9734.8287            0    8527.9626    24.682188    24.746063    22.792002    13921.057    9121.0043    7464.9585    8997.9251   -203.78971    582.52338    382.21433    -7587.463 
30162000    113.40157   -9733.9017   -9301.5632   -9733.9017            0    8003.0436    24.764804     24.79374    22.699166    13937.563    7627.3222    7951.7217    8430.0868    215.18872   -631.19475   -177.43526   -7674.8241 
30163000    110.91539   -9719.2624   -9296.4023   -9719.2624            0    7672.6767    24.725787    24.770433     22.80369    13966.541    7619.4816     7994.435    7404.1135   -630.39867    373.93502   -11.396261   -7733.5727 
30164000    110.15878   -9729.1944   -9309.2189   -9729.1944            0    7983.4662    24.696932    24.706325     22.85135    13943.218    8028.6331     8544.447    7377.3184   -38.172179   -15.619175    692.56456   -7685.8008 
30165000     115.2291   -9735.1364   -9295.8306   -9735.1364            0    8475.6823    24.768288    24.759226    22.696985    13918.781    7968.0317    8772.2958    8686.7193   -29.430288   -246.04358    -244.2415   -7575.3421 
30166000     115.3201   -9726.3458    -9286.693   -9726.3458            0    7502.8472     24.79087    24.777111    22.748297    13973.053    7335.3285    7849.3667    7323.8462   -159.31826   -651.99635   -375.62068   -7757.7429 
30167000    111.08871   -9743.7555   -9320.2347   -9743.7555            0    9019.1199    24.677097    24.721084    22.795496    13906.269    9905.1151    8429.1653    8723.0793    327.54619   -332.19709    -561.3527    -7491.079 
30168000    115.05376   -9722.3251   -9283.6877   -9722.3251            0    7347.1584    24.752886    24.771355    22.815205    13989.428    7640.2706    7183.7924    7217.4122   -155.24076   -637.91432     57.23271   -7784.7097 
30169000     113.4681   -9729.0934   -9296.5012   -9729.0934            0    8483.3585    24.757798    24.802534    22.679598    13926.546    8835.9769    7853.6086    8760.4902   -222.52793    75.114806   -150.90892   -7573.4939 
30170000    111.51979   -9732.7206   -9307.5563   -9732.7206            0    7270.9358    24.682358    24.773146    22.866288    13981.813    8584.7668    6857.2118    6370.8288   -735.83989   -121.22563    372.94838   -7824.9369 
30171000     115.2589   -9745.9753   -9306.5558   -9745.9753            0    7411.4527    24.738307    24.721179    22.823824     13958.14    6862.3013    7908.4248    7463.6321   -827.31255   -302.74713     5.939142   -7797.8423 
30172000    112.62507   -9727.0492   -9297.6711   -9727.0492            0    8923.9923    24.785253    24.800331    22.610456    13898.251    8516.7481    8749.0944    9506.1344   -252.87771    -412.1432    151.44927   -7488.8516 
30173000    112.32469   -9730.8104   -9302.5775   -9730.8104            0    7160.5485    24.711257    24.757485    22.858864    13984.792    7886.6558     7277.057    6317.9328    79.618224   -429.39612   -949.59652   -7842.1561 
30174000    116.15334   -9750.2909   -9307.4614   -9750.2909            0    8268.9031    24.698271    24.785434    22.739225    13919.984    8353.1993    8349.9195    8103.5904   -482.64342   -200.71178      248.861   -7628.8022 
30175000    113.22281   -9732.1255   -9300.4685   -9732.1255            0    7824.1642    24.716965    24.788991    22.778892    13956.824    8082.7746    7005.7762    8383.9417   -82.559836   -157.63106   -6.1978769   -7707.8915 
30176000    112.40048   -9729.7104   -9301.1885   -9729.7104            0    8965.8236    24.639022    24.707406    22.819203    13891.562    9382.8894    9361.0715    8153.5098    243.89376    -1087.954    -154.4093   -7484.7648 
30177000    113.94859   -9732.0426   -9297.6186   -9732.0426            0    7731.1091    24.677736    24.844515    22.787946    13971.436    8197.1503    6523.4923    8472.6847   -37.729193     -164.058    748.29786   -7722.3351 
30178000    113.33414   -9729.7139   -9297.6325   -9729.7139            0    8805.6378    24.686525    24.778845     22.74304    13911.999    8600.8584     9110.252    8705.8031   -1326.3811   -25.340984    163.73363   -7511.0369 
30179000    114.35377   -9744.3494   -9308.3807   -9744.3494            0    7091.2351    24.578679    24.824575    22.912804    13980.368     7974.903    6933.5947    6365.2076   -724.92228   -108.18177   -415.12382   -7862.5535 
30180000    110.71694   -9733.3563   -9311.2528   -9733.3563            0    7554.3226    24.692324    24.846413    22.759729    13963.451    7833.8026    6634.4862    8194.6791   -231.98684   -897.47431   -279.33036   -7772.8709 
30181000    113.25106   -9728.7177    -9296.953   -9728.7177            0    8309.3969    24.646647    24.822014    22.760332    13924.303    8508.0149    7748.0909    8672.0849    260.56637    478.11399    216.99496   -7609.5498 
30182000    117.91197   -9732.3935   -9282.8593   -9732.3935            0    7574.9671    24.695971    24.820164    22.802208    13976.797    7908.2907    7423.0897    7393.5208    15.646572    56.026389   -87.147163   -7738.7988 
30183000    113.97746   -9727.9843   -9293.4503   -9727.9843            0    9053.0977    24.641487    24.764043    22.762138    13889.977    9347.4277    9137.8564    8674.0092   -170.77259   -478.23555   -314.62401   -7459.5546 
30184000    113.70279   -9731.2823   -9297.7954   -9731.2823            0    7592.7113    24.615644    24.842764    22.814705    13951.663    8169.9216    7035.4255    7572.7869    205.62143    748.73087   -136.71386   -7752.9011 
30185000    118.02282   -9723.2261   -9273.2693   -9723.2261            0    8504.6438    24.686428    24.811339    22.725353    13919.355    8354.6936    8538.1001    8621.1377   -340.42955   -141.62315   -161.42909   -7546.8308 
30186000    117.23592   -9731.8749   -9284.9181   -9731.8749            0    7672.9914    24.688092    24.795279     22.80689    13961.195    7559.6595    7651.3889    7807.9259    221.39096    944.09767    -193.9358   -7722.6226 
30187000      108.631   -9729.3372   -9315.1862   -9729.3372            0    8975.6865    24.647858    24.829462    22.730896    13911.151    9450.0716    7722.2745    9754.7133   -56.600249   -478.16698   -313.54173   -7494.2002 
30188000    116.47513   -9720.2654   -9276.2091   -9720.2654            0    8763.5412    24.707238     24.76263    22.758955    13924.297    8390.4819    8826.8113    9073.3305    315.74288    146.62126    691.63325   -7496.5828 
30189000    110.55546   -9741.3936   -9319.9058   -9741.3936            0    8479.7523    24.656274     24.77084    22.780137    13913.119      8664.62    8461.6005    8313.0363   -718.84818    715.63509     379.3778   -7599.2914 
30190000    116.58717   -9718.4756   -9273.9921   -9718.4756            0    8885.7068    24.635196    24.728082    22.839568    13913.434    9120.5096    9475.0148    8061.5959    208.13944   -1211.3877   0.40989381   -7470.9652 
30191000    112.90674   -9725.3512   -9294.8993   -9725.3512            0    8685.0032     24.67702    24.794222    22.759467    13925.323    8743.1437    8331.6714    8980.1945   -418.47396    290.61804    662.38536   -7531.0918 
30192000     116.6255   -9731.4098   -9286.7802   -9731.4098            0    8033.6125    24.761594    24.790113    22.715298     13943.62    8121.0145    7452.8146    8527.0083   -333.32788    -412.0266    -597.9684   -7653.1178 
30193000    115.04726   -9742.8151   -9304.2025   -9742.8151            0    7873.6299    24.698845    24.727424     22.86126    13962.259    8125.1112    8213.1032    7282.6753   -51.866928   -651.59632   -224.81237   -7700.9328 
30194000     112.8805   -9726.6643   -9296.3123   -9726.6643            0    9208.2474    24.750262    24.632614    22.774246     13884.63    8865.1818    10443.022    8316.5388   -714.92489    -711.5618    690.66159   -7431.7059 
30195000    113.02432   -9729.7182    -9298.818   -9729.7182            0    8339.4797    24.776357    24.694813     22.76984     13931.67     7732.413    8883.0561    8402.9701    127.34033   -1106.8266    597.48806   -7604.4099 
30196000    115.42926   -9723.8686   -9283.7996   -9723.8686            0    9004.4202    24.705799    24.681971    22.796023    13900.737    8701.8756    9384.2643    8927.1206      129.106   -67.577909   -92.945898   -7458.3516 
30197000    113.23854   -9726.3264   -9294.6094   -9726.3264            0    9144.6197    24.777106    24.663267    22.748757     13901.41    7752.6376    10585.029     9096.193    292.41326   -622.09547    1065.7444   -7440.6493 
30198000    114.52999   -9731.4481   -9294.8075   -9731.4481            0     7568.369    24.779284     24.72709    22.799991        13970    7182.8762    7993.1723    7529.0585    -614.7941     -115.116   -28.330459   -7752.8422 
30199000    116.51035   -9726.8349   -9282.6443   -9726.8349            0    8438.1756      24.7294    24.750775    22.794316    13951.759    8662.2035    8217.8486    8434.4747    -474.0354   -769.82003     407.5148    -7565.711 
30200000    109.96099   -9710.1316   -9290.9101   -9710.1316            0    9700.3865     24.68596    24.703542    22.748994    13873.034    10158.604    10161.434    8781.1219   -320.49085   -72.214252    238.50366   -7328.2894 
30201000    118.63488   -9734.8619   -9282.5716   -9734.8619            0    7911.8315    24.756799    24.727339    22.793138    13953.269    7964.8793    8320.3488    7450.2664   -487.59792   -995.19101    -81.56374   -7672.5604 
30202000    113.72055   -9742.5628   -9309.0082   -9742.5628            0    7646.7071    24.803783    24.714928    22.796162    13974.588      6709.68    8168.0415    8062.3999    225.51714   -320.63408   -102.61102   -7750.5708 
30203000    110.57608      -9738.6   -9317.0335      -9738.6            0    8347.0049    24.714044    24.684454    22.821914     13922.57    7997.2425      9483.21    7560.5622   -383.49498   -111.46693     39.16587   -7622.2042 
30204000    116.80172   -9733.6583   -9288.3569   -9733.6583            0    8497.1205     24.80486    24.647501    22.766089    13918.681    7645.5268    9815.0686     8030.766   -411.54202    -408.3082    430.88674   -7563.5291 
30205000      109.159   -9727.5783   -9311.4144   -9727.5783            0    8170.3535    24.819782    24.722636    22.721269    13942.008    7479.8828    8660.0999    8371.0777    257.76073    700.77308    302.40873   -7650.1374 
30206000    108.64342   -9746.1431   -9331.9448   -9746.1431            0    7860.6385    24.728508    24.698305    22.823447    13939.471    7264.1872    8917.8895    7399.8388   -859.00241     52.89685    1092.0008   -7733.9329 
30207000    112.06567   -9723.4694    -9296.224   -9723.4694            0    8869.2132     24.71386    24.720261    22.767692    13909.536    9185.5227    8594.0927    8828.0242   -82.080799    30.839665   -924.29823   -7497.0481 
30208000    114.18555   -9730.5637   -9295.2363   -9730.5637            0    8215.7972    24.738606    24.656104    22.828548    13924.448    8176.0369    8761.6253    7709.7292    -536.7708   -56.188756    545.82842   -7626.8233 
30209000    119.32844   -9735.4783   -9280.5439   -9735.4783            0    8285.8707    24.735369    24.714362    22.788249    13930.886    8710.7648    8180.9579    7965.8895   -8.1045759   -1061.3356    160.08466   -7597.1227 
30210000    115.09074    -9727.127   -9288.3486    -9727.127            0    8638.9016    24.824316    24.718322    22.668491    13909.736     7850.094    8818.7522    9247.8586   -559.42458      -16.287   -531.53767   -7535.8677 
30211000    113.55004   -9721.5533   -9288.6487   -9721.5533            0    7584.4502    24.717938    24.749979    22.810133     13954.52    7345.7881    7787.2504    7620.3121   -311.32412   -600.98032    936.81647   -7745.1194 
30212000    111.91306   -9729.7397   -9303.0761   -9729.7397            0    7698.4068    24.648382    24.647284    22.966311    13952.394    8176.9626    8640.5501    6277.7079    -582.9411    352.87154    58.356121   -7736.5939 
30213000    108.33222   -9722.1767   -9309.1649   -9722.1767            0    7774.6787    24.721497    24.793846    22.778697    13961.998    8639.5565    7025.6951    7658.7846    40.241605   -567.41806    1354.4001   -7726.0738 
30214000    111.62895   -9716.0477   -9290.4672   -9716.0477            0    7976.8128    24.696198    24.833808    22.753979     13955.03    9148.2689    6666.7649    8115.4047    543.64832    339.67657    357.03118   -7667.0279 
30215000    111.18496   -9730.0826   -9306.1948   -9730.0826            0    8172.3885    24.686893    24.735451    22.822484    13936.354    8440.1702    7992.4143    8084.5809    213.38962    75.806852     176.2875   -7645.1778 
30216000    108.61214   -9725.0625   -9310.9835   -9725.0625            0    8623.2434    24.733488    24.762629    22.724786    13918.163    7821.0017    8325.2632    9723.4653   -251.12495   -457.26752     806.0034   -7560.6192 
30217000    112.32694   -9718.7797   -9290.5382   -9718.7797            0    8282.1247    24.657223     24.80236    22.793389    13939.464    8550.5808    7942.6501    8353.1433     55.16686    100.78037   -448.90852   -7606.8421 
30218000    110.01362   -9717.1823   -9297.7603   -9717.1823            0    7936.1995    24.696114    24.800038    22.792007    13959.297    8563.3099    7051.3538    8193.9349    70.393775    200.65372   -212.21176   -7682.0927 
30219000     112.3068   -9738.9559   -9310.7911   -9738.9559            0    8937.6922    24.729731    24.743028    22.686386    13881.537    8422.7122    8677.0785     9713.286   -645.61379   -327.82048     -568.677   -7501.3734 
30220000    110.19344   -9719.3125   -9299.2048   -9719.3125            0    8465.2458    24.718308    24.772615    22.752455    13932.173     9224.007    8149.9482    8021.7823   -190.64555   -417.75078    295.97376   -7579.1815 
30221000    110.53179    -9724.693   -9303.2954    -9724.693            0    7986.4276    24.601546    24.762706    22.892825    13946.329    8683.4301    7609.7158    7666.1368    221.44492    -763.6912    361.89527   -7678.9127 
30222000    111.98124   -9741.7663   -9314.8427   -9741.7663            0    7896.2026    24.709404    24.819982    22.758061    13957.223    7758.9027    7498.6944    8431.0108    657.17889   -310.85497    162.42906   -7707.5567 
30223000    114.82131   -9734.8178   -9297.0666   -9734.8178            0    8442.7776    24.706319    24.772046    22.731269    13912.129    9016.2418    7965.1744    8346.9167   -141.86955   -218.54892   -547.04622   -7584.0765 
30224000    114.27951   -9703.8899   -9268.2043   -9703.8899            0    8111.9453    24.722294    24.714082    22.847125    13959.337    8512.4524    8167.7619    7655.6215    -204.3917   -781.40355   -1118.5023   -7616.7533 
30225000    111.06441   -9720.4271    -9296.999   -9720.4271            0    10075.345    24.684436    24.684886    22.731525    13851.057    9929.2646    10185.159    10111.611   -489.81291   -511.45165    781.99015   -7261.7445 
30226000    114.43173   -9737.4818   -9301.2159   -9737.4818            0    8249.3972    24.669142    24.758568    22.820638    13938.221    8643.6216    8319.8614    7784.7086   -254.94409    421.99988    -173.7013   -7624.3225 
30227000    113.66316   -9718.6741   -9285.3384   -9718.6741            0    7974.0702    24.790689    24.737628     22.74555        13949    7174.4302     7815.589    8932.1913    70.265132    364.62014    14.914209   -7663.1584 
30228000    113.48511   -9720.6627   -9288.0057   -9720.6627            0    8108.4079    24.742785    24.727431    22.776861    13935.465    7371.2331    8740.3892    8213.6014   -373.49529   -174.36664      473.346   -7640.0979 
30229000    116.59615   -9752.2439   -9307.7262   -9752.2439            0    8110.1929    24.692972    24.665823    22.869719    13929.317    8808.0905    7739.8952    7782.5931   -90.676886   -570.17522    761.80409   -7660.1827 
30230000    110.74892   -9717.5399   -9295.3145   -9717.5399            0    8439.4882    24.786834    24.727038    22.716886    13923.293    7624.4199    9261.7703    8432.2744   -153.76639   -652.01314    138.71377   -7581.6178 
30231000    117.50231   -9721.5102   -9273.5379   -9721.5102            0    8487.0281    24.751035    24.744459      22.7466    13931.177    7763.5419    8709.8859    8987.6565   -582.33467   -201.41352    314.40836    -7549.212 
30232000    112.19639   -9718.5696   -9290.8258   -9718.5696            0    8354.6337    24.780816     24.68245    22.789989    13939.525     8113.031    8941.1326    8009.7375   -764.53686    441.21764   -407.94265   -7592.3816 
30233000    112.55839   -9706.7073   -9277.5834   -9706.7073            0    8242.2075    24.738952    24.678369    22.834089    13940.599    8627.4512    8408.5275     7690.644   -779.64795    68.743729    507.34147   -7601.8656 
30234000     116.4098   -9733.3131   -9289.5058   -9733.3131            0    8162.4782    24.801898    24.705099    22.759368    13945.424    8561.1615    8130.8867    7795.3864   -212.65758   -9.2096408   -480.10019   -7629.4235 
30235000     110.0402   -9732.0031   -9312.4797   -9732.0031            0    7869.9812    24.759371    24.666178    22.852917    13956.712    8738.7255      8425.94     6445.278   -840.95903   -377.15639   -35.871159   -7710.5896 
30236000     114.0087   -9723.3469   -9288.6937   -9723.3469            0     7925.048    24.769034    24.699825    22.793797    13945.035    7830.1831    8736.6585    7208.3024    193.50799   -478.56908     343.3804   -7676.9448 
30237000    110.99063   -9724.7311   -9301.5842   -9724.7311            0    8508.8011    24.781549    24.655105    22.778151    13917.261    7798.2871    9962.8458    7765.2704    238.97376   -25.564708   -612.12518   -7574.5616 
30238000    116.04699   -9711.8744   -9269.4504   -9711.8744            0    8552.3494    24.720862    24.683988    22.833865    13933.441    8179.5763     9640.155    7837.3168    -178.0387    288.86697    320.35762   -7531.5707 
30239000    114.24562   -9733.8797   -9298.3233   -9733.8797            0    7126.8302    24.834866    24.719471    22.769152    13978.091     6340.913      7398.03    7641.5476   -265.31393   -356.19769   -403.64452   -7845.4754 
30240000    117.85527   -9729.8214   -9280.5034   -9729.8214            0    7581.9441    24.783589     24.70972     22.80886    13968.044    7017.8539    8321.0423    7406.9362    71.190084   -313.66825   -408.02931   -7735.9886 
30241000    113.14931   -9722.0377   -9290.6609   -9722.0377            0    8385.0082    24.733066    24.681367    22.840252    13942.738    8575.2385    8954.7611     7625.025    160.10377    102.98108    37.326908   -7585.6489 
30242000    117.66917     -9728.11   -9279.5014     -9728.11            0    9070.2952    24.739577    24.696243    22.758287    13904.736    8690.7159    9005.7001    9514.4697   -6.8664199    184.13172     345.0479   -7440.1697 
30243000    112.90013   -9734.8416   -9304.4148   -9734.8416            0    7804.0899    24.810257    24.814337    22.669791    13956.659    7233.7872    7160.9453    9017.5373   -578.78572   -96.816714    137.40788   -7715.9426 
30244000    113.34865   -9736.1591   -9304.0224   -9736.1591            0     8628.735    24.707975    24.714512    22.801078    13923.377    8096.7901    9141.9544    8647.4606    46.991457   -741.60411     514.8444   -7551.8872 
30245000    116.85733   -9738.8997   -9293.3863   -9738.8997            0    8493.0363    24.704527    24.711893    22.801291    13920.088    8628.6347    9185.4852    7664.9891   -587.00111     -230.774    10.283624   -7569.2132 
30246000     109.2324   -9727.2719   -9310.8282   -9727.2719            0    7701.0174    24.808973    24.781769    22.693935    13952.464    7043.9979    7687.8058    8371.2484    344.82934   -901.53107    223.43178   -7743.8069 
30247000    115.48832    -9716.311   -9276.0169    -9716.311            0    7925.4003    24.680096    24.768671     22.81074     13944.05    8091.8242    7822.7661    7861.6105    377.43071    251.15842   -27.988733   -7664.3101 
30248000    109.00719   -9735.4742    -9319.889   -9735.4742            0    7000.6804    24.696737    24.756526    22.868938    13982.192    7204.5353    7677.1593    6120.3468    141.05629     700.1679    85.883269   -7892.3388 
30249000    110.70885    -9744.063   -9321.9903    -9744.063            0    8550.2046    24.702598    24.758624     22.73504    13904.803    8261.4361    8289.5031    9099.6745    229.39011    413.96077    893.19487   -7588.1175 
30250000    116.00187   -9722.8668   -9280.6148   -9722.8668            0    9098.6105    24.618547    24.788522    22.762842    13891.193    10495.593    7548.4126    9251.8258   -46.152792   -586.65621    208.46559   -7437.3381 
Loop time of 588.56 on 64 procs for 250000 steps with 1920 atoms

Performance: 73.399 ns/day, 0.327 hours/ns, 424.765 timesteps/s
384.2% CPU use with 16 MPI tasks x 4 OpenMP threads

MPI task timing breakdown:
Section |  min time  |  avg time  |  max time  |%varavg| %total
---------------------------------------------------------------
Pair    | 72.504     | 75.272     | 78.927     |  24.0 | 12.79
Bond    | 1.5638     | 1.7742     | 2.4186     |  17.1 |  0.30
Kspace  | 293.27     | 298.78     | 310.16     |  28.3 | 50.77
Neigh   | 0.24968    | 0.26684    | 0.2892     |   2.5 |  0.05
Comm    | 73.369     | 85.822     | 96.459     |  64.1 | 14.58
Output  | 0.53085    | 0.5311     | 0.5325     |   0.1 |  0.09
Modify  | 86.927     | 101.29     | 106.98     |  47.3 | 17.21
Other   |            | 24.82      |            |       |  4.22

Nlocal:        120.000 ave         124 max         118 min
Histogram: 5 0 0 7 0 1 1 0 1 1
Nghost:        4264.75 ave        4283 max        4250 min
Histogram: 2 1 3 1 2 3 2 0 0 2
Neighs:        43783.8 ave       45381 max       43034 min
Histogram: 3 3 2 5 0 1 0 1 0 1

Total # of neighbors = 700540
Ave neighs/atom = 364.86458
Ave special neighs/atom = 2.0000000
Neighbor list builds = 471
Dangerous builds = 0

unfix		3
unfix		2
unfix		1

write_data	data.final.${pid}
write_data	data.final.0
System init for write_data ...
PPPM initialization ...
  extracting TIP4P info from pair style
  using 12-bit tables for long-range coulomb (../kspace.cpp:340)
  G vector (1/distance) = 0.37522053
  grid = 30 30 30
  stencil order = 5
  estimated absolute RMS force accuracy = 0.003182435
  estimated relative force accuracy = 9.5838085e-06
  using double precision FFTW3
  3d grid and FFT values/proc = 7920 1800
Last active /omp style is kspace_style pppm/tip4p/omp
WARNING: Not all mixed pair coeffs generated from mixing. Use write_data with 'pair ij' option to store all pair coeffs. (../write_data.cpp:312)

write_restart   restart.lmp.${pid}
write_restart   restart.lmp.0
System init for write_restart ...
PPPM initialization ...
  extracting TIP4P info from pair style
  using 12-bit tables for long-range coulomb (../kspace.cpp:340)
  G vector (1/distance) = 0.37522053
  grid = 30 30 30
  stencil order = 5
  estimated absolute RMS force accuracy = 0.003182435
  estimated relative force accuracy = 9.5838085e-06
  using double precision FFTW3
  3d grid and FFT values/proc = 7920 1800
Last active /omp style is kspace_style pppm/tip4p/omp
Total wall time: 0:09:48
