#include		in.partitions
include		in.temp
variable        temperature equal 264.07
variable	tempDamp equal 100.0
include		in.pressure
variable        pressure equal 5125.0
variable        pressureDamp equal 1000.0 # This is 1 ps
include		in.seed
variable        seed equal 745823

units		real
atom_style	full

read_restart	restart.lmp.${pid}
read_restart	restart.lmp.0
Reading restart file ...
  restart file = 30 Jul 2021, LAMMPS = 30 Jul 2021
  restoring atom style full from restart
  orthogonal box = (-0.038225222 0.12536515 -0.16944998) to (20.038226 19.874636 20.869448)
  4 by 2 by 4 MPI processor grid
  restoring pair style lj/cut/tip4p/long/omp from restart
  restoring bond style harmonic/omp from restart
  restoring angle style harmonic/omp from restart
  972 atoms
  648 bonds
  324 angles
Finding 1-2 1-3 1-4 neighbors ...
  special bond factors lj:    0        0        0       
  special bond factors coul:  0        0        0       
     2 = max # of 1-2 neighbors
     1 = max # of 1-3 neighbors
     1 = max # of 1-4 neighbors
     2 = max # of special neighbors
  special bonds CPU = 0.002 seconds
  read_restart CPU = 0.009 seconds
include 	in.setup
variable	out_freq equal 1000
variable	out_freq2 equal 10000
variable	out_freq3 equal 1000

timestep	2.0

neigh_modify    delay 7 every 1

include		in.tip4p
# This is TIP4P/Ice

# create groups ###
group ox type 2
324 atoms in group ox
group hy type 1
648 atoms in group hy

# set charges - beside manually ###
set group ox charge -1.1794
Setting atom values ...
  324 settings made for charge
set group hy charge 0.5897
Setting atom values ...
  648 settings made for charge

# ### TIP3P Potential Parameters ###
pair_style lj/cut/tip4p/long/omp 2 1 1 1 0.1577 8.5
pair_coeff 1 1*2 0.000 0.000
pair_coeff 2 2 0.21084 3.1668
bond_style  harmonic
bond_coeff  1 450 0.9572
angle_style harmonic
angle_coeff 1 55 104.52
kspace_style pppm/tip4p/omp 1.0e-5
pair_modify tail yes

thermo          ${out_freq}
thermo          1000
thermo_style    custom step temp pe etotal epair emol press lx ly lz vol pxx pyy pzz pxy pxz pyz enthalpy

restart 	${out_freq3} restart.lmp.${pid} restart2.lmp.${pid}
restart 	1000 restart.lmp.${pid} restart2.lmp.${pid}
restart 	1000 restart.lmp.0 restart2.lmp.${pid}
restart 	1000 restart.lmp.0 restart2.lmp.0


include         in.dump
dump            myDump all atom ${out_freq2} dump.water.${pid}
dump            myDump all atom 10000 dump.water.${pid}
dump            myDump all atom 10000 dump.water.0
dump            myDump2 all dcd ${out_freq2} dump.dcd
dump            myDump2 all dcd 10000 dump.dcd
dump_modify     myDump append yes
dump_modify     myDump2 append yes


variable natoms 	equal  "count(all)"                        # NUMBER ATOMS
variable H      	equal  "enthalpy/v_natoms"                 # ENTHALPY-per-atom
variable Vol      	equal  "vol/v_natoms"                 # volume-per-atom
fix AVG all 		ave/time ${out_freq} 1 ${out_freq} v_Vol v_H file vol_enthalpy.dat
fix AVG all 		ave/time 1000 1 ${out_freq} v_Vol v_H file vol_enthalpy.dat
fix AVG all 		ave/time 1000 1 1000 v_Vol v_H file vol_enthalpy.dat


timer           timeout 02:55:00 every 1000
New timer settings: style=normal  mode=nosync  timeout=02:55:00

fix 		1 all shake 1e-6 200 0 b 1 a 1
       0 = # of size 2 clusters
       0 = # of size 3 clusters
       0 = # of size 4 clusters
     324 = # of frozen angles
  find clusters CPU = 0.001 seconds
fix             2 all nph aniso ${pressure} ${pressure} ${pressureDamp}
fix             2 all nph aniso 5125 ${pressure} ${pressureDamp}
fix             2 all nph aniso 5125 5125 ${pressureDamp}
fix             2 all nph aniso 5125 5125 1000
fix             3 all temp/csvr ${temperature} ${temperature} ${tempDamp} ${seed}
fix             3 all temp/csvr 264.07 ${temperature} ${tempDamp} ${seed}
fix             3 all temp/csvr 264.07 264.07 ${tempDamp} ${seed}
fix             3 all temp/csvr 264.07 264.07 100 ${seed}
fix             3 all temp/csvr 264.07 264.07 100 745823


run             250000
PPPM initialization ...
  extracting TIP4P info from pair style
  using 12-bit tables for long-range coulomb (../kspace.cpp:340)
  G vector (1/distance) = 0.3723226
  grid = 24 24 25
  stencil order = 5
  estimated absolute RMS force accuracy = 0.0034180139
  estimated relative force accuracy = 1.0293247e-05
  using double precision FFTW3
  3d grid and FFT values/proc = 3458 576
Last active /omp style is kspace_style pppm/tip4p/omp
Neighbor list info ...
  update every 1 steps, delay 7 steps, check yes
  max neighbors/atom: 2000, page size: 100000
  master list distance cutoff = 10.8154
  ghost atom cutoff = 10.8154
  binsize = 5.4077, bins = 4 4 4
  1 neighbor lists, perpetual/occasional/extra = 1 0 0
  (1) pair lj/cut/tip4p/long/omp, perpetual
      attributes: half, newton on, omp
      pair build: half/bin/newton/omp
      stencil: half/bin/3d
      bin: standard
Per MPI rank memory allocation (min/avg/max) = 10.19 | 10.20 | 10.21 Mbytes
Step Temp PotEng TotEng E_pair E_mol Press Lx Ly Lz Volume Pxx Pyy Pzz Pxy Pxz Pyz Enthalpy 
12500000    278.44688   -4683.8229   -4146.8146   -4683.8229            0    4486.9622    20.076451    19.749271    21.038898    8341.8236     4324.892    5897.3069    3238.6877    134.05065    220.51609   -639.36084   -3600.9445 
12501000    256.08859   -4684.0277   -4190.1393   -4684.0277            0    5126.8585    19.984603    20.061457    20.716392    8305.6211    5832.2564    5488.9674    4059.3517    274.60703    1156.1077   -595.74375   -3569.1283 
12502000    268.94513   -4693.8006   -4175.1173   -4693.8006            0    6287.4246    20.325131    20.031388    20.201702     8224.933    4294.9413    5958.7406    8608.5921   -273.33103    770.46806   -731.63108   -3420.9268 
12503000    274.73527   -4718.2965   -4188.4464   -4718.2965            0     5439.598    20.007346    20.036997    20.624951    8268.2772    5676.4128    5095.6414    5546.7399    393.92469    154.85787   -1379.9082   -3532.5161 
12504000    253.89582   -4707.3747   -4217.7153   -4707.3747            0    3693.9589    20.178483    19.854877    20.949083     8393.068    2929.7552    4905.3589    3246.7627   -337.59588   -256.89377   -391.92162   -3765.5589 
12505000    260.72034   -4678.6594   -4175.8383   -4678.6594            0    5269.0221    19.975015    20.126645    20.703805    8323.5518    6127.3273    4569.2172    5110.5218   -883.70599   -183.73158    303.72286   -3536.2293 
12506000    270.00038   -4677.7031   -4156.9847   -4677.7031            0    6531.2975    20.058618    19.771838     20.68036    8201.7425    7240.8983    6295.9933    6057.0009    902.70877   -1360.6625    280.90682     -3375.75 
12507000    282.92511   -4718.1951   -4172.5502   -4718.1951            0    6501.0704    19.944419    19.922993    20.603573    8186.8817    5606.3072    7002.9955    6893.9086    128.86461   -342.40513     889.7687   -3396.3402 
12508000    263.13263    -4684.428   -4176.9546    -4684.428            0     4084.307    20.189456    20.110154    20.526714    8334.1141    4131.8497    3984.7159    4136.3555    262.40956   -48.065204   -830.71968   -3680.5295 
12509000    283.62142   -4707.8045   -4160.8168   -4707.8045            0    6286.3215    20.010105    20.003244    20.573803    8235.0147    6892.6063    5597.2412    6369.1171   -255.44402     305.3378    1348.2894   -3405.8343 
12510000    275.64337   -4693.9401   -4162.3387   -4693.9401            0    6255.5456    19.954069    19.932702    20.726173    8243.5975    7028.6325    5610.8897    6127.1147   -71.273709    1566.4933    821.88049   -3410.2694 
12511000    267.99032   -4696.7536   -4179.9117   -4696.7536            0    5321.1895    20.106428    19.817731    20.742565     8265.161    6046.2813    5430.1445    4487.1427    215.45288   -1158.8372    782.49109   -3538.5014 
12512000    275.06532   -4662.5084   -4132.0218   -4662.5084            0    4921.2496    20.227154    20.130564    20.407323    8309.5358    4220.5111    4603.5834    5939.6541    110.80261    14.726913     532.3904    -3535.635 
12513000    270.67342   -4666.3799   -4144.3634   -4666.3799            0    4614.8981    20.029402    20.055138    20.681676    8307.6725    5267.7661     4509.554    4067.3743    768.04957    398.72796     367.1553   -3585.2275 
12514000    261.39399   -4692.9516   -4188.8313   -4692.9516            0    7393.1759    19.916169    19.760845    20.823092    8195.1427    7787.7329    7117.8644    7273.9303   -514.94381   -932.03121   -973.50828   -3305.2156 
12515000    268.31952    -4704.642   -4187.1653    -4704.642            0    6748.3733    20.109693    20.003022    20.591638    8283.0818    5356.2491    8425.3687     6463.502   -334.43287    77.989368   -136.21606   -3371.9601 
12516000    264.31208    -4692.363   -4182.6149    -4692.363            0    6917.7588    19.971108    20.196512    20.523887    8278.2425    8895.3548    4857.6419    7000.2795     125.4806   -506.30888    26.149909   -3347.4362 
12517000    276.75313   -4726.6406   -4192.8989   -4726.6406            0    4681.8201    20.062869    19.984817    20.841162    8356.3215     3121.698    5827.0011    5096.7613   -59.629174    700.59696   -786.65936   -3622.3331 
12518000    251.46876   -4695.3024   -4210.3237   -4695.3024            0    3996.0572    20.112571    19.729083    21.138218       8387.7    5489.1623    4405.9057    2093.1037   -255.92711    576.52809   -463.45912    -3721.502 
12519000    265.79999   -4703.4157   -4190.7981   -4703.4157            0    5419.3619    20.020188    20.069544    20.765547    8343.5149    5012.9721    5750.6274    5494.4862   -371.05507   -274.84377   -241.75186   -3531.3614 
12520000    257.02087   -4686.0426   -4190.3562   -4686.0426            0    4799.2559    20.098769    20.009269    20.569005    8272.0655    3890.4992    5523.1809    4984.0875   -277.96706   -543.86571   -960.36572    -3611.376 
12521000    256.54371   -4705.6358   -4210.8697   -4705.6358            0     5086.156    20.219046    19.990915    20.494421    8283.7885    3364.1478    6042.5516    5851.7685    339.83143   -307.05279   -1068.3239   -3596.4083 
12522000    261.90146   -4684.3418   -4179.2428   -4684.3418            0    5301.2858    19.935412    19.975706    20.792504    8280.0729    6774.8084     4353.319    4775.7301   -604.56344     301.4795   -679.45943   -3539.0788 
12523000    255.67176   -4709.1887   -4216.1042   -4709.1887            0    5294.4526    19.880098    20.041932    20.865116    8313.4048    4327.4744     6494.789    5061.0943   -157.12552   -1292.3485    589.53669   -3574.1916 
12524000    272.05429   -4660.6591   -4135.9795   -4660.6591            0    4594.5003    20.129723    19.963154    20.687252    8313.2294    4049.0826    5469.8153     4264.603    730.87207   -320.77898   -1326.0621   -3578.9427 
12525000    282.50901   -4703.1083   -4158.2659   -4703.1083            0    5760.8734    20.097983    20.059287    20.552493    8285.7624    6025.2606    5466.7779    5790.5815    309.97079    271.41682    943.09282   -3462.1258 
12526000    273.02585   -4675.3571   -4148.8038   -4675.3571            0    6099.9657     20.23739    20.059278    20.548776    8341.7227    5344.2044    6911.2125    6044.4802   -644.93534     393.4767    567.16869   -3406.7096 
12527000    289.64019   -4713.3277   -4154.7322   -4713.3277            0    3852.8958    20.052025     19.96975    20.993507    8406.5125    4242.1987    5284.0216     2032.467    128.04545    1281.7656    209.72896   -3682.3658 
12528000    261.07447    -4712.271   -4208.7669    -4712.271            0    4860.3861    20.229956    20.056533    20.711167    8403.4064    5590.6592    3514.9457    5475.5534   -272.06987    111.22182   -187.74386    -3613.102 
12529000    269.07018   -4692.7227   -4173.7982   -4692.7227            0    6443.8237    20.133303     19.73263    20.743992    8241.2358    3596.2994    8634.4671    7100.7047    581.61668   -434.51913    1269.1284   -3399.3152 
12530000    262.97652   -4664.2742   -4157.1018   -4664.2742            0    5452.4259    19.947889    19.963456    20.804739    8285.0466    6274.1487    5916.9614    4166.1677    7.6850481    1594.1786    -112.0273   -3498.2911 
12531000    270.46932   -4671.5116   -4149.8888   -4671.5116            0    5319.9828    20.204461    19.987649     20.50117    8279.1859     2134.281    7620.5479    6205.1194   -312.86336    759.77893   -859.03511   -3507.5358 
12532000    269.23518   -4688.2191   -4168.9764   -4688.2191            0    4281.7136     19.80387    20.219067    20.711242    8293.1078    5569.1354     3757.691    3518.3144   -119.17948     841.6129   -140.83938   -3651.1183 
12533000    268.40052   -4685.3337   -4167.7008   -4685.3337            0    6398.2065    20.021025    19.888386    20.673946    8232.0734    7353.6895    6378.9676    5461.9625   -716.34406    1947.8102    297.61841   -3399.5555 
12534000    263.03502    -4717.329   -4210.0438    -4717.329            0    4911.3051    19.901574    20.073475    20.877277    8340.3421    4120.9069    6994.3638    3618.6445    578.15402     179.7432    262.72716   -3612.6556 
12535000    261.80532   -4728.8075   -4223.8939   -4728.8075            0    4595.3641     19.94914     20.07507    20.779405    8321.7439    2996.7243    6153.6237    4635.7443    -122.1477   -682.81307    220.78823   -3666.1817 
12536000    268.04174   -4725.6068   -4208.6658   -4725.6068            0    3579.0343    20.220823    19.910266    20.683208    8327.1004     1658.262    4895.0867    4183.7542    213.34763   -746.09067   -803.92486   -3774.0199 
12537000    258.45186      -4679.4   -4180.9539      -4679.4            0    5618.7163    20.159371    20.046075    20.462838    8269.3657    4697.2738    6061.0362    6097.8389    300.26823    800.53944    518.17526   -3503.3355 
12538000    276.33863   -4690.0545   -4157.1122   -4690.0545            0    3881.5263     20.10125    20.006169    20.719897    8332.4859    3587.9443    4568.2022    3488.4323    177.95282    934.77686   -1789.3324   -3685.4262 
12539000    247.81905   -4683.6232   -4205.6833   -4683.6232            0    6345.0547     19.89602    19.963763    20.848647    8281.0704    9060.0094    4505.9139    5469.2409   -665.03224   -726.69833    1722.0364   -3439.3852 
12540000    271.08999   -4709.4988    -4186.679   -4709.4988            0     3222.485    20.160127    19.946161    20.853241    8385.4458    2982.7161    2407.0095    4277.7294    181.57791    440.81175    214.27185   -3792.5912 
12541000    260.27181   -4686.9551    -4184.999   -4686.9551            0     5458.848    19.984541    20.044435    20.744823    8309.9368    5932.3225    4815.1764     5629.045   -53.298534    2934.5944   -385.72587   -3523.4308 
12542000    261.67313   -4702.3655   -4197.7069   -4702.3655            0    5367.6255    19.974239    19.906779    20.706879    8233.5263     7239.174    4873.1059    3990.5966    330.35889    424.35658    548.42033   -3553.1756 
12543000    272.05743   -4694.4866    -4169.801   -4694.4866            0    3216.5027    19.878242    20.375616    20.666771    8370.6919    3386.0225    1935.7901    4327.6954    144.80562    780.68837     67.33883   -3777.1369 
12544000    261.77003   -4720.6184   -4215.7728   -4720.6184            0    5303.6923     19.94641    19.906763    20.830065    8270.9621    5809.6447    4774.2559    5327.1761   -767.65186     838.6802   -579.65084   -3576.0229 
12545000    251.56473   -4696.0651   -4210.9014   -4696.0651            0    6050.6453    19.893174    19.890843    20.880484    8262.2403    4424.1562    7671.2051    6056.5745   -43.431525    -57.85923    42.616096    -3481.821 
12546000    262.99771   -4707.2104   -4199.9972   -4707.2104            0    5371.1289    20.103068    19.810563    20.806071    8286.0823    5596.3454    5908.8109    4608.2304   -20.845363    321.79736    403.42269   -3550.9284 
12547000    268.01698   -4711.4064   -4194.5131   -4711.4064            0    5226.9227    20.099525    20.170105     20.52461    8320.8723    4826.5165     4375.329    6478.9227   -1092.8125    1949.1409   -840.95937   -3560.2188 
12548000    251.87029   -4695.1916   -4209.4386   -4695.1916            0    4098.5586    20.163391    19.990018    20.591401    8299.7053    4645.4097    3619.8224    4030.4438   -107.05827    1325.8148   -60.743961    -3713.338 
12549000    270.60654    -4695.785   -4173.8975    -4695.785            0    3996.8435    20.004665    19.901827    20.957671    8343.8646    4164.0404    4418.0834    3408.4068   -301.87591    687.41675    1313.1935   -3687.5348 
12550000    258.20292   -4702.3336   -4204.3676   -4702.3336            0    6240.1966    19.995076    19.813862    20.967983    8307.0888    4520.5903    8330.0704    5869.9291   -153.96608    653.56649   -626.92001   -3448.3655 
12551000    286.77247    -4666.646   -4113.5811    -4666.646            0    4789.7433    20.000038    20.057303    20.874477    8373.7301    4818.0354    5813.1933    3738.0011   -610.45449    1006.7772   -753.78675   -3528.6468 
12552000    263.17152   -4713.0045   -4205.4561   -4713.0045            0    6092.9554    20.040705    20.166059    20.510933    8289.3299     8075.265    3804.1286    6399.4727    -192.7484    147.26142   -35.805868   -3468.8703 
12553000    263.21881   -4725.9281   -4218.2885   -4725.9281            0    5402.8236    20.140744    19.856003    20.639193    8253.9161    3025.1301    6863.7829    6319.5579   -19.195125    483.79688   -826.46992   -3567.9241 
12554000    262.55039   -4655.0355    -4148.685   -4655.0355            0     6761.403    20.019977    19.688006    20.887448    8232.8594    6756.5293    7259.3261    6268.3535    123.52554    2346.8641    1565.1926   -3336.8582 
12555000    279.33201   -4717.7809   -4179.0656   -4717.7809            0    6756.1929    19.951494    20.021235    20.682044     8261.516    8656.8401    4528.1184    7083.6201    94.716956   -1232.6122    5.8932222   -3365.0407 
12556000    285.59987   -4689.9289   -4139.1256   -4689.9289            0    5368.5414    19.941017    20.300815    20.517596    8305.9104     4018.936    6377.1458    5709.5424    563.73322   -108.86085    950.38796   -3488.8171 
12557000    248.62526   -4688.5266   -4209.0318   -4688.5266            0    6629.3589    20.118911    19.864972    20.514924    8199.0277    5045.1831    8218.8938    6623.9997     500.7744    1486.9399   -848.32717   -3416.3302 
12558000    264.32467   -4694.3664   -4184.5941   -4694.3664            0    3963.0743    19.880337    20.163908    20.953031    8399.3426    5148.7832    3517.9913    3222.4483    87.460463   -340.21873     356.9783   -3699.1341 
12559000     257.2036   -4683.5487   -4187.5099   -4683.5487            0    4682.5687    20.110979    19.846104     20.85039    8321.9034    3870.9663    5712.5388    4464.2009    272.94571    860.66062    603.30268   -3619.2033 
12560000    266.82758    -4702.849   -4188.2496    -4702.849            0    5609.6782    19.924663    20.142415    20.680326    8299.6525     7283.707    3968.9523    5576.3752   -414.37991   -775.49787    241.81387   -3509.2434 
12561000    271.29794   -4698.3147   -4175.0938   -4698.3147            0     3570.814    20.498316    19.879016    20.634246    8408.1737    3079.8263    3065.7548     4566.861    253.88158    337.45751    1258.4154   -3737.2242 
12562000    269.67372   -4664.0938   -4144.0053   -4664.0938            0    3770.4253    20.027425    20.263553    20.779299     8432.796    4684.1423    2431.6982    4195.4353   -661.47561   -286.39793    561.31628   -3680.3045 
12563000     285.4743   -4707.0794   -4156.5181   -4707.0794            0    4514.2301    20.492433    19.623981    20.752911    8345.6402    5968.6706    3617.2062    3956.8134   -117.51648     939.4173   -432.40635   -3607.0795 
12564000    262.52041   -4689.3025   -4183.0098   -4689.3025            0    5187.8469    20.060679    20.027784    20.705104    8318.7093    5683.3406    4330.6857    5549.5143     678.3853    437.06046   -177.88088   -3553.6211 
12565000    272.94393    -4729.093   -4202.6977    -4729.093            0    5115.7566    20.121718    20.055129    20.710785    8357.7058    4939.2287    4509.9717    5898.0693   -658.37077    517.74721   -1291.8877   -3579.1455 
12566000    265.00128   -4657.6055   -4146.5283   -4657.6055            0    4530.1795      20.1163    19.943693    20.844021    8362.4819     4467.638      5537.59    3585.3106    431.31332    266.20864    398.71719   -3594.0356 
12567000    253.77193     -4690.52   -4201.0995     -4690.52            0    4407.7219     19.82484    20.028795    20.847265    8277.7744    4883.5477    5447.2176    2892.4004   -695.53315    329.20382    898.47666   -3668.9868 
12568000     265.4774   -4691.9806   -4179.9851   -4691.9806            0    4428.4945    20.111057    19.916848    20.716192    8297.8474    3879.3823    5280.1346    4125.9664   -447.01578   -1257.7139    781.61492   -3644.0682 
12569000    265.18757   -4735.0254   -4223.5888   -4735.0254            0    5933.5864    20.118628    20.004427    20.540666      8266.83    6228.3094    4992.0089    6580.4409    836.24979   -246.80188   -177.00979   -3508.2165 
12570000    269.79537   -4687.6104   -4167.2873   -4687.6104            0    4349.7944    19.887215    20.100663    20.836549    8329.3316    4667.1959    4567.9836    3814.2036    162.95487    -101.7681    323.31171   -3638.8971 
12571000    271.65451   -4697.8121   -4173.9035   -4697.8121            0    5064.9918    19.882234    19.972907    20.836038    8274.1155    5642.5801     6076.436    3475.9595    487.32412    76.920894   -269.87263   -3562.7136 
12572000    283.03948    -4658.855   -4112.9896    -4658.855            0     5173.308    19.995976    20.095956    20.694218    8315.7281    7033.1697    3547.5697    4939.1847    363.93406    -836.3702   -961.29675   -3485.5896 
12573000    249.10959   -4698.0885   -4217.6597   -4698.0885            0    4234.5819     20.11164    19.934016    20.642047     8275.515    4144.9844    3903.1042     4655.657   -758.82039    664.42106   -223.51094   -3706.5885 
12574000    252.87138   -4697.1387    -4209.455   -4697.1387            0    5184.7084    20.081621    19.857306    20.774398    8284.1422    5806.8496    4290.8297     5456.446   -128.75378    838.06493   -1991.5912   -3583.0608 
12575000     264.7751   -4696.6802   -4186.0392   -4696.6802            0    5709.4105    19.982294    20.079336    20.671409    8294.0141    4916.8302    5490.7322    6720.6692     413.4753    816.56882   -3079.7837   -3495.4306 
12576000    275.03114   -4719.3443   -4188.9236   -4719.3443            0    4112.5136    20.332714    20.022397    20.396024    8303.4186    2969.9122    5259.0239    4108.6046   -515.57797   -499.08918    237.38058   -3690.9112 
12577000     247.7043   -4709.8203   -4232.1017   -4709.8203            0    4956.2192    20.079201    19.977861    20.631576      8276.14    4305.6719    5281.3179    5281.6679    262.28244   -442.58425   -60.888228   -3633.8909 
12578000    271.07723   -4663.4993    -4140.704   -4663.4993            0    5593.7362    19.928224    19.855615    21.017014    8316.1619    3767.2603    8196.1101    4817.8382   -1175.1062    372.47409    304.79359   -3462.2806 
12579000    259.41172    -4708.564   -4208.2667    -4708.564            0    5048.7543    19.937963    20.080861    20.898721    8367.2517    6595.0039    4934.4847    3616.7744    645.87971    1412.3919    -231.5236   -3592.1784 
12580000    268.49893   -4681.1444   -4163.3217   -4681.1444            0    5721.5463    20.105375    19.912665     20.76769    8314.3778    4496.4194    6773.0504    5895.1691    341.95146    241.20154   -129.92541    -3469.546 
12581000    256.70066   -4660.1946   -4165.1258   -4660.1946            0    7384.6683    19.939955    20.009799    20.595149    8217.3507    9958.1066    5387.9895    6807.9088    -575.6512   -759.46246     718.0599   -3280.1351 
12582000    267.70626   -4730.6088   -4214.3148   -4730.6088            0    5463.5351    20.214872    20.100879    20.460046    8313.6676    6224.3678    4449.5891    5716.6485   -234.00568   -1055.9416   -1503.2246   -3551.8813 
12583000    264.02474   -4694.0601   -4184.8662   -4694.0601            0    4609.5709    20.117499    20.106892    20.726665    8383.9437    4609.7073    3885.1893    5333.8161   -522.14596   -2486.9087    1250.4416   -3621.2484 
12584000    268.37604    -4655.655   -4138.0692    -4655.655            0     6480.786    19.987364    19.679687    21.008481    8263.5825    8263.5463    6086.9046    5091.9071    61.486372    51.359533   -170.14246   -3357.0317 
12585000    264.61645   -4722.0217   -4211.6866   -4722.0217            0    4509.6588    20.096475    19.936889    20.829638    8345.6272    4036.7528    6187.1915    3305.0322     -1280.72    118.93697   -805.05098   -3662.8052 
12586000    264.79785   -4700.4575   -4189.7726   -4700.4575            0    6696.2731    20.084942    19.988152    20.463837    8215.4301    5911.6028    6858.5827    7318.6336    210.07562   -109.45417    55.079422   -3387.4679 
12587000    249.41623   -4683.6484   -4202.6282   -4683.6484            0    4577.1844    19.967449    20.156778    20.722153    8340.2405    5902.3637    1702.7336    6126.4559   -413.39138   -745.51274   -1621.9981   -3645.8876 
12588000    260.56587   -4680.8527   -4178.3295   -4680.8527            0    6690.4204    20.110584    19.878719    20.707071    8278.1206      5064.42    7193.4787    7813.3625     537.3327    1181.4298    183.00612   -3370.6091 
12589000    251.62293   -4720.4374   -4235.1614   -4720.4374            0    6172.2828    19.742408    20.119144    20.649511     8201.993    7438.0646    4507.1347    6571.6491   -625.86923   -324.48588    486.68788   -3496.8474 
12590000    259.09998   -4697.3459   -4197.6498   -4697.3459            0    5134.0398    19.886673    20.082055    20.790499    8303.0032    4748.2401    5144.9115    5508.9676    261.69502    1194.7012   -295.20751   -3575.9649 
12591000    256.87144   -4695.2422   -4199.8441   -4695.2422            0    4614.5814    19.886939    19.987846    20.844726    8285.7178    5224.3264    4318.8501    4300.5676    244.08352    517.43224    16.556946   -3642.2241 
12592000    266.91005   -4705.4629   -4190.7044   -4705.4629            0    4641.7919    20.158737    19.979467    20.652556    8318.0401    3882.9538    5455.8162    4586.6059   -682.62408   -8.6438856    -494.3105   -3627.6083 
12593000    281.04401   -4700.5188   -4158.5018   -4700.5188            0    4779.4516    20.269731    20.135301    20.327351    8296.3472    6401.4807    3647.4005    4289.4738   -407.39044    549.22474   -78.937284   -3580.2182 
12594000    253.14408   -4671.3103   -4183.1006   -4671.3103            0    5289.2534    19.950291    20.085574    20.711782    8299.4809    3905.9189    5736.8021    6225.0393    220.33299   -1388.1118   -1012.6375   -3542.8925 
12595000    255.69532   -4720.3244   -4227.1945   -4720.3244            0    5257.7712    19.878551    19.922461    21.045801    8334.7611    6579.2526    4672.4399    4521.6211    420.90169    1329.9176    28.967483   -3588.0917 
12596000     272.5371   -4705.4393   -4179.8285   -4705.4393            0    4150.5972    20.184858    19.909807    20.767083    8345.8055    2610.9072    5418.6349    4422.2495    71.250731    855.22717    1014.0524   -3674.6386 
12597000    264.85417   -4703.3479   -4192.5543   -4703.3479            0    5001.4421    19.733578    20.244118    20.815941    8315.7369    5997.4835    3754.6824    5252.1605   -76.734102   -279.66507   -1105.7083    -3585.997 
12598000    264.44611   -4701.1418   -4191.1353   -4701.1418            0    6270.5909     20.18446    20.014102    20.483099     8274.636    4420.9244    6456.5236    7934.3247   -775.36524    826.58274    168.12557   -3434.4187 
12599000    260.23959   -4692.5561   -4190.6622   -4692.5561            0    3902.0839    19.943973    20.152632    20.692244    8316.6998    6786.2728    1458.4445    3461.5344   -116.18821    648.71193   -87.004964   -3717.3763 
12600000    267.13382   -4693.7015   -4178.5115   -4693.7015            0    6031.7081    20.059555    19.826091    20.735607    8246.6042    3137.9341    8067.4124    6889.7776    324.64148    1683.4226    746.72866   -3453.0884 
12601000    254.73529   -4730.0776   -4238.7992   -4730.0776            0    3447.7408    20.046722    20.128717    20.675803    8342.9925    1843.4715    4803.6653    3696.0855    478.49138   -14.730246    122.68935   -3819.2988 
12602000    260.10557   -4689.0402   -4187.4047   -4689.0402            0    5685.0391    20.155367    20.116007    20.536101    8326.2698    6612.4638    4480.4996    5962.1539   -486.67284     1228.363    1088.4182   -3497.0699 
12603000    273.80088   -4691.6629   -4163.6149   -4691.6629            0    7267.5814    19.767617    19.970935    20.919694    8258.6305     8488.594    6861.1541    6452.9961    487.96838    546.66591   -390.96995   -3288.2808 
12604000    264.43891   -4679.1464   -4169.1537   -4679.1464            0     5201.314    19.981667    19.863783    20.815302    8261.8325    5768.2459    6368.9537    3466.7424    579.79443    637.55973    273.77527   -3542.4456 
12605000    277.54932   -4670.4534   -4135.1762   -4670.4534            0    5382.7045    19.805732     20.08441    20.701789    8234.8907    5600.7181    5920.6637    4626.7317    297.26089    1369.0473   -652.38409   -3488.7272 
12606000    258.98827   -4714.4445   -4214.9638   -4714.4445            0    5537.8424    20.054084    20.038123    20.652697    8299.2078    4853.4839    6275.6686    5484.3746   -271.44528     1208.842   -738.97899   -3544.6887 
12607000    261.56241   -4690.2001    -4185.755   -4690.2001            0    6335.8117    20.019773    20.022423    20.736502    8312.1102    5604.7484    7380.0431    6022.6436   -696.05496    692.64415    431.00557   -3417.7051 
12608000    266.81078   -4680.5047   -4165.9376   -4680.5047            0    4074.3903    20.306516    19.936623    20.646501    8358.5989    2855.4983     4813.176    4554.4966     381.7425    706.86237    1060.2128    -3669.263 
12609000    269.02964    -4702.255   -4183.4087    -4702.255            0    4439.8553    19.956975    20.205582    20.699861    8347.0597     5548.429    3479.8612    4291.2757    -778.2438     11.08882    777.35029   -3642.9304 
12610000    279.70693   -4700.3624    -4160.924   -4700.3624            0     4682.887    20.176838    19.894654    20.714384    8314.9858    3665.8008    6656.3411    3726.5193   -40.603776    223.59312   -1380.4185   -3593.0512 
12611000    268.87266   -4659.9524   -4141.4088   -4659.9524            0    5100.3391    20.027042    20.063317    20.517206     8243.996    4099.7507    5145.8147    6055.4519     128.8589   -662.89731   -544.15446   -3528.1939 
12612000    270.09265   -4688.6737   -4167.7773   -4688.6737            0    4558.4794    19.975157    20.169223    20.603083      8300.64     4982.434     3214.263    5478.7413   -301.25532   -419.77457    143.97831   -3615.9446 
12613000    255.02406   -4704.4801   -4212.6447   -4704.4801            0    4545.8994    19.841833    20.216525    20.820443    8351.7648    4061.5902    5142.1606    4433.9473    129.22486    598.88793    452.85159   -3658.9454 
12614000    253.64175   -4673.6175   -4184.4481   -4673.6175            0    5830.5167    20.027909    19.921927    20.934987    8352.9456    4926.4211    7238.9697    5326.1592   -429.29498    1114.7696   -284.12611   -3474.1795 
12615000    253.96491   -4677.0107    -4187.218   -4677.0107            0     5952.929    19.989442    20.144528    20.685495    8329.5913    5672.7705     6870.126    5315.8903    207.90086   -1116.4879   -1129.3889   -3464.0649 
12616000    249.15893   -4694.4721   -4213.9482   -4694.4721            0    5265.1777    20.131675    20.087892    20.655316    8353.0699    2867.0703    7854.4461    5074.0166    684.55622    932.83342   -167.41078   -3572.5392 
12617000    251.04717     -4701.65   -4217.4844     -4701.65            0    4411.5418    20.339705    19.995761    20.455165    8319.2769    3710.9252    4517.8424    5005.8577    451.12689    146.64136    669.11386   -3682.2404 
12618000    264.35406   -4708.6072   -4198.7782   -4708.6072            0    6447.4122    20.154612    19.856294    20.613668    8249.5051    4849.4312    7087.6729    7405.1323   -120.17054    398.13859    -929.9916   -3423.0863 
12619000    261.37234   -4719.5917   -4215.5132   -4719.5917            0    5005.8011    20.121124    20.169863    20.564613    8345.9487    6252.2425    3705.8401    5059.3206     -21.4968    148.76176   -1122.1436   -3606.2216 
12620000    267.72694   -4687.7151   -4171.3812   -4687.7151            0    6312.7618     19.93787    19.951064    20.709215    8237.7471     6690.385    7180.1004    5067.8001    503.06749    434.83932    437.43975   -3412.9718 
12621000    254.03166   -4711.7009   -4221.7795   -4711.7009            0    4599.8303    20.064281    19.995661    20.777201    8335.7833    5506.2882    4242.4351    4050.7675   -714.27139   -280.56137   -332.55955   -3662.5835 
12622000    254.77677   -4658.1603   -4166.8018   -4658.1603            0    5360.8783    19.910668    20.003921    20.923819    8333.7777    6499.2614    4271.3027    5312.0707    412.70804    824.19852    291.81729   -3515.2428 
12623000     268.2939   -4702.8237   -4185.3964   -4702.8237            0    6002.2465    19.879183     20.00803    20.716056    8239.6725    7362.7358    4273.3492    6370.6546     604.7206    297.84325   -1501.2972   -3464.1234 
12624000    266.95821   -4692.0915   -4177.2401   -4692.0915            0    5216.8726    20.094582    20.225404    20.368728    8278.2796    5503.1096    4695.3606    5452.1477    184.50604    1542.2671   -538.64265    -3547.406 
12625000    264.93414   -4665.1311   -4154.1834   -4665.1311            0    6231.7975     19.97767    20.232402    20.519319    8293.8321    7500.7846    4200.3433    6994.2646    245.06946   -896.77372   -475.95047   -3400.4036 
12626000    250.71292   -4683.6987   -4200.1778   -4683.6987            0    5650.2949    19.730748    20.154544    20.529195    8163.7262    6227.5431    5133.3788     5589.963   -908.76282   -773.99054    1515.9795   -3527.4561 
12627000    265.15551   -4689.9485   -4178.5738   -4689.9485            0    7481.9071    19.768173    20.122033    20.722693    8242.9863    8343.5207     6930.671    7171.5298     9.857973    -58.94296    438.45135   -3279.1326 
12628000    249.86928    -4674.092   -4192.1981    -4674.092            0    5084.8511    20.006266    20.130593    20.672574    8325.6312    4419.0524    5467.1798    5368.3212   -2.8877095    896.56569   -498.28689   -3574.7914 
12629000     271.1668   -4646.0742   -4123.1062   -4646.0742            0    4293.7435    20.159385    20.152941     20.47982    8320.3547    4304.2632    3847.0222    4729.9452   -52.190977    329.03091    1109.6681   -3602.0869 
12630000    251.46565   -4705.9232   -4220.9506   -4705.9232            0    5715.1599    19.995115    19.869676    20.715409    8230.1584    5230.8622     6617.122    5297.4953   -453.25757    154.31613    969.83106    -3534.969 
12631000    252.05105   -4711.5126   -4225.4109   -4711.5126            0     5715.205     20.00442    19.948691    20.830267    8312.5681    6421.0719    7122.2319    3602.3112   -463.35849    205.87158    205.16291    -3532.555 
12632000    260.29223   -4642.0692   -4140.0738   -4642.0692            0    4369.7325    19.953499    20.158253    20.749249    8345.9224    4518.0953    2973.5997    5617.5024   -58.938711    1126.3815    5.8725168   -3608.2043 
12633000    266.78908   -4649.8205   -4135.2953   -4649.8205            0    5875.3946     20.13369    20.043327    20.482932    8265.8079    4934.7374    6997.5452    5693.9011   -120.16291    1656.6353    111.52227   -3427.0263 
12634000    262.01084   -4687.9431   -4182.6332   -4687.9431            0    5719.7878    20.099069    20.038994     20.44783    8235.6729    6258.3957    4846.6862    6054.2815   -132.71943     1838.059   -1050.5128   -3495.6361 
12635000     267.1326   -4698.8994   -4183.7118   -4698.8994            0     5169.123    20.063096    20.130794    20.512763    8284.8188    5728.1003    4841.1265    4938.1421   -37.928866   -107.31008    1142.5795   -3559.1495 
12636000    266.59828   -4674.9937   -4160.8364   -4674.9937            0    7454.6688    20.098167     19.97193    20.443946    8206.1829    7068.0502    8191.7983    7104.1579   -1090.1061    185.09214    1129.2062   -3268.6709 
12637000    264.76228   -4707.6955   -4197.0792   -4707.6955            0    4527.0368    19.839462    20.159176    20.783379    8312.2546    4955.3672     3991.632    4634.1112   -426.23317    1319.1639   -183.53852    -3648.286 
12638000    259.63197   -4693.3005   -4192.5784   -4693.3005            0    4427.7371    20.145554    20.129706    20.675812    8384.5397    5665.9268    4162.5078    3454.7768    485.90189   -209.76917   -102.81805   -3651.1551 
12639000    252.22735   -4712.2935   -4225.8518   -4712.2935            0    5671.5415    20.102789    20.044742    20.461665    8245.1346    6730.5373    5705.9578    4578.1294    438.90664   -204.65571   -984.15113   -3543.8669 
12640000    272.70905   -4687.3159   -4161.3736   -4687.3159            0     5944.892     20.14611    20.084074    20.452269    8275.3144     5841.984    5151.9173    6840.7747   -438.72943    1282.5549    1888.2606   -3443.9026 
12641000    260.78234   -4688.9427    -4186.002   -4688.9427            0    3168.9658    20.461664    19.764907    20.697767    8370.6505    105.60871    5262.9669    4138.3217    -421.4234    395.49012    1606.4827   -3799.1431 
12642000    248.83769   -4671.7888   -4191.8844   -4671.7888            0    3151.2495    19.987998    20.182415    20.732098    8363.4543    3885.2427    2623.4753    2945.0306    273.61137    558.00924    375.99435   -3807.5189 
12643000    252.24658   -4676.1105   -4189.6317   -4676.1105            0    3794.8221    20.136678    20.099424    20.508245    8300.4174     4306.964    2596.2464    4481.2558    160.37136   -566.20585    1251.1549   -3730.2568 
12644000     258.7982   -4689.5604   -4190.4463   -4689.5604            0    6642.1893    19.929818    20.106543    20.682611    8287.9307    7780.0013    5529.2321    6617.3344   -345.38469    445.93077   -1439.4637   -3387.5985 
12645000    254.43453   -4678.3679   -4187.6695   -4678.3679            0    5206.7893    20.028762    19.884183    21.034532    8377.1197    5793.7914    6636.7833    3189.7931   -15.109374    214.80788    -358.2005   -3551.5472 
12646000    260.08607   -4724.3262   -4222.7284   -4724.3262            0     3618.229    20.035706    20.179857    20.744163    8387.2321    5286.6286    2608.4441    2959.6143   -840.38186   -152.93911   -933.59097   -3780.1496 
12647000    258.63477   -4716.8513   -4218.0524   -4716.8513            0    3700.0139    20.101328     20.10109    20.576483    8314.1046    2772.6394    4553.8488    3773.5535   -569.78778   -188.30587     895.8903   -3769.4158 
12648000    261.41132    -4713.949   -4209.7952    -4713.949            0    3443.8467    20.336519    19.988351    20.417804    8299.7038    3953.3248     2189.473    4188.7423   -398.08647    433.88804   -410.38942   -3792.9429 
12649000    268.54751   -4678.8038   -4160.8874   -4678.8038            0    5441.6713    19.972031    20.081663    20.612896    8267.2469    6514.9101    3921.1784    5888.9254   -656.29378    157.33611   -488.32786   -3504.7888 
12650000    277.54852   -4730.6488   -4195.3731   -4730.6488            0    5322.2403    19.960348    19.811201    20.946404    8283.0138    7037.4496    3870.9223    5058.3489    638.49903    347.02844    922.89734   -3552.4504 
12651000     265.2764   -4671.2339   -4159.6261   -4671.2339            0    3596.3582    20.163437    20.202918    20.733688    8446.0805    4639.0061    1821.0264    4329.0422    758.42732    395.24454   -280.08294   -3716.6359 
12652000    269.24377   -4686.9791   -4167.7199   -4686.9791            0    4843.2035    20.245824    20.025104    20.586633    8346.3302    4758.7265    4296.7872    5474.0967   -1143.6411   -258.32617   -1337.2805   -3578.1923 
12653000    259.03638   -4697.5731   -4197.9996   -4697.5731            0    3871.4236    20.214161    19.971224    20.774183    8386.5697    3197.1451    3615.5375    4801.5882    365.51898   -75.837473   -704.18844   -3724.4877 
12654000    266.47124   -4704.6893   -4190.7771   -4704.6893            0    4207.1131    19.882293    20.199358    20.645174    8291.2989    6022.7057    2209.7989    4388.8349   -640.51538    -20.90314   -936.90888   -3682.0526 
12655000     259.8343   -4700.0022   -4198.8899   -4700.0022            0    4216.8737    20.248347    19.974061     20.57203     8320.187    2945.2732    4460.6544    5244.6934    -58.16987    860.50638   -85.201509   -3687.2086 
12656000    250.00075    -4696.137   -4213.9896    -4696.137            0    4191.6788    20.033292     20.08222    20.747078    8346.8187    5919.4022    1841.9814    4813.6529   -407.03387    687.98619    241.42485   -3703.7374 
12657000    278.92365   -4716.0378   -4178.1101   -4716.0378            0    5424.0278    19.949929    20.071518     20.67727    8279.7032    4611.2656    6416.2595    5244.5584    201.75851   -176.15639   -634.35249   -3523.1534 
12658000     249.8679   -4703.7321   -4221.8408   -4703.7321            0    4841.5479    20.065503    20.049951    20.648329    8307.0779    4227.4903    5235.7994    5061.3539   -714.91128    242.94036    -669.7474   -3635.2863 
12659000    251.75793   -4697.3676   -4211.8313   -4697.3676            0    4350.7214    20.164923    19.886297    20.896718    8379.7019    4642.0962    5190.4482    3219.6196    118.24531    2219.0529   -937.56826   -3680.1325 
12660000    274.13483   -4714.5262   -4185.8341   -4714.5262            0    4726.3545    20.174694    19.927003    20.734325     8335.638    4134.9606    4956.8663    5087.2365   -462.35671    79.670305   -143.72717   -3611.2666 
12661000    261.62285   -4708.4319   -4203.8702   -4708.4319            0    4487.1594     19.90918    20.309608    20.522845    8298.3642    4419.6906     3547.224    5494.5636    395.46677    11.651856    263.82675   -3660.8201 
12662000    260.48591   -4682.2564   -4179.8874   -4682.2564            0    5691.7566    19.910484    19.958695     20.78861     8261.129    6164.6424    5618.0748    5292.5526   -643.57446    1191.4599     689.7332    -3494.144 
12663000    267.46354   -4688.5444   -4172.7185   -4688.5444            0    6811.3373    19.981901    19.948632     20.68811    8246.5204    7665.4088    7083.7804    5684.8227    629.69699   -435.92435    1453.3392   -3353.5391 
12664000     258.2432   -4708.1163   -4210.0725   -4708.1163            0    4405.1121    20.027819    20.131929    20.724533    8356.1033    4093.6431    3842.0778    5279.6154    290.32284   -1063.8509    2367.9258   -3673.2427 
12665000    276.87113   -4731.7071   -4197.7378   -4731.7071            0    4520.6483    19.913264    20.057217     20.69559    8265.9156    5728.6787    4382.6451    3450.6213    298.87521   -435.35143    93.463542   -3652.7741 
12666000    272.82111   -4687.6294   -4161.4709   -4687.6294            0      6519.11    20.038364    19.870085    20.739644    8257.7795    6224.2053    6275.4549    7057.6698    943.71908   -161.82285    -842.6326   -3376.3664 
12667000    255.79685   -4677.1093   -4183.7836   -4677.1093            0    6341.7087    19.959738    20.084094    20.555847    8240.2893    7967.9498    4603.2114     6453.965   -696.37177    295.81455    1587.1069   -3421.6613 
12668000     275.6284   -4678.8712   -4147.2987   -4678.8712            0    6377.3176    20.158829    19.802878    20.653027    8244.7467    5957.9729    7709.3207    5464.6591   -817.62822    256.79157    1293.3689   -3380.4825 
12669000    280.51938   -4696.7717   -4155.7665   -4696.7717            0    5513.5918    19.829505    20.271668    20.659839    8304.7828    6120.7232    5072.9263    5347.1261    674.36352    663.93644     1159.474   -3487.9783 
12670000    254.37165   -4669.8874   -4179.3103   -4669.8874            0    3687.7289    20.204558    20.066362    20.656728    8374.8981    4421.4047    3317.1187    3324.6632   -1232.3327    183.05514   -1354.1901   -3728.8937 
12671000    266.35586   -4674.2503   -4160.5606   -4674.2503            0    5804.7421    19.867326    20.199792      20.7019    8308.0007    6188.6549     4054.785    7170.7863    570.12661    1756.4432    656.12319   -3457.2367 
12672000    264.44265   -4708.5345   -4198.5346   -4708.5345            0    5192.0892    19.960012    19.940462     20.96406    8343.9446    4134.1247     6884.527    4557.6158   -137.48837    219.47371    -1056.823   -3566.7203 
12673000    260.51579   -4719.6667   -4217.2401   -4719.6667            0    4476.6629     19.94666    20.027939    20.732914     8282.602    4695.3149     3549.345    5185.3289   -1092.9702    944.82517    623.28422   -3676.4894 
12674000    259.14253   -4687.6776   -4187.8994   -4687.6776            0     2868.958    20.153142    20.128913    20.650964    8377.2874    3082.8207    3897.9686    1626.0847   -754.62986    52.058309   -444.88479   -3837.3869 
12675000    264.84385   -4706.4441   -4195.6705   -4706.4441            0    5227.9996    20.277033    20.104457    20.336397      8290.31      5141.78    4411.1465    6131.0723     88.13262   -285.90704   -556.61644   -3563.5757 
12676000    264.05543   -4724.4551    -4215.202   -4724.4551            0    4628.6285    20.068492    19.935163    20.748241    8300.7207    4997.2951    4755.3126    4133.2777   -866.52462    622.94473   -262.54705   -3654.8718 
12677000     273.6845   -4702.2755    -4174.452   -4702.2755            0    5413.8659    19.937358    19.890519    20.914545    8293.9643    4839.8806     5820.382    5581.3352   -29.006157   -471.55915   -124.31072   -3519.5964 
12678000    276.13008   -4707.9938   -4175.4537   -4707.9938            0    5281.1507    20.052838    20.031771    20.665485    8301.1984    3877.6477    6297.0051    5668.7993    961.05343   -18.365022   -49.663395    -3536.094 
12679000    265.04305   -4665.9603   -4154.8025   -4665.9603            0     4432.468    20.290612    20.150587    20.405889    8343.3099    4004.6433    4835.9136    4456.8472    51.799459    232.36548     221.1953   -3615.4659 
12680000    263.91221   -4677.1719    -4168.195   -4677.1719            0    4893.5276    20.057079    20.156744    20.608147    8331.5728       4038.5    6114.9736    4527.1093   -769.76375    562.94442   -2879.2923    -3573.595 
12681000    267.56745   -4719.0225   -4202.9962   -4719.0225            0    4007.2788    20.036205    19.834892    21.038711    8361.1197    4787.6231    4223.0123    3011.2009    23.587172    207.80881    649.63271   -3714.3552 
12682000    249.19013   -4677.5593   -4196.9752   -4677.5593            0    3799.0039    19.986951    20.175032    20.833371    8400.7937    5438.5525    3693.1807    2265.2783    237.17446     480.1531   -12.424365   -3731.5328 
12683000    251.09632   -4704.4761   -4220.2157   -4704.4761            0    4798.5941    20.092557    20.080362    20.567593    8298.3206    4900.3052    4298.8606    5196.6164    11.196148   -610.52696   -106.31047   -3639.4779 
12684000    251.65835   -4695.6394   -4210.2951   -4695.6394            0    5895.7362    19.922931    20.240436    20.482976    8259.7356    6279.6311     3510.192    7897.3856    108.66612    733.49258   -344.97134   -3500.0961 
12685000    276.48376   -4693.6047   -4160.3825   -4693.6047            0    6337.4018    20.075969    19.915225    20.730667    8288.4821    5806.7276    6880.6552    6324.8227   -462.47085    1083.8225   -142.79749   -3394.3236 
12686000    271.60474   -4683.2029   -4159.3903   -4683.2029            0    4681.8513    19.933279    20.165836    20.820868      8369.39    5881.9664    3067.5186    5096.0688    882.92634   -838.60053    1215.7579   -3587.9284 
12687000    262.08135   -4704.6059     -4199.16   -4704.6059            0    5325.2702    19.992751     19.91914     20.66674    8230.2895    5392.1325     5746.377     4837.301    23.808487    -960.1942   -454.19829   -3559.9661 
12688000    262.57712   -4672.3229   -4165.9208   -4672.3229            0    4170.1488     19.95644    20.279788    20.589528    8332.8366     4680.391     3106.265    4723.7904   -531.31318    441.31229   -837.46826   -3659.1399 
12689000     251.0941   -4697.5231    -4213.267   -4697.5231            0    6309.7499     19.86498    20.131998    20.616091    8244.8229    8884.3966    3784.1805    6260.6724   -407.59949   -269.90839    -842.6602   -3454.5683 
12690000    278.20105   -4679.5149   -4142.9808   -4679.5149            0    5892.2539    19.948897    20.104905    20.696269    8300.6668    5763.8007    5966.6287    5946.3321   -491.38639    874.60121   -746.41711   -3429.6839 
12691000     262.7227   -4687.4756   -4180.7928   -4687.4756            0    5268.4059    19.792992    20.030344    20.899981    8286.0153    7120.6919    4707.7674    3976.7584    462.81191    1368.7131   -325.20676   -3544.1426 
12692000    270.15066   -4683.5946   -4162.5863   -4683.5946            0    5594.3392    19.783469    20.101199    20.707902    8234.9417    5862.2582    4933.3579    5987.4015    90.839507    402.58946   -1265.4087   -3490.7164 
12693000    257.45801   -4673.5244    -4176.995   -4673.5244            0    5658.5722     20.16315    20.128515    20.594435    8358.3392    3910.6448    6136.7194    6928.3523   -129.71513    1390.1481   -280.47717   -3487.2274 
12694000    270.96515   -4684.1203   -4161.5412   -4684.1203            0    4790.0044    20.273377    19.946091    20.504803     8291.622    3769.3738    4924.2434    5676.3961   -201.19643   -379.58436    141.89454   -3582.3108 
12695000    263.15529   -4693.6103   -4186.0932   -4693.6103            0    4226.7157    20.010659    19.984464    20.953392    8379.3096    4249.9288    5103.3964    3326.8218     787.5238    96.454459   -315.05364   -3669.5731 
12696000    268.23109   -4708.7223    -4191.416   -4708.7223            0    4602.5951    20.079413    19.870125    20.906169    8341.1526    4694.7516    5254.2068     3858.827   -194.33348   -595.39299    202.66026   -3631.5234 
12697000    259.02553   -4686.5436   -4186.9911   -4686.5436            0    5049.5097     19.83862    20.330313    20.508017     8271.403    6918.0969    3132.2155    5098.2166      742.547    118.03499   -1549.0237   -3577.8691 
12698000    268.37233   -4697.2995   -4179.7209   -4697.2995            0    4444.2939    20.237876     20.06009    20.491683    8319.0826     3857.458    5407.1674    4068.2564    355.05204    186.63876   -646.18584   -3640.5157 
12699000    265.79897    -4671.266   -4158.6503    -4671.266            0    3917.1257    20.014348    20.124296    20.825666    8388.0507     5204.506    2822.9421    3723.9289   -623.58029   -1753.7248    558.95985    -3679.464 
12700000    265.29489   -4706.7416   -4195.0981   -4706.7416            0    5763.7056    20.096382    19.795932    20.793861     8272.351    5415.3063    6794.2746     5081.536    382.62901    614.17162   -25.452715    -3499.743 
12701000    251.04645   -4666.9565   -4182.7923   -4666.9565            0    5247.2838    19.880885    19.849342    20.866102    8234.2327    6762.8839    3706.9019    5272.0656    18.974944   -944.14319   -584.07231   -3552.6574 
12702000     267.9081   -4697.2574   -4180.5741   -4697.2574            0    6663.4107    20.123684    19.861586    20.590321    8229.7096    5642.8217    7850.3692     6497.041    3.7686425    716.26118    831.84513    -3380.819 
12703000    259.73353   -4708.7128   -4207.7949   -4708.7128            0    7542.0236    20.026894    19.945102    20.475773     8178.811    6947.7643    8488.8353    7189.4713    431.30334   -61.129761   -757.07588   -3308.1855 
12704000    252.90831   -4701.0731   -4213.3182   -4701.0731            0      5262.73    20.050036    20.145375    20.640174    8336.8858    3948.8408    5239.2038    6600.1453   -114.50167    1161.9317    660.87227   -3573.4496 
12705000    249.76905   -4695.2049   -4213.5042   -4695.2049            0    5262.6335     19.97936    19.952102    20.712704    8256.7098    5799.4037    4695.4826    5293.0142   -437.73791    577.92424    333.75916   -3579.8008 
12706000    251.96031    -4706.402   -4220.4754    -4706.402            0     4789.909    20.344234    19.794022    20.692884    8332.9047     4262.972    4758.7457    5348.0093    26.560888    118.60451    426.94152   -3638.3727 
12707000    264.12241   -4698.5125   -4189.1302   -4698.5125            0    4928.4648    19.929753     20.09037    20.674556    8278.0119    4316.3941    5341.0771     5127.923    649.82709   -1299.0534   -387.01628   -3594.1348 
12708000    265.53733   -4693.5457   -4181.4346   -4693.5457            0    2826.5358    20.156744    20.058596    20.747423    8388.5148    3066.8197    3233.5731    2179.2147   -202.65748   -1225.4484    680.79169   -3835.6422 
12709000    259.33357   -4692.9934   -4192.8468   -4692.9934            0    5237.1093     20.15265    19.931639    20.590839    8270.8325    3683.3131    6485.0724    5542.9422    308.86681   -419.87544   -236.91861   -3561.1382 
12710000    278.26813   -4694.0391   -4157.3756   -4694.0391            0    6791.6063     19.99777    20.073355    20.623529    8278.7451    6129.5046    7080.4753    7164.8391    914.18521    232.59732    795.55605   -3337.3774 
12711000    265.87503   -4695.2308   -4182.4684   -4695.2308            0    4215.4216    20.007334    19.892362    20.807336    8281.1767    5046.9065    3300.4005    4298.9576   -65.411154    64.262556   -1106.0252   -3673.3616 
12712000    261.36981   -4695.3696    -4191.296   -4695.3696            0    3512.0921     19.96572    20.252967    20.886539    8445.7872    4027.1975    3450.9608     3058.118    125.60275    471.08548   -795.99699   -3758.7006 
12713000    272.98961   -4687.5278   -4161.0444   -4687.5278            0    6047.2434    20.079767    20.098737    20.518316    8280.7399     7064.924    4782.8539    6293.9522      471.503    1.7322178   -1030.4976   -3430.7424 
12714000    268.56464   -4686.3953   -4168.4458   -4686.3953            0    6391.6543    20.066426    20.007225    20.532026     8243.064    6323.0877    6631.0685    6220.8066   -971.70199    261.58356    1925.3838   -3400.0626 
12715000     256.0643   -4728.3927   -4234.5512   -4728.3927            0    5652.9742    20.088257    19.891554     20.81595    8317.7759    4639.1852    7611.9205     4707.817   -344.41417    552.49327    -556.6477   -3548.8102 
12716000    268.18368    -4724.893   -4207.6783    -4724.893            0     4245.398    20.231201    19.840493    20.789017    8344.6487    3596.6976    5139.0459    4000.4504     42.99846   -466.02372    46.963826   -3691.0212 
12717000    254.38974   -4713.2622   -4222.6502   -4713.2622            0    5760.3734    19.991425    20.051453    20.585939      8252.02    5901.7988    5473.5874    5905.7341    828.08288   -586.61236   -1410.1663   -3529.4052 
12718000    268.32778   -4680.3972   -4162.9045   -4680.3972            0    6602.1798     20.06506    20.049371    20.503841    8248.5281    7911.8399    4729.4798    7165.2197    91.450287    -121.8457    -332.1872   -3368.6865 
12719000    265.98952   -4691.8149   -4178.8318   -4691.8149            0    5947.4736    19.966904    19.945489    20.833999    8297.1333    8321.3536    4972.0791    4548.9882   -70.601211    199.05381   -1001.7968   -3459.1567 
12720000    256.06455   -4706.6244   -4212.7824   -4706.6244            0    4760.8168    19.905506    20.064204    20.823996    8316.8572    2784.3467    7206.6819    4291.4219    -82.28276    669.65464   -703.21668   -3635.3295 
12721000    261.40944   -4703.0884   -4198.9383   -4703.0884            0    4161.3957    20.219846    20.050144    20.529799     8323.003    3270.6934    3782.0608    5431.4329    314.55067     338.1765      1440.55   -3693.8179 
12722000    254.01752   -4702.5765   -4212.6823   -4702.5765            0    6112.4689    20.013459    20.055799    20.623071    8277.8103    5278.5888    6293.5425    6765.2753    216.99797   -2012.2887   -790.76749   -3474.7645 
12723000    253.02072   -4696.8937    -4208.922   -4696.8937            0    6060.8019     20.11769    19.764857    20.865651    8296.6684    6655.4247    5823.9847    5702.9962   -412.58821   -612.79461   -1820.4442   -3475.5746 
12724000    257.97986   -4683.1159     -4185.58   -4683.1159            0    5442.3884    20.046227     19.89573    20.747037    8274.6305    4736.2332    6376.5005    5214.4315    46.862767    689.64201   -1225.1286   -3528.8089 
12725000    256.69448   -4703.1648   -4208.1079   -4703.1648            0    5749.8018    20.076012    19.916976    20.634536    8250.7904    5378.1674    6196.9013    5674.3367   -228.90513    738.14929   -244.45592   -3516.2382 
12726000     262.6864   -4692.4467   -4185.8339   -4692.4467            0    6188.7564    20.069558    20.342438      20.3417    8304.7786    6784.6314    4865.9573    6915.6805    140.52281    327.27249   -329.73966   -3436.2723 
12727000    267.84392   -4638.9595      -4122.4   -4638.9595            0    6048.8317    20.189881    20.055567    20.537645     8316.093    5285.5696    5869.9867    6990.9388    330.26145   -196.72452    145.63629   -3388.7875 
12728000    272.24401     -4684.19   -4159.1445     -4684.19            0     5220.865    20.032293    20.095748    20.705646    8335.3459    7010.4835    4208.4925    4443.6191   -924.11497    25.971999   -231.22308   -3524.4833 
12729000    276.17884   -4706.6049   -4173.9708   -4706.6049            0    4116.8432    19.903489    20.224748    20.800754    8373.1989    6810.8817    1477.7902    4061.8575    180.92362    360.47589   -1812.1276   -3671.2445 
12730000    263.85416   -4650.8633   -4141.9984   -4650.8633            0     5768.246    20.118337    19.899084    20.680485    8279.1527    4684.7471    6750.5689    5869.4219    173.01824    1374.8848    487.42881   -3445.5233 
12731000    278.75292    -4700.746   -4163.1475    -4700.746            0    7036.0022    20.053814    20.246469    20.345624    8260.7083    8577.7467    3808.4342    8721.8258   -814.46694    -177.5998   -31.392116   -3315.4925 
12732000    260.12442    -4687.163   -4185.4912    -4687.163            0    7220.1921    20.107271    19.888093    20.642407    8254.8012     6693.222    8067.5385    6899.8156     73.18023    671.94935     427.1428   -3316.2681 
12733000    266.51887    -4714.014     -4200.01    -4714.014            0    4588.4206    19.746324    20.138857    20.931769    8323.9032    3572.5982    4491.1498    5701.5138    727.77456   -886.96774   -5.5530592    -3642.996 
12734000     262.0907   -4673.8846   -4168.4206   -4673.8846            0    5770.4632    20.047373    19.891399    20.771043    8282.8751    6724.8866    5016.0845    5570.4185     923.2208   -154.57277   -1363.8478   -3471.3646 
12735000    250.76267   -4697.2904   -4213.6735   -4697.2904            0    4268.6486    20.068522    20.189537    20.611909    8351.4133      6019.01    2212.1368    4574.7989     3.136509    49.037045   -1958.7788   -3693.7657 
12736000    249.22383   -4694.5793   -4213.9302   -4694.5793            0    4681.2318    20.060266    20.114785    20.675567    8342.7554    4188.5431    4922.4659    4932.6863   -333.28411    392.21468    544.42111   -3644.3622 
12737000     263.2813   -4690.1746   -4182.4145   -4690.1746            0    5448.4133    20.230474    19.726335    20.707682    8263.8788    2889.4854    8694.4691    4761.2853   -443.08867    1274.8426    349.01796   -3525.7707 
12738000    274.56759   -4694.7015   -4165.1748   -4694.7015            0    5965.3047    19.851276    20.089017    20.725641    8265.2329    6100.6634    5148.7972    6646.4536    120.72402   -526.24747   -716.42521   -3446.1173 
12739000     258.0607   -4688.0381   -4190.3464   -4688.0381            0    5675.4911    20.101829    20.056172    20.479242    8256.5287    5831.7951     4406.924    6787.7542    98.890039      1141.94   -793.80601   -3506.9435 
12740000    276.15123   -4701.6311   -4169.0502   -4701.6311            0    4339.8186    19.932666    20.274219    20.486536    8279.0037    3919.9476    3065.6739    6033.8342    510.80591    829.85836    503.69394   -3645.0571 
12741000    258.52544   -4714.1824   -4215.5944   -4714.1824            0    5650.6082    20.026261    19.943176    20.658181    8250.6142    6999.7233    4669.4116    5282.6897   -547.15574   -377.88142    1270.3126   -3535.6751 
12742000    265.01785   -4703.6167   -4192.5075   -4703.6167            0    6936.7183    19.850614    20.075466    20.714897    8255.1001    7339.6633    7924.2365    5546.2552   -692.73164    -348.4617    869.89017    -3357.381 
12743000     264.6026   -4684.7479   -4174.4396   -4684.7479            0    3932.1814    20.279091    20.008027    20.778343    8430.7003    1857.8168     6345.366    3593.3616    264.59015    1292.4995   -175.47862   -3690.9656 
12744000    271.57824   -4704.3053   -4180.5438   -4704.3053            0    4568.7683    20.051556    20.183574    20.574135    8326.6008    4697.7789    3745.7884    5262.7376    -401.3309    522.55627    621.19868   -3625.7357 
12745000    277.10532   -4668.3758   -4133.9549   -4668.3758            0    6813.1153     19.99844    19.922409    20.710185    8251.2917    7624.3784    4610.5833    8204.3843   -1316.6751    1071.4031   -1001.1408   -3314.0876 
12746000    263.34032   -4669.8002   -4161.9262   -4669.8002            0     5542.341    20.048394    19.805406    20.855699    8281.1011    4822.1846    6670.5695    5134.2689   -363.90948   -606.62721    4.1101013   -3492.5701 
12747000    253.21326   -4688.7314   -4200.3883   -4688.7314            0    3026.6228     20.01801    20.140554    20.768672    8373.3847    2835.4454    4188.3327    2056.0904   -171.49701     64.28954   -256.88367   -3830.7855 
12748000    263.93052   -4678.3938   -4169.3816   -4678.3938            0      5318.46    20.240077      20.1737    20.422044    8338.6725    4769.2866    5917.2825    5268.8108    164.17766   -1412.9217   -618.98172   -3522.5985 
12749000    255.67152   -4701.8853   -4208.8013   -4701.8853            0    5990.5987    19.921044    20.092297    20.647633     8264.412    5812.9494    6876.2047    5282.6419   -314.66801   -456.05772    323.44926   -3486.7666 
12750000    272.39245   -4665.7527    -4140.421   -4665.7527            0    4705.9298    20.188567    19.817547     20.85232    8342.7604    3898.3945    5643.2062    4576.1887   -158.07666   -103.58988   -1030.5079   -3567.8477 
Loop time of 467.012 on 64 procs for 250000 steps with 972 atoms

Performance: 92.503 ns/day, 0.259 hours/ns, 535.318 timesteps/s
192.1% CPU use with 32 MPI tasks x 2 OpenMP threads

MPI task timing breakdown:
Section |  min time  |  avg time  |  max time  |%varavg| %total
---------------------------------------------------------------
Pair    | 24.575     | 36.117     | 45.693     |  75.4 |  7.73
Bond    | 0.78928    | 1.2057     | 1.5229     |  18.9 |  0.26
Kspace  | 207.16     | 218.6      | 232.58     |  40.2 | 46.81
Neigh   | 2.6699     | 3.189      | 3.4998     |  18.0 |  0.68
Comm    | 89.79      | 98.283     | 108.76     |  51.7 | 21.05
Output  | 0.48917    | 0.48947    | 0.49107    |   0.0 |  0.10
Modify  | 86.278     | 90.202     | 95.354     |  25.6 | 19.31
Other   |            | 18.92      |            |       |  4.05

Nlocal:        30.3750 ave          37 max          22 min
Histogram: 1 0 4 2 6 4 5 3 5 2
Nghost:        2591.50 ave        2632 max        2551 min
Histogram: 3 2 3 3 3 7 3 2 3 3
Neighs:        9433.72 ave       11665 max        6798 min
Histogram: 4 0 2 6 1 5 4 2 4 4

Total # of neighbors = 301879
Ave neighs/atom = 310.57510
Ave special neighs/atom = 2.0000000
Neighbor list builds = 8298
Dangerous builds = 0

unfix		3
unfix		2
unfix		1

write_data	data.final.${pid}
write_data	data.final.0
System init for write_data ...
PPPM initialization ...
  extracting TIP4P info from pair style
  using 12-bit tables for long-range coulomb (../kspace.cpp:340)
  G vector (1/distance) = 0.37230559
  grid = 24 24 25
  stencil order = 5
  estimated absolute RMS force accuracy = 0.0034209596
  estimated relative force accuracy = 1.0302118e-05
  using double precision FFTW3
  3d grid and FFT values/proc = 3458 576
Last active /omp style is kspace_style pppm/tip4p/omp
WARNING: Not all mixed pair coeffs generated from mixing. Use write_data with 'pair ij' option to store all pair coeffs. (../write_data.cpp:312)

write_restart   restart.lmp.${pid}
write_restart   restart.lmp.0
System init for write_restart ...
PPPM initialization ...
  extracting TIP4P info from pair style
  using 12-bit tables for long-range coulomb (../kspace.cpp:340)
  G vector (1/distance) = 0.37230559
  grid = 24 24 25
  stencil order = 5
  estimated absolute RMS force accuracy = 0.0034209596
  estimated relative force accuracy = 1.0302118e-05
  using double precision FFTW3
  3d grid and FFT values/proc = 3458 576
Last active /omp style is kspace_style pppm/tip4p/omp
Total wall time: 0:07:47
