#include		in.partitions
include		in.temp
variable        temperature equal 200.77
variable	tempDamp equal 100.0
include		in.pressure
variable        pressure equal 8326.9
variable        pressureDamp equal 1000.0 # This is 1 ps
include		in.seed
variable        seed equal 745823

units		real
atom_style	full
read_restart	restart.lmp.${pid}
read_restart	restart.lmp.0
Reading restart file ...
  restart file = 30 Jul 2021, LAMMPS = 30 Jul 2021
  restoring atom style full from restart
  orthogonal box = (-0.039954733 -0.10046400 -0.068567361) to (24.769956 24.830465 22.878567)
  2 by 4 by 2 MPI processor grid
  restoring pair style lj/cut/tip4p/long/omp from restart
  restoring bond style harmonic/omp from restart
  restoring angle style harmonic/omp from restart
  1920 atoms
  1280 bonds
  640 angles
Finding 1-2 1-3 1-4 neighbors ...
  special bond factors lj:    0        0        0       
  special bond factors coul:  0        0        0       
     2 = max # of 1-2 neighbors
     1 = max # of 1-3 neighbors
     1 = max # of 1-4 neighbors
     2 = max # of special neighbors
  special bonds CPU = 0.001 seconds
  read_restart CPU = 0.006 seconds
include 	in.setup
variable	out_freq equal 1000
variable	out_freq2 equal 10000
variable	out_freq3 equal 1000

timestep	2.0

neigh_modify    delay 7 every 1

include		in.tip4p
# This is TIP4P/Ice

# create groups ###
group ox type 2
640 atoms in group ox
group hy type 1
1280 atoms in group hy

# set charges - beside manually ###
set group ox charge -1.1794
Setting atom values ...
  640 settings made for charge
set group hy charge 0.5897
Setting atom values ...
  1280 settings made for charge

# ### TIP3P Potential Parameters ###
pair_style lj/cut/tip4p/long/omp 2 1 1 1 0.1577 8.5
pair_coeff 1 1*2 0.000 0.000
pair_coeff 2 2 0.21084 3.1668
bond_style  harmonic
bond_coeff  1 450 0.9572
angle_style harmonic
angle_coeff 1 55 104.52
kspace_style pppm/tip4p/omp 1.0e-5
pair_modify tail yes

thermo          ${out_freq}
thermo          1000
thermo_style    custom step temp pe etotal epair emol press lx ly lz vol pxx pyy pzz pxy pxz pyz enthalpy

restart 	${out_freq3} restart.lmp.${pid} restart2.lmp.${pid}
restart 	1000 restart.lmp.${pid} restart2.lmp.${pid}
restart 	1000 restart.lmp.0 restart2.lmp.${pid}
restart 	1000 restart.lmp.0 restart2.lmp.0


include         in.dump
dump            myDump all atom ${out_freq2} dump.water.${pid}
dump            myDump all atom 10000 dump.water.${pid}
dump            myDump all atom 10000 dump.water.0
dump            myDump2 all dcd ${out_freq2} dump.dcd
dump            myDump2 all dcd 10000 dump.dcd
dump_modify     myDump append yes
dump_modify     myDump2 append yes


variable natoms 	equal  "count(all)"                        # NUMBER ATOMS
variable H      	equal  "enthalpy/v_natoms"                 # ENTHALPY-per-atom
variable Vol      	equal  "vol/v_natoms"                 # volume-per-atom
fix AVG all 		ave/time ${out_freq} 1 ${out_freq} v_Vol v_H file vol_enthalpy.dat
fix AVG all 		ave/time 1000 1 ${out_freq} v_Vol v_H file vol_enthalpy.dat
fix AVG all 		ave/time 1000 1 1000 v_Vol v_H file vol_enthalpy.dat




fix 		1 all shake 1e-6 200 0 b 1 a 1
       0 = # of size 2 clusters
       0 = # of size 3 clusters
       0 = # of size 4 clusters
     640 = # of frozen angles
  find clusters CPU = 0.000 seconds
fix             2 all nph aniso ${pressure} ${pressure} ${pressureDamp}
fix             2 all nph aniso 8326.9 ${pressure} ${pressureDamp}
fix             2 all nph aniso 8326.9 8326.9 ${pressureDamp}
fix             2 all nph aniso 8326.9 8326.9 1000
fix             3 all temp/csvr ${temperature} ${temperature} ${tempDamp} ${seed}
fix             3 all temp/csvr 200.77 ${temperature} ${tempDamp} ${seed}
fix             3 all temp/csvr 200.77 200.77 ${tempDamp} ${seed}
fix             3 all temp/csvr 200.77 200.77 100 ${seed}
fix             3 all temp/csvr 200.77 200.77 100 745823


run             250000
PPPM initialization ...
  extracting TIP4P info from pair style
  using 12-bit tables for long-range coulomb (../kspace.cpp:340)
  G vector (1/distance) = 0.37464413
  grid = 30 30 30
  stencil order = 5
  estimated absolute RMS force accuracy = 0.0032485431
  estimated relative force accuracy = 9.7828911e-06
  using double precision FFTW3
  3d grid and FFT values/proc = 7920 1800
Last active /omp style is kspace_style pppm/tip4p/omp
Neighbor list info ...
  update every 1 steps, delay 7 steps, check yes
  max neighbors/atom: 2000, page size: 100000
  master list distance cutoff = 10.8154
  ghost atom cutoff = 10.8154
  binsize = 5.4077, bins = 5 5 5
  1 neighbor lists, perpetual/occasional/extra = 1 0 0
  (1) pair lj/cut/tip4p/long/omp, perpetual
      attributes: half, newton on, omp
      pair build: half/bin/newton/omp
      stencil: half/bin/3d
      bin: standard
Per MPI rank memory allocation (min/avg/max) = 12.55 | 12.55 | 12.56 Mbytes
Step Temp PotEng TotEng E_pair E_mol Press Lx Ly Lz Volume Pxx Pyy Pzz Pxy Pxz Pyz Enthalpy 
12500000    210.07814   -9359.8373   -8558.9236   -9359.8373            0    7800.8582     24.80991    24.930929    22.947135    14193.586    8089.5344    7512.7605    7800.2796    -741.6707   -63.011486    482.14077   -6944.1547 
12501000    208.65339   -9395.0167   -8599.5348   -9395.0167            0    9218.9446     24.73383    24.845234     22.96041    14109.581    9871.5775    9269.5474     8515.709   -47.099427    -367.3231   -891.19637   -6702.5179 
12502000    199.61285   -9359.6104   -8598.5952   -9359.6104            0    7538.2792    24.927011    24.829068    22.963076    14212.179    7947.3972    7159.3122    7508.1281   -314.05219   -633.55566    470.96953   -7036.1356 
12503000    200.49951   -9371.1775   -8606.7819   -9371.1775            0    8643.2948     24.80158    24.970953     22.86737    14162.199    9268.8093    7576.7031    9084.3721   -584.24511    642.26358   -120.65697   -6821.5859 
12504000    199.74053   -9392.7775   -8631.2755   -9392.7775            0    8091.0242     24.82365    24.984659     22.82588    14156.849    7638.1659    6746.8615    9888.0453   -248.75334   -586.22049    675.98469   -6960.7774 
12505000    202.13105   -9359.0438   -8588.4281   -9359.0438            0    7929.0526     24.95777    24.943801    22.808856    14199.463    6810.0538    7238.2172    9738.8869    409.44717    789.38519   -9.5176841   -6946.4434 
12506000    202.49403   -9342.8005   -8570.8009   -9342.8005            0    8647.8419    24.840457    24.986073    22.840565     14176.35    9081.6648    8072.2101    8789.6507      370.793    172.47191    639.70612    -6782.881 
12507000    201.99309   -9387.0417    -8616.952   -9387.0417            0    8807.0228    24.859761    24.931032     22.78628    14122.469    8076.3671    8952.8565    9391.8449    69.276409   -119.82475    282.10174   -6803.0424 
12508000     193.8205   -9354.0032   -8615.0711   -9354.0032            0    9104.5167    24.937934    24.840493    22.857537    14159.572    7591.6694    10182.523    9539.3576   -78.399335   -590.73964    216.39941   -6734.9626 
12509000    207.14664   -9355.0659   -8565.3284   -9355.0659            0    8816.8139    24.910178    24.931249    22.796081     14157.32    7558.0687    9145.5655    9746.8074    17.979355    180.05572    304.96223   -6744.9209 
12510000    200.33551   -9352.2805   -8588.5102   -9352.2805            0    7287.9898    24.838963    25.013358    22.906126     14231.71     8286.695    6607.5346    6969.7399   -236.41221   -437.86588    447.74542   -7075.8522 
12511000    197.67405   -9370.0236      -8616.4   -9370.0236            0    7804.9349    25.017874    24.793443     22.91533    14213.904     6914.707    8381.9345    8118.1633     628.2888   -674.71358   -745.85529   -6998.4744 
12512000    202.82333   -9341.6464   -8568.3914   -9341.6464            0     8778.686    24.897786    24.916446    22.849029    14174.723    9509.6348    8074.9207    8751.5026   -653.20162    718.43715    636.46791   -6753.6281 
12513000    198.45943   -9337.1443   -8580.5265   -9337.1443            0     7656.393    24.821994    25.067098    22.789925    14180.242    8690.4924    5956.7619    8321.9246   -230.90284    1362.1539      -625.52   -6997.1516 
12514000     195.1464   -9377.8123   -8633.8253   -9377.8123            0    9035.5724    24.843382    24.850153     22.85178    14107.817    9129.3716    8725.9153    9251.4304   -46.946499    620.30298   -233.94311    -6774.774 
12515000    201.10152   -9365.1235   -8598.4328   -9365.1235            0    9008.4859    24.897094    24.823254    22.862748    14129.793    9020.6653    9189.6253    8815.1671    174.44549    1030.8613    202.49962   -6742.0673 
12516000    198.80851   -9356.7724   -8598.8237   -9356.7724            0    7440.4089    24.898785    24.923712    22.908163    14216.122    7790.0161    7463.1999    7068.0108    487.14811   -228.04802   -34.530413   -7056.2219 
12517000    202.65125   -9363.5861   -8590.9871   -9363.5861            0    8273.7098    24.664846    25.088319    22.887997    14163.082    10151.756    6141.3785    8527.9949   -1016.3346   -1012.0499    -564.1346   -6882.0191 
12518000    201.12105   -9392.6839   -8625.9187   -9392.6839            0    8364.3468    24.814026    24.905919    22.877207    14138.483    8937.6173    7909.6247    8245.7983    306.36452   -485.53449    97.991176     -6901.23 
12519000    202.14192     -9382.19   -8611.5328     -9382.19            0    8053.0384    24.950911    24.741148    22.964881    14176.547    6882.7175     8954.837    8321.5609   -31.452886   -91.821349    67.225442   -6946.5639 
12520000    198.87078   -9381.8672   -8623.6811   -9381.8672            0    8122.4682    24.851861    24.869994    22.938939     14177.77    8242.7579    8530.3689    7594.2779    90.292026    293.05702    856.36216   -6944.2127 
12521000    198.15347   -9382.0147   -8626.5633   -9382.0147            0    6203.3395    24.877446    25.009306    22.910233    14254.007    6539.0253    5690.6323    6380.3609   -9.7871722    159.90344    1119.0488   -7337.0126 
12522000    201.70402   -9346.4031   -8577.4154   -9346.4031            0    9372.1259    24.863236    24.798969    22.899972    14119.725     9045.856    9996.2385    9074.2831    -322.1772    -902.8467    623.92242   -6647.4912 
12523000    196.60928    -9385.637   -8636.0728    -9385.637            0    9075.5476    24.808462    24.824124    22.937843    14126.232    10144.318    8506.1902    8576.1342    443.42247    587.98049   -650.55763   -6766.3593 
12524000    213.25067   -9364.4987   -8551.4899   -9364.4987            0    7355.7305    24.871676    24.912172    22.963387    14228.286    7337.0418    7045.7218     7684.428   -162.80346   -780.42705    1582.6653   -7025.1394 
12525000    199.63315   -9358.0341   -8596.9415   -9358.0341            0    8648.6964    24.911987    24.871466    22.854646    14160.684    8179.2015    8817.3649    8949.5228   -988.54045   -258.29596   -666.08829   -6810.8209 
12526000    204.38287    -9349.188   -8569.9873    -9349.188            0     8657.818    24.926822    24.850844     22.83421     14144.71    8746.2767    8818.0131     8409.164   -270.37455   -526.01122    733.36048   -6783.9999 
12527000    196.23288   -9352.2535   -8604.1243   -9352.2535            0    6885.4224    24.833896    24.884339    23.017183    14224.046    7588.8221    6550.3323    6517.1127   -93.965026    960.20233    770.85863   -7175.7908 
12528000    201.30965   -9387.3632    -8619.879   -9387.3632            0    8608.4161      24.9174    24.718607    22.978506        14153    8351.3197    9980.8601    7493.0687    129.14566    -584.3537   -28.050743   -6843.0417 
12529000    197.94541    -9364.802   -8610.1438    -9364.802            0    9472.2457    24.806165    24.835587    22.892203    14103.329    9528.1507    10233.903    8654.6837   -501.30486   -338.31287    360.64924   -6661.8678 
12530000     203.5274   -9363.0299   -8587.0907   -9363.0299            0    7103.4233    24.796491    24.900652    23.059398    14237.997     7762.809    6679.5468     6867.914    232.97566   -399.19546    748.75198   -7112.0891 
12531000    209.35101   -9366.4426   -8568.3011   -9366.4426            0    8599.6759    24.848484    24.782299    22.978668    14150.323    9557.9803    7602.4111    8638.6364   -687.22931     991.3227    792.23803   -6793.6036 
12532000    197.22506   -9322.9932   -8571.0813   -9322.9932            0    7834.4728    24.885266    24.933196     22.90043    14209.011    7064.4428    8037.8118    8401.1639    319.84079    249.27316   -596.04674   -6947.5916 
12533000    201.06004   -9358.1556    -8591.623   -9358.1556            0    7912.5144    24.848074     24.95796     22.88623    14193.061    8239.1114    7812.9761    7685.4558   -214.98539   -772.83746   -547.13573   -6953.8018 
12534000    196.94271   -9385.7285   -8634.8931   -9385.7285            0    8333.0381    24.983098    24.852386    22.786309    14147.783    7238.1066    8536.6723    9224.3355    134.26563    197.78037    13.455862   -6915.5299 
12535000    193.57088   -9387.5008   -8649.5203   -9387.5008            0    7695.0421    24.969772    24.892502    22.819979    14183.988     6543.277    7786.3667    8755.4826   -572.89902   -31.984319    823.72936   -7057.7322 
12536000    203.67521   -9389.1802   -8612.6774   -9389.1802            0    7841.1562    24.866345    25.001709    22.824776    14190.189    8237.8719    6461.4128     8824.184   -569.23836    -183.6301    436.39791   -6989.9552 
12537000    201.28533   -9365.9945    -8598.603   -9365.9945            0    8545.8513    24.841797    24.928145    22.851489    14151.011    7324.3429    8649.8269     9663.384   -816.51576   -248.16247   -114.47608   -6834.9275 
12538000    198.96145    -9340.734   -8582.2022    -9340.734            0    9010.9277     24.85614    24.808433    22.939437    14145.418    8365.6841    9142.3827    9524.7164   -843.42527   -868.40462     45.50187   -6723.2801 
12539000    204.50024   -9397.8007   -8618.1525   -9397.8007            0    7533.2398    24.920644    24.774863    22.955569    14172.896    5978.9619    9127.3842    7493.3733     173.5017    372.08836   -355.07413   -7061.0533 
12540000    199.25316   -9380.7535   -8621.1096   -9380.7535            0     8188.124    24.804142    24.897919    22.950578    14173.623    8391.3893    8099.8519    8073.1309   -90.304807    262.71994    394.81833   -6928.5608 
12541000    198.90766   -9392.7973   -8634.4705   -9392.7973            0    9974.8034     24.74673    24.840992    22.893041    14073.115    10377.033    9688.6991    9858.6778      255.986   -1324.9323    535.12767   -6587.2225 
12542000    203.39435   -9394.0791   -8618.6471   -9394.0791            0    7905.8412    24.905817    24.858064    22.917874    14188.694     7513.395    7734.8262    8469.3023   -655.20036   -56.503134   -599.91286   -6982.7108 
12543000    201.80862   -9359.5646   -8590.1782   -9359.5646            0     8088.493    24.914606    24.696422    23.082216    14202.526    8606.2281    8983.9277    6675.3231    -39.91927    203.35879    331.23465   -6914.8145 
12544000    201.74393   -9379.8974   -8610.7575   -9379.8974            0    8384.2708    24.803507    24.897992    22.936536     14164.63    8345.2774    8406.8899    8400.6452    120.17349   -888.77978    554.80406   -6878.7633 
12545000    200.80592   -9414.8013   -8649.2376   -9414.8013            0    8536.4641    24.749154    24.861593    22.938262     14113.99    8921.6486    8922.1499    7765.5939   -616.13647   -38.811821    395.76852   -6892.1083 
12546000     213.7285   -9380.6277   -8565.7972   -9380.6277            0    7880.2332    24.900094    24.764266    23.028648    14200.214    7456.9922    9201.6146    6982.0927    913.60198    817.52176   -50.557777   -6933.8359 
12547000    197.39774   -9377.5832    -8625.013   -9377.5832            0    8093.2816    24.778644    24.912062    22.987954    14190.168    9076.5852    7549.5907    7653.6688    697.99575    722.01686    1146.0446   -6950.1161 
12548000     199.2928    -9368.474    -8608.679    -9368.474            0    9125.3845     24.75223    24.883246    22.975946    14151.249    9679.5978    9669.8446    8026.7111   -229.02618   -222.90691   -541.02515   -6725.3689 
12549000    205.31885   -9359.6047   -8576.8357   -9359.6047            0    9425.9018    24.864074    24.742697    22.998626    14148.852    9100.2068    9263.0636    9914.4351    98.848739    1269.1524    318.91047   -6631.8338 
12550000    204.24844   -9357.1161   -8578.4279   -9357.1161            0    8786.9607    24.853251     24.87767    22.885364    14149.814    8289.5913     10064.03    8007.2605    101.97071     -601.413    799.13451   -6765.1461 
12551000    198.00918    -9343.651   -8588.7497    -9343.651            0    9014.5056    24.749193    24.912931    22.941374    14145.076    11095.216    7978.5962    7969.7043    836.16529     922.4534     -61.9747   -6729.1345 
12552000    198.46715   -9371.9982   -8615.3509   -9371.9982            0    7111.5139    24.872444     24.87048    22.968873    14208.306     7741.075    6818.1384    6775.3284     573.1187   -606.34105    126.76334   -7141.7487 
12553000    196.22071   -9360.5984   -8612.5155   -9360.5984            0    8036.7263    24.989835    24.778835    22.915862    14189.937    6282.9085     9538.592    8288.6784   -208.64739    717.19253    394.42579   -6949.3498 
12554000    193.86372   -9320.0322   -8580.9353   -9320.0322            0    9062.0637    24.817194    24.852633    22.931622    14143.597    8373.5844     9939.223    8873.3838   -295.64105    311.14584   -120.29149   -6711.7048 
12555000    204.83777   -9361.7911   -8580.8561   -9361.7911            0    7844.4052    24.854712    24.846423    22.997664    14202.223    7584.1099    8395.6365    7553.4692   -367.43715    156.23482    93.148203   -6956.0847 
12556000    202.36058   -9348.7279   -8577.2371   -9348.7279            0    7706.6146    24.850342    24.968417    22.912822    14216.804    7290.0199    7036.9502    8792.8735   -448.56593    175.38959    421.59019   -6979.3669 
12557000    200.34862   -9358.9647   -8595.1444   -9358.9647            0    8824.6549    24.750501     24.95486    22.847648    14111.743    10087.215    8000.0786    8386.6712   -157.81848   -626.44728    1264.2721   -6778.9837 
12558000    204.82138   -9394.1642   -8613.2917   -9394.1642            0    8732.4042    24.884464    24.841716    22.885644    14147.283    7839.5906    9135.7069    9221.9151    1202.8976   -325.35197    866.50816   -6811.5906 
12559000    200.01338   -9375.5932   -8613.0509   -9375.5932            0     7485.939    24.793983    24.963755    22.911637    14181.179    7974.4324    6987.1332    7496.2512    227.43655   -482.01594    845.53603   -7064.8244 
12560000    195.46815   -9384.7819   -8639.5682   -9384.7819            0    7881.5088    24.796598    24.977481    22.891699    14178.124    8275.7776    7904.2667    7464.4821   -391.06553   -13.220637    545.95118   -7009.8819 
12561000    197.25675   -9373.8631   -8621.8304   -9373.8631            0    8475.8206    24.953582    24.778297    22.916249    14169.283    7524.7958    10015.956    7886.7102    414.21089   -335.10972    817.77564    -6870.349 
12562000    199.88536   -9364.1382   -8602.0841   -9364.1382            0    8692.1999    24.884288    24.850062    22.874289    14144.914    8560.4118    8226.8816    9289.3064   -116.03273    799.65041     206.9649   -6808.9784 
12563000    197.70044   -9329.6359   -8575.9117   -9329.6359            0    7356.8534    24.831481    24.861831     23.03388    14220.106     7224.985    7919.9936    6925.5817   -132.78496   -336.26021    60.460981   -7050.2058 
12564000    204.48669   -9371.0516   -8591.4551   -9371.0516            0    9078.5526    24.812335     24.82055    22.915761    14112.804    9566.0746    8730.2966    8939.2866   -282.64375    64.558106     550.1407   -6722.9003 
12565000    199.78836    -9404.622   -8642.9376    -9404.622            0    8173.0242    24.926647    24.836768    22.884256    14167.582    7924.8598     8867.055    7727.1579    392.38366    891.43397   -653.58875   -6954.2302 
12566000    204.59001   -9323.4528   -8543.4624   -9323.4528            0    8544.0588     24.81066    24.942253    22.881597    14159.905    9563.8809    8316.7737    7751.5218    464.51497   -825.28382   -454.55748   -6779.0486 
12567000    197.71587   -9382.0237   -8628.2406   -9382.0237            0    8406.1242    24.871194    24.976611    22.779296    14150.456    8530.2501    8093.4643    8594.6583   -205.13919   -394.30534    25.952846   -6893.4697 
12568000    195.35918   -9376.2301   -8631.4318   -9376.2301            0     9061.403    24.934416    24.869086    22.825556    14154.039    8763.3101    8569.1118    9851.7872    181.12713   -276.61752   -790.63363   -6760.9576 
12569000    199.84246   -9398.8045   -8636.9139   -9398.8045            0    7593.0039    24.867774    25.003483    22.835269    14198.536    7170.7957    6840.5623    8767.6537     182.2109   -35.706743    731.25523   -7064.6224 
12570000    195.76446    -9372.754   -8626.4106    -9372.754            0    8048.4032    24.816044    24.913137    22.903763    14160.148    7940.4732    8107.2474    8097.4889    12.151804   -671.32112   -663.35887   -6964.3249 
12571000    206.04745   -9382.4832   -8596.9364   -9382.4832            0    8623.3544    24.959279    24.721288    22.925362    14145.533    7018.2762    10037.412    8814.3747   -824.94516   -122.18366    242.83901   -6817.9548 
12572000     201.9165    -9350.446   -8580.6482    -9350.446            0    8809.6655    24.874817    24.836158     22.93124    14166.803    8725.1706    9520.6273    8183.1984   -49.446557   -577.43602    668.50564   -6760.4983 
12573000      196.324   -9406.7404   -8658.2638   -9406.7404            0    8490.3742     24.75583    24.927399    22.894042    14127.878     8090.129    8001.4371    9379.5567    18.680723   -400.21329   -60.331444   -6908.9019 
12574000    201.41268   -9344.8372   -8576.9602   -9344.8372            0    9964.4244     24.87807    24.813338     22.85609    14109.246    9621.6312    10412.571    9859.0713   -500.96348    892.98828   -461.00645   -6526.5918 
12575000    204.39753   -9353.1267   -8573.8701   -9353.1267            0    8367.6671     24.98646    24.796149    22.919278    14200.051    7943.4283    8867.8595    8291.7136     245.3442     -340.679    597.41974   -6840.9834 
12576000    204.82015   -9385.9681   -8605.1003   -9385.9681            0    7438.1405    24.901849    24.899839    22.882049    14188.061    7339.5935    7308.1476    7666.6803   -934.09094    120.57023    562.98931   -7066.0128 
12577000    197.17602   -9377.9486   -8626.2236   -9377.9486            0    9965.4317    24.822341    24.891883    22.807578    14092.228    9767.4572    10299.455    9829.3826    248.51123    -204.4045    550.50257   -6578.1212 
12578000    199.96374   -9336.7367   -8574.3837   -9336.7367            0    7248.8826    24.959583    24.972273    22.815658    14220.943    6578.5286    6566.5057    8601.6136   -243.33223   -315.14895    175.24123   -7070.9809 
12579000    201.42112   -9385.6333   -8617.7241   -9385.6333            0    7990.8862    24.875963    24.954581    22.835828    14175.779    8155.7564    7800.3153     8016.587   -294.79825    369.38283    812.78115   -6965.6947 
12580000    197.90462   -9349.1425   -8594.6398   -9349.1425            0     8274.112    25.046651    24.838398    22.767482    14164.076    6660.2283    8972.2979    9189.8097   -616.32064   -244.35113    477.91944   -6885.4687 
12581000    201.89957   -9343.7965   -8574.0633   -9343.7965            0    8537.0284    24.919685    24.829631    22.874485    14153.509     7853.725       9410.6    8346.7602     498.2978    -343.7604     470.4904   -6811.8976 
12582000    205.14811   -9388.0668   -8605.9487   -9388.0668            0    9078.1376    24.807952    24.945448    22.821694    14123.102    8932.4435    8822.8581    9479.1111     40.14419   -1166.7521   -85.505129    -6736.116 
12583000    193.11036   -9380.2206   -8643.9958   -9380.2206            0    7869.6911    24.817553    24.945401     22.92251    14190.955    8268.1059    7213.1289    8127.8386    434.91134    -796.2856    688.71542   -7015.2804 
12584000    210.23343   -9370.3378   -8568.8321   -9370.3378            0    8689.0554    24.904077    24.828534    22.912645    14167.615     7650.377    9192.2894    9224.4996    -961.1932   -1101.9555   -24.048012   -6773.4983 
12585000    199.16176   -9365.8945   -8606.5991   -9365.8945            0    8294.3839    24.931499     24.85848    22.841165    14156.022    8609.2804    7736.9331    8536.9383   -554.20744   -516.56779    169.47101   -6894.2147 
12586000    199.24096   -9359.0507   -8599.4533   -9359.0507            0    8393.4922    24.880771    24.888639    22.898641     14179.95    8309.4213    9160.2716    7710.7836    240.16876    -702.2379    656.32398   -6863.6789 
12587000    196.64644   -9353.0259   -8603.3199   -9353.0259            0    7884.9668    24.964533    24.916464    22.847299    14211.657    7090.7481    7522.0495    9042.1029   -223.06539     540.9296   -172.38262   -6969.0625 
12588000    206.22222    -9355.568   -8569.3549    -9355.568            0    8542.7388    24.820883    24.881065    22.910473    14148.821    9492.2065     7760.182    8375.8279   -82.386067   -34.672365    75.914092   -6806.5945 
12589000    199.05319   -9409.8751   -8650.9935   -9409.8751            0    7552.7638    24.879435    24.789581    23.014992    14194.514    6967.3901    8579.4433    7111.4579   -304.05901   -989.14776     493.8058   -7087.4775 
12590000    202.47619   -9367.3783   -8595.4467   -9367.3783            0    7934.3841    24.755795    24.839485    23.081261    14193.157    8846.6364     8417.717    6538.7989   -481.58042   -608.08456    123.18269   -6953.0876 
12591000    194.90307   -9379.3115   -8636.2521   -9379.3115            0    8742.1143    24.800646    24.871832    22.939662    14150.043    8900.2682    8373.1103    8952.9644   -901.31551    216.75925    573.65703   -6832.1956 
12592000    202.23191   -9358.6574   -8587.6572   -9358.6574            0    9365.5802    24.848833    24.818502    22.882263    14111.739    9052.0695      9722.14    9322.5311   -269.69491    256.71274   -182.70731   -6660.1717 
12593000    202.92572   -9381.0387   -8607.3933   -9381.0387            0    6202.9393    24.951439    24.896468    22.963075    14264.724    6361.3564    6082.2186     6165.243   -205.15895    982.46904   -24.055011   -7316.9563 
12594000    201.04524   -9358.4405   -8591.9643   -9358.4405            0    10462.864    24.713014    24.820689    22.920015        14059    11561.808    9612.1039     10214.68   -126.36644   -971.33663    800.23894   -6446.6995 
12595000    190.34704    -9387.435   -8661.7452    -9387.435            0    7300.3756    24.829037    24.961371    22.948602    14222.782    7840.2967    6689.3106    7371.5196    -341.8625   -740.09814   -49.147599   -7147.4671 
12596000    200.96691   -9358.0879   -8591.9104   -9358.0879            0    9420.1903    24.992061    24.702061    22.885368    14128.406    7871.7152     10872.88    9515.9758      881.764   -572.32403    430.61326   -6650.8961 
12597000    204.82048   -9367.4902   -8586.6211   -9367.4902            0    7582.1551    24.786118    24.928407    22.964521    14189.282     8760.955    8164.4697    5821.0406   -41.324777   -766.93091      1639.17   -7017.5993 
12598000    199.52628   -9405.7301   -8645.0449   -9405.7301            0    8286.7686    24.725138    24.870591    22.980751    14131.525    8729.4789    8180.7976    7950.0293    1130.9294    457.05201    76.911443   -6937.1932 
12599000    198.49332   -9345.0623   -8588.3152   -9345.0623            0     7370.227    24.890976    24.867318    22.981731    14225.044     7263.195    7882.0761      6965.41   -632.06949    638.53249    362.57184    -7059.305 
12600000    194.47913   -9381.7416   -8640.2985   -9381.7416            0    6878.1276    24.841798    24.926657    22.945938    14208.652    7590.4248    7050.0778    5993.8803    302.88837    436.62854    153.90749   -7215.0224 
12601000     198.6618   -9365.8001   -8608.4107   -9365.8001            0    9966.9004    24.795821    24.801726    22.897567    14081.527    9458.2545    10454.985    9987.4614     -708.829    71.753972    573.16281    -6561.562 
12602000    208.14076   -9371.7552   -8578.2277   -9371.7552            0    8235.5155    24.888891    24.891283    22.902709    14188.605    9008.6919    7147.1314    8550.7232    -172.3573    191.69601   -262.16891   -6874.0834 
12603000    199.74959   -9361.3458   -8599.8093   -9361.3458            0     8689.531    24.826216    24.861052    22.933391    14154.623    9406.8662     7496.958    9164.7688    912.60025    449.13726    33.696937   -6806.0237 
12604000    205.85239   -9384.8656   -8600.0624   -9384.8656            0    8171.4307    24.871736    24.816577    22.953161    14167.411    7879.7094    8665.5727    7969.0099    110.53446   -212.06023   -4.3807631   -6911.7046 
12605000    204.12303   -9382.5249   -8604.3148   -9382.5249            0    6429.2516    24.866395    24.897561    23.025154    14255.163    6445.3532    6820.0284    6022.3732    -890.3057    171.37698    746.95134   -7267.6932 
12606000    198.71979   -9383.4634   -8625.8529   -9383.4634            0     8997.818     24.78948    24.901887    22.924844    14151.617    9872.0775    7999.4033    9121.9733    818.62387    795.31063    1339.6295   -6768.8219 
12607000    204.68277   -9383.8809   -8603.5369   -9383.8809            0    7950.5919    24.762145    24.934807    22.968565    14181.695    7822.2794     8774.293    7255.2033    -7.221221    783.16929    776.68572   -6959.1519 
12608000    201.72113   -9376.1995   -8607.1465   -9376.1995            0     8237.679    24.863567     24.82361    22.937843    14157.317    7820.4519    7816.6614    9075.9236    104.99414    698.46013   -521.77255   -6906.3134 
12609000    201.42349   -9376.9274   -8609.0091   -9376.9274            0    9775.0433    24.808639    24.736196    22.975258    14099.258     10384.15    10012.373     8928.607    -14.47286    77.046317   -468.57368   -6599.0334 
12610000    200.95724   -9393.0231   -8626.8824   -9393.0231            0    7773.7057    24.896197    24.903527    22.875892    14183.124    6112.8001      8669.88    8538.4371   -201.70177    12.531149   -365.38384     -7018.92 
12611000    200.49276   -9380.2322   -8615.8624   -9380.2322            0    6957.2895    24.794698    24.998169     22.93554    14215.954    7465.7906     5791.229     7614.849    -503.2446   -250.18219    23.693505   -7173.4416 
12612000    205.44203   -9373.5308   -8590.2921   -9373.5308            0    9159.1107    24.809446     24.78569    22.960323    14118.744    8733.8251    9701.0592    9042.4478    495.14354     170.2795    520.57021   -6704.3634 
12613000    200.14714    -9365.735   -8602.6829    -9365.735            0    8102.8812    24.868595    24.770776    23.033909    14189.219    8033.7677    8284.7021    7990.1739    174.19298   -477.20392      604.373   -6925.9115 
12614000    211.10703   -9364.8018   -8559.9656   -9364.8018            0    8333.8888    24.815381    24.900311     22.95472    14183.968    8066.9679    8220.3501    8714.3484   -592.35042   -370.64999    764.11141   -6836.0289 
12615000    209.42931   -9354.3793   -8555.9392   -9354.3793            0    8759.8826     24.79108    24.776338     23.03861    14151.056    10046.072    8575.5831    7657.9929    -239.5042   -158.73868    217.04708   -6748.0866 
12616000    202.13355   -9397.4665   -8626.8412   -9397.4665            0    7742.0494     24.94451    24.815488    22.911855    14182.672    7727.4898    7635.8754     7862.783    396.89488    1050.4707      1080.43   -7025.4779 
12617000    200.65747    -9405.747   -8640.7493    -9405.747            0    9999.9051    24.683148    24.938292    22.858013    14070.377    11514.346    9015.8735    9469.4962    -377.5282   -440.24999   -444.95147   -6588.7486 
12618000    192.44286   -9382.6427   -8648.9627   -9382.6427            0    7877.3055    24.847327    24.955201    22.888514    14192.482    8078.6007    7293.7452    8259.5706    57.090243   -679.05297    1168.7887    -7018.496 
12619000    196.24649   -9362.9203   -8614.7392   -9362.9203            0    7928.7273     24.80047    24.826325    23.023177    14175.475    8175.6162     8368.229    7242.3365    -325.3426   -814.50689    20.163853   -6975.5957 
12620000    199.92663   -9371.9484   -8609.7369   -9371.9484            0    9262.8911     24.73771     24.83952    22.991809    14127.842    9234.9202    9974.1993    8579.5537    302.50013    1244.5269   -620.23203     -6701.21 
12621000    202.22685   -9388.6062   -8617.6253   -9388.6062            0    7640.9376    24.865711    24.892526    22.923301    14188.844     7536.158     7561.772    7824.8828   -165.21343   -634.42274   -646.27866   -7036.4881 
12622000    205.66971   -9360.9897    -8576.883   -9360.9897            0    9771.7018    24.932624    24.840531    22.765681    14099.689    8865.2233    9845.2697    10604.612   -62.535391    314.43125   -220.89682   -6567.5329 
12623000    200.41065   -9393.8335   -8629.7767   -9393.8335            0    7470.9421    24.831269    24.938958    22.926747    14197.754    8410.3386    5996.6476    8005.8401   -685.25803   -598.02453   -1190.0125   -7082.8458 
12624000    205.03568   -9357.7463   -8576.0568   -9357.7463            0    9038.1599    24.865762    24.918942    22.821488    14140.844     8767.756    9799.7764    8546.9474    127.78558   -899.78246    511.51934   -6712.1197 
12625000    199.38058   -9320.3352   -8560.2055   -9320.3352            0    8213.6864    24.976596    24.867634     22.83016    14180.014    7358.7592    8867.6064    8414.6937   -648.19392   -8.7584373    94.252248   -6861.6073 
12626000    200.69151    -9376.981   -8611.8535    -9376.981            0    7661.7609    24.820971    24.993332    22.900199     14206.34    8980.1862    5970.8311    8034.2654    -84.00044    253.82658    1384.5124   -7024.4524 
12627000    200.89671   -9359.6154   -8593.7055   -9359.6154            0    8174.3442    24.873273    24.911521    22.858672    14163.943    6841.8328     8604.664    9076.5356    501.76272   -484.76695   -90.969941   -6905.1592 
12628000    203.06938    -9383.718    -8609.525    -9383.718            0    9816.5262    24.947265    24.825627    22.776165    14105.996    8932.8313    10197.034    10319.713    -200.1943    242.38793    543.45765   -6590.0546 
12629000    197.33181     -9344.85   -8592.5311     -9344.85            0    9188.0058    24.803429    24.912469    22.861897    14126.702    8583.7204    8938.6837    10041.613   -796.34883   -1055.0482    594.58917   -6699.5864 
12630000    199.49682   -9389.7682   -8629.1953   -9389.7682            0    8347.1375    24.932653    24.878086    22.787138     14134.33    7061.3797    9580.7243    8399.3086    18.156577    -334.6216    503.75968   -6908.5606 
12631000    200.54878   -9401.4405   -8636.8571   -9401.4405            0    7845.8761    24.776891    25.014071    22.860934    14168.541    8495.5535    6579.5034    8462.5715    26.142212    -32.78056    797.53198   -7015.6351 
12632000    202.40468   -9375.6869   -8604.0279   -9375.6869            0     8899.056    24.904598    24.849277    22.852607    14142.593    8125.0662    8840.6932    9731.4085    127.84846   -195.93708    73.176765   -6768.5512 
12633000    195.85274   -9353.7017   -8607.0218   -9353.7017            0    8124.4585    24.911252    24.811151    22.954718    14187.779    7110.3221    7957.7304     9305.323   -398.78346    637.45652    146.90561   -6925.9558 
12634000    197.09666   -9383.6304   -8632.2081   -9383.6304            0    8872.3944    24.711821    24.860893    23.000294    14130.413    10178.919    8654.5208    7783.7432   -96.059679    122.47345    362.22653   -6803.8065 
12635000    201.68185   -9426.1195   -8657.2163   -9426.1195            0    7461.2616    24.845923    24.876055      22.9476     14183.19    7443.3667     7357.862    7582.5562   -833.57057    975.16361   -1042.8599   -7113.8747 
12636000     203.9217   -9369.0343   -8591.5918   -9369.0343            0    10165.826    24.805347    24.848112    22.847167    14082.219    9687.1998    10527.307     10282.97   -537.63023   -199.95347   -347.83945   -6503.7883 
12637000    202.61035   -9394.6007   -8622.1576   -9394.6007            0    8810.2269    24.769474    24.896458     22.91778    14132.757    9550.1887    8966.0898    7914.4023     75.80414    235.91352   -152.26243   -6806.2662 
12638000    201.43686   -9378.2739   -8610.3047   -9378.2739            0    8009.1423     24.89165    24.814772    22.961659    14182.971    7674.6871    9140.1433    7212.5963   -342.11102    459.92628    1597.8677    -6953.661 
12639000    197.91833   -9384.3515   -8629.7965   -9384.3515            0    8501.3557    24.839237    24.844509    22.924351    14147.044    8094.6889    9041.7575    8367.6206   -84.525209    75.557227   -840.84856   -6875.7957 
12640000    198.99842   -9360.3737   -8601.7009   -9360.3737            0    9167.5192    24.751606    24.951942    22.878157    14129.564    9642.4223    8747.9568    9112.1786   -272.22277    1009.0856    -390.3536   -6712.5942 
12641000     202.3877   -9404.3397   -8632.7455   -9404.3397            0     6984.321     24.97163    24.809796    22.928842    14205.359    6340.3792    7632.9211    6979.6628   -661.63786   -110.97939    527.27637   -7185.7996 
12642000    199.02295   -9401.8474   -8643.0812   -9401.8474            0    7699.4867    24.896629    24.918758     22.90024     14207.15    6670.8552    7790.0067    8637.5982   -532.36388   -574.37931    1103.2638   -7047.7728 
12643000    203.73401   -9380.2309   -8603.5039   -9380.2309            0    8316.1634      24.8197    24.951994    22.874802    14166.388    8766.3845    7260.2397     8921.866   -197.06175    575.90124   -524.04504   -6885.3659 
12644000    202.88315   -9388.3185   -8614.8354   -9388.3185            0    9417.9171    24.797907     24.90755    22.860752     14120.06    9897.8808    8572.0141    9783.8563    466.17176   -124.72445    -351.4418   -6675.4359 
12645000    204.23764   -9334.2053   -8555.5582   -9334.2053            0    9947.1127    24.895027    24.789855    22.859611    14107.675    9653.6055     10430.22    9757.5131   -421.14719    387.83344   -198.12113   -6508.9799 
12646000    201.62065   -9385.9779   -8617.3081   -9385.9779            0    8412.6238    24.887025    24.865965    22.883216    14161.048    6869.7272    8667.6303    9700.5138    158.63018    143.73801    1504.9774   -6879.8964 
12647000     206.7097   -9405.8989   -8617.8272   -9405.8989            0    7950.1993     24.69468    25.108476    22.841692    14162.895    8708.7102    6740.2651    8401.6224    8.7900951    82.927173    1464.1772   -6975.7033 
12648000    195.49922   -9385.8434   -8640.5112   -9385.8434            0    8429.6639    24.762449    24.837607     22.96952    14127.173    9639.8769      7606.41    8042.7047   -343.86475   -345.79178   -751.61943   -6903.7449 
12649000     202.6029   -9380.2543   -8607.8396   -9380.2543            0    7085.0826    24.857793    24.766177    23.104579     14223.93    6716.0181    8332.7766    6206.4532   -7.3272957    50.657883   -604.74695      -7138.1 
12650000    197.88334   -9376.8891   -8622.4675   -9376.8891            0    8055.3022    24.775426    24.887629    22.991493    14176.591    9644.7041    7709.9989    6811.2036   -16.591383   -486.40674   -657.37335   -6957.0254 
12651000     197.9501   -9362.9816   -8608.3055   -9362.9816            0    6936.0379    24.823439    24.881997    23.066493    14247.175    6800.7605     6762.817    7244.5361    324.62863   -535.32907   -25.039099   -7167.1326 
12652000    193.49669   -9364.7125   -8627.0149   -9364.7125            0    9176.3076    24.805683    24.870976    22.931974    14147.687    9413.8453    8628.4698    9486.6076    435.66372   -1049.0592    -313.9961   -6733.6718 
12653000    204.26132   -9375.6742   -8596.9369   -9375.6742            0    7389.0872    24.883128    24.947417    22.913232    14223.842      7073.62    7205.1721    7888.4695   -430.99796    540.07628   -5.6514944   -7064.1436 
12654000    194.15832   -9381.7434   -8641.5233   -9381.7434            0    7821.7817    24.801956    24.951704    22.924149    14186.634    8456.0868    7294.6375    7714.6209   -13.612753    3.8427255    548.27439   -7023.2162 
12655000    200.06857   -9364.6334   -8601.8807   -9364.6334            0    10064.049    24.870261    24.802003    22.840732    14088.901    9115.1111    10990.457    10086.579   -95.874009    683.13347    1153.0053   -6533.9988 
12656000    186.09649   -9391.0421   -8681.5574   -9391.0421            0    7334.6129    24.865956    24.877604     22.92697    14182.748    7365.9063    7514.3028    7123.6296   -433.56771   -604.47386    617.30162     -7164.46 
12657000    198.33902   -9381.3425   -8625.1837   -9381.3425            0    7558.1024    24.868517    24.870877    22.949247    14194.151    7042.1462    7839.2441    7792.9167     55.49579    124.26961    118.04512   -7060.6026 
12658000    206.23674   -9380.1974   -8593.9289   -9380.1974            0    9284.8851    24.791058    24.776775    22.974072    14111.651    10157.803    9137.4869    8559.3655   -581.29334   -1104.8098   -407.50751   -6683.0628 
12659000    203.21556   -9360.6031   -8585.8527   -9360.6031            0    7185.5409    24.857541      24.8541    23.042205    14235.747    7670.7899    6895.7862    6990.0465    41.943689     -561.668    404.56117   -7094.0355 
12660000    200.32939   -9375.2961   -8611.5491   -9375.2961            0    9181.4686    24.819221    24.873222    22.850983    14106.689    8930.1904     9440.365    9173.8505   -265.42588   -664.24634    74.625211   -6722.6309 
12661000    198.10089   -9410.6709     -8655.42   -9410.6709            0     6483.988    24.848196    24.887401    23.027568     14240.41    7410.8983    5894.9228    6146.1429   -100.34929   -749.85736   -939.98982   -7308.8139 
12662000    202.35716    -9390.326   -8618.8482    -9390.326            0    7736.2029    24.875518    24.795987    22.982569    14175.947    7401.3637    8521.7904    7285.4546   -779.80189    -511.3495     -665.175   -7019.4528 
12663000    203.76273   -9369.3819   -8592.5455   -9369.3819            0    8605.3507    24.890989    24.783744    22.928015    14144.106    8314.3407    9008.1793    8493.5322    477.99432    1577.6916    928.06692   -6817.4571 
12664000    196.40445   -9372.8391   -8624.0558   -9372.8391            0    8965.8044    24.710616    24.992911    22.884714    14133.375    10184.793    7757.6583    8954.9622   -963.02235    238.94105   -76.112143   -6776.0171 
12665000    202.55155   -9380.3638    -8608.145   -9380.3638            0    7997.7224    24.875533     24.87735    22.931921    14191.129    6705.6099    9226.7655    8060.7919   -335.03819   -502.63673    815.19878   -6952.9118 
12666000    206.67542   -9370.6685   -8582.7276   -9370.6685            0    7843.4584    24.913169    24.876393    22.895634    14189.565    7762.9352    8259.2011    7508.2387    60.499929    591.98999     560.6037   -6959.6004 
12667000    198.17226   -9404.0929   -8648.5699   -9404.0929            0    8752.1343    24.835516     25.02259    22.712134    14114.431    9223.1973    7359.8006    9673.4052   -388.94248       59.948   -60.456332   -6846.9911 
12668000    205.35284   -9342.2765   -8559.3778   -9342.2765            0     9391.328    24.845163    24.834864    22.895785      14127.3     8891.625    9817.7968    9464.5623   -65.829759    594.40573    594.92848    -6624.462 
12669000     200.0953   -9367.8179   -8604.9634   -9367.8179            0    8674.3913    24.820991    24.829179     22.94414    14140.126     8774.842    9204.7763    8043.5557    -643.9109   -161.05521    549.45273   -6816.1371 
12670000    198.02252   -9376.6569   -8621.7047   -9376.6569            0    8186.2215    24.694284     24.91284    23.025629    14165.476    9395.1855    8075.3476    7088.1314   -316.40923    65.889213    54.997266   -6930.5219 
12671000     196.3842   -9367.5233   -8618.8172   -9367.5233            0    8127.0454    24.818817    24.849453     23.01376    14193.369    8459.3976    8450.8911    7470.8475   -186.38334    1494.2246   -36.601297   -6936.5535 
12672000     199.3865   -9372.1745   -8612.0223   -9372.1745            0    9310.2226    24.727474    24.732901    23.076891    14113.414    9257.1991    10353.116    8320.3529    73.316734    310.98449   -804.38327   -6695.7022 
12673000    199.56223   -9370.0389   -8609.2167   -9370.0389            0    8789.3684    24.782727    24.842275    22.987453    14152.439    9283.7702     8663.486     8420.849    66.455939    66.112554   -866.78334   -6795.1015 
12674000    201.37567   -9407.2667   -8639.5308   -9407.2667            0    7710.9049    24.794534    24.930627    22.928606    14173.164    7508.1023    7830.5794    7794.0329   -691.40993   -105.67198    -307.1971   -7045.6786 
12675000    197.38006   -9362.0276   -8609.5248   -9362.0276            0     8438.059    24.910122      24.8477    22.859358    14149.011    8128.2535    8831.7879    8354.1355    -48.50198   -611.96019   -195.29996   -6868.3414 
12676000    192.12742   -9365.3687   -8632.8914   -9365.3687            0    7836.7702    24.835871    24.940022    22.945612    14212.677      7706.21    8103.5407    7700.5597    162.64012   -353.90453    249.78972   -7008.5067 
12677000    202.23817   -9368.7138   -8597.6896   -9368.7138            0    9037.5801    24.853982    24.833607    22.910928    14140.947    8453.5256    10125.502    8533.7123   -497.62931   -257.27673    881.07779   -6733.8586 
12678000    201.75067   -9388.0511   -8618.8855   -9388.0511            0    7283.5797    24.778195    24.965954    22.964677    14206.208    7591.9657    7681.1372    6577.6362    219.53505   -808.10033   -137.43061   -7109.8518 
12679000    199.99123   -9385.7657   -8623.3079   -9385.7657            0    7185.2533     24.85911     24.98572    22.864154    14201.447    7345.4967    7100.7452    7109.5179   -117.97377    -975.6045    118.94097   -7135.1447 
12680000    195.32227   -9370.3754   -8625.7178   -9370.3754            0    8625.4262    24.868475    24.857659    22.891636    14150.969    8065.0185    8429.4463    9381.8137    472.56176   -121.24669    274.52031    -6845.625 
12681000    199.18929   -9371.5313   -8612.1309   -9371.5313            0    8589.9317    24.848122    24.807339    22.932083    14135.698    8365.5901    8936.8575    8467.3475    590.32151    564.67214    1519.0479   -6841.2765 
12682000    205.10911   -9358.1293   -8576.1599   -9358.1293            0    8602.2782    24.696385    24.949041    22.990576     14165.67    10327.333    7287.0108    8192.4905     39.03671   -685.50714    486.02814   -6799.0001 
12683000    198.64569   -9368.9561   -8611.6282   -9368.9561            0    8066.3026     24.82977     24.88695     22.93504    14172.415    8499.0089    7804.7343    7895.1645   -842.45068    259.70321   -499.25383    -6944.403 
12684000    204.23691   -9379.1836   -8600.5394   -9379.1836            0    8840.9312    24.911966    24.686236    22.966609    14124.067    8566.7005    10333.055    7623.0379   -308.70488   -615.66393   -47.384022     -6779.44 
12685000    203.00897   -9342.3042   -8568.3415   -9342.3042            0    8106.9746    24.804864    24.838065    23.012565    14178.152    9070.9076    8306.6543    6943.3619    168.79081   -15.876535    1792.5296   -6892.0315 
12686000    208.28314   -9363.4083    -8569.338   -9363.4083            0     9571.997    24.760438    24.927147    22.879003    14121.083    10705.631    8298.1959    9712.1641   -81.442793   -348.05091   -882.67704   -6598.0665 
12687000    195.57597   -9391.4512   -8645.8265   -9391.4512            0    7385.4464    24.938991    24.816312    22.916789    14183.058    6677.8288    8186.0997    7292.4107   -755.78292   -521.67185    746.56972   -7118.1811 
12688000    202.06552   -9357.6374   -8587.2715   -9357.6374            0    6836.7513    24.972865    24.833495    23.000385        14264     6081.131    7810.4539    6618.6689    -313.9211    552.94471    225.45206   -7165.0508 
12689000    195.47998   -9390.5883   -8645.3295   -9390.5883            0    9482.5765    24.757722    24.870157    22.889537    14093.739    10629.592    8526.8551    9291.2827    27.963614     599.3126    409.99176   -6696.2549 
12690000    203.69128   -9348.2891    -8571.725   -9348.2891            0    6454.5744    24.938725    24.916545    22.917757    14240.793    6815.3522    6715.2473    5833.1235   -82.313464   -704.36339   -490.21303   -7231.1915 
12691000    197.94329   -9354.3628   -8599.7127   -9354.3628            0    8673.7762    24.886102    24.780848    22.936862    14145.133    8285.7867    8933.6949     8801.847   -1236.3863    481.11779   -927.60749   -6810.3798 
12692000    202.46848    -9360.393   -8588.4908    -9360.393            0    8241.4072    24.709707     24.92107    23.001563    14164.187    8779.1369    7457.8468    8487.2378   -130.75426    1181.2581   -444.51981   -6886.0622 
12693000    205.16489   -9393.0692   -8610.8871   -9393.0692            0    7955.6258    24.796277      24.8565     22.98435    14166.373    8075.5726     8622.163    7169.1416    209.90761     420.7715    917.44798   -6967.2387 
12694000    203.08399   -9401.5037   -8627.2549   -9401.5037            0    5926.0605    24.848148    24.834915    23.117038    14265.562    5664.9534    7348.9976    4764.2306   -497.93603    859.95176   -505.18705   -7394.3463 
12695000    195.73693   -9352.5174    -8606.279   -9352.5174            0    9401.1268     24.83532    24.781737    22.975452    14140.526    8841.5074    9557.9862    9803.8867    209.89773    34.613731   -527.31661   -6667.5309 
12696000     204.2341   -9364.6185    -8585.985   -9364.6185            0    8864.8671    24.770732    24.803179    23.016963    14141.458      9734.89     9679.147    7180.5643   -747.21317   -309.77405    299.07325   -6757.7066 
12697000    201.76788   -9373.2079   -8603.9767   -9373.2079            0    8626.3181    24.728834    24.859786    23.051112    14170.752    9098.0121    8869.6267    7911.3155   -269.51391    443.52159    403.78073    -6821.211 
12698000    200.91689   -9362.6254   -8596.6386   -9362.6254            0    8850.5271    24.774051    24.828414    23.036358    14169.673     8554.389    9046.7005    8950.4918    133.36134   -1459.5597   -115.26386   -6767.6758 
12699000    198.58558   -9339.8042   -8582.7054   -9339.8042            0    8396.0315    24.761349    24.867597    23.055491    14196.539    9616.5124    8837.5278    6734.0544    715.15425    843.80937    1541.6226   -6844.3746 
12700000    199.47785    -9371.326   -8610.8254    -9371.326            0     8395.545     24.83746    24.825508    22.972606    14164.968    7763.1903    9509.3568    7914.0881   -404.99799   -865.54462    580.67576    -6876.461 
12701000    204.32686   -9363.2852    -8584.298   -9363.2852            0    8345.6794    24.845507     24.75403    23.053005    14178.207    8684.4059    8690.8294     7661.803    83.299087   -47.107203    248.75719   -6858.6234 
12702000    192.76636    -9351.564   -8616.6507    -9351.564            0    9239.5011    24.704344    24.957777    22.915839    14129.116    8943.4062    8792.7896    9982.3077    -537.6103    789.28453    1059.6011   -6712.7714 
12703000    198.93682   -9408.3584   -8649.9205   -9408.3584            0    7396.0724    24.777682    24.868744    23.000907    14172.924     7963.015    7619.9261    6605.2761   -523.61553     317.3206    356.36415   -7121.1704 
12704000    205.17213   -9378.6573   -8596.4475   -9378.6573            0    8107.5606    24.918673    24.844713    22.892055    14172.409    7605.9081    8312.5977    8404.1761   -487.74918   -252.51067   -839.55027   -6920.6955 
12705000    196.81591   -9376.1182   -8625.7661   -9376.1182            0    9190.9187    24.898314    24.857434    22.812432    14118.801     9027.605    9167.0186    9378.1324   -23.200193    456.20606    1017.5369   -6733.2803 
12706000    195.28011   -9413.4612   -8668.9644   -9413.4612            0    8001.7234    24.795669    24.979962    22.866345    14163.297    7813.8451    7547.2935    8644.0315    610.22975    567.29422    267.42408   -7016.1512 
12707000    191.06932   -9337.9953   -8609.5519   -9337.9953            0    7440.3349    24.924951    24.898108    22.907958    14216.314    6862.9512    7731.3612    7726.6922   -205.92398    49.594091    770.46467   -7066.9446 
12708000    200.50445   -9376.9868   -8612.5724   -9376.9868            0    7637.0211    24.943132    24.866125    22.888825    14196.543    7481.4873    7968.8243    7460.7517    291.70678    1156.7691   -476.96599   -7031.3882 
12709000    206.56801   -9369.8425    -8582.311   -9369.8425            0    8401.7012    24.912784    24.849632    22.848237    14144.739    8691.4052    7999.5642    8514.1342    567.72246   -191.97522    234.30906   -6849.1534 
12710000    200.08316    -9353.811   -8591.0027    -9353.811            0    8929.2065    24.849571    24.841852    22.864003    14114.164    9618.8657    8494.3376    8674.4163   -726.08661   -355.56355   -720.67318   -6753.0095 
12711000    206.88736   -9381.1804   -8592.4314   -9381.1804            0    7533.0003    24.844362    24.971622    22.892706    14202.727    7517.6754    7404.0467    7677.2788   -259.22229   -370.69911   -774.09029   -7032.1044 
12712000    204.94014   -9396.1941   -8614.8688   -9396.1941            0    8219.2744    24.876905    24.857272    22.885194    14151.563    7290.6945    8760.6202    8606.5084    199.60742   -654.45588    304.60081   -6918.5254 
12713000    195.47605   -9367.0814   -8621.8375   -9367.0814            0      8850.16    24.857302    24.916239      22.8326    14141.382    8670.8258    8593.5834    9286.0709    239.33577    391.08893    622.93085   -6796.6022 
12714000    204.38408   -9376.1907   -8596.9853   -9376.1907            0    8775.5871     24.82534    24.916354    22.878137    14151.431     8172.364    7873.9955    10280.402    216.92313    912.88217    50.653246   -6785.8437 
12715000    198.35969   -9373.4005   -8617.1629   -9373.4005            0    9289.7512    24.821696    24.802036     22.93887    14121.825    8859.4626    10677.383    8332.4084    -223.2828   -599.87414    1105.8954    -6703.917 
12716000    189.75754   -9365.8437   -8642.4014   -9365.8437            0    7465.9135    24.911031    24.846062    22.968205    14215.964    6795.9088    8487.0878     7114.744     460.5311   -56.921501    927.37191    -7094.529 
12717000    199.36215   -9350.3921   -8590.3327   -9350.3921            0    8774.1753    24.819082    24.906411     22.89325     14151.56    9386.3788    8739.5403    8196.6067   -414.00517    249.87211    394.70372   -6779.4659 
12718000    205.26232   -9379.9042   -8597.3507   -9379.9042            0    9775.2456     24.86475     24.82776     22.84072    14100.399    9245.5748     10513.73    9566.4318    814.04185   -374.30676    399.58594   -6587.1705 
12719000    199.02047   -9405.3812   -8646.6244   -9405.3812            0     7155.034    24.955929    24.873656    22.893713    14211.163    6968.5959     7146.334     7350.172   -237.38413   -168.42777    279.22511   -7163.7062 
12720000    195.82323   -9359.1156   -8612.5481   -9359.1156            0    7611.6586    24.791376     25.01418    22.869795    14182.382    7370.1737    8191.0456    7273.7563   -589.33804    433.12864   -173.81024    -7038.187 
12721000    198.03674   -9366.6873   -8611.6809   -9366.6873            0    8468.8294    24.841946    24.930572    22.863554    14159.946    9236.1228    7568.2281    8602.1373   -47.928451   -146.37871    813.53601   -6862.7975 
12722000    196.38306   -9378.4998    -8629.798   -9378.4998            0    8976.4421     24.94402    24.776512    22.867621     14132.78    8206.0695    8647.5452    10075.712    216.25956   -780.50001   -14.059798   -6779.6447 
12723000    201.14699   -9379.3365   -8612.4725   -9379.3365            0    7601.2301    24.853467    24.881865    22.915386    14170.889    7229.1937    9102.9865      6471.51    -115.1644    -1175.589   -273.67449   -7041.5424 
12724000    204.38239   -9344.5509    -8565.352   -9344.5509            0    7223.1849    24.859035    24.985675    22.934484    14245.061    7322.6513    6792.7642    7554.1393   -539.41072    239.16171    -12.70153   -7064.7381 
12725000    197.88596   -9374.1227   -8619.6912   -9374.1227            0    8746.8255    24.855338    24.926411    22.805544    14129.275    9184.6238    8971.8813    8083.9713    96.955414   -260.58477    666.18175   -6817.3118 
12726000    206.78739    -9406.838   -8618.4702    -9406.838            0    7031.7053    24.957192    24.809846    22.957041    14214.634    5081.7728    9378.3704    6634.9725    140.17759   -14.579809   -740.50139   -7160.7565 
12727000    202.18478   -9348.2144   -8577.3938   -9348.2144            0    9433.6197    24.757802    24.909309    22.885682    14113.595    10703.927    9283.5715    8313.3611   -42.903878    447.57298    254.74213   -6635.6501 
12728000    200.20263   -9345.1761   -8581.9124   -9345.1761            0    8423.7768    24.897928    24.888338    22.919019    14202.184    7754.1167    8913.5052    8603.7086    158.90932   -793.71516    383.56935   -6837.1436 
12729000    198.55259   -9380.4547   -8623.4817   -9380.4547            0     8299.819    24.957175    24.766365    22.869427    14135.558    6786.2208    9753.2234    8360.0128    414.06315    520.51799    1988.5578   -6912.4523 
12730000    198.95303   -9360.0582   -8601.5585   -9360.0582            0    8033.6471    24.796561    24.990924    22.886683    14182.625    8360.0978    8251.9896    7488.8538   -312.98414    197.18307     774.9266   -6939.8867 
12731000    205.69542   -9361.9435   -8577.7387   -9361.9435            0    8130.5282    24.861787    24.913813    22.904326    14186.983    8543.1094    7424.4785    8423.9965    69.385515   -1029.3861    249.43286   -6895.5114 
12732000    198.80266   -9355.4085   -8597.4821   -9355.4085            0    7145.3125    24.918275    24.829439    22.974551    14214.511    7192.5646    7008.5603    7234.8125   -636.83723   -129.01914   -75.340089   -7116.2298 
12733000    207.37074   -9372.8569   -8582.2651   -9372.8569            0    9265.1162    24.863683    24.854973    22.896523    14149.735     8847.942    8425.1542    10522.252    501.34477    436.44986   -650.76054   -6670.3216 
12734000    203.50235   -9355.4176   -8579.5738   -9355.4176            0    9535.9603    24.735231    24.907532    22.910774    14115.181    9967.9546    9505.2806    9134.6458   -277.57263    13.213165   -1035.5255   -6616.5446 
12735000    198.56778   -9387.4239    -8630.393   -9387.4239            0     8978.814    24.821114    24.824386    22.962681     14148.89     8920.191    9320.3976    8695.8535   -934.44397   -942.98093    276.68082   -6777.6413 
12736000    206.45273   -9389.0214   -8601.9295   -9389.0214            0    7543.3994     24.87209    24.844347    23.015038    14221.702     7382.458    8111.1206    7136.6198   -120.31214    1330.0404     63.22985   -7037.3611 
12737000    205.56133   -9403.1784   -8619.4849   -9403.1784            0    8034.5648    24.723177    24.901286    22.995253    14156.772    9339.1282    7482.4206    7282.1457      444.708   -180.99561   -531.94761   -6960.6525 
12738000    200.15987   -9325.8452   -8562.7445   -9325.8452            0    7785.7981    24.787812    24.874641    23.071731     14225.75     8444.491    7222.6199    7690.2835     1282.169    530.71806    341.92364   -6947.4407 
12739000    207.61498   -9393.5887   -8602.0657   -9393.5887            0    7986.5273    24.920805    24.776114    22.959265    14175.985    7555.1648    8543.5863    7860.8307    67.117235   -202.29238   -143.26128   -6950.9134 
12740000    204.48383   -9360.4289   -8580.8433   -9360.4289            0    7937.7565    24.806424    24.889805    22.957884    14174.819    7976.2004    7971.5889    7865.4802   -179.05335    -249.9539    301.12474   -6939.9091 
12741000    205.80619   -9370.6936   -8586.0665   -9370.6936            0     8494.266    24.809487    24.941778    22.879236    14157.504     9143.138     8056.175    8283.4849     385.7798    164.48528    168.41125   -6832.2327 
12742000    204.11152    -9355.982   -8577.8158    -9355.982            0    10105.018    24.884567    24.916425    22.752069    14107.067    9729.5815    9012.3527    11573.119    198.63392     567.2232   -694.42458   -6498.8388 
12743000    197.92125   -9370.4094   -8615.8433   -9370.4094            0    7708.8678    24.979134    24.827796    22.893449    14197.987    7915.3656    8330.0386    6881.1993   -477.77983   -457.12114      131.496   -7019.6214 
12744000     198.1789   -9382.3289   -8626.7805   -9382.3289            0    7923.9101    24.873279    24.910736     22.85904    14163.729    8139.1183    7092.1289    8540.4832   -384.23386    435.31149    921.03429   -6989.9903 
12745000    206.12811   -9387.5951   -8601.7408   -9387.5951            0    8553.9393    24.824602    24.915562    22.879772    14151.572    9207.8067    7766.7362     8687.275   -740.84821   -25.166688    543.95657   -6836.3261 
12746000    195.37092   -9368.2323   -8623.3893   -9368.2323            0    8677.8255    24.937165    24.799486     22.86353    14139.467    8609.6528    9039.2177    8384.6062    219.21129   -129.47657   -190.99695   -6833.9381 
12747000    201.08019    -9335.431   -8568.8217    -9335.431            0         7980    24.974362    24.812362    22.917194    14201.164    7102.3196    8418.6127    8419.0678   -116.26369   -1281.9211    737.87952   -6916.0885 
12748000    195.13941   -9381.9015   -8637.9411   -9381.9015            0    8705.3945    24.780003    24.926774    22.885542    14136.068    8955.9992    8738.0068    8422.1774    -683.7438   -503.91399   -390.57229   -6843.2365 
12749000    194.34709   -9389.6291   -8648.6894   -9389.6291            0    8784.0817    24.862397    24.828471    22.851837    14106.332    8332.1201    9188.7801     8831.345   -348.36039    248.77285    169.68556   -6841.5721 
12750000    203.94168   -9365.1426   -8587.6238   -9365.1426            0    8514.3295    24.956153    24.783603    22.904077    14166.249    6969.9556    9449.3964    9123.6366    465.62513    367.32045   -337.35814   -6828.5615 
Loop time of 500.432 on 64 procs for 250000 steps with 1920 atoms

Performance: 86.325 ns/day, 0.278 hours/ns, 499.569 timesteps/s
382.0% CPU use with 16 MPI tasks x 4 OpenMP threads

MPI task timing breakdown:
Section |  min time  |  avg time  |  max time  |%varavg| %total
---------------------------------------------------------------
Pair    | 75.259     | 76.78      | 78.287     |   9.4 | 15.34
Bond    | 1.5352     | 1.7372     | 2.282      |  12.2 |  0.35
Kspace  | 240.39     | 243.67     | 249.35     |  13.3 | 48.69
Neigh   | 2.4804     | 2.5298     | 2.5853     |   2.3 |  0.51
Comm    | 65.199     | 69.491     | 71.86      |  23.6 | 13.89
Output  | 0.4825     | 0.48285    | 0.48442    |   0.1 |  0.10
Modify  | 78.662     | 87.376     | 90.953     |  34.2 | 17.46
Other   |            | 18.37      |            |       |  3.67

Nlocal:        120.000 ave         125 max         116 min
Histogram: 2 2 1 2 0 4 3 1 0 1
Nghost:        4134.62 ave        4163 max        4112 min
Histogram: 2 1 4 2 2 0 1 1 0 3
Neighs:        42900.6 ave       44616 max       40994 min
Histogram: 1 0 4 0 3 2 0 3 2 1

Total # of neighbors = 686410
Ave neighs/atom = 357.50521
Ave special neighs/atom = 2.0000000
Neighbor list builds = 5475
Dangerous builds = 0

unfix		3
unfix		2
unfix		1

write_data	data.final.${pid}
write_data	data.final.0
System init for write_data ...
PPPM initialization ...
  extracting TIP4P info from pair style
  using 12-bit tables for long-range coulomb (../kspace.cpp:340)
  G vector (1/distance) = 0.37467978
  grid = 30 30 30
  stencil order = 5
  estimated absolute RMS force accuracy = 0.0032453929
  estimated relative force accuracy = 9.7734043e-06
  using double precision FFTW3
  3d grid and FFT values/proc = 7920 1800
Last active /omp style is kspace_style pppm/tip4p/omp
WARNING: Not all mixed pair coeffs generated from mixing. Use write_data with 'pair ij' option to store all pair coeffs. (../write_data.cpp:312)

write_restart   restart.lmp.${pid}
write_restart   restart.lmp.0
System init for write_restart ...
PPPM initialization ...
  extracting TIP4P info from pair style
  using 12-bit tables for long-range coulomb (../kspace.cpp:340)
  G vector (1/distance) = 0.37467978
  grid = 30 30 30
  stencil order = 5
  estimated absolute RMS force accuracy = 0.0032453929
  estimated relative force accuracy = 9.7734043e-06
  using double precision FFTW3
  3d grid and FFT values/proc = 7920 1800
Last active /omp style is kspace_style pppm/tip4p/omp
Total wall time: 0:08:20
