LAMMPS (30 Jul 2021)
Processor partition = 1
  using 2 OpenMP thread(s) per MPI task
using multi-threaded neighbor list subroutines
variable        pid world 0 1
variable        phase world IceV IceIII

shell cd ${phase}
shell cd IceIII
include Restart.lmp
echo both
log log.lammps
#include		in.partitions
include		in.temp
variable        temperature equal 76.47
variable	tempDamp equal 100.0
include		in.pressure
variable        pressure equal 6891.8
variable        pressureDamp equal 1000.0 # This is 1 ps
include		in.seed
variable        seed equal 745823

units		real
atom_style	full

read_restart	restart.lmp.${pid}
read_restart	restart.lmp.1
Reading restart file ...
  restart file = 30 Jul 2021, LAMMPS = 30 Jul 2021
  restoring atom style full from restart
  orthogonal box = (0.14444772 0.13167903 0.085771265) to (19.855553 19.868322 20.614227)
  2 by 4 by 4 MPI processor grid
  restoring pair style lj/cut/tip4p/long/omp from restart
  restoring bond style harmonic/omp from restart
  restoring angle style harmonic/omp from restart
  972 atoms
  648 bonds
  324 angles
Finding 1-2 1-3 1-4 neighbors ...
  special bond factors lj:    0        0        0       
  special bond factors coul:  0        0        0       
     2 = max # of 1-2 neighbors
     1 = max # of 1-3 neighbors
     1 = max # of 1-4 neighbors
     2 = max # of special neighbors
  special bonds CPU = 0.002 seconds
  read_restart CPU = 0.008 seconds
include 	in.setup
variable	out_freq equal 1000
variable	out_freq2 equal 10000
variable	out_freq3 equal 1000

timestep	2.0

neigh_modify    delay 7 every 1

include		in.tip4p
# This is TIP4P/Ice

# create groups ###
group ox type 2
324 atoms in group ox
group hy type 1
648 atoms in group hy

# set charges - beside manually ###
set group ox charge -1.1794
Setting atom values ...
  324 settings made for charge
set group hy charge 0.5897
Setting atom values ...
  648 settings made for charge

# ### TIP3P Potential Parameters ###
pair_style lj/cut/tip4p/long/omp 2 1 1 1 0.1577 8.5
pair_coeff 1 1*2 0.000 0.000
pair_coeff 2 2 0.21084 3.1668
bond_style  harmonic
bond_coeff  1 450 0.9572
angle_style harmonic
angle_coeff 1 55 104.52
kspace_style pppm/tip4p/omp 1.0e-5
pair_modify tail yes

thermo          ${out_freq}
thermo          1000
thermo_style    custom step temp pe etotal epair emol press lx ly lz vol pxx pyy pzz pxy pxz pyz enthalpy

restart 	${out_freq3} restart.lmp.${pid} restart2.lmp.${pid}
restart 	1000 restart.lmp.${pid} restart2.lmp.${pid}
restart 	1000 restart.lmp.1 restart2.lmp.${pid}
restart 	1000 restart.lmp.1 restart2.lmp.1


include         in.dump
dump            myDump all atom ${out_freq2} dump.water.${pid}
dump            myDump all atom 10000 dump.water.${pid}
dump            myDump all atom 10000 dump.water.1
dump            myDump2 all dcd ${out_freq2} dump.dcd
dump            myDump2 all dcd 10000 dump.dcd
dump_modify     myDump append yes
dump_modify     myDump2 append yes


variable natoms 	equal  "count(all)"                        # NUMBER ATOMS
variable H      	equal  "enthalpy/v_natoms"                 # ENTHALPY-per-atom
variable Vol      	equal  "vol/v_natoms"                 # volume-per-atom
fix AVG all 		ave/time ${out_freq} 1 ${out_freq} v_Vol v_H file vol_enthalpy.dat
fix AVG all 		ave/time 1000 1 ${out_freq} v_Vol v_H file vol_enthalpy.dat
fix AVG all 		ave/time 1000 1 1000 v_Vol v_H file vol_enthalpy.dat


timer           timeout 02:55:00 every 1000
New timer settings: style=normal  mode=nosync  timeout=02:55:00

fix 		1 all shake 1e-6 200 0 b 1 a 1
Finding SHAKE clusters ...
       0 = # of size 2 clusters
       0 = # of size 3 clusters
       0 = # of size 4 clusters
     324 = # of frozen angles
  find clusters CPU = 0.000 seconds
fix             2 all nph aniso ${pressure} ${pressure} ${pressureDamp}
fix             2 all nph aniso 6891.8 ${pressure} ${pressureDamp}
fix             2 all nph aniso 6891.8 6891.8 ${pressureDamp}
fix             2 all nph aniso 6891.8 6891.8 1000
fix             3 all temp/csvr ${temperature} ${temperature} ${tempDamp} ${seed}
fix             3 all temp/csvr 76.47 ${temperature} ${tempDamp} ${seed}
fix             3 all temp/csvr 76.47 76.47 ${tempDamp} ${seed}
fix             3 all temp/csvr 76.47 76.47 100 ${seed}
fix             3 all temp/csvr 76.47 76.47 100 745823


run             250000
PPPM initialization ...
  extracting TIP4P info from pair style
  using 12-bit tables for long-range coulomb (../kspace.cpp:340)
  G vector (1/distance) = 0.37230932
  grid = 24 24 24
  stencil order = 5
  estimated absolute RMS force accuracy = 0.0034959958
  estimated relative force accuracy = 1.0528087e-05
  using double precision FFTW3
  3d grid and FFT values/proc = 3211 432
Last active /omp style is kspace_style pppm/tip4p/omp
Neighbor list info ...
  update every 1 steps, delay 7 steps, check yes
  max neighbors/atom: 2000, page size: 100000
  master list distance cutoff = 10.8154
  ghost atom cutoff = 10.8154
  binsize = 5.4077, bins = 4 4 4
  1 neighbor lists, perpetual/occasional/extra = 1 0 0
  (1) pair lj/cut/tip4p/long/omp, perpetual
      attributes: half, newton on, omp
      pair build: half/bin/newton/omp
      stencil: half/bin/3d
      bin: standard
Setting up Verlet run ...
  Unit style    : real
  Current step  : 37000000
  Time step     : 2
  Walltime left : 2:54:59.93
Per MPI rank memory allocation (min/avg/max) = 10.19 | 10.19 | 10.19 Mbytes
Step Temp PotEng TotEng E_pair E_mol Press Lx Ly Lz Volume Pxx Pyy Pzz Pxy Pxz Pyz Enthalpy 
37000000    83.951158   -5087.7138    -4925.807   -5087.7138            0    7072.0541    19.711106    19.736643    20.528455    7986.2066    6149.4259    8084.3679    6982.3685   -249.44266    1153.9687   -15.149035   -4102.1204 
37001000    78.372932   -5094.1136   -4942.9648   -5094.1136            0     7081.486    19.848917    19.666591    20.386157    7957.9513    6986.3457    7479.3772    6778.7351   -235.26235    1052.8126    510.67132   -4121.0978 
37002000    78.014424    -5088.836   -4938.3786    -5088.836            0    6884.3877    19.741425    19.810129    20.281504    7931.6943    7553.0528    5928.3505    7171.7599    148.29437    677.54802   -191.53533   -4142.0227 
37003000    77.497423   -5096.1909   -4946.7306   -5096.1909            0    6453.0094    19.687776    19.779787    20.474566    7973.2057     6984.115    5413.6097    6961.3034   -127.35504     -166.722    360.71475    -4196.368 
37004000    73.432221   -5096.7131   -4955.0929   -5096.7131            0    6868.3888    19.783421    19.651917     20.51293    7975.0611    6765.0547    7166.8841    6673.2278   -151.54076   -185.80204    395.59795   -4156.2438 
37005000    76.304188   -5088.6689   -4941.5099   -5088.6689            0    7391.6691    19.706285    19.804834    20.398329    7961.0541    7703.5252    7348.7869    7122.6952    222.46497   -88.751237    105.93606   -4083.3089 
37006000    77.553401   -5082.4879   -4932.9196   -5082.4879            0     7717.468    19.731335    19.780719    20.326885    7933.5831    8090.9198    7473.1394    7588.3446   -441.97179    126.43384   -80.735919   -4039.9841 
37007000     77.45415   -5095.2823   -4945.9055   -5095.2823            0    5745.9239    19.804567    19.809872    20.375553    7993.8579    5332.2224    5514.1006    6391.4486    211.34354    545.72074   -402.76467   -4276.0329 
37008000    74.672307    -5083.038   -4939.0262    -5083.038            0    6316.1257    19.700405    19.625662    20.558904    7948.7608    6765.8499    6465.6554    5716.8717    174.12614   -178.57256    593.76477   -4206.8323 
37009000     78.84775    -5086.102   -4934.0375    -5086.102            0    7319.1105    19.805143    19.850115    20.261432    7965.4655     8117.664    5564.7131    8274.9545    173.77183    635.94952    448.25736     -4083.79 
37010000    78.339458   -5086.6332    -4935.549   -5086.6332            0    6868.7699    19.670157    19.865165    20.325553    7942.2285    7800.2541    5894.3631    6911.6926   -146.52348    91.485954   -492.15796   -4139.9445 
37011000    76.608727   -5083.8482   -4936.1019   -5083.8482            0    7738.5792    19.572133    19.725507    20.417441    7882.5666    8158.2177    7606.8468    7450.6731    165.72411    63.228303   -628.03752   -4046.4814 
37012000    79.500974   -5080.7956   -4927.4713   -5080.7956            0    6661.3056     19.75397    19.663334    20.520221    7970.6473    5753.5987     8433.789     5796.529    275.31328    622.78392    206.83461   -4153.1364 
37013000    79.874915   -5087.0424   -4932.9969   -5087.0424            0     6272.409    19.752635    19.810595    20.407088    7985.5273    6552.2726    5173.6359    7091.3186    606.07925    891.15912    250.22281   -4202.5076 
37014000    75.508611   -5088.7078   -4943.0831   -5088.7078            0    6949.5757    19.749819    19.743753    20.365518    7941.2394    6551.2398    7127.5714    7169.9159    169.91762    45.949128   -336.68206   -4138.2191 
37015000    75.095618   -5088.7769   -4943.9487   -5088.7769            0    6876.7936    19.628327    19.765998    20.462648    7938.9646    7823.5147    6101.4872     6705.379   -130.66595    282.62056    1188.4735   -4147.7421 
37016000    74.032938   -5084.1302   -4941.3515   -5084.1302            0    7331.2346    19.712017    19.692214    20.486902    7952.4676    6866.7668    8189.4175    6937.5194   -196.85422    1323.8759   -1162.5236   -4091.0853 
37017000    77.766825   -5090.0927   -4940.1128   -5090.0927            0    6789.1066    19.802918       19.676    20.409954    7952.5797    6317.5005    8048.8339    6000.9854   -330.54703    211.74401    294.15716   -4152.7108 
37018000    75.390596   -5095.0853   -4949.6882   -5095.0853            0    6639.6348    19.766992    19.799119    20.346576    7963.0197    5200.8565    7368.0266    7350.0214     -151.627    384.18695   -119.00321    -4178.611 
37019000    72.807539   -5083.0301   -4942.6147   -5083.0301            0    7792.9325    19.792051     19.70388    20.386198    7950.2138    6630.7854    8618.4927    8129.5195    60.482812   -421.04813    170.49607   -4039.0576 
37020000    75.394906   -5091.7893   -4946.3839   -5091.7893            0    6623.8695    19.733301    19.793352    20.417692    7974.9087    7436.1139    5766.4026    6669.0918    6.1452552    45.902785   -1060.0228   -4175.9891 
37021000    72.631531   -5085.3127   -4945.2367   -5085.3127            0    6903.7523    19.717534    19.715665    20.363599    7916.2328    6504.6406    7382.6573     6823.959   -115.01002   -210.76554    719.88294   -4148.1975 
37022000    77.643138   -5087.0767   -4937.3354   -5087.0767            0    7784.6391    19.688062    19.828722    20.308672    7928.2843    8338.1688     7190.042    7825.7066    -73.56274    201.94954    217.96955   -4037.2295 
37023000    76.406754   -5097.6045   -4950.2476   -5097.6045            0    5900.0539    19.716168    19.774884    20.443177     7970.487    6573.8941     5947.178    5179.0896    156.06936   -43.080619   -415.55154   -4264.4172 
37024000     79.96226   -5086.4545   -4932.2405   -5086.4545            0    5962.4038    19.819478    19.758111    20.435158    8002.3149    5000.7101    7077.8329    5808.6684   -482.46318    568.03928    865.15865   -4236.3949 
37025000    77.122381     -5082.27    -4933.533     -5082.27            0    6474.0083    19.566335    19.821759    20.521132    7958.8992    6490.4741    6381.1159     6550.435    82.847691    1031.7071    269.51488   -4182.0795 
37026000     82.34302   -5092.7825    -4933.977   -5092.7825            0    7058.8745    19.790439     19.79946    20.337067    7968.8763    7118.2606    6632.6493    7425.7135   -288.70639     404.8043   -128.11547   -4113.6096 
37027000    78.907636   -5087.7496   -4935.5696   -5087.7496            0    5903.6382    19.782838    19.744451    20.449876    7987.7478    6055.2011     6156.686    5499.0275   -96.233103     607.6306    -542.9578   -4247.8364 
37028000    78.744649   -5103.8659   -4952.0002   -5103.8659            0    5576.8836    19.740288     19.84162     20.42632    8000.5665    6011.1015    5084.8422    5634.7069    466.58993    389.15267    223.20266   -4301.2891 
37029000    78.210378   -5087.6626   -4936.8273   -5087.6626            0    7327.5298    19.620761    19.748144    20.475501    7933.7167    8097.8512    6441.9424    7442.7957   -490.12951   -797.18212   -217.84239   -4088.9946 
37030000    75.879054   -5079.4524   -4933.1133   -5079.4524            0    7486.3898     19.69854    19.754028     20.34633    7917.2762    6596.1699    8487.5675     7375.432   -93.978344    750.47673   -203.78349   -4068.6946 
37031000    74.241707   -5077.1733   -4933.9919   -5077.1733            0    6995.2386    19.699544    19.913429    20.305435     7965.527    6911.1529    6995.9248    7078.6382   -745.59371     456.9699   -57.906325   -4121.3617 
37032000     75.64566   -5083.8542   -4937.9651   -5083.8542            0    6875.2992    19.731011    19.770055    20.394467    7955.5383    6383.4382    7093.2599    7149.1995    205.13259   -429.24289   -606.51844   -4140.2698 
37033000    78.460411   -5089.8905    -4938.573   -5089.8905            0    6913.8633    19.820324    19.610683    20.438239    7944.1412    5790.1656    7560.9165    7390.5079   -246.76125    336.28847   -490.54931   -4137.5525 
37034000    75.953347   -5094.3447   -4947.8623   -5094.3447            0    6270.6938    19.930229    19.647173    20.357013    7971.2495    6383.4177    6285.1344    6143.5293    288.96972    877.14679    7.8650733   -4218.8784 
37035000    72.170271   -5087.2826   -4948.0961   -5087.2826            0    8095.0554    19.571787    19.776594    20.337426    7871.8712    9013.4188    7104.1872    8167.5602   -58.032063    788.85213   -751.68443   -4018.7582 
37036000     75.03045   -5090.8559   -4946.1533   -5090.8559            0    7897.5707    19.750776    19.821986     20.22782    7919.1836    7500.6959    7691.5045    8500.5117   -272.18508    409.82072    52.479501   -4034.0379 
37037000    75.151225   -5086.3865   -4941.4511   -5086.3865            0    6666.7574    19.745427    19.749246    20.392097     7952.047    4627.5458    8108.3603    7264.3662   -392.31161    81.502698    -944.7002   -4168.2909 
37038000    76.118061   -5079.9096   -4933.1096   -5079.9096            0    6665.6638    19.692113    19.789899    20.352647     7931.527    6212.0681    6842.6807    6942.2427   -162.56469   -313.28444    907.84956    -4162.071 
37039000    74.121158    -5086.506   -4943.5571    -5086.506            0    6870.4591     19.62695      19.8411    20.348655    7924.1786    6893.1521    7241.9516    6476.2737   -82.501297   -182.01321    410.04447   -4149.5655 
37040000    75.045849   -5089.1853   -4944.4531   -5089.1853            0    6098.5846    19.958692     19.67057    20.307315    7972.6286    4715.5866    7244.5784    6335.5887   -172.42593    217.52076    254.01072   -4235.3547 
37041000    75.783023   -5086.6466   -4940.4926   -5086.6466            0    6514.8248    19.761291    19.775696    20.353099    7953.8543    5577.6627    6760.4261    7206.3855   -301.59983    383.10947   -354.64701   -4184.7807 
37042000    76.108841   -5089.3998   -4942.6175   -5089.3998            0     7290.535    19.678939    19.838328    20.327429    7935.7722    6434.5055    6801.8873    8635.2121   -257.42948    184.84021    588.20364   -4098.8467 
37043000    77.416597   -5085.2144     -4935.91   -5085.2144            0    6722.8733    19.737455    19.656424    20.504547    7955.1035    6795.5387    6618.7075    6754.3739   -250.17097    102.45446    310.46934   -4155.9422 
37044000    74.053917   -5091.6991   -4948.8799   -5091.6991            0    7802.6886    19.750381     19.80361     20.30911    7943.4786    7744.1193    7651.0965      8012.85     68.76538    461.19367    51.561992    -4044.958 
37045000    76.825237   -5098.0324   -4949.8685   -5098.0324            0    6757.7978    19.668336    19.718916    20.472031    7939.8367    7184.9287    6367.4184    6721.0465    232.89863    128.88937   -409.66177   -4167.3535 
37046000    74.712538   -5092.7668   -4948.6774   -5092.7668            0     6318.199    19.857557     19.75466    20.296972    7962.0816    4208.9793    7644.9489    7100.6689   -31.673524    415.45337    257.23326   -4215.0157 
37047000     78.82957   -5093.7502   -4941.7208   -5093.7502            0    7314.9145    19.705544    19.750824    20.406993    7942.4169    7670.9827    7125.3104    7148.4505    -299.3122    422.49907    1213.4669   -4094.4195 
37048000    73.827487   -5094.4464   -4952.0639   -5094.4464            0    7573.8945    19.807268    19.694561     20.44653    7976.0982    7501.1442    8072.9568    7147.5824   -248.01582   -307.82764   -488.44356   -4071.0442 
37049000    79.357988   -5092.8579   -4939.8094   -5092.8579            0    7015.2872    19.792147     19.68917    20.465479    7975.2117    6929.5203    7609.0272     6507.314    659.26613    508.35878   -166.02531   -4123.8593 
37050000    75.891126   -5091.5017   -4945.1393   -5091.5017            0    8111.4794    19.650657    19.743864    20.376997    7905.8652    8689.8914    8133.2209    7511.3261    -47.22427   -517.03993    770.83158   -4009.8944 
37051000    84.162791   -5078.6209   -4916.3059   -5078.6209            0    7608.9748     19.69327    19.830405    20.228877     7899.893    7840.7805    6346.6486    8639.4952   -159.10888   -106.03754   -323.51187    -4039.662 
37052000    76.162823   -5099.2648   -4952.3784   -5099.2648            0    6071.4982    19.742094    19.816463    20.419841    7988.6189    5768.7443    5912.9012     6532.849   -90.377627    541.56644    15.760776   -4245.0136 
37053000    72.769439    -5102.345    -4962.003    -5102.345            0     5216.518    19.805708    19.827861    20.529851    8062.1719    5868.8382    4703.7131    5077.0027   -184.95007    33.064501    612.70665   -4348.6526 
37054000    79.231332   -5086.5819   -4933.7776   -5086.5819            0    7206.5571    19.648539    19.817898    20.433681     7956.727    7331.3009    6896.5192    7391.8512   -576.35926   -18.568509     315.7345   -4097.5237 
37055000    76.591237    -5084.018   -4936.3054    -5084.018            0    8068.5482    19.738773    19.695442    20.362763    7916.3063     8416.647    7461.0816    8327.9158   -67.058849    326.79569    446.81618   -4004.7818 
37056000    80.112662   -5087.1612   -4932.6572   -5087.1612            0    5873.8674     19.90728    19.774872    20.336807    8005.8671    6312.6186    5393.4794    5915.5044   -661.57195    295.08809   -716.48656     -4246.84 
37057000     77.31992   -5102.5382   -4953.4202   -5102.5382            0    6789.8726    19.614023    19.801904     20.47349    7951.8013    6913.6838    7315.3324    6140.6016   -359.20056   -294.07084    65.394759   -4166.0064 
37058000    78.536669   -5092.4591   -4940.9946   -5092.4591            0    6941.5111    19.733023    19.898996     20.25353    7952.9001    6508.3725    6544.2123    7771.9485    124.21356    138.34604   -419.94146   -4135.8842 
37059000    73.235042   -5086.9675   -4945.7275   -5086.9675            0     6652.128    19.673905     19.84974    20.391369     7963.276    8411.7946    4961.3475     6583.242    264.60825    41.571174   -32.803445   -4173.1746 
37060000    77.646549   -5092.6327   -4942.8848   -5092.6327            0    7171.7165    19.714006    19.744511    20.416833    7947.1178    7197.3079    6941.9394     7375.902   -297.41367    1221.7067    136.65064   -4111.6789 
37061000    78.451864   -5094.1261   -4942.8251   -5094.1261            0     6486.286    19.713532    19.861658    20.425917    7997.6331    6169.9083    6454.5843    6834.3655    303.12012     101.7313   -761.92593   -4186.2824 
37062000    78.899613   -5077.4209   -4925.2563   -5077.4209            0    8075.3053     19.63695    19.728622    20.434055    7916.3562    7818.3248    7761.2028    8646.3883   -290.32274    450.81153    67.363382   -3992.9467 
37063000     81.12777   -5090.4274   -4933.9657   -5090.4274            0    6889.5517    19.778568    19.646169    20.454138    7947.9271    7371.4406    6861.9899    6435.2247    31.571593    439.19586   -784.57021   -4135.3814 
37064000    76.233539   -5084.3349   -4937.3121   -5084.3349            0    7217.7946    19.694326     19.80861    20.334715    7932.9224    7663.7715    6337.7034    7651.9091   -272.19752     912.1256    316.87352   -4102.2599 
37065000    77.621652   -5092.3158   -4942.6159   -5092.3158            0    6804.3299    19.629055    19.760676    20.461909    7936.8345    6964.7043    7582.1965     5866.089    -543.2033    267.54665   -170.01597   -4155.0107 
37066000    77.034768   -5078.8509   -4930.2829   -5078.8509            0    6402.7928    19.718594      19.8802    20.362982    7982.4843    7807.2608    4996.6933    6404.4244   -520.99723   -194.48547    58.884244   -4184.8931 
37067000    75.532551   -5092.2207   -4946.5498   -5092.2207            0    7592.3511    19.640152    19.909853    20.336149    7952.0959    8691.4717    6482.1628    7603.4188   -345.67369    -191.4045   -645.67198   -4066.0408 
37068000    76.410513   -5088.5844   -4941.2203   -5088.5844            0    6767.5873    19.634213     19.74739    20.469928    7936.6917    7164.0528    7099.0313    6039.6778   -128.97961    365.98102   -416.72592   -4157.8822 
37069000     75.44128   -5093.8598    -4948.365   -5093.8598            0    7281.3188    19.735987    19.730371    20.312658    7909.7156    7000.9198     6810.717    8032.3195    248.66224    507.38067     71.42396   -4108.4278 
37070000    78.609399   -5086.3885   -4934.7837   -5086.3885            0    7627.9119    19.777484    19.693397    20.339093    7921.7889     7725.017    7589.3237    7569.3951   -7.7773697    360.91631    724.04215   -4053.5221 
37071000    79.248018   -5088.8721   -4936.0356   -5088.8721            0    7397.6915    19.647477    19.777313    20.363179    7912.6078    6747.9812    7789.3649    7655.7284    8.0998842    214.60961   -710.14342   -4082.3623 
37072000    80.741946   -5083.3777   -4927.6601   -5083.3777            0    5741.2084     19.69014    19.805379    20.479582    7986.4369    7050.4766    4154.3871    6018.7615    251.08852    -36.27965    128.62057   -4258.9586 
37073000    75.090861   -5095.7245   -4950.9055   -5095.7245            0    6427.5229    19.673126    19.879508    20.307917    7942.2651    6896.7116    5645.9969    6739.8602    55.817224    63.681611   -297.09385   -4206.4069 
37074000    73.343227   -5089.1669   -4947.7183   -5089.1669            0     7466.535    19.708327      19.8175    20.336904    7942.9801    8617.5789    6310.8639    7471.1623    -743.5426    56.443366    103.05021   -4082.7933 
37075000    76.794168   -5092.5179   -4944.4138   -5092.5179            0    7439.1448    19.649642    19.718233    20.482359    7936.0175    7683.1796    7578.9235    7055.3312    -12.02706    232.61638    332.63437   -4083.4171 
37076000    76.577878   -5090.4891   -4942.8022   -5090.4891            0    6988.0034    19.720008    19.832918     20.33287    7952.2933    7353.7835    6360.7273    7249.4993   -470.87679   -463.36982    730.36585   -4132.3613 
37077000     72.10751   -5091.8738   -4952.8084   -5091.8738            0    7328.8931    19.733428    19.725066    20.378277    7932.1051    7248.6006    7481.2577    7256.8209   -269.23245    34.383537    17.421133   -4104.9902 
37078000    79.806514   -5085.0701   -4931.1566   -5085.0701            0    7087.1578    19.747547    19.715818    20.409539    7946.2304    6551.0329    7635.6196    7074.8208   -129.71723    428.05071    830.84899   -4109.8427 
37079000    78.689816   -5099.6944   -4947.9345   -5099.6944            0    6030.1629    19.543906    19.853375    20.512714    7959.1893    7341.6764    5634.0341    5114.7781   -119.75801    105.23274    651.20358   -4247.9736 
37080000    77.429306   -5081.9298   -4932.6009   -5081.9298            0    6372.4897    19.594664    19.792181    20.485183    7944.5867    5957.9538    6936.7606    6222.7548   -281.18367    29.538325    861.12983    -4194.261 
37081000    79.203453    -5089.858   -4937.1075    -5089.858            0    7467.5486    19.702203    19.670285    20.503605    7946.1302    7977.4145     7961.405    6463.8264   -398.26266    -33.77256    253.28521   -4071.7219 
37082000    74.103307    -5091.506   -4948.5916    -5091.506            0    7127.2459    19.844977    19.760028    20.270628    7948.8691    6910.3003    6978.5765    7492.8611    252.40977    331.93853   -341.44676   -4122.3577 
37083000    76.765824   -5085.9732   -4937.9238   -5085.9732            0    6905.4095     19.72423    19.760316    20.355011    7933.5082    6077.4167    6548.2903    8090.5215   -103.23681    564.37565    30.587852   -4138.9536 
37084000    77.910471   -5078.1163   -4927.8594   -5078.1163            0    7636.1068    19.696994    19.666306    20.465624      7927.71     6706.256    9051.1571    7150.9073    212.32259   -549.07406    181.62866   -4044.9916 
37085000    77.366305   -5097.6992   -4948.4918   -5097.6992            0    7069.6263    19.707207    19.770426    20.458496    7971.0369    7135.7191    7366.8945    6706.2652   -370.67756   -332.22652    1044.4743    -4126.652 
37086000    74.241389   -5088.3521   -4945.1714   -5088.3521            0    6532.4393    19.792753    19.786804    20.307874    7953.2809    5623.4927    6662.5263    7311.2988    55.355494    306.05155   -63.514089   -4187.4709 
37087000    75.806894   -5088.4584   -4942.2584   -5088.4584            0    6539.9746    19.676432    19.799871    20.330428    7920.5477     6350.226    6282.3535    6987.3443   -250.69205    718.42079    622.85801   -4186.8059 
37088000    79.639738   -5093.6143   -4940.0223   -5093.6143            0    6629.5166    19.805094    19.757402    20.322703    7952.2173    6153.9837    7332.9356    6401.6304     77.31508   -186.66209   -282.68866   -4171.1646 
37089000    72.144718   -5091.6193   -4952.4821   -5091.6193            0     7670.071    19.750225     19.67295    20.383904    7920.0679    8143.7241    7117.4764    7749.0124    452.65132     113.3031    155.17515   -4066.5424 
37090000    76.303013   -5089.7614   -4942.6046   -5089.7614            0    7199.5349    19.663641    19.840632    20.348898    7938.9003    7067.8013    7322.7352    7208.0683    78.756538    135.88973    265.97657   -4109.0373 
37091000    74.845028    -5090.567   -4946.2221    -5090.567            0     6729.967    19.775262    19.772193    20.333185     7950.281    6250.3326    6723.1555    7216.4128    312.61549   -773.59586   -68.645229   -4165.9046 
37092000    78.070214   -5096.0988   -4945.5338   -5096.0988            0    7122.4931    19.728247    19.742107    20.408658    7948.7064    7468.4704    7361.0644    6537.9447    70.453884    132.62676   -348.84299   -4119.8678 
37093000    77.470542   -5085.3213   -4935.9129   -5085.3213            0    7241.2969    19.692347    19.744296    20.437031    7946.1534    8119.8828    6959.4246    6644.5834     5.310047   -685.19081    463.45053   -4096.7444 
37094000    77.167848   -5093.4681   -4944.6434   -5093.4681            0     6415.516      19.7835    19.854845    20.349396    7993.2089    5430.5454    6447.4348    7368.5678   -315.73441   -33.845993    334.34649    -4196.769 
37095000    71.324607   -5090.3604   -4952.8049   -5090.3604            0    6188.5873    19.736291    19.828177    20.344501    7961.5087     6254.348    6201.8276    6109.5864    475.67023    125.28009    -391.7242   -4234.2453 
37096000    79.275835   -5093.4959   -4940.6058   -5093.4959            0    6630.7584    19.585206    19.835319    20.528718    7974.9719    6697.9516    6131.9447    7062.3789   -225.62652    611.00344   -165.46592   -4169.4036 
37097000    77.585476   -5094.3015   -4944.6714   -5094.3015            0    6190.1788    19.943032    19.672692    20.379914    7995.7155    4880.8041    7469.9081    6219.8242   -6.3982753   -233.69441    510.66859   -4222.8389 
37098000     74.07226   -5082.4583   -4939.6037   -5082.4583            0     7319.797    19.617912    19.784627    20.428675    7929.0441    8046.7609    6576.7326    7335.8975   -29.022448    162.76268   -479.99167   -4093.1645 
37099000    75.214736    -5090.631   -4945.5731    -5090.631            0    6904.8579    19.755078    19.675722    20.501073    7968.6732    5667.8519    8942.4094    6104.3125   -41.285883    404.94122    -297.4077   -4143.1255 
37100000    75.393598   -5090.8685   -4945.4656   -5090.8685            0    5824.0531    19.713415    19.656783    20.570941    7971.2874    5195.0235    7075.1804    5201.9554    -10.92819    1.1360704    802.55515   -4268.4016 
37101000    75.583514    -5103.646   -4957.8769    -5103.646            0    6356.5292    19.791426     19.73882    20.425983    7979.6022    6095.0491    6505.0356    6469.5031   -422.47054    1059.4548    335.92285   -4218.1401 
37102000       74.488   -5084.4714   -4940.8151   -5084.4714            0    7088.0457    19.728716    19.672194    20.487859    7951.4846    7649.6062    6836.2851    6778.2458    427.78465    528.86281    132.88026   -4118.8552 
37103000    80.586777   -5095.0431   -4939.6247   -5095.0431            0    6775.8746    19.886491    19.716248    20.332101    7971.9523    6004.1982    6945.4684    7377.9571   -106.62155    91.785262    21.125003   -4151.8429 
37104000    76.262114   -5081.5454   -4934.4675   -5081.5454            0    7600.7336     19.68606    19.784601     20.35985    7929.7716    7440.2849    7303.3168    8058.5992   -224.87609    675.09025   -983.14145    -4055.461 
37105000    79.658782   -5082.9154   -4929.2867   -5082.9154            0    6691.5241    19.709015    19.692305    20.497141    7955.2669    6380.6034    6928.9836    6764.9852    56.218504   -788.12271    397.07392   -4152.9401 
37106000    74.501181   -5094.3215   -4950.6397   -5094.3215            0    6691.3075    19.722838    19.775859    20.415605    7962.8223    6401.0844    6433.3205    7239.5175     35.08493    302.09691    1164.4498   -4173.5809 
37107000    75.224077   -5084.5515   -4939.4755   -5084.5515            0    6478.5452    19.789586    19.702337    20.371334     7942.805    5209.2666    7094.6785    7131.6906    -200.6634    543.84285    295.84712   -4189.0159 
37108000    75.727775   -5084.8611   -4938.8137   -5084.8611            0    6848.1404    19.638424    19.782998    20.540089    7979.9665    6672.6513    7226.9011    6644.8687   -286.54819   -1237.0744   -426.48717   -4141.8297 
37109000    77.627093   -5092.7386   -4943.0282   -5092.7386            0    7222.7768    19.793481    19.766351    20.366174    7968.1617    6720.5537    8457.3444    6490.4322    19.675081   -309.43602    80.167845   -4103.6876 
37110000    81.428255     -5087.59   -4930.5487     -5087.59            0    7875.9126    19.620694     19.73421    20.405462    7900.9723    7851.6809    7950.3033    7825.7537    -872.6061   -110.53341    290.65574   -4023.0264 
37111000    79.016585    -5081.261   -4928.8708    -5081.261            0    7069.4745    19.716171     19.83136    20.269866    7925.4871     6894.965    7212.9731    7100.4854    52.326398    439.58636    564.10606   -4111.7449 
37112000    76.134086   -5087.5714   -4940.7404   -5087.5714            0    6993.2008    19.796616    19.763406    20.392979    7978.7238    7232.9911    6239.0034    7507.6079   -169.47834    878.00947     263.0833   -4127.0011 
37113000    72.752187   -5089.4791   -4949.1704   -5089.4791            0     7244.772    19.721854    19.740387    20.385612    7936.4655    8111.1189    6552.5879    7070.6091   -133.57012    750.75932    817.33697   -4110.6228 
37114000    79.800872   -5088.0187    -4934.116   -5088.0187            0    7102.0041     19.71394    19.630123    20.475488    7923.7487    7258.6562    7556.4706    6490.8855    8.3586781    -187.8022   -9.8300073   -4113.4102 
37115000    76.823463   -5088.8317   -4940.6712   -5088.8317            0    6907.3106    19.601649    19.797283    20.477754    7946.5846    6927.8168    6569.3708    7224.7443   -472.57867     -241.699    827.80466   -4140.1638 
37116000    76.302355   -5097.8296   -4950.6741   -5097.8296            0    6452.6492    19.747791    19.835433    20.301127    7952.0731    6906.9742    5766.1751    6684.7983   -27.176271   -182.07582    79.300419   -4202.3421 
37117000    72.742159   -5092.2127   -4951.9233   -5092.2127            0    7154.5434    19.762552    19.706143    20.455047    7966.0888    7928.1775    6631.8901    6903.5626    261.61663    809.63954    374.03558   -4120.7283 
37118000    73.252664   -5086.9674   -4945.6935   -5086.9674            0      6513.73    19.565747    19.755956    20.552459    7944.3479    7131.0128     6063.776    6346.4011    278.97736    561.67733     287.1706   -4191.0116 
37119000     73.62356   -5093.2936   -4951.3043   -5093.2936            0    7218.0968    19.830593    19.786513    20.326062    7975.5053    7603.2354    7345.4453    6705.6096    92.066838    1195.8829    228.94833   -4111.7346 
37120000    76.518951   -5089.8794   -4942.3062   -5089.8794            0    6039.2998    19.681483    19.804998    20.488587    7986.2818    5213.6589    6514.0831    6390.1576      93.3901    1096.2975     207.2616   -4238.8985 
37121000    75.672064   -5101.1506   -4955.2107   -5101.1506            0    6878.3292    19.732309    19.782823    20.425386    7973.2697    5975.2661    7391.0895    7268.6319   -312.05982   -174.34006    222.99707   -4155.3851 
37122000    77.698519   -5081.4167   -4931.5686   -5081.4167            0    7650.2669    19.809214    19.715569     20.31985     7935.916    6942.5066    7651.2865    8357.0074   -156.89532    688.85195    1311.8203   -4046.1481 
37123000    75.528288   -5086.5954   -4940.9328   -5086.5954            0    6906.2547     19.67964    19.767024    20.435812    7949.6925    8367.4726     5790.697    6560.5946    125.70959   -255.64232    16.054276   -4140.2346 
37124000    77.935868   -5093.4034   -4943.0975   -5093.4034            0    6346.9807    19.895123    19.710391    20.336927    7974.9359    4608.8266    7919.4145     6512.701   -320.00369    759.81208   -460.23349   -4204.9039 
37125000    76.678989   -5076.9492   -4929.0674   -5076.9492            0    7396.3627    19.631982    19.757616    20.393132    7910.1117    7067.4086    8370.1375     6751.542   -211.57916   -76.722057    275.27191   -4075.8165 
37126000     73.13461   -5093.1948   -4952.1486   -5093.1948            0    6316.7724    19.655299     19.86878      20.3632    7952.3758    7339.6209    5305.2777    6305.4187   -23.399421    51.232355    408.93297   -4219.5467 
37127000    77.301858   -5091.3502   -4942.2671   -5091.3502            0    7228.7748     19.74907    19.630749    20.475747    7938.2225    6408.2655    8213.2838     7064.775   -33.251329    572.86569   -594.64682   -4105.3858 
37128000    74.957498   -5091.6854   -4947.1236   -5091.6854            0    7468.2951    19.725115     19.75505    20.426316    7959.5357    5946.4079    8324.9838    8133.4935   -283.49274    207.99525    994.30312   -4080.1915 
37129000    78.331686   -5079.7091   -4928.6399   -5079.7091            0    7113.8905    19.745929    19.704033    20.432372    7949.7137    6866.5391    7664.2664     6810.866    65.708348    278.43349    215.10911   -4103.8667 
37130000     72.66737   -5094.8847   -4954.7396   -5094.8847            0    6411.9153    19.814719    19.781577    20.297172    7955.8092    5716.1634    6592.5459    6927.0365   -243.76267     823.0182   -494.62789   -4210.7822 
37131000    74.168525   -5097.1244   -4954.0841   -5097.1244            0    7199.4436    19.612506    19.818497    20.369876    7917.5748    7367.2658       6710.1    7520.9651   -246.14205   -25.531003    729.42032   -4122.7665 
37132000    80.646601   -5086.8937   -4931.3599   -5086.8937            0    6874.1613    19.732852    19.842695    20.287182     7943.506    6909.3843    5714.9218    7998.1778   -248.88226    631.69964    175.95054   -4135.0029 
37133000    78.301539   -5081.0897   -4930.0786   -5081.0897            0    6569.5461    19.680227    19.746695    20.438319    7942.7283    6725.1483    7045.8028    5937.6872    15.184202    680.27329   -168.27904    -4169.085 
37134000    75.327365    -5089.285   -4944.0098    -5089.285            0    7008.3517    19.801218    19.788813    20.188983    7910.9037    6460.7181    6769.9807    7794.3563   -441.37948    127.87696   -580.39203   -4135.4393 
37135000    75.084149   -5092.0303   -4947.2242   -5092.0303            0    5836.2381    19.851585    19.746702    20.367466    7984.1148    5715.5191    5995.6089    5797.5863   -140.14198    218.13986    320.05979   -4267.6519 
37136000    77.864489   -5092.2085   -4942.0403   -5092.2085            0    6735.2566    19.670227    19.787139    20.458062    7962.6359    7583.2559    6501.0965    6121.4173   -725.65521    286.60572    373.72015    -4159.896 
37137000    74.379481   -5088.8859   -4945.4388   -5088.8859            0    7230.3439    19.573467    19.726223    20.511357    7919.6519     8037.715    6289.0211    7364.2957   -36.493549    657.47129    637.56096   -4110.3341 
37138000    77.411066   -5094.8703   -4945.5766   -5094.8703            0    6040.7783    19.895572    19.669334    20.360254    7967.6323    5553.0242    6576.0552    5993.2556   -63.338539      57.7554   -525.37949   -4243.6397 
37139000    72.449523   -5092.8287   -4953.1037   -5092.8287            0    6318.8226    19.642902    19.738695    20.458673    7932.3438    6517.2968    6259.8885    6179.2826    -428.2564    360.26192    966.25499   -4222.1101 
37140000    78.005849   -5086.5216   -4936.0808   -5086.5216            0    6940.4227    19.778126    19.614102     20.45121    7933.6415    6176.7006     7739.201    6905.3665   -204.31341    252.19864    240.57524    -4133.046 
37141000    78.890953   -5097.3311   -4945.1833   -5097.3311            0    6375.6393    19.855595     19.57982    20.462916     7955.347    6740.1181    6462.7362    5924.0636    129.33765    472.68421   -403.76597   -4205.4779 
37142000    73.022632   -5086.2505   -4945.4202   -5086.2505            0    6349.7024    19.742174    19.772026    20.447218    7981.4237    5244.7348    6822.1439    6982.2284    216.43062   -432.19619    537.23227   -4206.3092 
37143000    75.664786   -5090.5816   -4944.6557   -5090.5816            0    6482.1623    19.710435    19.704629    20.449312    7942.2433    6285.7227    6264.5723    6896.1919   -219.09605    198.98004    68.763478   -4193.8302 
37144000    78.517985   -5093.2802   -4941.8517   -5093.2802            0    6949.1803    19.787393    19.793698    20.314431    7956.4654    5734.0293    7851.3214    7262.1901   -475.47179    528.02288   -109.21471   -4135.4905 
37145000    74.724553   -5089.3138   -4945.2012   -5089.3138            0    6995.9288    19.575609     19.85549    20.439135    7944.3503    7854.4715    6656.7583    6476.5566    116.60409   -653.94125    249.84617   -4134.6515 
37146000    75.095615   -5096.2681   -4951.4399   -5096.2681            0    6374.2602    19.838449    19.755522    20.336545    7970.2765    6142.3869    6343.0903    6637.3034   -282.83514    106.12579   -821.83318   -4210.5067 
37147000    74.972207   -5091.3268   -4946.7366   -5091.3268            0    7776.0808    19.589529    19.698994    20.465012    7897.3256    8150.6102     7719.103    7458.5293   -457.68248   -33.283926     456.2027   -4051.1312 
37148000    77.856672   -5101.7376   -4951.5845   -5101.7376            0    5720.0336    19.793804    19.801769    20.357941    7979.3421    4965.6985    6229.8657    5964.5366   -165.64096    -113.9536    9.4119696   -4285.9412 
37149000    79.794161   -5091.3485   -4937.4587   -5091.3485            0    6232.7016     19.75799    19.876879    20.268619    7960.0376      6667.83    5641.0861    6389.1888   -77.498191     246.6096   -405.49895   -4213.9107 
37150000    72.739854    -5083.073   -4942.7881    -5083.073            0    7498.6731    19.636409    19.716874    20.480915    7929.5671    7623.9209     8585.115    6286.9833    80.477996    223.51614   -832.12971    -4075.607 
37151000    81.510819   -5086.7828   -4929.5823   -5086.7828            0     7331.587    19.756992    19.774486    20.329885    7942.5681     6861.358    7864.2648    7269.1381    -314.0341    799.57981   -634.38356   -4080.3337 
37152000    79.319278   -5093.2108   -4940.2369   -5093.2108            0    5767.1567    19.786368    19.809599    20.356905    7979.0926    5890.4866    5061.0786     6349.905   -125.92483   -242.87856   -96.132404   -4269.1308 
37153000    74.047014   -5088.5054   -4945.6995   -5088.5054            0    7019.4217    19.720011    19.761411    20.465458    7975.2919    6308.8888    7848.4261    6900.9503   -207.25762    1163.2307    738.09215   -4129.2604 
37154000    78.039209   -5090.4286   -4939.9235   -5090.4286            0    7076.7059    19.690575    19.707645    20.444156    7933.4541    7685.4617    6503.8435    7040.8125   -224.04839    122.27156   -299.58103   -4121.1394 
37155000     76.18646   -5093.5314   -4946.5994   -5093.5314            0    5859.1213    19.781443    19.787043    20.393279     7982.261    4781.3732    6489.5323    6306.4586    54.683788   -149.39072     471.7336    -4264.521 
37156000    76.078871   -5096.4005    -4949.676   -5096.4005            0    6607.7293    19.797846    19.832083    20.281174    7963.0487    6065.8622    6735.0608    7022.2649   -456.33604    436.17086    648.73422   -4182.3012 
37157000    80.187401   -5098.0633   -4943.4152   -5098.0633            0    6432.7049    19.751658    19.848468    20.386963    7992.5079    6449.0282     6307.776    6541.3104    47.910716    279.34545    33.543722   -4193.6028 
37158000    73.596567   -5096.8734   -4954.9363   -5096.8734            0     5952.414    19.637343    19.867295    20.434334    7972.2694     6493.953    6284.5102    5078.7788   -37.299848    455.55809    255.33105   -4262.8647 
37159000    73.545641   -5088.3047   -4946.4657   -5088.3047            0    6964.1719    19.767073    19.761349    20.303777    7931.1433    5775.6292    7449.0935    7667.7929   -394.60107    1047.3134    46.894339   -4140.9368 
37160000    78.551654   -5094.0632   -4942.5698   -5094.0632            0    7015.1217    19.711223    19.774693    20.393641    7949.1022    6189.2235    7587.4363    7268.7053   -225.55653   -380.22102   -96.208451   -4129.3102 
37161000    75.231457   -5091.7622   -4946.6721   -5091.7622            0    6945.1893    19.697896    19.771785    20.381291    7937.7498     6997.572    6522.8527    7315.1432    81.496946    378.37412   -38.152412   -4142.6696 
37162000    77.882679   -5092.8661   -4942.6628   -5092.8661            0    5820.2368    19.665455    19.752894     20.56651    7989.0534    7886.1586    4847.5306    4727.0213    77.485529    1643.7247   -965.55598   -4264.5345 
37163000    80.472287   -5099.5847   -4944.3871   -5099.5847            0    5929.5231    19.837421    19.776964    20.341024    7980.2713    5835.8087    5304.7081    6648.0524   -125.30812    785.98954   -333.66468   -4254.2851 
37164000     75.02078    -5093.261   -4948.5771    -5093.261            0    7081.5496    19.744224    19.789466    20.362014    7956.0023    6866.2214    7074.4018    7304.0256   -124.73808    413.65097   -419.08187    -4126.904 
37165000    77.193086   -5095.7429   -4946.8695   -5095.7429            0    7300.5521     19.73964    19.716491    20.515278    7984.4731    8386.6648    6740.1435    6774.8479   -365.49067   -118.17754   -345.12426   -4096.7542 
37166000    77.248954   -5080.8375   -4931.8564   -5080.8375            0    7496.5492     19.70769    19.747522       20.315    7906.1519    7172.8565    7542.2805    7774.5105   -381.43702    149.55234   -178.97609   -4067.4809 
37167000    80.746562   -5092.8961   -4937.1695   -5092.8961            0     7011.705     19.61646     19.79539     20.36786    7909.1552    6468.2309    7745.2527    6821.6314   -66.888444   -19.317319   -330.30745    -4128.391 
37168000    79.897829   -5086.5836   -4932.4939   -5086.5836            0    6959.2131    19.783102    19.725169    20.391868    7957.4173    6539.7698     6598.276    7739.5936    239.85244    643.05587   -40.045794   -4124.8719 
37169000    81.376754   -5084.3639    -4927.422   -5084.3639            0     7549.366     19.70565    19.703507    20.382882    7914.0699     7395.767    7519.1993    7733.1317    147.81751   -502.88433    80.944973   -4056.0848 
37170000    78.262005   -5083.5749     -4932.64   -5083.5749            0    8155.5274    19.662689     19.75246    20.299824    7884.1768    7749.7701    8150.8851    8565.9269    -608.5111   -196.39246   -60.415315    -3994.896 
37171000    77.619279   -5084.8881   -4935.1928   -5084.8881            0    7373.3454    19.657534    19.723872    20.454685    7930.7454    8020.6419    6888.8517    7210.5425      144.495   -224.70456    368.41483   -4082.3785 
37172000    73.578355    -5088.624    -4946.722    -5088.624            0    6781.8489    19.884741    19.656471    20.394804    7971.5911    6099.1224    7322.9346    6923.4898   -115.24759    216.99476    237.39298   -4158.2813 
37173000    73.128569   -5090.4905   -4949.4559   -5090.4905            0    7121.9732    19.734752    19.780917    20.348058    7943.3016    7241.4137      6583.73     7540.776   -71.426023   -231.44322   -542.38491   -4124.4116 
37174000    72.724615   -5079.6073   -4939.3518   -5079.6073            0     6293.438    19.636324    19.765461    20.401331     7918.185    5536.3821    6799.2747    6544.6572   -1.9912994   -439.51186   -192.97793   -4212.5943 
37175000     74.62638   -5088.1323    -4944.209   -5088.1323            0    6981.6181    19.806085    19.823039    20.224105    7940.3232    6528.4396    7053.1483    7363.2663    234.97351    1042.7771   -365.32268   -4135.7274 
37176000    75.504171   -5095.3269   -4949.7108   -5095.3269            0    7043.0866    19.667099    19.750799    20.435698    7938.0615    7332.2463    7080.8272    6716.1861    251.20954    354.30787    723.45843   -4134.3433 
37177000     74.99674   -5091.7385    -4947.101   -5091.7385            0    5273.8375    19.764137    19.877209    20.419726    8022.0096    4845.1224    5383.1375    5593.2525   -119.23094    540.05587    327.97172      -4330.1 
37178000    77.212315   -5088.2603   -4939.3499   -5088.2603            0    7408.2755    19.728811    19.730591     20.36202    7926.1419    7157.5855    7190.1205    7877.1204   -7.9587697   -257.70197   -517.11403   -4082.9929 
37179000    80.607833   -5090.3411   -4934.8821   -5090.3411            0    6552.8866    19.668626    19.743969    20.497358    7959.8772    7062.8576    6558.9438    6036.8582    84.523515    580.96547    347.04989   -4174.1795 
37180000    78.514237   -5088.7388   -4937.3175   -5088.7388            0    6473.9573    19.864368    19.733363    20.299571    7957.2447    5956.8766    6623.8307    6841.1647    415.15258    927.15216     314.6595   -4186.0261 
37181000    74.950647   -5086.2822   -4941.7335   -5086.2822            0    7569.8869    19.679607    19.712217     20.43101    7925.7751    7010.1516    8237.5504    7461.9588   -98.464102    404.84485   -214.17548   -4066.7356 
37182000    76.863187   -5091.5468   -4943.3097   -5091.5468            0    6266.6232    19.731423    19.843163    20.375773    7977.8048    5237.3646    6832.4966    6730.0085    108.65648   -447.92922   -404.98997      -4214.2 
37183000    74.125779   -5095.2604   -4952.3026   -5095.2604            0    7540.5366    19.813485    19.684853    20.383024       7949.9     7235.007    8028.6688    7357.9341    152.17198    801.34489   -165.68322   -4078.0442 
37184000     74.13964   -5090.3856   -4947.4011   -5090.3856            0    6516.2762    19.701348    19.802132    20.327401    7930.3021    5732.6839    6388.6212    7427.5235   -395.46415    118.13618    821.62275    -4193.759 
37185000     77.03182   -5085.3091   -4936.7468   -5085.3091            0    6894.1687    19.707347    19.812434    20.370483    7953.6654    8020.2744     5478.703    7183.5289   -121.75747   -85.994109   -960.05985   -4137.0504 
37186000    74.901895   -5081.2248   -4936.7702   -5081.2248            0    6903.7847    19.791515    19.808209    20.291704    7955.0472    7297.9653    5966.2543    7447.1346    -166.3136    939.31864    82.323661   -4135.8193 
37187000    73.638578   -5089.3251   -4947.3069   -5089.3251            0    6436.8068    19.659952    19.761957    20.504829    7966.5182    5640.4715    6494.8633    7175.0856   -109.05229   -587.31151   -161.81582   -4199.4561 
37188000    76.737006   -5091.2523   -4943.2585   -5091.2523            0    6421.8426    19.709492    19.776148    20.511506    7994.9303    5829.2946    7089.8841     6346.349    221.56834    173.73976   -609.10733   -4194.4854 
37189000    71.405808   -5091.8677   -4954.1556   -5091.8677            0    6304.1829    19.806682    19.837811    20.293896    7973.9023    6150.7518    6001.8869      6759.91    84.113696     163.0238   -143.58108   -4221.0347 
37190000    81.699442   -5093.9431   -4936.3788   -5093.9431            0    6381.2916    19.780226    19.875166    20.297746    7979.7602     6413.889    5881.0953    6848.8906   -8.8476979    89.045371   -273.17452   -4193.7457 
37191000    75.400847   -5083.6192   -4938.2023   -5083.6192            0    7555.4183    19.703549    19.760252    20.361656    7927.7517    6879.9355     8204.741    7581.5784    40.873056   -829.05371   -121.92274    -4064.659 
37192000    77.311937   -5093.1801   -4944.0776   -5093.1801            0    6471.1505    19.670296    19.814569    20.485072    7984.2294    6858.7279    6017.5019    6537.2217   -422.61159    988.00797   -75.705168   -4190.5652 
37193000    75.969598   -5086.7738     -4940.26   -5086.7738            0    7219.9704    19.631562    19.803381    20.482548    7963.0269    7695.4364    7491.0984    6473.3764   -201.30058    1012.3264   -340.33659   -4101.7862 
37194000     80.83942   -5091.1991   -4935.2935   -5091.1991            0     5838.321    19.823926    19.785161    20.288751    7957.6447    5924.5395    5413.0491    6177.3743    445.47353     -259.002   -546.07312   -4257.7324 
37195000    77.004849   -5087.4567   -4938.9463   -5087.4567            0      7267.65    19.787938    19.689792    20.362282    7933.5599    6982.8488    8130.7754    6689.3257    146.02374    114.40249   -725.88186   -4098.0586 
37196000    76.787117   -5090.8457   -4942.7553   -5090.8457            0    7233.9201    19.592889    19.802934    20.446685    7933.2463    7130.5615      7757.46    6813.7388   -188.16715    1631.1813   -88.998765   -4105.8033 
37197000    75.758971   -5093.2485    -4947.141   -5093.2485            0    5859.8934    19.683441    19.972472    20.317451    7987.3381    5951.6264    4864.5517    6763.5019   -315.20513    246.35515   -895.75067   -4264.5388 
37198000    76.729455   -5086.7976   -4938.8183   -5086.7976            0    7443.2211     19.61861    19.760789    20.459019    7931.5365    7644.0878     8020.182    6665.3934   -220.89295    662.25687    539.73102   -4077.8362 
37199000     77.19659   -5081.4715   -4932.5913   -5081.4715            0    7212.0965    19.696044    19.761668    20.368041    7927.7855     7965.998    6127.2026    7543.0889   -508.03492   -234.36106   -336.58796   -4098.7387 
37200000    77.531629   -5097.8067   -4948.2805   -5097.8067            0    7001.3221    19.762075    19.934316    20.225923    7967.8698    7366.2154    6274.0641    7363.6868   -369.88678    332.76215   -34.112548   -4134.7044 
37201000    76.243659   -5091.5939   -4944.5516   -5091.5939            0    7365.7157    19.752239    19.654399    20.482166    7951.5531    7657.0934    8189.1665    6250.8872   -128.36752   -325.09913    1253.4286   -4090.3845 
37202000    73.870921   -5090.7827   -4948.3164   -5090.7827            0      5832.81    19.892367     19.72648    20.394155    8002.7961    4487.7506    6867.3809    6143.2984   -238.09659    54.440597    979.43975   -4267.5541 
37203000    72.593935   -5088.7974   -4948.7939   -5088.7974            0    7080.1048    19.625606    19.774084    20.470975    7944.3426    7435.8302    7063.2521    6741.2319   -170.56088   -164.16677   -117.20292   -4128.4923 
37204000    78.192524   -5098.4912   -4947.6903   -5098.4912            0    6879.3878    19.740177    19.728772    20.386083    7939.3488    6283.2725    7660.7248     6694.166   -34.670426   -170.66395   -395.49162   -4151.1448 
37205000     74.28599   -5095.1434   -4951.8766   -5095.1434            0    6588.7264    19.721165    19.716266    20.411788    7936.6694    5985.1272    7965.0742    5815.9779    -24.74981   -64.774162   -494.12129   -4189.2435 
37206000    75.140132   -5098.3541     -4953.44   -5098.3541            0    6291.9442    19.757385    19.841468    20.347946    7976.7105    5493.2644    6999.8418    6382.7264   -25.517531    227.14936   -45.400633   -4221.4847 
37207000    75.493348   -5094.6885   -4949.0933   -5094.6885            0    6087.8457    19.737466    19.824201    20.452549     8002.663    6044.3773     6601.112    5618.0477   -247.32929    10.688226     821.1913    -4238.577 
37208000    79.532288   -5092.0221   -4938.6374   -5092.0221            0    6227.4519    19.665548    19.851495    20.342359    7941.4641    5791.5072    6131.1242    6759.7242    65.492531   -430.83039     -447.027   -4217.3857 
37209000    76.328036   -5087.0121   -4939.8071   -5087.0121            0    7686.5144    19.633588    19.795379    20.351844    7909.8323    7082.0047    7732.8214    8244.7172   -141.07005    -173.2596    8.7441456   -4053.1155 
37210000    79.747118   -5084.8742   -4931.0752   -5084.8742            0    7802.4681    19.807437     19.70649    20.340369    7939.5591    7851.5374    7800.0382    7755.8285   -43.791783   -149.14038    68.011226   -4027.6249 
37211000    78.869501   -5093.3575    -4941.251   -5093.3575            0    6770.9623    19.708752    19.756727    20.444852    7960.8255     7572.537    6632.6552    6107.6947   -277.20883   -274.28986    1027.1281   -4155.1391 
37212000    75.664668   -5088.1891   -4942.2634   -5088.1891            0    6524.3654    19.681465    19.707436     20.54202    7967.6578    7006.2668     6876.532    5690.2974   -48.837613    1017.5117    1069.3161   -4184.1314 
37213000    78.988035   -5089.5237   -4937.1886   -5089.5237            0    6319.0898    19.658737    19.765755    20.440307    7942.4852    6301.5307    6600.6082    6055.1306   -504.21821    492.79912     731.0525   -4205.2295 
37214000    75.617587   -5083.7342   -4937.8994   -5083.7342            0    7453.4987    19.754121    19.751424    20.312608    7925.4116    7544.9656    7466.2434     7349.287    506.46641    429.12923   -409.39987   -4076.3942 
37215000    70.085461   -5089.1508   -4953.9851   -5089.1508            0    6830.0158    19.749054    19.835952     20.20945    7916.8762    7475.2761    5384.4853    7630.2862   -668.01891    765.34836    33.134999   -4165.3947 
37216000    71.245934   -5083.8668    -4946.463   -5083.8668            0    6859.5003    19.773001    19.660181    20.434264    7943.6317    7020.0895    7160.7972    6397.6142   -60.156608    18.451702   -85.255345   -4151.7918 
37217000    74.344772    -5093.832   -4950.4519    -5093.832            0    7260.0244    19.701957     19.88201    20.206767    7915.2837    7368.1658    6752.3855    7659.5219   -39.690579    784.79855   -88.731135   -4112.3816 
37218000    76.998384   -5083.6046   -4935.1067   -5083.6046            0    6599.7116    19.675025    19.775089    20.420552     7945.134     6942.904    6756.5674    6099.6634    60.949631    238.12066    908.63456   -4170.3874 
37219000    77.628043   -5090.1626   -4940.4504   -5090.1626            0    6626.5671    19.904065    19.652159    20.364241    7965.6328    4971.2191    7612.3852     7296.097    349.33017    555.99436    499.31451   -4170.6382 
37220000    75.427696   -5094.5043   -4949.0356   -5094.5043            0    7545.1576    19.728951    19.733345    20.410336    7946.1153    7853.0251    7988.4304    6794.0172   -208.59746    468.70461    41.988451   -4074.6579 
37221000    76.464501    -5093.788   -4946.3198    -5093.788            0    5722.6298     19.82591     19.77772    20.339707    7975.4288    4716.2346    6647.4062    5804.2484   -111.13583   -245.36145   -142.79983    -4280.701 
37222000    72.630232   -5089.2804   -4949.2069   -5089.2804            0    6388.2954    19.755011    19.817751    20.277791    7938.7528     6119.494    6540.5296    6504.8627   -304.72838     159.6054    447.81766   -4209.5792 
37223000    73.988885   -5091.3805   -4948.6867   -5091.3805            0    6975.5327    19.732372    19.707341    20.455178    7954.4578    7001.2508    7511.8799    6413.4674    -106.6248    95.431581    548.45244   -4139.4719 
37224000     76.85781   -5094.2989   -4946.0722   -5094.2989            0    6281.8351     19.86384    19.680122    20.415478    7980.8754    5886.9882    6176.0811    6782.4361    173.67196   -64.666531    915.92251   -4214.9113 
37225000    75.667826   -5097.4581   -4951.5263   -5097.4581            0    6022.0467    19.746415    19.830873     20.33803    7964.1416    5621.4715     5876.999    6567.6697   -68.730222   -248.82495    211.03357   -4252.0726 
37226000    78.792871   -5093.7656   -4941.8069   -5093.7656            0    6254.2169    19.640256    19.764172    20.475607    7948.0858    6777.2699    6079.6508    5905.7299   -66.405384    1298.9696    278.24037   -4216.8514 
37227000     84.44721   -5087.3695    -4924.506   -5087.3695            0     7568.257    19.816348    19.789772    20.305937    7963.1969    7523.0812    6836.0249    8345.6649    -66.89267    337.61122     505.4256    -4045.566 
37228000    79.955554   -5084.1809   -4929.9798   -5084.1809            0    8399.2909    19.717221      19.7519    20.314587     7911.568     8033.969    8457.8194    8706.0844    339.83176   -57.388591   -260.11048    -3960.852 
37229000    77.927029   -5085.8745   -4935.5856   -5085.8745            0    7250.7377     19.82196     19.75566    20.273209    7938.9058      7611.15    6749.8613    7391.2018   -383.18994     306.0554   -178.18195   -4096.0894 
37230000    75.518426   -5077.7938   -4932.1502   -5077.7938            0     6803.174    19.702205    19.757611    20.431167      7953.21    6649.0842    7091.5912    6668.8465    346.59861    416.08988    153.34054   -4143.0541 
37231000    80.731625   -5091.3424   -4935.6446   -5091.3424            0    6829.0382    19.656501    19.632521    20.623645     7958.802    6587.1398    7701.3546    6198.6202   -222.68643    417.39035    1330.8371   -4142.9916 
37232000    79.358386   -5092.6543   -4939.6049   -5092.6543            0    6632.8383    19.786667    19.782192    20.292684    7943.0366    5840.5236    6804.4381    7253.5534   -178.91087    46.709266   -245.06518     -4171.25 
37233000    76.973027   -5096.2783   -4947.8294   -5096.2783            0    6317.9941    19.711561    19.819023    20.376069    7960.1943    7162.0261    5927.3718    5864.5844   -548.60037    128.83389    503.15262   -4214.3654 
37234000    78.953766   -5087.3318   -4935.0628   -5087.3318            0    7500.4133    19.802332    19.819597    20.174201    7917.8544    6446.2436    7256.6192    8798.3772   -205.03272    195.46999    188.70154   -4068.9617 
37235000    75.549326   -5094.5959   -4948.8927   -5094.5959            0    7354.4733    19.673753    19.753392    20.385957    7922.4588    7922.7612    7093.6449    7047.0139   -224.72432    128.17849    748.18432     -4099.15 
37236000    73.889127   -5093.0276   -4950.5262   -5093.0276            0    6979.6545    19.669666    19.762932    20.527483     7979.654    8380.7967    6499.7221    6058.4446   -18.183564    18.619568    204.71921   -4138.2684 
37237000    75.478777   -5086.9289   -4941.3618   -5086.9289            0    7582.3824    19.777224    19.759795    20.324853    7942.8286    6661.5226     7781.154    8304.4705   -155.58848   -981.42353    341.74966   -4063.0337 
37238000    78.822638   -5094.4892   -4942.4731   -5094.4892            0    6842.5199     19.83011    19.769825    20.353171    7979.2122    6331.0334    6118.4906    8078.0358    88.410185    81.310021   -159.25552   -4146.2185 
37239000    76.601966   -5091.3758   -4943.6424   -5091.3758            0    6741.0828    19.670727    19.810519     20.45252    7970.0871    6526.7971    6946.9835     6749.468    325.29609    1150.6909    655.39679    -4160.089 
37240000    77.486171    -5092.237   -4942.7984    -5092.237            0    6820.6125    19.807792    19.790128    20.322877    7966.5423    6652.8524    6904.5199    6904.4651    59.181693    274.22284    20.368731   -4150.3534 
37241000    70.699568   -5086.8716   -4950.5215   -5086.8716            0    6149.1578    19.690312    19.782334    20.459247    7969.2928    6256.9959    5951.1426    6239.3348   -113.44083    458.91662     1402.367   -4235.8421 
37242000    80.337033   -5094.2517    -4939.315   -5094.2517            0    7256.1368    19.723947    19.713594    20.336372    7907.3892    7112.1956     7306.637    7349.5777    -31.61184    50.863929    160.83485   -4102.5289 
37243000    78.770143   -5087.6322   -4935.7174   -5087.6322            0    8259.9997    19.623965    19.787614    20.452373    7941.8905    8477.2539    8057.3315    8245.4137   -455.64572   -555.69278    582.69714   -3979.0085 
37244000    78.249172   -5091.4689   -4940.5588   -5091.4689            0     6525.728     19.82039    19.706875    20.437522    7982.8543     5438.463    7759.0214    6379.6997   -207.70893   -328.58967   -68.888804   -4180.8221 
37245000     79.27016   -5088.6167   -4935.7375   -5088.6167            0    6121.8275     19.87441     19.79103    20.304908    7986.6323    6272.5608    5867.8087    6225.1129   -304.46848    346.17865   -97.125256   -4222.6864 
37246000    76.809877    -5085.695   -4937.5607    -5085.695            0    7029.2939    19.496057    19.807525    20.537763    7931.0398    6983.0864    8450.8833    5653.9121    -367.9946    600.10322    235.17423   -4124.5099 
37247000     77.57396   -5089.3255   -4939.7176   -5089.3255            0    7642.7646    19.719715    19.773828    20.312193    7920.4197    7416.6648    7891.4302    7620.1987    145.65651    437.52051   -660.82785   -4056.8927 
37248000    77.805783   -5088.0269   -4937.9719   -5088.0269            0    6310.5768    19.728705    19.811158    20.412608    7978.2368    6549.3378    5476.4072    6905.9853    179.35562    785.89542    544.95659   -4203.7085 
37249000    73.167478   -5089.5278   -4948.4181   -5089.5278            0    6750.9909    19.712152    19.636284    20.521624    7943.3751    6055.9586    7688.3816    6508.6325   -242.77969    189.00318    1165.2807    -4166.343 
37250000    79.902061   -5082.6127   -4928.5148   -5082.6127            0    6629.8291    19.743209    19.786354    20.353394    7950.9744    6370.8258    7022.3531    6496.3084   -73.141041    165.01471    -162.5651    -4159.741 
Loop time of 393.131 on 64 procs for 250000 steps with 972 atoms

Performance: 109.887 ns/day, 0.218 hours/ns, 635.921 timesteps/s
192.7% CPU use with 32 MPI tasks x 2 OpenMP threads

MPI task timing breakdown:
Section |  min time  |  avg time  |  max time  |%varavg| %total
---------------------------------------------------------------
Pair    | 28.817     | 35.968     | 44.895     |  67.8 |  9.15
Bond    | 0.95594    | 1.2513     | 1.8525     |  18.7 |  0.32
Kspace  | 171.09     | 181.33     | 192.6      |  39.2 | 46.13
Neigh   | 0.17215    | 0.18406    | 0.20545    |   2.3 |  0.05
Comm    | 69.605     | 74.627     | 77.863     |  26.4 | 18.98
Output  | 0.58554    | 0.58584    | 0.58719    |   0.0 |  0.15
Modify  | 77.08      | 79.295     | 81.81      |  12.5 | 20.17
Other   |            | 19.89      |            |       |  5.06

Nlocal:        30.3750 ave          37 max          26 min
Histogram: 7 2 4 7 3 1 1 3 2 2
Nghost:        2736.38 ave        2757 max        2709 min
Histogram: 1 1 4 6 1 1 6 4 6 2
Neighs:        9880.78 ave       13139 max        8060 min
Histogram: 4 8 2 4 5 4 1 2 1 1

Total # of neighbors = 316185
Ave neighs/atom = 325.29321
Ave special neighs/atom = 2.0000000
Neighbor list builds = 498
Dangerous builds = 0

unfix		3
unfix		2
unfix		1

write_data	data.final.${pid}
write_data	data.final.1
System init for write_data ...
PPPM initialization ...
  extracting TIP4P info from pair style
  using 12-bit tables for long-range coulomb (../kspace.cpp:340)
  G vector (1/distance) = 0.37247954
  grid = 24 24 24
  stencil order = 5
  estimated absolute RMS force accuracy = 0.00347173
  estimated relative force accuracy = 1.0455012e-05
  using double precision FFTW3
  3d grid and FFT values/proc = 3211 432
Last active /omp style is kspace_style pppm/tip4p/omp
WARNING: Not all mixed pair coeffs generated from mixing. Use write_data with 'pair ij' option to store all pair coeffs. (../write_data.cpp:312)

write_restart   restart.lmp.${pid}
write_restart   restart.lmp.1
System init for write_restart ...
PPPM initialization ...
  extracting TIP4P info from pair style
  using 12-bit tables for long-range coulomb (../kspace.cpp:340)
  G vector (1/distance) = 0.37247954
  grid = 24 24 24
  stencil order = 5
  estimated absolute RMS force accuracy = 0.00347173
  estimated relative force accuracy = 1.0455012e-05
  using double precision FFTW3
  3d grid and FFT values/proc = 3211 432
Last active /omp style is kspace_style pppm/tip4p/omp
Total wall time: 0:06:33
