LAMMPS (30 Jul 2021)
  using 1 OpenMP thread(s) per MPI task
package omp 0
using multi-threaded neighbor list subroutines
echo both

include		in.partitions
variable        pid world 0
include		in.temp
variable        temperature equal 263.63
variable	tempDamp equal 100.0
include		in.pressure
variable        pressure equal 8625.0
variable        pressureDamp equal 1000.0 # This is 1 ps
include		in.seed
variable        seed world 745823

units		real
atom_style	full
read_restart	restart.lmp.${pid}
read_restart	restart.lmp.0
Reading restart file ...
  restart file = 30 Jul 2021, LAMMPS = 30 Jul 2021
  restoring atom style full from restart
  orthogonal box = (0.61718170 1.8184898 0.75296023) to (17.590391 21.810688 21.460236)
  4 by 4 by 4 MPI processor grid
  restoring pair style lj/cut/tip4p/long/omp from restart
  restoring bond style harmonic/omp from restart
  restoring angle style harmonic/omp from restart
  864 atoms
  576 bonds
  288 angles
Finding 1-2 1-3 1-4 neighbors ...
  special bond factors lj:    0        0        0       
  special bond factors coul:  0        0        0       
     2 = max # of 1-2 neighbors
     1 = max # of 1-3 neighbors
     1 = max # of 1-4 neighbors
     2 = max # of special neighbors
  special bonds CPU = 2.126 seconds
  read_restart CPU = 2.536 seconds
include 	in.setup
variable	out_freq equal 1000
variable	out_freq2 equal 10000
variable	out_freq3 equal 1000

timestep	2.0

neigh_modify    delay 7 every 1

include		in.tip4p
# This is TIP4P/Ice

# create groups ###
group ox type 2
288 atoms in group ox
group hy type 1
576 atoms in group hy

# set charges - beside manually ###
set group ox charge -1.1794
Setting atom values ...
  288 settings made for charge
set group hy charge 0.5897
Setting atom values ...
  576 settings made for charge

# ### TIP3P Potential Parameters ###
pair_style lj/cut/tip4p/long/omp 2 1 1 1 0.1577 8.5
pair_coeff 1 1*2 0.000 0.000
pair_coeff 2 2 0.21084 3.1668
bond_style  harmonic
bond_coeff  1 450 0.9572
angle_style harmonic
angle_coeff 1 55 104.52
kspace_style pppm/tip4p/omp 1.0e-5
pair_modify tail yes

thermo          ${out_freq}
thermo          1000
thermo_style    custom step temp pe etotal epair emol press lx ly lz vol pxx pyy pzz pxy pxz pyz enthalpy

restart 	${out_freq3} restart.lmp.${pid} restart2.lmp.${pid}
restart 	1000 restart.lmp.${pid} restart2.lmp.${pid}
restart 	1000 restart.lmp.0 restart2.lmp.${pid}
restart 	1000 restart.lmp.0 restart2.lmp.0


include         in.dump
dump            myDump all atom ${out_freq2} dump.water.${pid}
dump            myDump all atom 10000 dump.water.${pid}
dump            myDump all atom 10000 dump.water.0
dump            myDump2 all dcd ${out_freq2} dump.dcd
dump            myDump2 all dcd 10000 dump.dcd
dump_modify     myDump append yes
dump_modify     myDump2 append yes


variable natoms 	equal  "count(all)"                        # NUMBER ATOMS
variable H      	equal  "enthalpy/v_natoms"                 # ENTHALPY-per-atom
variable Vol      	equal  "vol/v_natoms"                 # volume-per-atom
fix AVG all 		ave/time ${out_freq} 1 ${out_freq} v_Vol v_H file vol_enthalpy.dat
fix AVG all 		ave/time 1000 1 ${out_freq} v_Vol v_H file vol_enthalpy.dat
fix AVG all 		ave/time 1000 1 1000 v_Vol v_H file vol_enthalpy.dat


timer           timeout 23:50:00 every 1000
New timer settings: style=normal  mode=nosync  timeout=23:50:00

fix 		1 all shake 1e-6 200 0 b 1 a 1
       0 = # of size 2 clusters
       0 = # of size 3 clusters
       0 = # of size 4 clusters
     288 = # of frozen angles
  find clusters CPU = 0.800 seconds
fix             2 all nph iso ${pressure} ${pressure} ${pressureDamp}
fix             2 all nph iso 8625 ${pressure} ${pressureDamp}
fix             2 all nph iso 8625 8625 ${pressureDamp}
fix             2 all nph iso 8625 8625 1000
fix             3 all temp/csvr ${temperature} ${temperature} ${tempDamp} ${seed}
fix             3 all temp/csvr 263.63 ${temperature} ${tempDamp} ${seed}
fix             3 all temp/csvr 263.63 263.63 ${tempDamp} ${seed}
fix             3 all temp/csvr 263.63 263.63 100 ${seed}
fix             3 all temp/csvr 263.63 263.63 100 745823

run             250000
PPPM initialization ...
  extracting TIP4P info from pair style
  using 12-bit tables for long-range coulomb (../kspace.cpp:340)
  G vector (1/distance) = 0.37427022
  grid = 24 24 24
  stencil order = 5
  estimated absolute RMS force accuracy = 0.0031600191
  estimated relative force accuracy = 9.5163036e-06
  using double precision FFTW3
  3d grid and FFT values/proc = 2535 216
Last active /omp style is kspace_style pppm/tip4p/omp
Neighbor list info ...
  update every 1 steps, delay 7 steps, check yes
  max neighbors/atom: 2000, page size: 100000
  master list distance cutoff = 10.8154
  ghost atom cutoff = 10.8154
  binsize = 5.4077, bins = 4 4 4
  1 neighbor lists, perpetual/occasional/extra = 1 0 0
  (1) pair lj/cut/tip4p/long/omp, perpetual
      attributes: half, newton on, omp
      pair build: half/bin/newton/omp
      stencil: half/bin/3d
      bin: standard
Per MPI rank memory allocation (min/avg/max) = 9.237 | 9.239 | 9.241 Mbytes
Step Temp PotEng TotEng E_pair E_mol Press Lx Ly Lz Volume Pxx Pyy Pzz Pxy Pxz Pyz Enthalpy 
18750000     277.5442   -3862.8359   -3387.1346   -3862.8359            0    9936.8091    16.973209    19.992198    20.707275    7026.6362    8257.0726    11416.484    10136.871    410.75388    876.44133    -259.3451   -2368.8474 
18751000    260.86945   -3846.1077   -3398.9864   -3846.1077            0    8739.5828    16.907518    19.914823    20.627132    6945.3662    9578.2456    10064.041    6576.4615    673.69209    215.50154   -147.23997   -2513.7449 
18752000    255.63726   -3853.8994   -3415.7459   -3853.8994            0    8572.4015    16.957312    19.973474    20.687881    7006.9114    10597.387    6993.7055    8126.1123    1570.5896    1743.3307   -855.86379    -2539.744 
18753000    265.78569   -3867.8899   -3412.3424   -3867.8899            0    7696.5817    16.967671    19.985675    20.700518    7019.7599    8442.0709     9716.703    4930.9713   -1196.6897    1270.6017   -364.19344   -2624.3971 
18754000    248.51158    -3880.179   -3454.2387    -3880.179            0    7707.0776    17.023927    20.051937    20.769151    7089.8133    7341.8217    8109.0578    7670.3533    376.73243    768.98194   -726.11511   -2657.3449 
18755000    267.76165   -3839.9749   -3381.0406   -3839.9749            0     8121.118    16.972743    19.991649    20.706707    7026.0572    8843.4721    8067.3334    7452.5486   -738.10169   -797.67379   -346.09334   -2548.8872 
18756000    269.04507   -3859.4257   -3398.2917   -3859.4257            0    7199.0257    17.018595    20.045657    20.762646    7083.1541    9842.0486    5517.7861    6237.2424    915.62764   -205.97355   -354.05394   -2654.6284 
18757000    281.19104   -3888.2082   -3406.2564   -3888.2082            0    8490.1475    16.978914    19.998918    20.714235    7033.7237    7264.8573    10188.859    8016.7262   -410.49286    -566.7963    1255.0182   -2535.3401 
18758000    278.23559   -3888.5282   -3411.6419   -3888.5282            0    8221.8459    17.030259    20.059396    20.776876    7097.7282    9441.9792    8699.7857    6523.7726   -952.23469    1637.9366    272.82033   -2560.5733 
18759000    271.52419   -3869.4657   -3404.0825   -3869.4657            0    6262.1057    17.035701    20.065806    20.783516    7104.5347    6590.8542     6342.521     5852.942   -394.08602    781.98434   -334.13216    -2755.251 
18760000    268.15069   -3850.0916   -3390.4905   -3850.0916            0    9980.5108    16.957726    19.973962    20.688386    7007.4249     10350.99     9177.459    10413.083   -1903.3702   -96.943142    249.68482   -2370.5212 
18761000    270.47955   -3887.8895   -3424.2969   -3887.8895            0    8725.8426    16.978701    19.998668    20.713976    7033.4597    11608.853    7595.5566    6973.1182    1700.1795   -739.28868   -504.99478   -2529.2366 
18762000    266.16086   -3831.4864   -3375.2958   -3831.4864            0    10112.335    16.912404    19.920578    20.633094      6951.39    12275.958    9407.1058    8653.9398   -236.15866    1466.4525     -984.941   -2350.1186 
18763000    280.17814   -3861.3977    -3381.182   -3861.3977            0    9447.7453    16.960952    19.977761    20.692321    7011.4242    8799.7959    8470.4538    11072.986   -2120.8773   -311.46589   -905.77492   -2415.1082 
18764000    270.37714   -3899.5166   -3436.0994   -3899.5166            0    8868.5979    16.921049    19.930761     20.64364    6962.0548    9098.5462    8863.9249    8643.3225   -238.65177   -129.30627   -355.60565   -2535.6314 
18765000     258.7384   -3864.0701   -3420.6013   -3864.0701            0    9281.0756    16.963204    19.980414    20.695069    7014.2178    8686.1838    8890.4404    10266.603   -27.332058    408.94818   -1261.4202   -2471.1921 
18766000    269.95423   -3879.6735   -3416.9812   -3879.6735            0    8058.0432    16.987021    20.008467    20.724126    7043.8037    7938.4187    8356.0624    7879.6485    -23.19473   -295.58499   -33.202301   -2589.2054 
18767000    260.31362   -3850.2986     -3404.13   -3850.2986            0    8012.8582    16.973785    19.992876    20.707978    7027.3511    6438.5992    9278.3817    8321.5937    745.35746    -346.2765    463.89523   -2582.9185 
18768000     250.9793    -3880.056    -3449.886    -3880.056            0    6790.1824    17.007738    20.032869    20.749401    7069.6073    8485.2207    6596.7728    5288.5538   -460.90346    619.37396    274.35031    -2749.798 
18769000    262.02908   -3864.8325   -3415.7236   -3864.8325            0     8092.428    16.985276    20.006411    20.721997    7041.6329    8186.3528    7702.3524    8388.5786   -1617.1293   -818.77274   -378.22919   -2584.6718 
18770000    252.14351   -3869.5926   -3437.4273   -3869.5926            0    8264.9106    16.966549    19.984353     20.69915    7018.3677    7161.1152    8630.0155    9003.6011   -151.35001   -1225.7523    347.60914   -2591.4666 
18771000    260.88764   -3898.6485    -3451.496   -3898.6485            0     9451.965    16.964563    19.982014    20.696727    7015.9034    9249.7323    8109.2145    10996.948    326.45462   -644.83933    -269.8037   -2484.3733 
18772000    277.95195   -3852.9428   -3376.5427   -3852.9428            0    8541.5327    16.937109    19.949677    20.663233    6981.8969    8426.5472    8053.3244    9144.7265    -419.9228   -275.46707   -267.07342   -2506.8113 
18773000    255.78768   -3876.8743    -3438.463   -3876.8743            0    8646.4386    16.963336    19.980569     20.69523    7014.3814     8172.809    8544.5606    9221.9461    963.30638   -308.27754    -47.55879   -2553.9535 
18774000    283.44654   -3849.6103   -3363.7926   -3849.6103            0    7346.9411    16.994521    20.017301    20.733276    7053.1381     7433.131    8066.4929    6541.1995   -320.15978    408.24075   -1358.9843   -2608.0658 
18775000     267.5815   -3854.9458   -3396.3202   -3854.9458            0    6890.6733    17.021006    20.048497    20.765588    7086.1656    6769.1139    5873.3719     8029.534    170.80452    64.400404   -271.41164   -2684.2073 
18776000    270.09828   -3825.0744   -3362.1352   -3825.0744            0    7113.9263    17.035119     20.06512    20.782805    7103.8057    6452.4605    7046.2153    7843.1031   -1302.0634   -36.898293   -515.42835   -2625.1202 
18777000    264.49785   -3843.1871   -3389.8468   -3843.1871            0    8861.4514    16.968611    19.986783    20.701666    7020.9275    8020.3691    8289.6343    10274.351   -965.53763   -1402.7907      1263.93    -2482.496 
18778000     256.5813   -3855.2429   -3415.4714   -3855.2429            0    8666.0313    16.999715    20.023419    20.739613    7059.6068    6928.6128    9752.8132    9316.6679   -747.96916   -513.73941   -2574.1783   -2523.2417 
18779000    262.34341   -3885.3043   -3435.6567   -3885.3043            0    8951.8035     16.91483    19.923436    20.636053    6954.3817     10017.16    7792.2931    9045.9575   -482.60019    -1296.042   -468.95246   -2527.7422 
18780000    282.44202   -3865.3468   -3381.2508   -3865.3468            0    8249.1946    16.981204    20.001615    20.717029    7036.5697    8638.4564    8218.5647    7890.5626    326.70557    -501.9677    1559.6412    -2534.709 
18781000    268.62948    -3844.369   -3383.9473    -3844.369            0    8265.7422    16.973416    19.992442    20.707528    7026.8935    9629.7094    7324.0626    7843.4546    26.369324    1046.3106    -402.1752   -2536.8737 
18782000    262.14834   -3845.0068   -3395.6935   -3845.0068            0    10743.657    16.957252    19.973403    20.687808    7006.8375     10354.31    11105.278    10771.383    951.86998   -1003.9246   -1069.9792   -2297.8257 
18783000    270.55398   -3882.0053   -3418.2851   -3882.0053            0    7034.0707    17.040611    20.071589    20.789506    7110.6796    8750.5542    5869.5652    6482.0926   -523.44106    529.70714    386.29035   -2688.8381 
18784000    258.32003   -3883.9126   -3441.1609   -3883.9126            0    9317.4056    16.942457    19.955976    20.669757    6988.5122    8240.3976    9689.4357    10022.384    -1296.977   -2197.6221    1950.4647   -2491.5283 
18785000    249.02538   -3851.8739    -3425.053   -3851.8739            0    10604.962    16.895106    19.900203     20.61199    6930.0819    12234.755    10346.307    9233.8247    661.95184    31.324138   -531.93283   -2353.2292 
18786000    244.85269   -3848.6037   -3428.9346   -3848.6037            0    9193.7007    16.984189    20.005131    20.720671    7040.2815    8958.1856    10464.931    8157.9859    1647.6376    1538.6879     85.65847   -2484.9688 
18787000    269.78058   -3847.5171   -3385.1224   -3847.5171            0    7873.5372    16.990156     20.01216    20.727951     7047.705    7030.6362    5882.4086    10707.567   -261.40507   -699.20465    -1906.993   -2575.8523 
18788000    262.98162   -3857.0405    -3406.299   -3857.0405            0    9750.9275    16.917238    19.926272    20.638991    6957.3521    10066.372    9735.2849    9451.1258   -328.15056    1383.7317     267.2008   -2416.9129 
18789000    268.18392   -3844.2414   -3384.5833   -3844.2414            0    8772.4526    16.904466    19.911228    20.623409    6941.6059    8069.2047     8341.685    9906.4682    1206.1141   -634.23066    1019.2229   -2496.4935 
18790000    266.02183   -3864.1134    -3408.161   -3864.1134            0    8276.3746    16.969959     19.98837     20.70331    7022.6004    8733.9273    7270.5977    8824.5987    41.459799   -952.48919   -313.82971   -2560.5161 
18791000    251.22418   -3839.1681   -3408.5784   -3839.1681            0    7714.8749     16.93174    19.943353    20.656683    6975.2592    6721.4104    7392.8238    9030.3903   -1260.7214    596.12217   -497.69096   -2623.7673 
18792000    262.19999   -3864.9865   -3415.5847   -3864.9865            0    8953.0739    16.912552    19.920752    20.633274    6951.5722    9968.3538    8926.1669    7964.7009    486.80808    479.57997    91.240387   -2507.9082 
18793000    280.70229   -3882.6342   -3401.5201   -3882.6342            0     9666.996    16.897573    19.903109       20.615    6933.1178    9693.8342    9620.4305    9686.7234    412.64845     517.3021    143.36965   -2424.0668 
18794000    266.55945   -3861.7788    -3404.905   -3861.7788            0    10354.333    16.889596    19.893713    20.605268    6923.3036    9650.2517    9257.0097    12155.737    899.00542    145.53452   -620.53241   -2359.4355 
18795000    257.77442   -3923.9013   -3482.0848   -3923.9013            0    6544.8569    17.005086    20.029745    20.746165    7066.3004    6291.9974      6259.49    7083.0832    85.770942   -853.90386    738.31493   -2807.6062 
18796000    265.28341   -3843.9997    -3389.313   -3843.9997            0    10476.404    16.956708    19.972762    20.687144    7006.1621     10305.23    10312.947    10811.036     201.7412    532.02903   -1387.0668   -2318.8582 
18797000    254.09055    -3871.942   -3436.4395    -3871.942            0    8730.5052    16.941523    19.954876    20.668618    6987.3568    8952.1585    7568.7005    9670.6568   -1347.6967   -987.44681    1141.4667   -2546.7711 
18798000    260.56243   -3848.8677   -3402.2726   -3848.8677            0    10974.599    16.911579    19.919606    20.632086    6950.3717    9872.6282    11748.198     11302.97    126.07623   -339.80181   -1763.5514   -2289.8429 
18799000    259.77321   -3860.7523   -3415.5099   -3860.7523            0    8201.1289    16.934548     19.94666    20.660109    6978.7298     7715.397     8527.646    8360.3437    227.36946    1310.8005   -376.84599   -2580.8185 
18800000    257.04176   -3889.1122   -3448.5514   -3889.1122            0    8279.0759    16.989853    20.011802    20.727581    7047.3273    5697.8364     11003.71    8135.6815   -516.36448    1147.7146   -517.50242   -2597.6442 
18801000    260.82478   -3845.7726   -3398.7279   -3845.7726            0    9404.1687    16.979847    20.000017    20.715374     7034.884    6345.6179    13530.602    8336.2862    538.62466    124.84239   -404.44545   -2433.8924 
18802000    260.09153   -3848.1958   -3402.4079   -3848.1958            0    10514.749    16.954935    19.970674    20.684982    7003.9656    9982.0253     11494.21    10068.011    459.84325    775.12744   -904.67954    -2328.372 
18803000     260.5838   -3871.2422   -3424.6104   -3871.2422            0    8480.2744     17.04139    20.072506    20.790456    7111.6538    8451.5804    9848.6697    7140.5731    42.909971   -949.91354    353.11539   -2545.0688 
18804000    275.95495   -3871.1871   -3398.2098   -3871.1871            0     8779.158       17.019    20.046133     20.76314    7083.6594    8300.3259    9206.1134    8831.0347    2028.2052    865.87099    -334.7101   -2491.2534 
18805000    269.48625   -3892.3404   -3430.4502   -3892.3404            0    8320.2748    17.023954     20.05197    20.769185    7089.8482    6221.9696    9793.2383    8945.6165    49.215336   -912.68175    608.26804   -2570.1491 
18806000    277.33554   -3875.5548   -3400.2112   -3875.5548            0    7816.8894    17.001931    20.026029    20.742317    7062.3684    7893.1841    6406.9834    9150.5008    79.032044   -802.07645    52.775392   -2595.0919 
18807000    272.09682    -3897.247   -3430.8824    -3897.247            0     7871.184    16.978615    19.998566    20.713871    7033.3526    8190.5233       8323.4    7099.6287   -72.886656   -1606.8984   -831.77133   -2623.5017 
18808000    259.71813    -3879.105    -3433.957    -3879.105            0    8197.4331    17.019543    20.046773    20.763802    7084.3376    7740.4442    8110.9708    8740.8842    10.221406   -24.487455    -1257.038   -2587.0163 
18809000    264.80093   -3884.0504   -3430.1906   -3884.0504            0    8702.2537    16.988618    20.010348    20.726075    7045.7913    9197.9705    8886.1542    8022.6365    1394.3944   -1937.2816    19.610348    -2535.985 
18810000    256.56115   -3926.1483   -3486.4113   -3926.1483            0    7249.9786    16.993597    20.016213    20.732149    7051.9879    6303.1471    7728.5187    7718.2701     251.7708    -1614.326   -358.87594   -2740.7799 
18811000    262.92447   -3904.4208   -3453.7773   -3904.4208            0    8090.2948    16.919732    19.929209    20.642033    6960.4289    9600.2168     6484.747    8185.9205   -1184.1281   -330.60157    2192.8777   -2632.5256 
18812000    261.45761   -3869.5345   -3421.4051   -3869.5345            0    6483.1559    17.003977    20.028439    20.744812    7064.9175    5904.2051    8461.5193    5083.7432   -594.44498    892.92278   -510.96489   -2753.4159 
18813000    277.62592   -3895.7168   -3419.8755   -3895.7168            0    8675.0852    16.949176    19.963891    20.677955    6996.8309    9195.2751    7907.9338    8922.0466   -496.41226   -991.33786    -1058.138   -2534.6559 
18814000    265.34923   -3882.4073   -3427.6078   -3882.4073            0    9150.2993     16.92701    19.937782    20.650913    6969.4153    8972.2172    8636.5307    9842.1501    884.34845   -2153.2062   -1434.3841   -2497.5552 
18815000    252.43807   -3896.6972   -3464.0269   -3896.6972            0    9845.5638    16.967067    19.984963    20.699782    7019.0105    8960.9529    9626.5456    10949.193   -239.67353    853.21863   -1204.7326   -2456.1851 
18816000    275.15655   -3869.7223   -3398.1134   -3869.7223            0    7267.7298    17.008345    20.033584    20.750141    7070.3636     5338.939    7949.1324    8515.1181    690.79472    708.21916    291.64732   -2648.7087 
18817000    257.82851   -3900.4667   -3458.5574   -3900.4667            0    7162.8109     16.93294    19.944767    20.658147    6976.7425    7099.6899    7641.7075    6747.0353   -1082.9554    352.06316   -65.153469   -2729.7512 
18818000    269.76603   -3899.3681   -3436.9984   -3899.3681            0    6826.2257    16.979717    19.999864    20.715216    7034.7224    4343.3724    7539.7802    8595.5245    1292.0016    667.44288   -934.15858   -2736.6671 
18819000    251.34125   -3911.0072   -3480.2169   -3911.0072            0    7183.4774    16.990794    20.012911    20.728729    7048.4986    6630.7093    7014.1916    7905.5314   -841.97145   -213.90262   -1672.8073   -2741.7904 
18820000     253.8346   -3873.3682   -3438.3044   -3873.3682            0    7796.1563    17.008522    20.033792    20.750357    7070.5845    5519.2216    8352.7716    9516.4757   -990.29577   -237.13949   -52.381323   -2634.3864 
18821000    258.56022   -3881.2496   -3438.0863   -3881.2496            0    9095.4927    17.037758    20.068229    20.786025    7107.1084    7972.2638    11750.739    7563.4755    466.59759    1687.0484   -90.234625   -2495.3395 
18822000    274.56753   -3824.2366   -3353.6372   -3824.2366            0    8853.7055    17.039611    20.070411    20.788286    7109.4273    7678.4263     9439.701    9442.9893   -682.58824   -790.61077   -23.684548   -2435.6522 
18823000    269.47799   -3907.4629   -3445.5869   -3907.4629            0    8793.0102    17.003053    20.027351    20.743685    7063.7667    8690.1172    8768.3599    8920.5536   -3.4811661    1943.7981    664.39084   -2539.7504 
18824000     267.9555   -3883.4259   -3424.1593   -3883.4259            0    8560.5998    16.926325    19.936975    20.650077    6968.5694    9102.0424    9291.8536    7287.9034    1693.1588    1815.4644   -579.66421   -2554.1504 
18825000    272.16674   -3887.2596   -3420.7752   -3887.2596            0    9058.8899    17.001687    20.025741    20.742018    7062.0637    9503.5293    10408.073    7265.0671   -519.39023   -294.23039   -722.26663   -2487.7733 
18826000     259.2245   -3868.2633   -3423.9614   -3868.2633            0    7661.4921    17.047389    20.079573    20.797775     7119.168    7787.8299    7965.2644    7231.3821   -2119.1663   -1609.6334    561.95363   -2628.5011 
18827000    257.89544   -3894.2567   -3452.2328   -3894.2567            0    7764.1106    17.045215    20.077012    20.795123    7116.4444    7014.2084    7794.0896     8484.034    946.45584    936.31804     1332.966   -2646.4265 
18828000    276.09752   -3845.8723   -3372.6506   -3845.8723            0    9262.7008    17.066167    20.101691    20.820684    7142.7191    9576.8325    9079.2163    9132.0536   -944.03889   -1304.4328   -906.72809   -2407.7622 
18829000    260.88451   -3860.8326   -3413.6854   -3860.8326            0    10051.231    16.948097    19.962619    20.676638    6995.4938    8945.2821    10278.497    10929.913    709.17724   -696.07185    883.94892   -2388.2378 
18830000    271.75334   -3855.7867   -3390.0108   -3855.7867            0    8430.3992    17.073326    20.110123    20.829418    7151.7112    8492.1836    8367.7988    8431.2152    944.48464   -845.47139   -439.02424    -2510.717 
18831000     251.1595    -3872.656   -3442.1772    -3872.656            0    7542.3632    17.071538    20.108017    20.827236    7149.4646     7127.322     8044.526    7455.2416   -141.22433   -1063.8868   -1164.9993    -2655.753 
18832000    264.11946   -3901.5825   -3448.8907   -3901.5825            0    10168.869    16.967044    19.984937    20.699755    7018.9829    9992.9393     11210.71    9302.9582    -1334.713    1228.0513    169.05893   -2407.9578 
18833000    265.31245   -3918.7009   -3463.9645   -3918.7009            0    8320.5693     17.01573    20.042282    20.759151    7079.5775    9846.9408    7179.5585    7935.2085    726.99055    394.22634    665.48826   -2604.8792 
18834000    274.39897   -3856.2847   -3385.9742   -3856.2847            0    8707.9472    16.984374    20.005349    20.720896    7040.5115    7754.9721    9703.6659    8665.2037    1308.7601    545.19927   -451.54305   -2491.8541 
18835000    269.67871   -3874.7178   -3412.4978   -3874.7178            0    10131.018    16.887838    19.891642    20.603123    6921.1417    10659.161    9754.9497    9978.9442     8.622823   -468.81007    384.68205   -2389.8955 
18836000    272.56616   -3881.7768   -3414.6078   -3881.7768            0    8497.6668    16.990265    20.012288    20.728083    7047.8399    9968.1443    5799.6979    9725.1582   -625.74598     871.7138   -1007.2692   -2541.1707 
18837000    246.34129    -3863.529   -3441.3084    -3863.529            0     7111.311     17.03594    20.066086    20.783806    7104.8327    6119.2402    8998.4116    6216.2811   -366.85917    534.09543    817.38229   -2704.4579 
18838000    279.74744    -3830.258   -3350.7805    -3830.258            0    9043.5737    16.896658    19.902032    20.613884    6931.9919    8538.2777    9829.8619    8762.5815   -731.33439   -1229.9723   -1763.8866   -2436.5114 
18839000    249.57568   -3866.3264   -3438.5622   -3866.3264            0    8344.7141    16.989433    20.011308    20.727068    7046.8048    8617.3398    8589.8444    7826.9582   -756.32529    456.47759    460.20798   -2580.9725 
18840000    264.50739   -3856.4001   -3403.0435   -3856.4001            0    8612.1412    16.962962    19.980129    20.694774    7013.9178    8295.5057    8527.0704    9013.8474    -1505.537   -629.11913   -1210.0676   -2522.1007 
18841000    259.67566   -3886.9981   -3441.9229   -3886.9981            0    11130.809    16.911649    19.919689    20.632173     6950.459     9723.142    10751.473    12917.813   -1461.9865   -1699.0303   -1019.1628   -2313.6449 
18842000    267.77384   -3852.6839   -3393.7287   -3852.6839            0    10623.803     16.98449    20.005486    20.721038    7040.6557    10067.403    10475.097    11328.909    504.58681    192.97222    1453.2109   -2302.8687 
18843000    263.14071   -3899.4976   -3448.4835   -3899.4976            0    9131.4597    16.953626    19.969132    20.683384    7002.3428    10085.149     6971.692    10337.538    1594.4807    611.68513   -1156.7271   -2515.9607 
18844000    251.81154   -3856.6607   -3425.0643   -3856.6607            0    8350.0848     16.96422     19.98161    20.696309    7015.4781    8671.0049    7980.9678    8398.2818     300.8877   -540.56401    -713.3591   -2570.7375 
18845000     265.2585   -3891.4558   -3436.8118   -3891.4558            0    8516.1596    16.967866    19.985904    20.700756     7020.002    8391.6503    7583.7492    9573.0791    380.34451    1054.9879    56.485003   -2564.9314 
18846000    275.08637   -3879.1335   -3407.6449   -3879.1335            0    10189.007    17.014639    20.040997     20.75782    7078.2159    9836.8401    9597.8677    11132.314     649.4251   -283.28254    175.94268   -2355.8488 
18847000    258.26974   -3850.6034   -3407.9379   -3850.6034            0    9352.4919      16.9908    20.012918    20.728737    7048.5063     7249.633    10946.819    9861.0237    559.41642    1775.7007    680.14383   -2446.5463 
18848000    254.01973   -3868.6868   -3433.3057   -3868.6868            0    8642.4893    16.930545    19.941945    20.655225    6973.7822    9554.0188    8256.1899    8117.2591    635.75505   -1554.1131   -171.90477   -2554.3174 
18849000    257.91148   -3840.0725    -3398.021   -3840.0725            0    8579.3783    17.000269    20.024071    20.740289    7060.2971    7265.0478     7981.037     10492.05    1192.8461   -2193.0319    151.47537   -2514.6265 
18850000    259.12416   -3862.5376   -3418.4077   -3862.5376            0    5254.3934    17.063406    20.098439    20.817316    7139.2533    5421.8856    5000.4284    5340.8662   -1380.1343    -950.3535    1078.3352   -2871.3271 
18851000    252.69903   -3881.4592   -3448.3417   -3881.4592            0    8518.3688    17.044273    20.075903    20.793974    7115.2647    10375.694    6683.9335     8495.479   -228.14595   -131.23829   -1578.5267   -2564.4005 
18852000    274.28855   -3858.7415   -3388.6203   -3858.7415            0    7408.2812    16.983334    20.004124    20.719627    7039.2179    6059.5023    8549.7948    7615.5465    706.16644   -955.81213   -1239.7973   -2628.0878 
18853000    262.72328   -3850.6379   -3400.3392   -3850.6379            0     7970.161    17.030626    20.059827    20.777323    7098.1863    5882.8815    8917.7521    9109.8496   -1185.1059    124.40119   -168.69874     -2575.27 
18854000     256.8964   -3842.7755   -3402.4639   -3842.7755            0    8749.9736    17.002725    20.026964    20.743284    7063.3571    7808.8952    9423.9017    9017.1238    1026.3426   -208.20659    159.59014   -2501.1132 
18855000    271.06575   -3840.5797   -3375.9823   -3840.5797            0    7584.8937     16.97268    19.991575     20.70663    7025.9793    8920.6717    6460.5188    7373.4905    637.60139   -1064.1804    260.13453   -2598.7833 
18856000    245.69519   -3844.7938   -3423.6806   -3844.7938            0    8912.8917    16.958566    19.974951    20.689411    7008.4663     8356.654    8141.9879    10240.033    74.838117   -39.858209   -399.16523   -2512.6825 
18857000    260.07694   -3877.6571   -3431.8942   -3877.6571            0    9017.3511    16.961858    19.978829    20.693428    7012.5486    7294.5616    9475.4623    10282.029   -1013.5243    251.28068    282.26412   -2509.6822 
18858000    255.83216   -3871.4727   -3432.9851   -3871.4727            0    8557.1179     17.00218    20.026322     20.74262    7062.6782    10605.538    5735.8282    9329.9873    1169.9606   -468.64972   -200.82442   -2551.5856 
18859000    257.47562   -3880.9091   -3439.6047   -3880.9091            0    5884.3327     17.02889    20.057783    20.775206    7096.0168    4083.7308    6992.1698    6577.0975    697.37103   -787.86862    -7.133585   -2830.6461 
18860000    261.14926   -3870.7034   -3423.1025   -3870.7034            0      8239.83    16.971826    19.990569    20.705588    7024.9181    6553.5809    9584.7056    8581.2033    345.58158    2068.9472     479.3613   -2578.9218 
18861000    269.55382   -3882.8211   -3420.8151   -3882.8211            0    7780.3541    17.027933    20.056656    20.774039    7094.8206    7849.7701    8950.9861    6540.3061    265.25339   -1106.2271   -1.4077466   -2615.7766 
18862000    258.25256    -3877.119    -3434.483    -3877.119            0    7574.4717    17.072374    20.109001    20.828256    7150.5151     7990.014     7466.578    7266.8233    626.36392   -1087.8272   -309.16633   -2644.5949 
18863000    260.58826   -3891.5165   -3444.8772   -3891.5165            0    8287.0026    16.982013    20.002569    20.718017    7037.5764     7845.295    7826.4581    9189.2546   -1449.6338    511.05331    414.02359   -2594.3338 
18864000    272.73674   -3862.1262   -3394.6648   -3862.1262            0     10788.33    16.921543    19.931342    20.644243    6962.6644    10715.614    9554.9384    12094.438   -1846.2436   -522.68707   -146.02958   -2299.1819 
18865000    264.22207   -3864.8635   -3411.9959   -3864.8635            0    9251.4728    16.987302    20.008798    20.724469    7044.1536    8906.3297    9583.8869    9264.2019    1848.4018   -2.1865248    1131.9377   -2461.5759 
18866000    258.95575   -3893.8214   -3449.9801   -3893.8214            0    9471.8512    16.928306    19.939309    20.652494    6971.0167    7450.5529    9015.9083    11949.093    808.76181    953.10982    2226.0335   -2487.0231 
18867000     259.7144   -3904.8293   -3459.6877   -3904.8293            0    6411.1369    16.976104    19.995608    20.710807    7030.2316    6461.4119    7826.3134    4945.6853    763.17328    36.103406   -663.47629    -2802.362 
18868000     262.9725   -3882.2301   -3431.5042   -3882.2301            0    6745.4275    16.928128    19.939099    20.652277    6970.7967    6506.6506    6156.3254    7573.3065      667.129    850.46038    797.25253   -2745.7511 
18869000    271.42133   -3858.2191   -3393.0122   -3858.2191            0     8534.885    16.934274    19.946338    20.659775    6978.3916    9377.3373    9230.2517     6997.066    1673.8461   -1273.1085   -330.96396   -2524.3941 
18870000    256.92357   -3858.0355   -3417.6773   -3858.0355            0    8635.5953    16.974126    19.993278    20.708394    7027.7753    7588.3524    9324.5271    8993.9063    1615.7247    386.35534    66.200933   -2532.5901 
18871000    266.01575   -3890.3581   -3434.4162   -3890.3581            0    8051.9519    16.939771    19.952812    20.666481     6985.189    7419.7242    7319.3788    9416.7526   -540.67264    483.33184   -227.81863   -2614.1493 
18872000    284.47464   -3884.7832   -3397.2034   -3884.7832            0    7075.4731    17.014687    20.041054    20.757878    7078.2758     8343.571    5629.7833    7253.0651   -195.78467    1477.3984   -247.46286   -2666.8066 
18873000    250.32282   -3868.8868   -3439.8421   -3868.8868            0    9845.2151    16.925458    19.935954    20.649019    6967.4982    10889.463    10749.307     7896.875    -1221.022    20.323364    -763.9808   -2439.4322 
18874000    269.25627   -3856.5104   -3395.0144   -3856.5104            0    8646.2831    16.966408    19.984187    20.698978    7018.1929    9869.3326    8516.0355    7553.4814   -1529.5128   -482.96214    352.85199   -2510.0401 
18875000    277.52024   -3841.7615   -3366.1013   -3841.7615            0    9634.4431    17.032131      20.0616     20.77916    7100.0683    10634.895    9780.8611    8487.5734   -252.47029    589.18998   -218.83372   -2368.4816 
18876000    260.39003   -3854.0066    -3407.707   -3854.0066            0    8293.2201    16.997336    20.020616     20.73671    7056.6428     8796.478     7158.554    8924.6284    261.04309   -715.65123    413.71108   -2554.2194 
18877000    273.99519   -3874.8685   -3405.2501   -3874.8685            0    9722.9648    16.972911    19.991848    20.706912    7026.2667    9155.6667    10361.711    9651.5168   -985.23337   -403.00461    24.185823   -2408.9293 
18878000    273.73561   -3876.6669   -3407.4934   -3876.6669            0    9127.4277    16.959053    19.975524    20.690005    7009.0693    8257.8355    8828.3719    10296.076   -348.76026   -71.950908    152.52958    -2474.487 
18879000    279.72773   -3859.9607    -3380.517   -3859.9607            0    7556.1504    16.963667    19.980959    20.695634    7014.7924    6732.0858    7390.6666    8545.6987   -1750.2879   -223.99128    -2201.554    -2607.496 
18880000    261.53999   -3876.1314   -3427.8608   -3876.1314            0    7672.3002    16.941128     19.95441    20.668136    6986.8678    8233.8867    5616.3458    9166.6681    517.96162   -514.87805      31.1444   -2646.0818 
18881000    266.99117   -3906.5496   -3448.9359   -3906.5496            0    7626.5575    17.035115    20.065115      20.7828    7103.8006    7203.2377    8743.0874    6933.3473    679.71882     55.78906    718.89417    -2658.812 
18882000    284.94786   -3864.4443   -3376.0534   -3864.4443            0    7443.1003    17.015068    20.041503    20.758344    7078.7519    8917.9586    6327.9122    7083.4299   -1095.9175     779.6546   -201.28941    -2607.655 
18883000    260.21002   -3843.1684   -3397.1774   -3843.1684            0    8796.7666     16.97066    19.989196    20.704166    7023.4714    7781.6561    10628.355    7980.2884    44.517095    1533.2736   -187.81678   -2496.1234 
18884000    254.37645   -3853.1403   -3417.1478   -3853.1403            0    8776.4802    16.946081    19.960245     20.67418    6992.9987    9226.3476    9001.8355    8101.2576   -581.55191   -1180.6743    2.4369682   -2522.0722 
18885000    256.29359   -3887.2113   -3447.9329   -3887.2113            0    8858.6381    17.002291    20.026453    20.742755    7062.8162    10108.357     9665.055    6802.5027   -51.252013    782.09831   -417.84588   -2535.4583 
18886000    271.30478    -3865.543   -3400.5358    -3865.543            0    8179.3167    16.951641    19.966794    20.680962    6999.8838    10642.806    6710.9391    7184.2051    1071.8938   -421.78017   -1098.2961   -2565.5411 
18887000     260.8166   -3865.3132   -3418.2825   -3865.3132            0    7517.4026    17.014256    20.040546    20.757353    7077.7382    8536.0223    7639.3086    6376.8771    873.52155     35.31354    5.4285877   -2642.3245 
18888000    279.71473   -3854.1663   -3374.7448   -3854.1663            0     9902.352    16.926084    19.936691    20.649783    6968.2712    10536.459    9540.4747     9630.122    1235.3579   -493.57241    753.78048   -2368.4174 
18889000    245.57657   -3856.0515   -3435.1417   -3856.0515            0    10188.876    16.937184    19.949765    20.663325    6981.9896      10873.1    9549.6716    10143.855    90.786206    656.35088    1036.9922   -2397.6578 
18890000    257.66721   -3862.5966   -3420.9639   -3862.5966            0    7540.3231    17.046484    20.078506     20.79667     7118.033    7591.4555    8134.5935    6894.9202    13.843606    1247.3004    398.49989   -2638.2089 
18891000    258.12368    -3878.873   -3436.4579    -3878.873            0    8040.0396    16.980382    20.000647    20.716026    7035.5484    6886.1544    8917.0201    8316.9443     181.6011    757.96691   -858.50924   -2611.4995 
18892000     264.5528   -3873.5452   -3420.1108   -3873.5452            0    8259.2919     16.97482    19.994096    20.709241    7028.6373     9389.784    7931.5712    7456.5205    160.47553    93.756602    2736.9146   -2573.4882 
18893000    260.02798   -3877.0504   -3431.3714   -3877.0504            0    8211.7656    16.998177    20.021607    20.737736    7057.6905     6336.987    9542.8076    8755.5021    361.05786    177.96051    32.790581   -2586.1411 
18894000    261.06087   -3857.9022   -3410.4528   -3857.9022            0    10954.367    16.941473    19.954817    20.668557    6987.2949    11195.723    11759.406    9907.9738    961.32134   -1050.6372    51.801284    -2294.175 
18895000    267.47126   -3854.6913   -3396.2547   -3854.6913            0    9154.7416    16.933878    19.945872    20.659292    6977.9024    8856.9126    8345.2951    10262.017    1152.9801    -43.88314    1896.4417   -2464.6174 
18896000    252.65757   -3892.1463   -3459.0998   -3892.1463            0    9391.1603    16.973583    19.992639    20.707732    7027.1013    9769.4414    7463.4473    10940.592    340.36351   -73.023156    393.47317    -2496.665 
18897000    262.94711   -3922.9994   -3472.3171   -3922.9994            0    8855.3557     16.97475    19.994013    20.709155    7028.5497    9934.0801    7021.0752    9610.9117    1225.4952    1077.1995    111.69612    -2564.606 
18898000    241.86584   -3894.2802   -3479.7304   -3894.2802            0    9496.8694    16.959575    19.976139    20.690641    7009.7164    9220.5529    9486.1896    9783.8656    426.34965    217.30609    1542.1436     -2508.87 
18899000    276.71554   -3888.7139   -3414.4329   -3888.7139            0    7935.8785    17.080374    20.118425    20.838017    7160.5725    8049.8895    6964.3575    8793.3886    327.60205    1079.5333   -934.51254   -2585.6923 
18900000    257.00224   -3898.4438   -3457.9507   -3898.4438            0    9220.8117    17.057642    20.091649    20.810284    7132.0206    7999.8303    9864.9319     9797.673     765.1478    310.66307    79.516526   -2498.8646 
18901000    271.34909   -3871.1831      -3406.1   -3871.1831            0    8293.0223    17.083048    20.121574    20.841279    7163.9359    8187.6758    8489.0862    8202.3049   -524.68818   -503.78454   -331.14252   -2539.6562 
18902000    252.07379   -3882.1177   -3450.0718   -3882.1177            0    7645.8101    17.007953    20.033123    20.749663    7069.8754    9550.8381    8281.7982    5104.7939   -551.29023   -1840.7918   -863.87539   -2661.7362 
18903000    272.36334   -3871.6246   -3404.8032   -3871.6246            0    8893.9482    17.012336    20.038284     20.75501    7075.3419    10443.048    8790.7464    7448.0508   -1080.5055   -284.84362   -1396.1508   -2487.0669 
18904000    248.40649   -3842.8867   -3417.1264   -3842.8867            0    7672.2985    16.958589    19.974978    20.689439    7008.4942    5362.5233    8220.9872    9433.3851    501.93576    132.32809   -1051.9989   -2632.9278 
18905000    248.50167   -3811.0203    -3385.097   -3811.0203            0    7905.5694    16.985825    20.007059    20.722667    7042.3168    9176.7659    9164.8575    5375.0849    1595.1856    1965.5691    697.91158   -2573.1557 
18906000    245.96174   -3864.0961   -3442.5261   -3864.0961            0    9226.5271    16.925832    19.936394    20.649475    6967.9602    11584.574    8303.3954    7791.6114    541.81553    270.32917     215.0062   -2504.9214 
18907000    254.10743   -3850.1686   -3414.6372   -3850.1686            0    9117.1879    16.966715     19.98455    20.699353    7018.5746    7277.5601    9610.0477    10463.956   -968.55697   -338.25086   -734.08292   -2481.4136 
18908000    282.25711   -3908.8186   -3425.0395   -3908.8186            0    5860.9444    17.012846    20.038885    20.755632    7075.9785    5522.2845    5031.3587      7029.19    108.25406    1228.9232    235.92358   -2820.2142 
18909000    263.99375   -3856.3308   -3403.8546   -3856.3308            0    9249.5727    16.984762    20.005806     20.72137    7040.9943    7738.1493    8716.9891     11293.58   -69.232757    803.17986   -211.61378   -2454.0559 
18910000    275.35716   -3813.6707   -3341.7179   -3813.6707            0    9259.3959    16.932612    19.944381    20.657747    6976.3374    9939.2239     10922.76    6916.2033   -2346.1888   -593.72371   -96.972893   -2399.6418 
18911000    254.53372   -3855.7995   -3419.5374   -3855.7995            0    8404.6757    16.943391    19.957077    20.670897    6989.6686    7096.2339    10315.056    7802.7366   -1272.6396    1314.5528    934.59066   -2562.7887 
18912000    248.56143   -3840.7908    -3414.765   -3840.7908            0    6884.3671    17.024497    20.052608    20.769846    7090.5257    7406.7571    9343.6814    3902.6627    1503.4883     2360.644    60.969774   -2702.8661 
18913000    261.02034     -3837.94     -3390.56     -3837.94            0    9086.5815    17.027736    20.056424    20.773798     7094.574    8474.9482    8172.9069    10611.889   -732.15255    454.71327    -761.7064   -2450.3979 
18914000    270.17664   -3872.0325    -3408.959   -3872.0325            0     8759.175    16.996375    20.019484    20.735537    7055.4459    8497.9009    9601.8308    8177.7931   -1352.1643   -492.23966   -494.17869   -2507.6711 
18915000    266.44062   -3854.8588   -3398.1887   -3854.8588            0    8999.9333    16.927764     19.93867    20.651832    6970.3462    8152.5372    9018.7324    9828.5303    1306.5201   -369.77006   -361.49619   -2483.2973 
18916000    274.59792   -3851.1192   -3380.4677   -3851.1192            0    9728.2201    16.954349    19.969983    20.684266    7003.2384    7818.3455     12291.77    9074.5452   -361.61477   -950.08481   -82.767545   -2386.8755 
18917000     250.9469   -3876.1572   -3446.0428   -3876.1572            0     8609.976    16.934309    19.946379    20.659817    6978.4343    10000.071    8347.6231    7482.2344   -2310.9787    848.23478    479.03462    -2569.777 
18918000    275.94522     -3852.97   -3380.0093     -3852.97            0    6590.5921    16.993737    20.016378    20.732319    7052.1618    7609.9417    6974.5144    5187.3203   -1006.1788   -209.89096    113.76032   -2702.1765 
18919000     261.0648   -3825.1546   -3377.6984   -3825.1546            0    8578.9512    17.009646    20.035116    20.751728    7071.9858    7305.4885    9284.4155    9146.9495   -1470.8954     1571.702   -661.91716   -2492.8855 
18920000    261.86365   -3853.9756   -3405.1502   -3853.9756            0    8881.0678    17.010794    20.036468    20.753129    7073.4183    7798.5021    9192.1633    9652.5379     1442.664    1303.5696    573.65319   -2488.9922 
18921000    264.22021   -3858.1727   -3405.3083   -3858.1727            0    7982.9857    16.992994    20.015503    20.731413    7051.2371    7622.2502     7521.617      8805.09    842.68844    117.47462    294.80053   -2584.3775 
18922000    270.08563    -3851.514   -3388.5964    -3851.514            0    11181.834     16.89418    19.899113    20.610861    6928.9426      12020.9    11807.046    9717.5574   -700.41857    283.18864   -928.05459   -2258.6551 
18923000     266.0477   -3829.4227    -3373.426   -3829.4227            0    8211.6473    16.963309    19.980537    20.695197     7014.348    8246.0261    6035.8843    10353.031    -494.1909   -1081.9782   -125.54704   -2533.3986 
18924000    255.88124   -3845.5729   -3407.0013   -3845.5729            0    6453.4726    16.979896    20.000074    20.715433    7034.9439    6581.7944    6529.1556    6249.4676   -402.13961   -2491.2694   -2303.0148   -2744.8915 
18925000    268.69479   -3861.3348   -3400.8011   -3861.3348            0    8705.5441    17.004622    20.029199    20.745599     7065.722    9738.3584    9359.9038      7018.37    392.28316    12.398822    303.09324    -2503.727 
18926000    260.89319   -3865.4622   -3418.3002   -3865.4622            0     9321.555    16.917182    19.926206    20.638923    6957.2834    9799.2556    8693.2946    9472.1147   -1105.9026    605.43218    278.43986   -2472.4901 
18927000     269.5325   -3845.5145    -3383.545   -3845.5145            0    7633.1924    17.017918     20.04486     20.76182    7082.3092    7587.1341    8886.9478    6425.4953   -116.42617   -1018.0823     704.5088   -2595.1262 
18928000    268.85105   -3870.8917   -3410.0902   -3870.8917            0     6585.855    17.053957    20.087309    20.805788    7127.3995    10041.303    4807.4592    4908.8027    398.57917    1074.3136   -612.37056   -2725.5182 
18929000    261.39748   -3857.3225   -3409.2961   -3857.3225            0    9603.7334    16.934084    19.946114    20.659543    6978.1565    10862.154    8569.5361    9379.5102    1992.5853    1162.6244   -1491.2462   -2431.9313 
18930000    255.85539   -3862.8381   -3424.3108   -3862.8381            0    7557.4954    17.037277    20.067662    20.785438    7106.5061     8482.816    8453.7168    5735.9534    429.87599    953.55357   -232.45646   -2641.0436 
18931000    277.58113   -3882.8114   -3407.0468   -3882.8114            0    6655.9316    16.985203    20.006326    20.721908    7041.5427    7827.1404    5252.6794    6887.9749   -454.92844   -161.08868    49.869088   -2723.5248 
18932000     270.2079   -3853.6479   -3390.5208   -3853.6479            0    9150.6295    16.996924    20.020132    20.736208    7056.1304    7567.0179    10387.718     9497.153   -519.51751   -792.13504    881.84657   -2448.8623 
18933000    256.74887   -3879.9475   -3439.8887   -3879.9475            0    8363.3371    17.062491    20.097361      20.8162    7138.1049    8823.4379    7537.0899    8729.4836   -1638.7295   -654.68179    828.32185   -2569.2491 
18934000    272.49602   -3893.4822   -3426.4333   -3893.4822            0    9187.7125    16.942356    19.955858    20.669635     6988.388    8522.4481    7712.1659    11328.523    18.402948   -419.85433    798.13067   -2490.0357 
18935000    263.25478   -3839.4362   -3388.2265   -3839.4362            0    10038.174    16.953005      19.9684    20.682626    7001.5734    11319.112    10806.834    7988.5762   -1677.4435    633.25728    151.66125   -2363.2208 
18936000    284.03106   -3862.8921   -3376.0726   -3862.8921            0    6881.6998    17.021409    20.048971    20.766079    7086.6679    7979.6143    6644.3937    6021.0914   -580.97639   -929.45954    -851.4206   -2664.8366 
18937000    249.56517   -3848.2436   -3420.4975   -3848.2436            0    7433.7881    17.046206    20.078179    20.796332    7117.6857    9165.1905    6538.5287    6597.6452   -1860.2082   -1287.0717    13.145752   -2648.8394 
18938000    286.39018   -3862.9097   -3372.0468   -3862.9097            0     8795.541    17.030968    20.060231    20.777742    7098.6149    9774.0742    8795.2831    7817.2655   -85.474797   -1199.6975   -685.84064   -2461.4794 
18939000    256.88546   -3880.0751   -3439.7823   -3880.0751            0    7252.5951    17.070985    20.107366    20.826562    7148.7705    8760.8461    5251.7839    7745.1553   -1965.3756   -356.81615   -1270.6665   -2683.6449 
18940000    274.86424   -3844.6895   -3373.5816   -3844.6895            0    9204.9617    17.072053    20.108623    20.827865    7150.1117     8594.558    10117.174    8903.1531    1616.7053    1290.5179    831.31551   -2413.7154 
18941000    275.64174   -3861.4533   -3389.0128   -3861.4533            0    6040.9807     17.10751    20.150387    20.871122    7194.7547    4505.2238    6344.1224    7273.5958    789.30411   -276.10479   -598.42545   -2755.1441 
18942000    250.37901   -3798.5223   -3369.3813   -3798.5223            0    8404.4832     17.01175    20.037594    20.754295    7074.6105    6882.9196    9310.3756    9020.1542    1968.8085    1547.0162    921.08769   -2502.2408 
18943000    272.94952   -3842.9829   -3375.1568   -3842.9829            0    11313.351    16.948543    19.963145    20.677183    6996.0464    11785.862    9963.5595    12190.632   -2039.7283    905.19793    -1734.752   -2220.8538 
18944000    269.73441   -3856.6169   -3394.3013   -3856.6169            0    7433.1705    17.056676    20.090511    20.809104    7130.8083    7059.2746    9263.3275    5976.9095   -775.86007    262.89282    184.16822   -2621.2849 
18945000    264.67754   -3864.1819   -3410.5336   -3864.1819            0    9587.1775     16.97279    19.991704    20.706764    7026.1152    10028.052     9436.618    9296.8626    188.20826   -533.63267    543.25854   -2428.1482 
18946000    262.94212   -3828.0393   -3377.3654   -3828.0393            0    8153.8055    16.923169    19.933258    20.646227    6964.6723    7864.3219     9750.196    6846.8987   -956.33579   -717.69909    554.37591   -2549.1622 
18947000    251.29695   -3814.1445   -3383.4301   -3814.1445            0    9387.5904    16.905674    19.912651    20.624883    6943.0945    9918.2258    8945.5543    9298.9912   -557.41954   -510.85202   -2168.9558   -2432.8623 
18948000    260.78227   -3848.2985   -3401.3266   -3848.2985            0    8566.5783    16.947808    19.962279    20.676286    6995.1367     6409.181    11056.258    8234.2955   -972.74622   -62.601852    310.97821   -2527.3909 
18949000    282.26707   -3875.6025   -3391.8064   -3875.6025            0    7927.6962     16.98494    20.006016    20.721588    7041.2161    8950.0494    7201.9755    7631.0636    506.53753   -644.96887    189.40334   -2577.7199 
18950000    261.49472   -3867.9157   -3419.7227   -3867.9157            0     9494.982    16.941226    19.954526    20.668256    6986.9891    10508.007    8649.6692    9327.2702   -351.10141    156.22936    605.07378   -2452.2023 
18951000     259.8041   -3854.8785   -3409.5832   -3854.8785            0    8431.3703    16.987323    20.008823    20.724495    7044.1799    7169.0917    9649.4858    8475.5333     226.8255   -106.60595    740.05484   -2543.4105 
18952000    268.15096   -3871.0894   -3411.4878   -3871.0894            0    7186.1955    16.978523    19.998458    20.713759    7033.2384    6131.5557     7546.367    7880.6637    438.58534    697.14497    338.32937   -2674.3813 
18953000     256.0382   -3887.6152   -3448.7745   -3887.6152            0     8491.025    16.934816    19.946976    20.660436    6979.0614    9265.9901    7441.7697    8765.3154    -886.1749   -897.72411    690.73941   -2584.5372 
18954000    262.12642   -3902.0529   -3452.7772   -3902.0529            0     8753.533    16.901766    19.908048    20.620115      6938.28    9333.9268    7764.5447    9162.1273    2175.2674    653.67783    339.37629   -2567.0273 
18955000    252.41487   -3915.1266   -3482.4962   -3915.1266            0    7382.7665    16.983363    20.004158    20.719663     7039.254    7351.0604    4598.8723    10198.367    -353.8282    1408.8575   -242.34052   -2724.5792 
18956000    258.57723   -3880.0121   -3436.8195   -3880.0121            0     9916.655    16.895344    19.900483     20.61228    6930.3739     11725.83     9583.525    8440.6103    1101.7595    858.37061    600.39647   -2434.5195 
18957000    258.69213   -3845.8636   -3402.4741   -3845.8636            0     7305.942    16.954805    19.970521    20.684823    7003.8041    7968.1035    6042.8109    7906.9116    157.79267    570.29244   -688.31349   -2656.2211 
18958000    261.05042   -3841.6921   -3394.2606   -3841.6921            0    7048.7313    16.990759     20.01287    20.728686    7048.4548    6783.2005     7070.527    7292.4665   -557.48195   -868.78909   -2205.8594   -2669.6899 
18959000    263.22334   -3883.2129   -3432.0571   -3883.2129            0    7573.9357    16.979447    19.999546    20.714886    7034.3866    10070.592    6605.7944    6045.4211   -584.90784   -341.91764   -142.37067   -2655.0522 
18960000    270.75399   -3869.9755   -3405.9124   -3869.9755            0    6732.5209    17.020457     20.04785    20.764918    7085.4791    4553.4802    8705.9746    6938.1078   -1173.7628   -974.28993    -253.0001   -2710.2111 
18961000    260.38757   -3885.8835   -3439.5881   -3885.8835            0    8612.4564    17.023928    20.051938    20.769152    7089.8145    8558.1197    9942.6632    7336.5862    95.789114   -242.25737   -1013.7958   -2549.0802 
18962000    271.57232   -3893.3686    -3427.903   -3893.3686            0    9281.3721    17.029018    20.057933    20.775362    7096.1759    8285.3073    9762.2487    9796.5603   -682.02928    1704.3299   -1108.1878   -2467.3696 
18963000    276.79067   -3877.0681   -3402.6584   -3877.0681            0    7924.8018    17.004648     20.02923    20.745631    7065.7549    8293.5146    8251.0285    7229.8624    701.14704    585.09666    772.71743    -2586.033 
18964000    263.41262   -3886.5727   -3435.0924   -3886.5727            0    9005.5397    16.977405     19.99714    20.712394    7031.8483    8737.3069    9459.1278    8820.1844   -686.65702   -1094.6872    412.89536   -2511.5537 
18965000    242.89374   -3882.4292   -3466.1176   -3882.4292            0    9152.6977    16.915782    19.924557    20.637214    6955.5554    9301.1786    10020.337     8136.577     1106.509   -1171.3219    993.45299   -2537.6712 
18966000    259.91837    -3888.305   -3442.8138    -3888.305            0    7990.0203    17.016018    20.042622    20.759502    7079.9374    9058.0231    6924.9355    7987.1023    -1161.302    323.87422    794.10954   -2617.8152 
18967000    254.96529   -3889.3402   -3452.3384   -3889.3402            0    8982.4471    16.896487     19.90183    20.613674     6931.781    9705.4108    8294.0341    8947.8963   -1478.5364    879.40172   -269.35832   -2544.2767 
18968000    261.90332   -3884.4799   -3435.5865   -3884.4799            0    8169.6654    17.014043    20.040296    20.757093    7077.4726    6993.5418    7987.4632    9527.9913   -734.70032    76.311899   -1362.4393   -2592.3326 
18969000    270.31748   -3874.2954   -3410.9805   -3874.2954            0    7730.1004    17.037361    20.067761    20.785541    7106.6113    6706.9154    9147.9174    7335.4683   -2012.5676    1417.8561    2178.0743   -2609.8126 
18970000    259.98031     -3889.79   -3444.1926     -3889.79            0    9368.1423    16.985564    20.006751    20.722349     7041.992    10674.277    7757.6096    9672.5405     131.3311   -91.708013   -1193.6091   -2482.0822 
18971000    263.78536   -3908.5779   -3456.4588   -3908.5779            0    7517.1372    17.012573    20.038563    20.755299    7075.6373    8024.7888    6213.7944    8312.8284   -661.86681    217.04618    1306.0465   -2680.7586 
18972000    268.84847   -3931.7548   -3470.9577   -3931.7548            0    8901.9118     16.98431    20.005274    20.720819    7040.4322    10225.994     8541.456     7938.285    349.99778    705.46072   -1106.3516   -2556.9318 
18973000    263.19284   -3893.6309   -3442.5274   -3893.6309            0    7939.5779    17.013657    20.039841    20.756622     7076.991    8024.7312    7916.9346    7877.0677   -229.05602    1049.4276    -848.8913   -2623.0784 
18974000    264.34159   -3870.8145   -3417.7421   -3870.8145            0    7240.9154    17.016566    20.043267    20.760171    7080.6211    6571.5515    8940.1098     6211.085    33.499502     1321.822    2306.4421   -2670.0191 
18975000    262.73974   -3887.2812   -3436.9543   -3887.2812            0    8952.7464    16.923648    19.933822    20.646811    6965.2637    9824.3451    9156.9488    7876.9453    562.20344    -510.4177   -833.63213   -2527.5233 
18976000    258.98833   -3878.2939   -3434.3968   -3878.2939            0    8243.0502    16.976529    19.996109    20.711326    7030.7605    6402.0871    9153.5524     9173.511    -621.2423    13.577317    1251.7244   -2589.1838 
18977000     285.7215   -3867.5754   -3377.8585   -3867.5754            0    7251.6626    17.049768    20.082375    20.800678    7122.1488    6529.3905    7640.6964    7584.9009    -8.001362   -669.80012     -741.341   -2624.6339 
18978000    262.99235   -3859.3889    -3408.629   -3859.3889            0    9318.3159    16.966491    19.984285    20.699079    7018.2956     10244.89     8814.644     8895.414   -1010.6945    79.514972   -781.06208   -2454.8561 
18979000    258.19434   -3855.5228   -3412.9865   -3855.5228            0    7471.5635    17.005577    20.030323    20.746764    7066.9121    8666.9614    7715.2409    6032.4881    529.31559    44.941493    928.64062   -2642.9398 
18980000    262.32784   -3844.1284   -3394.5075   -3844.1284            0    7012.7421    17.006635     20.03157    20.748056     7068.232    5923.4659    7816.7331    7298.0274    792.05542   -778.07407   -513.83824   -2671.6136 
18981000    270.92874   -3856.6002   -3392.2376   -3856.6002            0    8726.9351    16.941795    19.955197    20.668951    6987.6939    10670.657    8455.0445    7055.1034    245.62176   -263.22458     949.1214   -2502.8901 
18982000    258.03054   -3840.1671   -3397.9115   -3840.1671            0    11174.418    16.879668    19.882019    20.593155    6911.1016    10118.252    11429.767    11975.236   -1008.6182    1340.8226    518.70069   -2271.6271 
18983000    252.65941   -3852.2923   -3419.2428   -3852.2923            0    11491.715    16.943763    19.957514    20.671351    6990.1285     11732.89    10339.446    12402.807    577.63804   -546.79278    532.12023   -2247.7331 
18984000    257.49238   -3842.1593   -3400.8262   -3842.1593            0    7690.1004    16.998667    20.022185    20.738335    7058.3017    5159.7105    9367.9135    8542.6772    724.44193    916.58759    2936.7068    -2609.222 
18985000    259.92593    -3865.973   -3420.4689    -3865.973            0    8636.3466     16.94839    19.962965    20.676997    6995.8577    8241.5555    10451.992     7215.492   -65.776369     454.0713     15.62837   -2539.3248 
18986000    246.68481   -3838.9376   -3416.1283   -3838.9376            0    9844.4621    16.945222    19.959233    20.673131    6991.9351    11124.766    7790.7166    10617.904   -820.31299   -97.323783    1185.9843   -2412.2865 
18987000    268.30812   -3852.9157   -3393.0448   -3852.9157            0    10159.871    16.940659    19.953858    20.667564    6986.2877    9787.7681    11376.722    9315.1234    1083.8723    716.07303   -73.789033   -2357.8775 
18988000    270.05867   -3865.2727   -3402.4014   -3865.2727            0    8663.5333    16.977751    19.997549    20.712817    7032.2792    9452.6816    8275.1688    8262.7495   -991.80461   -1938.0345    245.31104   -2513.8817 
18989000     260.4045   -3876.0926   -3429.7682   -3876.0926            0    7577.3683    16.944594    19.958493    20.672365    6991.1574    7403.3656    8386.7365    6942.0026    2669.1437    896.55959     868.5823   -2657.1884 
18990000     265.5319   -3857.3284   -3402.2158   -3857.3284            0    6774.8416     16.99986     20.02359     20.73979    7059.7876    5661.1092     6049.936    8613.4797    970.06024    872.47098   -432.71967   -2704.6798 
18991000    256.20756    -3889.372    -3450.241    -3889.372            0    6301.1643    17.048519    20.080903    20.799153     7120.583    8130.4278     4676.188    6096.8771   -17.757829    356.75037   -676.08902   -2795.8878 
18992000    261.60784   -3845.5316   -3397.1448   -3845.5316            0    7299.2816    17.024104    20.052146    20.769368    7090.0354    7886.8119     7406.264    6604.7689    -110.2675    45.227559   -533.07991   -2642.3925 
18993000    268.80593   -3848.7131    -3387.989   -3848.7131            0    7369.0092    17.094579    20.135156    20.855347    7178.4524    8598.4848    6743.6911    6764.8517   -365.97884    223.31761    171.03054   -2616.5247 
18994000    265.84909   -3853.3372    -3397.681   -3853.3372            0    9078.4944    17.015525    20.042041    20.758901     7079.322    9065.7235    8852.9244    9316.8355    1509.3319    825.63523   -216.19427    -2460.375 
18995000    272.75207   -3867.4015   -3399.9138   -3867.4015            0    7511.8925    16.996845    20.020038    20.736111     7056.032    9752.0529    6818.6117    5965.0128   -1677.4516   -510.92866   -343.28135   -2626.9026 
18996000    254.63305   -3858.2325   -3421.8001   -3858.2325            0    6238.5331     16.98728    20.008772    20.724442    7044.1258    6198.2651    7047.9836    5469.3508   -132.96679   -252.59257    -672.3268   -2780.9072 
18997000    254.62565   -3856.3696     -3419.95   -3856.3696            0     7403.959    16.935126    19.947342    20.660814    6979.4451     6017.301    7925.3946    8269.1814   -358.59675   -812.42924   -1041.9106   -2666.3154 
18998000    277.77208   -3860.6023   -3384.5105   -3860.6023            0    7674.4752    17.035688     20.06579    20.783499    7104.5177    8864.0169     7924.776    6234.6327   -1212.1084   -202.64242    581.55834    -2589.342 
18999000    252.98445   -3863.9666   -3430.3599   -3863.9666            0    8065.4838    17.000464    20.024301    20.740527    7060.5401     7924.053    8883.0629    7389.3357   -1211.2307    1967.3592   -1012.2006   -2599.8511 
19000000    268.66228   -3844.2424   -3383.7645   -3844.2424            0    8161.6293    16.960639    19.977392    20.691939    7011.0359     7802.576    9543.0844    7139.2275   -1022.0668   -138.41618   -1051.6082   -2549.2479 
Loop time of 488.485 on 64 procs for 250000 steps with 864 atoms

Performance: 88.437 ns/day, 0.271 hours/ns, 511.786 timesteps/s
99.1% CPU use with 64 MPI tasks x 1 OpenMP threads

MPI task timing breakdown:
Section |  min time  |  avg time  |  max time  |%varavg| %total
---------------------------------------------------------------
Pair    | 22.066     | 27.175     | 31.704     |  48.8 |  5.56
Bond    | 0.27305    | 0.28422    | 0.30174    |   1.2 |  0.06
Kspace  | 205.63     | 215.5      | 229.9      |  38.5 | 44.11
Neigh   | 5.4218     | 6.274      | 8.0722     |  27.3 |  1.28
Comm    | 103.57     | 118.17     | 128.59     |  53.7 | 24.19
Output  | 1.2296     | 1.237      | 1.2444     |   0.6 |  0.25
Modify  | 111.26     | 115.4      | 118.65     |  17.3 | 23.62
Other   |            | 4.447      |            |       |  0.91

Nlocal:        13.5000 ave          19 max           9 min
Histogram: 2 6 7 6 11 14 4 5 5 4
Nghost:        2266.47 ave        2316 max        2227 min
Histogram: 4 7 8 7 14 8 5 9 0 2
Neighs:        4396.34 ave        6699 max        2630 min
Histogram: 4 6 11 11 12 6 3 6 3 2

Total # of neighbors = 281366
Ave neighs/atom = 325.65509
Ave special neighs/atom = 2.0000000
Neighbor list builds = 14262
Dangerous builds = 0

unfix		3
unfix		2
unfix		1

write_data	data.final.${pid}
write_data	data.final.0
System init for write_data ...
PPPM initialization ...
  extracting TIP4P info from pair style
  using 12-bit tables for long-range coulomb (../kspace.cpp:340)
  G vector (1/distance) = 0.37433132
  grid = 24 24 24
  stencil order = 5
  estimated absolute RMS force accuracy = 0.0031530576
  estimated relative force accuracy = 9.4953394e-06
  using double precision FFTW3
  3d grid and FFT values/proc = 2535 216
Last active /omp style is kspace_style pppm/tip4p/omp
WARNING: Not all mixed pair coeffs generated from mixing. Use write_data with 'pair ij' option to store all pair coeffs. (../write_data.cpp:312)

write_restart   restart.lmp.${pid}
write_restart   restart.lmp.0
System init for write_restart ...
PPPM initialization ...
  extracting TIP4P info from pair style
  using 12-bit tables for long-range coulomb (../kspace.cpp:340)
  G vector (1/distance) = 0.37433132
  grid = 24 24 24
  stencil order = 5
  estimated absolute RMS force accuracy = 0.0031530576
  estimated relative force accuracy = 9.4953394e-06
  using double precision FFTW3
  3d grid and FFT values/proc = 2535 216
Last active /omp style is kspace_style pppm/tip4p/omp
Total wall time: 0:08:13
