LAMMPS (30 Jul 2021)
  using 1 OpenMP thread(s) per MPI task
package omp 0
using multi-threaded neighbor list subroutines
echo both

include		in.partitions
variable        pid world 0
include		in.temp
variable        temperature equal 256.31
variable	tempDamp equal 100.0
include		in.pressure
variable        pressure equal 6500.0
variable        pressureDamp equal 1000.0 # This is 1 ps
include		in.seed
variable        seed world 745823

units		real
atom_style	full
read_restart    restart.lmp.${pid}
read_restart    restart.lmp.0
Reading restart file ...
  restart file = 30 Jul 2021, LAMMPS = 30 Jul 2021
  restoring atom style full from restart
  triclinic box = (-3.2205021 -0.17896510 -0.077648055) to (14.830501 22.758964 19.307646) with tilt (-0.31774142 -6.1082279 0.010717551)
  4 by 4 by 4 MPI processor grid
  restoring pair style lj/cut/tip4p/long/omp from restart
  restoring bond style harmonic/omp from restart
  restoring angle style harmonic/omp from restart
  1008 atoms
  672 bonds
  336 angles
Finding 1-2 1-3 1-4 neighbors ...
  special bond factors lj:    0        0        0       
  special bond factors coul:  0        0        0       
     2 = max # of 1-2 neighbors
     1 = max # of 1-3 neighbors
     1 = max # of 1-4 neighbors
     2 = max # of special neighbors
  special bonds CPU = 0.404 seconds
  read_restart CPU = 0.688 seconds

include 	in.setup
variable	out_freq equal 1000
variable	out_freq2 equal 10000
variable	out_freq3 equal 1000

timestep	2.0

neigh_modify    delay 7 every 1

include		in.tip4p
# This is TIP4P/Ice

# create groups ###
group ox type 2
336 atoms in group ox
group hy type 1
672 atoms in group hy

# set charges - beside manually ###
set group ox charge -1.1794
Setting atom values ...
  336 settings made for charge
set group hy charge 0.5897
Setting atom values ...
  672 settings made for charge

# ### TIP3P Potential Parameters ###
pair_style lj/cut/tip4p/long/omp 2 1 1 1 0.1577 8.5
pair_coeff 1 1*2 0.000 0.000
pair_coeff 2 2 0.21084 3.1668
bond_style  harmonic
bond_coeff  1 450 0.9572
angle_style harmonic
angle_coeff 1 55 104.52
kspace_style pppm/tip4p/omp 1.0e-5
pair_modify tail yes

thermo          ${out_freq}
thermo          1000
thermo_style    custom step temp pe etotal epair emol press lx ly lz vol pxx pyy pzz pxy pxz pyz enthalpy

restart 	${out_freq3} restart.lmp.${pid} restart2.lmp.${pid}
restart 	1000 restart.lmp.${pid} restart2.lmp.${pid}
restart 	1000 restart.lmp.0 restart2.lmp.${pid}
restart 	1000 restart.lmp.0 restart2.lmp.0


include         in.dump
dump            myDump all atom ${out_freq2} dump.water.${pid}
dump            myDump all atom 10000 dump.water.${pid}
dump            myDump all atom 10000 dump.water.0
dump            myDump2 all dcd ${out_freq2} dump.dcd
dump            myDump2 all dcd 10000 dump.dcd
dump_modify     myDump append yes
dump_modify     myDump2 append yes


variable natoms 	equal  "count(all)"                        # NUMBER ATOMS
variable H      	equal  "enthalpy/v_natoms"                 # ENTHALPY-per-atom
variable Vol      	equal  "vol/v_natoms"                 # volume-per-atom
fix AVG all 		ave/time ${out_freq} 1 ${out_freq} v_Vol v_H file vol_enthalpy.dat
fix AVG all 		ave/time 1000 1 ${out_freq} v_Vol v_H file vol_enthalpy.dat
fix AVG all 		ave/time 1000 1 1000 v_Vol v_H file vol_enthalpy.dat



fix 		1 all shake 1e-6 200 0 b 1 a 1
       0 = # of size 2 clusters
       0 = # of size 3 clusters
       0 = # of size 4 clusters
     336 = # of frozen angles
  find clusters CPU = 0.097 seconds
fix             2 all nph tri ${pressure} ${pressure} ${pressureDamp}
fix             2 all nph tri 6500 ${pressure} ${pressureDamp}
fix             2 all nph tri 6500 6500 ${pressureDamp}
fix             2 all nph tri 6500 6500 1000
fix             3 all temp/csvr ${temperature} ${temperature} ${tempDamp} ${seed}
fix             3 all temp/csvr 256.31 ${temperature} ${tempDamp} ${seed}
fix             3 all temp/csvr 256.31 256.31 ${tempDamp} ${seed}
fix             3 all temp/csvr 256.31 256.31 100 ${seed}
fix             3 all temp/csvr 256.31 256.31 100 745823


run             250000
PPPM initialization ...
  extracting TIP4P info from pair style
  using 12-bit tables for long-range coulomb (../kspace.cpp:340)
  G vector (1/distance) = 0.37934362
  grid = 24 27 32
  stencil order = 5
  estimated absolute RMS force accuracy = 0.0024243188
  estimated relative force accuracy = 7.3007642e-06
  using double precision FFTW3
  3d grid and FFT values/proc = 3825 384
Last active /omp style is kspace_style pppm/tip4p/omp
Neighbor list info ...
  update every 1 steps, delay 7 steps, check yes
  max neighbors/atom: 2000, page size: 100000
  master list distance cutoff = 10.8154
  ghost atom cutoff = 10.8154
  binsize = 5.4077, bins = 5 5 4
  1 neighbor lists, perpetual/occasional/extra = 1 0 0
  (1) pair lj/cut/tip4p/long/omp, perpetual
      attributes: half, newton on, omp
      pair build: half/bin/newton/tri/omp
      stencil: half/bin/3d/tri
      bin: standard
Per MPI rank memory allocation (min/avg/max) = 9.313 | 9.325 | 9.336 Mbytes
Step Temp PotEng TotEng E_pair E_mol Press Lx Ly Lz Volume Pxx Pyy Pzz Pxy Pxz Pyz Enthalpy 
10250000     261.5542   -4806.0161   -4282.8754   -4806.0161            0    6733.9782    18.051003    22.937929    19.385294     8026.532    5671.7253    7758.8652    6771.3441    1138.5009   -109.31242   -605.47193   -3494.6045 
10251000    258.62923   -4842.3188   -4325.0284   -4842.3188            0    5360.4642    17.982783    23.007603    19.382829     8019.466    6280.4201     5144.444    4656.5284   -805.03315   -1132.8339    369.21573   -3698.0916 
10252000    266.84658   -4851.9944   -4318.2683   -4851.9944            0    4449.9985    17.900713    23.070585    19.451606    8033.1228    5575.8474    3969.1897    3804.9583    240.16636   -847.49969   -37.700427   -3796.9294 
10253000     252.5586   -4831.5718   -4326.4234   -4831.5718            0    7269.0133    18.031267    22.958595     19.27143     7977.843    8365.1467    6811.0248    6630.8683   -1311.4885    292.49047   -684.84795   -3480.6834 
10254000    246.29325   -4855.9032   -4363.2862   -4855.9032            0    4953.8467    17.995545    23.188777    19.263379    8038.5059    5677.5328    3825.9029    5358.1045    -100.6469    301.80671   -732.66929   -3782.5301 
10255000    252.20779   -4818.5047    -4314.058   -4818.5047            0    7401.6315    17.903691    23.016825     19.39969    7994.3432    8892.5631    6707.9881    6604.3432    698.24608    626.15985    522.89435    -3451.107 
10256000     253.7335   -4814.3096   -4306.8113   -4814.3096            0    4723.5893    18.178801    23.054475    19.311391    8093.4566    3855.3971    4702.4849    5612.8857   -280.14001    -257.6474    566.09201   -3749.2636 
10257000     258.3993   -4841.4306   -4324.6001   -4841.4306            0    5736.9643    17.976444    23.020132     19.42228    8037.3297    6541.6454     4725.675    5943.5726    21.883527    145.30853   -743.44686   -3652.1348 
10258000    255.84199   -4821.5115   -4309.7959   -4821.5115            0     6778.763    18.150556    22.862588    19.314428    8014.8828    8707.9976    4741.5801    6886.7114    1655.3648   -164.60317   -1113.0706   -3517.4341 
10259000    261.81129   -4798.7349     -4275.08   -4798.7349            0    7482.4264    17.940968    22.747875    19.586632    7993.6751    7853.5351    9322.4476    5271.2964   -1135.2921    322.97038   -984.30226   -3402.7821 
10260000    261.74382   -4828.8725   -4305.3526   -4828.8725            0    4362.2878    18.135467    22.995674    19.375339    8080.2388    4834.8649    4070.9114     4181.087   -422.97052   -614.51223    144.66374   -3791.2919 
10261000     255.6076   -4829.2189   -4317.9721   -4829.2189            0    7160.8692    18.122641    22.995257    19.149952    7980.4508    5236.1002    7936.5947    8309.9126     441.7447   -809.00003   -1736.7731   -3484.5423 
10262000    254.23142   -4782.8333    -4274.339   -4782.8333            0    5637.1687    18.028741    23.100963    19.385937      8073.88    5596.4141    5729.1368    5585.9552    -342.9422    219.97795   -99.333049   -3610.5666 
10263000    263.11966   -4796.6648    -4270.393   -4796.6648            0    8004.6778     18.03922    23.018603    19.218798    7980.3687    8874.5481    8025.1483     7114.337     2017.975    742.25697   -683.59095   -3338.7646 
10264000    250.89428   -4819.6664   -4317.8468   -4819.6664            0    6933.0155    17.712885    23.188448    19.477004    7999.8739    9049.6631    6781.6817    4967.7016   -573.51879     122.9045   -1044.5883   -3508.9722 
10265000    249.38743   -4808.4032   -4309.5975   -4808.4032            0    6975.7945    17.977737    23.028758    19.268108    7977.0918    6381.2292    7562.2946    6983.8598    304.22056   -646.88548   -187.58137   -3498.0496 
10266000    263.95562   -4823.4992   -4295.5553   -4823.4992            0    8688.3133    17.949191     23.01088    19.267037    7957.8003    9771.1636    7546.5062      8747.27   -471.30939   -475.88054   -208.98063   -3287.2213 
10267000     259.8534   -4831.9662   -4312.2273   -4831.9662            0    7171.0342    17.973269    22.971986    19.384042    8003.3159    5965.4161    7446.9057    8100.7808   -1121.1178    296.83628    901.52311   -3475.2231 
10268000    254.08172   -4852.2895   -4344.0947   -4852.2895            0       3812.7    18.055316    23.244944    19.296312     8098.562      4527.65    3247.8356    3662.6145   -167.43543   -946.37293   -1619.3193   -3893.7797 
10269000    243.38657   -4807.3934   -4320.5902   -4807.3934            0    6379.7162    17.953346     23.03371    19.408635    8026.0947    8589.4989    5875.2144    4674.4354     917.2318   -181.60535      93.3362   -3573.8294 
10270000    249.18712   -4820.0097   -4321.6046   -4820.0097            0    7547.9048     18.11227    22.956112    19.208166    7986.5115    7011.0089    7230.5979    8402.1076    1010.5951     1101.323   -634.49088   -3442.4618 
10271000    251.84364   -4837.7391   -4334.0207   -4837.7391            0    7935.0088     17.87364    22.970668    19.375442    7954.9644    8104.5875    9101.9969    6598.4422    646.36475    527.09156    1629.2522   -3413.4407 
10272000    255.20861   -4817.9791   -4307.5303   -4817.9791            0     6062.749    17.957983    23.087483    19.305158    8004.0078    5112.6372    6151.6435    6923.9663    665.91053   -128.57319    2053.4428   -3599.8242 
10273000    240.47097   -4836.6918   -4355.7201   -4836.6918            0    4227.6576    18.074702     23.06599    19.396953    8086.8011    3529.3189    4711.6509     4442.003    1291.1966    1735.8962    799.65907   -3857.1199 
10274000    270.90355   -4806.1718   -4264.3312   -4806.1718            0    7184.5992    17.964682    23.033693    19.419493    8035.6496    8808.7842    6136.6359    6608.3775    550.94832   -794.79943   -1738.6512   -3422.3558 
10275000    258.30696   -4797.3817   -4280.7359   -4797.3817            0    7570.6798    18.015846    22.945288    19.238127    7952.6336    8086.7528    8011.7436    6613.5429    550.15376    267.79195    1676.8647   -3402.6809 
10276000    267.34706   -4830.0026   -4295.2754   -4830.0026            0    5024.7521    17.972834    23.036266    19.408708     8035.729    5197.4271    5256.1231    4620.7061    -665.6348    -442.3521    1011.3538   -3706.4103 
10277000    268.02081   -4827.1598    -4291.085   -4827.1598            0     5032.432    18.010537    23.262855    19.203877    8045.9733    3695.9236    4363.0982    7038.2743   -1544.0047   -1285.5038   -232.51685    -3700.568 
10278000    263.04889   -4855.6898   -4329.5595   -4855.6898            0    7232.7807    17.955152    23.182351    19.197967    7991.0127    7450.6297    5472.8543     8774.858    1693.1472     214.7441    853.66576    -3486.646 
10279000    262.46859    -4836.102   -4311.1324    -4836.102            0    6274.9198    18.001911    23.018975    19.384335    8032.5878    5948.3809    5833.6903    7042.6881   -185.63379    270.47108   -1924.6043    -3576.044 
10280000    263.72205   -4803.1994   -4275.7227   -4803.1994            0    6291.2873    17.963893    23.179303    19.197778    7993.7724    3975.5086    7076.2736    7822.0797    2477.6491    -79.20225    110.74071   -3542.2784 
10281000    257.07592   -4793.5408   -4279.3572   -4793.5408            0    6433.0926    17.896339    23.235745    19.320522    8034.1447    7190.4689    6450.3418     5658.467   -1612.8005    914.94032   -1660.9579   -3525.5933 
10282000    265.61946   -4830.8659   -4299.5941   -4830.8659            0    6371.0382    17.960823    23.305172    19.093467    7992.1446    7059.3133    5442.2553     6611.546    196.54436    47.576739    2339.8793   -3557.0036 
10283000    258.77256   -4825.7328   -4308.1557   -4825.7328            0    6487.6598    17.807872    23.233845    19.323178    7994.8748     7210.024    6521.1692    5731.7862   -394.81371    1945.6557    1218.0378   -3551.7137 
10284000    254.82793   -4857.1911   -4347.5037   -4857.1911            0    6022.0951    17.921759    23.157365     19.29162    8006.4219    6385.2223     5355.373    6325.6899   -195.63903    50.011943   -416.48854   -3644.3311 
10285000    257.43097   -4862.5337     -4347.64   -4862.5337            0    6646.1307    18.024197    23.076887    19.257636    8010.0663    7719.2265    5818.7825     6400.383   -1482.9866   -177.80532    131.57031   -3571.2483 
10286000     246.4433   -4830.2816   -4337.3645   -4830.2816            0    7790.3148    17.954679    22.922207    19.323708    7952.8823     7992.313    8182.2761    7196.3552   -78.795276    32.313998    7.5723924   -3433.8078 
10287000    247.28567   -4812.5527   -4317.9508   -4812.5527            0    5352.7317    18.221113    22.601317    19.602037    8072.5331    5642.2497     6635.939    3780.0064   -628.54179   -18.209504   -968.59954   -3687.7758 
10288000    257.23433   -4829.8602   -4315.3597   -4829.8602            0    5945.3327    18.136783    22.713263    19.435336    8006.2997    6425.2167    6082.4744    5328.3071    355.49754   -880.56481    1120.9845   -3621.1609 
10289000     246.1186   -4821.3634   -4329.0958   -4821.3634            0    5265.2797     18.30134    22.664727    19.453126    8069.0571    3891.8923     6601.442     5302.505   -537.48348    1002.3539   -530.89816   -3709.4834 
10290000    251.27504   -4816.6941    -4314.113   -4816.6941            0    6422.5292    18.251196    22.720345     19.49797    8085.2908    7515.0787    6108.4145    5644.0943   -108.11862    231.03955    196.25544   -3556.7962 
10291000    260.77551   -4831.0882    -4309.505   -4831.0882            0    6582.2963    18.125842    22.809446    19.387008    8015.3721    7147.2959    6933.1031      5666.49    -1855.767    327.17557   -123.86062    -3540.061 
10292000    254.91079   -4819.8566   -4310.0035   -4819.8566            0    8226.0462    17.976408    22.842846    19.411851    7971.1339    7933.8097    8414.4217    8329.9072    217.03504   -1075.2166    1871.4208   -3353.7189 
10293000    255.54901   -4804.6213   -4293.4917   -4804.6213            0    7735.5484    17.999491    22.914192    19.396547    7999.9854    6927.9993    8032.4396    8246.2063   -69.476179   -257.40421   -182.73359    -3390.973 
10294000    257.33685   -4857.4975    -4342.792   -4857.4975            0    6647.4694    18.180222    22.862009    19.243964    7998.4919    4930.6015    6877.3622    8134.4444   -446.45624   -9.6793327   -1528.9846   -3567.3661 
10295000    239.65888    -4829.506   -4350.1587    -4829.506            0    7417.5533    17.956064    22.850676    19.428858    7971.8198    7603.7299    6777.9982    7870.9317    1752.4543    732.11583    1161.6171   -3487.7879 
10296000    255.60451   -4842.6942   -4331.4536   -4842.6942            0    6728.9064    18.057481    22.926669    19.235083     7963.284    9135.9571    5115.5503    5935.2117    182.69049     -737.498   -1424.0156   -3549.9831 
10297000    261.51607   -4835.9934   -4312.9289   -4835.9934            0    5329.7076    17.958861    23.054576    19.445663    8051.1637     6663.635    4518.9284    4806.5594    868.16878     806.8775    1302.6363   -3687.1255 
10298000    250.49322   -4843.3671   -4342.3497   -4843.3671            0    6819.3495    18.143489    22.769863    19.286887    7967.8904    5698.0403    7623.0538    7136.9544    1348.9556      1037.08    296.73956   -3549.9174 
10299000    264.45221   -4829.2231    -4300.286   -4829.2231            0    7151.7283    18.095136    22.767757    19.398297    7991.8205    4319.6868    7984.4792    9151.0189   -846.66862    167.77717    754.88717   -3466.7342 
10300000    258.07947   -4856.2623   -4340.0715   -4856.2623            0    6063.7269    18.062647    22.950702    19.331166    8013.7435    6320.6196    7144.4887    4726.0723   -303.26123   -137.37512     942.1121   -3631.3902 
10301000     267.5645   -4782.6049   -4247.4428   -4782.6049            0    6733.0979    18.020177    23.057822    19.287247    8013.9672    7504.5752    5942.3509    6752.3676    540.14219   -654.84351   -821.02007   -3460.5087 
10302000    250.23872   -4828.8383   -4328.3299   -4828.8383            0    6997.7644    17.805391    23.139253    19.399266    7992.5649    7309.1755     5200.374    8483.7437    1474.7594   -1257.5229    528.86404    -3512.647 
10303000    256.28706   -4863.4962   -4350.8904   -4863.4962            0    7089.6876    17.911013     23.12717    19.197132     7952.048    6011.1679     7177.826     8080.069   -242.63068    243.47412   -1068.5822   -3528.6819 
10304000    273.41495   -4837.4989   -4290.6353   -4837.4989            0      6168.69    17.958993    23.166986     19.33591    8044.8166    7361.2774     4234.612    6910.1805    402.89969   -418.39961   -129.68582   -3566.8912 
10305000    258.76405   -4811.0597   -4293.4996   -4811.0597            0    8667.3204    17.931417    23.136302    19.147436    7943.6333    9181.2134    8943.0813    7877.6665   -95.111413   -222.79383   -1234.9049   -3289.3928 
10306000    264.70387   -4800.0528   -4270.6124   -4800.0528            0    7127.3898    17.944947    23.046781     19.32025     7990.339    8347.8991    6628.4213     6405.849    90.013628   -433.79464   -358.95147   -3440.0512 
10307000    243.32406   -4840.6038   -4353.9256   -4840.6038            0    5974.6929     18.02399    22.991989    19.275044    7987.7208    6076.3315    6446.1824    5401.5649     1605.978    981.33487     330.6154   -3657.9174 
10308000    250.01301   -4819.8793   -4319.8223   -4819.8793            0    5318.3122    18.014655    22.935821    19.537733    8072.6183     6592.824     5388.226    3973.8867    232.67096   -838.52773    480.92324   -3693.6929 
10309000    249.83804   -4811.4022   -4311.6952   -4811.4022            0    7408.4514    18.195265    22.849674    19.273706    8013.1565    5693.7896     6991.527    9540.0375   -1180.2979    -1152.972   -1130.7681   -3445.9164 
10310000    266.75727   -4854.6201   -4321.0726   -4854.6201            0    6014.8247    17.937873    22.804833    19.565815    8003.7918    5947.9862    6408.6479    5687.8398   -991.45072   -367.72247    561.45373   -3618.9796 
10311000    265.11617   -4828.0052   -4297.7401   -4828.0052            0    5535.0699    18.168246     22.86673     19.30431    8019.9442    5802.1939    5348.7649    5454.2509   -804.69216   -1072.2276   -368.30787   -3650.3436 
10312000    262.59051   -4781.4864   -4256.2729   -4781.4864            0    8603.1542    17.982376    22.766498    19.537595    7998.6076    8109.7802    8693.5283    9006.1542    422.58643    411.83099    133.08929   -3252.7022 
10313000    258.25348   -4798.4953   -4281.9564   -4798.4953            0     5893.106    18.222793    22.812779     19.33838    8039.2074    6003.5511     5539.343    6136.4239    -951.5513   -634.46876    40.373927   -3591.0275 
10314000    250.21446   -4828.5344   -4328.0745   -4828.5344            0    6673.8421    18.048101    22.816885    19.422864    7998.3637    7115.7789    7660.8334    5244.9139   -521.69006    165.92095    -215.1291   -3549.5847 
10315000    262.75732   -4865.1693   -4339.6222   -4865.1693            0    7450.1621    18.026832    22.902981    19.358593    7992.5471    7591.5683    7487.3983    7271.5197    628.09313   -1413.7078    713.29217   -3471.2082 
10316000    266.53973   -4819.6149   -4286.5026   -4819.6149            0    5543.8188    18.105109    22.820822    19.504873    8058.8964    7675.1329    5320.9942    3635.3291    1417.1376   -163.94329     1072.557   -3634.9335 
10317000    263.81395   -4857.1635    -4329.503   -4857.1635            0    7335.7635    18.011729    22.773555    19.385791     7951.879    7458.3032    8252.5871    6296.4003   -428.19995    183.89646   -1813.3499   -3478.7745 
10318000    264.30113   -4845.7137   -4317.0787   -4845.7137            0    5782.8739    18.124366    22.976967    19.287762    8032.2527    4534.9062    6108.5535    6705.1619     440.3325   -347.22112    1507.3721   -3639.6604 
10319000    249.96723   -4855.1317   -4355.1664   -4855.1317            0     6764.628    17.822104    22.969616    19.503362    7984.0306     9386.143    5690.2343    5217.5068   -448.43389   -1997.1896   -417.92756   -3567.5005 
10320000    263.17422   -4834.1616   -4307.7806   -4834.1616            0    6422.6078    18.069516    23.041318    19.284953    8029.2026    5971.7453    6750.7884    6545.2898    1466.9552   -106.76221   -221.88896   -3555.7081 
10321000    261.29715   -4837.5581   -4314.9315   -4837.5581            0    4897.9111    18.046649    23.084107    19.331719    8053.4159    3398.2626    5199.1371    6096.3338   -550.09957    1794.8095    233.59696   -3739.6679 
10322000    268.92447   -4790.6426   -4252.7605   -4790.6426            0    6997.0684    17.986692    22.950117    19.441931     8025.565    7957.3568    6404.3696    6629.4787   -542.97214   -1485.3423    483.60552   -3433.7912 
10323000    241.37627   -4840.0856   -4357.3032   -4840.0856            0    7134.0508    17.973061    22.892851    19.383127    7975.2769    8922.1803    6030.9232    6449.0489   -817.84505   -706.31112    107.51673    -3527.533 
10324000     250.4338    -4849.263   -4348.3644    -4849.263            0    5216.4687    17.996099    22.949805    19.452926    8034.1938    5354.5966    5775.7531    4519.0565    486.06381   -482.96876    -8.407812   -3737.1483 
10325000    252.70751   -4837.0482    -4331.602   -4837.0482            0     5756.897    17.961287    23.205231    19.272873    8032.8528    5987.7985    4955.4502    6327.4422    545.93532   -309.08454   -1039.5731   -3657.1762 
10326000    256.94167   -4823.1014   -4309.1863   -4823.1014            0    6449.4088    17.958832     23.20977    19.269407     8031.881    8187.1076     5294.373    5866.7457   -719.44901   -1422.7559    1513.3803   -3553.7235 
10327000    235.91552   -4837.9299   -4366.0697   -4837.9299            0    7275.8477    17.766593    23.129874    19.427328    7983.4479    7499.5408    6152.6244    8175.3778    1055.8395    336.18356    1023.8277   -3518.9398 
10328000    279.13903   -4827.2308   -4268.9182   -4827.2308            0    6599.7859    18.117467    23.024741    19.185189    8003.1013    5234.9829    7198.1335    7366.2411     -335.405   -124.47016    1258.4587   -3498.6109 
10329000    254.10735   -4841.9016   -4333.6555   -4841.9016            0    6737.1752    17.970811    22.932531    19.417564    8002.2925     7248.496    7375.9467    5587.0829   -318.98972    1771.8351    290.11837   -3547.3919 
10330000     261.1564   -4808.5574   -4286.2123   -4808.5574            0    6606.5824    18.080507    22.974074    19.338642    8032.9412    6082.1262    6946.9356    6790.6853   -1033.9491    412.93596   -761.90172   -3512.2366 
10331000    273.78228   -4854.7407   -4307.1423   -4854.7407            0     6050.967    18.088606    22.904962    19.317755    8003.7099    5645.5246    6500.6559    6006.7206    -516.1201    1671.3348   -615.82956   -3600.8378 
10332000    258.60411     -4865.91   -4348.6698     -4865.91            0    6188.1531    18.066751    22.898067    19.396172    8024.0739    6911.5437    5378.2572    6274.6584   -651.60931    1143.9354     237.2571   -3624.5143 
10333000     258.3046   -4811.7967   -4295.1555   -4811.7967            0    6992.8441    18.125145    22.776687    19.349926    7988.2447    7193.9519    6739.9196    7044.6608    -1099.675   -304.65768    688.27034   -3480.4867 
10334000    267.24752    -4810.564   -4276.0359    -4810.564            0    7456.6082    18.026883    22.965979    19.378693    8022.8762    7334.5633    6141.9555    8893.3058    57.707143   -197.91185     2599.472   -3403.5723 
10335000    251.26272   -4838.3294   -4335.7729   -4838.3294            0     8100.288    18.035408    23.004541     19.21757    7973.2987    7358.5529    8137.6197    8804.6913   -1512.5829   -594.08539   -27.990654   -3393.8521 
10336000    251.60327   -4825.6464   -4322.4087   -4825.6464            0    7493.4487    17.791859    22.910586    19.504226      7950.35    8436.0498    7126.9052     6917.391    1309.0692   -324.83885    1919.5777   -3453.5606 
10337000    251.46926   -4836.1035   -4333.1339   -4836.1035            0    4725.1037    18.043389    23.058215    19.359824    8054.6228    5014.0875    5396.9189    3764.3046    642.76386    1292.2151   -379.78877   -3778.0835 
10338000     255.0638   -4827.9789   -4317.8198   -4827.9789            0    5933.7779    18.065927    23.121931    19.237457    8035.8538    5112.6721    6310.5843    6378.0773   -854.22742    220.12725   -1394.5054   -3622.4126 
10339000    228.13123   -4821.4574   -4365.1667   -4821.4574            0    7002.5555    17.793693    23.128357    19.412868      7989.15    9121.9264    6618.1986    5267.5414   -938.27696    1738.4149    1113.2103   -3549.2741 
10340000    272.10568   -4865.8887   -4321.6437   -4865.8887            0    7974.4597    18.003347    23.070443    19.122103    7942.2736    6763.8236    8112.3058    9047.2496   -163.19695    581.38437    232.78091   -3397.9628 
10341000    257.23664    -4846.455     -4331.95    -4846.455            0    6539.4441    17.915457    23.147234    19.257643    7986.0147    5982.9332    6571.2459    7064.1532    526.81011    301.31364    1715.0543   -3570.3151 
10342000    252.52272   -4826.1597    -4321.083   -4826.1597            0    8850.3279    17.926864    23.077039    19.205275    7945.2018    9037.6098    8387.8377    9125.5363   -683.30679    1505.7942   -13.172708   -3295.5723 
10343000    261.55382   -4817.8553   -4294.7153   -4817.8553            0    5887.0186     17.95078    23.310962    19.250816    8055.5027    6339.1237    3998.5255    7323.4067     573.1673    33.617908     -1111.26   -3603.1011 
10344000    258.80981   -4833.9857   -4316.3341   -4833.9857            0    6248.6827    17.846865    23.069995    19.363441    7972.4528    7544.8946     6194.582    5006.5716   -818.23914    -1138.781   -1426.9013   -3589.7995 
10345000    234.45952   -4831.7085   -4362.7605   -4831.7085            0    7085.6116    18.018326    23.018909    19.319605    8013.0419    5610.7411    7549.3242    8096.7694    -124.6703    231.78313    867.55645   -3534.7218 
10346000    260.45666    -4823.597   -4302.6515    -4823.597            0     8695.831    17.953493    22.858618    19.378272    7952.6884    8019.8843    8808.4375    9259.1713   -247.74008    965.73782   -300.78922   -3294.0934 
10347000    253.63685   -4823.7373   -4316.4323   -4823.7373            0    7299.1503    18.047524    22.769349    19.421903    7981.0499    8809.2437    6825.5582    6262.6489   -1816.8082   -370.74334    593.88701   -3466.8446 
10348000    245.21995   -4805.2139   -4314.7437   -4805.2139            0    7241.7888    18.008235    22.906583    19.356121    7984.5381    7110.9409    7127.5147    7486.9107    -203.4165    32.770951   -273.63736   -3471.4642 
10349000    259.31617   -4835.1987   -4316.5344   -4835.1987            0    8424.2589    17.871101    22.936709    19.332958    7924.6611    7591.2196    9537.3227    8144.2344    252.55199      133.553   -468.77293    -3342.917 
10350000    255.49025   -4833.2467   -4322.2346   -4833.2467            0    6149.6488     18.09647    22.881061    19.384252    8026.3682    5219.9363    6889.0906    6339.9195   -953.23749    218.77725    834.06218   -3602.3792 
10351000    238.41526   -4838.6787   -4361.8188   -4838.6787            0     5464.167    18.098677    22.893957    19.422286    8047.6307    4480.7639    5526.9993    6384.7378     -158.945    541.18539    2148.6867   -3720.5089 
10352000    265.30021   -4857.7526   -4327.1194   -4857.7526            0    5237.0838    18.029155    22.919588    19.502833    8058.9765    6355.5602    4278.6179    5077.0732   -1004.6384   -691.17868   -878.48705    -3711.595 
10353000    255.65947   -4810.5429   -4299.1924   -4810.5429            0    8554.8255    17.998484    22.855052    19.374787    7969.9403    10405.896    7503.4054    7755.1751   -261.23681    1165.0679    343.88001   -3304.8359 
10354000    257.88748   -4809.7803   -4293.9734   -4809.7803            0    6438.9583     18.02643    22.919696    19.372708    8004.0337    6951.4954    6348.4939    6016.8857   -503.75021    769.54844    176.86727   -3542.3498 
10355000    267.61254   -4804.9801   -4269.7219   -4804.9801            0    6846.6229     17.96836    22.892633    19.524428    8031.2381    7876.5328    6190.2816    6473.0543    616.15923   -493.17931    2209.4147    -3467.795 
10356000    246.34921   -4837.7847   -4345.0559   -4837.7847            0    7075.9241     18.24293    22.830951    19.211248    8001.5506    4981.9281    8284.1988    7961.6454       778.79    846.55103    1079.6506   -3519.3351 
10357000     263.5836   -4834.0062   -4306.8064   -4834.0062            0     5842.107    17.966871    22.674786    19.627679    7996.2177    7073.2661    5855.8947    4597.1601    224.13042   -1186.4067   -1323.3116   -3625.5195 
10358000     252.5736   -4797.1613   -4291.9829   -4797.1613            0     7033.445    18.261597    22.640801    19.319965    7987.9785    4787.4877    7926.7963     8386.051    1759.2113    427.99389    371.46591   -3472.6114 
10359000    243.61235   -4815.2557   -4328.0009   -4815.2557            0     6734.317     18.02582    22.826307    19.502645    8024.6147    6931.3814    6761.0689    6510.5008   -2057.4053      816.294   -2407.8436   -3539.8786 
10360000    275.41452   -4845.6526   -4294.7896   -4845.6526            0    6830.4277    18.196232    22.841806    19.265282    8007.3214    5265.8863    7105.4122    8119.9845    41.118698    509.60516    508.81629    -3497.142 
10361000    273.94516   -4824.5295   -4276.6053   -4824.5295            0    5455.1609    18.023743     22.74822    19.528056    8006.6604     5466.332    5689.7307      5209.42    325.75111    212.85757   -828.34802    -3639.612 
10362000    265.51907   -4837.0272   -4305.9562   -4837.0272            0    7785.3547    18.057141    22.940327    19.279161    7986.1361     6970.919    7730.0756    8655.0696    1289.7645   -529.42037    205.22537   -3399.1991 
10363000    254.42472   -4847.2238   -4338.3429   -4847.2238            0    6785.1589    17.949571    22.962039    19.414042    8001.6669    6959.2928    7597.4007    5798.7833   -93.793155    497.79986    317.43718   -3546.5413 
10364000    262.74896   -4826.6258   -4301.0954   -4826.6258            0    4886.2217    18.073591    23.033369    19.418512    8083.8429    5731.9996    3807.3291    5119.3365   -1258.2814    483.48783   -2214.1836   -3725.0365 
10365000    247.75815   -4825.7128   -4330.1659   -4825.7128            0    5372.3008    18.114245    22.790472    19.496663    8048.8503    4371.1396    6598.6599    5147.1029    1514.6095    816.33473    2099.0058   -3699.5425 
10366000    250.16486   -4847.2684   -4346.9078   -4847.2684            0    6695.7454    18.129491    22.582975    19.516434    7990.3764     6855.772    7115.2591    6116.2052   -1711.0905    87.949624   -1792.6853   -3566.6429 
10367000    250.21366   -4844.6191   -4344.1609   -4844.6191            0    7391.1999    18.105521    22.597819    19.475528    7968.3204     6887.507    8390.5611    6895.5315    243.41154    652.62614   -332.53275   -3485.2312 
10368000    251.24379   -4841.8727    -4339.354   -4841.8727            0    7330.5406     18.13359    22.539826    19.543698    7988.0559    9797.7327    7665.4962    4528.3929   -191.51023   -1489.6062   -286.63561   -3485.3636 
10369000    245.32915   -4839.9197   -4349.2311   -4839.9197            0    7038.9736    18.069255    22.765177    19.396465    7978.7315    7022.3414    7520.9489    6573.6304    657.26967    534.58718    325.25504   -3530.1648 
10370000    242.31557   -4819.7187   -4335.0576   -4819.7187            0    4645.9423    18.213163    22.821279    19.455385    8086.5855    3928.0435    4265.7403    5744.0432    868.96717   -11.760021   -525.19962   -3787.1405 
10371000    249.66759   -4838.7972   -4339.4312   -4838.7972            0    6489.1598    17.998808    22.892762    19.462515    8019.3818    9288.3803    4446.2653    5732.8337   -606.71933    427.14675   -572.18617    -3580.495 
10372000    272.95918    -4835.694   -4289.7419    -4835.694            0    6576.5717    17.923281    23.022432    19.403382    8006.5632    6545.8562    6305.5996    6878.2592    925.53508   -393.39478   -1039.7532    -3521.812 
10373000    248.61398   -4814.9211   -4317.6624   -4814.9211            0    7767.6018    17.924085    23.013255    19.336146    7975.9969    8619.1835    7142.1754    7541.4463    153.04017    430.38213    668.41605   -3414.1215 
10374000    258.70842   -4820.5308    -4303.082   -4820.5308            0    6803.8166    18.096554    23.019977    19.229087    8010.4964    6243.7796    6962.3559    7205.3144    907.11603   -1258.6899   -1261.1803    -3508.227 
10375000    262.22568   -4813.9438   -4289.4601   -4813.9438            0    5167.2157    17.945542    23.071382    19.475119    8063.2536    6071.0203    4474.3225    4956.3043    375.97365   -62.698513   -479.90623   -3681.8251 
10376000    259.86771   -4858.6496   -4338.8821   -4858.6496            0    4883.2913    18.303583    22.729758    19.319701    8037.6916    3690.5679    5332.1303    5627.1757   -1959.1773   -549.18893   -1567.4769   -3766.4554 
10377000    254.40644   -4844.1427   -4335.2984   -4844.1427            0    6642.3473    18.113028    22.637204    19.496989    7994.3175     6695.387    7164.6794    6066.9756    462.21101     210.6584    1270.4425   -3560.8743 
10378000    246.18222   -4826.1181   -4333.7232   -4826.1181            0    7698.8118    18.142833    22.694201    19.342757    7964.1307    7124.0771    7664.0556    8308.3026   -849.37651   -516.45195   -49.414142   -3439.5164 
10379000    263.14277   -4789.6603   -4263.3422   -4789.6603            0    6753.0525    17.958733    22.806167    19.589251     8023.167    6815.5033     7206.961    6236.6931    615.83883   -720.59942       1178.7   -3473.1698 
10380000    253.05588   -4862.1964   -4356.0534   -4862.1964            0    5572.6252    18.335854     22.74236    19.278249    8039.0413    2911.0944    7078.6783     6728.103   -349.47005    1355.8864    296.67328   -3702.7123 
10381000    249.68197   -4852.7756   -4353.3808   -4852.7756            0    6345.9618    17.963243    22.771601    19.561984    8001.8649    7288.5189    5716.4113     6032.955    170.57277   -392.42954   -765.64791   -3612.8135 
10382000    258.49808   -4805.5996   -4288.5715   -4805.5996            0    6091.5527    18.250506    22.820804    19.309005    8042.0308    4935.0639    7485.2679    5854.3263   -1983.1651    1468.8925   -136.70517   -3574.1251 
10383000    264.26875   -4818.5058   -4289.9356   -4818.5058            0    8194.4893     17.99856    22.660945    19.537389    7968.6047    10618.305    7636.1716    6328.9916   -895.51997    139.13246   -1080.1697   -3337.6219 
10384000    252.38831   -4855.1518    -4350.344   -4855.1518            0    4621.8804    18.440236    22.552113    19.424304    8077.9134    3646.0706    6127.4769    4092.0938    -1816.188    416.45569   -113.18017   -3805.8491 
10385000    251.07389   -4827.6413   -4325.4625   -4827.6413            0    8145.5295    18.070404    22.551403    19.498573    7945.9214    9690.5018    8232.4694    6513.6174    200.84021   -1919.7754    2321.1784   -3381.5332 
10386000    266.84998   -4820.3399    -4286.607   -4820.3399            0    7253.8407    18.144767    22.731646    19.330137    7972.9163     6455.035    6658.2121    8648.2752   -824.43604    70.897699   -275.99919   -3443.1535 
10387000    254.33859   -4839.7735   -4331.0649   -4839.7735            0    6965.4286    18.015718    22.628257    19.645958    8008.9553    8825.3622    7538.2422    4532.6813   -988.06679    203.97932    1969.2221   -3517.4861 
10388000    262.92619   -4847.8342   -4321.9494   -4847.8342            0    6809.6818    18.100697    22.932548    19.229545    7982.0898    5596.1319    6525.0103     8307.903    476.95293   -357.50103   -1137.1852   -3529.2303 
10389000    254.24635   -4856.0398   -4347.5157   -4856.0398            0    6707.9447    17.949162    22.845818    19.521596    8005.0897    7443.1297    7068.6235    5612.0808    229.73748    233.11769   -36.622392   -3564.3898 
10390000    254.50831   -4806.2054   -4297.1573   -4806.2054            0    6299.1533    17.974028    23.147733    19.369827    8058.9717    8474.6656    5660.1517    4762.6426   -130.94844    406.24551    408.69627   -3556.8062 
10391000    247.63602   -4819.3941   -4324.0915   -4819.3941            0    5624.3437    18.059941    22.975374    19.306292    8010.8348    6161.2856    5469.2132    5242.5324   -456.94944    958.74881     2438.729   -3667.0005 
10392000    245.88588   -4803.0988   -4311.2967   -4803.0988            0    8430.7313    18.013793    22.835878    19.372229    7968.9756     7489.936    9499.8553    8302.4026   -1119.0467    1267.1839   -215.87727   -3331.4827 
10393000    254.71619    -4834.078   -4324.6142    -4834.078            0     7412.244    18.035746    22.918072    19.334152     7991.666    6144.1628    7753.4305    8339.1388   -793.25986   -827.17483    -2246.684   -3460.7153 
10394000    255.56561   -4830.2005   -4319.0377   -4830.2005            0    5621.8203    18.030407    22.924958     19.42895     8030.885    4690.0606    5736.0342    6439.3659   -913.73652   -570.30243    951.63056   -3660.5976 
10395000    252.54495   -4824.3995   -4319.2784   -4824.3995            0    8091.5304    17.994604    22.857541    19.405477    7981.7131    9981.8282    8120.5523    6172.2108   -1894.1477     616.1119   -303.14884    -3377.383 
10396000    252.04375    -4836.333   -4332.2143    -4836.333            0    6732.5096    18.080286    22.922072    19.310385    8002.9503    6063.6061    7481.1237     6652.799    732.11858   -41.171157   -414.15184   -3546.4307 
10397000    246.06201    -4843.153   -4350.9986    -4843.153            0    6032.7602    18.002034    22.916678    19.430999    8016.1967    6479.8498    7100.7588    4517.6721   -878.13131    631.02858    2138.7042   -3645.7206 
10398000    257.20266   -4837.2017   -4322.7646   -4837.2017            0    7466.6441    17.997129     22.91376    19.355729    7981.9521    6010.1052    8853.8679    7535.9593   -895.06329    -199.7828    732.18674   -3453.5832 
10399000    273.94434   -4827.8195    -4279.897   -4827.8195            0     7619.742    17.885639    23.067816    19.472828    8034.1503    10672.849    6193.7895    5992.5875   -1263.3738   -1011.8456   -1080.2914    -3387.093 
10400000    256.57538   -4855.1573   -4341.9748   -4855.1573            0    6010.3316    18.042603    22.953399    19.315887    7999.4634    6806.2858     5618.631    5606.0781   -960.29661    23.502785   -2093.2075   -3640.7857 
10401000    271.47258   -4815.5483   -4272.5696   -4815.5483            0    5834.7771    17.886889    23.177753    19.402116    8043.6884    6957.6313    5177.6571     5369.043    125.77911    850.21002    944.01022   -3588.0981 
10402000    260.39365   -4827.7334    -4306.914   -4827.7334            0    8076.2433    18.049898    23.086352    19.196329    7999.2312     8255.961    8004.1857    7968.5834   -547.95566    -485.8731   -80.055416   -3364.7347 
10403000    259.36593   -4815.9824   -4297.2186   -4815.9824            0    6475.6485    18.067248    22.747585    19.469785     8001.814    6097.5379    7339.6351    5989.7726   -695.69624    635.41833    1373.3723   -3541.5217 
10404000    250.40707   -4826.5581    -4325.713   -4826.5581            0    6799.8178    17.948626    22.880835    19.461315    7992.3642    7729.4731    6479.4243     6190.556   -1309.1908    -349.5734   -257.03928   -3533.1233 
10405000     250.0641   -4836.0474   -4335.8883   -4836.0474            0    6957.5639    18.099499    22.741143    19.417496    7992.3053    6917.7758     7502.981    6451.9348    160.74696    3.8148344    1233.2146   -3524.9177 
10406000    241.47143   -4838.3159   -4355.3432   -4838.3159            0     4363.061    18.149627    22.821357    19.486333    8071.2219    4967.3658    4378.6125    3743.2046    -553.9106    49.197937   -2070.4536   -3841.7651 
10407000    254.43645   -4833.3958   -4324.4915   -4833.3958            0    7297.2032    17.918681    22.978478     19.40834    7991.2681     9208.412    6669.4726    6013.7249   -1212.0027    -731.4008   -669.38146    -3474.043 
10408000        248.3   -4842.1688   -4345.5381   -4842.1688            0    6864.1623    18.123966    22.910716    19.306916    8016.8694    5154.1908    6025.6968    9412.5994   -946.98379    -1475.843   -1083.1897   -3542.9953 
10409000    257.20095   -4854.6152   -4340.1815   -4854.6152            0    6267.7597    18.078851    22.745836    19.492685    8015.7539    5217.7829    7366.3864    6219.1097    1628.2687    1150.9595    933.59664   -3607.4707 
10410000    257.41167   -4820.7422   -4305.8871   -4820.7422            0    8203.3542    18.105589    22.732626    19.408156    7988.1559     9057.766    7954.3545    7597.9421   -650.59604    35.293188   -2408.9559    -3350.204 
10411000    248.07199   -4846.2258   -4350.0512   -4846.2258            0    6505.4028    18.104766    22.764004    19.445648    8014.2704    6769.3744    7064.7936    5682.0405    266.13297    562.94936    304.60289   -3589.7003 
10412000    258.08447   -4843.4556   -4327.2548   -4843.4556            0     6407.037    18.169464    22.563816    19.569218    8022.8398    5897.5483    7121.9536    6201.6092   -162.24992   -412.91532    1251.6641   -3577.6001 
10413000    256.76921   -4830.5003   -4316.9302   -4830.5003            0    6493.7539    18.260685    22.558339    19.343797    7968.3042     5383.048    7563.4128     6534.801    1658.9229    118.16127   -790.71159    -3562.294 
10414000    259.66083   -4852.7083   -4333.3545   -4852.7083            0    6008.2873    18.081488    22.488087    19.678147    8001.4904    7107.0636    7027.7403    3890.0579   -462.09589    1138.5922    1095.8057   -3632.2263 
10415000    255.69427   -4840.7262   -4329.3061   -4840.7262            0    6286.9705    18.317168    22.676378    19.321794    8025.6363    6819.9803    6262.0344    5778.8968    1422.9637   -852.87258   -504.80783   -3593.4434 
10416000    267.88068   -4813.5584    -4277.764   -4813.5584            0    5590.1671      18.0197    22.953694    19.475317    8055.3554    5482.2216     5223.574    6064.7057   -1394.8755    73.405711   -1583.7466   -3621.0362 
10417000    254.76047    -4835.855   -4326.3025    -4835.855            0    7349.7957    18.024851    22.820191    19.387519    7974.6789    8298.1831    7493.9994    6257.2046    1887.9438   -227.91213    373.47131   -3471.5028 
10418000    258.29499   -4810.5707   -4293.9488   -4810.5707            0    7297.0519    18.188271    22.626053    19.440995    8000.5293    5465.2143    7874.2047    8551.7367   -2299.1748   -108.63655    425.17531   -3442.5323 
10419000    261.37618   -4798.7434   -4275.9588   -4798.7434            0    8347.8051    18.074177    22.618905    19.518935    7979.6938    10518.549    8298.1569    6226.7094    462.40716    -479.1189    1374.7649   -3304.4775 
10420000    244.40989   -4796.4726   -4307.6226   -4796.4726            0    5732.5657    18.251605    22.697283    19.478034     8069.006    5510.6567    5885.9432    5801.0972   -1421.1303   -54.428393    1154.3953   -3633.0247 
10421000    271.47805   -4840.5317    -4297.542   -4840.5317            0    6673.9117    17.987128    22.747032    19.479975    7970.3049    6660.4663    7306.8725    6054.3963   -1935.6718    1377.4307   -1851.0462   -3521.7751 
10422000     250.2814    -4841.562   -4340.9682    -4841.562            0    5374.7532    18.238066    22.909533    19.193841    8019.6775    3242.6101    6217.7146     6663.935    64.191767    390.02319     886.5862   -3712.3437 
10423000    251.32643   -4846.5051   -4343.8212   -4846.5051            0    6840.9393    17.891687    22.826666    19.567079    7991.3431    7598.6662    6697.4832    6226.6686    866.68094   -569.99936    527.62676   -3546.5402 
10424000    263.75944   -4853.5005    -4325.949   -4853.5005            0    7778.1571    18.421968    22.696877    19.026544    7955.3999    6000.3266    8201.9793    9132.1654   -609.62614    116.83264   -559.85404   -3423.5167 
10425000    242.57907    -4813.749   -4328.5609    -4813.749            0    8108.7243    17.940711    22.620348     19.63613    7968.8345     8325.876    8735.7001    7264.5969    479.37008    157.17786    152.72831    -3386.187 
10426000    256.33745   -4845.4012   -4332.6946   -4845.4012            0    6578.7784    18.149938    22.775092     19.39121    8015.6765    4697.8304    7798.3587    7240.1462   -1080.4674    287.86951    1439.7689   -3563.6326 
10427000    249.08486   -4793.4019   -4295.2014   -4793.4019            0    7649.0126    18.126641    22.639295     19.43632    7976.1678    7587.5541    8068.8736    7290.6102     1649.469   -1498.2798   -705.54876   -3405.4359 
10428000    253.98291   -4813.7959   -4305.7987   -4813.7959            0    5749.0041    18.031245    22.708798    19.609863    8029.6094    6880.7288    6414.1329    3952.1505   -1681.0244   -99.613088   -2570.5783   -3632.5695 
10429000    256.28487   -4816.2718   -4303.6704   -4816.2718            0    6373.2383     18.09803    22.926605    19.350197    8028.9068    4248.6177    7235.8899    7635.2074   -1105.0287    248.25192   -656.77638   -3557.4065 
10430000     266.8773    -4847.545   -4313.7574    -4847.545            0    4611.5703    18.065748    22.826203    19.511197    8045.8798    3904.1187    5439.0266    4491.5658    1670.7024   -557.86246   -453.97902   -3772.6315 
10431000    258.19805   -4842.3423   -4325.9143   -4842.3423            0    8607.8928    17.995846    22.885312    19.297239    7947.3858    7905.0371    9090.8365    8827.8047   -351.07386   -618.38156   -979.86107    -3328.221 
10432000    269.10639   -4853.9319   -4315.6859   -4853.9319            0    6438.0989    18.077319    22.943039    19.288171    7999.7429    6607.8066    6324.4801      6382.01    1944.7274   -1181.0314    570.20642   -3564.5655 
10433000    250.51683   -4846.8061   -4345.7415   -4846.8061            0    5689.8762    17.858119    23.197969     19.36118    8020.7966    6054.1056    5897.0395    5118.4835   -577.47378    1413.3174     472.0091   -3680.1677 
10434000    249.45881   -4842.2296   -4343.2811   -4842.2296            0    5869.6138    18.006143    23.198923    19.168177     8006.991    7525.4638     3697.003    6386.3745   -849.62642    -739.9413    472.74111   -3657.8643 
10435000    260.86059   -4817.8476   -4296.0942   -4817.8476            0    6747.3462     17.94015    23.098228    19.342037    8015.0632    5792.4253    7417.2009    7032.4124    511.23532    546.32103   -142.78006    -3507.387 
10436000    259.78933   -4819.7731   -4300.1624   -4819.7731            0    5370.9372    17.836622    23.246325    19.396548    8042.5057    5372.1121    5486.2965     5254.403   -182.32558   -412.64347   -369.68945   -3670.1961 
10437000    251.78481   -4832.5571   -4328.9564   -4832.5571            0    7033.3207     17.96628    23.116899    19.211102    7978.8445    7865.0474    6431.9695    6802.9452    233.35548   -476.26169    470.46187   -3510.5363 
10438000    251.64386   -4800.2657   -4296.9469   -4800.2657            0    8936.9119    17.893701    23.132921    19.265192    7974.5095    8810.4359    9248.9953    8751.3046    173.30869     856.1593    1029.9314   -3257.5837 
10439000    254.77427   -4860.1747   -4350.5947   -4860.1747            0    6558.2427    17.872618     23.28215    19.167866    7975.9979    7073.3817    4797.2095    7804.1368   -805.86161   -72.791105   -2781.0682   -3587.7284 
10440000    271.68619   -4820.4536   -4277.0476   -4820.4536            0    5179.9925    17.924486    23.288701    19.306772    8059.3802    5275.6175         4845    5419.3599   -242.13856    332.03815    -1060.893   -3668.2028 
10441000    257.83388   -4827.7763   -4312.0767   -4827.7763            0    6069.7198    17.883633    23.127799    19.400308    8024.1429    7220.3056    4710.0582    6278.7957    357.16137   -855.20305    755.77468   -3601.7745 
10442000    276.33514   -4859.9362   -4307.2317   -4859.9362            0    5867.6583    18.018811    23.170234    19.220674    8024.6324    4511.9024    5377.5508    7713.5216    305.54437    192.12593    239.21507   -3620.5336 
10443000    254.58187   -4830.2035   -4321.0083   -4830.2035            0      7433.06    17.862353    23.109646    19.349528    7987.3427    10282.804    5990.9137    6025.4621   -511.51952   -474.60477   -1438.3069   -3455.1519 
10444000    255.57313   -4816.3613   -4305.1835   -4816.3613            0    7778.7776     17.74343    23.233667    19.237224    7930.4486    7012.9917    7608.6092     8714.732    355.61041    154.97332   -1509.4297   -3405.5098 
10445000    263.70414   -4844.6376   -4317.1967   -4844.6376            0     6611.571    17.955476    23.234136    19.211451    8014.6325    7773.4672    4910.3459    7150.8999    442.96193   -27.622305     1188.527    -3544.402 
10446000    250.35506   -4823.3058   -4322.5647   -4823.3058            0    8624.6401    17.848279    23.043368    19.336101    7952.6382     10213.08    7625.3578    8035.4822   -1135.8158    816.49217   -367.34303   -3322.2697 
10447000    252.39746   -4827.9225   -4323.0964   -4827.9225            0    4253.6473    18.049595    23.249274    19.231374    8070.2533    4986.5791    4760.4596    3013.9032   -8.1938116    464.71339    384.99342   -3822.4576 
10448000    260.15547   -4843.9493   -4323.6063   -4843.9493            0    5882.4901    17.977995    23.107847    19.264759     8003.212    5372.6968    6045.3612    6229.4122    -74.56118    66.812127    1279.0958     -3637.01 
10449000    262.09438   -4822.5011   -4298.2799   -4822.5011            0    7325.7086    17.968389    23.107715    19.250205     7992.847    9032.3639    5694.2576    7250.5043   -444.94331   -1202.6364   -66.172691   -3444.3406 
10450000    253.99379   -4835.1649   -4327.1459   -4835.1649            0    6141.3759    18.067064    22.788548     19.50736    8031.6121    6638.3329    6093.1817     5692.613   -1179.0636   -235.31915   -1280.1154   -3607.7892 
10451000    255.72607    -4829.053   -4317.5693    -4829.053            0    6226.1697    18.247902     22.69431    19.440586    8050.8047    6499.3111    6018.8328    6160.3652    -129.9751     108.8837    493.50203   -3586.5377 
10452000    251.25492   -4824.4527   -4321.9118   -4824.4527            0    6621.6042    18.091123    22.720427    19.503533    8016.6944    6564.9839    6438.6609    6861.1679   -1489.4793   -466.10888   -243.76518   -3547.7452 
10453000    236.80059   -4827.3966   -4353.7662   -4827.3966            0    6370.9588    18.167492    22.701532     19.46954    8029.8206    5116.7502    7438.0115    6558.1148   -280.71292    378.47936     1401.056   -3607.6842 
10454000    256.96697   -4869.6865   -4355.7209   -4869.6865            0    5180.9006    18.096595    22.607363    19.598252    8017.9639    5501.8376    6072.2873    3968.5771   -786.41461   -286.45431   -908.28922   -3749.8986 
10455000    256.23867   -4865.6282   -4353.1192   -4865.6282            0    6238.0918    18.115267     22.72212    19.457226    8008.9306    5716.2947     6865.615    6132.3658   -1036.7551    534.55449   -101.86734   -3624.4973 
10456000    249.06941    -4831.729   -4333.5594    -4831.729            0    9178.5764    17.960267    22.977177     19.25479    7945.9942    10701.309     8594.216    8240.2042   -433.83686    1150.0416   -1028.7369   -3269.9076 
10457000    260.07055   -4842.9965   -4322.8232   -4842.9965            0    4981.6247    17.933038    23.123973     19.40035    8044.9966    5169.2763    4629.2271    5146.3706    922.45308    433.82502    240.58358   -3738.3391 
10458000    264.34567   -4829.7641   -4301.0401   -4829.7641            0    7205.0695    18.053644    23.029912    19.190814    7979.0381    8422.4476    6071.6459    7121.1149   -79.884396   -532.85038   -255.70923   -3462.6144 
10459000    246.02738    -4808.192   -4316.1068    -4808.192            0    5990.0187    17.792229     23.12947    19.480788    8016.8278    6159.0105     5719.206    6091.8396   -735.97778   -1410.5289     738.9133   -3615.7706 
10460000    262.11191   -4827.5378   -4303.2816   -4827.5378            0    4835.1623    18.069102    23.274911    19.202803    8075.8679    5711.9029    3549.8255    5243.7584    695.19439   -1016.8214    99.083942   -3733.8046 
10461000    260.13073   -4840.4311   -4320.1375   -4840.4311            0    6428.7575    17.827061    23.203119    19.369011    8011.8634     7505.206    5921.0713    5859.9951    172.58862    769.07439    958.47705   -3568.9705 
10462000    268.50232   -4849.1308    -4312.093   -4849.1308            0    8157.1581    17.976429    23.062128    19.201221    7960.3405    6738.9866    8732.7616    8999.7262   -448.89545    637.89687   -405.03002   -3365.1008 
10463000    254.88294   -4831.8467   -4322.0493   -4831.8467            0    5447.0822    17.897301    23.107509    19.445276    8041.8281    7148.2686    5702.2928    3490.6854    287.30924   -878.32236    -392.5367   -3683.2057 
10464000    259.60111   -4844.1445   -4324.9102   -4844.1445            0    7719.5211     18.06757    23.119857    19.092556    7975.3354    9763.5306    6945.7713    6449.2613    -270.8083   -1073.8517   -76.323197   -3427.0366 
10465000    251.43724   -4855.9607   -4353.0551   -4855.9607            0    7098.9734    17.600737    22.863609    19.765496    7953.9588    10183.028     7587.088    3526.8041   -945.97132   -428.53562    57.017664   -3529.5719 
10466000    261.19669   -4850.4925   -4328.0669   -4850.4925            0     5206.851    18.295903    22.923076    19.218515    8060.2138    3941.8277    5680.5444     5998.181   -209.92067   -997.73118    -3242.731   -3716.0018 
10467000    253.32986   -4868.0669   -4361.3758   -4868.0669            0    7473.6137    17.987971    22.666299    19.541126    7967.3223     8446.201     7682.635     6292.005    1487.8814    328.54403   -535.56364   -3492.9776 
10468000    271.41211   -4849.8265   -4306.9687   -4849.8265            0    5321.7016    18.223481    22.755028    19.412886    8050.0547    5172.0151    5436.1602    5356.9297   -62.501056   -1514.4369   -1879.5997   -3682.1914 
10469000    248.74892   -4824.1484   -4326.6199   -4824.1484            0    5389.5667    18.095038    22.938445    19.443287    8070.3646     4478.332    5346.3784    6343.9896    20.247521   -412.41524   -607.40327   -3692.2787 
10470000    242.82656   -4840.7447   -4355.0616   -4840.7447            0    6665.1561    18.116507    22.810569      19.2989    7975.2287     5904.325    7492.5832    6598.5602    22.840632    -301.1425    637.57688   -3579.8337 
10471000    245.42304   -4831.4033   -4340.5268   -4831.4033            0    6231.6133    18.124364    22.881968    19.398773    8045.0809    6331.0934    6829.1722    5534.5742    545.47923    465.20188    661.68807   -3609.3763 
10472000    246.61587   -4858.2874   -4365.0252   -4858.2874            0    5044.3925    18.125951    22.755984    19.481053    8035.4248    4758.4799    5661.8301    4712.8676    1586.7183   -160.10144    152.20102   -3773.8807 
10473000    245.07783   -4843.2961   -4353.1101   -4843.2961            0    7948.3315    18.177386    22.891523    19.162636    7973.7269    5236.7947      8165.52     10442.68    612.25075     297.1195   -1123.0475   -3428.8096 
10474000    259.24811   -4829.9759   -4311.4477   -4829.9759            0     8059.464    17.743645    22.866442    19.676819    7983.5552     7849.047    10466.869    5862.4765    321.58277   -105.03921   -1198.0841   -3373.0685 
10475000    252.37963   -4843.2671   -4338.4767   -4843.2671            0    5996.3152    18.226725    22.857828    19.183053    7992.1077    5272.8397    6930.4324    5785.6735   -437.60079   -108.15624   -9.0839465    -3639.566 
10476000    250.19465   -4829.8526   -4329.4324   -4829.8526            0    5067.7844    17.933319    22.825716    19.691056    8060.3537    6690.7591    5289.7863    3222.8077   -902.61488   -319.60813   -2076.5018   -3733.7042 
10477000    263.81788   -4791.2073   -4263.5389   -4791.2073            0    5176.1707    18.105841    23.113657    19.239781    8051.6981    4323.2011    5395.8071    5809.5038   -155.30142   -772.05835   -1369.0399   -3655.7232 
10478000    269.60619   -4836.3842   -4297.1386   -4836.3842            0    6437.7269    17.983399    23.052906    19.330544    8013.8559    6948.0395    6538.4895    5826.6515    954.25443   -322.36281    2259.6314   -3544.7365 
10479000    260.77208   -4817.5774    -4296.001   -4817.5774            0    8238.8269    17.945041    23.145304    19.234387    7988.8761    8895.3355     8059.013    7762.1323   -722.50721    333.12137   -19.657015   -3336.0989 
10480000    274.95269    -4825.716   -4275.7766    -4825.716            0    5478.0266    17.981861    23.284861    19.272785    8069.6144    5327.3824     4138.776    6967.9215    989.29632    543.97947   -457.54835   -3631.0838 
10481000    271.34212   -4829.5018    -4286.784   -4829.5018            0    8059.6595    17.801227    23.098282    19.330877    7948.4267    8064.7473    8309.5017    7804.7296    272.26055   -682.78098    605.43824   -3352.5111 
10482000    255.00802   -4825.1226   -4315.0751   -4825.1226            0    6799.6272     17.96122    23.084053    19.274141    7991.4009    6876.9423    6578.5419    6943.3975    563.35094   -295.11098    80.762465   -3522.6031 
10483000    249.72063   -4836.7905   -4337.3183   -4836.7905            0    5920.5576    17.917751    23.099615    19.307109    7991.0803    5628.9047    5285.5706    6847.1974    1272.2801    292.03023    1434.0003   -3647.3265 
10484000    260.85929   -4822.9795   -4301.2287   -4822.9795            0    5144.0928    17.940267    23.173472    19.387255    8060.0236    5007.4888    5502.9433    4921.8463    320.16478    606.00066    404.06365   -3696.5551 
10485000    258.22746   -4855.5503   -4339.0635   -4855.5503            0    8430.3729    18.110108    22.918011    19.166502    7955.0113    6065.0382    9353.5704    9872.5102    351.36082    1908.1881   -85.822782    -3361.008 
10486000    246.22457   -4829.6364   -4337.1568   -4829.6364            0    5572.7272    18.094088    22.954382    19.419452    8065.6484     6823.557    4551.5986    5343.0258   -554.20424   -1910.0233   -478.07362   -3681.6414 
10487000    248.95326   -4829.0395   -4331.1022   -4829.0395            0    6548.2126     18.06914     23.03328    19.269729    8019.8985    5374.8651    6557.1479    7712.6249    1.0156789   -909.66136    1240.3793   -3565.2102 
10488000    263.68832   -4826.3046   -4298.8954   -4826.3046            0    8383.8105    17.851209    22.983136     19.42693    7970.4178    8325.2913    8837.6568    7988.4836    544.03558   -364.51194   -250.91263   -3324.3582 
10489000    257.52871   -4832.7818   -4317.6926   -4832.7818            0    6370.3911    18.042981     22.98602    19.275736    7994.3477    7230.2194    5683.9672    6196.9868     1917.894    358.32801    2136.5392   -3574.9728 
10490000    255.19914   -4817.5346   -4307.1048   -4817.5346            0    5059.2161    18.070029    22.941148    19.382611     8035.007    5680.0453    5415.4092    4082.1939   -326.13574   -423.98673    792.99485    -3714.254 
10491000    250.42363   -4840.6049   -4339.7267   -4840.6049            0    5738.4558    17.864707    23.046097    19.389484    7982.8786    7345.9297    4727.1341    5142.3035    1871.6509   -190.06177    884.81057   -3671.6436 
10492000    255.44654   -4825.0473   -4314.1227   -4825.0473            0    9118.0739    17.870647    23.039755    19.252603    7926.9768    10801.741    7266.4583    9286.0222   -68.976777   -75.118411   -1127.7887   -3260.0111 
10493000    264.56448   -4811.8938   -4282.7321   -4811.8938            0    6576.6136    17.989928    23.173995    19.302516    8047.1898    5897.4683    5903.1261    7929.2462    501.71915   -284.14595    854.22133   -3510.9007 
10494000    249.86137    -4806.638   -4306.8844    -4806.638            0    6708.6623    17.901141    23.227669    19.251056    8004.6233    7882.6556    4903.5427    7339.7886   -637.91192    110.59163   -1306.5037   -3523.7204 
10495000    267.18236   -4815.9769   -4281.5792   -4815.9769            0    6989.2874    17.978729    23.057443     19.31797    8008.1396    7589.6606    6150.2253    7227.9764    442.07444     1107.745    51.848993   -3465.2968 
10496000    252.77569   -4831.7055   -4326.1229   -4831.7055            0    5332.3177    18.122007    22.917602     19.42574    8067.7613    5897.6989    5042.6666    5056.5876    1024.2429    778.10315     1462.528   -3698.7222 
10497000    256.46649   -4835.3853   -4322.4207   -4835.3853            0     4949.483    18.169444    22.765843    19.393281    8021.8892    5012.7333    4752.7528    5082.9628   -2019.1192   -363.68298    -1633.149   -3743.3756 
10498000    272.42006   -4832.7015   -4287.8278   -4832.7015            0    6881.8632    18.167261    22.560484    19.517053    7999.3021    5880.2799    7624.7546    7140.5551    891.75569   -71.850447    2181.7025   -3484.9785 
10499000    246.99832   -4833.0636   -4339.0365   -4833.0636            0    5418.2105    18.252729    22.702041     19.43433    8053.0852    3204.9946     7060.583    5989.0537   -819.61697    635.85949   -1333.3156   -3702.6894 
10500000    255.15537   -4797.6849   -4287.3427   -4797.6849            0    8153.7729    18.040651     22.85672    19.359892    7983.0537    8184.8452    9450.9774    6825.4962    148.30542    916.13088    2281.2881   -3338.0425 
Loop time of 522.91 on 64 procs for 250000 steps with 1008 atoms

Performance: 82.615 ns/day, 0.291 hours/ns, 478.094 timesteps/s
99.1% CPU use with 64 MPI tasks x 1 OpenMP threads

MPI task timing breakdown:
Section |  min time  |  avg time  |  max time  |%varavg| %total
---------------------------------------------------------------
Pair    | 28.332     | 32.304     | 36.033     |  33.2 |  6.18
Bond    | 0.27232    | 0.28303    | 0.30123    |   0.9 |  0.05
Kspace  | 234.54     | 245.46     | 254.1      |  33.0 | 46.94
Neigh   | 4.4217     | 5.0442     | 5.6987     |  18.2 |  0.96
Comm    | 102.72     | 111.55     | 121.17     |  49.4 | 21.33
Output  | 1.3033     | 1.306      | 1.3163     |   0.2 |  0.25
Modify  | 115.88     | 119.28     | 122.49     |  19.3 | 22.81
Other   |            | 7.682      |            |       |  1.47

Nlocal:        15.7500 ave          20 max          10 min
Histogram: 1 0 3 3 10 10 16 9 6 6
Nghost:        2499.89 ave        2529 max        2477 min
Histogram: 3 6 11 5 10 15 8 3 2 1
Neighs:        5239.23 ave        6739 max        3251 min
Histogram: 1 1 2 8 13 9 16 8 4 2

Total # of neighbors = 335311
Ave neighs/atom = 332.64980
Ave special neighs/atom = 2.0000000
Neighbor list builds = 9209
Dangerous builds = 0

unfix		3
unfix		2
unfix		1

write_data	data.final.${pid}
write_data	data.final.0
System init for write_data ...
PPPM initialization ...
  extracting TIP4P info from pair style
  using 12-bit tables for long-range coulomb (../kspace.cpp:340)
  G vector (1/distance) = 0.37942778
  grid = 24 27 32
  stencil order = 5
  estimated absolute RMS force accuracy = 0.0024197251
  estimated relative force accuracy = 7.2869303e-06
  using double precision FFTW3
  3d grid and FFT values/proc = 3825 384
Last active /omp style is kspace_style pppm/tip4p/omp
WARNING: Not all mixed pair coeffs generated from mixing. Use write_data with 'pair ij' option to store all pair coeffs. (../write_data.cpp:312)

write_restart   restart.lmp.${pid}
write_restart   restart.lmp.0
System init for write_restart ...
PPPM initialization ...
  extracting TIP4P info from pair style
  using 12-bit tables for long-range coulomb (../kspace.cpp:340)
  G vector (1/distance) = 0.37942778
  grid = 24 27 32
  stencil order = 5
  estimated absolute RMS force accuracy = 0.0024197251
  estimated relative force accuracy = 7.2869303e-06
  using double precision FFTW3
  3d grid and FFT values/proc = 3825 384
Last active /omp style is kspace_style pppm/tip4p/omp
Total wall time: 0:08:45
