LAMMPS (30 Jul 2021)
  using 1 OpenMP thread(s) per MPI task
package omp 0
using multi-threaded neighbor list subroutines
echo both

include		in.partitions
variable        pid world 0
include		in.temp
variable        temperature equal 250.68
variable	tempDamp equal 100.0
include		in.pressure
variable        pressure equal 5375.0
variable        pressureDamp equal 1000.0 # This is 1 ps
include		in.seed
variable        seed world 745823

units		real
atom_style	full
read_restart    restart.lmp.${pid}
read_restart    restart.lmp.0
Reading restart file ...
  restart file = 30 Jul 2021, LAMMPS = 30 Jul 2021
  restoring atom style full from restart
  triclinic box = (-3.2462787 -0.16933886 -0.16096829) to (14.856278 22.749338 19.390966) with tilt (-0.19751370 -6.9339374 0.27938071)
  4 by 4 by 4 MPI processor grid
  restoring pair style lj/cut/tip4p/long/omp from restart
  restoring bond style harmonic/omp from restart
  restoring angle style harmonic/omp from restart
  1008 atoms
  672 bonds
  336 angles
Finding 1-2 1-3 1-4 neighbors ...
  special bond factors lj:    0        0        0       
  special bond factors coul:  0        0        0       
     2 = max # of 1-2 neighbors
     1 = max # of 1-3 neighbors
     1 = max # of 1-4 neighbors
     2 = max # of special neighbors
  special bonds CPU = 0.034 seconds
  read_restart CPU = 0.091 seconds

include 	in.setup
variable	out_freq equal 1000
variable	out_freq2 equal 10000
variable	out_freq3 equal 1000

timestep	2.0

neigh_modify    delay 7 every 1

include		in.tip4p
# This is TIP4P/Ice

# create groups ###
group ox type 2
336 atoms in group ox
group hy type 1
672 atoms in group hy

# set charges - beside manually ###
set group ox charge -1.1794
Setting atom values ...
  336 settings made for charge
set group hy charge 0.5897
Setting atom values ...
  672 settings made for charge

# ### TIP3P Potential Parameters ###
pair_style lj/cut/tip4p/long/omp 2 1 1 1 0.1577 8.5
pair_coeff 1 1*2 0.000 0.000
pair_coeff 2 2 0.21084 3.1668
bond_style  harmonic
bond_coeff  1 450 0.9572
angle_style harmonic
angle_coeff 1 55 104.52
kspace_style pppm/tip4p/omp 1.0e-5
pair_modify tail yes

thermo          ${out_freq}
thermo          1000
thermo_style    custom step temp pe etotal epair emol press lx ly lz vol pxx pyy pzz pxy pxz pyz enthalpy

restart 	${out_freq3} restart.lmp.${pid} restart2.lmp.${pid}
restart 	1000 restart.lmp.${pid} restart2.lmp.${pid}
restart 	1000 restart.lmp.0 restart2.lmp.${pid}
restart 	1000 restart.lmp.0 restart2.lmp.0


include         in.dump
dump            myDump all atom ${out_freq2} dump.water.${pid}
dump            myDump all atom 10000 dump.water.${pid}
dump            myDump all atom 10000 dump.water.0
dump            myDump2 all dcd ${out_freq2} dump.dcd
dump            myDump2 all dcd 10000 dump.dcd
dump_modify     myDump append yes
dump_modify     myDump2 append yes


variable natoms 	equal  "count(all)"                        # NUMBER ATOMS
variable H      	equal  "enthalpy/v_natoms"                 # ENTHALPY-per-atom
variable Vol      	equal  "vol/v_natoms"                 # volume-per-atom
fix AVG all 		ave/time ${out_freq} 1 ${out_freq} v_Vol v_H file vol_enthalpy.dat
fix AVG all 		ave/time 1000 1 ${out_freq} v_Vol v_H file vol_enthalpy.dat
fix AVG all 		ave/time 1000 1 1000 v_Vol v_H file vol_enthalpy.dat



fix 		1 all shake 1e-6 200 0 b 1 a 1
       0 = # of size 2 clusters
       0 = # of size 3 clusters
       0 = # of size 4 clusters
     336 = # of frozen angles
  find clusters CPU = 0.002 seconds
fix             2 all nph tri ${pressure} ${pressure} ${pressureDamp}
fix             2 all nph tri 5375 ${pressure} ${pressureDamp}
fix             2 all nph tri 5375 5375 ${pressureDamp}
fix             2 all nph tri 5375 5375 1000
fix             3 all temp/csvr ${temperature} ${temperature} ${tempDamp} ${seed}
fix             3 all temp/csvr 250.68 ${temperature} ${tempDamp} ${seed}
fix             3 all temp/csvr 250.68 250.68 ${tempDamp} ${seed}
fix             3 all temp/csvr 250.68 250.68 100 ${seed}
fix             3 all temp/csvr 250.68 250.68 100 745823


run             250000
PPPM initialization ...
  extracting TIP4P info from pair style
  using 12-bit tables for long-range coulomb (../kspace.cpp:340)
  G vector (1/distance) = 0.37894296
  grid = 24 27 36
  stencil order = 5
  estimated absolute RMS force accuracy = 0.0024650408
  estimated relative force accuracy = 7.4233972e-06
  using double precision FFTW3
  3d grid and FFT values/proc = 4050 480
Last active /omp style is kspace_style pppm/tip4p/omp
Neighbor list info ...
  update every 1 steps, delay 7 steps, check yes
  max neighbors/atom: 2000, page size: 100000
  master list distance cutoff = 10.8154
  ghost atom cutoff = 10.8154
  binsize = 5.4077, bins = 5 5 4
  1 neighbor lists, perpetual/occasional/extra = 1 0 0
  (1) pair lj/cut/tip4p/long/omp, perpetual
      attributes: half, newton on, omp
      pair build: half/bin/newton/tri/omp
      stencil: half/bin/3d/tri
      bin: standard
Per MPI rank memory allocation (min/avg/max) = 9.327 | 9.338 | 9.354 Mbytes
Step Temp PotEng TotEng E_pair E_mol Press Lx Ly Lz Volume Pxx Pyy Pzz Pxy Pxz Pyz Enthalpy 
 5500000    250.78255   -4813.6246   -4312.0286   -4813.6246            0    4553.7101    18.102556    22.918677    19.551935    8111.8364    5061.5187     3591.177    5008.4346   -735.35134    1027.0463   -277.39507   -3773.3118 
 5501000    253.91222   -4849.1636   -4341.3078   -4849.1636            0    6162.0547     18.21565    22.832917    19.236396    8000.7331    5626.1981    5593.6072    7266.3588    69.457523    -202.7437   -924.58332    -3622.304 
 5502000    247.22319   -4824.6389   -4330.1619   -4824.6389            0    5416.4062    17.821939    23.138464    19.558427    8065.3532    6594.8309    5185.1798    4469.2078    105.33533    396.41699   -253.84685   -3693.0577 
 5503000    248.99375   -4845.4296   -4347.4113   -4845.4296            0     4877.193    18.092325    23.097059    19.307784     8068.327    4409.3237      4867.68    5354.5753    825.47291   -414.30769   -1817.6123   -3773.5204 
 5504000    237.31959   -4855.7593   -4381.0908   -4855.7593            0     5010.757    17.976742    23.005182    19.436541    8038.1411    5157.0035    4560.1307    5315.1366   -1053.8751   -1278.4802    1402.3179   -3793.6896 
 5505000    238.76333   -4823.4817   -4345.9255   -4823.4817            0     4753.138    18.170035    23.108841    19.285119    8097.5985    5156.5292    3699.1138    5403.7711    585.73229   -345.05166    491.87451   -3784.6029 
 5506000    267.34625   -4858.3283   -4323.6027   -4858.3283            0    6159.1849    18.057292    22.793819    19.460952    8010.0236    8018.2744    5393.3682    5065.9121   -94.394903    179.95911     389.8685   -3604.0992 
 5507000    248.88323   -4846.0526   -4348.2554   -4846.0526            0    6053.7554    18.067782    22.962248    19.358141    8031.2456    5384.4838    6753.8697    6022.9125    7.1808522    1347.9244   -390.84308   -3639.1943 
 5508000    251.91116   -4836.5718   -4332.7183   -4836.5718            0    6722.6837    18.026043    22.873099    19.335087     7972.078    5110.0999    7836.7139    7221.2374    65.963859    513.65126   -974.88506   -3551.1083 
 5509000    263.55391   -4829.4351   -4302.2947   -4829.4351            0    5099.6265      18.0413    22.901529    19.445913    8034.5332    4026.1714    5207.8149    6064.8932    476.84318    493.21319    1675.8915   -3704.7438 
 5510000    257.62847   -4837.7642   -4322.4755   -4837.7642            0     5464.324     18.23884    23.012224    19.162296    8042.7272    5816.4132    4587.6816    5988.8772   -86.084576    436.34614   -959.63688    -3681.538 
 5511000    255.54367   -4854.9987   -4343.8798   -4854.9987            0    6421.8786     17.90214    22.980165    19.516831    8029.1101    6780.1942    7092.3289    5393.1127   -964.52169    414.23897    129.17905   -3591.9014 
 5512000    254.99668   -4800.5575   -4290.5327   -4800.5575            0    6170.4568    18.206049    23.021238    19.208521    8050.7866    5843.9817    6198.8983    6468.4905   -113.06056    390.45036    564.15948   -3566.0441 
 5513000    265.40988   -4827.0368   -4296.1842   -4827.0368            0    5628.2525    18.058797    22.954351    19.445507     8060.706    6499.5864    5681.9226    4703.2485   -316.25008   -1048.6466     523.3854    -3634.543 
 5514000    250.47276   -4846.3643   -4345.3879   -4846.3643            0     4582.247    18.150039    23.044306    19.385579    8108.1164    5326.8867    3349.8705    5069.9837   -497.88394    -242.5254   -200.01053   -3803.5438 
 5515000    257.00267   -4848.6068   -4334.5697   -4848.6068            0    4333.5896     17.98014    22.784398    19.611277    8034.0866    6366.2437     4216.502     2418.023    1197.7342   -2606.5707    1101.1899   -3826.8078 
 5516000    248.62581   -4827.0825   -4329.8001   -4827.0825            0    5640.1691    18.191212    22.841542    19.422262    8070.2475    4619.4339    6488.5654    5812.5079   -714.04453    271.86344   -721.78876   -3665.9732 
 5517000    255.51447   -4846.6291   -4335.5686   -4846.6291            0    4641.7036    18.181988    22.820964    19.386159    8043.9086    6137.2707    3438.9655    4348.8745   -482.04021   -1691.7939     -999.919   -3791.0403 
 5518000    233.77678   -4833.1562   -4365.5738   -4833.1562            0    4483.0788    18.015546    22.925557    19.600797    8095.4512    5958.3975    5344.4072    2146.4317   -776.03712    1090.8681   -930.32925   -3836.2842 
 5519000    253.03725   -4837.1676   -4331.0619   -4837.1676            0    6521.7767    18.134126    23.155444    19.105885    8022.6329    5176.8619    6463.0337    7925.4345    396.80273     1650.725     1261.108   -3568.0018 
 5520000    248.18966   -4839.0275   -4342.6175   -4839.0275            0    6066.2794    17.902752     23.16555    19.373266    8034.6184    5647.7874    5827.1547     6723.896   -199.62351      806.199   -114.39867   -3631.7911 
 5521000    250.51928   -4861.6081   -4360.5386   -4861.6081            0    5472.9059    18.027014    23.184467    19.235529    8039.4258    5609.2596    5047.9479    5761.5103   -291.97612    858.98785       1046.8    -3718.858 
 5522000    252.25315   -4834.6912   -4330.1538   -4834.6912            0    6564.7834    17.836957    23.025715    19.511342    8013.4779    7284.4015    7224.3112    5185.6374    1178.7251    1445.4903    108.28978   -3562.9383 
 5523000     247.7508   -4865.3986   -4369.8664   -4865.3986            0     4723.471    18.162208     23.00423     19.27281    8052.3268    3943.9652    4237.7276      5988.72    1130.1544   -493.57376     1300.428   -3815.1659 
 5524000    263.58201   -4815.5173   -4288.3207   -4815.5173            0    5419.7641    17.916357    22.898206    19.656624    8064.1779    7536.0094    3940.2109    4783.0721   -213.11197   -1449.1651    693.16727   -3650.9144 
 5525000    258.48962   -4827.2177   -4310.2066   -4827.2177            0    4400.7017    18.297745    22.632178    19.532624    8088.8075    4980.3927    4368.1714    3853.5412    587.00814   -436.10174    460.58227   -3791.0691 
 5526000    249.96119   -4822.3234   -4322.3701   -4822.3234            0    4564.7328    18.268749    22.854783    19.444726    8118.7237    3405.2207    5242.3449    5046.6328   -1422.4959   -327.08075    2.3505007   -3781.8909 
 5527000    260.86886   -4827.4703   -4305.7004   -4827.4703            0    4267.9656      18.0335    22.850033    19.596166     8074.915    3720.8819    4907.3909    4175.6239   -271.39191   -291.88739    521.29827   -3803.0862 
 5528000    239.81296   -4830.5028   -4350.8473   -4830.5028            0    3231.1785    18.232235     23.08943    19.319478    8132.9574    3022.8359    2267.5327     4403.167    2344.8976   -529.69829    2890.2096   -3967.5945 
 5529000    252.76911   -4836.0812   -4330.5118   -4836.0812            0    7712.2452    17.951298    22.908499    19.449158    7998.2189    7943.9798    8660.8625    6531.8932   -361.71291    1186.6797   -2061.6541   -3430.9106 
 5530000    262.78878   -4832.4352   -4306.8252   -4832.4352            0    4446.1581    18.275328    22.880253    19.357666    8094.2946    2482.3366    5126.8081    5729.3297   -62.613125   -160.63597    3436.8498   -3781.9696 
 5531000    244.60114   -4796.8745    -4307.642   -4796.8745            0    3791.3594    18.305334      22.6279    19.609862    8122.6255     3251.428    5218.1041    2904.5461   -2444.3978    794.18797   -779.35741    -3858.517 
 5532000     251.6059   -4826.7434   -4323.5006   -4826.7434            0    6763.6219    18.158301    22.585586    19.555895     8020.183    5069.2464    7819.8852    7401.7342    295.61384   -1017.5444    455.11733   -3532.3858 
 5533000    236.90588   -4813.4234   -4339.5823   -4813.4234            0    5095.2947    18.222752    22.723907    19.451232     8054.602    5105.3348      5295.57    4884.9793   -747.50395    51.905232   -26.455312   -3741.0477 
 5534000    242.69062   -4851.2231   -4365.8118   -4851.2231            0    6021.7514    18.229567    22.714699    19.436241    8048.1419    6575.2729    5886.3745    5603.6068    996.08511   -403.67935   -308.44669   -3659.0154 
 5535000    251.04708   -4872.6676   -4370.5424   -4872.6676            0     4962.082    18.072936    22.855151    19.478388     8045.737    5697.2264    5710.1105    3478.9089    75.502112   -495.69245   -211.36864   -3788.2976 
 5536000    248.68795   -4858.9846    -4361.578   -4858.9846            0     5699.571    17.985474    22.884689    19.426186    7995.6622    5699.0155    7185.7875    4213.9101    817.39608    1231.7663    472.39395   -3696.9594 
 5537000    254.61806   -4834.4644   -4325.1968   -4834.4644            0    7026.6627    18.031922    23.101721    19.214035    8003.9604    6479.0226     7217.692    7383.2735    33.970877    494.35666     1228.188   -3504.9776 
 5538000    255.13643   -4839.3029   -4328.9985   -4839.3029            0    6095.3063    17.807169    23.336899    19.275841    8010.3476    6883.1354    5223.5301    6179.2534   -780.90092   -145.04386    1531.4955   -3616.9283 
 5539000    249.25019   -4844.0589   -4345.5277   -4844.0589            0    5590.0568    17.849461    23.281242    19.319158    8028.2235    6659.0916    5725.0603    4386.0187   -1529.5109     1335.374   -853.67361   -3691.0248 
 5540000    251.65973   -4840.6735   -4337.3229   -4840.6735            0    4696.6938    18.197272    22.992667    19.283902    8068.4582    4668.3919    4483.2423    4938.4471    806.95909    1046.3242    1394.1508   -3784.6621 
 5541000    247.22696   -4823.7647   -4329.2803   -4823.7647            0    5461.0773    17.909108    22.792537    19.685252     8035.402    7863.9106    5831.4804    2687.8409    189.70977    491.88012    664.19522    -3689.307 
 5542000    257.62558   -4847.9966   -4332.7136   -4847.9966            0    7240.2095    18.264803    23.025545    19.035057    8005.3274    6181.9121    6916.6928    8622.0237   -1411.5097   -470.95665   -1629.7549   -3487.4228 
 5543000    261.67103   -4837.3964    -4314.022   -4837.3964            0    5549.0699     18.03015     22.91152    19.441405    8031.2083    5100.4446    5917.9143    5628.8507    776.33156   -1251.0779    460.82275   -3664.0765 
 5544000    248.46575   -4869.1857   -4372.2235   -4869.1857            0    4949.2591    18.089084    23.021754    19.343815    8055.5852    6114.4521    3733.1326    5000.1927   -2365.7715   -827.14235    -1171.567   -3790.7724 
 5545000    249.14531   -4862.6043   -4364.2829   -4862.6043            0     6506.484    18.037785    22.898305    19.366598    7999.0771    5016.5747    6675.7248    7827.1526   -1023.2844    363.28663    412.20914   -3605.2473 
 5546000    241.30068     -4843.15   -4360.5189     -4843.15            0    4433.4146    18.120854    22.983011    19.359148    8062.5386    5141.1535    4035.2905    4123.7999   -486.28429    464.68178   -443.34685   -3839.2209 
 5547000    252.24429   -4831.5364   -4327.0167   -4831.5364            0    6579.6192    18.009189    22.879727    19.578842    8067.3706    7430.7046     6835.913    5472.2398    263.23732    950.61716    129.38833    -3552.896 
 5548000     249.4965   -4856.8714   -4357.8476   -4856.8714            0     4128.446    18.133673    22.900998    19.442566    8074.0936    4510.6779    4690.5154    3184.1448   -772.29758    660.70148    700.82533   -3871.7133 
 5549000    260.18367    -4826.646   -4306.2465    -4826.646            0    6819.5152    18.139205    22.866842    19.237961    7979.6435    5226.9545    7355.5562    7876.0348    336.96308    437.60786    1692.0193    -3512.626 
 5550000    245.36507   -4850.9084   -4360.1479   -4850.9084            0     6037.705    18.042993    22.892771    19.485108     8048.404    6286.5234    6090.0664    5736.5253   -456.36898   -710.25152   -1536.7636   -3651.4559 
 5551000    261.30766   -4800.8804   -4278.2328   -4800.8804            0    3237.0728    18.233249    22.968502    19.403832    8126.1385    2807.3658    4117.4354    2786.4172   -784.10065    19.886858    823.30381   -3894.6028 
 5552000    252.16935   -4868.8256   -4364.4557   -4868.8256            0    5867.5335    18.005413    22.939819    19.399924    8012.9624    5076.3803    6680.3184    5845.9018   -641.64677    994.11396    1530.3316   -3678.7708 
 5553000    248.43832   -4873.9779   -4377.0706   -4873.9779            0    5208.6798    17.961522    23.207561    19.349574    8065.7364    7741.1136     4442.375     3442.551   -517.49497    1231.1921    295.80635    -3764.371 
 5554000    255.36907   -4818.0684   -4307.2987   -4818.0684            0    5922.5837    18.097224     23.27565    19.121088    8054.2736    5623.3298    4173.3497    7971.0716   -879.87112   -746.80696    -173.7683   -3611.6123 
 5555000    258.51782   -4839.5475   -4322.4799   -4839.5475            0    4389.4561    17.981665    23.053239    19.504659    8085.3757    4859.9205    3841.2595    4467.1883   -542.61874   -669.75225    452.29629   -3804.8888 
 5556000    257.88284   -4811.1564   -4295.3588   -4811.1564            0     6153.201    17.931936    23.069602    19.475328    8056.6049    7465.8073    5391.6105    5602.1851   -796.44408   -351.52834   -939.33638   -3572.3742 
 5557000    243.41215   -4859.3865   -4372.5321   -4859.3865            0      5017.61    18.256084    22.896717    19.278301    8058.4143     4069.414    5055.1781    5928.2378   -1708.0772   -209.14069    222.33649    -3782.844 
 5558000    255.51641   -4846.6228   -4335.5585   -4846.6228            0    5180.1261    18.003193    22.773924    19.637428    8051.4115    4586.2261    6786.6931    4167.4591   -155.21158    284.72085   -571.32298   -3727.2999 
 5559000    254.92833   -4854.7313   -4344.8432   -4854.7313            0     5952.372    18.357278    22.724769    19.249251    8030.1117    5050.6091    6872.5218    5933.9852    45.199922    499.82812   -294.46933   -3647.7552 
 5560000    246.92984   -4836.1749   -4342.2847   -4836.1749            0    4479.3136    17.981705    22.950727    19.582565    8081.5919    5422.7816    4459.0665    3556.0926    337.42852   -244.72212    898.15969    -3814.345 
 5561000    259.06745   -4835.7846   -4317.6177   -4835.7846            0    5247.9467    18.045314    23.153757    19.255866    8045.4245    4513.2952    5517.6805    5712.8644    86.396468   -302.18737    298.95614   -3701.8538 
 5562000    264.40889   -4816.2268   -4287.3763   -4816.2268            0    3517.7204    18.092052    23.116796    19.422103    8122.9115    4114.4412     4053.423     2385.297   -2037.7503   -363.93854    692.97345   -3870.6519 
 5563000    261.10438   -4839.4237   -4317.1827   -4839.4237            0     5328.853    18.088541    23.050282    19.344108    8065.4478     4498.106    5780.4062    5708.0468   -1942.4993    530.41646   -728.37048   -3690.3695 
 5564000    262.03197   -4868.5524   -4344.4561   -4868.5524            0    5353.5938    18.059785    22.874938    19.458475    8038.6168      5366.44     6036.249    4658.0923   -625.97471    275.38146    1166.1493   -3716.8276 
 5565000    253.01919   -4868.6264   -4362.5568   -4868.6264            0    4242.2901    18.113503    22.894279    19.399982    8045.0868    3805.3571    4938.3909    3983.1222   -1764.9581    169.68438   -894.92318   -3864.8117 
 5566000    256.73656   -4810.3787   -4296.8738   -4810.3787            0    6434.3092    17.881768    23.204904    19.354613    8031.0945    5977.7723    6563.5495    6761.6057    1035.8441    510.15427     1022.397   -3543.2536 
 5567000    248.75653   -4850.1709   -4352.6271   -4850.1709            0    5036.8575    18.004508    23.134366     19.36376    8065.4489    4283.0368     4980.829    5846.7065   -213.94518    431.36977   -535.65421   -3760.1602 
 5568000    251.98892   -4837.1998   -4333.1908   -4837.1998            0     6546.251    17.962474    22.985702    19.422473    8019.1521    7000.1635    5990.7354    6647.8541    2330.7143    406.97392   -47.102702   -3567.5995 
 5569000     234.1622   -4833.3561   -4365.0027   -4833.3561            0    6268.8885    18.148541    22.898461    19.261009    8004.3679    8052.6424    4686.8105    6067.2126   -1781.1197   -927.15844   -1434.4734   -3633.2009 
 5570000    251.28144   -4835.9676   -4333.3737   -4835.9676            0    4543.1806    17.930392    23.114209    19.524283    8091.7773    4753.3108    4688.9931    4187.2378    691.32564    827.36249    130.24556   -3797.2317 
 5571000     254.2215   -4841.1559   -4332.6815   -4841.1559            0    3634.0919    18.017721    23.395764    19.160678    8076.9605    3075.6669     1915.768    5910.8407    66.617659   -1599.5357   -272.77678   -3904.6066 
 5572000    266.91633   -4821.2699   -4287.4043   -4821.2699            0    3390.6338    18.024018    23.259199    19.407844    8136.2383    3731.6867    2397.6704    4042.5444    448.48234    44.210281   -458.77074   -3885.0761 
 5573000      250.546   -4873.3307   -4372.2077   -4873.3307            0    7198.7543     18.05394    22.912894    19.226686    7953.4649    6495.4939    8562.8314    6537.9375   -585.82707    420.30248    1322.8379   -3537.2017 
 5574000     244.5821   -4866.6542   -4377.4598   -4866.6542            0    5122.0514    18.156391    23.011607    19.284347    8057.1493    4726.6806     4291.576    6347.8976   -219.09309    585.51243   -3.0631091   -3775.5918 
 5575000    241.14381   -4840.9336   -4358.6162   -4840.9336            0    3280.8435    18.184423    23.016131     19.39384     8117.002    3226.7309    3270.0311    3345.7685   -1130.2185   -353.75287    197.56051    -3970.236 
 5576000     256.0831   -4833.9563   -4321.7585   -4833.9563            0    7095.6264    18.027704    22.906405     19.40685    8014.0565    5930.6678    7083.6468    8272.5645    1009.4455   -387.76948    1448.8788   -3492.4444 
 5577000    228.55305   -4841.7602   -4384.6259   -4841.7602            0    5974.4529    18.092166    22.779215    19.520759    8044.9994    6435.1408    6299.9214    5188.2964    -929.1255   -253.23967   -892.87549   -3683.6549 
 5578000    268.04682   -4822.3531   -4286.2263   -4822.3531            0    6056.8673     18.12453    22.902061    19.329659    8023.5305    6377.9448     6231.701    5560.9562    1060.7926   -139.97044   -1002.6851   -3577.4822 
 5579000    253.86975   -4866.4462   -4358.6753   -4866.4462            0    5414.9218    18.048282    22.970763    19.429091    8054.9673    6478.3293     4559.455     5206.981    80.667745    777.70647    1081.7541   -3722.5659 
 5580000    252.32509   -4806.5205   -4301.8392   -4806.5205            0    7100.1415    18.133117    22.982139    19.248274    8021.4838    4719.8244    7533.4588    9047.1414    480.56024   -229.50474    838.51152   -3471.2283 
 5581000    250.80676    -4837.509   -4335.8645    -4837.509            0    4543.6291    17.893282    23.150503     19.46944    8064.9916    4629.2763    5250.5649    3751.0462   -726.49128    1086.8592   -1812.7757   -3801.4445 
 5582000    243.77061   -4860.3798   -4372.8085   -4860.3798            0    4337.0263     18.07438    23.104896    19.339529    8076.3163    4738.1319    4074.0381     4198.909    1992.6478   -235.66159    1950.4555   -3861.9728 
 5583000    260.38091   -4832.6935   -4311.8995   -4832.6935            0    7080.3559    17.890639    23.078584    19.363464    7994.9928    9203.5768    6177.2148    5860.2763   -1646.9581   -1182.5665    184.72968   -3486.3388 
 5584000    248.04152   -4796.8733   -4300.7596   -4796.8733            0    5880.3304      18.0459    22.969016    19.346951    8019.2448    5227.7492    6425.2269    5988.0151     82.65331   -482.88529    1458.8024   -3613.0405 
 5585000    254.34888   -4859.8873   -4351.1581   -4859.8873            0    7204.7008    18.000163    22.813687    19.403283    7967.9597     8231.833    7884.8135     5497.456    -118.5488    710.38005    612.87141   -3513.9393 
 5586000    254.21581   -4858.0379   -4349.5749   -4858.0379            0    3914.2156    18.268681    22.817681    19.354696    8067.9841     2826.103    3368.1567    5548.3872   -48.974662   -1252.7741   -1754.2659   -3889.0155 
 5587000      235.234   -4821.1628   -4350.6657   -4821.1628            0    6666.6408    18.083338    22.593927    19.582148    8000.7496    7095.3243    7073.8412    5830.7568    2596.2786   -563.74057     1354.256   -3572.7839 
 5588000    240.36061   -4828.4402   -4347.6893   -4828.4402            0    3945.7404    18.317934    22.682705    19.537161    8117.6963    3851.5425    4051.4409    3934.2379    14.058179   -311.94951    623.24385   -3880.5599 
 5589000    231.04438   -4844.2191   -4382.1018   -4844.2191            0    3969.7552    18.090867    22.855112    19.497046    8061.4201    5266.6346    3168.7869     3473.844    1432.8049   -696.15663     58.59799   -3915.3874 
 5590000    248.13684    -4850.677   -4354.3727    -4850.677            0    6008.9743    18.024226    23.000453     19.38682    8037.1044    6882.7432    6143.8657    5000.3141   -93.309075   -294.84431    459.75167   -3650.0433 
 5591000    240.36775   -4838.0582    -4357.293   -4838.0582            0    3517.4355    18.091468    23.167727    19.311962    8094.3809    3533.1076    3094.2952    3924.9036    3.1865727   -32.472253   -191.00689   -3942.0659 
 5592000    253.19029   -4858.5247   -4352.1129   -4858.5247            0    5619.6821    17.994692    23.037426    19.425903    8053.0351    6041.7099    5498.1135    5319.2231    636.21518    -527.2985   -25.805206   -3692.1079 
 5593000    264.86913   -4853.1287   -4323.3578   -4853.1287            0    3059.6791    18.088607    23.210903    19.379109     8136.375    4024.7544    2327.3415    2826.9414    1666.9561     503.9934    2709.6708   -3960.2941 
 5594000    245.76438   -4832.3045   -4340.7454   -4832.3045            0    6922.1271    18.036642     22.87568    19.395927    8002.7682    6535.6893    7242.7814    6987.9106   -1953.9274    765.37475   -1372.8265   -3532.8489 
 5595000     238.3932   -4850.7586   -4373.9427   -4850.7586            0    5888.0357    18.062773    22.853338    19.418342    8015.7877    4725.9896    6868.1421    6069.9752     632.9234   -448.04544    1022.2345   -3685.6194 
 5596000    259.69323   -4845.4001   -4325.9816   -4845.4001            0     5442.243    18.087528    22.857812    19.524986    8072.4356    4176.4882    6691.6285    5458.6122   -187.29511    1263.0224    562.54502   -3685.2762 
 5597000    253.45497   -4849.2909   -4342.3497   -4849.2909            0    5551.2918    18.152252    22.819097    19.338889    8010.5157    4470.3302    5889.3952    6294.1499   -459.42509    451.76762    1234.9605   -3693.8192 
 5598000     250.0407   -4844.8805   -4344.7682   -4844.8805            0    5328.8602    18.203868    22.931717    19.333094    8070.5219    4265.5581    6446.9992    5274.0232   -1114.1559    565.05632    1114.1104   -3717.5599 
 5599000    244.35611   -4829.5474    -4340.805   -4829.5474            0    5396.4413    18.013217    23.046091    19.374877    8043.1753    6164.5549    5370.6073    4654.1619   -738.16874   -556.42571   -547.18492   -3707.7945 
 5600000    251.21236   -4834.7453   -4332.2896   -4834.7453            0    6573.1772    18.064881    23.060418    19.228518    8010.2877    6863.3075    4948.5667    7907.6573   -429.56485    501.91058    -1004.558    -3564.399 
 5601000    241.80919   -4864.0403   -4380.3921   -4864.0403            0     4592.613    18.087152     23.07265    19.352958    8076.3481     4567.406    4076.6541     5133.779    92.087343     265.7578    2125.9157     -3839.45 
 5602000    249.48563   -4837.5626   -4338.5605   -4837.5626            0    3978.4401    17.999001    22.991354     19.51455    8075.5382    4661.8269     4864.509    2408.9845   -84.758591    825.35823   -456.07451   -3870.0059 
 5603000    259.50361   -4843.5798   -4324.5405   -4843.5798            0    5621.8938     18.24843      22.9588    19.208346    8047.5681    5232.9141    4779.7957    6852.9715   -1450.3651   -1347.4618   -84.651215    -3664.724 
 5604000    261.04304    -4841.374   -4319.2557    -4841.374            0    6201.6122     17.80581    23.067615    19.561151    8034.4993      5960.97    6290.5217    6353.3451   -639.42562    1290.3365    3088.1193   -3592.5822 
 5605000    268.62725   -4824.9606    -4287.673   -4824.9606            0    4832.5365    18.053662    23.244042    19.246068    8076.4217    3895.1972    5131.5192    5470.8931   -855.39552    574.04805   -550.12564   -3718.4662 
 5606000    230.85853   -4835.8175   -4374.0719   -4835.8175            0    3392.5107    17.982204    23.265294    19.406827    8119.0648    3517.2906    2746.8036     3913.438   -686.73287    -196.4454   -1291.9676   -3972.3707 
 5607000    250.56128   -4839.0309   -4337.8774   -4839.0309            0    5321.1583    17.961633    23.157445    19.337197    8043.2207    4969.4865    5410.8416    5583.1469    303.10626    1491.3378    845.40468   -3713.6942 
 5608000    250.98203   -4827.7682   -4325.7732   -4827.7682            0    3991.2952    18.018497    23.195407    19.414927    8114.3985     3121.557    4113.8364    4738.4922   -396.19257    561.71082   -299.74528   -3853.4426 
 5609000    256.20579   -4866.6509   -4354.2077   -4866.6509            0    5708.3457    17.886874    23.199923    19.339896     8025.556    5159.3643    6123.3934    5842.2794    127.44402     376.9028   -31.119568   -3686.0772 
 5610000    257.16085   -4832.0809   -4317.7274   -4832.0809            0    6450.6679    18.213158    23.006347     19.21058    8049.5831    4848.9512    6253.4313    8249.6211    1538.0364   -411.51323    892.58366   -3560.4519 
 5611000    246.86652   -4793.7921   -4300.0286   -4793.7921            0    5423.2473    17.876356    23.016593    19.656695    8087.8024     7198.173    6216.6088      2854.96   -332.39917    497.62637   -1643.0147   -3660.3441 
 5612000    258.47807   -4847.5465   -4330.5584   -4847.5465            0    4761.4321    18.047611    23.036389    19.361063    8049.3967    5405.5164    3756.8896    5121.8903   -1314.1114   -412.49198   -558.85712   -3771.6034 
 5613000    254.39479   -4869.1183   -4360.2973   -4869.1183            0    7043.1151    18.061146     22.90406    19.307707    7987.0883    8964.7371    6652.3962    5512.2119   -179.07519    -426.5875   -430.50337   -3539.8907 
 5614000    249.02403   -4825.5438    -4327.465   -4825.5438            0    5097.1849    18.043937    22.765612    19.627441    8062.5848    4689.4726    6621.0497    3981.0324   -387.47586    1123.6169   -460.34011   -3728.1149 
 5615000    241.38168   -4824.7764   -4341.9832   -4824.7764            0    3910.9171    18.318477     22.88032    19.331369    8102.4074    4124.1315    4003.6355    3604.9842    834.97798    397.56324    48.541591   -3879.8485 
 5616000    240.01883   -4852.2173     -4372.15   -4852.2173            0    5185.1192    18.115025    22.837882    19.449241    8046.3221    6109.1483    4898.1507    4548.0587   -562.83126   -504.18248   -1449.0546     -3763.69 
 5617000    245.21693   -4864.9978   -4374.5336   -4864.9978            0    5326.8219    18.048006    22.860509    19.469472    8032.8433    6498.7104    4993.7405    4488.0147   -599.58095   -739.98378   -182.25837   -3750.4923 
 5618000    241.92005   -4843.2803   -4359.4103   -4843.2803            0    6314.5252    18.080994    22.907752    19.375761    8025.3418    6117.6958    6027.9337    6797.9461    1748.1693    -878.9348    1031.7597   -3620.3495 
 5619000    247.78134   -4853.3515   -4357.7582   -4853.3515            0    5868.2543    18.073113    22.849405    19.454822     8034.061    7068.0147    5001.4975    5535.2508    320.51343   -1343.7007   -1178.2831   -3670.1835 
 5620000    238.88799   -4822.2173   -4344.4118   -4822.2173            0    5751.2138    18.113098    22.948251    19.279271    8013.6976    5355.5291    5934.3363    5963.7761   -131.73509   -600.24598   -614.72158   -3672.2584 
 5621000    253.74844   -4870.9737   -4363.4455   -4870.9737            0    4435.0073    18.145242    22.923132    19.374049    8058.5539    5010.0188    3914.4838    4380.5194   -352.83735    1259.8153   -21.714572    -3842.218 
 5622000    253.28728   -4825.6261   -4319.0202   -4825.6261            0    3663.7535    18.106769    22.866317    19.592282    8111.8929    4368.6549    4463.5579    2159.0476    1049.6849    324.36049     1260.871   -3885.5849 
 5623000    246.42159   -4835.5972   -4342.7236   -4835.5972            0    5291.2775    18.248423    22.739303    19.381646     8042.538    4097.4711    5139.2592    6637.1022    216.82189   -465.11405   -340.34577   -3722.0981 
 5624000    257.11315   -4835.7025   -4321.4444   -4835.7025            0    5949.3175    18.049309    22.701579    19.567475    8017.7301    6861.8129    5568.7677    5417.3721   -156.64851    -618.8495    1986.3507   -3625.7885 
 5625000    247.15351   -4807.4656    -4313.128   -4807.4656            0    6832.0076    18.304156    22.634379    19.425381    8047.9975    8062.2641    6074.4223    6359.3363    392.44354   -188.71931    1882.1045   -3511.2431 
 5626000    242.99198   -4849.1085   -4363.0945   -4849.1085            0      4526.78    18.189014    22.610284    19.619968    8068.8839    3964.0062    6073.2593    3543.0744   -754.59476    1337.2934    790.79853   -3830.3994 
 5627000     253.3098   -4862.6059    -4355.955   -4862.6059            0    4815.4557    18.259789    22.778086    19.376267     8059.036    2531.0546    5915.0075    6000.3051   -893.40331    593.79632   -195.18911   -3789.9811 
 5628000    247.63109   -4862.3462   -4367.0534   -4862.3462            0    3522.2288     18.02848    22.950936    19.611348    8114.5968    4223.6949    4584.3281    1758.6634    132.31744    31.566347    895.99303    -3950.222 
 5629000    269.90759   -4835.9499   -4296.1014   -4835.9499            0    6247.4848    18.061545    22.949509    19.433184    8055.1245     7215.979    5673.5247    5852.9506   -740.27574   -712.73583   -3708.0048   -3562.1736 
 5630000    240.74736   -4862.0084   -4380.4839   -4862.0084            0    5548.8161    18.021437    22.959395    19.431127    8039.8482    5476.5797    5491.1831    5678.6854   -898.80405    828.31455   -499.36045   -3729.8689 
 5631000     233.2861   -4845.7211   -4379.1201   -4845.7211            0    4658.8446    18.189393    22.917389    19.298979    8044.8448    5001.7383    4742.9131    4231.8825    551.97663   -886.35595   -2371.0091   -3832.5174 
 5632000    262.67439   -4836.2017   -4310.8205   -4836.2017            0    5148.0499    18.039714     23.05405    19.439438    8084.6382    7591.2236    4211.7653    3641.1608    204.07548    1339.5096   -773.33646   -3703.8337 
 5633000    253.90942   -4824.8117   -4316.9614   -4824.8117            0    6086.7514    18.152147    23.033403    19.257102    8051.5048    4412.8024     5660.321    8187.1309   -715.63597   -699.15721   -2707.0509   -3602.2372 
 5634000      238.641   -4846.5556   -4369.2442   -4846.5556            0    6023.7459    17.732304    23.176054    19.504701    8015.7463    9388.4332    4959.5604     3723.244    354.73487    565.62342     1338.169   -3665.0596 
 5635000    253.97533   -4862.9851    -4355.003   -4862.9851            0    6670.9638    17.979502    23.055763    19.278359    7991.4802    6779.1447    5251.3837    7982.3631   -1087.9545   -184.63551      637.041   -3577.5186 
 5636000    254.53862   -4832.2037    -4323.095   -4832.2037            0     4863.075    17.816409    23.373793    19.253089    8017.6996    5735.3675    3674.6471    5179.2105   -80.915181    102.76536   -744.63265    -3754.456 
 5637000    256.41968    -4862.434   -4349.5629    -4862.434            0    6714.6238    17.965724    23.117238    19.275056    8005.2757    9019.3876    4753.1184    6371.3653    236.01604   -209.45986    229.16869   -3565.6391 
 5638000    249.90806   -4851.0504   -4351.2034   -4851.0504            0    5119.6183    18.032474    23.079126    19.440325    8090.5524    5298.4975    4270.6253     5789.732   -99.502625    203.00503    440.70371   -3747.1273 
 5639000    239.67907    -4847.759   -4368.3713    -4847.759            0     7180.645    18.167344    22.702248    19.319843    7968.2675    7135.3296     7612.304    6794.3016    2096.0215    22.849992    2452.1632   -3533.9156 
 5640000    250.44186   -4825.7365   -4324.8218   -4825.7365            0    5384.0897    18.249514    22.671527    19.489662    8063.7376    5127.4804     5523.397    5501.3917   -321.65008   -241.05609   -329.06886   -3691.6457 
 5641000    252.16462    -4853.498   -4349.1376    -4853.498            0    4407.6755    18.175901    22.524707    19.652724    8045.9596    3414.8948    5368.1485    4439.9831   -284.06761   -1413.2163   -710.52855   -3831.9319 
 5642000    251.07266    -4844.963   -4342.7867    -4844.963            0    5326.1411    18.178385    22.748905     19.50799    8067.3019    6010.4825    4654.7461    5313.1949    556.95645   -1699.5594   -823.44541   -3716.1485 
 5643000     239.4971   -4836.4845   -4357.4607   -4836.4845            0    4079.9746      18.0638    23.164524    19.401055    8118.1647    4482.8075    2863.1152    4894.0012    227.64221   -43.098446    669.85752   -3874.4117 
 5644000    243.51453   -4821.7071    -4334.648   -4821.7071            0    7379.6525    17.722574     23.61036    19.106761    7994.9634    6851.4872    5886.2098    9401.2605   -21.836489     423.0544   -1916.2463   -3474.1927 
 5645000    264.55992   -4873.5059   -4344.3534   -4873.5059            0    4595.0106    17.840497    23.381615    19.373508     8081.458     7440.229    3639.1173    2705.6855    490.28075    515.82069    348.45166   -3802.7865 
 5646000    244.08066   -4844.1278   -4355.9364   -4844.1278            0    4766.4941    18.009547    23.169479    19.292137    8050.0652    5145.4682    3865.3536    5288.6606    70.259471    -673.3426    782.59646   -3796.3407 
 5647000    250.11611   -4866.6313   -4366.3682   -4866.6313            0    4781.6715    17.998991    23.023212    19.408939    8042.9592    5230.2984    4052.3354    5062.3808   -15.406687   -960.24854    431.52281   -3805.4862 
 5648000    241.25764   -4828.8198   -4346.2747   -4828.8198            0    6574.5036    17.964145    22.824831    19.531758    8008.5793    6142.9477    8198.8207    5381.7424   -1663.5182    1939.7472   -560.49753   -3578.3929 
 5649000    260.91913   -4837.1083   -4315.2378   -4837.1083            0    2959.2102    18.253995    22.948759    19.441044    8143.9804    1586.5462    2905.6473     4385.437   -719.81677   -1063.2759    357.30058   -3963.7676 
 5650000    245.99398   -4854.3575   -4362.3391   -4854.3575            0    4694.0034     18.09541      22.8328    19.497076    8055.5851    5801.0757    4933.5141    3347.4204   -283.63118   -804.20859   -112.12344   -3810.8761 
 5651000     256.9922    -4808.964   -4294.9478    -4808.964            0    4827.4043    18.236278    22.878155    19.402467    8094.9496    4773.3708    4936.4304    4772.4115    -784.2332    351.37059    1899.0037   -3725.0412 
 5652000    248.15676   -4828.1001   -4331.7559   -4828.1001            0    6162.6312    18.088232    22.998697    19.326654    8039.9992    4437.3673    7346.1984     6704.328    1195.1804    1070.1953    358.45231   -3609.1557 
 5653000    253.69665   -4836.0642   -4328.6396   -4836.0642            0    4762.4654    17.940985    23.102468    19.449632    8061.5036    5157.7894    4315.0443    4814.5624   -1017.9055   -224.54212    473.40734   -3768.7224 
 5654000    245.95035   -4842.0705   -4350.1394   -4842.0705            0    4302.9836    18.117531    23.144765    19.281086    8085.0609    3005.8768    4459.7493    5443.3249   -431.51344   -757.58896    505.11695   -3842.7646 
 5655000    248.21279   -4849.5503   -4353.0941   -4849.5503            0    5293.9058    17.933534    22.861785    19.546774    8014.0323    7943.3574    4610.2485    3328.1116   -40.795399    -1091.304   -140.72944   -3734.3612 
 5656000    248.34822   -4876.7522    -4380.025   -4876.7522            0    3730.4805    18.207283    22.984855    19.357221    8100.8376    3526.4583    3783.1534    3881.8299   -23.337885    612.68132    256.56837   -3939.2971 
 5657000    260.40364   -4872.0069   -4351.1675   -4872.0069            0    5828.3917    18.228548    22.801381    19.328337    8033.5544     4186.821    7126.4658    6171.8882    330.70737    895.56164     507.0793   -3668.3064 
 5658000    245.96368   -4856.6436   -4364.6859   -4856.6436            0     7275.107    18.050536    22.792116     19.40859    7984.8862    7792.7393    6796.4505     7236.131   -245.87635    414.40556    135.73063   -3517.4897 
 5659000    252.68434   -4865.5534   -4360.1535   -4865.5534            0    5025.1091    18.132294    22.983136    19.343456    8061.1332    3939.0087    4095.0191    7041.2996    494.92083   -878.24023    1169.3087   -3769.3848 
 5660000    247.93816   -4830.9095   -4335.0026   -4830.9095            0     5259.025    17.928691    22.920399    19.625514    8064.7665     7040.999    4919.7801    3816.2959     1007.364    130.07058    1060.0789   -3716.4552 
 5661000    238.08014   -4857.9463   -4381.7566   -4857.9463            0     3890.287    18.152418    23.095367     19.34233    8109.0157    3692.1862    4467.1308     3511.544   -284.89163    761.62811   -198.32088   -3921.6847 
 5662000    251.09515   -4836.2459   -4334.0246   -4836.2459            0    4067.7652    18.099741    22.880255    19.483423    8068.6056     3818.225    4459.3612    3925.7094   -894.04968    397.25106   -1186.9461   -3855.3611 
 5663000    252.45498   -4855.0178   -4350.0767   -4855.0178            0    5809.5043     18.06002    22.897425    19.442682    8040.0924    7101.9789    5331.5339    4995.0001    619.33556   -313.09627    256.01146   -3668.8745 
 5664000    247.31455   -4848.2926   -4353.6329   -4848.2926            0    7314.9074    18.195373    22.887814    19.163705    7980.7688    7267.4477    7205.5166     7471.758   -357.60518    462.58543   -534.51846   -3502.2411 
 5665000    253.98308   -4854.7346   -4346.7371   -4854.7346            0    7451.2991    18.008195    22.941472    19.322736    7982.8889    6771.3168    7838.9599    7743.6205    44.782078    204.13319    1244.0629   -3479.2401 
 5666000    252.68482    -4802.313   -4296.9121    -4802.313            0    5895.4526    17.961481    23.252407     19.16229    8003.0859    5373.8518    5734.2219    6578.2841   -472.39292    772.03636   -635.12037   -3608.8138 
 5667000    245.46299   -4840.9302   -4349.9739   -4840.9302            0    5960.3898    17.980481    23.154989    19.271106    8023.2907    4710.0651    6469.4728    6701.6316   -2625.4978    1027.5158    -3368.864   -3652.5399 
 5668000    254.21785   -4827.9533   -4319.4862   -4827.9533            0      5553.84    17.941746    23.253921    19.370049    8081.4932    6649.8655    4269.1018    5742.5528   -196.08353   -1433.9442    2062.8785    -3664.909 
 5669000    263.46842   -4827.0893   -4300.1199   -4827.0893            0    7183.0957    17.918451    23.118087    19.273466    7983.8463     8753.695    6550.2802    6245.3118   -1648.8937   -208.19181    208.14839   -3463.7475 
 5670000    253.67952   -4839.5186   -4332.1282   -4839.5186            0    5869.6833    17.988151    23.083892    19.348046    8034.0153    5858.7904    6301.8362    5448.4233   -475.50475    118.53009   -270.71497   -3644.3899 
 5671000    257.84343   -4845.0778   -4329.3591   -4845.0778            0    5088.2947     18.12879    23.117342    19.257165    8070.4749    5462.0927    5021.4627    4781.3288   -423.42744    557.07591   -1401.1046   -3730.4689 
 5672000    253.16102   -4866.6218   -4360.2684   -4866.6218            0    7933.4713    17.994316    22.767501     19.44681     7967.078    8664.5534    7985.0945    7150.7659   -803.41138    177.85018    370.25006   -3438.4652 
 5673000    239.38514   -4849.9115   -4371.1116   -4849.9115            0    5917.8116    18.256001    22.704885    19.413396    8046.8608    4754.7581    6041.1012    6957.5755   -1037.3609    431.60919   -30.191257   -3676.6256 
 5674000    252.59981   -4856.4614   -4351.2306   -4856.4614            0    5096.5377    18.102341     22.69837    19.562841    8038.2466    4604.7932    5509.1437    5175.6761   -172.12462   -546.67882     365.8247   -3753.7656 
 5675000    245.35816   -4832.2448   -4341.4981   -4832.2448            0    4851.8512    18.050702    22.832723    19.488782     8032.237    6122.9963    4567.9301    3864.6272    126.66846   -301.10123    405.61268   -3773.1429 
 5676000    252.84345   -4859.3389   -4353.6208   -4859.3389            0    4613.7911    18.077781    23.052691    19.324255    8053.2186    5267.0367    4357.3712    4216.9655   -304.73428   -473.47379   -126.00481   -3811.7406 
 5677000     257.6445   -4840.1398    -4324.819   -4840.1398            0    5648.5655    18.056887     22.98726    19.340608    8027.8682    5082.6226    5329.9157    6533.1583    -393.9577    100.06016   -137.02686    -3663.495 
 5678000    251.77169   -4831.7704   -4328.1959   -4831.7704            0    4243.9797    17.920195    22.959058    19.576967    8054.5671    6081.6197     3801.744    2848.5755    747.44355    -157.7456    566.13771   -3829.6658 
 5679000    252.13543   -4833.0083   -4328.7063   -4833.0083            0    3058.0577     18.25878    22.920913    19.458288    8143.4473    4510.2178     2640.894    2023.0614   -901.57447   -117.55023   -2140.5427   -3965.5196 
 5680000    252.93209   -4848.1392   -4342.2438   -4848.1392            0      4566.87    18.179712    22.845979    19.465053     8084.485     6173.996    4466.0849    3060.5292    1159.2744   -378.79126   -1504.3593   -3803.7919 
 5681000    252.53378   -4860.4028   -4355.3041   -4860.4028            0    5999.9761    18.190243    22.689977    19.417812    8014.4339    5135.6987    8000.5657    4863.6639   -201.71953    540.76758   -203.54336   -3654.0131 
 5682000    247.46584   -4830.1306   -4335.1683   -4830.1306            0    4403.6933    18.132391    22.895458    19.510067    8099.5924    5653.0175    4891.3425      2666.72    122.27182     4.199046   -1787.4802   -3814.9854 
 5683000    251.80084   -4858.0005   -4354.3677   -4858.0005            0    6429.6569    18.061729    22.780418    19.421203    7990.9266    5649.6602    6727.9831    6911.3275    1840.3027   -98.268445    80.397062   -3605.0589 
 5684000    245.28634   -4862.1604   -4371.5574   -4862.1604            0     3100.724    18.200487    22.877667    19.575372    8150.8851    4489.6358    3500.5401    1311.9961   -1222.9471    546.98175    255.93227   -4002.9672 
 5685000    258.06729   -4832.1957   -4316.0293   -4832.1957            0    3883.1571    18.152589    22.994972    19.405628     8100.264    4133.6428    3196.7469    4319.0818    1606.5115   -670.47901   -648.92122   -3857.2962 
 5686000    244.55223   -4813.5879   -4324.4532   -4813.5879            0    4548.8991    18.117671     22.98306    19.371763    8066.3928    4387.4519    5570.6753    3688.5702    -519.2793   -207.37364   -1015.9336   -3789.3205 
 5687000     251.0687   -4857.7312   -4355.5628   -4857.7312            0     5938.615    18.087881    22.904805    19.361761    8021.5657    7373.2032    5131.1074    5311.5345   -462.25856     1.389376    110.29854   -3660.8262 
 5688000    261.65235   -4844.2743   -4320.9373   -4844.2743            0    5185.7344    18.064518    22.914778    19.397198    8029.3621     4906.882    5516.4308    5133.8903   -675.93854    1518.7089   -674.88022   -3713.6877 
 5689000    242.01699   -4856.4508   -4372.3869   -4856.4508            0    5113.9072    18.151919    22.864337    19.359754    8034.9095    5930.8704    4288.7619    5122.0894    -1350.793    512.13239   -181.82443   -3773.1346 
 5690000    258.14219   -4816.2791   -4299.9628   -4816.2791            0    4060.8248    18.157484    22.912205    19.457451    8094.8444    3907.5064    3928.4805    4346.4876   -732.38822   -1037.3436    105.85375   -3820.5621 
 5691000    252.55434   -4826.2724   -4321.1325   -4826.2724            0    7648.4073    17.994589    22.904676    19.355489    7977.5629    8329.9553    7960.4094    6654.8572   -107.05697   -843.95459   -437.01775   -3431.2818 
 5692000    260.95757   -4849.1382   -4327.1909   -4849.1382            0    4472.2832    18.092458    23.041043    19.326861    8056.7709    4181.2181    5236.2302    3999.4014   -547.14096    476.27033   -502.40423   -3801.6987 
 5693000     257.4701   -4859.9678   -4344.9958   -4859.9678            0    5775.6837    17.936772    23.103088    19.345787    8016.7943    6428.7567    5523.1703    5375.1241    317.16837    601.11326    -3300.907   -3669.7218 
 5694000    255.34911   -4848.9252   -4338.1955   -4848.9252            0    4795.9932    18.006012     23.35693     19.16962    8062.0745    4389.0688      4049.22    5949.6909    1169.1994    1125.2275    601.47076   -3774.2965 
 5695000    250.01595   -4833.7072   -4333.6444   -4833.7072            0    7426.0985    17.969672    23.000343    19.316509    7983.6799    7969.4832    7429.6548    6879.1575    1814.1321    732.29753    23.050866   -3468.9956 
 5696000    248.09599   -4853.7547    -4357.532   -4853.7547            0    3635.5669    17.953237    23.334904    19.293685    8082.8398    5121.7417    2191.9611    3592.9979    88.504377   -400.67137   -18.564954   -3928.9717 
 5697000    249.34988   -4839.4233   -4340.6927   -4839.4233            0    5724.6052    18.039511    23.038235    19.262962    8005.6579    6244.9437    4074.0391    6854.8328    731.04891   -631.78273    313.08434   -3672.3204 
 5698000    246.71329   -4837.2419   -4343.7849   -4837.2419            0    5029.4535    17.968216    23.010983    19.442337    8038.7513    5460.8648    5940.9945    3686.5014   -1177.0711    569.92772    437.12343   -3754.1471 
 5699000    257.72147   -4836.4812   -4321.0064   -4836.4812            0    7320.1025    18.068365    22.798643    19.409172    7995.3016    7548.9677    6739.1549    7672.1848   -999.42792    21.896285    -202.2479   -3467.4585 
 5700000    251.16049   -4847.6778   -4345.3258   -4847.6778            0    4828.7505     18.17266    22.885558     19.36004    8051.6753    6151.7429    5101.8019    3232.7067   -949.18779    713.34087   -566.69845   -3778.3077 
 5701000    251.75432   -4847.9235   -4344.3837   -4847.9235            0     3620.913    18.172751    23.043807    19.422916    8133.7221    4599.2537    3053.3214     3210.164   -1020.9476    721.40701    485.83151   -3914.8638 
 5702000    252.72863   -4847.1679   -4341.6794   -4847.1679            0    7046.6173    17.898086    23.027506     19.34637    7973.5732    6082.2099    7468.6252    7589.0168    -1034.779    1279.0119    1073.1353   -3522.2537 
 5703000    240.09737   -4852.4679   -4372.2435   -4852.4679            0    5924.9456    18.191258    22.981843    19.258003    8051.1671    5367.1418    4962.3954    7445.2996     138.1054      518.023   -434.49899   -3676.5482 
 5704000    245.60254   -4870.2249   -4378.9895   -4870.2249            0    5337.4713     18.02027    22.924682    19.461806    8039.8463    5192.1554     5431.265    5388.9934   -265.45083  0.044730165    569.81895   -3753.1554 
 5705000    239.57117   -4841.1483   -4361.9763   -4841.1483            0    7377.9213    18.069871    22.835832    19.301148    7964.4361    6944.0588    8081.8027    7107.9025   -1151.8456    1403.6254   -2295.6467   -3505.0077 
 5706000    253.85133   -4875.6524   -4367.9184   -4875.6524            0    3037.6783    18.190139    22.878814    19.509858    8119.3944    3161.1352    3009.2561    2942.6436   -202.99726   -264.75404    2222.0572   -4008.2177 
 5707000    251.19716   -4849.3255   -4346.9001   -4849.3255            0    5431.1034    18.266175    22.631412    19.513046    8066.4853    4535.5275    6519.9622    5237.8204    -266.9005     1264.388   -317.68634   -3707.9774 
 5708000       263.74   -4846.1211   -4318.6085   -4846.1211            0    7062.2394    18.077608    22.676983    19.482789    7986.8839     5433.115    8173.1943    7580.4089   -1226.0112   -125.40908    851.31311   -3495.9953 
 5709000    254.85199   -4853.3503   -4343.6148   -4853.3503            0    3812.2966    18.253546    22.787104    19.465799    8096.7103     3207.834    3782.0387    4447.0171   -211.90542   -1256.4188    796.02125   -3893.4504 
 5710000    245.00375   -4826.7415   -4336.7037   -4826.7415            0    4366.4483    18.084901    22.803246    19.588978    8078.3854    6120.6516    4336.4798    2642.2135    1780.4467    962.69391   -64.971448   -3822.2708 
 5711000    257.01887   -4849.8001   -4335.7306   -4849.8001            0     6240.767    18.162896    22.761066    19.417499    8027.3278    8747.8201    4976.9445    4997.5364    515.87284   -609.18526    1747.6337   -3605.1219 
 5712000    244.69749    -4826.282   -4336.8568    -4826.282            0    6510.2653    17.984219    23.020751    19.321281    7999.2081    5345.7106    7535.1389    6649.9465    936.48708    1701.9334    30.913092   -3577.3676 
 5713000    243.43885   -4831.9048    -4344.997   -4831.9048            0    6134.7008    18.082451    23.072563    19.263386    8036.8483    4375.4191    7059.0517    6969.6316    448.59338    627.77598   -1152.6666   -3625.9537 
 5714000    256.08147    -4858.119   -4345.9244    -4858.119            0    5283.6654    18.088094    22.993697    19.309391    8031.0104    4517.3279    4835.0541    6498.6143   -249.58784    118.90922    415.45752   -3727.0801 
 5715000    240.45624   -4871.8684   -4390.9262   -4871.8684            0    3560.7055    17.993132    22.936787    19.573802    8078.1992    5294.1285    3604.6437    1783.3442    899.41886    199.19921   -2037.8432   -3971.4315 
 5716000    239.84421   -4819.3341   -4339.6161   -4819.3341            0    6353.4874    18.072057     22.79193    19.447876    8010.5231    5843.4502    7021.3475    6195.6644    3097.9401    181.76541    113.47525   -3597.3683 
 5717000     241.9177   -4864.8225   -4380.9572   -4864.8225            0    4825.4949    18.027471    22.931648    19.490251    8057.2625    3769.4752    6271.2395      4435.77    149.09135    -557.4432   -1856.3821   -3813.9282 
 5718000     260.0193   -4845.2198   -4325.1491   -4845.2198            0    6368.6338    18.168811    22.806134    19.445915    8057.6161    7405.8754    5448.6036    6251.4224   -162.95191   -1113.9998    1001.2469   -3576.7578 
 5719000    244.55224   -4835.3279   -4346.1932   -4835.3279            0     6447.529    18.058274    22.900004    19.422585    8031.9099    7477.9601    5707.7198    6156.9072    946.66847    898.01979   -1055.8473   -3590.9479 
 5720000    238.75203   -4859.9101   -4382.3766   -4859.9101            0    5513.2863    18.138381     22.94286    19.324014    8041.6175    5899.1379    4105.5274    6535.1935   -266.10785    318.88792    323.22189   -3735.7853 
 5721000    246.86826   -4840.1467   -4346.3797   -4840.1467            0    5429.5445    17.969613    22.878102    19.573199    8046.7502    7327.9695    4764.0369    4196.6271    900.14215   -320.19907    793.60102   -3709.2031 
 5722000    235.26076   -4848.1138   -4377.5632   -4848.1138            0    4718.0888    18.047575    23.020784    19.434223    8074.3234    4819.2455    4554.6082    4780.4128    22.958226   -1979.8465   -349.21867   -3821.9813 
 5723000    233.88132   -4844.8946   -4377.1031   -4844.8946            0    4960.5851    18.029118    22.948095    19.478789    8059.0358    4362.0143    5219.7704    5299.9705    79.818495   -467.12716   -71.672418   -3794.0718 
 5724000      249.574   -4837.0963   -4337.9175   -4837.0963            0    4781.1145    18.336222     22.79552    19.291609    8063.5783    3619.1362    4459.9997    6264.2077   -788.68599   -196.57412   -1818.9738   -3775.6631 
 5725000     245.9841   -4856.2618   -4364.2632   -4856.2618            0     4481.358    17.994738    22.919035     19.58691    8078.0736    6992.0668    3322.2711    3129.7361    -231.5832    435.18187   -1065.1256   -3836.3125 
 5726000    243.66863   -4838.2209   -4350.8536   -4838.2209            0    6095.6366    18.165605    22.977576    19.315235    8062.2094    6654.8226    5997.5097    5634.5774   -1393.7835    1156.1181   -1037.9588   -3634.1344 
 5727000    267.15249   -4814.9872   -4280.6492   -4814.9872            0    6063.3626    17.977257    22.861388    19.546516     8033.326    6309.5453    6772.3389    5108.2035    632.55159    929.00464    1530.3141   -3570.2789 
 5728000    254.40726   -4828.2033   -4319.3573   -4828.2033            0    6511.7613    18.164413     23.00699    19.236232    8038.9845     6096.806    6717.6295    6720.8485   -1693.1552    148.39493   -1666.9184   -3555.9162 
 5729000    252.96966   -4827.8342   -4321.8637   -4827.8342            0    5307.2706    18.184363    22.862996    19.417055    8072.6217    3844.5406    5159.8999    6917.3715   -403.32447    1014.1341     413.4479   -3697.0339 
 5730000     259.4869   -4812.5888   -4293.5829   -4812.5888            0    5054.9712    18.134562    22.850586    19.533853    8094.5428    5908.1351    4786.6263    4470.1523    1347.1308   -241.86588    108.12529   -3696.8405 
 5731000    257.05999   -4835.8656   -4321.7139   -4835.8656            0    5695.3689    18.147295    22.732937    19.493831    8042.0105     6245.819    5956.8378    4883.4499    383.05398   -175.24165    824.72778   -3653.7355 
 5732000    253.68279   -4849.0552   -4341.6583   -4849.0552            0    5554.7081    18.180753    22.780803    19.445162    8053.6445    6492.0855    4645.4744    5526.5643   -195.66069    350.94801   -454.45806   -3689.2348 
 5733000    234.35455   -4827.8603   -4359.1223   -4827.8603            0     5962.927    18.109867    22.708132    19.583104    8053.3804    6505.7563    6002.2045    5380.8202   -43.825207     425.1263   -217.00951   -3658.7748 
 5734000    255.95279   -4830.5339   -4318.5967   -4830.5339            0    6823.1861    18.245866    22.752673    19.345885    8031.2939    8356.7416    6277.3076     5835.509    75.870705   -700.82212    2082.5046   -3519.4093 
 5735000     244.0399   -4850.2462   -4362.1362   -4850.2462            0    5564.3924    18.092202    22.819178    19.450777    8030.2372    5337.7307    5713.8477    5641.5989   -1746.3595    592.45624    1166.0696   -3710.4748 
 5736000    256.63097   -4861.8808   -4348.5872   -4861.8808            0    4381.2865    18.157926    22.761242     19.52236     8068.532    3239.1677    5715.8078    4188.8838   -1443.6633   -376.59727   -399.79844   -3833.0357 
 5737000    246.61319   -4853.7213   -4360.4645   -4853.7213            0    2705.2445    18.277678    22.793919    19.559149    8148.7306    2041.1415    4148.2798    1926.3122   -1785.0318    480.11281   -1306.7658   -4038.9709 
 5738000    265.11826   -4840.6861   -4310.4168   -4840.6861            0    6894.1792    18.139933    22.651835    19.445025    7990.0147    6314.4882    7539.9776    6828.0719   -2213.9677   -192.64299   -731.35276   -3507.0645 
 5739000    245.60786   -4841.5498   -4350.3037   -4841.5498            0    3412.6401    18.151333    22.937164    19.558702    8143.0715    2442.5424     3198.762    4596.6158   -118.33996   -444.39789    591.32773   -3945.0242 
 5740000    257.22246   -4842.6363   -4328.1596   -4842.6363            0    7125.3908    17.957103    23.116891    19.299756    8011.5682     5978.153    6516.3377    8881.6815   -108.49703    429.17966    2061.9424   -3495.6254 
 5741000     239.9373    -4834.353   -4354.4488    -4834.353            0    6120.5656    17.961765    23.103204    19.339044    8025.2068    4386.5674    6121.3223    7853.8071    958.41173   -140.34892   -1680.2393   -3638.1014 
 5742000    246.67342   -4839.1994   -4345.8221   -4839.1994            0    4720.9859    18.211197    23.192481     19.08692    8061.6053    3507.8229    4498.1541    6156.9808   -2154.4386    465.57472    2229.9506   -3790.7746 
 5743000    269.57137   -4855.6777   -4316.5016   -4855.6777            0    3917.2962    17.976135     23.00299    19.516274    8070.0739    5406.5227    2239.3168    4106.0491   -84.707322   -757.19178   -510.96859   -3855.4604 
 5744000    258.50769   -4836.1695   -4319.1222   -4836.1695            0    5796.7189    18.193329    22.848646    19.264987     8008.319    4722.9821    6148.1847    6518.9897    1347.1048   -1631.2658    3419.9053   -3642.1053 
 5745000    254.29171   -4816.3383   -4307.7235   -4816.3383            0     5593.045    18.015087    22.955447    19.552356     8085.767    5595.6201    6302.9557    4880.5593   -885.17619   -454.56107    715.46936   -3648.1769 
 5746000    241.87265   -4827.4946   -4343.7194   -4827.4946            0     5920.029    18.168944    22.744505     19.36301    8001.6404    3964.6844    7378.3665    6417.0362    498.83304   -939.63517    1325.8929   -3652.8773 
 5747000    255.34075   -4857.8051   -4347.0921   -4857.8051            0    3733.9928    18.191671    22.804677     19.48123    8081.8893    2795.3243    4964.9499    3441.7041   -329.24502    222.27484   -313.96587    -3906.981 
 5748000    255.96925   -4830.0474   -4318.0773   -4830.0474            0     5613.286    18.210144     22.77973    19.478223    8079.9987    6611.4392    5404.1873    4824.2317   -176.52267    466.91242    746.50852   -3656.6162 
 5749000    250.52165   -4858.3596   -4357.2853   -4858.3596            0     4733.733    18.216487    22.639373    19.478975     8033.321    4900.2055    5079.9327    4221.0609    589.96003   -99.834647     441.6917   -3802.6919 
 5750000    255.65907   -4815.7558    -4304.406   -4815.7558            0    5047.0068    18.322128    22.602995    19.542526    8093.2434    4317.3998    6647.2927    4176.3279   -265.41723   -83.716417    553.10671   -3708.6995 
Loop time of 480.843 on 64 procs for 250000 steps with 1008 atoms

Performance: 89.842 ns/day, 0.267 hours/ns, 519.920 timesteps/s
99.2% CPU use with 64 MPI tasks x 1 OpenMP threads

MPI task timing breakdown:
Section |  min time  |  avg time  |  max time  |%varavg| %total
---------------------------------------------------------------
Pair    | 28.314     | 32.283     | 35.597     |  31.9 |  6.71
Bond    | 0.27658    | 0.28435    | 0.29959    |   0.9 |  0.06
Kspace  | 221.76     | 227.98     | 237.61     |  23.4 | 47.41
Neigh   | 4.0671     | 4.4146     | 5.0274     |  10.8 |  0.92
Comm    | 91.146     | 100.5      | 107.77     |  33.6 | 20.90
Output  | 1.1998     | 1.2017     | 1.208      |   0.1 |  0.25
Modify  | 100.58     | 104.95     | 109.94     |  23.7 | 21.83
Other   |            | 9.229      |            |       |  1.92

Nlocal:        15.7500 ave          20 max          11 min
Histogram: 1 3 2 9 14 10 16 5 3 1
Nghost:        2482.11 ave        2508 max        2458 min
Histogram: 4 4 7 7 7 13 12 5 1 4
Neighs:        5176.72 ave        6574 max        3662 min
Histogram: 3 1 3 8 14 10 16 5 2 2

Total # of neighbors = 331310
Ave neighs/atom = 328.68056
Ave special neighs/atom = 2.0000000
Neighbor list builds = 8916
Dangerous builds = 0

unfix		3
unfix		2
unfix		1

write_data	data.final.${pid}
write_data	data.final.0
System init for write_data ...
PPPM initialization ...
  extracting TIP4P info from pair style
  using 12-bit tables for long-range coulomb (../kspace.cpp:340)
  G vector (1/distance) = 0.37873043
  grid = 24 27 36
  stencil order = 5
  estimated absolute RMS force accuracy = 0.0024967413
  estimated relative force accuracy = 7.5188623e-06
  using double precision FFTW3
  3d grid and FFT values/proc = 4050 480
Last active /omp style is kspace_style pppm/tip4p/omp
WARNING: Not all mixed pair coeffs generated from mixing. Use write_data with 'pair ij' option to store all pair coeffs. (../write_data.cpp:312)

write_restart   restart.lmp.${pid}
write_restart   restart.lmp.0
System init for write_restart ...
PPPM initialization ...
  extracting TIP4P info from pair style
  using 12-bit tables for long-range coulomb (../kspace.cpp:340)
  G vector (1/distance) = 0.37873043
  grid = 24 27 36
  stencil order = 5
  estimated absolute RMS force accuracy = 0.0024967413
  estimated relative force accuracy = 7.5188623e-06
  using double precision FFTW3
  3d grid and FFT values/proc = 4050 480
Last active /omp style is kspace_style pppm/tip4p/omp
Total wall time: 0:08:01
