#include		in.partitions
include		in.temp
variable        temperature equal 133.67
variable	tempDamp equal 100.0
include		in.pressure
variable        pressure equal 7668.8
variable        pressureDamp equal 1000.0 # This is 1 ps
include		in.seed
variable        seed equal 745823

units		real
atom_style	full

read_restart	restart.lmp.${pid}
read_restart	restart.lmp.1
Reading restart file ...
  restart file = 30 Jul 2021, LAMMPS = 30 Jul 2021
  restoring atom style full from restart
  orthogonal box = (0.15098501 0.11616549 0.19393813) to (19.849016 19.883836 20.506060)
  4 by 4 by 4 MPI processor grid
  restoring pair style lj/cut/tip4p/long/omp from restart
  restoring bond style harmonic/omp from restart
  restoring angle style harmonic/omp from restart
  972 atoms
  648 bonds
  324 angles
Finding 1-2 1-3 1-4 neighbors ...
  special bond factors lj:    0        0        0       
  special bond factors coul:  0        0        0       
     2 = max # of 1-2 neighbors
     1 = max # of 1-3 neighbors
     1 = max # of 1-4 neighbors
     2 = max # of special neighbors
  special bonds CPU = 0.008 seconds
  read_restart CPU = 0.022 seconds
include 	in.setup
variable	out_freq equal 1000
variable	out_freq2 equal 10000
variable	out_freq3 equal 1000

timestep	2.0

neigh_modify    delay 7 every 1

include		in.tip4p
# This is TIP4P/Ice

# create groups ###
group ox type 2
324 atoms in group ox
group hy type 1
648 atoms in group hy

# set charges - beside manually ###
set group ox charge -1.1794
Setting atom values ...
  324 settings made for charge
set group hy charge 0.5897
Setting atom values ...
  648 settings made for charge

# ### TIP3P Potential Parameters ###
pair_style lj/cut/tip4p/long/omp 2 1 1 1 0.1577 8.5
pair_coeff 1 1*2 0.000 0.000
pair_coeff 2 2 0.21084 3.1668
bond_style  harmonic
bond_coeff  1 450 0.9572
angle_style harmonic
angle_coeff 1 55 104.52
kspace_style pppm/tip4p/omp 1.0e-5
pair_modify tail yes

thermo          ${out_freq}
thermo          1000
thermo_style    custom step temp pe etotal epair emol press lx ly lz vol pxx pyy pzz pxy pxz pyz enthalpy

restart 	${out_freq3} restart.lmp.${pid} restart2.lmp.${pid}
restart 	1000 restart.lmp.${pid} restart2.lmp.${pid}
restart 	1000 restart.lmp.1 restart2.lmp.${pid}
restart 	1000 restart.lmp.1 restart2.lmp.1


include         in.dump
dump            myDump all atom ${out_freq2} dump.water.${pid}
dump            myDump all atom 10000 dump.water.${pid}
dump            myDump all atom 10000 dump.water.1
dump            myDump2 all dcd ${out_freq2} dump.dcd
dump            myDump2 all dcd 10000 dump.dcd
dump_modify     myDump append yes
dump_modify     myDump2 append yes


variable natoms 	equal  "count(all)"                        # NUMBER ATOMS
variable H      	equal  "enthalpy/v_natoms"                 # ENTHALPY-per-atom
variable Vol      	equal  "vol/v_natoms"                 # volume-per-atom
fix AVG all 		ave/time ${out_freq} 1 ${out_freq} v_Vol v_H file vol_enthalpy.dat
fix AVG all 		ave/time 1000 1 ${out_freq} v_Vol v_H file vol_enthalpy.dat
fix AVG all 		ave/time 1000 1 1000 v_Vol v_H file vol_enthalpy.dat


timer           timeout 02:55:00 every 1000
New timer settings: style=normal  mode=nosync  timeout=02:55:00

fix 		1 all shake 1e-6 200 0 b 1 a 1
       0 = # of size 2 clusters
       0 = # of size 3 clusters
       0 = # of size 4 clusters
     324 = # of frozen angles
  find clusters CPU = 0.001 seconds
fix             2 all nph aniso ${pressure} ${pressure} ${pressureDamp}
fix             2 all nph aniso 7668.8 ${pressure} ${pressureDamp}
fix             2 all nph aniso 7668.8 7668.8 ${pressureDamp}
fix             2 all nph aniso 7668.8 7668.8 1000
fix             3 all temp/csvr ${temperature} ${temperature} ${tempDamp} ${seed}
fix             3 all temp/csvr 133.67 ${temperature} ${tempDamp} ${seed}
fix             3 all temp/csvr 133.67 133.67 ${tempDamp} ${seed}
fix             3 all temp/csvr 133.67 133.67 100 ${seed}
fix             3 all temp/csvr 133.67 133.67 100 745823


run             250000
PPPM initialization ...
  extracting TIP4P info from pair style
  using 12-bit tables for long-range coulomb (../kspace.cpp:340)
  G vector (1/distance) = 0.37262607
  grid = 24 24 24
  stencil order = 5
  estimated absolute RMS force accuracy = 0.0034534885
  estimated relative force accuracy = 1.0400078e-05
  using double precision FFTW3
  3d grid and FFT values/proc = 2197 216
Last active /omp style is kspace_style pppm/tip4p/omp
Neighbor list info ...
  update every 1 steps, delay 7 steps, check yes
  max neighbors/atom: 2000, page size: 100000
  master list distance cutoff = 10.8154
  ghost atom cutoff = 10.8154
  binsize = 5.4077, bins = 4 4 4
  1 neighbor lists, perpetual/occasional/extra = 1 0 0
  (1) pair lj/cut/tip4p/long/omp, perpetual
      attributes: half, newton on, omp
      pair build: half/bin/newton/omp
      stencil: half/bin/3d
      bin: standard
Per MPI rank memory allocation (min/avg/max) = 9.226 | 9.228 | 9.230 Mbytes
Step Temp PotEng TotEng E_pair E_mol Press Lx Ly Lz Volume Pxx Pyy Pzz Pxy Pxz Pyz Enthalpy 
22750000    142.94362   -4959.7695   -4684.0907   -4959.7695            0    8500.4789    19.698031     19.76767    20.312122    7909.2188    8165.6371      7794.55    9541.2496   -65.299407     462.2272    47.038426   -3703.5788 
22751000      136.266   -4980.3271   -4717.5267   -4980.3271            0    7273.9605     19.98504    19.815094    20.189053    7994.9748    6666.6849    7287.4937    7867.7027   -613.28579    1033.7318    581.97149   -3869.3937 
22752000    131.76503   -4966.3151   -4712.1951   -4966.3151            0    7139.2619    19.818279    19.774225    20.382392    7987.6782    7636.9706    7243.9896    6536.8256    369.80852    467.24081    1222.7966   -3880.5276 
22753000    134.69789   -4986.7201   -4726.9439   -4986.7201            0    6800.7663    19.802144    19.793575    20.503627    8036.5041    7839.6945    5977.6485    6584.9557   -168.59628    234.08873   -210.90463   -3929.8658 
22754000    127.73867   -4980.1297    -4733.775   -4980.1297            0    6474.3041    19.739308    19.718565    20.548364    7998.0568     7956.655    5553.3747    5912.8824   -4.9727668    732.83322     877.2589   -3978.5898 
22755000    128.67823   -4961.4354   -4713.2686   -4961.4354            0    7170.9861    19.681892    19.799743    20.497402    7987.7637     5958.263    7636.4846    7918.2106    370.03223    680.32134    1588.5599   -3877.8965 
22756000    134.66321   -4965.0921   -4705.3828   -4965.0921            0    6737.6722    19.838867    19.780198    20.402353    8006.2248    5860.7731    6819.2301    7533.0134    300.90831   -149.72009   -812.25429   -3918.6748 
22757000    136.03599   -4972.6797   -4710.3229   -4972.6797            0    6469.8174    19.683516    19.747865    20.447686    7948.1672    5672.4384    8193.0542    5543.9597    214.69546    421.67882    319.24849   -3960.3684 
22758000    132.98323    -4964.461   -4707.9916    -4964.461            0    9179.4989     19.74838    19.788345    20.388917     7967.739    9049.3366    9032.6403    9456.5197   -638.57297   -481.79863   -788.93687   -3641.3219 
22759000    138.85823   -4971.0307   -4703.2309   -4971.0307            0    7143.9961    19.762041    19.879153    20.396422    8012.7882    6416.1138    7601.4263    7414.4483   -281.33025    361.39972    277.30372   -3868.3957 
22760000    137.49492   -4963.8881   -4698.7176   -4963.8881            0    7215.5185    19.716118    19.926691    20.215631    7942.2564    7167.1601    6085.5642    8393.8311    312.66833   -741.02858    -94.95992   -3862.9465 
22761000    138.94004   -4988.9687   -4721.0111   -4988.9687            0    6659.3041    19.840317    19.918201    20.332776    8035.1761    7668.1106    4958.7883    7351.0134    73.375821     752.2384    1587.6314   -3940.6419 
22762000    137.50164   -4946.9722   -4681.7887   -4946.9722            0    6827.8306    19.443164    19.833208    20.594454    7941.6398    6410.3483    7183.8725    6889.2709    -1128.841   -806.13038    540.55745   -3890.9848 
22763000    135.87634    -4958.608   -4696.5591    -4958.608            0    8537.1744    19.737164     19.80848    20.448147    7994.4733    8706.2423    8660.6743    8244.6067   -560.84974    78.825405    340.51422   -3701.1997 
22764000    137.07561   -4984.8826   -4720.5207   -4984.8826            0    7552.5934    19.860838    19.576214    20.515034    7976.2458    8085.3723    7349.3272    7223.0808    10.551751    970.75202   -854.90415   -3841.9626 
22765000    129.38646   -4966.8022   -4717.2695   -4966.8022            0    8845.7974    19.721772    19.777345    20.376206    7947.6228    7640.9144    9899.2028    8997.2749    128.74956   -418.15932   -1464.3678   -3691.9715 
22766000    136.68613   -4970.6798   -4707.0691   -4970.6798            0    8068.9753    19.648743    19.744254    20.473835    7942.8197    6928.6005      9467.38    7810.9453   -496.90168    788.10085   -1142.6655   -3772.3762 
22767000    131.47624   -4973.9427   -4720.3797   -4973.9427            0    6221.2916    19.745083    19.857585    20.465144    8024.1712     6376.616    5551.4833    6735.7753    362.88292    596.62039   -250.37556   -3992.3373 
22768000    127.46922   -4970.1711    -4724.336   -4970.1711            0    8052.3408    19.698366    19.855377    20.318871    7947.0858    8143.1965     7475.955    8537.8708   -193.98737   -727.58589   -281.53067   -3791.0689 
22769000    133.09554   -4977.3708   -4720.6848   -4977.3708            0    5927.6337    19.753271    19.949404    20.367029    8025.9536     6163.605    4402.8773    7216.4187    31.240306    1475.7359    959.72928   -4026.8535 
22770000    130.13205   -4967.4613   -4716.4907   -4967.4613            0    9045.8335    19.812494    19.750087    20.367876    7969.9189    8816.6954    9416.4479    8904.3571   -473.85465    46.594508   -294.22365   -3665.0655 
22771000    129.01073   -4977.3677   -4728.5597   -4977.3677            0    6967.2983    19.888198    19.732758    20.355755    7988.5958    6586.8533     6565.106    7749.9356   -725.28249    247.98655    662.24004   -3916.8313 
22772000    134.12001    -4967.594   -4708.9323    -4967.594            0    7221.7168    19.932655    19.732417    20.265555    7970.8372    7768.3882    5475.2963    8421.4659    -264.8087    38.044468   -170.97564   -3869.4331 
22773000    128.61452    -4977.751   -4729.7071    -4977.751            0    7028.5623    19.686424    19.811776    20.529544    8006.9946    5950.4889    7749.1166    7386.0814     118.5573   -11.812452    280.61028   -3908.9552 
22774000     138.9474   -4959.7351   -4691.7634   -4959.7351            0    7493.2669    19.749426    19.713807    20.532633    7994.1006    7424.3934    7451.9075    7603.4998      159.668    176.99687   -798.51551   -3818.1552 
22775000    137.62156   -4963.6471   -4698.2323   -4963.6471            0    8243.7067    19.779311    19.741854    20.418309    7972.9467    9017.5147    9014.0307    6699.5748    131.77206    675.63652    1094.5421   -3739.6768 
22776000    138.40412   -4968.2532   -4701.3292   -4968.2532            0    7121.4695     19.87127    19.698947    20.442436    8002.0504    5874.6325     9104.073     6385.703    -533.7585    271.13045   -814.63652   -3870.2417 
22777000    135.78191   -4957.2203   -4695.3535   -4957.2203            0    9015.5886    19.731466    19.624092     20.55167    7957.8555    9950.7149    8984.9706    8111.0803   -211.55177   -284.51715    -533.1782   -3649.0299 
22778000    133.50877   -4969.4793   -4711.9965   -4969.4793            0    8489.5639    19.774481    19.745597    20.272001    7915.3838    8290.3388    7759.8653    9418.4876    331.51445   -453.59408    590.27326   -3731.9803 
22779000    134.37825   -4971.0603   -4711.9005   -4971.0603            0    7492.1398     19.70676    19.807397      20.4566    7985.0216    7423.7988    7450.2908    7602.3297   -270.74535    1307.4703    475.19252   -3839.4157 
22780000    131.94106   -4950.6388   -4696.1794   -4950.6388            0    8256.7724    19.601316     19.72254    20.498446    7924.4478    7860.6134    9503.6831    7406.0206     172.4811    608.28053     671.5297   -3741.9447 
22781000    131.66182   -4952.4604   -4698.5395   -4952.4604            0    7711.6515    19.665461    19.801653    20.480628    7975.3332    9763.2399     5963.609    7408.1057   -606.25169    309.25547     1436.522   -3801.5815 
22782000    136.72357    -4959.294   -4695.6111    -4959.294            0    8184.3428     19.55537    19.871477    20.390963    7923.8074     7177.805    8737.5657    8637.6577   -408.71539   -166.02501   -1264.6601   -3749.8235 
22783000    131.18479   -4970.5267   -4717.5258   -4970.5267            0    6353.6203    19.793459     19.88823    20.399652     8030.463    6244.1637    6565.0278    6251.6693    350.18908    250.66374    22.944212   -3973.4148 
22784000    134.12656     -4977.43   -4718.7556     -4977.43            0    7841.0138    19.627746    19.790261    20.420842    7932.2355    8328.6496    7585.1825    7609.2093   -502.77732    51.045911   -48.088613   -3811.6796 
22785000    128.76454   -4983.0768   -4734.7436   -4983.0768            0    8286.1606    19.769338    19.689766    20.484928    7973.8329    7265.7885    9070.8163    8521.8769   -1117.1505    561.99449    2.4309945   -3771.1445 
22786000    130.82645   -4975.2552   -4722.9454   -4975.2552            0    8322.2509    19.926272    19.654378    20.295512    7948.5036    7234.9104    8477.3751    9254.4671   -46.127382   -605.62547   -23.414112   -3758.2236 
22787000    134.87955   -4974.0388   -4713.9123   -4974.0388            0    8100.3091    19.824081    19.808695    20.290108    7967.7055    7659.1937    7921.6879    8720.0459    -401.1389   -431.09885    234.07085   -3772.6498 
22788000    137.41695   -4972.0056   -4706.9855   -4972.0056            0    7196.8914    19.795029    19.887936      20.3216    8000.2537    8458.3645    5666.3555    7465.9542   -265.42442    -321.6788    970.65001   -3867.2846 
22789000     133.1527   -4986.2838   -4729.4876   -4986.2838            0    6277.7692     19.85192    19.938961    20.287804    8030.4536    7080.8047    4899.3345    6853.1685   -49.879375   -437.77701    543.32107   -3994.2608 
22790000    131.72909   -4972.7512   -4718.7005   -4972.7512            0    8265.5955    19.735197    19.810717    20.390681    7972.1118    7397.1156    8910.0347    8489.6361   -753.49837   -268.52646   -718.94983   -3757.7005 
22791000    136.04097   -4973.3307   -4710.9643   -4973.3307            0     7350.782    19.813305    19.695604    20.448041    7979.5411    5412.9528    8620.3144     8019.079    225.93613    400.03098    23.478371   -3855.5286 
22792000    131.26868   -4972.9833   -4719.8206   -4972.9833            0    7604.9026    19.883962    19.827013     20.24319    7980.6668    8293.2267     6318.474    8203.0069   -26.328781    364.24632   -1137.1445   -3834.6872 
22793000    133.44032   -4961.6594   -4704.3085   -4961.6594            0    7058.3492    19.559065    19.899884     20.54866    7998.0136    7220.0014    7168.2646    6786.7815     161.8737    315.94006     1399.555   -3881.0027 
22794000    129.68223   -4972.2942   -4722.1911   -4972.2942            0      8874.38    19.668203    19.765908     20.49818    7968.8698    8505.8968    8587.7936    9529.4497    242.67012   -481.27597   -846.42599   -3690.8303 
22795000     130.1638   -4988.7991   -4737.7673   -4988.7991            0    5718.4556    19.641875    19.960136    20.481756    8029.9646    5811.0265    5595.7293    5748.6109    427.14534    246.26719    -187.9727   -4068.0858 
22796000    133.21088   -4976.8703   -4719.9619   -4976.8703            0     8231.547    19.722685    19.740299     20.45247    7962.7949    8792.0278    7436.2836    8466.3295    390.24195   -468.53926   -60.701249    -3764.039 
22797000    128.43464   -4958.9516   -4711.2546   -4958.9516            0    8951.9059    19.597421    19.799034    20.477523    7945.4837    8417.0139    9195.8023    9242.9015   -97.596963    59.983955    987.93594    -3673.937 
22798000    129.60422   -4975.0104   -4725.0578   -4975.0104            0    7883.1949     19.72484    19.837159    20.362509    7967.5401    8031.9448    8133.2668    7484.3731    321.61425   -310.23294    -669.5965   -3809.0431 
22799000    135.19454   -4967.1639   -4706.4299   -4967.1639            0    8738.4458    19.797687    19.731862    20.393371    7966.5731    8356.6641    7646.9099    10211.763   -151.37621   -225.66515   -1597.2984   -3691.1597 
22800000    126.73509   -4972.8697   -4728.4504   -4972.8697            0    7526.4952    19.775187    19.710349    20.528567    8001.5395    7133.6795    7950.9127    7494.8934   -10.436355     504.3931    530.48487   -3850.1517 
22801000    143.56243   -4952.4894   -4675.6172   -4952.4894            0    7969.7654    19.700024    19.805585    20.354233    7941.6208    8490.0677    6598.0911    8821.1374    317.37585    233.14232    438.65595   -3752.5558 
22802000    128.74685   -4973.3473   -4725.0481   -4973.3473            0    8057.8519    19.765268    19.790633     20.42251    7988.6153    7664.7766    9035.3677    7473.4114   -101.70295    557.90251    26.515728    -3786.262 
22803000    129.00669   -4977.3444   -4728.5441   -4977.3444            0    7280.3474    19.473334    19.733458    20.702397     7955.439    7436.3941    9479.2425    4925.4055    -220.3319   -193.12636    577.70641   -3883.8643 
22804000    138.48838   -4963.6464   -4696.5599   -4963.6464            0    8067.9644    19.599057    19.713144    20.568464    7946.8121    8167.1035    8077.9253    7958.8644   -184.37069    845.13039    450.10293   -3761.5143 
22805000    133.09102   -4961.3402    -4704.663   -4961.3402            0    8372.5245    19.783539    19.703056    20.354132    7933.9628    7824.6145    8589.9958    8702.9633   -271.44638   -104.93744    858.33785    -3735.889 
22806000    142.24763   -4963.2033   -4688.8668   -4963.2033            0    7899.9177    19.701971    19.882632    20.412462    7996.1134    7857.1342    8915.8666    6926.7523    307.26932   -440.18964    1025.2483    -3767.617 
22807000    129.71913   -4983.4343     -4733.26   -4983.4343            0    6830.7816    19.844553    19.752019     20.39973    7996.0819    5290.3814     8845.841    6356.1223   -167.93187    198.42237   -372.09876   -3936.6908 
22808000    137.06237    -4981.428   -4717.0917    -4981.428            0    8100.9517    19.794873    19.708452    20.519238    8005.0943    9055.4085    8151.5023    7095.9442   -98.956813    426.86306   -598.15416   -3771.3372 
22809000    131.12127   -4966.5529   -4713.6745   -4966.5529            0    8167.3182     19.65771    19.765721    20.460702    7949.9815    8553.2426    7157.7684    8790.9437    483.91495   -314.44935    176.92389   -3766.7366 
22810000     136.7911   -4974.4138   -4710.6006   -4974.4138            0    9276.1008    19.654018    19.783306    20.400571    7932.1799    9678.0469      9362.13    8788.1254   -402.27936    275.70697    893.78711   -3637.5162 
22811000    126.53579   -4948.1301   -4704.0951   -4948.1301            0    8200.5686    19.646937    19.619622    20.644083    7957.5811     7936.506    9731.9162    6933.2837    226.85685    -100.4354   -653.09321   -3752.3933 
22812000    142.77582   -4967.4752     -4692.12   -4967.4752            0    7338.3675    19.565608    19.839902    20.539172    7972.8907    7779.8619    6224.1417    8011.0987    526.95293    348.02608   -96.981419   -3838.8408 
22813000    133.13042   -4959.0758   -4702.3226   -4959.0758            0    7745.4818    19.792811    19.817095    20.350265    7982.1066    7528.4331     7802.865    7905.1474   -708.70495    405.71971    424.33252   -3800.6646 
22814000    132.13195   -4974.2626   -4719.4351   -4974.2626            0    5870.0319    19.846419    19.775989    20.493827    8043.4702    5910.4751    5572.4537    6127.1669    -547.9088     428.1202    415.88281   -4030.8465 
22815000    135.18699   -4974.0962   -4713.3768   -4974.0962            0    8184.3811    19.599361    19.898375     20.33439    7930.3193    7654.2653     7603.307    9295.5712   -385.88251    -619.1192   -323.99715   -3766.8075 
22816000    138.96769   -4957.1876   -4689.1767   -4957.1876            0    8209.9134    19.810499    19.884596    20.240878    7973.3629    8347.3046    7519.9938    8762.4417    93.896875   -384.04823   -508.02781   -3734.5008 
22817000    134.90002   -4986.9344   -4726.7683   -4986.9344            0    6518.8309    19.786595     19.81168    20.433874     8010.195    6305.1618    6303.9402    6947.3907   -407.98239    584.82764    471.46142   -3965.2354 
22818000    127.72729   -4963.7173   -4717.3845   -4963.7173            0    9429.8758    19.771358    19.721796    20.407813    7957.5507    9278.8586    9751.8232    9258.9456    288.61018    637.87749   -358.01871   -3623.0218 
22819000    127.31317   -4980.4585   -4734.9244   -4980.4585            0    8293.1707     19.87739    19.695827    20.393893    7984.2426    7854.1192    8311.2302    8714.1627    124.93556    176.32009   -413.31755   -3769.2511 
22820000    129.73496   -4955.3379   -4705.1331   -4955.3379            0    7783.8023    19.896807    19.671133    20.390612    7980.7373     7279.681    8030.8005    8040.9255   -32.655142     127.8518    29.327725   -3799.1696 
22821000    137.03723    -4972.071   -4707.7832    -4972.071            0    8592.6405    19.803185    19.719654    20.373489    7956.0909    7284.5192    9607.3995    8886.0028    723.16076    268.80817    250.04173   -3710.7669 
22822000    148.64841    -4962.589    -4675.908    -4962.589            0    9311.4939    19.699657    19.704779    20.394082    7916.5213    8003.9413    10604.175     9326.365    676.19528    1026.1112   -18.631498   -3600.8556 
22823000    123.22977   -4971.4089   -4733.7499   -4971.4089            0    7136.6836    19.879384    19.697881    20.379533    7980.2529    6318.9225    7871.0903     7220.038   -264.03917    24.728515    579.30001   -3903.1556 
22824000    131.65547   -4976.3211   -4722.4124   -4976.3211            0    8678.0115    19.683107     19.72884    20.411581    7926.3245    8522.3575    8541.7789     8969.898   -190.85512    978.30399   -165.89208   -3719.2576 
22825000    131.56598    -4969.969   -4716.2329    -4969.969            0    7465.2037    19.816011    19.594545    20.545981    7977.7114    6288.4662    8556.5122    7550.6327    -630.7266   -396.79686   -465.39567   -3847.6808 
22826000    138.10389   -4976.1769   -4709.8319   -4976.1769            0    8493.3177    19.488535    19.717664     20.62485    7925.4779    9144.5465    8431.4639    7903.9428   -142.26921   -482.57925    447.75005   -3728.1321 
22827000    125.58116   -4981.9025   -4739.7087   -4981.9025            0    5896.1409    19.958344    19.781702    20.342406    8031.3859    5804.6374    5327.3514    6556.4338    375.95713    434.20667     406.0664   -4049.0965 
22828000     133.2761   -4950.2107   -4693.1765   -4950.2107            0    8431.8293    19.658037     19.75657    20.510407     7965.737     7967.498    8641.0467    8686.9433   -422.44438     669.0568    402.39682   -3713.6332 
22829000    133.68543   -4985.1894   -4727.3658   -4985.1894            0    7261.7002    19.855863    19.719383    20.421821    7996.0692    8898.8727    6233.3116    6652.9163   -387.66144   -111.03548    878.56057   -3880.5465 
22830000     132.6981   -4960.4254   -4704.5059   -4960.4254            0    5793.6523    19.882304    19.647802     20.53149    8020.4943      6606.57    5826.1913    4948.1956    112.55808   -295.96781   -703.10616   -4026.8185 
22831000    132.45689   -4966.6473    -4711.193   -4966.6473            0    7742.2317    19.781605    19.729733    20.535866    8014.8564    7043.3153     8941.771    7241.6089   -595.40513     194.2792    1013.5843   -3806.2155 
22832000    133.56229   -4980.7405   -4723.1544   -4980.7405            0    7517.5316    19.822236    19.644802    20.469871    7971.0478    6677.1038    7727.2496    8148.2413   -131.18606   -84.687221    375.15004   -3849.2447 
22833000    139.29957   -4976.5297   -4707.8788   -4976.5297            0    7797.3193    19.782417    19.835817    20.354781    7987.2242    8743.0469    6484.0414    8164.8696    -70.58813    44.449735   -189.42913   -3799.6043 
22834000    134.25555   -4955.5628   -4696.6396   -4955.5628            0    7323.4018    19.940998    19.656231    20.438908    8011.3339    7523.9119    7349.1174    7097.1761   -529.64295    867.46983    -994.6412   -3840.9947 
22835000    131.30389   -4978.9617   -4725.7311   -4978.9617            0    8231.0344    19.832103    19.701031    20.439923    7986.1413    9708.7725    7361.1544    7623.1763    165.29426    841.18382    318.33494   -3767.0652 
22836000    130.18968   -4973.1665   -4722.0848   -4973.1665            0    7543.8721    19.789379    19.688482    20.552261    8007.6301     8224.149    6986.1084    7421.3588   -26.896731   -1300.2472   -1017.5846   -3841.0882 
22837000    130.29353   -4974.3042   -4723.0222   -4974.3042            0    6968.1558    19.868608    19.745208    20.420432    8011.1351    9084.2419    5529.5537    6290.6717   -41.049797   -128.57461    -901.5545   -3908.9033 
22838000    133.82201   -4970.7445   -4712.6575   -4970.7445            0    8867.4029    19.816549    19.755011    20.348891    7966.1055    8446.3966    8622.6385    9533.1735   -686.03374    190.89963   -603.74847    -3682.465 
22839000    130.50041   -4993.2017   -4741.5207   -4993.2017            0     7508.244    19.739882    19.727671    20.502814    7984.2446    6805.1693    8685.8627    7033.7001    658.73164   -353.15678    1201.8608   -3867.2456 
22840000    130.35792   -4968.0088   -4716.6026   -4968.0088            0    8514.5655    19.878569     19.70728    20.267261    7939.7509    7423.6762    9419.8842    8700.1362     73.72238    692.47626   -220.35404   -3730.6744 
22841000    132.40483   -4975.2853   -4719.9314   -4975.2853            0    7611.4027    19.783541    19.759449    20.385023    7968.7474    7057.4837    8389.1184    7387.6059   -570.13157    854.72817    415.38944   -3835.3646 
22842000    131.32449   -4975.2858   -4722.0155   -4975.2858            0    7600.2873    19.777064    19.856603    20.399008    8010.7988    8011.1202    7152.8795    7636.8623   -416.06985    367.09191    318.53592   -3834.0794 
22843000    136.48329   -4963.8856   -4700.6661   -4963.8856            0    6846.3284    19.720438    19.759826    20.490235    7984.4796    6230.1966    7375.1301    6933.6585   -383.20259    989.45162    1109.1097   -3903.4424 
22844000    132.64848   -4966.6176   -4710.7938   -4966.6176            0    7875.4812    19.720992    19.751319    20.441911    7962.4432    7414.3566    7892.5229    8319.5641    -309.4158   -1026.8588      159.221   -3796.2609 
22845000    127.78483   -4980.1321   -4733.6883   -4980.1321            0    7737.7031    19.659028    19.813005    20.476461    7975.6723    6759.7936    7723.9148     8729.401     214.2644   -697.13986    418.66804   -3833.6618 
22846000    133.52778   -4970.8579   -4713.3383   -4970.8579            0    7994.2565    19.705995    19.899933    20.416135    8006.1463    8450.8404    7777.0451     7754.884   -65.258632   -203.83132     298.4874   -3779.9175 
22847000    133.52302   -4967.8437   -4710.3334   -4967.8437            0    7907.4368    19.778404    19.760014    20.375964    7963.3653    7506.2114    8164.4766    8051.6223   -321.01593    742.63271   -925.18461   -3791.9833 
22848000     133.1463   -4964.7593   -4707.9755   -4964.7593            0    8556.3388    19.584079    19.832075    20.414073    7928.6814    9367.9917    8383.3634    7917.6614   -38.540331   -138.67673    123.83915   -3718.5916 
22849000    128.86777   -4965.7535   -4717.2212   -4965.7535            0    6768.3029    19.711108    19.848011    20.403989    7982.5766    6608.0558    6155.1168    7541.7359   -524.69241   -60.797759   -4.8024896    -3929.271 
22850000    129.54005   -4961.4733   -4711.6445   -4961.4733            0    8072.7061     19.60229    19.818696    20.442473    7941.7339    9042.1811    6951.5165    8224.4206    247.41528   -1273.2061     894.4279   -3776.6472 
22851000    127.69072    -4987.268   -4741.0057    -4987.268            0     7179.435    19.637326    19.932191    20.553328    8044.8794    8948.9387    6322.8652    6266.5013   -524.28491    927.17369    494.36503   -3898.6691 
22852000    132.40366   -4967.9612   -4712.6096   -4967.9612            0    6460.3285     19.64011     19.81633    20.570716    8006.0176    7945.6318    6016.9179    5418.4357     78.38665   -1061.0068    776.07144   -3958.3045 
22853000     137.8889   -4973.9643    -4708.034   -4973.9643            0    6926.0701    19.836552     19.69533     20.54473    8026.5681    6661.8263     7572.954    6543.4299   -388.19149    251.35987   -567.98311   -3897.2734 
22854000    135.64477   -4972.4969   -4710.8945   -4972.4969            0    6975.7273    19.835853    19.679699    20.526782    8012.9091    6372.2224    7091.6252    7463.3343   -358.05606    492.42737   -378.26874   -3895.7106 
22855000    133.54752   -4950.2523   -4692.6946   -4950.2523            0    8423.2517    19.877522    19.508301    20.607825    7991.2338    8499.6704    8829.7782    7940.3066    313.28339    1508.4989   -540.48046   -3711.0156 
22856000    130.25846   -4977.8637   -4726.6493   -4977.8637            0    7095.1646    19.721981    19.749388    20.433264    7958.6963    7191.4801    6863.2826    7230.7312   -79.567783   -1166.4513    854.78425   -3903.1176 
22857000    133.49792   -4965.5609    -4708.099   -4965.5609            0    8196.3743    19.931442    19.716534     20.25192    7958.5784    9326.7683    7317.3782    7944.9765   -647.54038   -65.857066    225.26894   -3756.7646 
22858000    136.89084   -4969.3483   -4705.3428   -4969.3483            0    8357.4367    19.734895    19.714126    20.428639    7947.8887    9269.3332    8111.1916    7691.7854   -628.67111    740.47449    540.10472   -3736.6172 
22859000    133.74134   -4967.2821   -4709.3507   -4967.2821            0    8453.9808    19.810611    19.691348    20.378676    7949.6733     9157.433    7691.5786    8512.9307   -141.77775   -1487.8321   -655.05222   -3729.2145 
22860000    137.59289   -4960.0689   -4694.7095   -4960.0689            0    8987.4707    19.715691    19.774179    20.394979     7951.219    8891.1708    8919.1485    9152.0928    29.360646    1086.4719   -475.81931    -3652.519 
22861000    138.75964   -4957.7692   -4690.1596   -4957.7692            0    8931.1028    19.477409    19.830727    20.509621    7921.8652    8343.3961    9286.0935    9163.8189   -519.17154    672.14797    572.40777    -3658.329 
22862000    134.64888   -4961.9649   -4702.2832   -4961.9649            0    7750.2707    19.773595    19.710752    20.425488    7960.8833    7497.7653     8136.329    7616.7178   -379.27485      67.9908   -310.65411   -3802.4666 
22863000    133.31033   -4984.1566   -4727.0564   -4984.1566            0     7462.562     19.77268    19.773579    20.444302    7993.2445    7931.8243    6504.9342    7950.9276    95.639196    340.67808   -148.65767   -3857.1211 
22864000    138.89765   -4980.1403   -4712.2645   -4980.1403            0    5860.0009    19.752899    19.797512     20.53773    8031.4488    5041.7897    6370.1532    6168.0599   -747.96886   -244.53634   -209.54369     -4025.88 
22865000    131.00514   -4968.5102   -4715.8558   -4968.5102            0    7641.4627    19.952809    19.722091    20.345045    8006.0011    7644.8174    7184.0945    8095.4761   -601.25183     957.3873     381.4239   -3823.6438 
22866000    128.99788   -4980.2309   -4731.4476   -4980.2309            0    6431.2494    19.773612    19.897664     20.31406    7992.5405    6604.2862    5684.4401    7005.0217     179.3764    473.26227     1149.216   -3981.8019 
22867000    130.83423   -4984.6974   -4732.3726   -4984.6974            0    7924.5946    19.797044      19.7925    20.350116    7973.8473    7212.5195    8214.5305    8346.7337   -578.59751    112.50417   -38.058673   -3810.8184 
22868000      128.812   -4970.9696   -4722.5449   -4970.9696            0     7456.506     19.72252    19.699079    20.437908    7940.4436    7100.6508    7443.4048    7825.4625   -309.33376   -323.06797   -1026.2092   -3859.0574 
22869000    132.28521   -4981.0596   -4725.9365   -4981.0596            0    7086.1809    19.679283    19.918916     20.29499    7955.4327    8060.5006    6069.8607    7128.1814   -126.36549   -737.57877   -140.83217   -3903.7848 
22870000    134.58967   -4977.5293   -4717.9618   -4977.5293            0     6661.892    19.719898    19.883381    20.525299    8047.9335     6212.622    7149.1214    6623.9325   -139.51691    145.68762    101.11794   -3936.0498 
22871000    128.11162   -4976.7614   -4729.6874   -4976.7614            0    8654.4108    19.708384    19.725984    20.463826    7955.6657    8586.7722     8520.546    8855.9143    -180.7347    1186.8428   -280.86971   -3725.5574 
22872000    139.30456   -4966.5098   -4697.8492   -4966.5098            0    8087.8493    19.662016    19.824116    20.451224    7971.5206    6547.8402     9285.076    8430.6319    369.82651    325.18235   -432.10934   -3757.5846 
22873000    130.42487   -4958.3024   -4706.7671   -4958.3024            0    9514.0539    19.671568    19.714533    20.443465    7928.2984    9242.3451     10020.23    9279.5869    117.24856    31.644731    315.73256   -3606.6942 
22874000    128.99267   -4963.1388   -4714.3656   -4963.1388            0     6260.667    19.552053    19.857003    20.643101    8014.5846    5996.4386         7910    4875.5623    272.60969    251.84684    207.98554   -3982.5907 
22875000    139.65182   -4964.1679   -4694.8376   -4964.1679            0    8529.2171    19.798218    19.724329    20.316249    7933.6286    8324.0942    8107.3907    9156.1665   -267.15343    907.54897    969.32767   -3707.9744 
22876000    126.95629   -4972.5431   -4727.6972   -4972.5431            0    7088.4292    19.729053    19.721558    20.430811    7949.3764    5315.8743    8531.9244    7417.4891    -489.0323    129.51324    721.73611   -3905.9108 
22877000    132.63355    -4974.463    -4718.668    -4974.463            0    7759.1584    19.871432    19.750329    20.310511    7971.2119     7079.974     7613.233    8584.2681    19.750202   -374.73683    1412.2463   -3816.6508 
22878000    133.30205   -4975.6783   -4718.5941   -4975.6783            0    8759.4472    19.803014     19.77751    20.312005    7955.2844    9067.4796     8568.658    8642.2039    139.22967    1130.0657    429.15985    -3702.326 
22879000    139.43841   -4960.1886   -4691.2699   -4960.1886            0    8331.9329    19.665658    19.622629    20.685003    7982.1754    9066.7979    8951.8828     6977.118   -219.71335    411.45117    1499.2951   -3721.3342 
22880000    131.91512   -4990.8382   -4736.4288   -4990.8382            0    6359.2017    19.588751    19.808734    20.572732    7982.8035    6665.7192    5950.5194    6461.3666   -629.59091   -163.13452    656.55641   -3996.0841 
22881000    130.39962   -4982.0289   -4730.5423   -4982.0289            0    7807.0142    19.826149     19.70666    20.352791    7951.9816    7814.9922    7717.1866    7888.8638   -136.19516    -104.3718   -1087.2884   -3825.1512 
22882000    135.65501   -4960.8964   -4699.2743   -4960.8964            0    7768.9228     19.73793    19.821166    20.390708    7977.4318    7375.7914    8009.9469    7921.0302   -22.770344    826.96905    128.63866   -3795.4171 
22883000    140.37071   -4969.5581   -4698.8413   -4969.5581            0    7387.1134    19.705966    19.897485    20.397504    7997.8444    6726.9057    8069.8759    7364.5587    -203.2332   -539.31738   -2203.8871   -3837.2058 
22884000    132.22129   -4974.7278   -4719.7279   -4974.7278            0    7497.9474    19.585193    19.909224    20.439146    7969.7543    6871.7032    7698.1022     7924.037   -832.45761    220.19946    215.27306   -3848.2363 
22885000    136.10305    -4980.242   -4717.7558    -4980.242            0    7588.5494    19.571629    19.835191    20.535669    7972.0905    9479.8344    6130.1355    7155.6782   -205.29899    451.75556   -687.22461   -3835.4749 
22886000    136.11377   -4971.6081   -4709.1013   -4971.6081            0    8155.8257    19.729143    19.702141    20.577298    7998.5265    8342.1628    8475.1488    7650.1656    107.98397   -415.51474    1117.2621   -3757.7217 
22887000    133.76307   -4987.3973    -4729.424   -4987.3973            0    6251.6616    19.643541    19.876087     20.52454    8013.5344    6778.4482    5741.5661    6234.9704   -350.90578    83.141317    590.23313   -3998.7974 
22888000    132.31159   -4976.7967   -4721.6226   -4976.7967            0    7936.3931    19.854475    19.691547    20.455919    7997.5552    6397.6109    9211.6373    8199.9311   -151.44807   -479.10932   -87.444322   -3795.9524 
22889000    131.55605   -4989.7528   -4736.0359   -4989.7528            0    8795.8811    19.778419    19.714769    20.405326    7956.5867    9522.1538    8169.5125    8695.9769    232.09831    79.359631   -622.18939   -3715.3737 
22890000    136.34394   -4976.0305   -4713.0798   -4976.0305            0    7114.6157    19.813916    19.706823    20.563344    8029.3557    8297.7799    7108.5819    5937.4851   -1.8695085   -140.64922    39.116549   -3879.9589 
22891000    127.33525    -4963.744   -4718.1673    -4963.744            0    7148.4657    19.708466    19.756409    20.509653     7985.813    7495.6439    7103.9951    6845.7581   -739.31006    425.90519   -765.63417    -3885.622 
22892000    141.75488   -4994.4735   -4721.0873   -4994.4735            0     7058.116    19.845668     19.85562    20.318698    8006.5431    5816.4262    8329.3183    7028.6036   -57.645706    232.79131   -127.01623   -3896.9307 
22893000    129.61387   -4971.0431   -4721.0718   -4971.0431            0    6429.0683     19.78354    19.684577     20.48706    7978.2884    6339.4764    6865.9898    6081.7386   -2.7350996    1406.3747    231.33783   -3973.0166 
22894000    136.99917   -4981.5385   -4717.3241   -4981.5385            0    6993.6367     19.70083    19.972014    20.390561    8022.9771    9305.7941    4781.1416    6893.9745   -14.787778   -899.84178    351.11177   -3899.0204 
22895000    130.61681   -4973.7576   -4721.8521   -4973.7576            0    6092.3297    19.783876    19.877462     20.44699     8040.845    5599.0271    6900.6996    5777.2624   -324.63433   -467.83518   -636.62521   -4007.4199 
22896000    129.07229   -4971.0681   -4722.1413   -4971.0681            0    7265.6596    19.689181    19.785491    20.406868    7949.7016    6678.7707    7177.2966    7940.9116    336.29945    688.23351   -30.089471   -3879.7735 
22897000    127.42929   -4968.9152   -4723.1571   -4968.9152            0     8810.242    19.629502    19.892208    20.268254    7914.2288    8431.5058    9085.6322    8913.5879   -82.793036   -48.439324    209.20084    -3706.271 
22898000    136.86039   -4989.8408   -4725.8941   -4989.8408            0    8428.7774    19.765818    19.682515    20.524341    7984.8104    7769.0997    9953.6131    7563.6195    247.70793    381.22124   -45.111857   -3744.3606 
22899000    136.54617   -4966.5873   -4703.2465   -4966.5873            0    8443.7249    19.744987    19.703445    20.498735    7974.9155    7687.1216    9822.8215    7821.2315   -567.29106   -385.97821   -2097.9051    -3721.191 
22900000    133.08793   -4977.9578   -4721.2865   -4977.9578            0    8273.2646    19.746498    19.938599    20.288786    7988.0503     8718.991    8076.6481    8024.1548    151.74743    413.98608      685.492   -3757.4717 
22901000    139.99521   -4958.1805   -4688.1879   -4958.1805            0    8184.8058    19.598493    19.990428    20.272389    7942.3626    8404.4361    6945.9075    9204.0739   -621.94014    -335.0191    1619.2505    -3740.132 
22902000    136.36694   -4972.4327   -4709.4376   -4972.4327            0    6897.0644    19.724462    19.890001    20.364506    7989.3943    7077.0381    5790.0949    7824.0603    -273.0046   -316.23892    446.30848   -3905.8115 
22903000    130.19381   -4964.6553   -4713.5656   -4964.6553            0    8441.8637    19.638911     19.82047    20.463961    7965.6472    9763.2434    7520.9257    8041.4219   -21.911736    -644.6559   -104.50944   -3732.8676 
22904000    136.98576   -4979.0038   -4714.8152   -4979.0038            0    8124.3264     19.60195    19.762524     20.56405    7966.1844    7909.7117    8284.5377    8178.7299   -10.564381   -182.50165    114.38216   -3770.9421 
22905000    131.26672   -4973.3689     -4720.21   -4973.3689            0     6675.457    19.593619      19.9242    20.471536    7991.8254    7441.6505    6305.6232    6279.0972    234.89896   -818.34056    279.05916   -3942.1682 
22906000    130.48634   -4980.8101   -4729.1562   -4980.8101            0    6532.1854    19.750226    19.764755    20.509111     8005.903    7307.0789    5755.5896    6533.8878   -323.71351   -153.29015   -175.40327   -3966.4721 
22907000    139.56681   -4975.8059   -4706.6396   -4975.8059            0    8151.1182    19.579084    19.834407     20.46237     7946.347    8893.0048     7833.634     7726.716   -40.959963    -432.3851    -328.4479   -3762.0121 
22908000    125.02467   -4972.6147   -4731.4941   -4972.6147            0    7300.1861     19.56878    19.856406    20.535944     7979.562     7569.883    6264.8252    8065.8502   -434.36581   -6.8453916   -157.79357   -3881.9443 
22909000    132.30461   -4977.6171   -4722.4565   -4977.6171            0    8403.8837    19.579391    19.866846    20.443552    7952.1481    8057.0446    7807.6857    9346.9207   -601.78706   -425.51154    339.03405   -3747.8252 
22910000    133.48501    -4970.894    -4713.457    -4970.894            0    7831.7397    19.788114      19.7445    20.444168    7987.6677     8232.545     8471.624      6791.05   -164.92563    1162.7974    370.81351   -3801.1224 
22911000    132.87325    -4982.276   -4726.0188    -4982.276            0    7160.4965    19.643403     19.79133    20.595838    8007.0247      8086.62     7002.915    6391.9545   -369.45965     525.6759    1263.8387   -3889.8572 
22912000    133.95893   -4982.4087   -4724.0576   -4982.4087            0    6056.3432    19.741539     19.99574    20.525889    8102.5266    5963.4212     6737.937    5467.6713   -259.74119    781.89927    263.29273   -4008.3975 
22913000    136.26663   -4975.8294   -4713.0278   -4975.8294            0    7576.5544    19.773046    19.788286    20.433891    7995.2644    7057.2482     7768.063    7904.3521    15.518009   -337.53294   -761.41606   -3829.5808 
22914000    132.25528    -4977.638   -4722.5725    -4977.638            0    8537.0248    19.719007    19.669399    20.550213    7970.6266    7103.8201    9416.6728    9090.5814   -455.35909     272.7239   -38.798358   -3730.1996 
22915000    139.76885   -4988.2583   -4718.7023   -4988.2583            0    8038.5858    19.693806      19.7351    20.579673    7998.4801    9692.5912    8260.4682     6162.698    78.812861    420.23863    20.185281   -3781.0043 
22916000    129.59321   -4962.6945   -4712.7631   -4962.6945            0    5956.9508    19.779529    19.984974    20.353427    8045.5748    5186.2338    7360.4697    5324.1489   -266.67103    81.644794   -644.30457   -4013.7956 
22917000    137.52841   -4985.4594   -4720.2243   -4985.4594            0    7937.1342    19.684823    19.712345    20.570344    7981.9936    9646.2386    7176.5625    6988.6016    -407.9039     487.9458    832.35009    -3796.269 
22918000    143.98084   -4972.8603   -4695.1811   -4972.8603            0    7701.8858    19.681984    19.886226    20.374648     7974.645    7364.9255     7066.404    8674.3279   -165.85142    279.37766    43.258335   -3799.4363 
22919000    144.13695     -4980.25   -4702.2698     -4980.25            0    7362.7936    19.706176    19.736759    20.583095    8005.5075    6234.5815    8149.2153    7704.5841    181.02665   -1249.6479    -383.8637   -3842.6481 
22920000    130.14067   -4963.6831   -4712.6959   -4963.6831            0    7617.3387    19.939323    19.686762    20.398686    8007.3145    7518.0709    7351.4709    7982.4742   -471.61867    897.04095    1283.3994   -3823.1548 
22921000    133.92157   -4964.3208   -4706.0418   -4964.3208            0    6870.1847    19.849997    19.777156    20.370341    7996.9169     6810.809    6508.9346    7290.8105   -188.07055   -105.30764    558.78309   -3904.7939 
22922000    136.52645    -4987.113   -4723.8103    -4987.113            0    7762.0594    19.657937    19.857589    20.398259    7962.6487    8571.4334    6980.3874    7734.3575     544.8704    487.98846   -429.83038   -3822.4251 
22923000     130.9567   -4983.4116   -4730.8505   -4983.4116            0    7491.5871    19.872634    19.850395    20.242483    7985.2472    5399.0328    8136.4329    8939.2958   -56.455932    864.14485    693.39813   -3858.4055 
22924000    133.55281   -4973.5666   -4715.9987   -4973.5666            0    7298.5206    19.838737    19.888599    20.252888    7991.0747    6381.2158     7641.281     7873.065   -505.18224   -1035.7869   -21.194684   -3865.4173 
22925000    135.81043   -4982.2194   -4720.2975   -4982.2194            0    7618.0888    19.722968    19.869386    20.394673    7992.3309    8699.2412    7036.4055    7118.6197    305.86415   -561.56505     697.9222   -3832.3335 
22926000    130.14677   -4982.5497   -4731.5507   -4982.5497            0    7645.7876     19.69413    19.800581    20.479995    7986.2811    7288.5587    7865.7043    7783.0998   -507.16842    871.59305    194.91967   -3841.0327 
22927000    133.83259    -4973.436   -4715.3286    -4973.436            0    6937.5767    19.712043    19.798713    20.523742    8009.8643    8199.9646    6546.2778    6066.4876   -325.18736   -862.13235    -678.8203    -3904.911 
22928000     135.9524   -4975.3334   -4713.1378   -4975.3334            0    8045.3172    19.665822    19.628607    20.589464    7947.7941    8299.0587    9433.1655    6403.7276    105.16851   -684.87627    367.08437   -3780.6016 
22929000    137.22665     -4967.96   -4703.3068     -4967.96            0    6697.7431    19.763493    19.822198    20.449979    8011.3994    4777.1462    8481.9188    6834.1644   -166.32546   -254.51145    -152.1413   -3920.7556 
22930000    134.94599   -4964.4735   -4704.2188   -4964.4735            0    7903.9696    19.657651    19.862461    20.370054    7953.4736    7522.5694    7640.8609    8548.4784   -33.283959    308.80016    133.70651   -3787.4117 
22931000    134.51426   -4979.2928   -4719.8708   -4979.2928            0    6706.4964    19.909514    19.792233    20.252996    7980.7688    4381.7388    8020.8677    7716.8826   -248.85862    -139.1371   -4.7645636   -3939.2927 
22932000    136.73914   -4981.9555   -4718.2425   -4981.9555            0    7958.1324    19.810981    19.784831    20.321244    7965.0522    7272.2016    8434.4296     8167.766   -516.53647   -535.32836    942.27054    -3793.809 
22933000    128.55585   -4983.2643   -4735.3335   -4983.2643            0    7224.5066    19.938214    19.644473    20.507608    8032.3319    5868.2134    8042.8185     7762.488    354.82465   -96.488128   -864.28638   -3889.0308 
22934000    130.75261   -4973.8428   -4721.6754   -4973.8428            0    8196.3269    19.676647    19.741597    20.425765    7934.3564    8397.5655     7947.682    8243.7331   -446.60289   -224.88162   -665.12404   -3773.2419 
22935000     137.6641   -4965.3628    -4699.866   -4965.3628            0    7635.3362    19.713644    19.630028    20.601314    7972.2838    7944.2282    7175.9685    7785.8119   -542.37448   -231.04757    290.37358   -3812.1239 
22936000    136.40553   -4966.3459   -4703.2763   -4966.3459            0    8431.8475    19.810339    19.695032    20.484474    7992.3301    9075.9518    9371.4114    6848.1792   -334.47803   -94.584486    -216.4454   -3720.4607 
22937000    135.08643   -4984.4565    -4723.931   -4984.4565            0    8063.4486    19.724569    19.807332    20.422659    7978.9505    7218.5999    8751.1251    8220.6209   -580.80778    125.52045    623.92427   -3785.6293 
22938000    134.75462   -4966.7911   -4706.9055   -4966.7911            0    7647.2002    19.751396    19.643419    20.557354    7975.9438    9146.1269    6903.0602    6892.4135    646.29655   -833.03292   -1098.0586   -3817.3758 
22939000    130.19623   -4990.1555   -4739.0611   -4990.1555            0    6312.4031    19.893329    19.886331    20.306024    8033.1712    6108.9726    5377.3951    7450.8417     240.7426   -126.34709    838.17776   -3999.5279 
22940000    142.64818   -4970.2268   -4695.1178   -4970.2268            0    8194.0852    19.705735    19.839849    20.372912     7964.969    7914.5477    8586.5149    8081.1931   -654.97896   -507.26121    91.409246   -3743.2854 
22941000    131.37513   -4969.6499   -4716.2819   -4969.6499            0    7606.4308    19.958916    19.738943    20.321614     8006.064    7510.2729    7427.5553    7881.4641   -341.90467   -239.93137   -186.96433   -3828.1533 
22942000    135.05516    -4966.649   -4706.1838    -4966.649            0    5960.5351     19.59367    19.757495    20.652641    7995.0886    7152.0906    5466.7198     5262.795   -599.21739     1551.275   -15.718671   -4011.1844 
22943000    134.16517    -4972.313   -4713.5642    -4972.313            0    8142.3458     19.80852    19.627965    20.552304     7990.755    6558.4831    10586.936    7281.6184    91.250936    -100.0213    192.05856   -3764.6799 
22944000    137.73109   -4972.4658   -4706.8399   -4972.4658            0    6923.9118    19.903765    19.731146    20.423969    8020.9847     6420.498    7603.6756    6747.5619   -154.79506   -1288.6568   -198.47732   -3896.8956 
22945000    132.82271   -4966.2792   -4710.1195   -4966.2792            0    8090.9562     19.75037     19.76632    20.391872    7960.8262    9250.5441    6927.7275    8094.5971    212.86797   -1223.3818    42.584305   -3770.7555 
22946000     132.5967   -4974.5071   -4718.7832   -4974.5071            0    7509.8467     19.67279    20.026783    20.292713    7994.9778      8229.06    6343.6948    7956.7852     396.2727   -431.23519    911.02293    -3843.146 
22947000    131.57996    -4966.608    -4712.845    -4966.608            0    7391.0141    19.768586    19.789475    20.385666     7975.075    8836.9571    5947.6533     7388.432    441.15051    258.28829   -315.15583   -3853.2088 
22948000    134.12211   -4973.2144   -4714.5486   -4973.2144            0    8066.0398    19.686641    19.888354    20.399417    7987.0831    8320.4332    7132.8388    8744.8475    16.911609    362.11965    205.54239   -3774.9888 
22949000    132.92435   -4955.2634   -4698.9076   -4955.2634            0    7690.6793    19.659153    19.773286    20.543057    7985.6214    8290.4879     7705.233    7076.3172   -44.929988    525.19804    953.19646   -3803.2349 
22950000    128.26438   -4968.9815   -4721.6129   -4968.9815            0     7811.218    19.617545     19.82062    20.467737    7958.5094    8834.9654     7839.452    6759.2367   -468.90751   -655.48963     383.2653   -3814.9906 
22951000    130.53157   -4971.7786   -4720.0375   -4971.7786            0    6845.9819     19.59788    19.816394    20.588716    7995.8198    8190.5211    7240.7374     5106.687   -157.52067    -188.7341    648.43039   -3921.7219 
22952000     131.3713   -4969.0148   -4715.6542   -4969.0148            0    6980.3349    19.660941    19.751724    20.608795    8003.1679    7036.7853    8401.9181    5502.3014   -564.15845    423.84226   -320.93433   -3900.9236 
22953000     126.9189   -4976.7713   -4731.9975   -4976.7713            0    8447.5398    19.758354    19.875256    20.348861    7991.0452    6668.4833    9324.5698    9349.5663    21.417191    759.35765   -377.77005   -3747.5111 
22954000    129.48088   -4976.5681   -4726.8533   -4976.5681            0    7956.6142    19.714681    19.833241    20.397913     7975.707    10129.454    5871.7066    7868.6817    482.20427   -281.97347   -91.465104   -3801.3598 
22955000    126.86063   -4977.7081   -4733.0467   -4977.7081            0      6480.96    19.534337     19.74466    20.744844    8001.2626     8302.149    5895.4628    5245.2683   -282.84103    1666.7217   -589.98047   -3976.7822 
22956000    131.89213   -4979.1773   -4724.8123   -4979.1773            0    7589.9869    19.706441    19.708636    20.499589    7961.7754      8147.32    8085.8436    6536.7972    148.89681    981.94365    74.181083    -3843.506 
22957000    136.13039   -4983.3237   -4720.7848   -4983.3237            0    7517.5858    19.832787    19.748126    20.505585    8031.2252    8314.9009    6813.5282    7424.3282   -301.94161    1017.8315      -105.34   -3840.2712 
22958000    133.64517   -4960.0444   -4702.2984   -4960.0444            0    8670.5832    19.633569    19.845109    20.310486    7913.5813    8585.4988    7737.4484    9688.8025    44.030013    1079.8019   -500.20343   -3701.6137 
22959000    136.87809   -4977.3527   -4713.3718   -4977.3527            0    8296.9138    19.641544    19.756133    20.448565    7934.8804    8512.0145    8418.4211    7960.3058    184.47551    136.40673   -223.05274   -3753.2355 
22960000    136.39353   -4961.1811   -4698.1347   -4961.1811            0    8267.6008    19.689751    19.778306    20.464738    7969.5814    8437.8323    7696.8662     8668.104   -198.93829    337.37401    264.88313   -3737.2066 
22961000    131.90467   -4964.4031   -4710.0138   -4964.4031            0    7529.8555    19.868849    19.792915    20.328977    7994.6231    6566.0489    8167.5392    7855.9784   -63.300146    137.37305   -441.24051   -3832.0826 
22962000    136.39164   -4974.2651   -4711.2224   -4974.2651            0     8090.249    19.787389    19.876023    20.230657    7956.6082    8574.2796    6892.3705    8804.0968   -506.86551    1197.7461    1638.8636   -3772.4382 
22963000    135.17953   -4959.6952   -4698.9901   -4959.6952            0    8009.9793    19.694904    19.707405    20.543661     7973.723    8078.8027    8842.1615    7108.9738    891.45328    677.17782    -481.3749    -3767.521 
22964000    140.94625   -4980.6236   -4708.7969   -4980.6236            0    7905.0156     19.81019    19.695387    20.414538    7965.1272    6224.5929    8720.5855    8769.8684   -744.18434   -1104.8372    295.48219   -3790.5249 
22965000    127.12873   -4979.0563   -4733.8779   -4979.0563            0    7613.0028    19.564061    19.820034    20.517781     7955.982    8042.9831    7665.3484    7130.6768   -48.299977    1398.5458   -228.95285   -3850.5424 
22966000    129.81452    -4972.075   -4721.7168    -4972.075            0    7967.9581    19.679162    19.838578    20.425489    7974.2456     7876.973    8066.3825     7960.519    198.85772   -285.19205    336.18232   -3795.0736 
22967000    129.32546   -4984.4518   -4735.0368   -4984.4518            0    8146.7225    19.918458    19.596112    20.444604    7980.0262     7708.518    8824.9473    7906.7022    57.151165    18.422708    528.05076   -3786.9172 
22968000    133.86126   -4966.6697    -4708.507   -4966.6697            0    7015.8536    19.823621    19.860575    20.346683    8010.6622    6963.7479    5547.5078    8536.3052   -214.86594    27.202908   -524.25697   -3888.8639 
22969000    136.13994   -4972.5121   -4709.9548   -4972.5121            0    7872.9522    19.880653    19.805438    20.358198    8015.9396    7065.7621    8457.4656    8095.6288    277.93049  -0.39118026    169.16011   -3789.5731 
22970000    131.21215   -4982.7538   -4729.7001   -4982.7538            0    8638.1251    19.860419    19.826752    20.228399    7965.2887    6756.7691    10234.835    8922.7708   -185.42714     179.1763    574.56994   -3726.2475 
22971000     135.8639   -4977.9813   -4715.9564   -4977.9813            0    7686.0975    19.823835     19.54003    20.542878    7957.4551    9463.5457    7239.4485    6355.2982   -374.20053    647.73261   -804.21032   -3823.9746 
22972000    127.91647   -4969.5136   -4722.8159   -4969.5136            0     8227.304    19.773153      19.6874    20.440075    7956.9528    7939.5334    8251.5569    8490.8216   -135.38374    -149.6876    541.75432   -3768.0867 
22973000    133.16926   -4985.0049   -4728.1768   -4985.0049            0    7657.3446    19.781726    19.818736    20.448447    8016.7893    7618.7623    8807.2164    6546.0552   -46.309992   -89.407451   -150.97821   -3832.9057 
22974000    132.22194   -4973.8007   -4718.7995   -4973.8007            0    7493.2194    19.753553    19.789692     20.43226    7987.3125    8280.7206    7253.0856    6945.8521   -297.25364    1073.3028   -1653.6145   -3845.9387 
22975000    130.23603   -4982.1674   -4730.9963   -4982.1674            0    6821.2462      19.8043    19.640961    20.626771    8023.3083    6092.1137    8347.2727    6024.3523    8.2696287   -859.00669    46.964032   -3932.8305 
22976000      132.393   -4971.8779   -4716.5469   -4971.8779            0    7408.1478    19.718519    19.742396    20.497402    7979.4502    5314.6626    8672.1242    8237.6564    226.51686    576.65819   -216.91834   -3854.4452 
22977000    140.97009   -4958.7334   -4686.8608   -4958.7334            0    7174.7605    19.904657    19.719856    20.431856    8019.8501    6831.8256    7720.7722    6971.6835    160.07385    -229.4361     411.8963   -3847.6915 
22978000    138.01747   -4962.8381   -4696.6598   -4962.8381            0    9185.3312    19.954501    19.671432    20.307567    7971.4026    8683.1914    9158.2735    9714.5288     55.06725    789.32472    369.34665   -3628.8216 
22979000    134.77112   -4966.4308   -4706.5134   -4966.4308            0    8146.7491    19.888662    19.679056    20.388156    7979.7228    6728.0606    10209.216     7502.971   -75.613359   -1546.4282     329.2746   -3758.4267 
22980000    132.93364   -4959.3907    -4703.017   -4959.3907            0     7100.007     19.89186     19.67796    20.483743    8017.9768    6972.0608    7306.4852     7021.475   -319.88949    505.50564    582.05346    -3872.785 
22981000    137.64618   -4970.7831   -4705.3208   -4970.7831            0    7469.3364    19.709474    19.744951    20.479044    7969.6777    6388.5538    9321.9532    6697.5022   -543.20243    836.23059   -238.93544   -3837.1631 
22982000    133.29733   -4967.9338   -4710.8586   -4967.9338            0    7815.5412    19.655304     19.95444    20.279754     7953.934    7642.9024    7480.1438    8323.5773    23.699006    599.31457    905.97496   -3804.2561 
22983000    131.03058     -4979.35   -4726.6465     -4979.35            0    7039.5844    19.880208    19.742928    20.383814    8000.5149     7323.637    6257.3573    7537.7588   -482.16791   -44.239133    61.897426   -3905.2727 
22984000    139.96423   -4975.5641   -4705.6313   -4975.5641            0    6217.3818    19.728986    19.868348    20.354723    7978.6926    5623.0349    6199.5207    6829.5899   -269.11306    729.71178    10.605006   -3982.1702 
22985000    127.83192   -4973.7732   -4727.2386   -4973.7732            0    7359.1426    19.878141    19.771804    20.277686    7969.6719     7086.628    6467.6834    8523.1163    225.30535    859.22067   -346.30953   -3871.8892 
22986000    129.83985   -4976.4956   -4726.0885   -4976.4956            0    8530.1232    19.762193     19.73432    20.488313    7990.3077    8811.2574    9206.9069    7572.2053    933.94042    -225.1068    105.59933   -3732.0695 
22987000    134.61954   -4980.4331    -4720.808   -4980.4331            0    6450.5953    19.618068    19.805117    20.630496    8015.7345    6565.4693    6697.9995    6088.3172   -145.19364    521.83123   -35.962975   -3966.7252 
22988000    134.99105   -4968.6737   -4708.3321   -4968.6737            0    7791.7928    19.708609    19.863273    20.394695    7984.0637    8573.5186    7560.7063    7241.1534    129.26431    325.25401     408.9831   -3801.0606 
22989000    129.63985   -4967.9784   -4717.9571   -4967.9784            0    7497.7103    19.676923    19.716262    20.603607    7993.2799    7142.3373    8384.7961    6965.9977    -378.2814   -460.73338    202.29187   -3843.9206 
22990000    132.16397   -4959.3782   -4704.4888   -4959.3782            0    8417.4659    19.701119    19.817068     20.33194    7937.9636     7930.455     7875.983    9445.9598   -312.03448   -227.54722   -648.41133   -3730.0236 
22991000    130.93337    -4983.285    -4730.769    -4983.285            0    6955.6253     19.77545    19.810318    20.398937    7991.4459    6918.6579    6639.4192    7308.7987    67.689324    691.00211    879.07841   -3920.1114 
22992000    130.91958   -4974.1623   -4721.6728   -4974.1623            0    7243.8256    19.841524     19.69635    20.539195    8026.8325      7119.43    7882.8594    6729.1874    69.781992   -49.354535   -376.07964    -3873.688 
22993000    136.89746   -4973.6474   -4709.6292   -4973.6474            0    7253.9398    19.864882    19.756308    20.436739    8020.5357    6968.5682    7188.9852    7604.2658    -145.2949    308.90232   -13.897444   -3861.1265 
22994000    129.61156   -4956.6003   -4706.6335   -4956.6003            0    8267.4807    19.709491    19.950498    20.304017     7983.827     7384.559    8274.6328    9143.2502    407.42183     679.4418   -703.97238   -3744.0018 
22995000    137.69355   -4956.5063   -4690.9527   -4956.5063            0    7690.7385    19.823807    19.806224    20.316275    7976.8758    6214.8746    8773.9802    8083.3608   -166.54011    297.68711    1103.1498   -3796.2541 
22996000    141.41689   -4979.9195   -4707.1852   -4979.9195            0    8093.9607    19.703002    19.896733    20.322887    7967.0874    8052.3173    8043.7376    8185.8272   -532.65697     973.8192   -907.10708   -3766.7333 
22997000    136.81629   -4981.0526   -4717.1909   -4981.0526            0    7257.3745    19.811461    19.821283    20.365471    7997.2883    6194.3289    7496.2916    8081.5031   -160.13971   -42.872144   -2007.9982    -3870.747 
22998000    132.54722   -4965.4902   -4709.8618   -4965.4902            0    5816.8503    19.750198     19.76993    20.668019    8070.0354    5901.4597    5284.2602     6264.831    416.47773    229.63462   -1682.3754   -4025.2581 
22999000    129.45316   -4977.4293    -4727.768   -4977.4293            0    8206.1365    19.810018    19.821303    20.413339    8015.5089     9508.369    7129.6468    7980.3938    388.52388    412.88414   -146.52172   -3768.4873 
23000000    141.08084   -4973.2943    -4701.208   -4973.2943            0    7035.7608    19.755564    19.883955    20.486091    8047.3208    6487.0458    7725.0265    6895.2102    227.45485   -194.58648   -164.66793   -3875.4776 
Loop time of 350.857 on 64 procs for 250000 steps with 972 atoms

Performance: 123.127 ns/day, 0.195 hours/ns, 712.541 timesteps/s
99.1% CPU use with 64 MPI tasks x 1 OpenMP threads

MPI task timing breakdown:
Section |  min time  |  avg time  |  max time  |%varavg| %total
---------------------------------------------------------------
Pair    | 19.273     | 28.68      | 39.307     |  86.9 |  8.17
Bond    | 0.25825    | 0.27458    | 0.28741    |   1.1 |  0.08
Kspace  | 135.48     | 145.76     | 155.45     |  39.0 | 41.54
Neigh   | 0.97626    | 0.99072    | 1.008      |   0.8 |  0.28
Comm    | 83.545     | 84.324     | 85.709     |   6.3 | 24.03
Output  | 0.52683    | 0.52763    | 0.529      |   0.0 |  0.15
Modify  | 84.111     | 85.198     | 85.862     |   5.2 | 24.28
Other   |            | 5.1        |            |       |  1.45

Nlocal:        15.1875 ave          18 max          12 min
Histogram: 4 9 0 10 0 13 12 0 8 8
Nghost:        2312.69 ave        2340 max        2281 min
Histogram: 2 9 1 5 8 12 11 8 4 4
Neighs:        4880.30 ave        6664 max        3429 min
Histogram: 6 4 3 15 9 11 6 8 1 1

Total # of neighbors = 312339
Ave neighs/atom = 321.33642
Ave special neighs/atom = 2.0000000
Neighbor list builds = 2895
Dangerous builds = 0

unfix		3
unfix		2
unfix		1

write_data	data.final.${pid}
write_data	data.final.1
System init for write_data ...
PPPM initialization ...
  extracting TIP4P info from pair style
  using 12-bit tables for long-range coulomb (../kspace.cpp:340)
  G vector (1/distance) = 0.37213011
  grid = 24 24 24
  stencil order = 5
  estimated absolute RMS force accuracy = 0.0035164686
  estimated relative force accuracy = 1.0589741e-05
  using double precision FFTW3
  3d grid and FFT values/proc = 2197 216
Last active /omp style is kspace_style pppm/tip4p/omp
WARNING: Not all mixed pair coeffs generated from mixing. Use write_data with 'pair ij' option to store all pair coeffs. (../write_data.cpp:312)

write_restart   restart.lmp.${pid}
write_restart   restart.lmp.1
System init for write_restart ...
PPPM initialization ...
  extracting TIP4P info from pair style
  using 12-bit tables for long-range coulomb (../kspace.cpp:340)
  G vector (1/distance) = 0.37213011
  grid = 24 24 24
  stencil order = 5
  estimated absolute RMS force accuracy = 0.0035164686
  estimated relative force accuracy = 1.0589741e-05
  using double precision FFTW3
  3d grid and FFT values/proc = 2197 216
Last active /omp style is kspace_style pppm/tip4p/omp
Total wall time: 0:05:51
