LAMMPS (30 Jul 2021)
Processor partition = 0
  using 2 OpenMP thread(s) per MPI task
using multi-threaded neighbor list subroutines
variable        pid world 0 1
variable        phase world IceIh IceIII

shell cd ${phase}
shell cd IceIh
include Restart.lmp
echo both
log log.lammps
#include		in.partitions
include		in.temp
variable        temperature equal 167.72
variable	tempDamp equal 100.0
include		in.pressure
variable        pressure equal 1794.4
variable        pressureDamp equal 1000.0 # This is 1 ps
include		in.seed
variable        seed equal 745823

units		real
atom_style	full
#include		in.box
read_restart	restart.lmp.${pid}
read_restart	restart.lmp.0
Reading restart file ...
  restart file = 30 Jul 2021, LAMMPS = 30 Jul 2021
  restoring atom style full from restart
  orthogonal box = (0.20045131 0.049925851 0.035225390) to (18.007121 23.579252 22.177970)
  2 by 4 by 4 MPI processor grid
  restoring pair style lj/cut/tip4p/long/omp from restart
  restoring bond style harmonic/omp from restart
  restoring angle style harmonic/omp from restart
  864 atoms
  576 bonds
  288 angles
Finding 1-2 1-3 1-4 neighbors ...
  special bond factors lj:    0        0        0       
  special bond factors coul:  0        0        0       
     2 = max # of 1-2 neighbors
     1 = max # of 1-3 neighbors
     1 = max # of 1-4 neighbors
     2 = max # of special neighbors
  special bonds CPU = 0.002 seconds
  read_restart CPU = 0.008 seconds
include 	in.setup
variable	out_freq equal 1000
variable	out_freq2 equal 10000
variable	out_freq3 equal 1000

timestep	2.0

neigh_modify    delay 7 every 1

include		in.tip4p
# This is TIP4P/Ice

# create groups ###
group ox type 2
288 atoms in group ox
group hy type 1
576 atoms in group hy

# set charges - beside manually ###
set group ox charge -1.1794
Setting atom values ...
  288 settings made for charge
set group hy charge 0.5897
Setting atom values ...
  576 settings made for charge

# ### TIP3P Potential Parameters ###
pair_style lj/cut/tip4p/long/omp 2 1 1 1 0.1577 8.5
pair_coeff 1 1*2 0.000 0.000
pair_coeff 2 2 0.21084 3.1668
bond_style  harmonic
bond_coeff  1 450 0.9572
angle_style harmonic
angle_coeff 1 55 104.52
kspace_style pppm/tip4p/omp 1.0e-5
pair_modify tail yes

thermo          ${out_freq}
thermo          1000
thermo_style    custom step temp pe etotal epair emol press lx ly lz vol pxx pyy pzz pxy pxz pyz enthalpy

restart 	${out_freq3} restart.lmp.${pid} restart2.lmp.${pid}
restart 	1000 restart.lmp.${pid} restart2.lmp.${pid}
restart 	1000 restart.lmp.0 restart2.lmp.${pid}
restart 	1000 restart.lmp.0 restart2.lmp.0


include         in.dump
dump            myDump all atom ${out_freq2} dump.water.${pid}
dump            myDump all atom 10000 dump.water.${pid}
dump            myDump all atom 10000 dump.water.0
dump            myDump2 all dcd ${out_freq2} dump.dcd
dump            myDump2 all dcd 10000 dump.dcd
dump_modify     myDump append yes
dump_modify     myDump2 append yes


variable natoms 	equal  "count(all)"                        # NUMBER ATOMS
variable H      	equal  "enthalpy/v_natoms"                 # ENTHALPY-per-atom
variable Vol      	equal  "vol/v_natoms"                 # volume-per-atom
fix AVG all 		ave/time ${out_freq} 1 ${out_freq} v_Vol v_H file vol_enthalpy.dat
fix AVG all 		ave/time 1000 1 ${out_freq} v_Vol v_H file vol_enthalpy.dat
fix AVG all 		ave/time 1000 1 1000 v_Vol v_H file vol_enthalpy.dat


timer           timeout 23:50:00 every 1000
New timer settings: style=normal  mode=nosync  timeout=23:50:00

fix 		1 all shake 1e-6 200 0 b 1 a 1
Finding SHAKE clusters ...
       0 = # of size 2 clusters
       0 = # of size 3 clusters
       0 = # of size 4 clusters
     288 = # of frozen angles
  find clusters CPU = 0.000 seconds
fix             2 all nph aniso ${pressure} ${pressure} ${pressureDamp}
fix             2 all nph aniso 1794.4 ${pressure} ${pressureDamp}
fix             2 all nph aniso 1794.4 1794.4 ${pressureDamp}
fix             2 all nph aniso 1794.4 1794.4 1000
fix             3 all temp/csvr ${temperature} ${temperature} ${tempDamp} ${seed}
fix             3 all temp/csvr 167.72 ${temperature} ${tempDamp} ${seed}
fix             3 all temp/csvr 167.72 167.72 ${tempDamp} ${seed}
fix             3 all temp/csvr 167.72 167.72 100 ${seed}
fix             3 all temp/csvr 167.72 167.72 100 745823


run             250000
PPPM initialization ...
  extracting TIP4P info from pair style
  using 12-bit tables for long-range coulomb (../kspace.cpp:340)
  G vector (1/distance) = 0.37147971
  grid = 24 27 25
  stencil order = 5
  estimated absolute RMS force accuracy = 0.0031964518
  estimated relative force accuracy = 9.6260196e-06
  using double precision FFTW3
  3d grid and FFT values/proc = 4410 672
Last active /omp style is kspace_style pppm/tip4p/omp
Neighbor list info ...
  update every 1 steps, delay 7 steps, check yes
  max neighbors/atom: 2000, page size: 100000
  master list distance cutoff = 10.8154
  ghost atom cutoff = 10.8154
  binsize = 5.4077, bins = 4 5 5
  1 neighbor lists, perpetual/occasional/extra = 1 0 0
  (1) pair lj/cut/tip4p/long/omp, perpetual
      attributes: half, newton on, omp
      pair build: half/bin/newton/omp
      stencil: half/bin/3d
      bin: standard
Setting up Verlet run ...
  Unit style    : real
  Current step  : 17000000
  Time step     : 2
  Walltime left : 23:49:59.92
Per MPI rank memory allocation (min/avg/max) = 10.19 | 10.21 | 10.23 Mbytes
Step Temp PotEng TotEng E_pair E_mol Press Lx Ly Lz Volume Pxx Pyy Pzz Pxy Pxz Pyz Enthalpy 
17000000    168.34583   -4396.4699   -4107.9309   -4396.4699            0    1436.4956     17.80667    23.529326    22.142745    9277.3438    1907.1466    801.78216    1600.5582   -268.14839   -596.42049   -421.69523   -3913.5723 
17001000    171.54607   -4433.0147   -4138.9906   -4433.0147            0    1485.8367    18.088909     23.28257    21.998953    9264.9972    1585.1402    883.89028    1988.4796   -312.66937   -73.236048   -33.324751   -3938.2236 
17002000    164.72997   -4425.8381   -4143.4966   -4425.8381            0    2190.2767    17.937223    23.440874    21.988305    9245.2948    2356.1964    1773.4076     2441.226   -9.2088469    115.95375    371.57223   -3848.1747 
17003000    169.59052   -4437.6291   -4146.9567   -4437.6291            0    2379.1334    17.928964    23.209917    22.166246     9224.035    3329.6557    2670.5002    1137.2443   -695.87805    688.25221   -240.47736   -3826.9084 
17004000    160.20933   -4442.9438   -4168.3505   -4442.9438            0    1710.9562    17.982788    23.437935    21.935698    9245.4449    1810.7511    1795.9435     1526.174   -37.190726    784.86411    458.17495   -3937.6532 
17005000    168.33198   -4424.2479   -4135.7327   -4424.2479            0    1415.4259     18.13532    23.339773    21.881734    9261.9745    874.12118    1980.8445    1391.3121    141.71079      742.433    153.13739   -3944.5421 
17006000    173.11675   -4429.4989   -4132.7827   -4429.4989            0    496.99232    17.956097    23.420927    22.155913    9317.6343    681.67721    883.40438   -74.104643   -312.43555   -308.16997   -105.24017   -4065.2473 
17007000    162.79554   -4420.4832   -4141.4572   -4420.4832            0    1480.3639    17.987168    23.389002    22.010266    9259.7608    2341.4679    1611.5322    488.09147   -603.26116   -588.41152    546.93074   -3941.5428 
17008000    168.41707   -4419.2289   -4130.5678   -4419.2289            0      964.585    18.221199    23.414473    21.806667    9303.5913    198.67453     2360.505     334.5755    58.363322   -312.30769    342.43282   -3999.6897 
17009000    181.34085   -4433.1891   -4122.3771   -4433.1891            0    1924.8555    18.016623    23.457552    21.948098    9275.8344    1134.5733    1783.1006    2856.8927   -249.33549   -81.239613    511.71341   -3861.9855 
17010000    158.25874    -4407.441    -4136.191    -4407.441            0    699.15439    17.991467    23.447611    22.123324     9332.877    2140.2783    308.63981   -351.45493    493.49226    125.10187   -664.45296   -4041.0288 
17011000    166.61941    -4429.867   -4144.2871    -4429.867            0    1824.6994    18.053318    23.423296    21.827669    9230.2273    2754.7696    1545.9438    1173.3849   -328.06062   -22.016906    83.284249   -3898.6581 
17012000    176.84687    -4415.875   -4112.7655    -4415.875            0    2309.0731    17.995593    23.388403     21.92062    9226.1296    3794.5293    2743.3583    389.33169     410.1507    68.726431   -17.054303   -3802.0713 
17013000    173.30898   -4415.3433   -4118.2976   -4415.3433            0    2390.0701    17.836517    23.313007    22.090764    9185.8442    2747.4159    3019.7243    1403.0699    7.4059838   -354.85636   -625.60481   -3798.1092 
17014000    163.15453   -4434.3081   -4154.6668   -4434.3081            0    1328.6181    17.994659    23.314621    22.050724    9251.1308    1698.4729    1733.5944     553.7871    345.57249   -606.26842   -319.29647   -3975.4119 
17015000    169.46648   -4427.7472   -4137.2875   -4427.7472            0    2121.8633    18.002548    23.500695     21.85536    9246.3992    1272.2923    978.09612    4115.2015    298.79873    266.87004    544.88911   -3851.1558 
17016000    173.60304    -4437.554   -4140.0043    -4437.554            0    1409.0187    17.956934    23.341262    22.063603    9247.6836    987.95901    1924.8841    1314.2128   -903.47312    242.49772    17.832552   -3949.9728 
17017000    171.34978   -4428.3648   -4134.6771   -4428.3648            0    2457.5679    17.947129    23.309655     21.99322    9200.6743    3298.4417    2068.2565    2006.0055   -158.94699    -202.7177    342.52306   -3804.9147 
17018000    165.48077   -4447.1694    -4163.541   -4447.1694            0    846.17578    17.977282     23.26848    22.142625    9262.3497    430.26568    1416.5244    691.73724   -408.57996    186.06519    468.34994    -4049.238 
17019000    171.19416   -4434.7612   -4141.3403   -4434.7612            0    810.47518    18.038325    23.445494    21.912781    9267.2975   -323.17254    1009.8329    1744.7652   -49.030972    483.11057    51.082386   -4031.8013 
17020000    168.86604   -4445.3333   -4155.9027   -4445.3333            0    1655.0263    17.995378    23.450029    21.931482    9254.9128    2061.4849    1966.2074    937.38659    351.73914   -325.96949    398.06913   -3932.5181 
17021000    171.15014   -4451.5149   -4158.1694   -4451.5149            0     1405.353    17.962412    23.534175    21.912473    9263.0715    1621.4123    1518.4768      1076.17    856.31941    139.74105    437.65001   -3968.3169 
17022000    174.78152   -4428.8124   -4129.2429   -4428.8124            0    2283.9939    18.040172    23.320999    22.032305    9269.3179    891.32487    3455.8563    2504.8007    611.00337   -191.98304   -69.206592   -3820.4846 
17023000     161.7945   -4434.9181   -4157.6078   -4434.9181            0     2169.315    17.872907    23.424309    22.068095    9239.0398    2969.7852    1217.5268    2320.6329   -477.57161    -127.1064    30.674276   -3865.3102 
17024000    174.87496   -4406.2768   -4106.5471   -4406.2768            0     2789.914    18.137182    23.188617    21.934721    9225.2208    3943.2215    2911.0526    1515.4679   -460.62832   -73.790768    320.77277    -3731.191 
17025000     164.0821   -4417.8989   -4136.6678   -4417.8989            0    1590.3447    17.938824    23.562269    22.021883    9308.1961     1438.395    273.43009    3059.2089    243.50358   -34.036386    11.947145   -3920.7777 
17026000     169.5822   -4407.3895   -4116.7314   -4407.3895            0     3155.151    17.883546    23.323223    22.022063    9185.4453    3973.2994     2802.933    2689.2208    144.74899   -1494.7753   -262.13371   -3694.0665 
17027000    173.94323   -4428.1222   -4129.9895   -4428.1222            0    1618.4573    17.961445    23.364442    22.078881    9265.6045    1083.6097     2394.075    1377.6872    955.17861   -156.89273   -149.86438   -3911.2884 
17028000    161.30851   -4426.2225   -4149.7452   -4426.2225            0    813.81432    18.040665    23.371106     22.00867    9279.5219     1742.387    758.04581   -58.989824   -793.19502    471.07819    422.44416   -4039.6098 
17029000    160.47683   -4438.2099   -4163.1581   -4438.2099            0    2478.9905    17.962201    23.438922    21.882075    9212.6732    2580.0869    1616.5567    3240.3278    444.47077    320.95648   -269.59454   -3830.0874 
17030000    179.98317   -4437.5334   -4129.0484   -4437.5334            0    1905.1976    18.098733    23.272306    22.018931    9274.3571    991.27699    2236.8869     2487.429    96.293795     122.3769   -278.04502   -3871.3571 
17031000    171.17431   -4414.8492   -4121.4622   -4414.8492            0      2109.82    17.925664    23.462801    21.948782    9231.3567    2068.9388    2938.5107    1322.0105   -814.61053    151.07441    172.89787   -3837.4175 
17032000    170.28404   -4424.1184   -4132.2573   -4424.1184            0    1998.9174    18.075741    23.306492    21.989435    9263.7554    1576.8761    1517.7975    2902.0785    139.56149   -84.776511   -33.585419   -3862.1989 
17033000    168.02574    -4425.423   -4137.4326    -4425.423            0     1682.742    17.818504     23.42748    22.127694    9237.0432    2620.9338    1942.2514    485.04096    625.52283    -439.3475    193.95407   -3910.7457 
17034000    169.99542   -4450.3722   -4159.0059   -4450.3722            0    1504.0617    18.078937     23.37236     21.96148    9279.7668    602.66153    2088.0978    1821.4259   -183.53397    597.97982   -397.43021   -3955.4524 
17035000    169.15199   -4457.0471   -4167.1264   -4457.0471            0    1903.9675    17.841591    23.499016    22.109397    9269.5824    3333.1073    1390.8792    987.91618    853.58979    714.19149    161.43977   -3909.7341 
17036000    161.56671   -4434.2546   -4157.3348   -4434.2546            0    2561.5224    18.146492    23.197188    21.974816    9250.2457    1950.4846    2606.3775    3127.7052   -390.93804   -203.26884    395.35489   -3811.7718 
17037000    164.34351   -4410.4123   -4128.7331   -4410.4123            0    2782.2615    17.837113    23.588215    21.824543    9182.5819    2238.8959    1578.7463    4529.1424   -534.11213    82.460506   -123.76777   -3756.1367 
17038000    163.61347   -4424.5515   -4144.1236   -4424.5515            0     1704.572    18.083762    23.157729    22.122383    9264.3862    1927.2403    1810.3604    1376.1152   -301.41933   -10.940379    442.05469   -3913.8162 
17039000    165.19771   -4422.3923   -4139.2491   -4422.3923            0    2296.2258    17.945056     23.40832    21.960249    9224.7016    2591.2382     1656.299    2641.1401    78.753906     377.9413   -135.54746   -3830.3314 
17040000    164.41168   -4430.5913   -4148.7953   -4430.5913            0    2206.9734    18.056828    23.420061    21.833654    9233.2783    1135.7822    1849.2002    3635.9377   -153.21787   -577.89481   -299.16922   -3851.6089 
17041000    155.59307   -4413.6399   -4146.9587   -4413.6399            0    1826.0552    17.922259    23.406705    22.118055     9278.547     4058.725    1495.2004    -75.75983     232.9142   -36.693359   -400.62511   -3899.8604 
17042000    173.07933   -4448.3339   -4151.6818   -4448.3339            0    1438.0376    18.125969    23.203061    22.048564    9273.1403    1037.6582    1647.4669    1628.9878    20.521769   -80.639548    125.63358   -3957.2027 
17043000    173.91321   -4429.8887   -4131.8074   -4429.8887            0    1887.2068    17.960829    23.474482     21.90012    9233.5539    1546.5095    1183.6913    2931.4194    753.33626    471.74622   -172.14843   -3877.6725 
17044000    168.80416   -4422.1301   -4132.8055   -4422.1301            0    1524.8682     18.11321    23.113204    22.108989    9256.0234    1224.9299    2242.8645    1106.8102    166.85705   -303.32716    35.124019   -3926.9642 
17045000    163.60118   -4454.7512   -4174.3444   -4454.7512            0    1594.2674    17.934298    23.464784    21.987384    9252.8283    1724.9739    1498.4379    1559.3905    563.99383   -618.73626    279.91893   -3959.2091 
17046000    173.77743   -4428.3503   -4130.5018   -4428.3503            0     1889.168    18.146329    23.208753      21.9584    9247.8607     1865.194    1761.0749     2041.235    316.23516   -257.45127    111.46958   -3875.7086 
17047000    168.20387   -4441.5294   -4153.2337   -4441.5294            0    696.93758    17.908464    23.503467    22.097552    9301.1023    556.85505    1098.7066    435.25112   -157.70385    244.70964    137.27525   -4058.6962 
17048000    164.51567   -4415.6064   -4133.6321   -4415.6064            0     2635.987    18.020386    23.329129    21.920329    9215.3041     2101.077     2556.394      3250.49    -322.3134   -17.849674   -309.90859   -3779.3667 
17049000    171.66469   -4426.3671   -4132.1397   -4426.3671            0    1884.9962    17.825552    23.543912    22.054509    9255.9073    1293.3976    2056.8194    2304.7715   -832.05213   -342.00458    587.53426    -3877.688 
17050000    162.23221   -4426.9648   -4148.9043   -4426.9648            0    1724.4116    17.992703    23.196117    22.133228    9237.5429    1725.4043    2209.2102    1238.6205    199.79003     45.70828   -169.47825   -3916.5914 
17051000    171.58643   -4420.4035   -4126.3102   -4420.4035            0    2162.7188    17.913298    23.450974    21.970388    9229.4147    2799.0527    1737.5321    1951.5715    267.23512   -636.58584   -136.73298   -3835.2049 
17052000    165.84081   -4430.4245   -4146.1791   -4430.4245            0    2912.6378    18.057653    23.128167    21.986957    9182.6416    2773.6921    3736.8716    2227.3497   -956.97211   -56.621469   -228.69371   -3756.1203 
17053000    167.44327   -4443.0362   -4156.0442   -4443.0362            0     1915.911    17.827082     23.51941    22.087515    9260.9077    1919.9517    2804.6638    1023.1176   -344.88805    477.60052    414.36135   -3897.2797 
17054000    165.13804   -4416.5434   -4133.5024   -4416.5434            0     1284.278    18.032101    23.361109    21.985154    9261.2434    1416.0341    1650.9648    785.83516    213.92722    118.38315  -0.89829589   -3960.0405 
17055000    162.58131   -4418.6057    -4139.947   -4418.6057            0    1863.6349    17.995769     23.36505    22.015534    9256.9162    2476.5838    1708.5452    1405.7758   -148.92707    6.2805412    230.37762   -3888.3513 
17056000    174.95259    -4419.614   -4119.7512    -4419.614            0    1679.1204    18.028419    23.318145    22.021141    9257.4514    1820.1189     3647.271   -430.02862   -922.22642   -143.66037    183.02806   -3893.0525 
17057000    166.99595   -4429.4019   -4143.1766   -4429.4019            0    2238.4844    18.064136    23.500821    21.770192    9241.9257    2477.1212    2718.8713    1519.4607   -449.39173    293.31476   -195.37798   -3841.4647 
17058000    165.76483   -4425.2591   -4141.1438   -4425.2591            0    2479.6172     17.98117    23.358688    21.984948    9234.0419    2837.9071    2426.3815    2174.5631    -293.6386   -268.20947    833.66326   -3807.2162 
17059000    169.45124   -4426.8111   -4136.3775   -4426.8111            0    2185.8743    18.004857    23.284898    22.012458    9228.5305    1398.3322    1974.0122    3185.2786   -288.85014    201.17848    415.18707   -3842.1836 
17060000      166.291   -4448.9768   -4163.9598   -4448.9768            0    1552.1183    18.057209    23.399277    21.917446    9260.6827    1339.0221    1564.5633    1752.7695    154.70494    544.29212    461.97849   -3954.3345 
17061000    165.76636   -4427.9052   -4143.7874   -4427.9052            0    1207.0259    18.004155     23.44727    22.015348    9293.7414    1910.1962    1197.9338    512.94777   -380.85639    426.73213    484.76732   -3980.1874 
17062000     168.9605   -4421.0152   -4131.4226   -4421.0152            0    648.03652    18.047743    23.373406    22.127433    9334.1746    1081.1354    2078.0041   -1215.0299     -232.657   -276.66077    256.20834   -4043.2059 
17063000    172.25943   -4415.4414   -4120.1947   -4415.4414            0     2576.715     17.95403    23.443796    21.952478     9240.031    2556.8093    1011.0475    4162.2881   -21.639268   -26.864467    516.04019   -3772.9659 
17064000    171.28448   -4434.7668   -4141.1911   -4434.7668            0    2022.9842    18.014185    23.215016    22.135666    9257.1264    2000.0793    2074.2662     1994.607   -1007.1609      644.147   -13.671657   -3868.0767 
17065000    160.25438   -4432.1599   -4157.4894   -4432.1599            0    2395.9593    17.884896    23.491187    21.932188     9214.533    3461.7406    2341.2131    1384.9241   -884.17182    264.94616    99.335931   -3835.5096 
17066000    172.06943   -4416.5808   -4121.6596   -4416.5808            0    2961.6653    17.991504    23.342739    21.902779    9198.5318    1608.2605    2586.1878    4690.5474    388.08533   -240.35593    517.42564   -3724.3488 
17067000    160.26549   -4442.1844   -4167.4948   -4442.1844            0    1185.0133    17.905451    23.429817     22.15216    9293.3061    1921.9304    1006.8608    626.24876   -456.17024   -170.09685    92.919208    -4006.886 
17068000     161.0559   -4427.2605   -4151.2162   -4427.2605            0     1282.974    18.108138    23.402672     21.91928    9288.9262    624.98725    1219.8725    2004.0623    336.17628   -264.48797    1356.1292   -3977.4124 
17069000    163.41198   -4450.9538   -4170.8713   -4450.9538            0    2309.7437    17.953629    23.525159    21.861149    9233.3181    1710.3138    2084.7551    3134.1621   -136.47116    292.81833   -14.338374   -3859.8447 
17070000    171.02706   -4435.6846   -4142.5501   -4435.6846            0    866.46164    17.965985    23.210304    22.335675    9313.8868    2213.5136    1210.5488   -824.67753   -641.49898    14.766553   -419.44963   -4024.8556 
17071000    164.86005   -4426.5879   -4144.0234   -4426.5879            0    1657.2205    17.938648    23.526802    21.956609     9266.546    778.16362    1410.7046    2782.7932   -10.733597    187.94395   -209.69933   -3920.0616 
17072000    180.80855   -4414.4125   -4104.5128   -4414.4125            0    2525.8478    18.102185    23.363352    21.894903    9259.9613    2206.9104    3678.6381     1691.995   -473.82906   -257.91714   -650.91931   -3763.4045 
17073000    162.89691   -4444.6289   -4165.4292   -4444.6289            0    2218.1443    17.856314    23.327444    22.173209    9236.0762    1876.0323     2259.532    2518.8687    -463.6202    416.73827    163.30016   -3866.6481 
17074000    166.73428   -4437.3284   -4151.5515   -4437.3284            0    1027.1564    18.117796    23.392196    21.999461    9323.7022    2017.8676    349.47902    714.12274    326.19754     180.7374    138.51745   -4011.8823 
17075000    166.45515   -4430.8318   -4145.5334   -4430.8318            0    2513.6236    18.036313    23.461344     21.85021    9246.0507    2036.1501    3020.3462    2484.3745   -261.83057    417.07808   -92.896635   -3806.5859 
17076000    162.44268   -4427.4321   -4149.0109   -4427.4321            0    1600.7565    17.950335    23.263163    22.237176    9285.8348    902.62928    3124.7883    774.85178    389.36681   -511.45784    972.06409   -3932.2294 
17077000    164.66233   -4436.9418   -4154.7162   -4436.9418            0    1706.0281    17.956317    23.405725    22.017042    9253.3359    1343.5714    1930.8568    1843.6562   -57.418191   -117.94483    262.21761    -3924.487 
17078000    177.23481     -4420.83   -4117.0556     -4420.83            0    2578.6215    18.085957    23.346421    21.906995    9250.0612     2153.462    1610.2536    3972.1488   -12.641028    194.78711   -296.68411   -3769.1928 
17079000    164.73379   -4429.8543   -4147.5063   -4429.8543            0    2055.6109    17.863105    23.618141    21.914611    9245.6282     1257.973    995.30662    3913.5531   -576.74962   -163.21357   -44.986319   -3870.3318 
17080000    177.21313   -4417.6102    -4113.873   -4417.6102            0    1330.0491    18.063453    23.296051    22.034325     9272.201    2494.3419     979.3092    516.49605   -389.51938   -766.72705     46.92026   -3934.0164 
17081000    176.98646   -4446.3275   -4142.9788   -4446.3275            0     2370.632    17.832264    23.410954    22.069273    9213.2663    2151.0235    2330.0099    2630.8627    396.08125    464.24467   -54.234427   -3824.4464 
17082000    165.85443   -4442.1547   -4157.8859   -4442.1547            0    2294.0798     18.10377    23.172107    21.940934    9204.2767    2516.3342    2584.0828    1781.8224   -735.80885   -89.695744   -866.48944   -3849.9402 
17083000    164.21614   -4436.4022   -4154.9414   -4436.4022            0    2307.0568    17.877978    23.482495    21.948614    9214.4565    1515.8869    2000.7933    3404.4901    377.05764    584.36364   -518.72065   -3844.9113 
17084000    175.09263   -4417.4003   -4117.2976   -4417.4003            0    2072.7924    18.035058     23.25997    22.094901    9268.6985    1936.5869    2171.9838    2109.8064    325.96883   -92.327411      44.7882    -3837.109 
17085000    174.30979   -4447.4507   -4148.6897   -4447.4507            0     989.4738    17.965408    23.526076    21.925323    9266.8594     1185.752    586.28726    1196.3821   -408.95005   -593.64031    734.34488   -4014.9647 
17086000    162.61776   -4422.9998   -4144.2785   -4422.9998            0    1215.3332    18.141826    23.451891    21.835531     9290.148    853.04898    113.23342    2679.7172    507.98118    615.52387   -334.57795   -3979.6163 
17087000    168.52515   -4443.3947   -4154.5483   -4443.3947            0    1023.0652    17.918063    23.345456    22.179461    9277.7872    435.59633    796.48428     1837.115    317.13617    497.20075     148.1568   -4016.1204 
17088000    180.63324   -4434.8843   -4125.2851   -4434.8843            0    2468.8925    18.004643    23.379498    21.944859    9237.4579    1896.5216    2707.8268    2802.3291    661.96824    95.336602   -320.22662   -3792.6788 
17089000    168.29841   -4456.5233   -4168.0656   -4456.5233            0    878.02628    18.108996    23.312021    21.984403    9280.8764    519.62845    769.42248    1345.0279   -40.844513   -61.980255   -284.72524    -4049.223 
17090000    164.41372   -4421.6393   -4139.8398   -4421.6393            0    1571.0652    17.966449    23.391573    22.173504    9318.7145    2211.8171    2720.3723   -218.99385   -62.238979   -392.81742    211.79458    -3926.326 
17091000    163.68987   -4442.8481   -4162.2892   -4442.8481            0    1314.2645    18.045445    23.507834    21.963646    9317.1836    2093.4288    1161.8132    687.55157    192.38484    376.48362    33.852556   -3983.7049 
17092000    170.36378   -4423.2774   -4131.2797   -4423.2774            0    2261.1985    17.994041    23.466671    21.842966    9223.4162    1999.8654    1844.7931     2938.937   -75.364414    695.91546    1135.0449   -3827.1167 
17093000    165.51788   -4443.7799    -4160.088   -4443.7799            0    1651.4269    17.910331    23.335308    22.125089    9247.0279    2747.9256    1411.3864     794.9685    339.73669   -1484.7472    -43.85339   -3937.3791 
17094000    165.04259   -4428.4279   -4145.5505   -4428.4279            0    941.75671    17.950365    23.430006    22.071918    9282.9445    1387.5324    1147.2013    290.53644   -443.45772   -96.179421    56.351722   -4018.0534 
17095000    164.28994   -4437.0907   -4155.5034   -4437.0907            0    2044.9823    18.095586    23.316363    21.845455    9217.1049    1292.9869    2161.7296    2680.2303    64.960397    445.13729   -358.14344   -3880.6127 
17096000    162.55082   -4411.0682   -4132.4616   -4411.0682            0    1960.4946    17.904908    23.415073    22.076137    9255.3038    2225.6507    838.47416    2817.3589   -649.03099   -855.63379    223.36449   -3867.8358 
17097000    169.89128   -4427.7381   -4136.5502   -4427.7381            0    1336.5346    18.018754    23.337363    21.999504    9251.0164    1493.6808    1404.3677    1111.5554    462.97453     469.1055    574.38113   -3956.2296 
17098000    161.72069   -4442.0527   -4164.8689   -4442.0527            0    1357.2103    17.963881    23.592867    21.867057    9267.6842    2783.8696    97.099595    1190.6618   -873.12375   -378.38137    166.72616   -3981.4288 
17099000    164.53289   -4422.4911   -4140.4873   -4422.4911            0    2370.7591     18.08263    23.063966    22.182942     9251.555    1624.5908    2836.1779    2651.5087    564.03491    303.74031   -461.51876    -3820.614 
17100000    161.73104    -4438.067   -4160.8656    -4438.067            0    1155.0471    18.011973    23.494987    21.971184    9298.0088    105.66101    1887.8478    1471.6325    64.075004   -228.86449   -123.52199    -4004.239 
17101000    164.28484   -4445.4933   -4163.9147   -4445.4933            0    1524.8334    18.025605    23.322602    22.028391    9260.8242    1870.6687    2112.8803    590.95101   -676.77164   -364.42832    272.09471   -3957.9713 
17102000    170.72592   -4424.3297   -4131.7113   -4424.3297            0    2126.7767    18.002242    23.375775    21.971624    9246.0189    2248.1819    2055.8072    2076.3409   -138.20676    83.954266   -465.42511   -3844.9289 
17103000    165.34997   -4415.5289   -4132.1247   -4415.5289            0    1951.5214    18.097838     23.50194    21.703222    9231.1249    3420.0349    913.46863    1521.0607    -591.7685   -402.29966   -611.16828   -3869.3983 
17104000    161.52431   -4420.7756   -4143.9285   -4420.7756            0     2379.126    17.876583    23.373045    22.031062    9205.2429    1913.8094    2584.4385    2639.1301    206.04938   -438.12816    443.27753   -3824.5331 
17105000    177.12489    -4430.917    -4127.331    -4430.917            0    2346.3505    17.926376    23.256357       22.147    9233.1328    2324.5063    2693.0293     2021.516   -677.52177   -524.58325    166.10445   -3811.3814 
17106000    156.65325    -4427.454   -4158.9557    -4427.454            0    2972.1739    17.962542    23.442227    21.809493    9183.5845    2283.4218    3523.5111    3109.5887    640.94492    156.37724   -601.10746    -3760.883 
17107000    166.05722   -4441.1719   -4156.5555   -4441.1719            0    1718.1888    18.042819    23.331331    21.906383     9221.776    2045.4177    1450.2269    1658.9219    390.49784   -413.54924   -624.58478    -3925.476 
17108000    169.63792   -4431.4339   -4140.6803   -4431.4339            0    729.53661    18.214789    23.409424    21.791676    9291.9207   -1234.2816    1144.3673    2278.5241   -355.38522    502.81012    319.84937   -4041.8185 
17109000    165.28308   -4434.1363   -4150.8467   -4434.1363            0    1777.8067     17.94623    23.470355    21.982285    9259.0349    1530.5952    2222.2179     1580.607    56.154338    193.53639    560.23767   -3910.7832 
17110000     164.3898   -4430.6976   -4148.9391   -4430.6976            0     2245.934     18.02469    23.269132    22.094351    9266.7881    1447.6374    2685.5896    2604.5748    570.42437     87.85735   -330.45659   -3845.4088 
17111000     167.0269   -4426.4482   -4140.1698   -4426.4482            0    449.03309    18.109353      23.3787    21.967107    9300.2831    184.69236    410.89079    751.51612   -41.551162   -876.63427   -160.63357   -4079.2652 
17112000    174.75701   -4443.4228   -4143.8952   -4443.4228            0    1540.7311    17.941171    23.435726    22.082921    9285.0814    1520.2162    1109.6808    1992.2963   -555.82482   -84.694203    383.45238   -3935.2596 
17113000    171.76791   -4442.8749   -4148.4706   -4442.8749            0    1714.6223    18.031283    23.289646    22.058623    9263.3463    1414.7434    2227.2968    1501.8268   -582.33916    266.92874      131.129   -3916.8313 
17114000    178.67158   -4425.7401   -4119.5031   -4425.7401            0     2330.836    17.978043    23.454016    21.967788    9262.8784     3103.266    2423.1068    1466.1352    793.58694   -194.26792   -161.68123   -3804.6315 
17115000    176.17641    -4428.124   -4126.1637    -4428.124            0    1548.3342    18.085927    23.183932    22.122193    9275.8993    1036.9559     1489.395    2118.6518   -208.18963   -559.43576    102.62129   -3916.7059 
17116000    169.38907   -4446.3923   -4156.0652   -4446.3923            0    1989.2778    17.952292    23.435474      21.9159    9220.4676     2751.047     878.3721    2338.4143   -905.82783   -999.28498    287.13297   -3888.5649 
17117000    163.38179   -4446.5245   -4166.4937   -4446.5245            0    1722.6501    18.039206    23.227261    22.075101     9249.497     2130.164    1090.4458    1947.3404   -388.13555    578.09663   -708.96247   -3934.1178 
17118000    168.32366   -4445.5861   -4157.0851   -4445.5861            0    2280.0892    17.882907    23.568376    21.918408    9237.9749    2279.6372    1935.2477    2625.3828   -52.289185   -392.90736     647.8347   -3849.8969 
17119000    170.95794   -4434.2873   -4141.2712   -4434.2873            0    687.29284    18.149568    23.417813    21.997243    9349.3385    181.80109   0.11139181     1879.966  -0.76188104    270.69661    211.00755   -4047.5585 
17120000    164.74054   -4436.5311   -4154.1715   -4436.5311            0    2157.0755    17.986634    23.447985    21.915167    9242.7289     2250.824     2445.766    1774.6363   -608.40368    -285.7491   -176.91588   -3863.4069 
17121000    168.58411   -4441.6625   -4152.7151   -4441.6625            0    2133.1584     18.10501    23.215379    22.057877    9271.2497     2504.202    2362.9896    1532.2837   -54.397449    -312.0465   -425.60275   -3864.2872 
17122000    172.25499   -4424.5296   -4129.2904   -4424.5296            0    1361.1032     17.89555    23.495203     22.16357     9318.885    1709.6882    2064.8448    308.77653   -286.68297   -123.65306    45.103809   -3944.3078 
17123000    162.94854   -4443.9508   -4164.6625   -4443.9508            0    2244.4922     18.00978    23.166865    22.167915    9249.1222    2029.7755    4085.7121    617.98889    13.240086    337.62025   -448.71706   -3861.9053 
17124000     163.7531    -4409.545   -4128.8778    -4409.545            0    2244.7483    17.958439    23.499554    21.947327    9262.1083    3645.8713     500.5805    2587.7932   -826.89565    435.00973    -422.7338   -3825.6609 
17125000    176.89341   -4422.6573    -4119.468   -4422.6573            0    2251.4676    18.151742    23.223082    21.957759    9256.0604    2610.2797    3107.5202    1036.6027    682.16569   -23.426296   -740.63286   -3815.5421 
17126000    171.28284   -4436.6911   -4143.1182   -4436.6911            0    1521.9221    17.884713    23.587535    21.986662    9275.2123    2842.0683   -298.19923    2021.8973   -823.89487   -656.53373    179.35857   -3937.2486 
17127000    162.26699     -4416.61     -4138.49     -4416.61            0    1151.7006    18.158445    23.171098    22.124574    9308.9392    57.948059    2428.3115    968.84226   -124.19426    251.24731    463.38234   -3982.1336 
17128000    171.03801   -4435.9305   -4142.7772   -4435.9305            0    2094.4483    17.860596    23.520536    22.020206    9250.4858    3933.2507    543.96422      1806.13   -258.35189    184.10621    500.69265   -3860.2176 
17129000    171.70843   -4414.8262   -4120.5238   -4414.8262            0    1876.0686    18.154096    23.204327    21.896058    9223.7927    1960.2429    1505.1551    2162.8077    216.92779    202.80096    168.22557   -3868.1559 
17130000    161.13526   -4439.6222   -4163.4419   -4439.6222            0    1531.1799    17.998109    23.447032    22.020647     9292.762    1588.6492    489.94883    2514.9416   -431.58145    170.07074     123.4862   -3955.9281 
17131000    161.47115   -4441.8543   -4165.0983   -4441.8543            0    945.25384    18.008897     23.28521    22.176198    9299.3878    2804.2816   -256.58077    288.06068   -24.089562   -651.79244    874.61636    -4036.901 
17132000    169.98721   -4416.9192   -4125.5669   -4416.9192            0    1462.8688      17.8911    23.630705    22.061487      9327.14    2669.0713    495.38384    1224.1512    -213.9444    -468.9472    504.04973   -3926.5776 
17133000    156.76528   -4424.2911   -4155.6008   -4424.2911            0    1554.6355    18.130635    23.368295    21.848809    9256.9479    822.52781    1753.0222    2088.3565   -298.44009    169.84645    393.65785   -3945.7202 
17134000    163.37852   -4436.7464   -4156.7212   -4436.7464            0    3506.5332     17.80041    23.500206    21.860757    9144.6454     3593.974    2445.2832    4480.3424    -406.6622    325.39464   -119.64098   -3689.0714 
17135000    155.15645   -4436.0287   -4170.0959   -4436.0287            0    564.81125    18.070932    23.297095    22.086595    9298.4617   -351.81734     1095.493     950.7581    600.12888     138.3902    576.55107   -4093.5026 
17136000     176.2856   -4443.7327   -4141.5852   -4443.7327            0    1418.0991    18.019596    23.606593    21.845937    9292.8527    1303.0066    487.49318    2463.7974    221.46269    612.01529   -274.74043   -3949.3949 
17137000    156.16717   -4423.7997   -4156.1345   -4423.7997            0    3138.3426    18.117699    23.175826    21.950147    9216.7054    1609.5384    3667.1326    4138.3569   -465.36475   -384.58916    541.25922   -3734.2905 
17138000    164.81668   -4424.2597   -4141.7695   -4424.2597            0    1416.8467    17.882394    23.409292    22.092191    9248.1043    1516.7057    1316.4553    1417.3791   -279.65513    -390.0786   -501.50079   -3950.6736 
17139000    157.21506   -4445.8187   -4176.3574   -4445.8187            0    1736.6479     18.22751    23.148703     21.95063    9261.9196    1174.0043    3361.7797    674.15974    613.41553   -211.10953    -177.3505   -3941.7787 
17140000    164.76249   -4427.6689   -4145.2717   -4427.6689            0    1099.0795    17.942964    23.673214    21.896203    9300.7981     1497.204    289.63014    1510.4044   -372.85878   -363.21897   -37.768963   -3996.1897 
17141000    165.02616   -4448.8944   -4166.0452   -4448.8944            0    1212.4705    18.125516    23.207121    22.089822    9291.8858     1757.475    1967.3869   -87.450322    32.635661    216.09766   -875.44059   -4001.7402 
17142000    165.90221   -4439.3897    -4155.039   -4439.3897            0    1763.2408    17.706784    23.719383    21.998012    9239.0329    2318.1256    1315.7556    1655.8413   -761.11699    172.94878   -270.22452   -3917.4567 
17143000    163.23042   -4433.7025   -4153.9312   -4433.7025            0    1557.1455    18.127818     23.24184    21.924644    9237.3753    607.91813    2067.4755    1996.0428    746.89518    92.719096   -795.00353   -3944.1562 
17144000    160.53287   -4422.4885   -4147.3407   -4422.4885            0    1778.2995    17.901496    23.460833    21.988637    9234.8754    2309.0772    849.74911    2176.0722   -660.70828    192.06747   -197.75954   -3907.8372 
17145000    175.80703   -4429.7065   -4128.3793   -4429.7065            0    1392.2898    18.076455    23.026425    22.204651    9242.3784    443.82192    1717.3905     2015.657    21.151225    298.07603    864.74361   -3940.7117 
17146000    167.53162   -4441.6042   -4154.4608   -4441.6042            0    1965.9981    17.875561    23.562102    21.909791    9228.0928    1763.2127    910.03017    3224.7515    158.39305    354.72336   -68.549827   -3889.8723 
17147000      163.136   -4444.2291   -4164.6196   -4444.2291            0    2969.2537    18.188335    23.123286     21.87364    9199.4858    2555.9041    3992.6631    2359.1939    549.20655    5.1170944    171.45052   -3766.2495 
17148000     165.2484   -4450.4827   -4167.2526   -4450.4827            0    1630.2058    17.883254     23.45861    22.055154    9252.4961    1784.3952    1095.6084    2010.6139   -913.43897   -9.7147808    555.60164   -3947.2756 
17149000    177.71175   -4422.5794   -4117.9876   -4422.5794            0    2403.8133     18.19644    23.231276    21.870087     9245.066    1944.1535    2154.6272    3112.6593   -219.81651   -679.21829   -12.597498   -3793.8819 
17150000    160.52696    -4428.074   -4152.9362    -4428.074            0    1574.7863    17.982762     23.46862    21.964912    9269.8649    2664.8089    714.48361    1345.0665   -1123.0463    206.24781    101.51017   -3940.0386 
17151000    169.68728   -4426.2122   -4135.3741   -4426.2122            0    972.93346    18.071052    23.321772    22.072154    9302.2863    790.87111     1425.044     702.8853   -358.55367   -107.26491     413.1702   -4003.3817 
17152000    159.05387   -4436.8405   -4164.2276   -4436.8405            0    2215.0202    17.852921    23.575775    21.909799    9221.7565    1998.1665    1510.4673    3136.4269   -732.69074    75.113979   -183.12342   -3866.3299 
17153000    169.25035   -4428.3124    -4138.223   -4428.3124            0    2752.0637    18.034793    23.208474    22.015972    9215.0059    2649.9889    2833.6715    2772.5308     447.6865   -437.25337   -61.914402   -3768.3693 
17154000    164.64457   -4442.2391    -4160.044   -4442.2391            0    1254.2226    17.957303    23.700923    21.806276    9280.8524    1261.4242    598.75726    1902.4863   -1011.1295    131.00842   -292.09608   -3990.2828 
17155000    163.72484   -4431.4749   -4150.8561   -4431.4749            0    271.12983    18.178606    23.345463     22.04467    9355.4926    70.990421    48.759166    693.63989   -590.15922   -404.76984     484.6441   -4113.8631 
17156000    160.98846   -4456.8449   -4180.9161   -4456.8449            0    1979.8735    17.975057    23.427604    22.000759    9264.7946    2505.7735    1626.7237    1807.1233   -1113.2984   -192.36111     393.4946   -3913.4005 
17157000    159.39797   -4429.5359   -4156.3333   -4429.5359            0    1194.3533    18.205379    23.179074    21.981731    9275.9348    666.57499    1624.5156    1291.9693   -896.90443   -64.586393   -151.02291   -3994.7612 
17158000    162.31058   -4433.4758    -4155.281   -4433.4758            0    560.78052    17.830388    23.648942    22.039874    9293.5496    629.17676    759.59728    293.56752    95.596126    97.297104   -477.95421   -4079.2746 
17159000    167.13205   -4435.6938   -4149.2352   -4435.6938            0    2586.5126    18.024357    23.251748    21.952881    9200.4043    3263.0904    2644.6326    1851.8147    51.141255     151.0905    345.75472   -3802.1809 
17160000    166.41605   -4410.8718   -4125.6403   -4410.8718            0     667.6692    17.943064    23.499568    22.062678    9302.8218    1005.4291    975.98798    21.590514   -501.90292   -63.778666    203.67171   -4035.0563 
17161000    158.41609   -4438.5635   -4167.0437   -4438.5635            0    2202.0428    18.041124    23.295632     21.93415    9218.4709    1335.3326    2521.4114    2749.3845     339.5065    12.475684   -237.55871   -3870.9968 
17162000    168.36583   -4442.9575   -4154.3842   -4442.9575            0    2135.6793    17.920745    23.408517    21.968305    9215.6615    3205.9851    1286.3493    1914.7035   -844.34417   -665.49691    257.88268   -3867.3468 
17163000    170.26701   -4433.1109   -4141.2791   -4433.1109            0     1452.231    18.095708    23.346371    21.963525    9278.9104    231.41786    1135.1642    2990.1108    1197.2283   -499.89801   -188.79829   -3944.7583 
17164000    161.17045    -4429.412   -4153.1714    -4429.412            0    2351.4121    18.017235    23.529373    21.754847    9222.6249       1871.4    2162.7172     3020.119   -401.79129   -221.57698   -274.12443   -3836.9005 
17165000    168.33291   -4438.4014   -4149.8846   -4438.4014            0    2167.4433    17.959579    23.218352     22.16422    9242.2982    2774.4619    1787.1305    1940.7375   -128.68569   -221.81426    657.69286   -3857.7361 
17166000    173.02466   -4434.8997   -4138.3413   -4434.8997            0    2200.8184    17.876581    23.566711    21.972338     9256.775     3664.247    1270.2051    1668.0031   -675.29339     708.0481     259.3632   -3841.2296 
17167000    159.20605   -4439.1443   -4166.2706   -4439.1443            0    1147.2585    18.096696    23.295815    21.955853    9256.0884    794.01163    1870.8185    776.94544   -1102.9723    405.12031    416.33518   -4011.4015 
17168000    180.27068   -4428.9687   -4119.9909   -4428.9687            0     950.5998    17.928424    23.408662    22.146823     9294.588    1380.4873    438.13056    1033.1815    26.225465    532.54785    375.11923   -3991.1351 
17169000    167.09459    -4406.216   -4119.8216    -4406.216            0    2532.3403    18.208192    23.184777    21.775466    9192.5758    577.24233    2800.2704    4219.5083   -653.55278    64.655508   -8.9296541   -3780.3251 
17170000    165.90624   -4429.7596    -4145.402   -4429.7596            0     1866.664    17.859691    23.550657    21.916815    9218.3761      2902.04    1037.0766    1660.8754   -344.41441    1402.5981   -294.80994   -3894.4466 
17171000    164.83845   -4429.9123   -4147.3848   -4429.9123            0    2356.3825    17.988417    23.329429    21.957327    9214.6005    2832.4384    3413.3794    823.32981   -182.40438   -445.63916    1044.1608   -3830.7212 
17172000    161.37041   -4423.7426   -4147.1592   -4423.7426            0    3349.2923    17.994536    23.498199    21.723427    9185.5163    2949.7858    3214.9297    3883.1612   -672.91294   -277.21181    206.11809   -3698.4836 
17173000    164.82673    -4437.579   -4155.0717    -4437.579            0    1196.3744    18.047081    23.304713    22.019881    9261.1666    1159.8621    2646.5503   -217.28936    604.64022     966.2228    67.034875   -3993.4838 
17174000    161.04522   -4433.1479   -4157.1219   -4433.1479            0    2004.8978     17.82848    23.283154    22.199321    9215.0105     2242.667    2323.5273     1448.499   -313.83873   -472.38798    -157.4317   -3887.6808 
17175000    165.79504   -4418.2488   -4134.0818   -4418.2488            0    1945.8257    18.161631    23.301191    21.838517    9241.7904    1163.1291    1645.0954    3029.2525   -266.67306    138.11071    228.18032   -3871.8195 
17176000    168.93907   -4443.5802   -4154.0245   -4443.5802            0    2367.7353    17.917784    23.529075    21.947008    9252.6146    2125.4586    1769.8898    3207.8575 -0.062249442   -888.10303   -53.867767   -3834.5225 
17177000    171.91514   -4420.8737    -4126.217   -4420.8737            0    2791.7948    17.923817    23.198232    22.138702    9205.2917    2993.1509    3294.7944    2087.4391    -406.1548    403.75481    829.17188   -3751.4193 
17178000    169.61888    -4426.784   -4136.0631    -4426.784            0    1365.5568    17.984637    23.420876      22.0856    9302.8069    1923.1818    1436.8151    736.67362   -855.77019     498.2994    260.33303   -3950.7954 
17179000    160.01458    -4421.461   -4147.2015    -4421.461            0     851.7558    18.084817    23.529574     21.88136    9311.1322    1036.5428    1414.4363    104.28829   -216.49618    108.53283    11.310633   -4031.5387 
17180000    166.52576   -4437.4854   -4152.0659   -4437.4854            0    1352.3405    18.023534    23.424063    22.035646    9303.1057    1370.6586    743.62269    1942.7403    156.56262    489.97974    210.80483   -3968.5854 
17181000    168.51977   -4425.9533   -4137.1161   -4425.9533            0    1597.5045    17.980895    23.310129    22.049641    9241.8201    448.02296    1750.2376     2594.253   -600.00302   -714.80696      270.831   -3921.8005 
17182000    170.88454   -4412.0919   -4119.2017   -4412.0919            0    3457.8815     18.06918    23.338159    21.802061    9193.9598    3712.8028    2325.3486    4335.4931    346.95109   -372.71047     -234.731   -3655.5535 
17183000    171.79547   -4447.9679   -4153.5164   -4447.9679            0    2765.8683    17.871606     23.37023    22.053234    9210.8323    2934.4832     3103.693    2259.4287    337.15943   -185.57383   -617.39701   -3781.9758 
17184000    169.26577   -4448.9874   -4158.8716   -4448.9874            0    2230.3469    18.024665    23.301526    21.940526     9215.069    2501.6795    2758.5863    1430.7749    786.21225    778.08589    308.31977   -3859.1301 
17185000    172.27113   -4434.3158    -4139.049   -4434.3158            0    1868.7902    17.954444    23.558506    21.920774    9272.0463    2815.0868    1494.7554    1296.5284    5.6321759      284.564    -257.5364    -3886.345 
17186000    173.19001   -4426.6593   -4129.8176   -4426.6593            0    523.61262    17.972216    23.466459     22.10069    9320.8394     1888.367     2.298372   -319.82753    96.374313    343.40477    205.32787   -4058.6403 
17187000    168.13627   -4442.2015   -4154.0217   -4442.2015            0    1946.4575    18.057201    23.188673    22.071668    9241.9046    1196.2757    2719.8552    1923.2415   -824.40293   -47.955695    248.16041    -3891.671 
17188000    170.58299    -4417.443   -4125.0696    -4417.443            0    1104.7394    18.042133    23.673053    21.806894     9313.994    1021.1883    1034.1863    1258.8436    675.22775    619.67948   -648.21477   -3975.0073 
17189000    158.91517   -4431.7845   -4159.4093   -4431.7845            0     2554.981    18.002107    23.234838    22.071463    9231.9639      2038.97    3326.5015    2299.4717    474.19991    478.78277   -191.28503   -3815.4099 
17190000    178.11385   -4424.3314   -4119.0503   -4424.3314            0    1231.6294    17.952664    23.671259    21.871727    9294.6561    155.41477   -29.440247    3568.9138   -130.73249   -613.07593     417.3802   -3952.0992 
17191000    171.14042   -4430.7904   -4137.4616   -4430.7904            0     2443.985    18.202959    23.289707    21.829437    9254.4064    1520.0821    3112.7562    2699.1168    45.536254     292.8972   -13.005454   -3807.6066 
17192000    169.81616   -4429.9398   -4138.8807   -4429.9398            0     2765.381    17.786301    23.491634    22.086666    9228.4553     5165.243    1316.0027    1814.8972   -110.67498    69.641185    570.47955   -3766.6948 
17193000    158.46871   -4409.5209    -4137.911   -4409.5209            0    1748.1581    17.996773    23.254682    22.068149    9235.7244     1377.985    2229.1551    1637.3342    157.01884   -656.80616   -212.19509   -3902.4453 
17194000    170.27148    -4416.719   -4124.8795    -4416.719            0    1945.7123     17.80042    23.625806    21.911123    9214.7067    2578.0305    1388.6507    1870.4555   -626.06753    160.44158    325.53913    -3863.401 
17195000    169.26797   -4437.3176   -4147.1981   -4437.3176            0    2075.6842    18.120425     23.28649    21.916641    9247.9693     1873.046     2596.203    1757.8035    833.32015    237.15472    261.59154   -3867.2461 
17196000    166.98791   -4430.9792   -4144.7677   -4430.9792            0    1816.0969    17.895389    23.487295    22.059448    9271.9013     2250.326    1478.5476    1719.4171    445.98208    467.63764   -180.28968   -3899.1929 
17197000    164.97583   -4422.8097   -4140.0468   -4422.8097            0    2192.0058    18.022721    23.146049    22.109658    9223.1496    1706.1196    2653.8932    2216.0045   -208.89569   -795.23775     369.7031   -3845.1997 
17198000    170.76608   -4431.9434   -4139.2562   -4431.9434            0    858.86525    17.981631    23.644819    21.876498    9301.2835    769.83898   -253.38638    2060.1432   -123.32954     142.6263     177.9786   -4022.7514 
17199000    174.43794   -4425.9167    -4126.936   -4425.9167            0    2342.4593    18.018565    23.227507    22.054866    9230.5428    2451.5927    3172.9168    1402.8683    1468.0181    135.06968      431.632   -3811.5988 
17200000    162.65048   -4426.5457   -4147.7684   -4426.5457            0    1351.9682    17.854063    23.566222    21.951175    9236.0184    2157.0063    721.93952    1176.9588    -515.5214   -229.48243    597.01778   -3965.6611 
17201000    165.72634   -4425.8117   -4141.7624   -4425.8117            0    2535.8839    18.104519    23.218853    21.878235    9196.8694    1583.8137    3066.6905    2957.1473    179.68752    151.86635   -167.29847   -3801.6321 
17202000    167.80583   -4421.5022   -4133.8887   -4421.5022            0    1991.6222    17.873985    23.512412    21.995925    9244.0185    3141.7151    1872.4837    960.66793    174.72425    193.33562     628.4548   -3865.3891 
17203000    166.47603   -4443.1523    -4157.818   -4443.1523            0     1834.003    18.076274    23.218262    22.001623    9234.0738    1527.6766    2520.9904     1453.342    -278.6756   -582.89285   -218.38661   -3910.8338 
17204000    162.67329   -4439.4264     -4160.61   -4439.4264            0    1816.4049    17.832523    23.467281     22.11028    9252.7283    2467.2611    1996.7871    985.16655   -427.57567    151.43729    120.74538   -3915.5015 
17205000    157.82042   -4431.9171   -4161.4183   -4431.9171            0    2641.7301    18.013502    23.285182    21.948507    9206.2503    3375.2689    2098.8081    2451.1133   -494.43094   -336.20606   -178.02902   -3806.7298 
17206000    161.81299   -4437.2517   -4159.9098   -4437.2517            0    1201.8648    17.995366    23.569131    21.921524    9297.6887    1717.4568    472.70244    1415.4351   -515.39892   -258.13483   -243.00827   -3996.9402 
17207000    166.41356    -4437.319   -4152.0918    -4437.319            0    1634.5129    18.048133    23.331772    22.014244    9270.0865    2065.3303    478.60851    2359.5999   -394.77729   -224.91095    373.52503   -3931.1143 
17208000    170.81185   -4425.8703   -4133.1047   -4425.8703            0    1690.4037    17.935714    23.237234    22.237028    9267.8682    2410.5691    2124.6214    536.02064    269.48103    165.59604    237.46655   -3904.6257 
17209000    171.97563   -4446.4292   -4151.6689   -4446.4292            0    1249.3759    18.047033      23.4408    21.978512    9297.7216     930.1909    1181.7746    1636.1621    1013.8834    340.68867    533.32411   -3982.2564 
17210000    180.47179    -4434.408   -4125.0855    -4434.408            0    1865.3615     17.90722     23.45102    21.982557    9231.4114    2633.9195    2206.3676    755.79745    128.50681   -679.88449     174.0454   -3873.9506 
17211000    164.85364   -4435.9447   -4153.3912   -4435.9447            0    1419.0341    17.953907     23.30095     22.19808    9286.4136    1926.7155    1445.9363     884.4506   -417.64669   -173.64684    568.70999   -3961.2074 
17212000    171.75991   -4439.2954   -4144.9048   -4439.2954            0    1916.1113     18.03161    23.379402    21.886982     9226.857    864.46616    2242.3801    2641.4875   -984.13235   -501.21624    434.03772   -3887.0647 
17213000    180.91263   -4442.1223   -4132.0442   -4442.1223            0    1400.2091    17.935409    23.507111    21.916835    9240.3489    2374.2826    1466.1393    360.20528    615.81919    201.07477    40.915211   -3943.3506 
17214000    170.50355   -4444.7495   -4152.5123   -4444.7495            0    1073.7962    17.983564    23.331222    22.056793    9254.5569    400.41223    1183.8905    1637.0858    500.05408    77.357954    287.29112   -4007.5839 
17215000    163.82694   -4461.4533   -4180.6596   -4461.4533            0    868.20324     17.95108    23.513548    21.954915    9267.0285    1049.2111    512.03286    1043.3658   -808.21818   -218.26817    121.04868   -4063.3218 
17216000     164.1461    -4432.195   -4150.8542    -4432.195            0     1654.017    18.106782     23.14234    21.990701    9214.8363    2494.0872    1301.0664    1166.8974    105.48963    837.45042   -27.191466   -3928.5727 
17217000    161.26036   -4437.2161   -4160.8214   -4437.2161            0    2547.4047    17.802857    23.468876    22.023756    9201.8122    2759.2468    2350.9558    2532.0116   -727.69105   -317.88031   -563.87365   -3818.9622 
17218000    176.56221   -4440.9075   -4138.2859   -4440.9075            0    1963.0791    18.114314    23.072653    22.171335    9266.4051     2013.404     2889.016    986.81726   -735.55323   -343.39028    -149.2201   -3872.9934 
17219000    166.58998   -4423.1146    -4137.585   -4423.1146            0    1881.0307    17.938779    23.498095    21.918192    9239.1125    2705.9903    1276.1745    1660.9273   -1375.7492   -651.48498    551.25658   -3884.1294 
17220000    158.34319   -4432.1287   -4160.7339   -4432.1287            0    1775.6085    18.175306    23.232153     21.93143     9260.579    1898.8056     2317.112    1110.9078     308.7931    516.35125    275.54879   -3920.9273 
17221000    175.61233   -4452.2046   -4151.2111   -4452.2046            0    541.07669    17.930076    23.575709    22.020691      9308.46    373.27406   -259.74975    1509.7057    124.56632   -593.57902    370.74562   -4077.7576 
17222000    163.17409   -4440.3051   -4160.6303   -4440.3051            0    1364.1922    18.012348    23.313231    22.028699    9250.4241    1141.9179    1622.8099    1327.8488    2.8861194    282.35017    283.45707   -3976.5899 
17223000    172.31094   -4450.6358   -4155.3007   -4450.6358            0    2444.2141    17.833112    23.499029    21.979172    9210.6097     3502.176    2192.7195    1637.7468    675.65406    392.89558    520.71986    -3826.976 
17224000    171.39946   -4438.2583   -4144.4855   -4438.2583            0    1457.6051    18.108933    23.293135    21.882433    9230.3128    1228.4462    2496.4569      647.912    554.05294   -29.536237    65.851463   -3948.2705 
17225000    164.50207    -4440.534   -4158.5831    -4440.534            0    1250.8169     17.96267    23.605238    21.869948    9273.1447    1218.1765    1286.3797    1247.8944   -25.489829     2.654838    491.20696   -3989.4235 
17226000     171.4775   -4435.5689   -4141.6623   -4435.5689            0    2135.2142    17.951236    23.325386    22.040729    9228.8835    2645.0433    1839.9182    1920.6812    1469.0836   -448.85103    115.86915   -3854.2757 
17227000    176.34683   -4406.2546   -4104.0021   -4406.2546            0    2116.5621    17.973222    23.538054    21.821389    9231.6404    935.77392    2458.8885    2955.0239   -36.083982   -181.23411    248.74755   -3819.0409 
17228000    171.04407      -4418.5   -4125.3363      -4418.5            0    2650.0015    18.026561    23.243993    21.951804    9198.0091    3349.6353    2305.3513     2295.018   -399.71307    329.47432    85.009214   -3769.8557 
17229000    177.14568   -4439.7241   -4136.1024   -4439.7241            0    2891.3143    17.890682    23.312022     22.00507    9177.6101    2369.7946    3684.3575    2619.7908    1110.9145   -832.25558    382.37531   -3749.1115 
17230000    167.93502    -4409.643   -4121.8081    -4409.643            0    831.49592    17.901506     23.45202    22.155871    9301.6213    422.77661    689.10062    1382.6105   -1145.4586    -281.5822    508.31626   -4009.0119 
17231000     169.5312   -4421.2808   -4130.7101   -4421.2808            0    2564.1483    17.939802    23.423331    21.887449    9197.3233    1986.1723    2235.3925    3470.8801   -172.11635    581.35369   -403.85471   -3786.7718 
17232000    166.80575   -4425.9404   -4140.0411   -4425.9404            0    842.80358    18.193837    23.431721    21.843263    9312.0651   -542.43607    1112.7643    1958.0826   -1066.5645    162.65915    741.47003   -4025.5825 
17233000    173.86251   -4450.6593   -4152.6649   -4450.6593            0    1536.8628    17.899035    23.392667    22.090943    9249.6137    2185.7685    2690.0391   -265.21939    68.301254     66.22229    639.00882    -3945.348 
17234000     178.8796   -4437.4741   -4130.8806   -4437.4741            0     2091.202     18.04113    23.332081    22.000779    9260.9444    2483.8563    2158.4235    1631.3262    254.64124   -230.41847    154.36366     -3848.44 
17235000    165.40598   -4438.1618   -4154.6616   -4438.1618            0    2689.8457    17.931826    23.369123    21.988637    9214.3615    2653.7677    2703.1643    2712.6052   -443.01982    -364.8515    430.69688   -3793.1947 
17236000    172.59623   -4448.1531    -4152.329   -4448.1531            0     2478.928    17.988666    23.366375    21.936684    9220.6445    2347.9322    1981.5002    3107.3515    430.55824    529.38014    949.89873   -3818.9786 
17237000    162.37339    -4424.966   -4146.6636    -4424.966            0    1207.0094    17.991626    23.417507    21.924578    9237.2419    1177.6248   -25.510637    2468.9139   -368.87061    502.24418    107.82784   -3984.0605 
17238000    168.21889   -4422.2607   -4133.9392   -4422.2607            0    2324.4561    17.972063    23.237527    22.046722     9207.291    2311.2629    3415.2154      1246.89    282.51136   -240.54717    306.80421   -3821.8138 
17239000    160.14822   -4420.0951   -4145.6065   -4420.0951            0    265.26859    17.987356    23.534358    21.988226    9308.0752    365.18327    1175.1238   -744.50131    683.17709   -318.22368    326.47328   -4109.5966 
17240000    171.96624   -4435.5325   -4140.7883   -4435.5325            0    1595.6524    18.169269    23.409638    21.766181     9257.941    106.63242    1676.2393    3004.0854   -540.80957    527.45602   -209.04726   -3925.3472 
17241000    159.51246    -4437.153   -4163.7541    -4437.153            0    1210.1151    17.943175    23.412587    22.072434    9272.5445    2247.8081    1853.7248   -471.18758   -368.78281   -176.77062   -35.859204   -4000.1096 
17242000    159.57687   -4415.9938   -4142.4845   -4415.9938            0    2315.3835    17.982637    23.327815    22.033365    9242.8999    3145.4004     2391.112    1409.6381   -132.96161    684.66884    554.28354   -3830.3749 
17243000    166.08774   -4406.9316   -4122.2629   -4406.9316            0    3843.7087    17.904491    23.201044    22.064547    9165.6762    4502.7285     4681.235    2347.1624   -113.06609   -110.19008    486.06097   -3608.4667 
17244000    167.62274   -4424.2173   -4136.9177   -4424.2173            0    2187.1398    18.048041    23.383898    21.942203    9260.3455    2063.0495    802.14397     3696.226   -496.35497    469.00211    358.56554   -3841.5386 
17245000    174.77387   -4421.8559   -4122.2995   -4421.8559            0      2844.43    17.934205    23.508784    21.858272    9215.6957    2203.3693    2297.0812    4032.8395   -216.78244   -471.58756   -1051.8934   -3740.0039 
17246000    164.28415   -4431.0727   -4149.4952   -4431.0727            0    680.01835    18.088965    23.160836    22.193985    9298.2936    412.30525    1754.8388   -127.08904    40.004431   -69.562115   -137.50634   -4057.2806 
17247000    173.88442    -4451.402     -4153.37    -4451.402            0    1125.2805    17.912095    23.534335    22.008267    9277.5686    589.32123    1183.0998    1603.4203   -82.994128   0.53377112    654.07783   -4001.1153 
17248000    166.83117   -4411.1717   -4125.2288   -4411.1717            0    2154.5219    18.042659    23.175314    22.057774    9223.3321    3273.8525    2590.2524    599.46073    496.56475    208.08316    708.89609    -3835.418 
17249000    158.15299   -4432.3638    -4161.295   -4432.3638            0    2273.1322    17.781663    23.414176    22.089112    9196.6466    3209.8548    2081.4136    1528.1284   -65.394054   -223.51884   -743.09469   -3856.4141 
17250000    172.41989   -4413.7954   -4118.2736   -4413.7954            0    1280.7476    18.087473    23.311944    21.992735    9273.3283    1706.6016    1030.6075    1105.0337    -1144.257   -126.53237    58.168041   -3945.0627 
Loop time of 360.814 on 64 procs for 250000 steps with 864 atoms

Performance: 119.729 ns/day, 0.200 hours/ns, 692.878 timesteps/s
194.0% CPU use with 32 MPI tasks x 2 OpenMP threads

MPI task timing breakdown:
Section |  min time  |  avg time  |  max time  |%varavg| %total
---------------------------------------------------------------
Pair    | 17.683     | 24.974     | 33.564     | 100.6 |  6.92
Bond    | 1.0203     | 1.235      | 2.0277     |  14.9 |  0.34
Kspace  | 178.59     | 189.99     | 198.13     |  38.9 | 52.66
Neigh   | 0.91628    | 0.98321    | 1.0994     |   4.9 |  0.27
Comm    | 53.004     | 57.517     | 61.214     |  26.1 | 15.94
Output  | 0.61067    | 0.61096    | 0.61296    |   0.0 |  0.17
Modify  | 64.985     | 67.063     | 71.207     |  19.5 | 18.59
Other   |            | 18.44      |            |       |  5.11

Nlocal:        27.0000 ave          38 max          18 min
Histogram: 5 4 4 3 1 4 2 2 1 6
Nghost:        2132.94 ave        2248 max        2020 min
Histogram: 5 7 4 0 0 0 0 4 8 4
Neighs:        6552.81 ave        9211 max        4227 min
Histogram: 5 2 6 3 1 4 2 2 2 5

Total # of neighbors = 209690
Ave neighs/atom = 242.69676
Ave special neighs/atom = 2.0000000
Neighbor list builds = 3540
Dangerous builds = 0

unfix		3
unfix		2
unfix		1

write_data	data.final.${pid} nocoeff
write_data	data.final.0 nocoeff
System init for write_data ...
PPPM initialization ...
  extracting TIP4P info from pair style
  using 12-bit tables for long-range coulomb (../kspace.cpp:340)
  G vector (1/distance) = 0.37177509
  grid = 24 27 25
  stencil order = 5
  estimated absolute RMS force accuracy = 0.0031465561
  estimated relative force accuracy = 9.4757602e-06
  using double precision FFTW3
  3d grid and FFT values/proc = 4410 672
Last active /omp style is kspace_style pppm/tip4p/omp

write_restart   restart.lmp.${pid}
write_restart   restart.lmp.0
System init for write_restart ...
PPPM initialization ...
  extracting TIP4P info from pair style
  using 12-bit tables for long-range coulomb (../kspace.cpp:340)
  G vector (1/distance) = 0.37177509
  grid = 24 27 25
  stencil order = 5
  estimated absolute RMS force accuracy = 0.0031465561
  estimated relative force accuracy = 9.4757602e-06
  using double precision FFTW3
  3d grid and FFT values/proc = 4410 672
Last active /omp style is kspace_style pppm/tip4p/omp
Total wall time: 0:06:01
