LAMMPS (30 Jul 2021)
  using 1 OpenMP thread(s) per MPI task
package omp 0
using multi-threaded neighbor list subroutines
echo both

include		in.partitions
variable        pid world 0
include		in.temp
variable        temperature equal 235.36
variable	tempDamp equal 100.0
include		in.pressure
variable        pressure equal 125.0
variable        pressureDamp equal 1000.0 # This is 1 ps
include		in.seed
variable        seed world 745823

units		real
atom_style	full

read_restart	restart.lmp.${pid}
read_restart	restart.lmp.0
Reading restart file ...
  restart file = 30 Jul 2021, LAMMPS = 30 Jul 2021
  restoring atom style full from restart
  orthogonal box = (-0.089314664 -0.14750623 -0.18085084) to (20.089316 20.147507 20.880849)
  4 by 4 by 4 MPI processor grid
  restoring pair style lj/cut/tip4p/long/omp from restart
  restoring bond style harmonic/omp from restart
  restoring angle style harmonic/omp from restart
  972 atoms
  648 bonds
  324 angles
Finding 1-2 1-3 1-4 neighbors ...
  special bond factors lj:    0        0        0       
  special bond factors coul:  0        0        0       
     2 = max # of 1-2 neighbors
     1 = max # of 1-3 neighbors
     1 = max # of 1-4 neighbors
     2 = max # of special neighbors
  special bonds CPU = 0.872 seconds
  read_restart CPU = 1.020 seconds
include 	in.setup
variable	out_freq equal 1000
variable	out_freq2 equal 10000
variable	out_freq3 equal 1000

timestep	2.0

neigh_modify    delay 7 every 1

include		in.tip4p
# This is TIP4P/Ice

# create groups ###
group ox type 2
324 atoms in group ox
group hy type 1
648 atoms in group hy

# set charges - beside manually ###
set group ox charge -1.1794
Setting atom values ...
  324 settings made for charge
set group hy charge 0.5897
Setting atom values ...
  648 settings made for charge

# ### TIP3P Potential Parameters ###
pair_style lj/cut/tip4p/long/omp 2 1 1 1 0.1577 8.5
pair_coeff 1 1*2 0.000 0.000
pair_coeff 2 2 0.21084 3.1668
bond_style  harmonic
bond_coeff  1 450 0.9572
angle_style harmonic
angle_coeff 1 55 104.52
kspace_style pppm/tip4p/omp 1.0e-5
pair_modify tail yes

thermo          ${out_freq}
thermo          1000
thermo_style    custom step temp pe etotal epair emol press lx ly lz vol pxx pyy pzz pxy pxz pyz enthalpy

restart 	${out_freq3} restart.lmp.${pid} restart2.lmp.${pid}
restart 	1000 restart.lmp.${pid} restart2.lmp.${pid}
restart 	1000 restart.lmp.0 restart2.lmp.${pid}
restart 	1000 restart.lmp.0 restart2.lmp.0


include         in.dump
dump            myDump all atom ${out_freq2} dump.water.${pid}
dump            myDump all atom 10000 dump.water.${pid}
dump            myDump all atom 10000 dump.water.0
dump            myDump2 all dcd ${out_freq2} dump.dcd
dump            myDump2 all dcd 10000 dump.dcd
dump_modify     myDump append yes
dump_modify     myDump2 append yes


variable natoms 	equal  "count(all)"                        # NUMBER ATOMS
variable H      	equal  "enthalpy/v_natoms"                 # ENTHALPY-per-atom
variable Vol      	equal  "vol/v_natoms"                 # volume-per-atom
fix AVG all 		ave/time ${out_freq} 1 ${out_freq} v_Vol v_H file vol_enthalpy.dat
fix AVG all 		ave/time 1000 1 ${out_freq} v_Vol v_H file vol_enthalpy.dat
fix AVG all 		ave/time 1000 1 1000 v_Vol v_H file vol_enthalpy.dat


timer           timeout 02:55:00 every 1000
New timer settings: style=normal  mode=nosync  timeout=02:55:00

fix 		1 all shake 1e-6 200 0 b 1 a 1
       0 = # of size 2 clusters
       0 = # of size 3 clusters
       0 = # of size 4 clusters
     324 = # of frozen angles
  find clusters CPU = 0.025 seconds
fix             2 all nph aniso ${pressure} ${pressure} ${pressureDamp}
fix             2 all nph aniso 125 ${pressure} ${pressureDamp}
fix             2 all nph aniso 125 125 ${pressureDamp}
fix             2 all nph aniso 125 125 1000
fix             3 all temp/csvr ${temperature} ${temperature} ${tempDamp} ${seed}
fix             3 all temp/csvr 235.36 ${temperature} ${tempDamp} ${seed}
fix             3 all temp/csvr 235.36 235.36 ${tempDamp} ${seed}
fix             3 all temp/csvr 235.36 235.36 100 ${seed}
fix             3 all temp/csvr 235.36 235.36 100 745823


run             250000
PPPM initialization ...
  extracting TIP4P info from pair style
  using 12-bit tables for long-range coulomb (../kspace.cpp:340)
  G vector (1/distance) = 0.371397
  grid = 24 24 25
  stencil order = 5
  estimated absolute RMS force accuracy = 0.0035330566
  estimated relative force accuracy = 1.0639695e-05
  using double precision FFTW3
  3d grid and FFT values/proc = 2366 288
Last active /omp style is kspace_style pppm/tip4p/omp
Neighbor list info ...
  update every 1 steps, delay 7 steps, check yes
  max neighbors/atom: 2000, page size: 100000
  master list distance cutoff = 10.8154
  ghost atom cutoff = 10.8154
  binsize = 5.4077, bins = 4 4 4
  1 neighbor lists, perpetual/occasional/extra = 1 0 0
  (1) pair lj/cut/tip4p/long/omp, perpetual
      attributes: half, newton on, omp
      pair build: half/bin/newton/omp
      stencil: half/bin/3d
      bin: standard
Per MPI rank memory allocation (min/avg/max) = 9.223 | 9.227 | 9.235 Mbytes
Step Temp PotEng TotEng E_pair E_mol Press Lx Ly Lz Volume Pxx Pyy Pzz Pxy Pxz Pyz Enthalpy 
15750000    246.02249   -4729.1156   -4254.6405   -4729.1156            0    1432.1791     20.17863    20.295013      21.0617    8625.3047    343.58279     2141.398    1811.5565   -918.16965    171.37377    1812.5508    -4074.485 
15751000    235.78824   -4760.8878   -4306.1503   -4760.8878            0    266.51118    20.183454    20.234826    21.074969    8607.2006   -133.87571    588.90878    344.50047   -979.18411    267.43829   -1153.0557   -4272.6959 
15752000    236.35593   -4748.6629   -4292.8306   -4748.6629            0   -772.40497    20.234558    20.215138    21.285549    8706.7344    161.55207   -900.11319   -1578.6538   -513.64892   -46.670026    895.31105   -4390.9097 
15753000    232.75776   -4746.5254   -4297.6325   -4746.5254            0   -1736.2069    20.437942    20.023995    21.480641    8790.9366   -1098.8702   -1449.5357   -2660.2147    978.45255    1062.6577    263.47043    -4520.226 
15754000    226.88835   -4766.8338   -4329.2605   -4766.8338            0    1924.5641    20.116338      20.2065    21.083606     8570.081     2511.453    710.55043    2551.6889   -765.06751    879.92887    422.45432   -4088.7173 
15755000     236.0343   -4743.2422   -4288.0302   -4743.2422            0    396.65521    20.264955    20.376418    20.969517    8658.8839    1422.8659    244.07403   -476.97433   -331.87285    2090.6131   -388.68945   -4237.9402 
15756000    242.95299   -4742.2218   -4273.6666   -4742.2218            0    -1507.775    20.274377     20.29783     21.28646    8759.9287   -2126.4453   -974.40669    -1422.473    149.23228    1229.3098    22.072635   -4466.2917 
15757000    235.22483   -4737.6235   -4283.9726   -4737.6235            0   -203.55061    20.276542    20.132984     21.28163    8687.7425    1137.8625   -1494.4285   -254.08584   -236.19263    -648.9595     174.6822   -4309.7628 
15758000    231.15968     -4737.61   -4291.7991     -4737.61            0   -1067.6459    20.396605    20.187072    21.120166    8696.1804   -2387.9261    641.89815   -1456.9096   -30.161488    259.40976   -649.64257   -4427.2032 
15759000    242.61106   -4729.5927   -4261.6969   -4729.5927            0    1839.8455    20.128189     20.23006     21.08892    8587.2912     2708.598    1619.8058    1191.1326   -139.81402    902.97267    115.97969   -4031.2804 
15760000    239.29041   -4735.3068   -4273.8151   -4735.3068            0    1007.5356    20.497365    20.097575    21.045682    8669.7129    203.81483    1095.8762    1722.9159   -182.43061   -738.73483   -815.03527   -4146.4234 
15761000    234.28887   -4751.6728    -4299.827   -4751.6728            0    602.14871    20.193482    20.346435    20.928299    8598.7129    823.47131    813.51254    169.46228    326.18579    326.39738      1376.15   -4224.3155 
15762000    243.57607   -4713.4686   -4243.7117   -4713.4686            0    833.34164    20.263313    20.227367    21.158331     8672.238    1375.3373    1512.8226   -388.13493    37.427155    205.62143   -109.38769   -4138.3142 
15763000    243.06151   -4720.1904   -4251.4258   -4720.1904            0    668.99691    20.347114    20.078683    21.263127    8686.9069    389.44279    1733.5943   -116.04634    211.02802   -400.42373    1138.3937   -4166.6709 
15764000     237.3457   -4759.4463   -4301.7052   -4759.4463            0   -829.54993    20.131366    20.293694    21.227217    8672.1627   -1228.7242   -97.145825   -1162.7797    78.769669    814.57928   -1324.6822   -4406.6222 
15765000    236.29827   -4753.1329   -4297.4118   -4753.1329            0   -963.52485    20.375264    20.089397    21.136201    8651.6128   -1314.8892   -671.07138   -904.61393   -124.22921    747.30187     54.45245   -4418.9844 
15766000    229.45174   -4732.8368   -4290.3198   -4732.8368            0   -506.08685    20.493161    20.186578    20.886224    8640.3551   -2330.4587    374.34959    437.84856   -80.234521    702.96315    429.40906   -4354.0922 
15767000    235.47138   -4754.8656   -4300.7392   -4754.8656            0   -163.88818    20.130227    20.404436    21.055435    8648.4342    1303.7888   -1590.8701   -204.58319    352.22484    229.38571   -1479.4721   -4321.4102 
15768000    224.63536   -4749.7122    -4316.484   -4749.7122            0    638.80737    20.313428    20.127048    21.050177    8606.3509    2340.5738   -489.06943    64.917769    108.73744    779.86442   -367.93708   -4236.3042 
15769000    231.31586   -4740.6039   -4294.4918   -4740.6039            0    841.13648    19.926519    20.282318    21.241938    8585.0565    2447.0378    395.01906    -318.6474    212.79128    841.98318   -1183.5853   -4189.1779 
15770000    234.45765   -4751.3527   -4299.1814   -4751.3527            0    536.37706    20.158209    20.290081    20.986115    8583.5662   -1682.1686    1663.2424    1628.0574   -485.29525    919.68765   -556.49764   -4232.0364 
15771000    234.56651   -4768.7403   -4316.3591   -4768.7403            0    215.19213    20.429886    20.115431    20.966626    8616.3602   -1080.8404    334.01695    1392.3998   -249.11333    127.62192   -589.06275   -4289.3179 
15772000    228.49833   -4738.4076   -4297.7294   -4738.4076            0    353.05423    20.232043    20.231266    21.136614    8651.6352    678.22872    166.35836     214.5756    453.57464    467.97077   -705.59321   -4253.1827 
15773000     228.7569   -4758.2883   -4317.1114   -4758.2883            0   -276.06002     20.07587    20.042066    21.477285    8641.6417    207.61958    569.03412   -1604.8338    308.91336    -700.4165   -491.88272   -4351.9031 
15774000    251.60204   -4735.4692   -4250.2335   -4735.4692            0   -1039.7487    20.311145    20.262662    21.215593    8731.4443   -684.96399   -1795.6008   -638.68112   -988.78235   -761.50267   -118.09721   -4382.6342 
15775000    248.26078   -4741.7396   -4262.9478   -4741.7396            0    916.10259    20.133255    20.308243    20.845693    8523.1998    1022.3504    503.39896    1222.5584    -726.8929    505.04587   -1813.0448   -4149.0743 
15776000    241.89832   -4734.1331   -4267.6118   -4734.1331            0    963.64256    20.301662    20.202993    21.127312    8665.4586    2497.0455    232.16534    161.71688    -473.8521    486.11447    341.08913   -4145.8297 
15777000    257.75653   -4756.6569   -4259.5518   -4756.6569            0   -523.75598    20.090227    20.092645    21.468629    8666.1512   -928.73612   -301.51862   -341.01318   -158.21468   -955.74867   -67.014296   -4325.7477 
15778000    238.67172   -4764.5761   -4304.2776   -4764.5761            0    -179.0665    20.103069    20.178319      21.2181    8607.0405    1951.5808    -1570.754   -918.02629   -62.250103   -1423.2274   -1617.8356   -4326.7549 
15779000    236.11503   -4740.1452   -4284.7775   -4740.1452            0   -382.01163    20.443494    20.232727    21.095908    8725.8501   -986.01759    690.36541   -850.38271    475.47134    1111.4521   -135.19577   -4333.3914 
15780000    241.66623   -4741.8997    -4275.826   -4741.8997            0   -915.60857    20.323167    20.179896     21.16457    8680.0006     -882.448   -182.51862   -1681.8591   -21.801368    94.662942    56.652055   -4391.7319 
15781000    233.14297   -4715.2176   -4265.5818   -4715.2176            0   -73.738265    20.097943    20.383358    21.088459    8639.1735    1140.1861   -1882.9399    521.53903    -576.9673    124.80199    1071.5821   -4274.8723 
15782000    239.54673   -4741.8783   -4279.8923   -4741.8783            0   -724.83427    20.451825    20.260764    20.845958     8637.931    -1900.283   -747.35558    473.13578    421.59029   -325.01715   -613.67811   -4371.2036 
15783000     230.2617   -4726.5036   -4282.4245   -4726.5036            0    54.623976    20.356164    20.008388    21.108535      8597.38     -1610.44    1867.3909   -93.078972   -193.58748   -11.954996    636.88072   -4275.5756 
15784000    219.61716   -4734.8409   -4311.2908   -4734.8409            0   -379.22862    20.196891    20.132853    21.252696     8641.793   -415.64355    -655.3748   -66.667495     293.8818   -292.56728     1349.461   -4359.0856 
15785000    223.01201    -4756.778   -4326.6806    -4756.778            0   -1.7958295     20.16302    20.337934    21.122809    8661.9183    565.82705   -1244.4801    673.26552    -259.0347    264.02518    709.88071   -4326.9074 
15786000    222.97965   -4756.1872   -4326.1522   -4756.1872            0    1147.0384    20.255391    20.197737    20.994671     8589.194    1278.4285    68.242818    2094.4437   -424.68404    656.68196    596.83178   -4182.4689 
15787000    229.50203    -4739.378   -4296.7641    -4739.378            0    398.14705    20.052513    20.297892     21.22818    8640.3737    885.09723    689.59385   -380.24993     -278.492    403.05718   -556.00655   -4246.5932 
15788000    240.27579   -4739.4223   -4276.0302   -4739.4223            0    319.08929    20.148369    20.183638    21.462078    8727.9271    1156.5366   -131.90209    -67.36666    -481.7171    392.10072   -669.40144    -4235.414 
15789000    232.48394   -4764.8987   -4316.5339   -4764.8987            0    686.14029     20.37168    20.055505    21.186521     8656.057   -486.44885    1734.4296    810.44014   -658.37118   -358.94671    277.29181   -4229.9157 
15790000    225.25563   -4731.4562   -4297.0318   -4731.4562            0    811.48914    20.224494    20.215064     21.11201    8631.4225    752.10375   -5.6120664    1687.9757    355.36724   -486.39483    852.15178   -4194.8812 
15791000    236.52158   -4742.0527   -4285.9009   -4742.0527            0   -522.50116    20.248758    20.273924    21.085199    8655.9334   -842.86612   -742.32994    17.692573   -108.31262    238.27825   -359.28415   -4351.8604 
15792000    228.03325   -4742.0297   -4302.2484   -4742.0297            0    589.59271    20.471984    20.196047    20.941212    8658.2099   -404.92273   -760.25349    2933.9543    451.19691   -931.35094   -292.62421   -4227.7999 
15793000    232.16398   -4717.5422   -4269.7945   -4717.5422            0    176.23292    20.195803    20.093818    21.286876     8638.444   -812.15606    1524.0719   -183.21706   -744.63876    -1140.134    1198.6707   -4247.5921 
15794000    243.30004    -4792.918   -4323.6934    -4792.918            0    279.07712    20.024987    20.194148    21.418409    8661.3375   -697.11046    53.527947    1480.8139    204.03714   -1268.0318   -804.78793   -4288.4413 
15795000    223.05621   -4754.4412   -4324.2585   -4754.4412            0   -88.855637    20.331541    20.135116    21.135635    8652.4626   -996.30778    750.86239   -21.121518    188.43773    -264.6145    130.76846    -4335.471 
15796000    234.79173   -4763.6945   -4310.8789   -4763.6945            0    303.98182    20.206737    20.313154    20.921936    8587.6712    4.5119413    94.983558    812.44995   -400.22998   -249.54644      573.614   -4272.8075 
15797000    236.48141   -4753.0039   -4296.9296   -4753.0039            0    200.69337    20.231336    20.234957    21.105042    8639.9868    1508.5026   -1502.2298    595.80727    116.28187   -296.36544   -195.96763   -4271.6412 
15798000    231.02366   -4767.0941   -4321.5456   -4767.0941            0    646.89377    20.243988    20.032709    21.191833    8594.1764    511.88249    1287.8808    140.91799    512.56409   -850.49004    -162.5238   -4240.4657 
15799000    230.65372   -4728.5276   -4283.6925   -4728.5276            0    183.22604    20.148984    20.349468    21.299651    8733.3061    1089.3093   -348.64561   -190.98559   -69.900564    42.454443    471.54477   -4260.3557 
15800000    231.44196   -4761.7908   -4315.4355   -4761.7908            0    1634.7536    20.323867    20.016774    21.003656    8544.6707    1190.3155    1790.5304     1923.415    284.96925   -556.64917   -449.35185   -4111.7202 
15801000    246.86254   -4708.7565   -4232.6613   -4708.7565            0    787.14834    20.261524    20.255394    21.080775     8651.659     1614.492   -17.700019    764.65299   -241.27642    -300.7585   -738.61088   -4133.3425 
15802000    230.69004    -4760.799   -4315.8939    -4760.799            0    1369.8663     20.05345    20.140137    21.281168    8595.0218     4173.031   -504.85115    441.41907    231.82292   -509.59247    335.27473   -4144.1817 
15803000    222.83547   -4754.9923   -4325.2353   -4754.9923            0   -927.44585    20.252304    20.077712    21.291514    8657.5539   -448.01507   -203.80726   -2130.5152    274.46227    303.04457    644.13915   -4442.3361 
15804000    239.21761   -4731.4946   -4270.1434   -4731.4946            0    293.93017    20.461502    20.112651    20.906622    8603.8076   -1781.3045    1005.1525    1657.9425    925.77609   -695.68736    102.17773   -4233.2617 
15805000    236.35625   -4750.4222   -4294.5893   -4750.4222            0    666.02167    20.275986    20.146847    21.032553    8591.7386   -728.41719    1994.5542    731.92799   -324.89404    159.57938    78.258686   -4211.1356 
15806000    234.36167   -4702.7341   -4250.7479   -4702.7341            0    260.29875    20.205147    20.287948    21.269328    8718.7439    1121.6853    106.19609   -446.98512   -5.3537655   -1246.5795    681.93462   -4217.6499 
15807000    235.43967   -4782.8536   -4328.7884   -4782.8536            0    41.643044    19.987804    20.264183    21.233272    8600.2504    287.17737   -192.90753    30.659286   -544.98411    118.60428   -1319.8225   -4323.5653 
15808000    233.52797   -4742.1086   -4291.7303   -4742.1086            0    482.90631    20.184344    20.286479    21.185259    8674.7128    615.38194    974.19878    -140.8618    4.8100993   -67.286467    279.76887    -4230.637 
15809000    238.97579    -4759.199   -4298.3141    -4759.199            0    671.64287    20.400735    20.099854    20.898706    8569.5516    933.99845   -541.46424    1622.3944   -375.03676   -76.140388    265.77002   -4214.3734 
15810000    238.91529   -4757.7007   -4296.9325   -4757.7007            0    150.70401     20.12555    20.179752    21.318477    8658.0435    666.72506   -410.84495    196.23193   -679.46624    922.98623      171.251   -4277.9033 
15811000    237.34503   -4737.6593   -4279.9195   -4737.6593            0   -476.23449    20.267247    20.134726    21.359486    8716.2824    808.43612   -1080.1435   -1156.9961   -434.29587   -412.62625   -152.43229   -4340.4575 
15812000    247.46887   -4728.5569   -4251.2924   -4728.5569            0    1907.2653    20.274031    20.091209    21.066751    8581.1154    1689.9948    2470.8108    1560.9904    919.11426    742.09178    154.69709   -4012.6043 
15813000    235.59377    -4724.406   -4270.0436    -4724.406            0   -185.43201    20.253598    20.296519    21.227066      8725.97    458.98944   -893.42293   -121.86254   -87.793422   -1097.7953   -1233.1395   -4293.6415 
15814000    232.24622   -4739.3923   -4291.4859   -4739.3923            0    1464.5038    20.149555    20.151707    21.148735    8587.3997    915.88416    1780.1656    1697.4616   -281.75016    204.95557    677.98884   -4108.0738 
15815000    225.77118   -4741.6817    -4306.263   -4741.6817            0      1076.53    20.287908    20.179811    21.081848    8631.0383    317.52619    1223.5063    1688.5577   -188.08822      1315.69   -954.96366    -4170.755 
15816000    240.31598   -4712.8264   -4249.3568   -4712.8264            0   -98.568536     20.32307      20.4115    20.894012    8667.3447   -60.377913   -1168.4875    933.15984    444.71131    389.30472    -178.7945   -4261.8163 
15817000    233.93415   -4767.9473   -4316.7856   -4767.9473            0    354.30545    20.239381    20.098067    21.192149    8620.3821   -576.93201    1124.0079     515.8404   -799.64981    1079.3526    -342.8548   -4272.2425 
15818000     240.2984   -4755.4197    -4291.984   -4755.4197            0   -235.17473    20.229494    20.260055    21.259634     8713.275   -479.86385    283.30297   -508.96331   -227.43406   -624.22136    852.92752   -4321.8686 
15819000    233.79436   -4784.4982   -4333.6062   -4784.4982            0    1341.6057    20.052014    20.329052    20.960075    8544.1321    1517.9538     1611.196    895.66729    238.61711   -1056.2777    421.88574   -4166.4322 
15820000    231.09811   -4727.9681    -4282.276   -4727.9681            0   -18.731726    20.325806    20.226561    21.066968    8661.0763   -273.48077   -522.48674    739.77234    1010.6691    359.94392   -900.84828    -4284.642 
15821000    240.94154   -4749.7778   -4285.1017   -4749.7778            0    37.264944    20.159516     20.00335    21.525807    8680.4511    308.05712    881.84522   -1078.1075    121.06315   -654.73242   -360.56003   -4280.3842 
15822000    251.08783   -4721.0893   -4236.8453   -4721.0893            0   -129.54361    20.328092    20.239853    21.258107    8746.3843   -1515.4316    456.70994    670.09079     -228.079    891.14943    347.58629   -4253.3695 
15823000    244.21456   -4796.1351   -4325.1468   -4796.1351            0   -384.13478    20.344075    20.236261    20.895838     8602.566   -967.43029   -1071.0592    886.08516    312.94658   -710.86971    52.982459   -4373.3402 
15824000    226.47467   -4754.8138   -4318.0383   -4754.8138            0    266.63197    20.102899    20.212394    21.153794    8595.3726    1458.4719   -1280.1296    621.55359    -89.71355   -434.15151   -180.04917   -4284.6148 
15825000    239.61954   -4763.8731   -4301.7466   -4763.8731            0    -1210.331    20.106078    20.218871    21.444531    8717.6778   -1136.0631   -662.67221   -1832.2576    488.24861    793.22204   -455.52535   -4455.6262 
15826000    242.56524    -4769.457   -4301.6495    -4769.457            0   -80.688554     20.22443    20.189478    21.174488    8645.9811    122.09293   -60.422094    -303.7365    159.97765    1057.9221    19.039668   -4311.8237 
15827000    224.30223   -4773.6023   -4341.0166   -4773.6023            0   -450.73847    20.357183    20.403704    20.802892    8640.7296   -1078.8971   -1993.4039    1720.0856    474.93994   -732.49584   -581.75873    -4397.817 
15828000    241.17432    -4721.601    -4256.476    -4721.601            0    -353.3038    20.172104    20.249575     21.09887    8618.3933    406.53466   -1064.7206   -401.72542   -87.061924    337.14463    -1604.819   -4300.8829 
15829000    225.17688   -4747.9238   -4313.6513   -4747.9238            0     723.2238    20.415585    19.996401    21.115058    8619.9737    50.049932    1786.5282    333.09328     566.8401   -51.179391    699.21236   -4222.7323 
15830000    239.76818   -4732.0744   -4269.6613   -4732.0744            0    470.40573    20.285733    20.226958    21.009611    8620.6355    1508.3822    809.01212   -906.17717     65.65134   -914.42186   -1749.8828   -4210.5204 
15831000    238.83792   -4743.2673   -4282.6483   -4743.2673            0    -88.03623    20.337373    20.149016    21.031537    8618.2624   -780.67367    -285.1579    801.72287   -525.13079    942.37533    79.491801   -4293.7134 
15832000    226.60597   -4749.8607    -4312.832   -4749.8607            0    858.01011    20.177975     20.40354    21.004093    8647.4297    1173.2818    655.95672    744.79179    17.565995    -1037.357    383.41619   -4204.6251 
15833000    239.88751   -4746.0561   -4283.4129   -4746.0561            0   -1339.3128    20.279393    20.198972    21.162959    8668.8324   -333.41558   -2477.3279   -1207.1949   -1194.8434   -353.18049    155.34711   -4452.7369 
15834000     232.3678   -4704.6561   -4256.5153   -4704.6561            0   -199.57943    20.255829    20.041225    21.197711    8605.2452    426.64744   -188.55748   -836.82825    -44.20642    1062.3219    279.25595   -4281.5623 
15835000    237.70991   -4769.3702   -4310.9266   -4769.3702            0   -832.07682    20.187686    20.266928    21.330024    8727.0169   -320.93037    -1119.248    -1056.052    289.02133    1946.8651    1129.5789   -4416.8288 
15836000    239.37627   -4766.9756   -4305.3183   -4766.9756            0    629.39485    20.230934    20.177522    21.141732    8630.2687    2231.6032   -726.66873    383.25006   -356.82896     280.8558   -39.167939   -4226.1004 
15837000    229.54373   -4747.0179   -4304.3235   -4747.0179            0   -800.89029    20.335555    20.230485    21.099345    8680.2312   -1767.2771   -115.79363   -519.60019   -425.41496     492.8469    701.15035   -4405.7101 
15838000    237.61087   -4751.2055   -4292.9529   -4751.2055            0   -415.38678    20.094061    20.289654    21.281946    8676.6822   -1310.8989    987.20658   -922.46797   -465.87911    -72.38224    869.73232   -4345.5162 
15839000    223.53515   -4772.2941   -4341.1878   -4772.2941            0   -1575.0999    20.223222    20.115869    21.463895    8731.6775    790.79485   -2280.5081   -3235.5865   -223.65091   -614.56613   -49.240479    -4541.765 
15840000    238.67609   -4764.2455   -4303.9386   -4764.2455            0    1021.0053    20.486611     19.86416    21.161874      8611.81   -201.86746    3304.4033   -39.519974   -61.838233    708.12776   -1210.7003   -4175.7061 
15841000    235.50354   -4757.1174    -4302.929   -4757.1174            0   -657.70678    20.348509    20.215876    21.132177    8692.9944   -2283.7502    905.14274   -594.51284    180.88207   -170.77328     772.4923    -4386.312 
15842000     232.2267   -4742.3638   -4294.4951   -4742.3638            0    1698.6617    20.089031    20.310189    21.104621    8610.9391    2283.7099    1230.9371     1581.338   -128.48611   -298.88665   -656.43108   -4081.1742 
15843000    246.61002   -4754.1492   -4278.5411   -4754.1492            0    1191.0298    19.937795    20.428997    21.187617    8629.9103    3326.8211   -357.43288    603.70118    -209.5432    476.92211   -117.94996     -4128.64 
15844000    228.81554   -4738.8824   -4297.5924   -4738.8824            0    807.35161     20.27589    19.968674    21.241433    8600.2877    2785.0683    613.68754   -976.70101   -602.41988   -154.87636    443.23831   -4196.3292 
15845000    221.07291   -4761.4333   -4335.0756   -4761.4333            0    151.05549     20.18154    20.171937    21.070722    8577.9066   -675.62953    273.60855    855.18745   -564.89923    406.32386   -770.08874   -4316.1785 
15846000    239.33233   -4740.5174   -4278.9449   -4740.5174            0   -889.88709    20.272462    20.384454    21.179326    8752.2095    42.180418   -2268.1799   -443.66183   -117.61755   -482.94346   -563.73969   -4392.5319 
15847000    250.53222   -4776.5487   -4293.3763   -4776.5487            0    991.67559    20.186799    20.088041     21.12554    8566.6866    915.31758    1188.4428    871.26634   -177.85118   -145.88793   -590.73933     -4169.48 
15848000    234.51447   -4742.9355   -4290.6546   -4742.9355            0    413.08426    20.148819    20.383966    21.105937    8668.4791    996.01333   -826.02161    1069.2611    172.69393   -823.10485   -1375.4135   -4238.4322 
15849000    239.30027   -4761.1574   -4299.6467   -4761.1574            0     650.3281    20.317836     20.03758    21.030475    8561.9323   -668.60222    1932.7654    686.82115   -185.80918   -246.31016    1500.5792   -4218.4421 
15850000    232.60303   -4743.3387   -4294.7442   -4743.3387            0    843.59811    20.280745    20.195665    21.146786    8661.3669    1672.5094    13.322772    844.96219   -547.77819    479.01877   -278.68506   -4188.1833 
15851000    237.14186   -4789.8671   -4332.5191   -4789.8671            0    185.98304    20.219142    20.294147    21.101061    8658.4031   -911.77343    761.47511    708.24744    -166.8046    740.67392   -1764.9744   -4309.0343 
15852000    234.25649   -4741.8052   -4290.0218   -4741.8052            0    735.94716    20.265967    20.105733    21.085797     8591.664    1330.9516    1004.0032   -127.11331   -419.92045   -297.86276   -710.77822   -4197.8072 
15853000    236.12714   -4730.8377   -4275.4466   -4730.8377            0   -1210.9603    20.181445    20.389756     21.09103    8678.8483    20.805906   -3258.8121   -394.87459    560.69898   -681.34197   -37.902425   -4428.7204 
15854000    237.86934   -4746.8376   -4288.0866   -4746.8376            0     818.2402     20.02723    20.305453    21.253046    8642.8056    2383.5966   -387.93409    459.05814    328.91983    378.43387   -362.48561   -4184.9503 
15855000     237.6369   -4706.3146   -4248.0118   -4706.3146            0    942.37919    20.132217     20.29111    21.301271    8701.6767    3244.1794   0.20321181   -417.24506   -354.83219    42.161978   -174.15125   -4128.4192 
15856000     229.0911   -4763.8789   -4322.0575   -4763.8789            0   -642.73884    20.432001    20.162213    20.907629    8612.9889   -254.79627   -1791.6858    118.26552   -182.01097    703.17969    669.14131   -4402.7929 
15857000    243.14946   -4763.6467   -4294.7125   -4763.6467            0    598.71741    20.321021    20.169904    21.060451    8632.1112    73.397562    213.03717    1509.7175   -341.18297   -1242.6232   -768.80502   -4219.3397 
15858000    237.72499   -4733.8445   -4275.3719   -4733.8445            0    329.24468    20.113015    20.321441    21.195161    8663.0019    577.29057    386.40497    24.038512    5.2379285    922.82084   -12.326146   -4233.7748 
15859000    244.41235   -4760.5863   -4289.2165   -4760.5863            0    22.400303    20.159896    20.075148    21.559586    8725.4427    956.75682   -213.58879   -675.96712    437.33433    1152.6322   -1001.0523    -4286.366 
15860000    246.25013   -4746.8767   -4271.9626   -4746.8767            0    985.07902    20.139764    20.131828     21.21635    8602.1747    986.05652    1067.0067    902.17388    72.179516    186.07996   -426.89711   -4148.3806 
15861000    251.08796   -4750.3616   -4266.1174   -4750.3616            0    80.164548    20.405787    20.196195     20.97986    8646.2043   -1169.9458   -453.92635    1864.3658    -38.00715    558.23117   -596.01283   -4256.0089 
15862000    236.06552   -4739.8784   -4284.6062   -4739.8784            0   -478.25594    20.122397    20.301525    21.238134    8676.1035   -382.64192   -761.39563   -290.73027   -532.37702   -475.53621    238.01309   -4345.1209 
15863000    230.10108   -4768.3609   -4324.5916   -4768.3609            0    823.07652    20.254978    20.120703    21.146666    8618.2055    717.35294    1764.1407   -12.264123   -487.91916   -582.51502   -707.02473    -4221.141 
15864000    224.66812   -4718.7194   -4285.4281   -4718.7194            0    1661.7985     20.05656    20.259688    21.244437    8632.4572    3208.9452    781.68835    994.76191    155.09346     529.3838     1041.459   -4076.2151 
15865000    241.75223   -4755.7915   -4289.5519   -4755.7915            0    81.723799    20.405227    20.138189    21.057009     8652.837   -846.12815    440.19572    651.10383   -103.03929   -1208.8954   -603.97335    -4279.239 
15866000    230.87901   -4763.0456    -4317.776   -4763.0456            0    214.80517    20.309403    20.222101    20.821144     8551.219    796.99279   -857.95878    705.38152   -526.66554     226.6319    667.78582   -4290.9875 
15867000    228.87371   -4761.9427   -4320.5405   -4761.9427            0   -1175.5354    20.200903    20.283862    21.054589    8627.1668   -43.986072   -2576.6683   -905.95186   -121.08166   -1497.3317    -1112.364   -4468.4444 
15868000     229.3118   -4750.0328   -4307.7857   -4750.0328            0    -564.7739     20.36756    20.008177    21.295158    8678.1548   -816.47988   -1184.6751    306.83327    117.86003    424.88061    3.4921711   -4379.2647 
15869000    233.71186   -4772.0502   -4321.3172   -4772.0502            0     474.6029    20.118581    20.273269     21.17562    8636.8873     1389.342   -24.315615    58.782287   -315.34461    1128.2562   -1198.0336   -4261.5361 
15870000    233.73705   -4742.3545    -4291.573   -4742.3545            0    1295.2784    20.149981    20.345397    20.836926    8542.2929    1436.1126    1077.8516     1371.871    28.100316    1013.1053   -507.39725   -4130.2064 
15871000    222.44568   -4751.3144   -4322.3092   -4751.3144            0   -952.14437    20.226158    20.219924    21.165944     8656.265   -111.65594   -988.31114    -1756.466   -639.60059   -75.440601    863.16953   -4442.5105 
15872000    240.51036   -4734.0601   -4270.2156   -4734.0601            0    3.2959829    20.090611    20.102539     21.41523    8649.0177    654.18395   -21.405169   -622.89083   -477.24534     396.6323    536.87746   -4269.7998 
15873000    231.80069   -4736.9169   -4289.8698   -4736.9169            0   -1279.7599    20.474015    20.058579    21.164874    8691.9828   -2801.2391    956.27097   -1994.3116    70.961148    -115.6824    71.519382   -4452.0969 
15874000    235.68394   -4745.0169   -4290.4806   -4745.0169            0    770.50655    20.270544    20.252413    20.889126     8575.559   -834.50806    2172.4889    973.53881   -985.62734   -1516.2233    995.96044   -4194.1167 
15875000    236.76463   -4718.6984    -4262.078   -4718.6984            0   -749.17097    20.350129    20.360136    21.189232    8779.3637   -2533.5974    855.81475    -569.7302   -686.19233    454.76344    -440.4558   -4358.0003 
15876000    220.27246   -4748.7259    -4323.912   -4748.7259            0    252.52914    20.325209    20.073833    21.177225    8640.4107   -522.07631    225.49281    1054.1709   -946.49773    481.70605   -236.03569   -4292.0904 
15877000    230.09153   -4745.6548    -4301.904   -4745.6548            0   -597.98712    20.134989    20.388006    21.383415    8778.1544     1064.305   -1767.9152   -1090.3511   -489.92188    19.568562   -125.30292   -4378.4585 
15878000    229.66939   -4753.6367      -4310.7   -4753.6367            0    848.17444    20.180541    20.159346    20.988958    8538.8642    936.66777    1142.2977    465.55784   -399.05049   -333.72447   -615.03419   -4205.0763 
15879000    238.83568   -4710.2712   -4249.6565   -4710.2712            0    203.99552    20.383891    20.280372    20.929214    8651.9879    832.03254   -38.629243   -181.41674   -1188.7095    -563.3551    1885.4516   -4223.9163 
15880000    231.94579   -4776.6123   -4329.2853   -4776.6123            0    718.97044    20.137745    20.118131    21.150639    8568.8386   -748.55177    1413.7066    1491.7565    18.557911    -986.8649    590.27674   -4239.4372 
15881000    227.09692   -4770.1038   -4332.1283   -4770.1038            0   -841.11126    20.108399    20.374441    21.215833    8692.0715    2161.4279   -3843.4436   -841.31806   -284.81603   -1018.2578    253.38778   -4438.7518 
15882000     250.8997   -4748.2624   -4264.3812   -4748.2624            0    509.85044    20.126797    20.216649    21.208033    8629.4721    2170.1249   -621.87914   -18.694471    382.77741    1194.5725   -525.41442   -4200.2155 
15883000    242.71479   -4733.7276   -4265.6317   -4733.7276            0   -1022.9989     20.25813    20.208241    21.338458    8735.5632   -1349.5898   -930.57686   -788.82995   -169.33564   -545.00808    325.27918    -4395.961 
15884000    230.38919   -4753.5496   -4309.2247   -4753.5496            0   -511.01499    20.108936    20.197735    21.264206    8636.5628   -220.66541   -1040.3281   -272.05149    149.69574    579.25631   -297.30758   -4373.5898 
15885000    242.61473   -4768.3206   -4300.4177   -4768.3206            0    1277.1034    20.275693    20.290712    20.747005    8535.4889    617.33535    382.14658    2831.8284   -984.58925    203.11158    1109.7401   -4141.4422 
15886000    240.67415    -4753.213   -4289.0526    -4753.213            0    472.97664    20.140193    20.291503    21.051552    8603.2382    1085.9471   -475.57276    808.55562   -121.28684    551.79435   -523.24891   -4229.7085 
15887000    221.47246   -4737.0871   -4309.9588   -4737.0871            0   -82.774834    19.958615    20.419229    21.090514    8595.2182    847.32855   -1437.4423    341.78928    -254.5542    -795.8748     851.8594   -4320.3348 
15888000    245.02787   -4785.1904   -4312.6336   -4785.1904            0    1575.6425      20.0985    20.070438    21.203588    8553.2241    3568.5772    444.76471    713.58565   -426.66671    1106.0894    -553.9479   -4116.0879 
15889000    221.69609   -4766.5357   -4338.9762   -4766.5357            0    -439.8926    20.271483     20.07672    21.250917    8648.8018     197.2605   -682.80371    -834.1346   -289.48876   -447.55952    167.42683   -4394.4615 
15890000    230.43043   -4725.7481   -4281.3437   -4725.7481            0    894.63167    20.091439    20.179905    21.141844    8571.8194    1293.1633     629.1712    761.56054    297.29626    368.67407    493.79611   -4169.5047 
15891000    229.48295   -4750.8306   -4308.2534   -4750.8306            0    992.17277    20.154221    20.384499    21.156682     8691.878    1287.3861   -3.8032374    1692.9354    -276.2344     146.8529   -1868.6949   -4182.4835 
15892000    232.72269   -4741.1658   -4292.3406   -4741.1658            0   -960.26084    20.313004    20.175234    21.050356    8626.8489   -1589.0901   -648.43218   -643.26027    -646.4234   -425.25558   -331.22941   -4413.1546 
15893000    232.06762   -4757.0463   -4309.4843   -4757.0463            0   -364.24042    20.213204    20.089719    21.185685    8603.0315     740.0583   -1134.0728   -698.70677   -236.78255   -94.879614   -128.17405   -4355.1843 
15894000    230.63143   -4740.2208   -4295.4287   -4740.2208            0   -601.04542     20.12851    20.103293      21.5277    8711.1692   -1132.7251    38.032088   -708.44322     611.1128   -154.91818    606.94216   -4371.7876 
15895000    225.30538   -4727.4867   -4292.9664   -4727.4867            0     257.5317    20.152533    20.260513    21.081549    8607.6102   -476.56273    913.74378    335.41407   -842.83939   -1642.5935      1120.94   -4260.6376 
15896000    214.01488   -4734.8783   -4322.1326   -4734.8783            0    638.73098    20.214004     20.23245    20.980101    8580.4174   -85.182646    1449.6741    551.70151   -494.62875   -29.763864   -625.18583    -4242.204 
15897000    229.84706   -4769.3023   -4326.0229   -4769.3023            0   -32.400182    20.404728    19.991904    21.180551    8640.1684   -1386.1334    1435.5836   -146.65077   -260.02126   -55.096554   -21.908959   -4330.1056 
15898000    226.72424   -4742.9343   -4305.6776   -4742.9343            0   -192.72862    20.197547    20.172737    21.355971    8701.2727   -1116.2801    1226.9127   -688.81845   -517.42665    324.51475    498.46291   -4330.1347 
15899000    246.97642   -4744.0215   -4267.7067   -4744.0215            0   -805.79815    20.177882     20.31842    21.418918    8781.3856   -1361.5053    136.30942   -1192.1985    163.76774   -1057.0308     505.1802   -4370.9032 
15900000    238.06424   -4763.7185   -4304.5916   -4763.7185            0    35.323579      20.2392    20.208161    21.014621    8594.9174   -338.39982    399.38853     44.98203    306.23181   -318.41016   -1362.3318   -4300.1638 
15901000    240.48893   -4730.0184   -4266.2153   -4730.0184            0    450.98114    20.238386    20.205003    21.205201    8671.1598     200.5318    949.60291    202.80871    301.37423    395.25723      642.088   -4209.1842 
15902000    240.79258   -4741.5211   -4277.1324   -4741.5211            0    114.36257    20.116525    20.149122    21.472871    8703.6054    1690.7683    503.21575   -1850.8963    33.988647     551.9443    285.32556    -4262.616 
15903000    229.77173   -4745.3859   -4302.2518   -4745.3859            0    273.96355     20.18308    20.083499    21.258658    8617.1303   -803.31272    1598.4086    26.794798    76.893415    391.74124    -733.5412   -4267.8222 
15904000    232.05075   -4739.0333   -4291.5039   -4739.0333            0   -1320.0407    20.266034    20.330172    21.063644    8678.4731   -2144.0209   -1023.3179   -792.78316   -151.03623    712.50486    1166.2102    -4458.577 
15905000    237.68436   -4760.6105   -4302.2162   -4760.6105            0    285.58444    20.219759    20.235809    21.010624    8596.7735   -178.37565    804.29663    230.83234     175.1985    1206.8357    110.22055    -4266.411 
15906000    228.98457   -4752.0132   -4310.3972   -4752.0132            0   -1920.6781    20.374284    20.268132    21.318573    8803.4767   -1373.4981   -2582.2775   -1806.2587   -289.42731   -546.68076   -256.41815   -4556.9925 
15907000    236.48256   -4740.4154   -4284.3389   -4740.4154            0   -262.83667    20.193157    20.168994    21.285438     8669.041   -1545.7707    1264.8126   -507.55192   -698.58223   -499.64976    371.14635   -4317.5691 
15908000    237.14504   -4779.9621    -4322.608   -4779.9621            0    1670.1969    20.282438    20.225227    20.722927     8500.895    346.40363     2144.701    2519.4862   -190.26968    1248.0691   -22.135934   -4115.5423 
15909000    227.18627    -4756.752   -4318.6042    -4756.752            0     666.8617    20.250923    20.109174    21.185831    8627.4916    107.70897    1736.9991    155.87707   -585.31096   -274.04232    333.66416   -4234.6976 
15910000     229.8684   -4736.0005   -4292.6799   -4736.0005            0    1399.9144    20.096822    20.304866     21.24323    8668.5822     1712.509    719.61382    1767.6203   -670.57609   -260.49514   -1252.6678   -4115.6994 
15911000     235.0135   -4765.7074   -4312.4641   -4765.7074            0    737.83734    20.075174    20.150881     21.36952    8644.6641   -790.81127    3150.2342   -145.91091    -113.0752   -161.26967    332.93423   -4219.4423 
15912000    230.04164   -4734.4178   -4290.7632   -4734.4178            0    -312.8335     20.44946    20.031542    20.995535    8600.4892   -1092.8899    12.234185    142.15516   -571.98401    317.28135   -398.92964   -4330.0017 
15913000    236.50414   -4744.5677   -4288.4496   -4744.5677            0    1387.3298    20.099754    20.249478    21.240358    8645.0282    1904.7733    1016.9641    1240.2521     198.7631   -1640.8691     385.7737   -4113.5366 
15914000    239.71145    -4773.339   -4311.0353    -4773.339            0    2172.7034    20.140287    20.148288    20.991272    8518.0966    2471.4587    3265.4756    781.17584   -389.00193    -149.5111    119.43403   -4041.1254 
15915000    239.60503   -4763.6283   -4301.5299   -4763.6283            0   -351.37358     20.41377    20.121566    21.149172    8687.1705   -1718.2731     976.1872   -312.03485   -842.72708    403.02173   -206.71259   -4346.0466 
15916000    231.61324   -4722.9278   -4276.2422   -4722.9278            0   -283.41495    20.215805    20.071496    21.343099    8660.2067   -840.86295    922.17666   -931.55855    46.896863    850.77392   -293.37615   -4312.0376 
15917000    236.90943   -4753.2994   -4296.3996   -4753.2994            0    349.95532    20.109038    20.333179    21.030325    8598.8936    1874.5132   -416.54057    -408.1067    429.59865    22.483638    174.84639   -4252.5131 
15918000     239.4355   -4730.9548   -4269.1833   -4730.9548            0    1822.7995    20.400329     20.11429    20.829318    8547.0634    2958.3545    1033.1985    1476.8455    1105.7752    1050.6448    114.36053   -4041.9711 
15919000    237.67229   -4726.9442   -4268.5732   -4726.9442            0   -1463.0924    20.254672    20.227529     21.16617    8671.8214   -2340.9871    120.50941   -2168.7996   -517.34461    524.67847   -19.244144   -4453.6099 
15920000    229.02138   -4721.8773   -4280.1903   -4721.8773            0    41.920774    19.940751    20.146069    21.474788    8627.0179    1400.4499    1031.9051   -2306.5927    115.16937   -618.09608    38.213597    -4274.916 
15921000     239.0657     -4745.12   -4284.0617     -4745.12            0   -1247.9149    20.254258    20.221585     21.34533    8742.4748    127.54043    -2808.686   -1062.5991   -508.11392    497.75447    613.81847   -4443.1708 
15922000    231.36521    -4746.372   -4300.1648    -4746.372            0    955.72195    20.444608    20.147015    20.762508    8552.0319   -888.22522    995.37632    2760.0147   -536.99263   -428.41163    -74.04748   -4180.9646 
15923000    230.62936   -4762.9334   -4318.1453   -4762.9334            0   -21.419427    20.286549    20.182787    21.090658    8635.3396    36.172397    476.29109   -576.72176    408.41845    288.53886    27.979546   -4320.8428 
15924000    245.38984   -4774.5825   -4301.3276   -4774.5825            0    409.06257    20.003646    20.367402    21.223031    8646.7366    1476.4075    327.49354   -576.71336    82.371499    165.32275    95.814471   -4249.7433 
15925000    235.78968   -4757.7746   -4303.0344   -4757.7746            0   -148.74501    20.283048    20.172359    21.197505    8673.1055     197.7817   -1228.1057    584.08903    365.74356    309.16205   -149.52859   -4321.8489 
15926000    229.59795   -4771.2979   -4328.4989   -4771.2979            0    959.17653    20.366252    20.088368    20.895441     8548.842    1285.9432    208.50948    1383.0769   -78.388767     314.4426    539.41129   -4208.9125 
15927000     243.2664   -4758.6413   -4289.4816   -4758.6413            0    1406.6502    20.264286    20.049956    21.079577    8564.5909    22.204956    3184.8752    1012.8705    68.885524   -458.32419   -245.56028   -4113.7828 
15928000    228.46941   -4734.9298   -4294.3073   -4734.9298            0   -1059.0315    20.084766    20.415465    21.131201    8664.6342   -668.98715   -2948.2298    440.12238   -606.43919     1087.942   -251.72023   -4428.1316 
15929000    246.35455   -4745.4329   -4270.3175   -4745.4329            0    1242.6133    20.124168    20.249156     21.12803    8609.6179    201.35551    2781.0392    745.44516   -268.64883    200.49098    129.65376   -4114.2919 
15930000    240.53501   -4740.9633   -4277.0713   -4740.9633            0   -1359.3507    20.335228    20.150156    21.362343    8753.3914    148.06321   -2041.6685   -2184.4468    89.714106   -549.59049    66.902464    -4450.605 
15931000    242.49631   -4769.9968   -4302.3223   -4769.9968            0   -428.13843    19.986765    20.227894    21.367983     8638.865     436.1639   -1199.1364    -521.4428   -807.67789    413.42429    603.48471    -4356.263 
15932000    230.79476   -4743.4033   -4298.2962   -4743.4033            0   -685.97247    20.335329    20.207233    21.183566    8704.7664   -1027.4527   -222.35328   -808.11138    214.73322   -404.50133   -1538.9868   -4385.3804 
15933000    233.52137   -4775.1147   -4324.7491   -4775.1147            0    651.98393    20.214403    20.166361    21.125595    8611.8685    1408.5925    558.22055   -10.861269    6.3964746    227.18601    -920.9684    -4242.863 
15934000    228.81768   -4762.5486   -4321.2544   -4762.5486            0   -614.78927     20.26317    20.211516    20.910967    8564.0738   -1673.4785    979.38797   -1150.2773   -85.911409     91.61013    494.51164   -4398.0405 
15935000    235.76526   -4729.4034   -4274.7103   -4729.4034            0    119.85942    20.329652    20.252117    21.136974    8702.4827   -382.20392   -15.786293    757.56848   -339.40311    479.53003   -929.03879   -4259.4981 
15936000    234.51041   -4719.9686   -4267.6955   -4719.9686            0   -120.61626    20.293479    20.019088    21.422819    8703.1691   -1915.9169    961.48827    592.57986     176.5395   -230.73471   -1038.6333   -4283.0049 
15937000    228.06011   -4746.5492    -4306.716   -4746.5492            0   -281.18539    20.285634    20.206101    21.006447    8610.4076   -103.25926   -1264.3918    524.09484       315.35    -43.51627   -185.81824   -4342.0256 
15938000    232.16572   -4726.8147   -4279.0636   -4726.8147            0     448.9714    20.298386    20.358483    20.884024    8630.2046   -979.79324    692.61979    1634.0876   -64.741807   -315.94162    -1037.576   -4222.5549 
15939000    226.50113   -4762.6733   -4325.8468   -4762.6733            0    -451.5306    20.223715    20.216526    21.133921    8640.6722   -2737.9156    2313.5037    -930.1799    87.091767    232.89475    229.92545   -4382.7466 
15940000    246.00856   -4732.2674   -4257.8192   -4732.2674            0   -835.64336    20.471665    20.079283    21.020252    8640.5082   -3201.0855    1131.7261   -437.57064   -549.29123   -92.847401    276.98114    -4363.121 
15941000    238.64719   -4756.9812     -4296.73   -4756.9812            0    681.43448    20.199264    20.289362    21.087385    8642.2466    976.28628   -921.19536    1989.2125    449.37601    635.55786    1667.0571   -4210.8432 
15942000    243.03001   -4750.3102   -4281.6064   -4750.3102            0    998.41458    20.084585    20.198166    21.434821    8695.5023    1757.4982        656.3    581.44558    286.36943   -1073.4582   -27.719264   -4154.9924 
15943000    243.27869   -4756.1651   -4286.9817   -4756.1651            0    812.26441    20.157232     20.22563    21.246134    8661.8942    1811.9021   -104.51758    729.40867   -772.67627    907.60196   -47.488955   -4184.3725 
15944000    239.75507   -4738.6181   -4276.2303   -4738.6181            0    -424.0899    20.477338    20.048941    20.999918     8621.494   -581.26744   -2120.3529    1429.3506   -210.66621   -455.29813    515.02364   -4329.5535 
15945000    230.13805   -4741.6977   -4297.8571   -4741.6977            0   -138.93376    20.263079    20.156578    21.146704    8637.0398     164.8598   -95.486283   -486.17481    610.10514   -1030.1745    282.04377   -4315.3575 
15946000    228.72112   -4730.7406   -4289.6327   -4730.7406            0   -1667.2162    20.113658     20.42601    21.322984    8760.3729   -1541.4681   -2083.5387   -1376.6417    685.06546   -255.51329   -580.40898    -4502.638 
15947000    231.80311   -4743.9635   -4296.9118   -4743.9635            0   -44.031055    20.111502    20.281768    21.037676     8581.201    2121.4628   -2026.5021   -227.05386    132.01569    503.53338   -5.4664762   -4302.4222 
15948000    245.18685    -4760.303   -4287.4395    -4760.303            0   -216.41048    20.349153    20.215206    21.079473    8671.3011   -2281.3977    1323.5791     308.5871     285.9999    953.28739   -432.78248   -4314.8073 
15949000    247.51233   -4742.9707   -4265.6224   -4742.9707            0    843.99826    20.197479    20.052575      21.2258    8596.6925    2294.7442    159.50488    77.745655    310.03102   -667.63379   -987.30025    -4159.807 
15950000    229.61185   -4748.3362   -4305.5105   -4748.3362            0   -606.58541    20.143287    20.202689    21.451849     8729.799   -1144.2259   -72.783507    -602.7468    672.14095    1106.7152    1153.4941    -4382.738 
15951000    221.55665   -4728.4345   -4301.1438   -4728.4345            0    546.31722     20.24612    20.223899    21.057274    8622.0167    1858.9283    332.58722   -552.56382   -225.07263   -1160.3407   -123.47581   -4232.4481 
15952000    242.18075   -4765.4356   -4298.3697   -4765.4356            0   -773.31906    20.082864    20.333476    21.160285     8640.896   -604.20658   -2365.3829    649.63227    140.23422    617.59451   -395.64218   -4395.8223 
15953000    228.84625   -4762.2844   -4320.9352   -4762.2844            0    1254.7854    20.283858    20.221945    20.943061     8590.405    1488.2711    471.46033    1804.6249    -128.5209   -158.39727    735.21667   -4163.7329 
15954000    228.63641   -4758.2769   -4317.3324   -4758.2769            0   -1218.2595    20.288325    19.962438    21.451535    8687.9669   -310.22807   -831.10837   -2513.4422   -591.27588    609.67502    1078.2238    -4471.692 
15955000    224.17386   -4765.7346   -4333.3965   -4765.7346            0   -975.08109    20.201168    20.177676    21.315076    8688.2937   -93.974099   -2374.5862   -456.68297   -326.93304    166.20397    558.02919   -4456.9489 
15956000    229.45165   -4764.7758    -4322.259   -4764.7758            0    1277.2417    20.102913    20.242733    21.051955    8566.8385    894.53218    1672.9039     1264.289     60.77387    1257.4598    714.38734   -4162.6823 
15957000    237.03263   -4757.2122   -4300.0748   -4757.2122            0   -721.01054    20.342958    20.257878    21.013883    8659.9297   -2042.2258   -576.33485    455.52908    456.26541    682.96859   -941.31743   -4391.1357 
15958000    236.98907   -4735.6321   -4278.5788   -4735.6321            0    561.56767     20.16349    20.071959    21.249422    8600.0823    1017.4173    1050.6335   -383.34779   -227.49364   -112.27345   -139.62541    -4208.145 
15959000    240.74474   -4767.2226   -4302.9262   -4767.2226            0    15.762478    20.218102    20.214557    21.206259    8666.9973   -154.22352    662.47589   -460.96493    291.84012    463.00766   -1194.3791   -4300.9338 
15960000    249.55442   -4744.2613   -4262.9746   -4744.2613            0    1530.9186    20.240243    20.073353    21.013887    8537.7224    1892.7883    2812.4057    -112.4381   -7.0997306   -497.99206   -522.57762    -4072.354 
15961000    239.25396   -4754.8614     -4293.44   -4754.8614            0   -944.36447    20.394786     20.18106    21.128604    8696.2885   -2134.4785   -932.16868    233.55376   -441.48696    352.33325     -389.958   -4413.2104 
15962000    235.12336    -4747.726   -4294.2708    -4747.726            0   -213.07461    20.083156    20.295959     21.35253     8703.439    1135.2302   -1573.5535    -200.9005   -224.46034   -58.529718    16.356938   -4321.3165 
15963000    237.91207   -4729.5395   -4270.7061   -4729.5395            0    2206.9142    20.224361    19.996486    21.162564    8558.4829    3336.4351    1987.6024    1296.7051   -22.311989    84.333933    139.42987   -3995.2463 
15964000    245.37345   -4756.6453    -4283.422   -4756.6453            0   -886.44551    20.491845    20.149188    21.108529    8715.5856   -2670.0946   -535.91494    546.67297    361.76976    1277.6152    349.46204   -4396.0962 
15965000    228.53384   -4782.7607    -4342.014   -4782.7607            0    216.53755    20.109912    20.269555    21.039905    8576.2642    1414.2107    -655.7011   -108.89695   -618.14981   -218.17723    996.53507   -4314.9304 
15966000    235.97755   -4757.9366   -4302.8341   -4757.9366            0    344.29538    20.133349    20.112494    21.467284    8692.7875    950.93906   -598.07539    680.02245   -358.62242   -394.09313    648.94334   -4259.1859 
15967000    219.75255   -4752.1217   -4328.3104   -4752.1217            0   0.24179148    20.310545    20.067643    21.081669    8592.5668   -1374.9524    963.40533    412.27246   -505.31662   -395.64758    62.379424   -4328.2801 
15968000    243.47357   -4752.5083   -4282.9491   -4752.5083            0    412.23074    20.186159    20.249134    20.979596     8575.457   -601.31657    1759.4819    78.526888   -487.78121    236.27679   -1116.3163   -4231.3937 
15969000    239.40454   -4743.7087   -4281.9969   -4743.7087            0   -390.77414      20.3124    20.255382    21.258347     8746.437    1220.8413   -1749.0663   -644.09741     157.8988    165.35904    208.05973   -4331.8432 
15970000    229.81564   -4770.4346   -4327.2158   -4770.4346            0    700.23937    20.161861    20.073648    21.233681    8593.7401    86.873562    1760.5759    253.26865   -39.447414   -367.90465     313.7763   -4239.4541 
15971000    227.46355    -4734.268   -4295.5854    -4734.268            0   -73.939075    20.174698    20.283955    21.327831    8727.8317    790.72914   -326.63523   -685.91114   -89.488901   -661.99046   -798.47413   -4304.9969 
15972000    234.96508   -4770.4277   -4317.2777   -4770.4277            0       529.91    20.110195    20.411824    20.883254    8572.2787    592.81825   -473.99679    1470.9085   -457.54087    1527.9104   -399.84394   -4251.0295 
15973000    229.01071   -4753.5497   -4311.8833   -4753.5497            0   -434.38704    20.407025    20.213788    20.956049    8644.4392   -1090.7866   -157.14379   -55.230726   -42.297264    52.998558    263.21626   -4366.6466 
15974000    231.84617   -4748.7496   -4301.6148   -4748.7496            0     4.732732    20.190945    20.076452    21.330347    8646.5235    846.97206    368.76627   -1201.5401    65.960204   -299.58041   -158.96205    -4301.018 
15975000    229.80431   -4761.4071   -4318.2102   -4761.4071            0    87.981726    20.158481    20.236308    21.304811    8690.9406    804.51412   -1124.8022     584.2333   -423.18882   -228.20453    225.92295   -4307.0586 
15976000    233.66204   -4751.0163   -4300.3794   -4751.0163            0   -341.88987    20.275129    20.318404    20.924662    8620.0873    397.19386   -1487.8249    64.961472     406.3441    412.37607   -1221.5176   -4343.3602 
15977000    255.13983   -4740.7284   -4248.6698   -4740.7284            0    -466.5885    20.301671    20.283615    21.144756    8707.2264   -2129.8393    1089.0144   -358.94066    62.321193    749.27315   -71.911016     -4307.92 
15978000    248.18953    -4747.759   -4269.1046    -4747.759            0   -1244.8986    20.226325    20.291087    21.229261    8712.7882   -959.94567   -1310.3079   -1464.4423    62.045196    115.09545   -1145.6862   -4427.2902 
15979000    240.89111   -4747.5993   -4283.0205   -4747.5993            0    2584.7187    20.103442    20.278654    20.912665    8525.4821    1927.7472    2769.1241    3057.2849    216.65284    880.58098   -681.48563   -3961.6484 
15980000    243.90577    -4732.794   -4262.4012    -4732.794            0    130.14601    20.381846    20.159247    21.052771    8650.2186   -1131.3224    1209.2149    312.54553   -288.03805   -563.97931   -132.49135   -4245.9827 
15981000    234.21798   -4727.6111    -4275.902   -4727.6111            0    1202.8115    20.215819    20.035345    21.278942    8618.6292    1551.0742    699.15694    1358.2033   -216.38773    402.16939   -1357.3443    -4124.716 
15982000     225.6798   -4722.0532   -4286.8107   -4722.0532            0   -1792.7273    20.299954    20.163298    21.370775    8747.3579   -3696.4253   -574.06908   -1107.6875   -184.21334     815.6235    167.38358   -4515.5112 
15983000    237.24023    -4767.919   -4310.3813    -4767.919            0    686.48329    20.114766    20.298831    21.157668    8638.8076    723.09905    1098.3996    237.95121    265.30888    414.37087   -599.64072   -4223.8925 
15984000    233.57149   -4728.4047   -4277.9424   -4728.4047            0    354.66396    20.123951    20.338884    20.948799    8574.3163    67.107635    306.44309    690.44115   -705.82866   -438.65189    40.610579   -4233.5925 
15985000    224.11491   -4747.6261   -4315.4017   -4747.6261            0   -1372.1408    20.492443      20.1539    21.235104     8770.154   -1564.4109   -1106.6915   -1445.3201   -67.009376   -226.70796    72.820406   -4490.9035 
15986000      226.662   -4754.6376   -4317.5009   -4754.6376            0    1309.7781    20.140428    20.058136    21.316384     8611.381    1383.5048    2328.6608    217.16868    220.95641   -623.03513   -1241.3862   -4153.0083 
15987000    236.15064   -4760.4658   -4305.0294   -4760.4658            0    688.93722    20.293742    20.150086    21.095313    8626.3093    579.78591     41.46362    1445.5621    492.04893    714.79502   -1439.8183    -4218.357 
15988000    240.13344   -4741.6763   -4278.5588   -4741.6763            0     1362.271    20.384284    20.015537    21.154504    8631.0882    640.58055    2882.2324    563.99997   -38.163481   -463.97201    848.51492   -4107.0821 
15989000    221.97781    -4727.526   -4299.4231    -4727.526            0   -111.04128    20.109922    20.241301    21.183118    8622.6093     295.0324    584.20659   -1212.3628   -380.21994   -836.26469    1071.0303   -4313.3868 
15990000    239.53257    -4751.536   -4289.5773    -4751.536            0    900.10076    20.129783     20.37349    21.006674    8615.1299    5.3726729    1322.1054    1372.8241   -602.91495    972.75304    1103.4379   -4176.4861 
15991000    227.21656   -4752.3784   -4314.1721   -4752.3784            0   -457.39037    20.253684    20.341531    21.054134    8674.1126   -255.27782   -74.211566   -1042.6817   -454.69099   -356.00374   -7.1117446   -4372.0334 
15992000    230.84758   -4733.8871   -4288.6781   -4733.8871            0   -95.406574     20.14223    19.900172     21.63758    8673.0743      51.5622    2156.9914   -2494.7734   -220.09108   -36.731448   -1301.0862   -4300.7459 
15993000    243.87167   -4739.5189   -4269.1919   -4739.5189            0    202.35615    20.350178    20.160242    21.193653    8695.0035     155.4943    438.67458    12.899568   -371.75993   -345.64737    628.36474   -4243.5315 
15994000    246.22435   -4751.3428   -4276.4785   -4751.3428            0    891.45082    20.167186    20.228477    21.169593    8636.1663    1224.7421    919.73586    529.87451    270.88887    -1674.669    678.21585   -4164.2006 
15995000     248.4776   -4732.9462   -4253.7363   -4732.9462            0    867.60997    20.156231    20.327859     21.05978    8628.8873    746.02625    1436.0719    420.73177    -178.7586   -261.45139    149.67092   -4144.5532 
15996000    236.44935   -4735.9598   -4279.9473   -4735.9598            0    212.27764    20.301606    20.198138    21.081831    8644.7028    1051.4493   -247.27902    -167.3374   -757.24477   -2233.9614    549.92977   -4253.1846 
15997000    233.77503   -4755.7682   -4304.9134   -4755.7682            0   -399.05212    20.310253    20.157508    21.130403    8650.8736   -382.18901    652.53975   -1467.5071   -200.60606    530.46541   -1529.9161   -4355.2595 
15998000    243.43931   -4746.7076   -4277.2144   -4746.7076            0    -348.7999    20.112477    20.249536    21.312128    8679.7548    979.17551   -1529.4729   -496.10226    323.53221   -68.033554    1050.1452   -4321.3673 
15999000    222.13115   -4740.5688   -4312.1702   -4740.5688            0    911.46289    20.078499    20.151155     21.33801    8633.4644    1260.5365    984.63087    489.22132    337.26445   -187.69614   -124.88563   -4197.4077 
16000000     245.9065   -4720.1634    -4245.912   -4720.1634            0    917.18004    20.495083     20.03035    21.090583    8658.1837    518.33171    1344.0528    889.15566   -239.29525   -303.73704   -163.97608    -4130.099 
Loop time of 384.515 on 64 procs for 250000 steps with 972 atoms

Performance: 112.349 ns/day, 0.214 hours/ns, 650.171 timesteps/s
99.1% CPU use with 64 MPI tasks x 1 OpenMP threads

MPI task timing breakdown:
Section |  min time  |  avg time  |  max time  |%varavg| %total
---------------------------------------------------------------
Pair    | 18.957     | 26.918     | 34.511     |  77.9 |  7.00
Bond    | 0.26106    | 0.27722    | 0.2956     |   1.0 |  0.07
Kspace  | 157.54     | 168.49     | 179.67     |  40.8 | 43.82
Neigh   | 2.3088     | 2.6104     | 3.0697     |  12.1 |  0.68
Comm    | 78.675     | 86.014     | 92.211     |  33.6 | 22.37
Output  | 1.1421     | 1.1431     | 1.1495     |   0.1 |  0.30
Modify  | 90.177     | 91.61      | 94.763     |  10.7 | 23.82
Other   |            | 7.451      |            |       |  1.94

Nlocal:        15.1875 ave          20 max           9 min
Histogram: 2 3 3 5 11 12 8 10 4 6
Nghost:        2141.08 ave        2161 max        2112 min
Histogram: 3 1 4 7 8 8 10 9 7 7
Neighs:        4555.20 ave        6476 max        2768 min
Histogram: 2 3 6 16 8 12 7 5 2 3

Total # of neighbors = 291533
Ave neighs/atom = 299.93107
Ave special neighs/atom = 2.0000000
Neighbor list builds = 6735
Dangerous builds = 0

unfix		3
unfix		2
unfix		1

write_data	data.final.${pid}
write_data	data.final.0
System init for write_data ...
PPPM initialization ...
  extracting TIP4P info from pair style
  using 12-bit tables for long-range coulomb (../kspace.cpp:340)
  G vector (1/distance) = 0.37126762
  grid = 24 24 25
  stencil order = 5
  estimated absolute RMS force accuracy = 0.0035509407
  estimated relative force accuracy = 1.0693553e-05
  using double precision FFTW3
  3d grid and FFT values/proc = 2366 288
Last active /omp style is kspace_style pppm/tip4p/omp
WARNING: Not all mixed pair coeffs generated from mixing. Use write_data with 'pair ij' option to store all pair coeffs. (../write_data.cpp:312)

write_restart   restart.lmp.${pid}
write_restart   restart.lmp.0
System init for write_restart ...
PPPM initialization ...
  extracting TIP4P info from pair style
  using 12-bit tables for long-range coulomb (../kspace.cpp:340)
  G vector (1/distance) = 0.37126762
  grid = 24 24 25
  stencil order = 5
  estimated absolute RMS force accuracy = 0.0035509407
  estimated relative force accuracy = 1.0693553e-05
  using double precision FFTW3
  3d grid and FFT values/proc = 2366 288
Last active /omp style is kspace_style pppm/tip4p/omp
Total wall time: 0:06:26
