LAMMPS (30 Jul 2021)
Processor partition = 1
  using 4 OpenMP thread(s) per MPI task
using multi-threaded neighbor list subroutines
variable        pid world 0 1
variable        phase world IceII IceIh

shell cd ${phase}
shell cd IceIh
include Restart.lmp
echo both
log log.lammps
#include		in.partitions
include		in.temp
variable        temperature equal 20.10
variable	tempDamp equal 100.0
include		in.pressure
variable        pressure equal 1997.4
variable        pressureDamp equal 1000.0 # This is 1 ps
include		in.seed
variable        seed equal 745823

units		real
atom_style	full
#include		in.box
read_restart	restart.lmp.${pid}
read_restart	restart.lmp.1
Reading restart file ...
  restart file = 30 Jul 2021, LAMMPS = 30 Jul 2021
  restoring atom style full from restart
  orthogonal box = (0.15239320 0.16806481 0.19050521) to (18.055179 23.461113 22.022691)
  2 by 4 by 2 MPI processor grid
  restoring pair style lj/cut/tip4p/long/omp from restart
  restoring bond style harmonic/omp from restart
  restoring angle style harmonic/omp from restart
  864 atoms
  576 bonds
  288 angles
Finding 1-2 1-3 1-4 neighbors ...
  special bond factors lj:    0        0        0       
  special bond factors coul:  0        0        0       
     2 = max # of 1-2 neighbors
     1 = max # of 1-3 neighbors
     1 = max # of 1-4 neighbors
     2 = max # of special neighbors
  special bonds CPU = 0.001 seconds
  read_restart CPU = 0.006 seconds
include 	in.setup
variable	out_freq equal 1000
variable	out_freq2 equal 10000
variable	out_freq3 equal 1000

timestep	2.0

neigh_modify    delay 7 every 1

include		in.tip4p
# This is TIP4P/Ice

# create groups ###
group ox type 2
288 atoms in group ox
group hy type 1
576 atoms in group hy

# set charges - beside manually ###
set group ox charge -1.1794
Setting atom values ...
  288 settings made for charge
set group hy charge 0.5897
Setting atom values ...
  576 settings made for charge

# ### TIP3P Potential Parameters ###
pair_style lj/cut/tip4p/long/omp 2 1 1 1 0.1577 8.5
pair_coeff 1 1*2 0.000 0.000
pair_coeff 2 2 0.21084 3.1668
bond_style  harmonic
bond_coeff  1 450 0.9572
angle_style harmonic
angle_coeff 1 55 104.52
kspace_style pppm/tip4p/omp 1.0e-5
pair_modify tail yes

thermo          ${out_freq}
thermo          1000
thermo_style    custom step temp pe etotal epair emol press lx ly lz vol pxx pyy pzz pxy pxz pyz enthalpy

restart 	${out_freq3} restart.lmp.${pid} restart2.lmp.${pid}
restart 	1000 restart.lmp.${pid} restart2.lmp.${pid}
restart 	1000 restart.lmp.1 restart2.lmp.${pid}
restart 	1000 restart.lmp.1 restart2.lmp.1


include         in.dump
dump            myDump all atom ${out_freq2} dump.water.${pid}
dump            myDump all atom 10000 dump.water.${pid}
dump            myDump all atom 10000 dump.water.1
dump            myDump2 all dcd ${out_freq2} dump.dcd
dump            myDump2 all dcd 10000 dump.dcd
dump_modify     myDump append yes
dump_modify     myDump2 append yes


variable natoms 	equal  "count(all)"                        # NUMBER ATOMS
variable H      	equal  "enthalpy/v_natoms"                 # ENTHALPY-per-atom
variable Vol      	equal  "vol/v_natoms"                 # volume-per-atom
fix AVG all 		ave/time ${out_freq} 1 ${out_freq} v_Vol v_H file vol_enthalpy.dat
fix AVG all 		ave/time 1000 1 ${out_freq} v_Vol v_H file vol_enthalpy.dat
fix AVG all 		ave/time 1000 1 1000 v_Vol v_H file vol_enthalpy.dat


timer           timeout 23:50:00 every 1000
New timer settings: style=normal  mode=nosync  timeout=23:50:00

fix 		1 all shake 1e-6 200 0 b 1 a 1
Finding SHAKE clusters ...
       0 = # of size 2 clusters
       0 = # of size 3 clusters
       0 = # of size 4 clusters
     288 = # of frozen angles
  find clusters CPU = 0.000 seconds
fix             2 all nph aniso ${pressure} ${pressure} ${pressureDamp}
fix             2 all nph aniso 1997.4 ${pressure} ${pressureDamp}
fix             2 all nph aniso 1997.4 1997.4 ${pressureDamp}
fix             2 all nph aniso 1997.4 1997.4 1000
fix             3 all temp/csvr ${temperature} ${temperature} ${tempDamp} ${seed}
fix             3 all temp/csvr 20.1 ${temperature} ${tempDamp} ${seed}
fix             3 all temp/csvr 20.1 20.1 ${tempDamp} ${seed}
fix             3 all temp/csvr 20.1 20.1 100 ${seed}
fix             3 all temp/csvr 20.1 20.1 100 745823


run             250000
PPPM initialization ...
  extracting TIP4P info from pair style
  using 12-bit tables for long-range coulomb (../kspace.cpp:340)
  G vector (1/distance) = 0.37224182
  grid = 24 27 25
  stencil order = 5
  estimated absolute RMS force accuracy = 0.0030966519
  estimated relative force accuracy = 9.3254753e-06
  using double precision FFTW3
  3d grid and FFT values/proc = 6300 1296
Last active /omp style is kspace_style pppm/tip4p/omp
Neighbor list info ...
  update every 1 steps, delay 7 steps, check yes
  max neighbors/atom: 2000, page size: 100000
  master list distance cutoff = 10.8154
  ghost atom cutoff = 10.8154
  binsize = 5.4077, bins = 4 5 5
  1 neighbor lists, perpetual/occasional/extra = 1 0 0
  (1) pair lj/cut/tip4p/long/omp, perpetual
      attributes: half, newton on, omp
      pair build: half/bin/newton/omp
      stencil: half/bin/3d
      bin: standard
Setting up Verlet run ...
  Unit style    : real
  Current step  : 44250000
  Time step     : 2
  Walltime left : 23:49:59.95
Per MPI rank memory allocation (min/avg/max) = 12.26 | 12.29 | 12.31 Mbytes
Step Temp PotEng TotEng E_pair E_mol Press Lx Ly Lz Volume Pxx Pyy Pzz Pxy Pxz Pyz Enthalpy 
44250000    21.564946   -4705.3685   -4668.4069   -4705.3685            0    2121.4276    17.902786    23.293048    21.832185    9104.2496    1852.8821    2216.7544    2294.6464     402.9091   -3.2625967   -45.927194   -4386.7319 
44251000    20.218394   -4704.2955   -4669.6419   -4704.2955            0    2171.3816    17.878551    23.204517    21.932143     9098.838    2493.5718    2131.2253    1889.3478    127.60329   -65.655811    118.41596   -4381.5056 
44252000    19.506143   -4703.4024   -4669.9695   -4703.4024            0    2086.5691    17.915249    23.280637    21.796836    9090.9894    1658.7571    2443.9892     2156.961    68.824245    57.033612    163.08095   -4393.3265 
44253000    20.051754   -4705.3389   -4670.9708   -4705.3389            0    2028.5482    17.917584    23.260804    21.851038    9107.0187    2044.9813    2031.8185    2008.8449    43.605625    321.05103    96.919472   -4401.5461 
44254000    17.892139   -4704.7734   -4674.1068   -4704.7734            0    2019.7675    17.866823    23.330804    21.838839    9103.4622    2035.8125    1755.5998    2267.8904    178.91005   -226.43447    -9.118986   -4405.9531 
44255000    19.288675   -4703.2793   -4670.2192   -4703.2793            0    1955.3643    17.909545    23.257322    21.856018    9103.6445    1419.6258    2008.1984    2438.2686   -426.62374    58.326505     195.6754   -4410.6107 
44256000    19.989795   -4702.9158    -4668.654   -4702.9158            0    1911.8912    17.876742    23.266232    21.890646    9104.8545     2177.754    1538.7441    2019.1755   -2.8642911    47.105906   -90.053074   -4414.7836 
44257000    20.375113   -4705.7477   -4670.8255   -4705.7477            0    1978.2916    17.892526    23.288682    21.848919    9104.2994     1734.365    2349.0281    1851.4816   -472.22656    194.83783   -31.556701   -4408.1541 
44258000    20.754317   -4705.5425   -4669.9703   -4705.5425            0    1844.1589    17.956305    23.283428    21.787593     9109.051    1540.4061    2006.1863    1985.8843   -128.45555   -22.486259   -42.231608   -4424.9809 
44259000    21.161633   -4705.3743    -4669.104   -4705.3743            0    1758.7058    17.903829    23.291973    21.857633    9114.9721    1925.2651    1874.5966    1476.2557   -281.86498    77.242778    343.69984   -4435.3148 
44260000    19.915856   -4704.8265   -4670.6914   -4704.8265            0     1752.354    17.924266    23.287981    21.839969     9116.439    1697.5707    1783.0727    1776.4186   -365.55689   -71.352378    32.916697   -4437.7091 
44261000    19.244786   -4703.8471   -4670.8622   -4703.8471            0    1784.9954     17.91982    23.268215    21.861648    9115.4819    1817.3324     1617.198    1920.4559    220.87454   -52.168237     270.7158   -4433.5649 
44262000    21.867759   -4704.0971   -4666.6165   -4704.0971            0    2016.9183    17.904323    23.230192    21.880021    9100.3568    2004.3519    1983.5798    2062.8231    83.842228    -129.7069   -373.82434   -4398.9324 
44263000     20.53401   -4704.0318   -4668.8372   -4704.0318            0    1900.6242     17.89347    23.268577       21.876    9108.1948    1899.6392    1692.7968    2109.4367   -238.81947    233.02555    100.27872   -4416.3703 
44264000    18.918964   -4705.0115    -4672.585   -4705.0115            0    2063.9814    17.957977    23.206147    21.843283    9102.8703    1941.6015    2071.7053    2178.6373   -134.91512   -120.29427   -41.923905    -4398.579 
44265000    20.542262   -4706.2799   -4671.0711   -4706.2799            0     1904.164    17.928331    23.248224    21.867954    9114.6039    1638.8554    2366.7202    1706.9163   -15.909501    130.01103    75.586595    -4417.956 
44266000    20.633876   -4704.6031   -4669.2374   -4704.6031            0    2172.5897    17.812804    23.333388    21.886739    9096.8523    2500.0397    2277.9159    1739.8135     123.0716    -32.54437   -105.56703   -4381.0037 
44267000    19.952017   -4704.1025   -4669.9054   -4704.1025            0    2132.8266    17.858294    23.281972    21.889066    9100.9548    2424.1153     2133.085    1841.2795   -118.23054    111.06094   -126.56727   -4386.8194 
44268000    18.958827   -4705.0693   -4672.5745   -4705.0693            0    2068.2398    17.891439    23.295684    21.850933    9107.3226    1735.8519    2368.0566     2100.811    42.893943    36.512919    330.41921   -4397.8689 
44269000    20.589642   -4706.2027   -4670.9128   -4706.2027            0    1988.8367    17.867169     23.32045    21.850304    9104.3756    2192.9173    1816.3709    1957.2219   -599.24216   -17.197649    148.46385    -4406.839 
44270000    19.823214   -4705.3204   -4671.3441   -4705.3204            0       2139.9    17.878802     23.19352    21.944993    9099.9819    2321.5622    2006.4868    2091.6512   -136.15673   -15.521254   -11.780032   -4387.3496 
44271000    19.216187   -4705.0479   -4672.1121   -4705.0479            0    2014.1989    17.916439    23.204767    21.886589    9099.2792    1792.8961    2390.6439    1859.0565   -213.76693   -26.120055    56.314903   -4404.8205 
44272000    20.403924   -4704.7492   -4669.7776   -4704.7492            0    2005.8929    17.926939    23.225043    21.873682    9107.1934     1973.286    1983.0538    2061.3388    62.957795   -77.990638    194.66399   -4403.3567 
44273000    19.571509   -4706.4811   -4672.9362   -4706.4811            0     1931.322    17.815647    23.318555     21.91172    9102.8984    2075.7104    1703.1615    2015.0942    128.06246    75.387109   -14.665406   -4416.5407 
44274000    22.264091   -4705.5873   -4667.4275   -4705.5873            0     1901.691    17.883507    23.333933    21.839729    9113.5563    1914.4982    1484.3347    2306.2402   -90.219845   -159.22092   -7.4265343   -4414.6701 
44275000    20.213968   -4704.8204   -4670.1744   -4704.8204            0    1889.3824    17.874911    23.308107    21.852008    9104.2097     1883.683    1622.4961    2161.9681   -189.05134    106.88679    119.52694   -4419.3106 
44276000    20.903973    -4704.433   -4668.6043    -4704.433            0    1622.8645    17.862936    23.276699    21.924995    9116.1978     1936.868    1435.7528    1495.9727   -98.177004   -86.405478    213.78772   -4452.8438 
44277000    21.110479   -4705.8064   -4669.6237   -4705.8064            0    1749.7139    17.913267     23.30751    21.847016    9121.4272    1712.9089    1990.0293    1546.2034   -15.794765    177.61156   -8.2398277   -4436.8652 
44278000    19.991567   -4705.6409   -4671.3761   -4705.6409            0    1986.9005    17.915103    23.232565    21.874467    9104.4547    2236.3069    1699.6822    2024.7123    19.099294   -103.59974    167.73127   -4407.5572 
44279000     19.14606   -4706.6206   -4673.8049   -4706.6206            0    2053.0154    17.971567    23.215335    21.808913    9099.0262    1799.2854     1873.616    2486.1449    78.810405     7.786229   -215.08999   -4401.3698 
44280000     19.31893   -4702.6109   -4669.4989   -4702.6109            0    2086.3819    17.820519    23.285847     21.93172    9100.9151    2167.6755    2063.7637    2027.7065   -4.4866945    -194.1644    137.23914   -4392.5786 
44281000    21.028862   -4704.2636   -4668.2209   -4704.2636            0    1915.5896    17.913255    23.266576     21.85745    9109.7506    1803.6526    1746.0062    2197.1101   -118.44461    100.64943    192.04073   -4413.7226 
44282000    20.579321   -4705.2446   -4669.9723   -4705.2446            0    1990.0227    17.885505    23.309386     21.83685    9103.7858     2314.155    1621.5533    2034.3598   -127.79935    49.549596    -67.87161   -4405.7583 
44283000    20.694273   -4705.7726   -4670.3033   -4705.7726            0    1834.1692     17.85943    23.284367    21.906396    9109.6767    1945.8615    2096.6715    1459.9746    233.21604    49.008631    80.490294   -4426.6242 
44284000    19.565584   -4706.0492   -4672.5145   -4706.0492            0    2102.0308    17.840748    23.316632     21.86763    9096.6311    2221.2838    2269.8845     1814.924    18.737028    73.592408   -54.378957   -4393.6485 
44285000    19.085598   -4706.5997   -4673.8877   -4706.5997            0    1817.5951    17.837607    23.413628    21.819415    9112.7283    1849.1806    1726.0783    1877.5264   -153.91739   -103.95479    11.636335   -4432.3297 
44286000    19.023125   -4705.1834   -4672.5784   -4705.1834            0    2009.1952    17.939631     23.19605    21.861316    9097.1183    1742.8077    2101.5768    2183.2012   -12.300226    142.98205    123.43746   -4406.0142 
44287000    20.760953   -4706.0924   -4670.5088   -4706.0924            0    1727.6138    17.949906    23.179062    21.910092    9115.9563     1480.995    1995.2379    1706.6084    171.43416    11.812189    24.152189    -4440.828 
44288000    19.700977   -4704.7542   -4670.9874   -4704.7542            0    1714.1984    17.918119    23.246033     21.88337     9114.975    1331.1851    2164.4974    1646.9128   -186.63544   -62.399948    46.636648   -4443.1146 
44289000    20.592697   -4705.5754   -4670.2803   -4705.5754            0    1652.0481    17.846088    23.345609    21.895428    9122.2441    1907.7988    1676.5307    1371.8147   -310.77453   -79.189752   -59.431091   -4450.4942 
44290000    19.843142   -4705.3845    -4671.374   -4705.3845            0    1724.8509    17.817699    23.323188    21.923885    9110.8114    2094.1707    1247.2233    1833.1588   -46.332007   -46.194798    123.49558   -4442.1899 
44291000    19.757434   -4704.9601   -4671.0965   -4704.9601            0    1750.8898     17.82394    23.281252    21.959378    9112.3432     2093.094    1969.2109    1190.3644   -343.63936    -174.3869    3.7374411   -4438.4134 
44292000    19.891751   -4705.4001   -4671.3063   -4705.4001            0    1975.7514     17.89143     23.27082    21.880647    9109.9691    1896.2761    1981.7171     2049.261    18.792495    151.38649   -14.416376   -4408.8089 
44293000    20.019937   -4703.9585    -4669.645   -4703.9585            0    2049.3512    17.909801    23.215809    21.889703     9101.531    2151.9556    2159.3285    1836.7694     32.26003   -36.577949     364.1107   -4397.6214 
44294000    21.034393   -4706.2374   -4670.1852   -4706.2374            0    1986.3244      17.9622    23.202165    21.844777    9104.0714    1847.6706    2090.7818    2020.5207   -5.5292611   -34.472811    86.901239   -4406.4538 
44295000    19.339761   -4707.0995   -4673.9518   -4707.0995            0    2013.7679    17.969835    23.121686    21.911479    9104.0636    1764.0908    2479.9046    1797.3082   -83.703102   -165.16008    110.51936   -4406.5769 
44296000    21.032006    -4705.177   -4669.1289    -4705.177            0    1910.5229    17.852713    23.266672    21.925805    9107.3922    1952.0741    2042.1902    1737.3043    15.796504    149.45689    243.20491   -4415.3695 
44297000    19.146481   -4704.5471   -4671.7307   -4704.5471            0    2091.2234    17.828273    23.331578     21.87669    9099.8664    2474.8536    2028.2328    1770.5839   -48.342577    35.929664   -209.81434   -4394.1998 
44298000    20.631453   -4705.3603   -4669.9987   -4705.3603            0     2151.705    17.883131    23.246698    21.883261    9097.3911    2144.5071    2510.7945    1799.8135   -492.47651    196.48204    265.21377   -4384.5189 
44299000    20.462956    -4704.295   -4669.2222    -4704.295            0    2183.8157    17.844917    23.285857    21.894838    9098.0535    2341.8016    2091.0425     2118.603     142.2575   -155.04881   -143.01311   -4379.4609 
44300000    20.631356   -4707.3823   -4672.0209   -4707.3823            0    1958.1695     17.81739    23.342236    21.893852    9105.6035     2314.862     1792.751    1766.8955   -381.99231     158.7108    59.768332    -4411.984 
44301000     20.46795   -4703.5174    -4668.436   -4703.5174            0    2066.4479    17.851699     23.27699    21.912545     9105.403    2296.2567    1974.5259     1928.561   -164.45275   -135.89933     -23.8567   -4394.0262 
44302000    20.717611    -4706.053   -4670.5437    -4706.053            0    2009.3342     17.87601     23.30104     21.85318    9102.4966    2361.9251    1809.6971    1856.3805   -113.21014   -65.270718      128.751   -4403.8034 
44303000     18.85589   -4703.8141   -4671.4958   -4703.8141            0    2020.7472    17.946901    23.179651    21.884393    9103.9707    1711.7532    2541.3703     1809.118     61.97416    23.774076    76.028161    -4403.197 
44304000    20.161729   -4703.4407   -4668.8842   -4703.4407            0    1954.7296    17.849209    23.278345    21.910839    9103.9544    2237.0478    2025.1161     1602.025   -107.38584    45.815058    122.60331   -4409.3512 
44305000    19.748197   -4704.6167   -4670.7689   -4704.6167            0    1946.8174    17.883693    23.254127     21.88933    9103.1081    2057.0377    2164.1333    1619.2812   -247.02822   -278.27752   -128.65858   -4412.3104 
44306000    20.695877    -4702.782     -4667.31    -4702.782            0    2063.0261    17.855448    23.324492    21.847997    9099.0189    2231.0407    2087.3128    1870.7248   -340.85985    1.2796476    61.883654   -4393.5467 
44307000     19.49494   -4703.5276   -4670.1139   -4703.5276            0     2231.896     17.81041    23.243945    21.972483    9096.2608    2380.2974     2321.694    1993.6966   -37.665195    2.8431798   -125.14515   -4374.0314 
44308000    19.960668   -4705.0256   -4670.8137   -4705.0256            0     2088.165    17.845158    23.373488     21.80948    9096.8123     2090.801    1795.5162    2378.1779   -77.343597    32.782575    38.076905   -4393.7817 
44309000    20.986715   -4706.4512   -4670.4807   -4706.4512            0    1949.2169    17.798994    23.326626    21.931906    9105.9188    2330.5391    1774.2751    1742.8366    101.42451   -147.39039    116.74738   -4411.6237 
44310000    19.579936   -4706.5462   -4672.9868   -4706.5462            0    2129.6212    17.911262    23.286552    21.810046    9096.7851    2152.6449    2067.5605    2168.6581   -5.6423528    -204.3242   -201.23363   -4390.4558 
44311000     19.73872   -4704.1028   -4670.2713   -4704.1028            0    1994.2296    17.863606    23.259215    21.900271    9099.4193    2129.0991    1650.8911    2202.6986   -223.68283    159.77411    67.494318   -4405.6257 
44312000    20.178377   -4703.4392   -4668.8541   -4703.4392            0    2204.8628    17.923084    23.179392    21.900541    9098.4965    1996.2274    2323.4305    2294.9306   -185.65465    59.443232    39.322563   -4376.2859 
44313000    20.151803   -4701.5442   -4667.0047   -4701.5442            0    1968.5099    17.903959     23.18444    21.945275    9109.3361     1712.758    2041.9825    2150.7892     125.5615   -48.199267   -25.363219   -4405.4875 
44314000    19.782887   -4703.8983   -4669.9911   -4703.8983            0    2062.7686    17.907813    23.236685    21.881563    9105.3174    1862.2209    2060.0057    2266.0793   -212.50654   -7.3171314   -186.78192   -4396.0725 
44315000    19.593391   -4706.0686   -4672.4862   -4706.0686            0    2081.8787    17.902342      23.2446    21.865598    9098.9926    1806.9144    2048.2567    2390.4652   -120.47107   -208.64762   -75.116504    -4396.222 
44316000    21.162244   -4704.7264   -4668.4551   -4704.7264            0    2164.7241    17.880791    23.248264    21.886254    9098.0574    2306.1355    2238.8322    1949.2045    47.732991    15.749515    181.83397   -4381.2269 
44317000    18.955724    -4706.292   -4673.8026    -4706.292            0     2070.009     17.84786    23.307264    21.878627    9101.1758    2248.8541    2126.8564    1834.3166    151.51731   -32.687726   -135.52492   -4399.0476 
44318000    20.495807   -4706.8896   -4671.7605   -4706.8896            0    2032.9901    17.894934    23.266952    21.860568    9101.8781    1986.8691    2198.4055    1913.6957   -467.95917    16.024741    269.04848   -4401.8982 
44319000    18.916132   -4707.5809   -4675.1593   -4707.5809            0    2030.7423    17.929321    23.261502    21.816865    9099.0057    1889.5275    2231.5445     1971.155    42.489798      105.143   -133.78012   -4405.6805 
44320000    19.805334    -4705.339   -4671.3933    -4705.339            0    1786.4397    17.919292    23.280975    21.839443    9110.9479    1632.0526    1817.8331    1909.4333   -232.56918    259.36622    292.13181   -4434.0223 
44321000    20.621114   -4705.9792   -4670.6353   -4705.9792            0    1906.8779     17.89301    23.308558    21.831673    9105.1234    1745.3134    1839.7116    2135.6087   -41.546963    -145.7972   -179.65709   -4417.4231 
44322000    20.768173   -4701.4651   -4665.8692   -4701.4651            0    2101.7106    17.863787    23.346932    21.818614    9099.7717    2390.0579    1766.3543    2148.7195   -253.30987    37.227792   -45.311448   -4386.9494 
44323000    19.714302   -4707.2335   -4673.4439   -4707.2335            0    2015.5741    17.922575    23.247683      21.8404    9099.9849    1628.3975    2251.6124    2166.7123   -290.81155   -132.11991    16.153137   -4405.9491 
44324000    20.147607    -4705.514   -4670.9817    -4705.514            0    2016.5805    17.913505    23.318486    21.791641     9102.713    1865.4406    1893.5276    2290.7733   -262.77309   -32.313912   -10.030765   -4403.2731 
44325000    19.792506   -4704.2575   -4670.3339   -4704.2575            0    2178.4619    17.926779    23.203375    21.867289    9095.9562    2131.2263    2222.7233    2181.4362   -154.10253   -9.8210417    47.973082   -4381.3496 
44326000    18.951822   -4703.5344   -4671.0516   -4703.5344            0    1998.9769    17.907683    23.271894    21.834702    9099.5181     1900.029    1819.1641    2277.7376   -289.25973   -23.822447   -51.743448   -4405.7731 
44327000    19.708846   -4706.6041   -4672.8238   -4706.6041            0    2053.7628    17.952999     23.24118     21.81675    9103.0144    1817.1688     2143.094    2201.0254    79.696311    6.6481698    234.24945   -4400.1701 
44328000    21.128103   -4703.8462   -4667.6334   -4703.8462            0    1960.1084     17.87489    23.314856    21.854805    9108.0006    2059.0538    1775.9212    2045.3503   -299.28336    108.19762    259.82202   -4407.2705 
44329000     20.26048   -4706.2617   -4671.5359   -4706.2617            0    1955.4822    17.918614     23.30985    21.795598    9103.5901    1903.1927    1740.6617    2222.5921    102.15531    64.488091    16.795868   -4411.9134 
44330000    21.222103   -4703.7866   -4667.4126   -4703.7866            0    2111.7476    17.899755     23.22598    21.872661    9093.3257    1787.7528    2009.6532     2537.837   -56.491803   -102.14104    166.83328   -4387.3594 
44331000    20.272581   -4705.3211   -4670.5746   -4705.3211            0    1987.8292    17.889917    23.257516    21.891233    9108.3953    1964.1885     2046.972    1952.3271    64.743144    18.049742    39.706781   -4406.5182 
44332000    20.248789   -4706.4349   -4671.7291   -4706.4349            0    2049.0289    17.948216    23.146804     21.91025    9102.4781    1754.4061    2474.3132    1918.3673   -342.31578     83.79349    82.629267   -4399.7199 
44333000     19.44343    -4705.693   -4672.3676    -4705.693            0    2098.7632    17.810397    23.356179    21.881081    9102.1538    2307.8073    1880.7439    2107.7383   -252.26882   -126.37107     60.14578   -4393.7661 
44334000      21.2675   -4703.8406   -4667.3888   -4703.8406            0     1985.011    17.918431     23.28567    21.830581    9108.6501    1744.3482    1777.5933    2433.0916   -87.633013   -5.0341001    33.048898   -4403.6993 
44335000     19.58057   -4704.6145    -4671.054   -4704.6145            0    2002.5541    17.827404    23.407754    21.824928    9107.5312    2198.3079     1772.959    2036.3952   -145.05062   -107.16182    288.83341   -4405.0668 
44336000    20.836601   -4706.3381   -4670.6249   -4706.3381            0    2089.0515    17.970853    23.135318    21.894916    9103.0604    1923.3045    2499.4168    1844.4333    -186.6257    129.64724   -291.39043   -4393.2849 
44337000    19.174992   -4705.1036   -4672.2384   -4705.1036            0    2006.7338    17.863488    23.217689    21.956717    9106.5243    2228.2582    2004.8145    1787.1288   -230.49717   -92.666428    -21.95711   -4405.7254 
44338000    20.724109   -4703.9395   -4668.4191   -4703.9395            0    1960.2639     17.93025    23.170053    21.920355    9106.6981    1971.6228    2258.6469    1650.5219    37.330403   -4.9839447   -329.07171   -4408.0729 
44339000     18.96405   -4706.0872   -4673.5834   -4706.0872            0     1850.782    17.915637    23.233293    21.890504    9111.6868    1580.8915    2081.5003    1889.9542   -334.50674    222.87381    119.92826    -4427.643 
44340000    21.120211   -4707.2364   -4671.0371   -4707.2364            0    1599.8126    17.938903     23.26479    21.862793    9124.3236    1553.6675    1644.3172    1601.4531    329.72658   -67.821335    121.25746   -4458.1518 
44341000    19.529757   -4706.3346   -4672.8613   -4706.3346            0    1947.1171    17.883459    23.248076    21.895235    9103.0754    2320.6182    1586.0887    1934.6442   -52.590289   -272.31821   -55.284979   -4414.3639 
44342000    20.553282   -4704.1573   -4668.9297   -4704.1573            0    2223.6813    17.844874    23.292267    21.895193    9100.6838    2195.1099    2347.0791    2128.8549    25.340242     228.7715   -78.701488   -4373.7935 
44343000    19.788492   -4706.1326   -4672.2158   -4706.1326            0    2104.4951    17.850852    23.254129    21.913189    9096.2967    2254.9026    2303.6207    1754.9621   -37.063346   -269.05936    104.67594   -4393.0331 
44344000    20.111789   -4705.8186   -4671.3477   -4705.8186            0    1919.6087    17.863154    23.302821    21.864878    9101.5153    2133.9464    1841.6266    1783.2531    290.69644    187.60026    151.68981    -4416.546 
44345000    19.909557   -4706.2973    -4672.173   -4706.2973            0    1869.4068    17.886683    23.169716    21.991079    9113.7488    1744.4921    2448.9031    1414.8253    -203.5859   -187.38211    61.609249   -4423.7014 
44346000    19.967874   -4703.7505   -4669.5263   -4703.7505            0    1987.5285    17.881219    23.221194    21.926136    9104.2417    1967.0936    2161.3081    1834.1837     344.0016    194.21099    77.241453   -4405.6301 
44347000    20.031243    -4705.217   -4670.8842    -4705.217            0    1859.8531    17.927004    23.261609    21.847145    9110.4987    2021.4993    1597.7866    1960.2732   -25.126083   -281.98627    4.7880518   -4423.7705 
44348000    19.402467   -4706.3195   -4673.0644   -4706.3195            0    1880.5689    17.870684    23.270795    21.902211    9108.3637    2022.2525    1865.5608    1753.8933   -208.28835   -56.830227    74.155181   -4423.2568 
44349000    20.525307   -4704.8287    -4669.649   -4704.8287            0    1973.6466    17.853654    23.390555    21.801018    9104.2547    2017.3757    1737.7011    2165.8629    49.541306   -73.563592     449.0258   -4407.5957 
44350000    19.957561   -4706.6966     -4672.49   -4706.6966            0    2080.4551    17.840179    23.291613    21.909707    9104.0651    2624.2384    1709.7634    1907.3635     102.3151    129.59389    28.046943   -4396.2608 
44351000     20.28645   -4707.4093    -4672.639   -4707.4093            0    2062.3065    17.808669    23.323284    21.910133    9100.5193    2269.5815    2111.6722    1805.6658    62.979776   -117.82474   -11.999626   -4398.9261 
44352000    19.789281   -4703.4963   -4669.5782   -4703.4963            0    1913.6511    17.845303    23.304475    21.899694    9107.5445    2049.2894    2038.7862    1652.8779   -39.543078    222.82156    68.743426    -4415.399 
44353000    20.148338   -4704.1977   -4669.6642   -4704.1977            0     2006.331    17.832169    23.215698    21.984377      9101.23    2230.7039    2202.9587    1585.3304    41.758757   -63.226481    -32.08198   -4403.3596 
44354000    20.403533   -4706.0349   -4671.0639   -4706.0349            0    1815.0396    17.879874    23.265415    21.894613    9107.7801    1827.2266    1812.2349    1805.6572   -41.050047   -106.81726    44.681609   -4429.9765 
44355000    20.649184   -4704.5145   -4669.1225   -4704.5145            0    2025.1058    17.873062     23.29252    21.875526    9106.9706     2036.404    1961.7876    2077.1257   -459.72023    8.3550964    47.340143   -4400.1564 
44356000    19.721878    -4707.204   -4673.4014    -4707.204            0    1878.7472    17.958507    23.248863    21.802887    9103.0295    1664.1642    1749.7171    2222.3604   -139.89004   -96.269995    257.71958    -4423.982 
44357000    19.195841   -4705.2669   -4672.3659   -4705.2669            0    1853.7029     17.90766    23.350087    21.780105    9107.2513    1568.5257    1765.4638    2227.1191   -78.415161     33.14328    129.82232   -4426.1572 
44358000    19.794182    -4704.127   -4670.2004    -4704.127            0    2165.4226    17.849969    23.291065    21.878162    9095.7314    2132.4304    2072.7071    2291.1304   -359.71272   -136.17532    42.294406    -4382.953 
44359000    20.741267   -4706.6604   -4671.1106   -4706.6604            0    2119.3728    17.928521    23.185178    21.888601    9098.5653    1969.5852    2388.2565    2000.2766    59.187815    142.80162    62.141115   -4389.8842 
44360000    19.320011   -4704.3843   -4671.2705   -4704.3843            0    2032.2522    17.818112    23.365522    21.856243    9099.3982    2182.3491    1913.0634     2001.344   -207.76095   -98.703308    42.386577   -4401.5797 
44361000    20.035702   -4704.1464   -4669.8059   -4704.1464            0    1902.1752    17.865987    23.253299    21.923525    9107.9779    1922.6993    1830.5182    1953.3082    184.52046   -48.052281     16.94031    -4417.139 
44362000    20.112068   -4704.5886   -4670.1172   -4704.5886            0    2042.0145    17.844922    23.360629    21.839832      9104.34    2203.2087    1758.6129    2164.2219   -39.477165   -155.78889    175.25217   -4398.9837 
44363000    20.001108   -4704.7761   -4670.4949   -4704.7761            0    2192.5044    17.926851    23.238893     21.83694    9097.2728    1880.7309    2290.6768    2406.1055    245.70758    252.92518    300.40852   -4379.6057 
44364000    20.136056   -4702.7379   -4668.2253   -4702.7379            0    2158.1368    17.846443    23.274626    21.895189    9094.5889    2013.0374    2312.2664    2149.1067    19.655904   -135.51584    -123.4287   -4381.9803 
44365000    21.400286   -4705.8793   -4669.1999   -4705.8793            0    2114.4567    17.843753    23.248493    21.929517    9097.2488    2163.0363    2125.1275    2055.2062   -81.785977    226.82447    342.46998   -4388.6664 
44366000    19.738183   -4706.5499   -4672.7193   -4706.5499            0    2125.0818    17.971791    23.205043    21.819029     9099.324    2083.6649    2138.8429    2152.7377   -152.55875   -390.14709    33.463988   -4390.7118 
44367000     18.89354    -4706.099   -4673.7161    -4706.099            0    1988.1708     17.90574    23.255537    21.855061    9100.6134    1797.4792    1992.4905    2174.5428   -107.41103    118.75395    180.18356   -4409.8399 
44368000     20.52524   -4708.7523   -4673.5727   -4708.7523            0    1806.6827     17.86705     23.27807    21.920394    9116.9204    1803.1413    2193.5326    1423.3742    168.62899   -265.27603   -243.75059   -4433.3545 
44369000    20.324553   -4705.0996    -4670.264   -4705.0996            0    1824.9857    17.857192    23.332137    21.870784    9112.3846    2005.9048    1470.3499    1998.7025   -12.259028    165.04671    212.24877   -4427.7329 
44370000      19.3777    -4706.179   -4672.9663    -4706.179            0    1899.5616    17.837495    23.260103    21.938469     9102.314    1950.9929    1903.9619    1843.7299    12.666944   -129.42448    113.31576   -4420.8035 
44371000    20.286822    -4707.253    -4672.482    -4707.253            0    2006.7888    17.928833    23.200615    21.881467    9101.8141    1751.9955    2278.2043    1990.1665   -121.54811    62.034728     155.4439   -4406.0997 
44372000    20.767045   -4704.7404   -4669.1464   -4704.7404            0    1751.3697    17.910938    23.262091    21.895482    9122.6622    1979.2229    1685.3203     1589.566   -23.331781   -172.28867    238.83003    -4436.136 
44373000    19.151247   -4706.7497   -4673.9251   -4706.7497            0    1560.5128    17.922508     23.24955    21.903417    9126.9402    1560.2933    1942.0022    1179.2429    221.67172   -81.521656    122.75333   -4466.2098 
44374000    21.012096   -4705.1037   -4669.0896   -4705.1037            0    1909.0482    17.956052    23.236497    21.839861    9112.3707     1744.816    2100.6252    1881.7033    -204.6988   -235.65822    176.39326   -4415.3875 
44375000    20.137202    -4701.682   -4667.1675    -4701.682            0    2130.5985    17.882331    23.192419    21.944532    9101.1549    2242.6996    2315.6559    1833.4401    135.38216     77.09932   -78.771482   -4384.3711 
44376000    19.781806    -4704.597   -4670.6917    -4704.597            0    1994.1807     17.89565    23.231862    21.909423    9108.8262    2048.7145    1996.6531    1937.1747    181.14661    71.700008    74.929422    -4405.779 
44377000    20.978256   -4706.0933   -4670.1372   -4706.0933            0    1900.6223    17.853016    23.276408    21.917743    9108.0075    1954.9311     2253.134    1493.8018    -184.2063   -18.156565   -66.631305   -4417.6758 
44378000    20.272052   -4704.1765   -4669.4309   -4704.1765            0     2121.165    17.826051    23.328439    21.885001    9100.9639    2142.3944    1909.3613    2311.7392    157.19001    -12.94811    263.74301   -4387.8925 
44379000    19.980264   -4703.6492   -4669.4037   -4703.6492            0    1795.4605    17.868171    23.339816     21.84354    9109.6257    1947.3578    1361.7447    2077.2791   -416.40163   -162.54561   -194.57046   -4430.8686 
44380000    19.870937   -4707.3664   -4673.3083   -4707.3664            0    1871.1393    17.845474    23.327346     21.88406    9110.0616    2044.6016    1862.5408    1706.2753    277.65169   -88.517231    64.585344    -4424.707 
44381000    20.301494   -4708.7417   -4673.9457   -4708.7417            0    1802.3701     17.94951    23.215182     21.86483    9111.0997    1552.2143    1722.6884    2132.2077    -195.5431    158.90727    153.25537   -4434.4538 
44382000    19.443859   -4701.9061     -4668.58   -4701.9061            0    1904.7066     17.89404    23.223568    21.924866    9111.1726    1928.2691    1946.9031    1838.9476   -70.037691   -88.546218   -44.089684   -4415.4881 
44383000    19.231569   -4704.5128   -4671.5505   -4704.5128            0    1974.3519    17.928515    23.218202     21.86829    9103.0666    1907.5428    2261.6321    1753.8807    244.60497    90.152541    57.020503   -4409.4377 
44384000    20.036339   -4706.7715   -4672.4299   -4706.7715            0    1979.5198     17.93417    23.208846    21.876281    9105.5949    1789.9287      2483.53    1665.1008    99.666528    -170.8849    172.14742   -4409.5581 
44385000    18.256714   -4704.7654   -4673.4741   -4704.7654            0     1952.721    17.859032    23.316815    21.855075    9100.7973    2201.7154    1836.2861    1820.1615   -494.40349    74.952089    40.409936   -4414.2976 
44386000    20.023017   -4704.1375   -4669.8188   -4704.1375            0    2036.6225    17.841919    23.300261    21.884482    9097.8469    2314.1112    1772.6154    2023.1408    143.97524   -257.90743    262.34558   -4399.5941 
44387000    20.018997   -4705.9057   -4671.5938   -4705.9057            0    2159.1822    17.811833     23.36776    21.858042     9097.812    2282.5602    1717.6974    2477.2891    -357.2234    61.894469   -17.817947   -4385.1086 
44388000    20.545691   -4705.3852   -4670.1706   -4705.3852            0    2141.0803     17.81188    23.332691    21.886156    9095.8667    2138.8215    2227.8732    2056.5461    153.53138   -140.93573   -27.642528    -4386.148 
44389000    19.119271   -4707.0104   -4674.2406   -4707.0104            0    2032.9365    17.857266    23.275759     21.90181    9103.2995     2255.614     1938.642    1904.5535    199.84606  -0.16490383    60.800259   -4404.3433 
44390000    19.397443   -4704.1162   -4670.8696   -4704.1162            0    2088.7245    17.884799    23.224135    21.925472    9106.9419    2151.0743    2089.6175    2025.4818    20.525825     149.0509   -137.26464   -4393.4548 
44391000    20.539217   -4707.9211   -4672.7176   -4707.9211            0    2163.6947    17.935962    23.239865    21.819811    9095.1368    1929.7367    2331.9178    2229.4297    443.76399   -85.922201    47.307729   -4385.7181 
44392000    19.930136   -4706.4223   -4672.2628   -4706.4223            0    2020.0699    17.883956    23.278407    21.855792    9098.7851    2068.0881    2249.6584    1742.4631   -472.27291    129.70483   -30.268781   -4404.2067 
44393000    20.153672     -4707.59   -4673.0473     -4707.59            0    1885.5878    17.918286    23.203214    21.917514    9112.4654    2318.4087    1707.1871    1631.1675    114.10675   -24.908254    242.92056   -4422.4603 
44394000    18.707454   -4704.0062   -4671.9423   -4704.0062            0    2003.9879     17.86154    23.292313    21.873096    9100.0082    1807.5931    2305.0073    1899.3634    290.73444    196.90343   -80.025648   -4405.9845 
44395000    20.065077   -4703.6353   -4669.2444   -4703.6353            0    2148.5115    17.837827    23.300509    21.869483    9089.6231    2666.0482    1684.3939    2095.0923   -395.97177    -237.7254     225.0388   -4384.4317 
44396000    19.228675   -4705.8229   -4672.8656   -4705.8229            0     2131.828    17.873864    23.275645    21.866472    9097.0145    2074.5735    2241.5129    2079.3976    153.62333   -201.40132     10.31057   -4390.0347 
44397000    19.097137   -4706.9655   -4674.2337   -4706.9655            0    1852.2786    17.862242    23.251427    21.945519    9114.4706     2272.976    1850.1937    1433.6661    127.92719    -270.4006    304.77572   -4428.0192 
44398000     19.30352   -4707.8733   -4674.7877   -4707.8733            0    1912.4587    17.957257     23.20805    21.841827    9102.6449    1481.8785    2087.4203    2168.0773   -502.13518    263.39912   -177.25506   -4420.9036 
44399000    20.458432   -4703.4943   -4668.4292   -4703.4943            0    2006.0531    17.847367    23.385707    21.828133    9110.4801    2221.8114    1856.4121    1939.9358    108.63226    -158.9741    148.22294   -4401.8909 
44400000    19.607326   -4705.2661   -4671.6598   -4705.2661            0    2122.6655    17.840975    23.254441    21.919398    9093.9619    2314.7922    2276.8602     1776.344   -433.08482    315.69304      44.8993    -4390.139 
44401000    20.975846   -4705.4284   -4669.4766   -4705.4284            0    1979.5509     17.89479    23.325532    21.802636      9100.54    2151.0761    1801.6911    1985.8856    27.462692   -267.38813    63.354998   -4406.7465 
44402000    19.323772   -4707.4126   -4674.2923   -4707.4126            0    1902.3917    17.902312    23.275669    21.863479    9110.2556    2154.0811    1907.9247    1645.1691   -495.36081    147.30132    100.18403   -4421.5335 
44403000    20.456932   -4705.5657   -4670.5032   -4705.5657            0    1886.2062    17.845846    23.238636    21.966806    9109.9229    2454.6924     1834.954    1368.9722    173.78524    -198.9521     173.9735    -4419.904 
44404000    19.485031   -4705.6386   -4672.2419   -4705.6386            0    1915.2848     17.88323    23.267507    21.881588    9104.8893    1840.2754     2089.092    1816.4868    97.104464    64.019275    48.052193   -4417.9199 
44405000    19.489838   -4704.3502   -4670.9453   -4704.3502            0    1971.0948    17.868806    23.214094    21.928188    9095.9906    1797.1631    1953.6465    2162.4749    255.90084   -186.42511   -38.956083   -4409.4683 
44406000    18.430345   -4706.4596   -4674.8706   -4706.4596            0    1975.3658    17.881752    23.282332    21.860966    9101.3514    1773.7628    1888.5842    2263.7504    -115.4779    75.739693   -84.567256   -4412.6726 
44407000    19.245092   -4705.5773   -4672.5919   -4705.5773            0    2070.4729    17.924785    23.206554    21.866267    9095.7655    1967.1115    2125.2481    2119.0591    87.296776   -30.608297   -25.087305   -4397.9387 
44408000    20.053482    -4706.917    -4672.546    -4706.917            0    1991.7683    17.895019    23.274982    21.863229    9106.1714     2278.575    1717.3002    1979.4297   -299.39056   -117.10897    13.163188   -4408.0308 
44409000    19.301223   -4705.0891   -4672.0074   -4705.0891            0    1957.2214    17.925728    23.231185    21.863986    9104.9491     1718.315     2186.951    1966.3981     71.72387   -94.781811    204.14355   -4412.1152 
44410000    21.669526   -4706.3827   -4669.2419   -4706.3827            0    1843.9291     17.92906     23.24551    21.853539    9107.9025    1703.9082     1695.685    2132.1941   -251.94458   -45.757905    110.77642   -4424.3138 
44411000    18.759794   -4705.1457    -4672.992   -4705.1457            0    2048.4482    17.850068    23.254187    21.915392    9096.8341    1934.1999    1880.2866    2330.8583    154.75229    209.64932    106.98152   -4401.2285 
44412000    19.812621   -4705.9577   -4671.9995   -4705.9577            0    2047.9288    17.913103    23.329531    21.775591    9100.1131    1818.8742    1881.8341     2443.078   -262.89335    129.36581    48.106124    -4400.207 
44413000    19.985012   -4705.7724   -4671.5188   -4705.7724            0    2040.5939    17.911412    23.199984      21.8952    9098.4293    1963.8987    2026.2188    2131.6642   -111.57107   -107.95117    199.31784   -4400.7498 
44414000    19.901202   -4707.3818   -4673.2718   -4707.3818            0    1973.4745    17.853825    23.208772     21.95783     9098.564    2367.7112    2185.6978    1367.0145    3.0990266   -144.91556    95.406108   -4411.4051 
44415000    19.555386   -4704.8265   -4671.3092   -4704.8265            0    1909.8117    17.912925    23.212944    21.901121    9106.7431    1702.9726     2191.962    1834.5006   -277.09272   -294.81088    150.91848   -4417.6623 
44416000    20.771414   -4706.4647   -4670.8632   -4706.4647            0    1808.0294    17.921999    23.251325    21.860882    9109.6532    1847.4739     1737.863    1838.7512    138.52204    277.98331    73.095868   -4430.6576 
44417000    19.683253   -4707.4983   -4673.7619   -4707.4983            0    1853.2577    17.905103    23.268618      21.8444     9100.967    1624.9833    2066.5899    1868.1998   -67.833486   -217.78106    25.479954   -4427.7822 
44418000    21.082677   -4704.7783   -4668.6433   -4704.7783            0    1901.9774    17.911507    23.250189    21.861456    9104.1141    1660.2411    2168.1966    1877.4944   -45.667008    143.49952      66.4113   -4416.1098 
44419000    20.842541   -4704.9968   -4669.2734   -4704.9968            0    1950.3026    17.919401    23.256442    21.850579    9106.0434    2322.0572    1764.2979    1764.5528    70.437819   -272.01578    14.130071   -4410.2687 
44420000    20.024689    -4705.217   -4670.8953    -4705.217            0    2162.2657    17.867705    23.190068    21.946212    9093.4855    2353.5522    2143.6634    1989.5816      153.562    204.17773    177.09453   -4384.1375 
44421000    19.914433   -4705.5012   -4671.3685   -4705.5012            0    1960.5898    17.846416    23.264528    21.918407    9100.2697    2205.7936    2089.8973    1586.0785    407.80224   -77.889613   -188.07641   -4411.1628 
44422000    19.826676   -4706.0453   -4672.0631   -4706.0453            0    1946.3023    17.815958    23.368292    21.865409    9103.1933      2456.74    1439.1836    1942.9834     99.36894    79.287647    159.00628   -4413.6705 
44423000    20.142387    -4706.881   -4672.3576    -4706.881            0    1943.7466    17.875459    23.335944    21.838853    9109.8746    2056.9233    1695.1467    2079.1697    209.32286   -163.63953    5.9978403    -4414.115 
44424000    19.882086   -4707.0039   -4672.9267   -4707.0039            0    1978.5445    17.883535    23.274718    21.877632    9106.2193    1974.9977    1746.7936    2213.8422    129.61706    52.342474    50.625565   -4410.1664 
44425000    20.661026   -4705.2314   -4669.8191   -4705.2314            0     1918.653    17.962507    23.104414    21.950588    9109.7836    1869.0135     2303.533    1583.4124   -167.70823    17.689591     299.6161   -4414.9129 
44426000    19.802584   -4705.7319   -4671.7909   -4705.7319            0    1958.7376    17.891379    23.318335    21.815947    9101.5511    1967.0913    1792.6432    2116.4782    52.469871    -148.7995   -225.24489   -4411.7944 
44427000    20.970729    -4703.907   -4667.9639    -4703.907            0    2153.5042    17.928309    23.176389    21.883523    9092.8984    2114.3365    2301.7055    2044.4705    80.199642    138.62113    200.11424   -4382.3864 
44428000    20.380808   -4704.1369   -4669.2049   -4704.1369            0    2109.7806    17.877869    23.270538    21.868917    9098.0735    1834.1308    2107.2843    2387.9267   -66.002561   -7.3249109    26.013066   -4389.2664 
44429000    19.077089   -4703.3239   -4670.6264   -4703.3239            0    2086.9576    17.848726    23.302162    21.878782    9099.6895    2190.2558    2063.2649    2007.3521   -22.810305    270.03259   -158.53459    -4393.667 
44430000    19.546751   -4704.8215   -4671.3191   -4704.8215            0    1892.4661    17.822871    23.346546    21.884498    9106.1937    1877.2618    2046.3309    1753.8056    15.545943   -324.14186     314.2571   -4419.9911 
44431000    20.128867   -4704.5233   -4670.0231   -4704.5233            0    1824.8448    17.845161    23.285313    21.909741    9104.1582    2089.7947    1743.7777    1640.9621   -331.78366    296.30893   -126.06997   -4427.7297 
44432000    21.776863   -4705.5805   -4668.2557   -4705.5805            0    1936.2766    17.948696    23.227265    21.857689    9112.4508    1827.0314    2162.7075    1819.0908    110.57098   -137.97938    157.11087   -4410.9328 
44433000    19.327445   -4704.9074   -4671.7808   -4704.9074            0     2006.998    17.948556     23.12061    21.939279    9104.3967     1952.756    2292.7491     1775.489   -79.179867    18.845953    113.56462   -4405.2951 
44434000    19.809176   -4707.0071   -4673.0548   -4707.0071            0    2003.1276    17.894508    23.275594     21.85189    9101.4284    1950.2601      2006.34    2052.7827    144.00305    -43.74747    269.49354   -4407.1697 
44435000    21.154973   -4706.1837   -4669.9248   -4706.1837            0    1852.3732    17.873139    23.292629    21.893877    9114.6925    2232.9835    1826.0654    1498.0706    11.647795    -27.17125     158.8092   -4423.6917 
44436000    20.099189   -4703.5582   -4669.1089   -4703.5582            0    1876.8395    17.898708    23.274502    21.876066    9113.2087    1849.4869    1821.8841    1959.1477   -249.59262   -216.42037   -26.650687   -4419.6642 
44437000    19.648877   -4705.7403   -4672.0628   -4705.7403            0    1694.9399    17.921498    23.280173    21.843347     9113.384    1369.8242    1565.7568    2149.2388   -23.236516    81.568693    126.13775   -4446.7894 
44438000    20.931439   -4704.1794   -4668.3036   -4704.1794            0    1860.9597    17.864086    23.246789    21.939445    9111.0703    1724.1173    1795.3099     2063.452    200.03116   -211.10798    55.346956   -4421.0274 
44439000    19.473133   -4707.1981   -4673.8218   -4707.1981            0    1930.2017    17.909411    23.270791    21.856485    9109.0433    1736.6271    1834.1837    2219.7944    67.967657    117.96546    65.558232   -4417.4021 
44440000    20.672745   -4703.7715   -4668.3391   -4703.7715            0    1931.2739    17.904768    23.239039    21.888533    9107.5911    2266.4213    1873.6365    1653.7638    233.39135   -99.098739    121.72768   -4411.8179 
44441000    19.556039   -4704.2577   -4670.7393   -4704.2577            0    1912.4978    17.968998    23.130614    21.904489    9104.2492    1807.5456    2157.5779    1772.3699   -5.6677751    366.07917    107.05861   -4416.8053 
44442000    19.864856   -4704.3743   -4670.3266   -4704.3743            0    1870.2663    17.987787     23.06917    21.974318    9118.5361    1655.0557    2462.3864    1493.3568   -11.305229   -341.24477    60.256899   -4421.6102 
44443000    20.523881        -4706   -4670.8228        -4706            0      1970.82    17.919549    23.211825    21.891741    9105.7697    1848.6285    2156.2528    1907.5787    49.420117    182.48654    211.92798   -4409.1012 
44444000    21.348448    -4705.345   -4668.7545    -4705.345            0    2021.6162     17.86741    23.310078    21.849869    9100.2679    2172.1781    1908.2352    1984.4355   -234.81188   -334.91367   -31.884827   -4400.4495 
44445000     19.93816   -4705.2334   -4671.0601   -4705.2334            0    2048.2243    17.835901    23.284453    21.909032    9098.8036    2363.7199    1831.2617    1949.6911   -29.356716    173.26523    123.62167   -4399.2674 
44446000    19.699809   -4704.2462   -4670.4814   -4704.2462            0    1877.1199    17.825888    23.255553    21.977691    9110.8711    2155.8215    1927.0124    1548.5257   -102.87735   -121.02079    174.48162   -4421.0634 
44447000     20.03515   -4703.9891   -4669.6495   -4703.9891            0    2001.5675    17.829012    23.235169    21.974804    9103.2849    1988.2247    2268.4098    1748.0681   -87.005855    120.76696    26.686948   -4403.9173 
44448000    19.798345   -4703.7795   -4669.8458   -4703.7795            0    2056.0085    17.857065    23.297631      21.8718    9099.2662    1986.5586    1868.1395    2313.3275    151.79827   -40.792988    81.701982   -4397.0064 
44449000    20.216979   -4703.0541   -4668.4029   -4703.0541            0    1959.4354    17.910303     23.19514    21.913072    9103.3905    1850.5932    2028.8829    1998.8301   -479.18825    152.16305   -117.41243   -4408.2612 
44450000    19.496699   -4704.7945   -4671.3779   -4704.7945            0    1953.8253    17.906805    23.257392    21.877021    9111.0266    1820.3565    1891.3305    2149.7891    214.68571   -190.91775    152.50687   -4411.7634 
44451000    20.856691   -4706.6582   -4670.9106   -4706.6582            0    1748.3028    17.906983    23.219802     21.92517    9116.4109    1816.7301    1896.2201    1531.9582   -14.849676   -23.285036   -16.880219   -4438.4676 
44452000    20.291285   -4705.1887   -4670.4101   -4705.1887            0    1877.6782    17.899558    23.249732    21.892858    9110.9299     1909.661      2029.66    1693.7136     142.5844   -84.496484    324.94699   -4420.9163 
44453000    19.483461   -4705.1915   -4671.7975   -4705.1915            0    1962.1241    17.867669    23.268468    21.892288    9101.7906    1958.0396    2138.3071    1790.0256   -68.060629    50.304065    148.95853   -4411.3446 
44454000    19.428512   -4705.8105   -4672.5107   -4705.8105            0    1872.8922    17.893371    23.192379    21.953578    9110.5123    2128.1365    2013.8133    1476.7267   -161.46789    -36.30658    193.87501   -4423.6643 
44455000    19.673992   -4706.1584   -4672.4378   -4706.1584            0    2106.0024    17.827496    23.313612    21.879428    9093.6005    1975.6018     2227.159    2115.2465    310.46582    43.056167    69.469986    -4393.138 
44456000    20.060714   -4707.2123   -4672.8289   -4707.2123            0    1829.9818    17.843181    23.263341    21.944816    9109.1175    1955.4117    2057.3003    1477.2333    28.241021   -274.73893   -67.608665   -4429.7211 
44457000    19.399019    -4705.319   -4672.0697    -4705.319            0    1822.6659    17.918003    23.371435    21.750989    9108.6491    1618.7261    1604.4739    2244.7976    234.34779    177.61713    43.091388   -4429.9463 
44458000    20.354866   -4704.7087   -4669.8212   -4704.7087            0    1900.9229    17.855803    23.284615    21.896442     9103.785     2213.796    1846.3297    1642.6431    130.32342   -95.543889    177.63618   -4417.4369 
44459000    19.880992   -4705.1728   -4671.0974   -4705.1728            0    1879.9542     17.89356    23.283433    21.876648    9114.3254    1668.0585    1803.4955    2168.3086    9.3325593   -147.73614    263.57111   -4421.2081 
44460000    21.824937   -4706.4264   -4669.0192   -4706.4264            0    1863.0756    17.872923    23.239728    21.927927    9108.0243    2050.1664    1801.4283     1737.632   -36.394992    78.363954    125.95077   -4421.5447 
44461000    20.390122   -4706.7875   -4671.8395   -4706.7875            0    1910.4169    17.886029    23.281019    21.854327    9100.2507    1697.6649    2039.1314    1994.4544    208.13482   -6.6834035    243.97722   -4418.2932 
44462000    20.107314   -4704.5655   -4670.1023   -4704.5655            0    1837.2849    17.946347    23.230616    21.856316    9112.0007    1595.0093     1940.277    1976.5682    261.13931   -131.51038    52.108492    -4425.947 
44463000    20.922034   -4705.0598   -4669.2002   -4705.0598            0    1815.9524    17.854994     23.29723    21.901477    9110.3993    1934.9781    1639.6587    1873.2205   -205.62119   -293.64665     120.3009   -4427.9222 
44464000      19.7283   -4705.1572   -4671.3436   -4705.1572            0    1838.0209    17.928584    23.209341    21.901249    9113.3421    1411.6045     2133.588    1968.8703   -147.21082    342.06019    69.358515   -4427.0545 
44465000    20.011886   -4709.4949   -4675.1952   -4709.4949            0    1846.3865    17.870287    23.292148    21.878601    9106.6914    2055.9694    1442.7738    2040.4165    131.88507   -120.90198    202.14139   -4429.9733 
44466000    19.306833    -4704.992   -4671.9007    -4704.992            0    1835.9713      17.9361    23.298992    21.791945    9106.7024    1554.7481    1990.2706    1962.8952   -489.70796    90.594085     190.7172   -4428.0618 
44467000    20.020287   -4707.6092   -4673.2951   -4707.6092            0    1935.4873    17.937463     23.18791    21.896183    9107.3291     1705.281    2265.8889    1835.2921    28.724574    119.52257    74.840812   -4416.2216 
44468000    19.572313   -4704.1463      -4670.6   -4704.1463            0    1875.0429    17.881453    23.352806      21.8024    9104.2918    1920.1309    1612.9149    2092.0829   -136.23895   -79.705048    230.37287   -4421.6379 
44469000    21.172823    -4706.515   -4670.2255    -4706.515            0    1914.3722    17.919605    23.213738    21.894974    9107.8932    1773.0676    2135.4668    1834.5822   -115.65626   -36.669397   -82.770577   -4415.9408 
44470000    18.606479   -4704.5288    -4672.638   -4704.5288            0    1872.7685    17.836858    23.358191    21.868149    9111.0744    2042.3492     1669.883    1906.0733   -181.99269   -92.054787    94.578357   -4423.7926 
44471000    20.630866    -4706.378   -4671.0174    -4706.378            0    1981.7722    17.937215    23.272474    21.809957    9104.4219    1938.8202    1751.2464    2255.2499   -108.08982    12.698457     198.4166   -4407.8804 
44472000    19.329172   -4705.0322   -4671.9026   -4705.0322            0    2117.3823    17.815959    23.333279    21.875032    9093.5547    2374.6664    2060.1628    1917.3177    154.07169    68.000799    88.978952    -4391.095 
44473000    19.232743   -4704.7596   -4671.7954   -4704.7596            0    2132.9614    17.865389    23.319917    21.824498    9092.5088    2258.3285    2050.0024    2090.5532    113.45229    357.61147    367.93527   -4388.9542 
44474000    20.431475   -4706.9975   -4671.9787   -4706.9975            0    1962.0121    17.882696    23.330286    21.825474    9105.7711    1985.6217    1948.3263    1952.0882   -133.91956    160.29072   -112.80806   -4411.4268 
44475000     19.76358   -4706.2253   -4672.3512   -4706.2253            0    1883.6552    17.861697    23.241587    21.924958    9101.7995    1761.4346    2026.4123    1863.1186   -276.21692   -47.474406    16.994031   -4422.3141 
44476000    20.016456   -4704.7767   -4670.4692   -4704.7767            0     1867.987    17.924788    23.152956    21.949145    9109.1551    1982.1903    1987.1642    1634.6065   -2.2167706    87.407361   -36.006912   -4422.3114 
44477000    20.606136   -4701.4462    -4666.128   -4701.4462            0    2004.6318    17.902785    23.195544    21.917937    9101.7483    2002.6133    2247.4495    1763.8325    100.53168    6.5028445     299.6045   -4400.0338 
44478000     21.16765   -4704.8004   -4668.5198   -4704.8004            0    2011.9364    17.912104    23.233822    21.861616    9098.0754     1898.956    1678.6948    2458.1583   -435.70738   -213.43443    67.081068   -4401.5638 
44479000    21.450934   -4705.6705   -4668.9044   -4705.6705            0    2214.7502    17.875395    23.276905    21.857358    9094.4941    1963.3365     2083.471    2597.4432      -158.14    90.788551    273.86991   -4375.1535 
44480000    20.430633    -4702.449   -4667.4316    -4702.449            0    2296.8428    17.825603    23.272354    21.893836    9082.5207    2448.4785    2121.7393    2320.3106    318.58712   -44.595765   -128.51226   -4363.1935 
44481000    20.979435   -4705.3497   -4669.3916   -4705.3497            0    2178.1033    17.857148    23.284425    21.883049    9098.8279     1927.596    2314.2784    2292.4355   -46.166001   -55.998993    104.74693   -4380.3637 
44482000    19.773253   -4704.9288   -4671.0381   -4704.9288            0      2003.96    17.926711    23.277879    21.815938    9103.6994    1698.2246    1852.3516    2461.3038    193.03991   -7.3188204   -5.1200981   -4404.9761 
44483000    19.673518   -4705.6691   -4671.9493   -4705.6691            0    1938.9984    17.928041    23.263451    21.820765    9100.7452     1690.286    2065.3327    2061.3764   -79.389187    39.642812     205.0882   -4414.5957 
44484000    20.076679   -4703.7723   -4669.3616   -4703.7723            0    1917.7194    17.913014      23.2899    21.835309    9109.5226    1879.1941    2024.9913    1848.9729   -77.121695   -109.95893   -148.28867   -4414.5867 
44485000    19.943614   -4706.4362   -4672.2535   -4706.4362            0    2083.0992     17.95811    23.159784    21.879205    9099.6916    1818.2906    2242.8135    2188.1937   -43.315026    40.402598    -11.11135   -4395.8061 
44486000    20.202181   -4705.9224   -4671.2965   -4705.9224            0    1730.7199    17.944468    23.176906    21.918371    9115.7907    1526.1337    1934.3646    1731.6613    27.836299    210.79612     106.0751   -4441.2069 
44487000    20.746807   -4706.4451   -4670.8858   -4706.4451            0    1941.6656    17.905268    23.176578    21.921379    9096.9963    1812.7383     2253.028    1759.2306   -15.172188   -131.31981    153.38031   -4413.2843 
44488000    20.695288   -4705.0009   -4669.5299   -4705.0009            0    2134.0664    17.894189    23.283641    21.835939    9097.7668     2205.323    1999.6334    2197.2428    90.106149     48.30707    109.94357   -4386.3786 
44489000    20.303823   -4705.8745   -4671.0744   -4705.8745            0    1880.7405    17.860975    23.280434    21.907704    9109.4695    2121.9801    2004.9071    1515.3344   -49.603643   -297.72531    14.254358   -4421.2138 
44490000    19.839002   -4704.9167   -4670.9133   -4704.9167            0    2084.8983    17.911781    23.247467    21.848889    9097.9546    2047.6933    2014.8704    2192.1311     46.52308    80.090186    191.18614     -4394.28 
44491000    19.427644   -4706.7136   -4673.4153   -4706.7136            0    2024.1559    17.851186    23.363056    21.822459    9101.2364    2265.4153    1797.6878    2009.3644   -78.377763   -147.65018   -88.727219   -4404.7446 
44492000    19.747745   -4705.8374   -4671.9905   -4705.8374            0    1788.9278    17.890891    23.318966    21.847485    9114.7067    2008.6203    1555.9084    1802.2548   -10.195123   -49.364673    9.0941728   -4434.1907 
44493000    20.172586   -4703.7113   -4669.1362   -4703.7113            0    2003.8088    17.892994    23.232475     21.90581     9106.213    2123.5964    1923.1855    1964.6446      -159.19   -62.891003    16.454995   -4403.0208 
44494000    19.507363   -4703.5534   -4670.1184   -4703.5534            0    1902.0742    17.908914    23.291796    21.827828     9105.059    1589.2267    1891.0897    2225.9062    136.33404   -50.915389    84.279474   -4417.5459 
44495000    20.686563   -4704.5979   -4669.1418   -4704.5979            0    1989.1549    17.924586    23.270293    21.829321    9105.2357    1550.2848    2357.1439    2060.0359    221.99658    109.23812   -13.307812   -4405.0009 
44496000    19.479069   -4705.2679   -4671.8814   -4705.2679            0    1934.1895    17.877885    23.237138    21.924244    9108.0081    2635.1762    1690.3672    1477.0251    -166.2324   -289.49538    229.17593   -4414.9612 
44497000    20.310481   -4706.4062   -4671.5947   -4706.4062            0    1803.4689    17.816684    23.279159    21.955369    9106.1519    1810.8126    2049.4582    1550.1358   -41.136636   -157.41348    -100.7007   -4432.0871 
44498000    20.560359   -4704.0886   -4668.8488   -4704.0886            0    2046.3735    17.866362    23.178913    21.975679    9100.6306    1857.3444    2325.6924    1956.0837   -379.11046    -237.4623    79.677927   -4397.2473 
44499000    20.269637   -4708.1494   -4673.4079   -4708.1494            0    2009.9671    17.937238     23.19697    21.869779    9099.7871    1964.3294    2082.9201     1982.652    72.950915   -66.626108    63.395366   -4406.6631 
44500000     21.64157   -4705.2531   -4668.1602   -4705.2531            0    2019.5066    17.888229    23.257201    21.870781    9098.9038    1850.1432    1891.6449    2316.7318    291.20726   -11.097871    286.09557   -4400.1753 
Loop time of 354.49 on 64 procs for 250000 steps with 864 atoms

Performance: 121.865 ns/day, 0.197 hours/ns, 705.239 timesteps/s
383.8% CPU use with 16 MPI tasks x 4 OpenMP threads

MPI task timing breakdown:
Section |  min time  |  avg time  |  max time  |%varavg| %total
---------------------------------------------------------------
Pair    | 24.1       | 26.377     | 29.079     |  28.4 |  7.44
Bond    | 1.4412     | 1.7645     | 2.1198     |  15.7 |  0.50
Kspace  | 190.09     | 196.18     | 201.69     |  22.5 | 55.34
Neigh   | 0.06431    | 0.072905   | 0.084295   |   2.1 |  0.02
Comm    | 44.049     | 49.224     | 53.552     |  39.9 | 13.89
Output  | 0.47096    | 0.47134    | 0.47284    |   0.1 |  0.13
Modify  | 56.045     | 62.566     | 69.192     |  52.8 | 17.65
Other   |            | 17.83      |            |       |  5.03

Nlocal:        54.0000 ave          60 max          48 min
Histogram: 6 0 1 1 0 0 1 1 0 6
Nghost:        2598.50 ave        2628 max        2576 min
Histogram: 6 0 2 0 0 1 1 2 2 2
Neighs:        13356.9 ave       15066 max       11861 min
Histogram: 5 1 2 0 0 1 0 2 3 2

Total # of neighbors = 213710
Ave neighs/atom = 247.34954
Ave special neighs/atom = 2.0000000
Neighbor list builds = 250
Dangerous builds = 0

unfix		3
unfix		2
unfix		1

write_data	data.final.${pid} nocoeff
write_data	data.final.1 nocoeff
System init for write_data ...
PPPM initialization ...
  extracting TIP4P info from pair style
  using 12-bit tables for long-range coulomb (../kspace.cpp:340)
  G vector (1/distance) = 0.37223123
  grid = 24 27 25
  stencil order = 5
  estimated absolute RMS force accuracy = 0.0030993458
  estimated relative force accuracy = 9.3335878e-06
  using double precision FFTW3
  3d grid and FFT values/proc = 6300 1296
Last active /omp style is kspace_style pppm/tip4p/omp

write_restart   restart.lmp.${pid}
write_restart   restart.lmp.1
System init for write_restart ...
PPPM initialization ...
  extracting TIP4P info from pair style
  using 12-bit tables for long-range coulomb (../kspace.cpp:340)
  G vector (1/distance) = 0.37223123
  grid = 24 27 25
  stencil order = 5
  estimated absolute RMS force accuracy = 0.0030993458
  estimated relative force accuracy = 9.3335878e-06
  using double precision FFTW3
  3d grid and FFT values/proc = 6300 1296
Last active /omp style is kspace_style pppm/tip4p/omp
Total wall time: 0:05:54
