LAMMPS (30 Jul 2021)
Processor partition = 0
  using 2 OpenMP thread(s) per MPI task
using multi-threaded neighbor list subroutines
variable        pid world 0 1
variable        phase world IceVI Liquid

shell cd ${phase}
shell cd IceVI
include Restart.lmp
echo both
log log.lammps
#include		in.partitions
include		in.temp
variable        temperature equal 264.66
variable	tempDamp equal 100.0
include		in.pressure
variable        pressure equal 8500.0
variable        pressureDamp equal 1000.0 # This is 1 ps
include		in.seed
variable        seed equal 745823

units		real
atom_style	full
read_restart	restart.lmp.${pid}
read_restart	restart.lmp.0
Reading restart file ...
  restart file = 30 Jul 2021, LAMMPS = 30 Jul 2021
  restoring atom style full from restart
  orthogonal box = (-0.15925181 -0.093245176 -0.11233440) to (24.889253 24.823246 22.922334)
  4 by 4 by 2 MPI processor grid
  restoring pair style lj/cut/tip4p/long/omp from restart
  restoring bond style harmonic/omp from restart
  restoring angle style harmonic/omp from restart
  1920 atoms
  1280 bonds
  640 angles
Finding 1-2 1-3 1-4 neighbors ...
  special bond factors lj:    0        0        0       
  special bond factors coul:  0        0        0       
     2 = max # of 1-2 neighbors
     1 = max # of 1-3 neighbors
     1 = max # of 1-4 neighbors
     2 = max # of special neighbors
  special bonds CPU = 0.003 seconds
  read_restart CPU = 0.010 seconds
include 	in.setup
variable	out_freq equal 1000
variable	out_freq2 equal 10000
variable	out_freq3 equal 1000

timestep	2.0

neigh_modify    delay 7 every 1

include		in.tip4p
# This is TIP4P/Ice

# create groups ###
group ox type 2
640 atoms in group ox
group hy type 1
1280 atoms in group hy

# set charges - beside manually ###
set group ox charge -1.1794
Setting atom values ...
  640 settings made for charge
set group hy charge 0.5897
Setting atom values ...
  1280 settings made for charge

# ### TIP3P Potential Parameters ###
pair_style lj/cut/tip4p/long/omp 2 1 1 1 0.1577 8.5
pair_coeff 1 1*2 0.000 0.000
pair_coeff 2 2 0.21084 3.1668
bond_style  harmonic
bond_coeff  1 450 0.9572
angle_style harmonic
angle_coeff 1 55 104.52
kspace_style pppm/tip4p/omp 1.0e-5
pair_modify tail yes

thermo          ${out_freq}
thermo          1000
thermo_style    custom step temp pe etotal epair emol press lx ly lz vol pxx pyy pzz pxy pxz pyz enthalpy

restart 	${out_freq3} restart.lmp.${pid} restart2.lmp.${pid}
restart 	1000 restart.lmp.${pid} restart2.lmp.${pid}
restart 	1000 restart.lmp.0 restart2.lmp.${pid}
restart 	1000 restart.lmp.0 restart2.lmp.0


include         in.dump
dump            myDump all atom ${out_freq2} dump.water.${pid}
dump            myDump all atom 10000 dump.water.${pid}
dump            myDump all atom 10000 dump.water.0
dump            myDump2 all dcd ${out_freq2} dump.dcd
dump            myDump2 all dcd 10000 dump.dcd
dump_modify     myDump append yes
dump_modify     myDump2 append yes


variable natoms 	equal  "count(all)"                        # NUMBER ATOMS
variable H      	equal  "enthalpy/v_natoms"                 # ENTHALPY-per-atom
variable Vol      	equal  "vol/v_natoms"                 # volume-per-atom
fix AVG all 		ave/time ${out_freq} 1 ${out_freq} v_Vol v_H file vol_enthalpy.dat
fix AVG all 		ave/time 1000 1 ${out_freq} v_Vol v_H file vol_enthalpy.dat
fix AVG all 		ave/time 1000 1 1000 v_Vol v_H file vol_enthalpy.dat




fix 		1 all shake 1e-6 200 0 b 1 a 1
Finding SHAKE clusters ...
       0 = # of size 2 clusters
       0 = # of size 3 clusters
       0 = # of size 4 clusters
     640 = # of frozen angles
  find clusters CPU = 0.001 seconds
fix             2 all nph aniso ${pressure} ${pressure} ${pressureDamp}
fix             2 all nph aniso 8500 ${pressure} ${pressureDamp}
fix             2 all nph aniso 8500 8500 ${pressureDamp}
fix             2 all nph aniso 8500 8500 1000
fix             3 all temp/csvr ${temperature} ${temperature} ${tempDamp} ${seed}
fix             3 all temp/csvr 264.66 ${temperature} ${tempDamp} ${seed}
fix             3 all temp/csvr 264.66 264.66 ${tempDamp} ${seed}
fix             3 all temp/csvr 264.66 264.66 100 ${seed}
fix             3 all temp/csvr 264.66 264.66 100 745823


run             250000
PPPM initialization ...
  extracting TIP4P info from pair style
  using 12-bit tables for long-range coulomb (../kspace.cpp:340)
  G vector (1/distance) = 0.37428727
  grid = 30 30 30
  stencil order = 5
  estimated absolute RMS force accuracy = 0.0032909343
  estimated relative force accuracy = 9.9105509e-06
  using double precision FFTW3
  3d grid and FFT values/proc = 5400 960
Last active /omp style is kspace_style pppm/tip4p/omp
Neighbor list info ...
  update every 1 steps, delay 7 steps, check yes
  max neighbors/atom: 2000, page size: 100000
  master list distance cutoff = 10.8154
  ghost atom cutoff = 10.8154
  binsize = 5.4077, bins = 5 5 5
  1 neighbor lists, perpetual/occasional/extra = 1 0 0
  (1) pair lj/cut/tip4p/long/omp, perpetual
      attributes: half, newton on, omp
      pair build: half/bin/newton/omp
      stencil: half/bin/3d
      bin: standard
Setting up Verlet run ...
  Unit style    : real
  Current step  : 6250000
  Time step     : 2
Per MPI rank memory allocation (min/avg/max) = 10.54 | 10.55 | 10.55 Mbytes
Step Temp PotEng TotEng E_pair E_mol Press Lx Ly Lz Volume Pxx Pyy Pzz Pxy Pxz Pyz Enthalpy 
 6250000    272.51885   -9085.5787   -8046.6126   -9085.5787            0     7863.517    25.048505    24.916491    23.034669    14376.417    6307.9022    9600.6307    7682.0182   -13.096575   -1310.0341   -206.94789   -6397.9059 
 6251000    263.71724   -9100.2914    -8094.881   -9100.2914            0    7794.6791    25.117258    24.928018    22.948651    14368.689     7332.817     8351.711    7699.5094   -1236.9978    818.24412   -611.79144   -6461.4858 
 6252000    267.71547    -9092.476   -8071.8225    -9092.476            0    9191.1018    24.965259    24.910968    23.016449    14314.131     8782.594    10059.178    8731.5337     685.3301    -371.5098    1046.0277   -6153.1163 
 6253000    270.73447   -9103.4784   -8071.3151   -9103.4784            0    8796.0667     24.93145    24.904363    23.047059    14309.962    8586.6597    9049.6276    8751.9129    200.27745    -1117.361     50.53591   -6235.6101 
 6254000    261.98601    -9120.734   -8121.9238    -9120.734            0    8609.4411    24.899609    25.055146     22.99075    14343.086    8443.8487    6791.8107    10592.664    156.40846    246.08276    2126.6719   -6321.0078 
 6255000    262.74324   -9061.0882   -8059.3911   -9061.0882            0    8201.1022    24.854893    25.151496    23.015805    14388.048    8581.9317    7645.0534    8376.3216    476.56173    807.55289    429.27881   -6338.5135 
 6256000    276.22736   -9083.3212   -8030.2165   -9083.3212            0    8170.2352    24.845387    25.249624    22.890457    14360.023    9708.7339    5858.1111    8943.8605    401.13535    438.69313    569.91076   -6319.1552 
 6257000     265.2202   -9107.5462   -8096.4058   -9107.5462            0    8923.8846    24.887923    25.051122    22.972768    14322.841    10037.079    8049.0403    8685.5343   -500.21928   -125.09332      1372.65   -6232.3496 
 6258000    275.36153   -9155.3494   -8105.5457   -9155.3494            0    7463.2575    24.793652    25.060495    23.127326     14369.96    9257.1856    6351.3065    6781.2804   -603.57594   -29.755206   -607.18798   -6541.4623 
 6259000    264.92255    -9046.601   -8036.5955    -9046.601            0    9302.7812     24.88553    25.082802    23.039579    14381.278    9151.9013    7907.8524     10848.59   -738.32252    521.14439    344.28331   -6085.4656 
 6260000    264.12401   -9077.0555   -8070.0944   -9077.0555            0    7815.6633    24.939405    25.250035     22.85412    14391.716    7500.4521    7233.8095    8712.7284    247.27431   -489.20526    77.917121   -6429.6772 
 6261000    266.59675   -9106.4265   -8090.0381   -9106.4265            0     7532.845    24.879142      25.1053    23.009102    14371.447    7789.7523    7071.5648    7737.2181     -215.409   -584.23374    613.28179    -6511.208 
 6262000    266.39192   -9045.7811   -8030.1736   -9045.7811            0    8242.9236    24.852453    25.206112    22.972138    14390.521    8990.2526    7516.6489    8221.8693     458.9201      79.7328    1057.5959    -6300.223 
 6263000    273.17535   -9097.4179   -8055.9489   -9097.4179            0    7292.8829    24.933655    25.055021    23.031026    14387.787    7896.5911    6752.1806     7229.877   -582.97451   -163.45927    249.90274   -6525.6751 
 6264000    263.63527   -9126.7899    -8121.692   -9126.7899            0     8032.663     25.01433     25.15275    22.837861    14369.107    7626.5039    7130.0139    9341.4711   -164.32017    244.97482   -173.11199   -6438.3778 
 6265000    264.07568   -9085.8175   -8079.0405   -9085.8175            0    8235.6484    24.902077    24.984006    23.112777    14379.699    9547.1641    8177.9078    6981.8734    582.81926     -94.5565    205.02142   -6351.9167 
 6266000    271.16926   -9088.1434   -8054.3226   -9088.1434            0    9717.4809    24.976839     24.84751    23.041155    14299.623     8943.186    10616.541    9592.7155   -109.80668     310.7525    537.26382   -6027.7872 
 6267000    267.12052   -9071.8041   -8053.4188   -9071.8041            0    10212.373    25.156174    24.843325    22.836829    14272.174    8786.6876    10593.463    11256.969    944.88306   -944.97953    140.17859   -5927.7643 
 6268000    268.59353    -9139.457    -8115.456    -9139.457            0    6963.5451       25.077    24.979187    22.967141    14386.688    6625.3122    6826.2499    7439.0731    784.47894   -6.4301824   -453.84952   -6654.3991 
 6269000    265.21146   -9093.5354   -8082.4284   -9093.5354            0    8990.0714    25.077309     24.83839     23.02265    14340.347    7116.2005    10949.664    8904.3493   -49.429528    177.56319   -538.08718   -6202.2515 
 6270000    263.67172   -9112.9545   -8107.7177   -9112.9545            0    8038.7788    25.116992    24.872795    22.961575     14344.78    6160.0816    9300.8718    8655.3831   -1053.6029    1100.7305   -820.11087   -6425.9738 
 6271000    268.81419   -9120.4096   -8095.5673   -9120.4096            0    8149.5621    24.976111    24.864593    23.096441    14343.371    8010.8297    9612.2729    6825.5836    -142.8016   -144.65508    550.05636   -6390.8146 
 6272000    266.37356   -9066.7451   -8051.2076   -9066.7451            0    8427.4578    25.013043    24.962748    23.052531    14393.869    7807.0564    8253.1156    9222.2014    -1236.229   -370.58252    425.27281   -6282.1172 
 6273000    261.43914   -9118.9069   -8122.1817   -9118.9069            0    8356.7001    25.002402    24.996308    22.972799    14357.258    8291.5294    8294.6926    8483.8784    155.27456     56.84959    -644.1354   -6372.4066 
 6274000     274.1024   -9062.6076   -8017.6042   -9062.6076            0    6296.1325    24.928652    25.033879    23.260143    14515.745    6295.2868    6828.3794    5764.7314   -165.23473    357.21546    7.3091483   -6684.7303 
 6275000    264.68475   -9082.7915   -8073.6925   -9082.7915            0    6999.4669    24.994438    25.093411    23.025183    14441.296    6588.3015    6868.5412     7541.558   -174.98719   -1106.6679    1201.0821   -6599.5244 
 6276000    262.39818   -9051.8959   -8051.5143   -9051.8959            0    7845.7916    25.003699    25.075483    22.996833     14418.55    7882.0511    7508.8766    8146.4471   -552.92619    686.43874    1227.7057   -6401.7031 
 6277000    256.93052   -9055.3584   -8075.8221   -9055.3584            0    6303.1913     25.15638    25.025731    22.988293    14472.436    5328.7551    6984.0404    6596.7784    1179.2781   -287.03646    1059.0019    -6745.435 
 6278000    261.30045   -9094.6458   -8098.4493   -9094.6458            0    7149.3939      25.0737    24.983277    23.001482    14408.662    7743.5157    5471.5202    8233.1458   -651.28938   -189.63272     755.0547   -6596.1074 
 6279000    259.22928    -9108.806   -8120.5058    -9108.806            0    7095.4833    24.932178    25.027541    23.137898    14437.842    8177.5075    6277.2083    6831.7342   -641.30283    -635.6654    592.66502   -6626.4729 
 6280000    270.45312   -9084.3095   -8053.2189   -9084.3095            0    7393.7293    25.068623    25.057875    22.953054    14418.338    7348.3134    6893.1813    7939.6933    86.578388    461.39175    627.46552   -6498.4902 
 6281000    266.61852   -9051.2982   -8034.8268   -9051.2982            0    7269.7502     25.08907    24.916709    23.127384    14457.785    6639.4737    8462.6183    6707.1588    579.92497    18.544488   -664.48962   -6501.9857 
 6282000     265.2826   -9052.8956   -8041.5174   -9052.8956            0    8882.5254    24.972987    24.951218    23.053449    14364.753    8691.5687    9179.2157    8776.7917    73.401574   -573.17559   -320.83262   -6180.6711 
 6283000    273.58946   -9102.9347   -8059.8869   -9102.9347            0    8907.9879    25.199093    24.921017    22.804599    14320.992    7384.9783    8936.5298    10402.456     714.5552    272.61381    679.70684   -6199.3915 
 6284000    252.23017   -9087.9331   -8126.3166   -9087.9331            0    7880.9335    25.073661    24.964118    22.989395    14390.024    5794.6505    8606.7171     9241.433    391.23427   -403.97224   -25.070966   -6472.3944 
 6285000    251.90774   -9111.2839   -8150.8967   -9111.2839            0    7534.9265    25.021579    24.968564     23.04349    14396.487    8665.8886    7054.6472    6884.2438   -103.47407    703.53505    59.663134   -6568.8786 
 6286000    266.31953   -9116.3253   -8100.9938   -9116.3253            0    6705.2552    25.019862    25.025095    23.093531    14459.424    6736.9502    6696.8144     6682.001    307.06417    343.82403   -279.49088   -6687.0173 
 6287000    262.17422   -9076.9818    -8077.454   -9076.9818            0    9042.2777    24.939647    25.018716    22.968165    14331.169    9335.4885    9099.8542    8691.4903    -212.9013    545.66371    428.64865   -6187.5692 
 6288000    265.30707   -9046.9838   -8035.5122   -9046.9838            0    10361.533    25.038381    25.020189    22.765037    14261.499    9498.6889    10078.354    11507.555   -420.15549    773.31478    645.50364   -5880.4239 
 6289000    267.71787   -9126.0337   -8105.3711   -9126.0337            0    7813.4695    24.997589    24.969377    23.018358    14367.466    7072.2265    8040.7111    8327.4708    718.52925    911.56408    602.84759   -6468.1777 
 6290000    265.28546   -9098.1927   -8086.8035   -9098.1927            0      9629.96    24.798607    24.855462    23.183938    14290.135    9893.1755    10377.088    8619.6168   -1021.9781    333.30896    723.19326   -6079.8529 
 6291000    257.80049   -9112.5559   -8129.7029   -9112.5559            0    8740.2393    24.934944    24.994016    22.969539    14315.177    8126.8773     8739.301    9354.5395   -169.95609   -16.094143    791.17652   -6304.9841 
 6292000    264.27855   -9089.5763    -8082.026   -9089.5763            0    8728.6156     24.97009    24.934008    23.016232    14330.008    8008.4396    9112.0481    9065.3591    98.440933    516.80299    166.01032    -6257.846 
 6293000    263.28754    -9050.267   -8046.4948    -9050.267            0    8829.5445    24.853954    25.148794    22.969118    14356.777    9524.6516    7979.6179    8984.3641    650.29103    416.55311    453.10872   -6197.7747 
 6294000    278.56646   -9143.9064    -8081.884   -9143.9064            0    8278.8108    24.825132    25.059392    23.016927    14318.892    8564.8231    8566.9118    7704.6976    160.00926    -515.2282    114.04605   -6353.0501 
 6295000    251.78625   -9104.6889   -8144.7649   -9104.6889            0    8324.9322    24.894343    25.089037    22.973888    14348.918    9143.8469    7257.0958    8573.8538    127.66787    292.84764    1495.2654   -6402.6542 
 6296000    265.62402   -9038.0681   -8025.3882   -9038.0681            0    9965.4301    24.836126    24.965969    23.084183    14313.531    11516.799    8917.3439    9462.1472   -745.64351   -516.40659    -311.1348   -5945.1229 
 6297000    268.78097   -9118.9702   -8094.2545   -9118.9702            0    8709.6655    24.851187    25.034214    22.990477    14303.064     8993.337     8210.064    8925.5955   -93.843869   -186.25869    1396.0173   -6277.4573 
 6298000    260.38763   -9082.1422   -8089.4258   -9082.1422            0    9040.2472     24.87902    25.168971    22.849769    14308.053    9553.0137    7505.5066    10062.221    465.11872   -881.95402    963.70489    -6203.013 
 6299000     262.7918   -9055.3841   -8053.5019   -9055.3841            0    8063.9904    24.804884     25.04022    23.173535    14393.541     9919.338    7761.4538    6511.1794    34.165042    874.26721    986.11511   -6360.7492 
 6300000    276.00666   -9093.8093    -8041.546   -9093.8093            0    8407.5083    24.888655    25.036524    23.047648    14361.575    8256.9105    8639.2968    8326.3176    336.99683   -65.693548    1106.1031   -6280.6031 
 6301000    264.74518   -9075.6834   -8066.3541   -9075.6834            0    7834.6523    24.947697    25.021536    23.072198    14402.351    7260.3294    8106.2389    8137.3886    364.24701    -635.8268   -837.60278   -6420.7362 
 6302000    256.88509   -9067.4391    -8088.076   -9067.4391            0    8255.2593    25.044585    25.075289    22.921213    14394.527    6813.5003    8492.3608    9459.9168   -730.14883   -1140.1212    1345.7371   -6355.0543 
 6303000    266.88362   -9109.7528   -8092.2707   -9109.7528            0    8046.6346    25.027486    24.872503    23.059566    14354.493    7195.1153    9064.1617    7880.6268   -847.73949    514.90618    721.71258   -6407.7435 
 6304000    257.49347   -9045.5757   -8063.8931   -9045.5757            0    7938.6007    24.993343    24.870061    23.178069    14407.162    7538.4369    9011.4427    7265.9226   -221.26541   -196.82259   -1372.4303   -6395.8845 
 6305000     271.9583   -9083.3554   -8046.5263   -9083.3554            0    8215.8532    24.993631    24.989618    23.017713    14376.433    8014.7536    9736.0838    6896.7223   -96.957798   -290.70403    230.87256   -6323.9451 
 6306000    271.31413   -9080.9088   -8046.5356   -9080.9088            0     8264.878    25.137871    25.015678    22.824721    14353.117    6804.0742    8419.2391    9571.3207    68.712213   -1120.2582    834.53362   -6316.4859 
 6307000    258.97548   -9064.8429   -8077.5102   -9064.8429            0    7302.0407    25.091534    24.903843    23.066497    14413.692     6114.547    8902.1546    6889.4204    -321.6025   -135.30384    1233.0991   -6542.5562 
 6308000    262.48044     -9095.31   -8094.6148     -9095.31            0    7761.5128    25.102405    24.898536    23.023068     14389.72    5808.4183    9523.0426    7953.0775     145.5859    956.45852     1120.656   -6465.7891 
 6309000    269.83448   -9099.6117   -8070.8796   -9099.6117            0    8845.5661    24.945712    24.911119    23.042995    14319.507    7927.8036    9707.2039     8901.691     625.2512   -40.886708   -45.211393    -6223.613 
 6310000    257.30256   -9100.0033   -8119.0486   -9100.0033            0    9485.0217    24.959551    25.054772    22.879619    14307.904      9875.75    8369.3663    10209.949    -433.1357    698.42147   -475.27392    -6139.846 
 6311000    254.06426   -9069.7495   -8101.1407   -9069.7495            0     8943.092    24.865737    25.027448    23.027901     14330.86    10516.331    7587.2126    8725.7324   -284.40992    145.37711    599.23402   -6232.0264 
 6312000    265.75797   -9090.9413   -8077.7508   -9090.9413            0    9022.0704    24.835357    25.033489    23.006654    14303.596    9982.4603    8600.4296    8483.3213   -44.624794    13.875614   -504.94354   -6195.7172 
 6313000      276.466   -9073.8306   -8019.8161   -9073.8306            0    9378.9564    24.871874    25.099725    22.943435    14323.063    9771.5944    9006.9148      9358.36   -542.07437   -568.24622   -411.80922   -6060.6723 
 6314000    268.38243   -9085.8454   -8062.6492   -9085.8454            0    8819.6545    24.872688    25.035801    23.010826    14329.018    9251.2865    9055.6568    8152.0204   -138.29174    1072.4365    321.75802   -6219.5704 
 6315000    265.12004   -9126.9961   -8116.2377   -9126.9961            0    9805.3844    24.981403    25.029664    22.811491     14263.48    9065.3445    9830.6824    10520.126    610.29317   -462.51804     -689.052   -6076.5389 
 6316000    275.20321   -9049.5225   -8000.3223   -9049.5225            0     8500.899    25.117387    24.929695     22.97773    14387.937    7920.2811    8433.7822    9148.6337    610.32169    578.24821    716.89117   -6216.5506 
 6317000     264.5648   -9127.0803   -8118.4386   -9127.0803            0    9079.6751    24.898901    24.799665    23.145104    14291.741    8509.2986    10757.243    7972.4839   -306.14907    -809.7502   -326.93394   -6225.9585 
 6318000    259.33371    -9098.627   -8109.9286    -9098.627            0    9223.9417    25.029805    24.998817    22.886276    14320.298    8244.3522    9420.7752    10006.698   -71.330952    529.29126    1680.3639   -6183.5373 
 6319000    265.47057   -9129.0535   -8116.9586   -9129.0535            0    9615.0996    24.929956    25.005711    22.880564    14263.544    9568.1496    9467.5503    9809.5989   -207.52097   -21.834867    556.33358   -6116.8337 
 6320000    261.77798   -9103.9457   -8105.9287   -9103.9457            0     8574.881    24.868656     24.92523    23.101129    14319.396    9156.3292    8491.9099    8076.4039    405.46917    314.69352   -388.63692   -6315.2045 
 6321000     265.0656   -9074.1762   -8063.6253   -9074.1762            0     8705.176    25.056862    25.060005    22.847408    14346.461    8504.7114    8365.9893    9244.8274   -619.42222    -670.0855   -219.80085    -6242.255 
 6322000    270.74695   -9069.5052   -8037.2943   -9069.5052            0    8558.2276    24.996223    25.021216    23.001277    14385.824    8107.9048    7853.1484    9713.6294    682.44768    148.07898    618.86669   -6241.7568 
 6323000    258.02149   -9148.4488   -8164.7532   -9148.4488            0    6994.4365    24.912064    25.015003    23.074721    14379.597    7713.1448    6498.0139    6772.1507    567.36641   -217.84617   -309.88257   -6697.9383 
 6324000     272.6727   -9105.6426   -8066.0899   -9105.6426            0    7243.6026    24.927855    25.133229    22.945013    14375.451    7844.1489    5877.9511     8008.708    486.97103    623.59858   -150.22962   -6547.4598 
 6325000    264.09811    -9042.394   -8035.5316    -9042.394            0    8378.9814    24.798805    25.184232    23.046435    14393.394    10372.673       5992.7    8771.5716    424.22766    1383.9623    926.07387   -6276.6754 
 6326000    261.87495   -9076.3314   -8077.9447   -9076.3314            0    8916.0942    24.822895    24.994203     23.08585    14323.119    8872.2674    9437.0528    8438.9624   -465.52846    57.847789    86.895567   -6215.4797 
 6327000    260.73568   -9104.7773    -8110.734   -9104.7773            0    9645.8282    24.876389    25.077272    22.930677     14304.89    9367.3067    9094.3418    10475.836     -749.112    15.931659    114.09925   -6098.4006 
 6328000    268.99073    -9052.267   -8026.7516    -9052.267            0    7974.7931    24.960766    25.025846    23.043755    14394.611    8813.3313    8046.1412    7064.9067    245.12901   -383.99655    237.25028   -6352.5982 
 6329000    265.26804    -9115.768   -8104.4453    -9115.768            0     8225.038    24.879626    25.005248    23.089066    14364.198    8957.7175    8709.7291    7007.6674   -144.61708   -308.23063   -501.86955    -6381.406 
 6330000    258.99938   -9074.4606   -8087.0369   -9074.4606            0    8157.7534    24.999866    25.016349    23.011715     14391.65    6586.7571    9048.9814    8837.5218   -377.55486    559.76544    684.72171   -6374.8267 
 6331000    271.39834   -9071.5669   -8036.8727   -9071.5669            0    8624.4954    24.995448    24.867501    23.096099    14355.942    9058.0596    8817.9176    7997.5089     321.4326    882.56186    204.29421   -6231.1907 
 6332000    250.44385     -9042.85   -8088.0438     -9042.85            0    9899.8373    25.104845     24.92081    22.890984    14321.357     7694.522      11059.6     10945.39    400.05983   -206.63575   -724.99694    -6020.341 
 6333000    264.03493   -9146.5092   -8139.8877   -9146.5092            0    8118.8392    25.003717    24.933272    23.004424    14341.522    7714.4634    8615.1853    8026.8688   -173.34752    1328.8603   -438.28175   -6441.7806 
 6334000    259.49245   -9022.3013   -8032.9978   -9022.3013            0    8051.3047    24.921207    24.939363    23.178309     14405.76    9630.2891    8130.7177    6392.9074    169.00079   -291.06051    820.64958   -6341.4731 
 6335000    258.14874   -9086.2037    -8102.023   -9086.2037            0    7462.4313    25.046858    24.997883    22.958183    14374.541    6463.8947    8627.0266    7296.3725   -548.99897    146.28357   -515.94702   -6537.6142 
 6336000    265.67763   -9071.8968   -8059.0126   -9071.8968            0    8329.5838    24.957898    25.101354    22.928568    14364.221    9078.6298    7089.3871    8820.7346   -644.99522    18.761471    96.494879   -6314.0695 
 6337000     267.9332   -9099.2992   -8077.8157   -9099.2992            0    8389.5191    24.811254    25.005364    23.139554    14356.113    9000.7542    8326.6335    7841.1697    396.45267   -1343.4378    9.6018773   -6321.3089 
 6338000    272.57164   -9073.2978   -8034.1304   -9073.2978            0    8525.4184    24.912005    25.087643    23.002407    14376.125    9206.9502    8271.1509     8098.154   -409.68635   -1054.1215   -97.644934   -6246.6823 
 6339000    268.01017   -9153.0623   -8131.2853   -9153.0623            0    10499.976    24.934456    24.927701    22.888388    14226.476    9992.0209    9489.0881    12018.819   -919.23673   -583.44699    898.11599   -5952.7654 
 6340000    271.00973    -9087.305   -8054.0923    -9087.305            0    9464.8109     24.92373    24.907544    23.017038    14288.722    9732.6584    11020.025    7641.7497   -415.84646    297.21736    1306.6382   -6081.7549 
 6341000    259.54433   -9094.3931   -8104.8917   -9094.3931            0    9325.6107    24.961762    24.889725    23.019396    14301.753    9107.5208    9704.2415    9165.0698    594.52702    87.133132   -776.68385   -6159.7895 
 6342000    270.92853   -9097.5545   -8064.6513   -9097.5545            0    9527.3197    25.057407    24.802878    23.006738    14298.591    8374.5885    11351.032     8856.339    269.18389   -686.95124   -355.88758   -6077.9167 
 6343000    263.46462   -9065.2136   -8060.7663   -9065.2136            0    8864.6947    25.119608    24.938473     22.90511    14348.784    7765.6035    10268.466    8560.0147    146.87384   -256.93206    153.30001     -6205.72 
 6344000    262.92763   -9095.0443   -8092.6443   -9095.0443            0      7809.97    25.087912    24.937362    22.992717     14384.85    7159.8181    8486.9098     7783.182   -109.59413    357.34347    135.43096   -6454.2041 
 6345000     258.6998   -9141.4965   -8155.2148   -9141.4965            0    7897.7054    24.992231    24.848345    23.106952    14349.778    8120.0772    7433.0777    8139.9614   -418.39842   -493.33914   -144.25656   -6502.4084 
 6346000    270.53117   -9115.4056   -8084.0174   -9115.4056            0    7144.0899    25.124683    24.941846    22.967603    14392.786    5047.4083    8147.5847    8237.2767   -1210.3392   -1299.4145    347.41106   -6584.4443 
 6347000     265.3332   -9071.7704   -8060.1993   -9071.7704            0    7945.0049    25.035058    24.969858    23.001113    14378.498    6804.3754    9035.0378    7995.6017    593.74179   -251.95388    65.446741   -6394.1663 
 6348000     251.4963   -9103.5019   -8144.6833   -9103.5019            0    7344.1513    25.132141    24.884827    23.000993    14385.028    6095.8874    8471.9731    7464.5933    296.80796    174.76881    745.26686   -6603.9474 
 6349000    268.23769   -9087.8966   -8065.2522   -9087.8966            0    7384.3943    25.108942    24.871196    23.090277    14419.634    6745.9437    8020.5321     7386.707    486.32162    376.34403    208.48965   -6512.3468 
 6350000    261.59916   -9124.1091   -8126.7738   -9124.1091            0    7729.5525    24.992087    24.939235    23.057258    14371.209    7708.3255    7179.4432    8300.8888    229.07424    161.99853    1524.0902    -6506.742 
 6351000     269.4542   -9115.9445   -8088.6622   -9115.9445            0    8744.8372    25.091924    24.954657    22.876051    14324.076    8489.2105    8469.3031    9275.9978    7.9110191     69.17265    224.10466   -6261.8486 
 6352000    267.89762   -9066.8122   -8045.4643   -9066.8122            0    8455.2593    25.071967    24.941062    23.005891    14386.078    7517.9447    8650.9993    9196.8338    151.44501   -522.81024   -57.052451   -6271.4986 
 6353000    261.07196   -9062.0103   -8066.6849   -9062.0103            0    7954.2662     24.96453     24.93624    23.152521    14412.942    7040.3959    9429.1803    7393.2224    857.80275   -47.721536    254.23699   -6394.7143 
 6354000    265.66483   -9098.0333   -8085.1978   -9098.0333            0    7332.9497    25.064284    25.036222    22.960772    14408.228    7024.4863     7015.206    7959.1567   -132.56888   -328.79511    151.12096   -6544.3307 
 6355000    267.32033   -9079.6403   -8060.4933   -9079.6403            0    7448.7839    25.009894    24.926988    23.134179     14422.34    7271.7782    7804.1466    7270.4268   -194.99539   -859.54041    391.75845    -6493.753 
 6356000    264.63333   -9120.0036   -8111.1006   -9120.0036            0    8894.5504    24.929466    25.029479    22.929247    14307.198    8662.7024    8976.3592    9044.5896   -181.58776     171.3735   -29.482661   -6255.2011 
 6357000    266.18676   -9090.7034    -8075.878   -9090.7034            0    8688.2055    24.936595    25.018854    22.977086     14335.06    8252.8977    9184.5045    8627.2142    91.431061   -397.07426    64.560811   -6259.5032 
 6358000    271.71003   -9116.4149   -8080.5323   -9116.4149            0    8123.9516    24.937632    24.942834    23.124732    14383.935    8356.1962    7848.2537    8167.4048    34.596978    957.01467     57.36797   -6376.3309 
 6359000    257.75422   -9080.4012   -8097.7246   -9080.4012            0    7293.3257    25.058071    25.033873    22.967257    14407.373    7711.1903    6699.8336    7468.9531   -77.423843   -291.05273     1093.842   -6565.2746 
 6360000    263.41583   -9115.2986   -8111.0373   -9115.2986            0    7295.2115    25.057361    25.003817    22.976625    14395.538    6240.8304    7919.4678    7725.3363   -918.99813    7.8163318    402.12885   -6579.4503 
 6361000    268.32503   -9102.6287   -8079.6513   -9102.6287            0    7387.7477    24.980112    24.941586    23.134383    14413.729     6969.712    8767.9218    6425.6093   -277.86033    831.29932    41.341622   -6526.6769 
 6362000     255.7414   -9047.5723   -8072.5694   -9047.5723            0    7742.7595    25.023056    24.963388    23.118206    14441.024    6410.6612    9063.5893    7754.0281   -422.84501    936.66171    -465.7917    -6441.886 
 6363000     269.7635   -9121.6862   -8093.2247   -9121.6862            0    6720.5701    25.074564     25.02106    22.986273    14421.408    5983.9354    6681.3097    7496.4652   -77.822709    865.96875   -370.13285   -6679.7447 
 6364000    269.50653   -9049.6594   -8022.1776   -9049.6594            0    7537.5105    24.989306    25.012081     23.12489    14453.856    7852.7807    8270.0396    6489.7111     463.2996    430.12997    261.00452   -6433.3106 
 6365000    271.66097   -9067.0126    -8031.317   -9067.0126            0    8152.2202    25.012862     24.97861    23.042749    14396.799    6456.9944    8956.2744    9043.3917    605.92934    833.95521   -533.55214   -6319.6561 
 6366000    255.88481   -9091.9573   -8116.4077   -9091.9573            0    7748.8239    25.028379    24.930145    22.998873    14350.402    7627.8959    8176.3395    7442.2362   -772.66541    196.87919    718.39614   -6494.6881 
 6367000    254.22717   -9117.5959    -8148.366   -9117.5959            0    7997.1217    25.007918    24.968536    22.954749      14333.2    8369.6281    7993.9183    7627.8189    53.020199    146.64841   -60.344148   -6476.6875 
 6368000    251.47374   -9100.5834   -8141.8508   -9100.5834            0    7998.7615    24.994007    24.866941    23.121408    14370.521    8194.4945    8608.3418    7193.4482    660.36057   -521.62641   -33.614455   -6465.4759 
 6369000       259.16   -9065.3294   -8077.2933   -9065.3294            0    9121.2099    25.196294     24.89253      22.8569    14335.836    7479.1391    9370.0204     10514.47   -647.52497   -221.29824    1145.8954   -6170.2903 
 6370000    261.84281   -9094.1891   -8095.9249   -9094.1891            0      8223.39     25.01704    24.943503    23.006059    14356.071    6695.2876    9590.5856    8384.2967   -251.20298    1273.6002    -989.9994   -6374.2056 
 6371000    260.90287   -9108.4081   -8113.7274   -9108.4081            0     7268.615    24.983355    24.915769    23.145836    14407.808     7669.729    6950.5222    7185.5937   -403.83845     385.7617   -156.41127   -6586.4234 
 6372000    264.16869   -9065.6976   -8058.5661   -9065.6976            0    7024.6079    25.081345    25.083764    22.960704    14445.372    6166.6169    6376.4312    8530.7756    214.60467   -195.34594    948.23773   -6578.6854 
 6373000     261.3118   -9116.4514   -8120.2116   -9116.4514            0     7556.003    25.016084    25.052298     22.96494    14392.367    6594.6471    7151.7675    8921.5944    180.52216   -9.5882035   -68.161182   -6534.2224 
 6374000    269.07038   -9074.9152   -8049.0962   -9074.9152            0    7030.5899    24.992172    25.007725    23.088782    14430.428    7279.2002    6829.2483    6983.3211    758.53284   -994.28997    179.49383   -6569.4875 
 6375000    262.20191   -9030.6029   -8030.9697   -9030.6029            0    8619.4185    24.917448     25.01904    23.060043    14375.876     9011.967    8425.7578    8420.5307   -1457.7032   -55.435223   -287.41062   -6223.8447 
 6376000    270.20638   -9118.1901   -8088.0401   -9118.1901            0    8491.8042      25.0082    24.856579    23.056877    14332.577    8087.5481    9812.2204    7575.6442   -106.58737    -695.0564    209.33926   -6313.0328 
 6377000    266.32462   -9080.3213   -8064.9704   -9080.3213            0    9023.1679    25.013433     24.90396    23.015464    14337.104    7821.0446    10311.354    8937.1048    557.85789    51.267458   -139.11184   -6178.2986 
 6378000    256.82306   -9075.3904   -8096.2638   -9075.3904            0    9259.0612    25.094774    24.929551    22.857895    14299.933    7702.9711    9717.4637    10356.749     246.7893    1504.8784    -395.1516   -6165.2879 
 6379000    266.78987   -9076.2277   -8059.1031   -9076.2277            0    8683.6795     24.94697    24.838628    23.163541    14353.254    7996.8418    9792.3869    8261.8097   -687.40331   -561.37685    42.759631   -6241.3703 
 6380000    263.29437   -9125.2796   -8121.4814   -9125.2796            0    9279.8145     24.95706    24.895876     23.01645    14300.762    9636.0206    9302.0806    8901.3424    1038.6577   -440.16978   -973.00273   -6186.0652 
 6381000    269.79985   -9135.3465   -8106.7464   -9135.3465            0    10060.159    25.116686    24.949374    22.750443    14256.465    9124.2533     9583.147    11473.076   -229.80622    157.72453    419.91753   -6015.0793 
 6382000    262.09805   -9090.8553    -8091.618   -9090.8553            0    8325.5313    24.974552    24.961969    23.053761    14372.037    8064.4709    8167.4356    8744.6875   -347.53791    43.541245    578.65558   -6346.5748 
 6383000    266.07876   -9117.3058   -8102.8923   -9117.3058            0    6110.3248    25.013686    25.108367    23.094263    14504.417    5854.4497    4917.7833    7558.7415    290.79292    379.42404    512.67581   -6810.3628 
 6384000    249.77013     -9085.37   -8133.1323     -9085.37            0    7870.9606    24.947448    25.034597    23.045225    14392.879    8785.0863    7205.5337    7622.2619   -1629.6289   -580.47387   -194.38527   -6480.9754 
 6385000    260.59041   -9128.8017   -8135.3122   -9128.8017            0    9582.1225    24.814462    24.994479    23.034185    14286.367     10233.97    9126.5603    9385.8367   -326.01061   -134.72164    327.85231   -6138.8577 
 6386000    257.76955   -9056.4355   -8073.7004   -9056.4355            0    8793.0937    24.954132    25.103897    22.959063    14382.613    8272.4676    8763.3361    9343.4774   -228.95852   -395.22883   -66.928524   -6229.2993 
 6387000    262.80854   -9111.0924   -8109.1464   -9111.0924            0    8327.6339    24.784013    25.048457    23.109327      14346.3    9786.1269    8590.1619    6606.6129    298.67239   -197.92097   -130.59209   -6366.7882 
 6388000     270.1468    -9109.975   -8080.0522    -9109.975            0    7837.4162    24.905484    25.112492    23.014254    14394.007     8695.729     7112.459    7704.0607    284.73641     703.1383    323.37772   -6434.8075 
 6389000    256.79504   -9100.6486   -8121.6287   -9100.6486            0    8749.9577    24.890162    25.112516    22.920416    14326.511    9156.0533    8482.9898      8610.83   -503.85204   -195.33913    145.17473   -6293.4347 
 6390000    271.44378   -9102.7555    -8067.888   -9102.7555            0    7254.7713    24.888968    25.068085    23.146023    14441.237    7711.0582    8078.9466     5974.309    305.93292   -329.99632    699.77912    -6539.956 
 6391000    264.81404   -9129.6611   -8120.0692   -9129.6611            0    7587.8487     24.97305    25.070538     22.93661    14360.332    7472.1392    7774.6005    7516.8063    69.888365   -686.79378    352.38743   -6530.9406 
 6392000    260.19995   -9118.5829    -8126.582   -9118.5829            0    8090.4568    24.821719    24.978978    23.146953    14351.601    9019.4369    8112.2887    7139.6447   -121.95218    246.99294   -908.47363    -6433.222 
 6393000    263.34677   -9091.9106   -8087.9126   -9091.9106            0    8322.9606    24.986833    25.001423    22.990667    14362.416    8432.0355     8646.934    7889.9123   -214.58237   -791.68136   -460.38511   -6344.5761 
 6394000    259.81801   -9076.8478    -8086.303   -9076.8478            0    8052.9957    25.061398    24.982731    22.928862     14355.81    7523.8331    8623.6292    8011.5247    -213.2164   -385.94208    729.18027   -6400.2895 
 6395000    272.24984   -9054.6353   -8016.6947   -9054.6353            0    8558.0611    24.957966    24.919521    23.078172    14353.251    9174.7399    8150.0513    8349.3921    1050.3325   -270.94393    422.70958   -6225.2576 
 6396000    271.81061   -9141.2793   -8105.0134   -9141.2793            0     7316.042    25.099189    25.000115    22.932691    14389.865    7340.7248    7101.4252    7505.9761   -283.23827   -762.24658    550.08523   -6569.6584 
 6397000    266.91175    -9119.161   -8101.5717    -9119.161            0    9026.0746    24.996467    24.970011    22.953622     14326.78    8648.5332    9028.6385    9401.0521    735.25861    1266.5726    203.75434   -6215.6511 
 6398000    260.69084   -9112.9226   -8119.0503   -9112.9226            0    10314.461    24.831757    24.896163    23.031192    14238.239    10532.431    11186.652    9224.3009   -80.000936    74.527369   -62.451417   -5977.2512 
 6399000    253.88787   -9043.0481   -8075.1118   -9043.0481            0    9148.7427    24.945372    25.060519    22.940082    14340.854    8811.9476    9662.7295    8971.5509    378.60711    423.76228    667.13459    -6161.683 
 6400000    253.42733   -9066.2162   -8100.0357   -9066.2162            0    9813.0687    24.850631    25.072534     22.95138    14300.277    10487.498    8227.3653    10724.343    255.06302     -740.912   -93.650985   -6053.4723 
 6401000    266.66907   -9071.7835   -8055.1194   -9071.7835            0    9949.7831    24.807058    25.052506    23.012129    14301.554    10531.706    9864.7054    9452.9375   -81.354922   -273.54467   -391.48415   -5979.8583 
 6402000    265.19095    -9122.617   -8111.5881    -9122.617            0    7456.1083    24.946345    25.026795    23.015226    14369.028    7976.1345    7052.1249    7340.0657   -73.030256    211.15964    829.84324   -6549.1044 
 6403000    262.82576   -9077.3364   -8075.3248   -9077.3364            0    6826.9897    24.906468    25.100403    23.181569    14492.245    6685.3984    5920.7739    7874.7969    705.57311   -98.169391    506.24205   -6632.4096 
 6404000    263.25309   -9130.0333   -8126.3924   -9130.0333            0    7288.6705     25.00575    25.024235    23.007559    14396.975    7747.3094    7110.8646    7007.8376    509.54979   -522.39791    82.474491   -6596.0259 
 6405000    264.34269   -9103.5731   -8095.7782   -9103.5731            0    7850.6661     24.96865    24.991242    23.073338    14397.707    7277.2258    8148.0922    8126.6802    53.078757    157.16238    836.89775   -6447.3285 
 6406000    249.87643    -9129.314   -8176.6711    -9129.314            0    7572.1269    24.971895    24.905906    23.122113    14380.745    8037.2988    8460.1672    6218.9148   -862.57368    572.89299    -366.7641   -6588.5809 
 6407000    262.20465   -9094.2317   -8094.5879   -9094.2317            0    8275.4205    24.993425    25.075372    22.917004    14362.532    9091.6127    6388.4691    9346.1799    208.42745   -456.03679    598.34911   -6361.1952 
 6408000    272.61288   -9126.7329   -8087.4082   -9126.7329            0    7886.1767    24.924183    25.098055    22.986085    14378.912    8640.7206    6275.1781    8742.6315    802.93127    327.76848    160.90458   -6433.6638 
 6409000     270.6347   -9092.9368   -8061.1539   -9092.9368            0    7925.8288    24.929439    25.021782    23.078771    14396.053    7266.0468    8412.8376    8098.6019     459.2234   -1046.6547   -381.77374    -6397.113 
 6410000     259.8561   -9075.3556   -8084.6657   -9075.3556            0    8988.5177    24.989704    24.979617     22.93757    14318.394     8833.107    9226.5819    8905.8643   -513.05537   -1848.2359   -8.5604739   -6207.6916 
 6411000    259.09292   -9118.4935   -8130.7131   -9118.4935            0    9616.2135    24.865174    24.866403    23.078418    14269.557    9349.8564    10559.614    8939.1697   -584.31979   -1080.3163    1301.3077   -6129.5132 
 6412000    259.46525   -9080.1881   -8090.9883   -9080.1881            0    7614.2133    25.040233    24.978796    23.019228    14397.949    6650.4876    8712.7652     7479.387   -470.52611   -630.31619    125.49706    -6492.161 
 6413000    266.52541   -9092.1601   -8076.0437   -9092.1601            0    7648.2039     25.03477    25.014515    22.955547    14375.512    7011.1338    7693.8096    8239.6683    327.94353   -983.27622    692.97916   -6472.5817 
 6414000    248.79713   -9059.8012   -8111.2731   -9059.8012            0    7953.6375    24.918023    25.009147     23.09362    14391.448    8062.0007    8013.0943    7785.8174   -611.52832   -551.38942    662.71494   -6441.9278 
 6415000    266.69898   -9096.9795   -8080.2014   -9096.9795            0    8033.1233    24.840969    25.096066    23.076059     14385.86    8778.9747    6829.3004    8491.0947     -1027.54    120.49062     1024.325   -6394.8279 
 6416000    268.52921   -9074.5818    -8050.826   -9074.5818            0    8061.8026    24.909165    25.166005    22.914075    14364.012    8799.9194    6996.2907    8389.1977   -586.39399    912.59862    297.51091   -6362.0042 
 6417000    252.09985   -9121.0948   -8159.9752   -9121.0948            0    6636.9798    24.900155    25.066114    23.119768    14430.206    8357.5882    6102.6712    5450.6799    412.51279    29.493685    619.12737   -6763.2245 
 6418000    264.08758   -9044.2395   -8037.4172   -9044.2395            0    7617.3609    24.959093    25.147629    22.981935    14424.888    7503.5983    7015.4531    8333.0313    821.80308   -739.55087   -686.15263   -6434.9363 
 6419000    260.66319   -9080.0553   -8086.2883   -9080.0553            0     7729.302    24.955015     25.03067    23.024632    14382.124     8028.571    7754.7282    7404.6067    865.57944     357.5955   -42.405872   -6465.0787 
 6420000    258.31814    -9066.068   -8081.2414    -9066.068            0    10274.549    24.781128     25.09087    22.938648    14262.794    11593.926    9766.1631    9463.5569     1020.117   -340.62496    141.88998   -5944.0509 
 6421000    265.24539   -9100.7057   -8089.4692   -9100.7057            0    9257.9937      24.8827    25.001593    22.963807    14285.949    10488.039    7574.1722    9711.7697    71.691471   -437.98551    712.19981   -6160.6042 
 6422000     267.3455   -9103.7831   -8084.5401   -9103.7831            0    9230.4458    24.819558    24.939691    23.092146    14293.856    10610.449    8880.6728    8200.2158    505.31935   -224.55132    615.89807     -6160.35 
 6423000    268.61188   -9099.3452   -8075.2742   -9099.3452            0    9660.0271    24.913874    25.022215    22.867755    14255.766     9099.944    9530.0512    10350.086     379.3716     381.7461   -115.26396   -6066.8992 
 6424000    261.20038   -9098.8313   -8103.0164   -9098.8313            0     10060.25    24.940225     24.90724    22.980142    14275.084    10582.501    9431.6381     10166.61    27.532239   -357.14997   -751.76349   -6008.5986 
 6425000    263.48726   -9091.6781   -8087.1445   -9091.6781            0    10113.457    24.936792    24.825558    23.066459    14279.748    10724.182    10556.789    9059.3997    663.80438    618.44441   -240.47982   -5980.9618 
 6426000    255.93811   -9086.0267   -8110.2738   -9086.0267            0    10305.369    24.949864    24.873503    23.006203    14277.432    10014.988    10956.685    9944.4331     196.2301    93.080767    753.33692   -5964.4725 
 6427000     266.2277   -9080.2456   -8065.2642   -9080.2456            0    9415.8543    25.064418     24.92976    22.855289    14281.126    7907.0688    10237.508    10102.987    679.71847   -611.12957    172.43515   -6104.1717 
 6428000    267.28121   -9111.1904   -8092.1925   -9111.1904            0    8320.0603    25.002192    24.893574    23.077536    14363.318    8193.2212    8944.2062    7822.7536   -153.16769    35.141738   -769.93509    -6349.354 
 6429000    260.35487   -9103.8718   -8111.2803   -9103.8718            0    7296.4857    25.028025    25.049447    23.025326    14435.456     7520.809    6467.4582    7901.1899    12.909996   -457.67082   -690.16294    -6575.178 
 6430000    265.29307   -9136.1525   -8124.7343   -9136.1525            0    7559.5055    24.974439    25.020235    23.014146    14380.765    9227.4846    6455.8398     6995.192    792.96276    83.663853    431.14187    -6539.289 
 6431000     257.9245   -9071.7071   -8088.3813   -9071.7071            0    8840.2645    24.932448    24.950513     23.05811    14343.928    9814.7274    8477.5372    8228.5289   -109.78492   -920.37701    1173.0065   -6239.0732 
 6432000     265.2154   -9052.2458   -8041.1237   -9052.2458            0    9492.6304    25.102313    25.126394    22.691863    14312.453     7858.709    9294.5186    11324.664    486.45293   -710.91493    576.97084   -6059.7038 
 6433000    259.41511   -9075.5645   -8086.5558   -9075.5645            0    9248.7132     24.97788    24.984374    22.979997    14340.821     9336.966     10497.94    7911.2338    861.04956    -697.5991    1200.0786    -6152.223 
 6434000    265.24422   -9076.6458   -8065.4139   -9076.6458            0    9852.1678    24.937118    24.855957       23.083    14307.673    10784.213    9328.8983    9443.3919   -492.43835   -1057.2317     1219.691   -6009.6337 
 6435000     268.8833   -9052.1104   -8027.0046   -9052.1104            0    8933.0449    24.988228    24.963917    22.984568    14337.866    9230.8293    9253.2829    8315.0225   -121.16768   -304.88323    254.86609   -6159.0775 
 6436000    263.97515   -9046.7953   -8040.4017   -9046.7953            0    7461.5515    25.080302    24.949968    23.046724    14421.551    6985.8084    8450.3481     6948.498    667.13603   -923.80047    382.20872   -6471.0618 
 6437000    257.94401   -9138.6873   -8155.2871   -9138.6873            0    7453.5572    25.081039     24.93315    23.022648    14397.197    6056.0231    8181.2322    8123.4164   -293.45408    434.47483   -740.44557    -6590.276 
 6438000    269.94689   -9084.0268   -8054.8661   -9084.0268            0    7382.3377    24.999487    25.052984    23.000706    14405.612    7224.6471    6319.2467    8603.1193   -1044.3884   -13.447315    540.85734   -6503.9028 
 6439000    257.01627   -9121.4545   -8141.5913   -9121.4545            0    8458.5891    24.913916    24.965177    23.019428    14317.631    8055.4425    8437.4626    8882.8621   -295.14077   -1143.3945     613.2891   -6375.3705 
 6440000    266.05854   -9052.4514   -8038.1149   -9052.4514            0    9107.8443    25.004833    24.941817    23.017732    14355.376    9765.8998    7726.5209    9831.1121   -428.71313   -374.05343    270.26495    -6131.311 
 6441000    262.08412   -9079.7713   -8080.5871   -9079.7713            0    6725.5789    25.063498    24.818473    23.215296    14440.791    6143.7949    8381.9697     5650.972   -213.50956    732.84405    98.976978   -6664.1525 
 6442000    273.90687   -9100.0464   -8055.7885   -9100.0464            0    8636.8835    25.086405    24.875005    22.973621    14336.101    8159.5099    9695.3502    8055.7904    366.97872   -505.13124   -514.36187   -6250.0119 
 6443000    259.56964   -9082.8484   -8093.2506   -9082.8484            0    8718.7323    25.025416    24.990679    22.969276    14365.034    8970.4947     7987.193    9198.5093   -341.64454   -315.68417    1739.9929   -6266.6823 
 6444000    255.18633   -9063.2573   -8090.3706   -9063.2573            0    7472.2506     25.11212    24.799166    23.128227    14403.326    6434.7637     9499.934    6482.0539    252.62657   -617.69406    485.02422   -6520.7666 
 6445000     260.0657    -9078.309   -8086.8199    -9078.309            0    8656.0665     25.03993    24.884569    23.056879    14366.923    9291.0835    9305.2984    7371.8175    64.447502    328.32663   -1818.3836   -6273.1417 
 6446000    270.96627   -9102.2726   -8069.2256   -9102.2726            0     8542.213    25.133117     24.83302     22.96664    14334.196     6695.208    10565.665    8365.7658    -608.8523    464.34383    408.45084   -6283.4798 
 6447000    264.24493   -9089.0214   -8081.5992   -9089.0214            0    7581.7174    25.127802    24.912867     23.03304    14418.812    7320.4352    8140.3295    7284.3875    432.80323    849.22632    430.51888   -6487.2885 
 6448000    265.72671   -9077.5858   -8064.5144   -9077.5858            0    7969.5976    25.046449     24.87751    23.095209    14390.469    7182.4426    8644.1197    8082.2306    13.350876    732.75914    893.69362   -6391.9331 
 6449000    274.90526   -9094.5416   -8046.4774   -9094.5416            0    7569.8399    25.040517    24.945082    23.041362    14392.505    7107.6271    8687.9407    6913.9517   -703.53037    518.94318    -902.8961   -6457.5686 
 6450000    266.11068   -9091.7253     -8077.19   -9091.7253            0     8627.927    25.051231    24.992385    22.893024    14333.093    8453.9891    8792.2523    8637.5396   -164.92488   -1640.8345   -572.98461   -6273.6646 
 6451000    277.54905   -9092.2113   -8034.0678   -9092.2113            0    9793.2673    24.845555    24.912332    23.137877    14321.437     9501.278    10284.957    9593.5671    18.139501   -636.57833   -443.73346    -5988.612 
 6452000    261.49179   -9089.9045   -8092.9786   -9089.9045            0      9864.55    24.923054      24.9316    22.997914    14290.251    10015.557    10118.152    9459.9407    92.091483    2.6614309    1070.4937    -6037.121 
 6453000    260.75231   -9127.1753   -8133.0686   -9127.1753            0    9364.4222    25.050286    24.916156    22.870857    14275.002    8867.9018    8748.4888    10476.876    1158.8457   -7.0548356   -441.51096   -6183.5245 
 6454000    266.58588    -9081.585    -8065.238    -9081.585            0    8370.1157    25.153056    24.942366    22.857497    14340.262    6917.2409    8958.2597    9234.8466   -667.61641    -230.8584    391.82985   -6314.7287 
 6455000    258.93099   -9107.7089   -8120.5458   -9107.7089            0    8584.7927    24.940527      24.8692    23.116709    14338.161    9515.1701    9034.5076    7204.7004    370.13726    48.062648    336.06651   -6325.4025 
 6456000    249.67585   -9125.5312    -8173.653   -9125.5312            0    7444.0611    25.002821    24.986798    22.998828    14368.298    5948.5682      8229.96    8153.6551    457.28916    164.92326    896.06734   -6613.7732 
 6457000    255.04318   -9062.3943   -8090.0534   -9062.3943            0    8036.9171     25.12032    24.954175    22.965849      14396.3    8136.1589    8016.3544     7958.238      20.1513   -875.40454   -902.60586   -6402.6604 
 6458000    264.93324   -9097.9752   -8087.9288   -9097.9752            0     7882.599    25.097486    24.860054    23.049036    14380.867    7807.0418    8473.0523    7367.7029    514.11334     161.9496    1193.7122   -6434.7098 
 6459000    267.89963   -9073.1727   -8051.8171   -9073.1727            0    7832.7446    25.030397    25.013969    23.009837     14406.68    7708.6825    8074.1247    7715.4268   -1029.4547    25.371245   -891.64367   -6406.1054 
 6460000     273.8391   -9126.2575    -8082.258   -9126.2575            0    6904.1932    25.154555    24.995615    22.955236    14433.186    5626.8236      6756.79    8328.9658   -536.44715    117.42147    918.94521   -6628.9721 
 6461000    262.06578   -9059.2917   -8060.1774   -9059.2917            0    7480.5957    24.990516    24.955742    23.122288    14420.373    8044.4197     8096.264    6301.1033   -174.12378   -545.03744    45.397044   -6486.9606 
 6462000    260.61458      -9095.3   -8101.7184      -9095.3            0    8415.6519    24.975925    25.008649    22.981479    14354.557    7829.4286    7978.6829    9438.8443   -144.19214    530.90025   -154.61034   -6339.9313 
 6463000    260.44917   -9085.7187   -8092.7677   -9085.7187            0    7976.2159    24.809867    25.143699    23.019697     14359.96    8945.7134    5770.7538    9212.1804    45.077386    220.25282   -345.55875   -6422.3464 
 6464000    264.33662   -9069.6385   -8061.8668   -9069.6385            0    9719.9426    24.870558    25.062025    22.932982    14294.278    10855.601     8457.511    9846.7161    732.19237   -398.88656    208.05553   -6035.5759 
 6465000    260.52414   -9095.2029   -8101.9661   -9095.2029            0    9450.9614    24.841019    24.969046    23.039611     14290.47    11120.534    8139.1683    9093.1823    88.047222   -822.72147    271.77991   -6132.2738 
 6466000    266.27882   -9136.4481   -8121.2718   -9136.4481            0     8425.772    24.816374    25.160833    22.958207    14335.119    9675.6722    7646.3193    7955.3245   -636.98211    867.57475    602.61074   -6359.7545 
 6467000    270.77015    -9091.336   -8059.0367    -9091.336            0    8991.6508     24.92655    25.046083    22.958249    14333.121    9772.8844    7803.7326    9398.3353    12.837026   -81.505451    1072.1093   -6179.4772 
 6468000    270.30954    -9111.836   -8081.2928    -9111.836            0    8330.7064    24.941498    24.957315    23.035753    14339.131    7827.8092    9398.6409     7765.669    212.94569   -450.11834   -135.80759   -6339.1629 
 6469000    262.44934   -9120.0615   -8119.4849   -9120.0615            0    9158.6098    25.030195    25.018076    22.827194    14294.556    7917.5946    9339.3086    10218.926    573.04677    116.36153    -1718.326   -6210.1763 
 6470000    258.92362   -9085.9284   -8098.7935   -9085.9284            0    8368.5182    24.983819    24.960469    23.043919    14370.369    8361.4473    8688.6072    8055.5001   -275.04054   -1047.8709   -787.89792   -6344.9438 
 6471000    263.41525   -9097.1516   -8092.8925   -9097.1516            0    8274.3531    24.914128    24.945128    23.115037    14365.674    9517.3747    7917.8854    7387.7993    327.42056    573.72247   -316.65149   -6359.3442 
 6472000    262.88105   -9110.3659   -8108.1435   -9110.3659            0    9578.0816    24.964046    25.036171    22.903193     14314.59     9138.358    9308.1683    10287.718   -43.854179    455.34395    404.42456   -6108.5886 
 6473000    259.21845   -9079.1393   -8090.8803   -9079.1393            0    8936.5252    24.984647    24.968587    22.985639    14339.161    8996.7563    9129.9131    8682.9062    54.767607    111.10111   -660.08293   -6222.0567 
 6474000    275.84521   -9068.1757    -8016.528   -9068.1757            0    9761.5406    24.823737    24.945132    23.092098    14299.353    11587.997    9830.2748    7866.3501   -434.87835   -413.99901   -1032.3633   -5980.8427 
 6475000    259.13116   -9089.6143   -8101.6881   -9089.6143            0    8097.3189    24.940987    24.991044    23.036439    14358.642    7425.9759    8929.3195    7936.6612    1163.1324    144.34553    -353.6787   -6406.0604 
 6476000    270.23254   -9118.6702   -8088.4205   -9118.6702            0    8477.4558    25.068279    25.008071    22.876971    14341.786    7362.9721    8062.9322    10006.463    262.60381    515.08498    604.18696   -6315.2739 
 6477000    267.47644   -9079.5935   -8059.8513   -9079.5935            0    7215.1014    25.054294    24.998621    23.049314    14436.311    6469.7009    7256.6528    7918.9506   -425.77615   -126.42327   -656.06543   -6540.7927 
 6478000    265.29152   -9082.7697   -8071.3575   -9082.7697            0    6757.9691    25.094572    24.909427    23.163087    14479.046    6761.3908    7422.5385    6089.9779    35.890518    9.2132463    18.973942   -6644.3309 
 6479000    263.25709   -9104.3374   -8100.6813   -9104.3374            0    8387.7037    25.004472    25.073039    22.867352    14336.414    8528.0831    7768.7977    8866.2302    236.67335    1301.0026   -328.07959   -6346.9643 
 6480000    273.86484   -9110.7616   -8066.6639   -9110.7616            0    8196.2047    24.896277    24.983597    23.105298    14371.462    9446.1885    7432.1306    7710.2949    275.36025   -124.77238    1023.7106   -6348.7966 
 6481000    271.62422   -9082.3552   -8046.7998   -9082.3552            0    8171.1702    24.947885    24.954636    23.101458    14382.169    7762.2413    8518.7657    8232.5035   -192.16949   -496.10843    300.82552   -6332.9035 
 6482000    263.53553   -9070.9643   -8066.2467   -9070.9643            0    8972.3561    24.956439    25.065401    22.927677    14342.251    7869.5339    9550.6764     9496.858    212.62466   -299.58503    249.63432   -6189.5257 
 6483000    269.45273   -9074.6817    -8047.405   -9074.6817            0    8509.4814    24.799349    24.894221     23.26179     14360.91    9434.7505    8971.3816    7122.3122   -338.05673   -38.031442   -561.18957   -6265.1866 
 6484000    264.00309   -9070.0743   -8063.5741   -9070.0743            0    8109.1044    24.949944    25.045305    22.998082    14371.018    9588.3276    7727.8684    7011.1174   -416.47878   -1305.7283   -939.63631   -6364.0149 
 6485000    263.77786   -9124.8146   -8119.1731   -9124.8146            0    8058.2852    25.095955    25.033397    22.820996    14336.994    6816.7207    8596.9367    8761.1982    452.66952   -960.99502    915.79011   -6434.2634 
 6486000    271.23874   -9101.9184   -8067.8326   -9101.9184            0    8143.5199    24.915155    24.955667    23.075388    14347.684    8930.2073    8459.3965    7040.9559   -418.44341   -480.30837   -751.32265   -6363.8316 
 6487000    267.51634   -9118.4951   -8098.6009   -9118.4951            0    8719.4868    24.919499     25.10058    22.869176     14304.53    8854.9165    7893.7193    9409.8247   -20.902902    -831.4976   -839.65653   -6279.5686 
 6488000    268.60996   -9050.9216    -8026.858   -9050.9216            0    8375.7304    25.023797    25.065036    22.942488    14390.042    9673.7555    6738.3642    8715.0715   -4.5873487   -1478.7377    630.19244   -6269.0937 
 6489000    263.84476   -9081.2802   -8075.3837   -9081.2802            0    7794.8949    24.957116    25.017659    23.075424    14407.571    8284.9131    6967.6416    8132.1301   -427.72344   -417.17877    18.516264   -6437.5232 
 6490000     272.7883   -9091.5171   -8051.5237   -9091.5171            0    7805.1436    24.970178    25.021054    23.034401    14391.437    8082.8348    7388.5259    7944.0701    39.448139    808.69351    762.11901   -6413.3462 
 6491000    270.84757   -9095.1642   -8062.5698   -9095.1642            0    8465.2117    24.902818    25.077683    22.969649     14344.66    10723.463    7039.8723    7632.2995   -270.91601   -156.12992    97.131598   -6291.6293 
 6492000    273.30416   -9085.7839   -8043.8238   -9085.7839            0    8204.6566    24.992203    25.123029     22.84469     14343.72    7881.8609    7371.8041    9360.3048     343.8132    1307.3555    119.60377   -6327.5045 
 6493000    265.08129   -9097.7061   -8087.0954   -9097.7061            0    8669.1802    24.864403     24.92203    23.160182    14351.702    10470.659    7910.6067     7626.275    845.44652    1392.3227    619.81306   -6272.5938 
 6494000     258.4117   -9096.8535   -8111.6703   -9096.8535            0    8206.4304    25.000647    24.963781    23.003391    14356.662    7950.7886    8360.0421    8308.4605    597.61833   -869.08871    1039.0591   -6393.4309 
 6495000    261.80616   -9062.7144   -8064.5899   -9062.7144            0    8814.8764    25.003079    25.017711    22.917543    14335.377    8120.7934     8913.189    9410.6468   -418.23503    421.03027   -359.87369   -6221.6922 
 6496000    260.01508   -9092.4342   -8101.1381   -9092.4342            0    8389.8891    24.942117    24.980198    23.030802    14349.549    8881.5963    8492.3382    7795.7327   -1273.6126   -54.490077   -230.47815   -6345.3571 
 6497000    267.41983   -9041.1856   -8021.6593   -9041.1856            0    9873.8584    24.859045    25.049257    23.020801    14335.067    11165.178    8659.9769    9796.4201   -721.36973   -322.39452   -764.08743   -5957.4082 
 6498000    255.41005   -9090.7501   -8117.0106   -9090.7501            0    8872.2822    24.918226    25.154453    22.836131    14313.787    9414.2099    7109.6226    10093.014    901.54299    1041.6634    283.64048   -6264.9048 
 6499000    255.10142   -9114.8537   -8142.2908   -9114.8537            0    9145.2239    24.790166    24.951299    23.151935    14320.557    8676.2164    8978.7384    9780.7171    1154.4075    59.369264    680.47571    -6232.305 
 6500000     265.6386   -9049.9836   -8037.2481   -9049.9836            0    9306.8581    24.943367    24.984819    23.004721    14336.669    10005.105    8720.1582    9195.3112     83.53773   -1199.1746   -138.25345    -6091.318 
Loop time of 553.319 on 64 procs for 250000 steps with 1920 atoms

Performance: 78.074 ns/day, 0.307 hours/ns, 451.819 timesteps/s
193.0% CPU use with 32 MPI tasks x 2 OpenMP threads

MPI task timing breakdown:
Section |  min time  |  avg time  |  max time  |%varavg| %total
---------------------------------------------------------------
Pair    | 69.739     | 73.875     | 83.041     |  30.5 | 13.35
Bond    | 0.83015    | 1.147      | 1.9073     |  19.2 |  0.21
Kspace  | 245.81     | 257.91     | 266.88     |  30.0 | 46.61
Neigh   | 4.595      | 5.8286     | 6.5087     |  21.2 |  1.05
Comm    | 85.643     | 95.872     | 105.98     |  48.3 | 17.33
Output  | 0.62969    | 0.63007    | 0.63183    |   0.0 |  0.11
Modify  | 93.039     | 98.489     | 104.22     |  27.6 | 17.80
Other   |            | 19.57      |            |       |  3.54

Nlocal:        60.0000 ave          65 max          56 min
Histogram: 3 2 3 6 3 7 4 2 1 1
Nghost:        3360.59 ave        3391 max        3319 min
Histogram: 1 2 3 0 5 3 7 3 7 1
Neighs:        21186.2 ave       23374 max       19473 min
Histogram: 3 2 4 4 8 3 3 4 0 1

Total # of neighbors = 677958
Ave neighs/atom = 353.10312
Ave special neighs/atom = 2.0000000
Neighbor list builds = 11514
Dangerous builds = 0

unfix		3
unfix		2
unfix		1

write_data	data.final.${pid}
write_data	data.final.0
System init for write_data ...
PPPM initialization ...
  extracting TIP4P info from pair style
  using 12-bit tables for long-range coulomb (../kspace.cpp:340)
  G vector (1/distance) = 0.37435978
  grid = 30 30 30
  stencil order = 5
  estimated absolute RMS force accuracy = 0.0032825609
  estimated relative force accuracy = 9.8853348e-06
  using double precision FFTW3
  3d grid and FFT values/proc = 5400 960
Last active /omp style is kspace_style pppm/tip4p/omp
WARNING: Not all mixed pair coeffs generated from mixing. Use write_data with 'pair ij' option to store all pair coeffs. (../write_data.cpp:312)

write_restart   restart.lmp.${pid}
write_restart   restart.lmp.0
System init for write_restart ...
PPPM initialization ...
  extracting TIP4P info from pair style
  using 12-bit tables for long-range coulomb (../kspace.cpp:340)
  G vector (1/distance) = 0.37435978
  grid = 30 30 30
  stencil order = 5
  estimated absolute RMS force accuracy = 0.0032825609
  estimated relative force accuracy = 9.8853348e-06
  using double precision FFTW3
  3d grid and FFT values/proc = 5400 960
Last active /omp style is kspace_style pppm/tip4p/omp
Total wall time: 0:09:13
