LAMMPS (30 Jul 2021)
Processor partition = 1
  using 2 OpenMP thread(s) per MPI task
using multi-threaded neighbor list subroutines
variable        pid world 0 1
variable        phase world IceV IceIII

shell cd ${phase}
shell cd IceIII
include Restart.lmp
echo both
log log.lammps
#include		in.partitions
include		in.temp
variable        temperature equal 136.47
variable	tempDamp equal 100.0
include		in.pressure
variable        pressure equal 7160.8
variable        pressureDamp equal 1000.0 # This is 1 ps
include		in.seed
variable        seed equal 745823

units		real
atom_style	full

read_restart	restart.lmp.${pid}
read_restart	restart.lmp.1
Reading restart file ...
  restart file = 30 Jul 2021, LAMMPS = 30 Jul 2021
  restoring atom style full from restart
  orthogonal box = (0.019136909 0.18164122 0.070708569) to (19.980864 19.818360 20.629289)
  4 by 2 by 4 MPI processor grid
  restoring pair style lj/cut/tip4p/long/omp from restart
  restoring bond style harmonic/omp from restart
  restoring angle style harmonic/omp from restart
  972 atoms
  648 bonds
  324 angles
Finding 1-2 1-3 1-4 neighbors ...
  special bond factors lj:    0        0        0       
  special bond factors coul:  0        0        0       
     2 = max # of 1-2 neighbors
     1 = max # of 1-3 neighbors
     1 = max # of 1-4 neighbors
     2 = max # of special neighbors
  special bonds CPU = 0.002 seconds
  read_restart CPU = 0.007 seconds
include 	in.setup
variable	out_freq equal 1000
variable	out_freq2 equal 10000
variable	out_freq3 equal 1000

timestep	2.0

neigh_modify    delay 7 every 1

include		in.tip4p
# This is TIP4P/Ice

# create groups ###
group ox type 2
324 atoms in group ox
group hy type 1
648 atoms in group hy

# set charges - beside manually ###
set group ox charge -1.1794
Setting atom values ...
  324 settings made for charge
set group hy charge 0.5897
Setting atom values ...
  648 settings made for charge

# ### TIP3P Potential Parameters ###
pair_style lj/cut/tip4p/long/omp 2 1 1 1 0.1577 8.5
pair_coeff 1 1*2 0.000 0.000
pair_coeff 2 2 0.21084 3.1668
bond_style  harmonic
bond_coeff  1 450 0.9572
angle_style harmonic
angle_coeff 1 55 104.52
kspace_style pppm/tip4p/omp 1.0e-5
pair_modify tail yes

thermo          ${out_freq}
thermo          1000
thermo_style    custom step temp pe etotal epair emol press lx ly lz vol pxx pyy pzz pxy pxz pyz enthalpy

restart 	${out_freq3} restart.lmp.${pid} restart2.lmp.${pid}
restart 	1000 restart.lmp.${pid} restart2.lmp.${pid}
restart 	1000 restart.lmp.1 restart2.lmp.${pid}
restart 	1000 restart.lmp.1 restart2.lmp.1


include         in.dump
dump            myDump all atom ${out_freq2} dump.water.${pid}
dump            myDump all atom 10000 dump.water.${pid}
dump            myDump all atom 10000 dump.water.1
dump            myDump2 all dcd ${out_freq2} dump.dcd
dump            myDump2 all dcd 10000 dump.dcd
dump_modify     myDump append yes
dump_modify     myDump2 append yes


variable natoms 	equal  "count(all)"                        # NUMBER ATOMS
variable H      	equal  "enthalpy/v_natoms"                 # ENTHALPY-per-atom
variable Vol      	equal  "vol/v_natoms"                 # volume-per-atom
fix AVG all 		ave/time ${out_freq} 1 ${out_freq} v_Vol v_H file vol_enthalpy.dat
fix AVG all 		ave/time 1000 1 ${out_freq} v_Vol v_H file vol_enthalpy.dat
fix AVG all 		ave/time 1000 1 1000 v_Vol v_H file vol_enthalpy.dat


timer           timeout 02:55:00 every 1000
New timer settings: style=normal  mode=nosync  timeout=02:55:00

fix 		1 all shake 1e-6 200 0 b 1 a 1
Finding SHAKE clusters ...
       0 = # of size 2 clusters
       0 = # of size 3 clusters
       0 = # of size 4 clusters
     324 = # of frozen angles
  find clusters CPU = 0.001 seconds
fix             2 all nph aniso ${pressure} ${pressure} ${pressureDamp}
fix             2 all nph aniso 7160.8 ${pressure} ${pressureDamp}
fix             2 all nph aniso 7160.8 7160.8 ${pressureDamp}
fix             2 all nph aniso 7160.8 7160.8 1000
fix             3 all temp/csvr ${temperature} ${temperature} ${tempDamp} ${seed}
fix             3 all temp/csvr 136.47 ${temperature} ${tempDamp} ${seed}
fix             3 all temp/csvr 136.47 136.47 ${tempDamp} ${seed}
fix             3 all temp/csvr 136.47 136.47 100 ${seed}
fix             3 all temp/csvr 136.47 136.47 100 745823


run             250000
PPPM initialization ...
  extracting TIP4P info from pair style
  using 12-bit tables for long-range coulomb (../kspace.cpp:340)
  G vector (1/distance) = 0.37206068
  grid = 24 24 24
  stencil order = 5
  estimated absolute RMS force accuracy = 0.0035271694
  estimated relative force accuracy = 1.0621966e-05
  using double precision FFTW3
  3d grid and FFT values/proc = 3211 432
Last active /omp style is kspace_style pppm/tip4p/omp
Neighbor list info ...
  update every 1 steps, delay 7 steps, check yes
  max neighbors/atom: 2000, page size: 100000
  master list distance cutoff = 10.8154
  ghost atom cutoff = 10.8154
  binsize = 5.4077, bins = 4 4 4
  1 neighbor lists, perpetual/occasional/extra = 1 0 0
  (1) pair lj/cut/tip4p/long/omp, perpetual
      attributes: half, newton on, omp
      pair build: half/bin/newton/omp
      stencil: half/bin/3d
      bin: standard
Setting up Verlet run ...
  Unit style    : real
  Current step  : 25250000
  Time step     : 2
  Walltime left : 2:54:59.93
Per MPI rank memory allocation (min/avg/max) = 10.19 | 10.19 | 10.19 Mbytes
Step Temp PotEng TotEng E_pair E_mol Press Lx Ly Lz Volume Pxx Pyy Pzz Pxy Pxz Pyz Enthalpy 
25250000    140.73431   -4957.1548   -4685.7368   -4957.1548            0    6042.4644    19.961727    19.636719    20.558581    8058.6105    5449.9081    7072.6443    5604.8407    130.44342    1171.5646    415.37775   -3975.5867 
25251000    135.86983   -4966.4513   -4704.4149   -4966.4513            0    6606.1897    19.788324    19.624121    20.560526    7984.2372    7095.9336    6927.8092    5794.8263   -80.201536   -1360.1002   -271.60313   -3935.1776 
25252000    133.41697   -4958.1848    -4700.879   -4958.1848            0    7295.6202    19.798003     19.73019    20.448064    7987.3893    7562.2844    6633.1336    7691.4427   -360.74758    571.61684    646.79459   -3851.0276 
25253000    138.67887   -4968.8347   -4701.3809   -4968.8347            0    7719.4819    19.936019    19.748518    20.290468    7988.4956    7608.5931    6983.1676    8566.6851   -41.992799   -302.68185     234.9981   -3802.0302 
25254000    129.41787   -4981.0269   -4731.4336   -4981.0269            0    6141.6031    19.920392    19.836953    20.498263    8100.0917    7179.4177    4920.2124     6325.179    265.21694   -63.897149    963.16967   -4005.9167 
25255000     130.3362   -4955.2983    -4703.934   -4955.2983            0    6953.4652    19.762053    19.678727    20.649775    8030.5333    6578.0047    7710.1345    6572.2563   -81.316112    396.72444    1043.8545   -3889.5643 
25256000    137.41757   -4961.8125   -4696.7911   -4961.8125            0    5030.4539    19.749746     19.88485    20.537681    8065.5732    5343.9567    5050.1016    4697.3034    57.991738    569.45367   -260.57992   -4105.0683 
25257000    137.57756   -4967.3791   -4702.0492   -4967.3791            0    7342.0721    19.957268    19.583139    20.520477    8019.9351    6331.3274    8556.5187      7138.37    127.14438    414.76425   -620.06383   -3843.3019 
25258000    143.35632   -4977.2946   -4700.8199   -4977.2946            0    7743.1564     19.76839    19.862274    20.446115    8028.0684    8057.0668    7285.3379    7887.0645   -860.67974   -232.84987   -94.518364   -3794.2423 
25259000     140.7475   -4965.0309   -4693.5875   -4965.0309            0    7055.1566    19.754292    19.921617    20.495453     8065.728      7679.91    6441.7466    7043.8133   -439.52554    1280.7123     187.5225   -3863.6868 
25260000    141.80165   -4976.6002   -4703.1238   -4976.6002            0    5221.2712    19.849186    19.857823    20.496103    8078.7771    4594.4336    5431.0671    5638.3129   -131.33809   -548.44239   -210.35339   -4087.9501 
25261000    133.12869   -4956.3756   -4699.6257   -4956.3756            0    7196.5156    19.781678    19.712363     20.41876     7962.165    7379.3863    6728.0018    7482.1587    498.66065    793.15525    113.01284   -3863.9662 
25262000    140.29992   -4945.4186   -4674.8384   -4945.4186            0    7711.0509    19.743491    19.874433    20.338784    7980.7492    8419.8332    6842.3657    7870.9537    -371.0791    -865.8857   -191.45527   -3777.3411 
25263000    144.25393   -4960.4456   -4682.2398   -4960.4456            0    6985.8043    19.857267    19.852212    20.371893     8030.818    8412.0159    5219.3032    7326.0937    552.86327    703.18426   -81.006385   -3864.0537 
25264000    136.62404   -4972.1762   -4708.6852   -4972.1762            0    7493.0834    19.895403    19.722335    20.369925    7992.8288    6656.7775    7786.8343    8035.6383   -165.43879   -168.90199   -510.55523   -3835.2374 
25265000    135.06165   -4971.2541   -4710.7763   -4971.2541            0    6490.6226     19.82159    19.789437     20.49628    8039.8318    5846.6542    7030.6385    6594.5752    244.44258    1362.8307    345.08856   -3949.7333 
25266000    134.06443   -4954.3582   -4695.8036   -4954.3582            0    8131.7929    19.806989    19.712118    20.361049    7949.7213    7565.4555    8320.2206    8509.7026   -338.82682   -634.35532   -1142.4937   -3753.0155 
25267000    136.32441   -4967.3841    -4704.471   -4967.3841            0    5826.7843    19.868832    19.778815    20.432081     8029.439     5809.312    6241.6206    5429.4203   -1.0987389    829.55881     28.75285    -4022.148 
25268000    138.45412   -4994.3902   -4727.3698   -4994.3902            0     5624.337     19.84568    19.717208    20.640116    8076.5062    5185.3735    6153.9772    5533.6602    574.30062    15.878154   -477.90335   -4064.8929 
25269000    131.81263   -4962.9929   -4708.7812   -4962.9929            0    8102.8967     19.83792    19.728228    20.514819    8028.8234    8580.7856    8016.0148    7711.8898   -432.13797   -1273.3488     38.45467   -3759.9956 
25270000     133.9077   -4972.1325   -4713.8803   -4972.1325            0    7249.4712    19.748977    19.787483    20.639386    8065.5118    7946.6488    7587.4857    6214.2791   -16.114672    447.23912    -10.46684   -3861.1451 
25271000    134.08171   -4983.8762   -4725.2884   -4983.8762            0    5694.8876    19.788805    19.981056     20.41639    8072.6653     5598.578    5694.8003    5791.2847   -29.095255    758.28795    52.421702   -4054.8205 
25272000    138.45356    -4966.607   -4699.5877    -4966.607            0    8141.7475     19.84835    19.735848    20.391277    7987.7529    7010.3336    9474.3086    7940.6003   -256.83144    296.19745    704.76947   -3751.1296 
25273000     133.0366   -4979.5108   -4722.9385   -4979.5108            0    5689.9855    19.827995    19.836891     20.48588    8057.6249    7048.6228     4410.739    5610.5946   -268.33921    1053.0128   -367.09137   -4054.2959 
25274000    142.97483   -4962.7101   -4686.9711   -4962.7101            0     5461.946    19.803447    20.086052     20.34447    8092.4824    6481.5701    3731.6072    6172.6607    -230.8727    420.54179   -243.25934   -4042.3492 
25275000    140.98612   -4961.4417   -4689.5381   -4961.4417            0    6922.7216    19.652801    19.950217    20.440697    8014.3405    7815.6882    6987.3952    5965.0813   -24.296471    1193.0099   -676.01296   -3880.4039 
25276000    143.66781   -4965.5928   -4688.5173   -4965.5928            0    6629.5563    19.812638    19.680677    20.537453    8008.0896    6612.3823    6193.7251    7082.5614   -633.56066    290.18657    193.40602    -3914.253 
25277000    143.22581   -4961.4683   -4685.2453   -4961.4683            0    7176.1969    19.736898    19.883617     20.41434    8011.4225    7338.2385    6143.4213    8046.9307    409.79837   -314.29548    129.96472   -3846.7901 
25278000    134.93259   -4976.6523   -4716.4235   -4976.6523            0    8311.5799    19.829823    19.844442    20.379727    8019.6624    8593.1494    7562.3345    8779.2558   -462.31416    549.27182   -165.36078   -3744.3131 
25279000    131.00969   -4953.2849   -4700.6217   -4953.2849            0    6359.0302     19.79311    19.886671    20.438324    8044.9142    6509.1888    6838.5443    5729.3576   -205.59241    813.15969    329.72491   -3954.5369 
25280000    137.61601   -4959.7492   -4694.3451   -4959.7492            0    7851.2059    19.762766    19.760199    20.555169    8027.1263    8570.4422    7160.0093    7823.1662    256.29879    876.26718    1216.2226   -3775.2249 
25281000    139.91131   -4960.5113   -4690.6805   -4960.5113            0     6866.237    19.724539    19.896612    20.426597    8016.4488    9607.4225    4513.7912    6477.4972    -948.3302    568.29185    192.97295   -3887.9372 
25282000    134.52925   -4961.0899    -4701.639   -4961.0899            0     6080.703      19.9038    19.890352     20.39649    8074.8396    6683.5863    5427.7954    6130.7273    228.50248    681.09811   -960.03384   -3985.5556 
25283000    135.28142   -4953.4876    -4692.586   -4953.4876            0    7666.5085    19.692444    19.786402    20.406524    7951.2513    6659.3543    8565.6618    7774.5093     96.17027   -1016.0147    254.54994   -3803.5712 
25284000    137.56619   -4983.9138   -4718.6059   -4983.9138            0    5903.7172    19.787803    19.761627    20.590428    8051.6645    5811.7088    7292.4984    4606.9443   -171.59536   -243.10727   -77.059635   -4025.3603 
25285000    131.07327   -4989.9622   -4737.1763   -4989.9622            0    5498.7899     19.79537    19.738037    20.639573    8064.3296    6812.2895    5289.0094    4395.0707    -77.48733    85.231148   -372.99077   -4090.4638 
25286000    135.66291   -4981.2037   -4719.5664   -4981.2037            0    6136.4401    19.783954    19.837399    20.500824    8045.7979    5798.4385     6637.514    5973.3677   -108.07826    28.408272   -125.29368   -3999.5183 
25287000    142.25727   -4980.2241    -4705.869   -4980.2241            0    6928.6978     19.63681    19.795116    20.609829    8011.3069    6814.3858    7913.1353    6058.5724   -162.36027   -342.60768    415.36231   -3896.3428 
25288000    138.03942   -4961.6022   -4695.3816   -4961.6022            0    7124.4964    19.934654    19.669626    20.416713      8005.54    7915.9182    6660.8865    6796.6844   -273.76754    486.73736   -164.18462   -3863.5782 
25289000    133.63622   -4963.5566   -4705.8279   -4963.5566            0    8010.5065    19.577969    19.764775    20.458335    7916.4378    8521.8243    7683.1785    7826.5167   -132.54015   -17.815123    498.76999   -3780.9899 
25290000    135.01718   -4965.8837   -4705.4917   -4965.8837            0    7462.1556    19.799026    19.863196    20.347946    8002.2759    7614.1353    7715.2536     7057.078   -87.975715    435.16927   -455.90089    -3834.621 
25291000    132.55643   -4957.4881   -4701.8419   -4957.4881            0    6739.7799    19.865775    19.669363    20.608008    8052.5205    7231.2206    7172.7158    5815.4033   -385.81519    1690.7662     169.2727   -3910.3373 
25292000    129.01173   -4962.4065   -4713.5966   -4962.4065            0    7251.5074    19.764602    19.754277    20.563813    8028.8414    7337.0125    7355.1942    7062.3156   -1015.0274    1552.9606    543.87661      -3864.5 
25293000    141.45428   -4971.0494   -4698.2429   -4971.0494            0    5240.6196    19.758344    19.838573    20.557943    8058.2482    3628.5377    5654.4904    6438.8307    -554.1143   -650.52423   -15.035463   -4082.3586 
25294000    131.76023   -4974.8394   -4720.7288   -4974.8394            0    7088.6462    19.733683    19.793387    20.459094    7991.2489    6771.4634    7158.4032    7336.0721    178.36993   -715.98744   -284.07229   -3894.5884 
25295000    130.33802   -4981.3619    -4729.994   -4981.3619            0    6620.4115    19.782184    19.887157    20.511128    8069.3118    7324.2109    6616.6304    5920.3931    189.18475    828.11909      -829.81   -3950.8866 
25296000    137.76938   -4975.2969    -4709.597   -4975.2969            0    8321.3304    19.738561     19.76301    20.444191    7975.1432    6752.9759    10130.923     8080.092    247.89024   -1168.8719   -1238.1433   -3741.7491 
25297000     134.9034   -4968.4199   -4708.2473   -4968.4199            0    6859.0042    19.819974    19.962265    20.296101    8030.1846    8269.0327    5695.2748    6612.7052   -132.88371    961.93429    636.84728   -3904.9756 
25298000    131.17805   -4978.3997   -4725.4118   -4978.3997            0    5766.0371    19.838841    19.736519    20.653415    8086.8379    4461.6865    7767.3661    5069.0586   -164.83745    566.58074    274.18932   -4045.3755 
25299000    142.08585   -4978.1318   -4704.1073   -4978.1318            0    7263.4182    19.711737    19.849805    20.520001    8028.9452    8321.7967    6690.5427     6777.915   -352.76203   -267.77078   -151.57588   -3853.6051 
25300000    128.46361    -4967.421   -4719.6682    -4967.421            0    7500.4596    19.929124    19.763273    20.445642    8052.8172    8207.5256    6462.1728    7831.6804   -229.49656   -1409.5987    47.821402   -3838.7986 
25301000    146.13397   -4952.8498   -4671.0181   -4952.8498            0    7268.6479    19.950316    19.881614    20.288911    8047.4843    6207.4619    7829.5885    7768.8934    693.91561    374.65946    95.501261   -3817.9383 
25302000    134.73744   -4972.5119   -4712.6594   -4972.5119            0    7810.6274    19.843007      19.8098    20.369769     8007.071    6637.9898    8319.6251    8474.2672    493.89374   -90.351759   -459.04904    -3800.574 
25303000    132.26071   -4972.3111   -4717.2352   -4972.3111            0    7741.7327    19.716028    19.655626    20.592255    7980.1342    6009.6432    9685.8211    7529.7339   -357.09062   -321.43811   -422.20995   -3816.2363 
25304000    142.32094   -4965.7613   -4691.2834   -4965.7613            0    7549.8905    19.800748    19.845703    20.355223    7998.7838     7497.906    7127.4617    8024.3038    353.55399   -1095.9406    33.637792    -3810.558 
25305000    138.83438    -4967.672   -4699.9182    -4967.672            0    6692.7374    19.686106    19.880501    20.428968    7995.2783    6002.4286    7475.2801    6600.5034    284.62911   -280.81707    1085.8942   -3919.5254 
25306000    143.09753   -4960.2326   -4684.2569   -4960.2326            0     6342.156    19.980226    19.707122    20.529973    8083.7329    6113.5468    6719.6964    6193.2249   -713.57453    462.56856   -426.25485   -3936.5614 
25307000    130.22141   -4973.1754   -4722.0324   -4973.1754            0    6571.0809     19.74953    19.841687    20.458369    8016.8984    6124.5351    7222.9648    6365.7427   -217.66476    375.96461     1048.453   -3953.7532 
25308000    142.28962   -4973.3169   -4698.8994   -4973.3169            0    6948.7566    19.873897    19.621343    20.407131     7957.813    7091.0798    7222.4983    6532.6916   -108.70862   -230.35096   -748.82016   -3892.4508 
25309000    142.00318   -4989.4831   -4715.6181   -4989.4831            0    5382.4868    20.048562    19.750931    20.378857    8069.5746    5193.3371    4778.9783     6175.145   -190.68332    513.89057    950.27153   -4082.1722 
25310000    133.69997   -4957.9121   -4700.0605   -4957.9121            0    8706.8002    19.737673    19.914361    20.252349    7960.4519    9928.4798    7807.7061    8384.2146   -124.18867    763.19934    536.46244   -3689.2443 
25311000    139.00531   -4967.7305   -4699.6471   -4967.7305            0    7112.5261    19.804847     19.91478    20.372684    8035.1734    8071.5222    6134.2857    7131.7705   -158.83837    133.95715    194.04525   -3866.1674 
25312000    143.34308   -4954.0435   -4677.5943   -4954.0435            0    8288.7365    19.744543    19.871466    20.395252    8002.1386    8822.4645    7871.5747    8172.1704   -367.84938   -96.789551   -782.97631    -3710.274 
25313000    140.13122   -4958.7606   -4688.5058   -4958.7606            0    6989.0068    19.837355    19.725172    20.480682    8013.9931     7103.359    6670.0192    7193.6423   -538.11183     453.9868    983.81409   -3871.6596 
25314000    138.20386    -4962.983   -4696.4452    -4962.983            0    7745.0435    19.647402    19.774861    20.593974    8001.2666    7565.9681    9089.0409    6580.1214    981.82031   -299.49513   -482.67927    -3792.674 
25315000    132.94067    -4967.258   -4710.8707    -4967.258            0    6582.9343    19.737713    19.801198     20.55768    8034.5657    6322.4678    6404.2435    7022.0915   -691.27793    443.00417    509.51178   -3939.5094 
25316000    141.66276   -4958.9505   -4685.7419   -4958.9505            0     5572.665    19.866116    19.696051    20.579245      8052.33    5135.4125    5221.7864     6360.796     -170.996     666.5601   -783.13853   -4031.3161 
25317000     136.6083    -4978.804   -4715.3434    -4978.804            0    7968.4182     19.83909    19.853751    20.345756    8013.7938    5788.3571    9201.3839    8915.5137   -332.50474    -598.6756    334.33502   -3784.0508 
25318000     136.8168   -4964.0077    -4700.145   -4964.0077            0    7581.4324    19.688621    19.832307    20.470972    7993.3163    8456.5243    7128.0431    7159.7297   -173.29716    225.45353    806.51543   -3816.3447 
25319000     132.0939   -4983.7445   -4728.9903   -4983.7445            0     7727.047    19.731176    19.963276    20.440662    8051.5547    6911.9476     9000.517    7268.6763   -399.43486    819.07878    231.81009   -3821.6521 
25320000    140.60776    -4966.716   -4695.5421    -4966.716            0    7630.4217    19.752106    19.863285    20.403472    8005.1333    7469.9543    7659.0839     7762.227    311.58946   -507.31642    824.50935   -3804.7159 
25321000    142.05452    -4976.088   -4702.1239    -4976.088            0    6856.0502    19.919732    19.858577    20.388075    8065.0644    7057.6288    6458.0658    7052.4561    -667.8498    1250.0168   -399.54145   -3895.7106 
25322000    147.55123   -4960.1594   -4675.5944   -4960.1594            0     6698.235    19.870941     19.73633    20.472369    8028.8424    6512.7752    7694.3587    5887.5711    380.79677   -313.93114    674.16925   -3891.2818 
25323000    135.07863   -4977.5457   -4717.0352   -4977.5457            0    7530.5472    19.784259    19.683743    20.401113    7944.7698    6717.1682    7894.9869    7979.4866   -389.72909   -410.66777   -9.4936507   -3844.4984 
25324000    133.01965   -4975.1376    -4718.598   -4975.1376            0    6381.0047    19.838627    19.793561     20.38344    8004.1096    6010.6615    6258.6778    6873.6748   -468.57617    470.93244    -1286.141   -3973.7323 
25325000    135.27316   -4966.3751   -4705.4894   -4966.3751            0    8052.8397    19.911413     19.64017    20.429697    7989.3094    7862.6878    8702.6582    7593.1731   -454.18061    2056.7117   -477.36032   -3767.2057 
25326000    134.01815   -4964.5288   -4706.0635   -4964.5288            0    7991.9776    19.741625    19.795976    20.464741    7997.7177    6970.8122    9288.3782    7716.7423    42.139859   -298.43933   -602.44832   -3773.8911 
25327000    128.20301   -4976.9245   -4729.6743   -4976.9245            0    6562.2572    19.833336    19.661363    20.606309    8035.4387    6856.5642    7144.9191    5685.2884   -233.25765     658.9776   -471.76047   -3960.6523 
25328000    141.01661   -4963.3694    -4691.407   -4963.3694            0    7076.7395    19.845617    19.813704    20.526242    8071.2301    7358.0086    6062.0688    7810.1411    -147.3669   -81.987168    185.78809   -3858.3997 
25329000    135.94907   -4976.2083   -4714.0191   -4976.2083            0    7167.1398    19.829355    19.801329    20.400571    8010.2352     7704.701    6608.5855    7188.1329   -723.09709    1339.4113   -59.094783   -3876.7462 
25330000    140.66725   -4964.8955   -4693.6069   -4964.8955            0    6728.4876    19.998285    19.787715    20.264199    8018.9563    6254.4635    7010.9987    6920.0006    146.03416    489.07704   -480.12471    -3906.722 
25331000    135.13473   -4960.5043   -4699.8856   -4960.5043            0    7227.0427    19.880629    19.682558     20.46149    8006.6145     6464.441    8290.2659    6926.4211    238.04762    212.84835   -408.36161   -3855.9964 
25332000    136.87469   -4979.1801   -4715.2057   -4979.1801            0    8438.6625    19.927765    19.803752    20.192033    7968.6747    6864.2157     8945.697    9506.0749   -830.34192   -673.28567    394.74876    -3734.507 
25333000     139.6122   -4962.8723   -4693.6184   -4962.8723            0    8323.3994    19.721062    19.717932    20.420091    7940.5269    7986.7123    8016.7072    8966.7788    897.87128    349.05409    185.65353   -3729.7318 
25334000    141.55216   -4957.1054   -4684.1102   -4957.1054            0    7102.4165    19.817393     19.64621    20.589183    8016.1238    6615.0123    7641.6328    7050.6045   -349.41249   -580.68212    26.707394   -3853.7883 
25335000    133.03506   -4971.0608   -4714.4915   -4971.0608            0    5860.5289    19.790837    19.787098    20.494351    8025.6541    5934.6892    5765.0138    5881.8836    584.33783    196.97705    1292.9376   -4028.5404 
25336000    131.50192   -4961.7079   -4708.0954   -4961.7079            0    6368.3342    19.746969    19.798877    20.448643    7994.7612     8066.363    4793.5471    6245.0925   -121.59739   -794.12297    -414.0124    -3965.577 
25337000    135.17873   -4973.0904   -4712.3868   -4973.0904            0    5889.5099    19.787968    19.630995    20.702405    8042.0046    7026.9236    6334.8049    4306.8012   -243.40659   -70.521543   -63.557396   -4021.6393 
25338000     141.4697   -4974.5409   -4701.7047   -4974.5409            0    7485.3632    19.802391    19.586017    20.589847    7985.7715    7016.9574    8716.6811    6722.4511    400.07214    346.59225    1055.9378   -3829.9272 
25339000    131.88186   -4986.7413    -4732.396   -4986.7413            0     7510.095    19.697715    19.862284    20.552827    8041.1213    8157.0623    7421.7017     6951.521    657.50065   -1113.5555    32.680382   -3851.6758 
25340000    132.65831    -4966.003   -4710.1603    -4966.003            0    6635.2872    19.768848    19.960977    20.405143    8051.9823    6715.6398    6370.3149    6819.9068    456.54388   -302.31054    537.09692   -3930.9791 
25341000     134.1604   -4967.1695   -4708.4299   -4967.1695            0    7584.7953    19.743581     19.73033    20.490431    7981.9938    7869.2844    7632.9688    7252.1327    332.31624    292.63358    661.50847     -3825.49 
25342000    131.88694   -4968.8334   -4714.4783   -4968.8334            0     5384.758     20.04525    19.651713    20.490128    8071.5426    4536.6347    5832.3924     5785.247   -256.82586    684.47386   -699.41438   -4080.6106 
25343000    143.03523    -4970.316   -4694.4605    -4970.316            0    6173.0819    19.738345    19.805395    20.515598    8020.0748    7773.3777    5069.9515    5675.9166   -252.32588    459.22501    63.404226   -3972.4287 
25344000    134.16106   -4975.9329    -4717.192   -4975.9329            0    5059.9888    19.799087    19.952454    20.619403    8145.4962    5226.7813    5201.3359    4751.8492   -222.31754    592.85618    758.04206   -4116.0971 
25345000    133.32752   -4989.5217   -4732.3883   -4989.5217            0    7382.5863    19.712824    19.769017    20.562835    8013.4018    7225.4122    7925.3682    6996.9786   -12.902904    1366.3824    633.15905   -3869.6058 
25346000    142.34883   -4972.7353   -4698.2036   -4972.7353            0    7768.8723    19.839279    19.821484    20.361499    8007.0361    6849.7079      8544.75    7912.1591   -230.64744   -593.80428    606.01929   -3790.9981 
25347000    136.06667   -4962.4995   -4700.0834   -4962.4995            0    8195.9715    19.690603    19.957819    20.315551    7983.6352    8873.7309    7088.4058    8625.7779     3.185455    1147.6749   -478.69435   -3745.8008 
25348000    136.93835   -4969.4806   -4705.3834   -4969.4806            0     7480.962     19.65871    19.901041    20.427899    7991.9827    6687.5079    7694.9821    8060.3959    -134.3895   -159.27708    123.13111   -3833.4409 
25349000    137.41692   -4973.1523   -4708.1323   -4973.1523            0    7441.7106    19.863381    19.730796    20.501004    8034.7603    7131.2775    7515.7866    7678.0677   -120.51627   -828.17712   -617.24696    -3836.122 
25350000    132.04337   -4960.7524   -4706.0956   -4960.7524            0    6896.0406    19.905345    19.703159    20.418502    8008.0989    6862.1221    7389.9359    6436.0637    59.140731   -369.06727    574.47453   -3900.7077 
25351000    137.04852   -4995.9114   -4731.6018   -4995.9114            0    5831.2172    19.857994    19.771802    20.451255     8029.742    5303.6632    6543.0206    5646.9679   -233.81056    776.32828    329.40767   -4048.7339 
25352000    134.36595   -4962.0948   -4702.9588   -4962.0948            0    6755.9551    19.723859    19.814553    20.516265    8018.1557    6546.5719    6576.9457    7144.3476    187.77228   -212.71965    819.60987   -3912.9405 
25353000    138.49121   -4961.4774   -4694.3855   -4961.4774            0    6504.8801    19.789508    19.713149    20.598994    8035.9459    8222.1023    5935.7219     5356.816   -129.63617    317.72527    315.06962   -3932.0394 
25354000    138.54909   -4967.8508   -4700.6473   -4967.8508            0    6572.4087    19.811076    19.888464    20.426189     8048.161    6928.5474    6368.6671    6420.0116   -877.11256    2230.0964    362.70881   -3929.2162 
25355000    139.00137     -4956.03   -4687.9541     -4956.03            0    5210.5512    19.845336    19.842083    20.505552    8074.5284    5568.1089    4481.7305    5581.8142   -334.17319    110.61626    294.66556   -4074.3663 
25356000    132.18117   -4973.3396   -4718.4171   -4973.3396            0    7569.9291    19.840298    19.719394    20.434888    7994.9178    8563.7477    6871.5261    7274.5135   -316.05727   -91.299394    563.75653    -3835.781 
25357000    130.45241    -4947.338   -4695.7496    -4947.338            0    8510.9284    19.817305    19.587523    20.465275    7944.0449    10052.903     7154.718    8325.1645    62.847386   -644.17495    -700.6089   -3709.7096 
25358000    138.31406   -4955.8209   -4689.0706   -4955.8209            0    7226.2107    19.682797    19.600492    20.756063    8007.5336    6163.8076     9667.514    5847.3106   -283.57088    103.97073    476.51226   -3845.1817 
25359000    140.04426   -4974.9603   -4704.8732   -4974.9603            0    7677.3973    19.817143    19.833063    20.352968    7999.4212    7128.3629    6631.7462    9272.0829    212.23999   -493.56004   -117.98418   -3809.2022 
25360000    140.94164   -4956.8116   -4684.9938   -4956.8116            0    7208.3443    19.622905    19.947736    20.350388    7965.8035    9271.9586    4937.4601    7415.6144    291.35232     437.4371   -609.57031   -3847.5782 
25361000    141.17672   -4958.1863   -4685.9151   -4958.1863            0    9064.8607     19.77491    19.811749    20.408084    7995.3883    7954.4956    10256.074    8984.0126    35.058129   -568.88259    96.140256   -3628.9112 
25362000    139.47374   -4970.3477   -4701.3608   -4970.3477            0    5780.8851    19.817722    19.713491    20.601973    8048.7065    4755.3053     6855.696    5731.6541   -602.64032   -313.68795   -449.21817   -4022.7882 
25363000    130.85861   -4964.9779    -4712.606   -4964.9779            0    7336.5891    19.735172    19.763339    20.416568    7963.1331    7550.9468    6281.1628    8177.6578    194.03777   -284.15773     438.1268   -3860.5776 
25364000    135.87437   -4959.5059   -4697.4607   -4959.5059            0    7371.7568    19.939352    19.634016    20.469533    8013.6087      6902.23    7315.8069    7897.2334   -439.72945   -420.36749   -103.38608   -3835.9215 
25365000    134.83135   -4969.7524   -4709.7188   -4969.7524            0    6509.0489    19.876976    19.821938    20.417845    8044.6351    7264.4708    5967.4798    6295.1961    376.41546    914.75944    1425.8269   -3946.0593 
25366000    129.67292   -4967.1122    -4717.027   -4967.1122            0    6890.4291    19.982325    19.697318    20.259104     7973.947    6284.1859    7204.6004    7182.5009   -208.52845    1490.8135    866.59658   -3915.7264 
25367000    134.32998   -4980.6206   -4721.5539   -4980.6206            0    6956.8431    19.916186    19.640253    20.529152     8030.161    6314.1099    8446.5443    6109.8751    8.1595771   -260.79167   -782.72393   -3906.8265 
25368000    130.04527   -4967.2316   -4716.4284   -4967.2316            0    7487.3709    19.900074    19.615173    20.489225    7997.8337    8068.8599    8276.8674    6116.3855   -487.59617    565.73072    207.14142      -3843.1 
25369000    133.19041   -4974.4354   -4717.5665   -4974.4354            0    7901.9476    19.903699    19.787814    20.345799    8013.2068     5905.773      8765.56    9034.5099   -432.45234    -477.5497    963.49453   -3794.1101 
25370000     134.1949   -4958.7664   -4699.9603   -4958.7664            0    8141.4014    19.897175    19.702434    20.384244    7991.0882    6936.5738    8637.8305    8849.7999    -138.0342    301.82875   -1129.1512   -3751.1465 
25371000     133.7369   -4980.3412   -4722.4183   -4980.3412            0    7608.0051    19.687668    19.718243    20.612366    8001.8483    7718.8927    8863.6249    6241.4977   -403.91727    2158.8583    479.80983   -3834.5737 
25372000    138.85014   -4957.5531   -4689.7689   -4957.5531            0    7195.6056    19.712878    19.736837    20.581823    8007.7669    7131.6978    7719.1036    6736.0153    37.104158    697.87957   -374.51304   -3849.4296 
25373000    140.40777   -4975.5365   -4704.7483   -4975.5365            0    7652.5231    19.819239    19.751547    20.451277    8005.8701    7443.0933     8153.047    7361.4288   -619.83408   -125.91674   -1272.6037   -3811.2596 
25374000    134.73402    -4961.795   -4701.9492    -4961.795            0    7013.3203    19.919889    19.703845    20.453508    8027.9693    5741.6358    7869.4998    7428.8252   -692.12328    397.99112    737.31663   -3880.8317 
25375000    138.55989   -4953.1086   -4685.8842   -4953.1086            0    8603.1688    19.775333    19.639272    20.524485    7971.1587    9119.3687    8471.5468    8218.5908   -301.86915    1425.7833   -998.27889   -3685.7558 
25376000    132.28428   -4973.8702   -4718.7488   -4973.8702            0    8442.5599    19.507155    19.763996    20.667085    7967.9747    10388.208    7630.1504     7309.321   -21.109449    189.50996    666.05755   -3737.6834 
25377000    140.73445   -4976.7496   -4705.3314   -4976.7496            0    7284.3982    19.738815    19.852236    20.429613      8005.54    7939.6466    5856.1911    8057.3569   -601.91323   -384.11122   -963.65402    -3854.859 
25378000    138.29081   -4977.6616   -4710.9562   -4977.6616            0    6648.2748     19.60087    19.803883    20.590726    7992.7707    6051.4141    7335.3956    6558.0147   -292.21223    -230.9396    508.06669    -3935.991 
25379000    139.67314   -4944.8305   -4675.4591   -4944.8305            0    8252.4583    19.845971     19.63583    20.413083    7954.8177    8269.3271    8338.9027    8149.1452     592.1585     343.8886    173.57489   -3718.0678 
25380000    127.04663   -4971.9209   -4726.9008   -4971.9209            0    6525.4996    19.766665    19.872958     20.40613     8015.979    7196.3368    5618.5564    6761.6055    12.303023   -562.26621   -117.91991   -3964.0383 
25381000    132.39103   -4982.5423   -4727.2151   -4982.5423            0    6729.7276     19.68083    19.811854    20.512456    7998.0883    7167.7194    6158.2633       6863.2   -428.42806    317.97378    250.72182   -3942.2333 
25382000    136.77161   -4955.3334   -4691.5579   -4955.3334            0    5775.0606    19.711258    20.030812    20.478138    8085.4346    8068.6578    3557.7063    5698.8176    20.975133    -28.59571     605.5892   -4010.5756 
25383000    145.05003   -4967.4802   -4687.7391   -4967.4802            0    7245.4061    19.839119    19.588502    20.610972    8009.8077    6466.5134     7527.828    7741.8767    99.934108   -989.71609     23.27608   -3841.3682 
25384000    131.74641   -4965.6572   -4711.5732   -4965.6572            0    7555.3624    19.719653    19.838906    20.432603    7993.5684    8097.0603    6693.2363    7875.7906   -452.09746    599.39478   -153.05583   -3830.7842 
25385000    142.35832   -4977.4464   -4702.8965   -4977.4464            0    7748.4371    19.661111    19.836714    20.404424    7957.9668    8865.5529    6122.8784      8256.88   -6.6417291   -26.689335    262.60029   -3803.6223 
25386000    140.74355   -4967.6055   -4696.1697   -4967.6055            0    7734.6575    19.631187    19.806171    20.465571    7957.3953    7064.9058    8623.7133    7515.3534   -168.36575    257.01121    680.90819   -3798.5593 
25387000    127.56433    -4960.373   -4714.3544    -4960.373            0    6777.4431    20.004118    19.762619    20.326539    8035.7675    5919.8841    6011.1152      8401.33   -265.83152   -581.00742    576.98239   -3920.0827 
25388000    133.98613   -4967.8923   -4709.4888   -4967.8923            0    7726.8329     19.90377    19.735763    20.379302    8005.3179    8599.0395    5988.2768    8593.1822   -897.41923   -292.78756    515.07562   -3807.3861 
25389000    130.13551   -4979.0216   -4728.0444   -4979.0216            0    7912.6382    19.681561    19.795798    20.490171    7983.2207    9192.0743    6781.6694     7764.171    -216.9945    105.55629    -561.4237    -3806.799 
25390000    137.21492   -4966.9373   -4702.3068   -4966.9373            0    5976.0154    19.684291    19.940269    20.524371    8056.0218    5618.3538    6376.8578    5932.8345    -448.7524   -172.38588   -205.96059   -4000.1918 
25391000    133.15439    -4964.477   -4707.6776    -4964.477            0     6983.925     19.72066    19.898367    20.432702    8017.9751    7269.5643    6563.1575    7119.0532   -194.27196    782.24734   -985.81308   -3891.0197 
25392000    137.40179   -4973.8237   -4708.8327   -4973.8237            0     6861.366    19.624512     19.79578    20.552128    7984.1427    7325.2174    7279.2287    5979.6518    112.70512   -268.88558    862.48462   -3909.8916 
25393000     134.9129   -4977.8223   -4717.6314   -4977.8223            0    5690.1695    19.760184    20.065438    20.365726    8074.9439    7104.8935     4230.688    5734.9269    229.05774    212.19632    1333.2625   -4047.5299 
25394000    132.57289   -4963.5896   -4707.9116   -4963.5896            0    7362.8327    19.783655    19.872352    20.462162    8044.6531    7593.8695    7132.1917    7362.4368    370.41063   -580.74664   -415.82217   -3844.0819 
25395000    132.33353   -4967.6758   -4712.4594   -4967.6758            0    5238.8691    19.768238     19.84266    20.536665    8055.5977    5424.5475    5886.5889    4405.4709    123.24637    1389.0522      654.686   -4096.9833 
25396000    138.68568   -4981.7626   -4714.2956   -4981.7626            0    7407.0051    19.701927    19.735136    20.498636     7970.284    8287.0626    6838.4505    7095.5022   -229.89383    767.54043    473.93468   -3853.3171 
25397000    133.38813   -4975.5107   -4718.2605   -4975.5107            0    7284.9851    19.762995    19.656059    20.552148    7983.7408    6005.6709     8496.574    7352.7105     -824.785   -215.48031     1251.891   -3870.0356 
25398000    136.43368   -4975.9051   -4712.7813   -4975.9051            0    8050.9304    19.711258    19.803807    20.452716    7983.8799    7452.7461    8887.5895    7812.4556    259.80806    61.768807   -0.1457626   -3775.3575 
25399000    142.29271   -4964.2346   -4689.8111   -4964.2346            0    7461.6254    19.740769    19.851341    20.338479    7970.2581    7265.1513    7307.4375    7812.2875    253.34081   -133.03109   -14.059321   -3822.4864 
25400000    137.67163   -4975.3581   -4709.8467   -4975.3581            0    7314.1339    19.614109    19.938204    20.485578     8011.297    7834.1243    6921.8045     7186.473   -40.567794    215.19298   -1561.7285   -3855.2886 
25401000    143.38129   -4963.2275   -4686.7046   -4963.2275            0    6900.4178    19.630141    19.835911    20.609401    8024.9243    6656.9878    6404.9594    7639.3062    188.06176    384.28128   -534.58693   -3879.1122 
25402000    140.20151   -4968.8593   -4698.4689   -4968.8593            0    6483.4362    19.779227    19.829563    20.473008    8029.7885    7774.8787    5484.6041    6190.8257    376.23085       757.86    772.73333   -3939.2181 
25403000    131.62999   -4956.3595      -4702.5   -4956.3595            0    7912.1938    19.677864    19.918088    20.305784     7958.759      7251.03    7495.8357    8989.7158    -710.1757   -440.97303   -118.04122    -3784.129 
25404000    131.10579   -4967.0345    -4714.186   -4967.0345            0    6699.5562    19.854631    19.887105    20.396186    8053.4572    6551.3886    6428.6274    7118.6524   -839.53188   -370.90139   -180.08263   -3927.3137 
25405000    137.31313   -4983.5617   -4718.7418   -4983.5617            0    5464.6761    19.784757    19.929406    20.484548     8077.026    5919.7956    4434.4142    6039.8185    292.65568  -0.32991763    -1419.147   -4075.0295 
25406000     131.5143   -4969.8857   -4716.2493   -4969.8857            0    8032.3018    19.713806    19.745703    20.483118    7973.3191    7280.5431    8323.8519    8492.5102   -338.78698    836.76734    471.08871   -3782.2317 
25407000    141.47317   -4973.2906   -4700.4477   -4973.2906            0    6905.4418    19.732518    19.687645    20.578902    7994.6323     6709.949     8287.087    5719.2895     233.1436   -162.94802    306.15466    -3895.318 
25408000    132.03619   -4979.1286   -4724.4857   -4979.1286            0    7718.5832    19.767282    19.746541    20.501795    8002.5774    8264.1089    7225.2645    7666.3761    341.21232     26.55972   -172.67533   -3823.6546 
25409000      130.655   -4972.3046   -4720.3255   -4972.3046            0     6635.747    19.809165    19.750399    20.591955    8056.3737    7575.5412    7103.6485    5228.0513   -24.778547   -224.81065   -188.04625   -3940.6654 
25410000     135.9603   -4971.9043   -4709.6934   -4971.9043            0    6142.2101    19.679102    19.816666    20.681281    8065.1657    8015.8593    5214.1607    5196.6104   -38.610353    329.72911    903.41696   -3987.2333 
25411000    135.29757   -4977.0659   -4716.1332   -4977.0659            0    7355.1669    19.669182    19.844047    20.545223    8019.1329    6501.2686    8370.4474    7193.7848    147.15206    128.06879    742.67278   -3855.9403 
25412000     142.1686   -4977.6523   -4703.4682   -4977.6523            0    7317.8571    19.746148    19.789762    20.505857    8013.1061    6343.7771    7919.2745    7690.5196    229.72159     838.5576    361.35254    -3848.282 
25413000    136.96909   -4969.0156   -4704.8592   -4969.0156            0    7867.7245    19.883209    19.750184    20.415466    8017.0931    8449.7035    7591.4008    7562.0692   -420.94469     846.7924    556.87274   -3784.9564 
25414000    135.03269    -4972.846   -4712.4241    -4972.846            0      6405.55     19.68044    19.852984    20.467992    7997.1608     7082.331    6220.0541    5914.2649   -337.35747    124.47425    445.80126   -3965.3423 
25415000    136.32461   -4972.4287   -4709.5152   -4972.4287            0    6862.3686    19.684253    19.867837    20.534627    8030.7539    6199.1468    7252.1767    7135.7824    90.053653    15.956304    1511.9296   -3905.7925 
25416000    136.88829   -4956.6433   -4692.6427   -4956.6433            0    7959.4068    20.057288    19.668659    20.208352    7972.1941    5759.3312    9048.5341    9070.3551   -602.60612   -332.35172   -812.26005   -3767.2321 
25417000    136.97404   -4967.0639    -4702.898   -4967.0639            0    6226.9793    19.856679    19.832916    20.454095     8055.147     7372.256    5300.4995    6008.1825   -149.98069    1330.4099    -64.47789    -3971.377 
25418000     136.9132   -4946.0591   -4682.0104   -4946.0591            0    7709.1486    19.543738    19.710235    20.700435    7974.0491     7167.781    8824.9634    7134.7014   -11.820027   -23.458321    268.07979   -3785.4879 
25419000    139.80503   -4954.6468   -4685.0211   -4954.6468            0    7295.3472    19.807869    19.848158    20.398578    8019.6953    6436.9686    7463.1369     7985.936    362.32494   -247.24198   -994.53141   -3831.7643 
25420000    138.16293   -4968.5023   -4702.0435   -4968.5023            0    7009.1628    19.559734    19.957115    20.498733    8001.8004    8494.9189    5904.4573    6628.1122    446.93415    400.24804    257.11959   -3884.0879 
25421000    138.27848   -4961.8256   -4695.1439   -4961.8256            0      7867.06    19.685403    19.883019    20.413147     7989.813    6081.9698    8820.9961     8698.214    135.17411    659.80811    244.32099   -3778.4487 
25422000    138.31643   -4981.3817   -4714.6269   -4981.3817            0    7263.2298    19.789247    19.968398    20.295147    8019.8217    7380.7563    7068.2924    7340.6407   -138.74784    510.08567    804.87884   -3865.1132 
25423000    132.88228   -4972.8982   -4716.6235   -4972.8982            0    7329.4152    19.779999    19.761327    20.444049    7991.1502    6281.3538    8773.3751    6933.5168   -651.19947   -950.30842    393.24816   -3862.4335 
25424000    136.23507   -4964.7386   -4701.9978   -4964.7386            0    6953.3325    19.834949    19.483464     20.73198    8011.9467     7269.985    7790.4293    5799.5832   -345.18215   -171.93582   -77.249661   -3889.5285 
25425000    137.35632   -4969.6772    -4704.774   -4969.6772            0    7405.6291    19.584978    19.755068    20.597743    7969.3201    8565.8934    6920.9132    6730.0806   -268.41088    49.343088    632.54415   -3844.0595 
25426000     132.0471   -4972.7227   -4718.0587   -4972.7227            0    7353.6059    19.783274    19.715594    20.444622    7974.2001    7318.9336     7701.308     7040.576    139.84106    1133.9671   -602.11939   -3862.8673 
25427000    140.17182   -4972.0859   -4701.7528   -4972.0859            0    7958.5005    19.832766    19.757742    20.435239    8007.5619    6997.2022    8663.4175    8214.8816    389.49337   -739.62779   -179.63631   -3772.3425 
25428000    138.12249   -4969.8169   -4703.4361   -4969.8169            0    7683.3897    19.660915    19.925816    20.414252    7997.4825    7461.4266    7870.3557     7718.387   -111.51135    1105.4436    619.06509   -3807.2833 
25429000    131.31232   -4945.2062   -4691.9593   -4945.2062            0    7053.4094    19.720572    19.900037    20.449376     8025.155    7851.7315     5662.914    7645.5826   -883.20869   -723.16301   -360.12049   -3866.4378 
25430000    137.23959   -4956.8081     -4692.13   -4956.8081            0    7007.2329    19.812358    19.757584    20.407157    7988.2658    8716.5756    6197.3799    6107.7432   -40.196243   -356.26063    178.52572   -3875.7827 
25431000    137.27424   -4976.6584   -4711.9135   -4976.6584            0    7930.9568    19.656209    19.790283     20.48203    7967.5496    9347.4715     7005.781     7439.618   -534.67337    564.42427    236.49584   -3790.3479 
25432000    140.33506   -4969.0937   -4698.4457   -4969.0937            0     9023.056    19.847707    19.679406    20.413357    7973.2752    8281.0827    9036.2363    9751.8491    21.907067    375.69792   -203.82578   -3649.2263 
25433000    132.17118   -4972.1576   -4717.2544   -4972.1576            0    7466.4207    19.827717     19.76234     20.39026    7989.7617    5538.5358    9840.3711    7020.3552   -134.39537    240.29348    485.82798   -3847.2485 
25434000    130.04901   -4971.8264   -4721.0159   -4971.8264            0    8026.5865    19.779259    19.891252     20.37663    8016.8636    8434.1559      8348.87    7296.7335    240.73877    90.984604     204.2545   -3782.5656 
25435000    136.59518   -4956.3633    -4692.928   -4956.3633            0    7139.8896     19.59548    19.830351     20.66733    8031.0197    8650.3009    6212.8273    6556.5406     -161.891    450.42931    403.45125   -3856.6742 
25436000    133.73609   -4956.7264   -4698.8051   -4956.7264            0    6081.9075    19.770739    19.819232    20.631648    8084.3228    6004.0837    6295.7114    5945.9273   -79.542345    193.87416   -766.24089   -3981.7387 
25437000    140.58029   -4988.1594   -4717.0384   -4988.1594            0    5583.4986    19.844067    19.872634    20.372738    8034.0687    4871.6035    5962.6281    5916.2643   -331.65194    274.81306   -633.64429   -4062.8274 
25438000    138.40118   -4958.6945   -4691.7762   -4958.6945            0    8287.4131    19.587936    19.850801    20.453502    7953.0623    8286.2448    8411.0998    8164.8946   -203.79799    1203.6085   -80.936559   -3730.5419 
25439000    131.79772   -4976.9113   -4722.7283   -4976.9113            0    6061.3962    19.678366    19.803104    20.576142    8018.3733    6276.9881    6104.3044    5802.8961   -693.96342    699.64327    -57.07332   -4013.9102 
25440000    141.52175   -4961.0597   -4688.1231   -4961.0597            0    6227.0969    19.894666    19.570531    20.632642    8033.3022    5503.3562    6874.2678    6303.6668   -769.61501    399.12749    262.68584   -3958.5721 
25441000    139.09455   -4966.3691   -4698.1136   -4966.3691            0    7201.5409    19.744871    19.859535     20.32596    7970.2959    8206.9562    5932.3204    7465.3461    -33.62477   -150.44985   -40.020959   -3861.0166 
25442000    138.70435   -4961.4771   -4693.9741   -4961.4771            0    7513.3162    19.766201    19.811288    20.326593    7959.7697    7913.4681    6697.9078    7928.5725    352.93801   -630.36861    1210.6844   -3821.7902 
25443000    134.66733   -4959.7484   -4700.0311   -4959.7484            0    7650.8263     19.70198    19.860382    20.417725    7989.2282    8033.4528    6524.2158    8394.8103   -135.56433   -56.115957    148.83522   -3808.5974 
25444000     140.8493   -4967.5866   -4695.9469   -4967.5866            0    5894.8457    19.669834    19.967822    20.457457    8034.9475    6967.0238     4920.063    5797.4503    481.85803   -334.69919   -266.52611   -4005.1803 
25445000    137.53387     -4967.58   -4702.3343     -4967.58            0    7955.3507    19.770706    19.832458    20.396789    7997.6156    9757.3756    6262.5453    7846.1313   -288.69956   -267.17357   -906.65002   -3774.4459 
25446000    135.92124   -4975.6259   -4713.4903   -4975.6259            0     5566.848    19.901024    19.716933    20.578777    8074.8481    5926.0137    5649.7056    5124.8248    339.62162    366.74263   -690.38019   -4057.9195 
25447000    130.20732   -4962.4213   -4711.3055   -4962.4213            0    6307.9039    19.950785    19.737998    20.483636    8066.2214    4961.5626    6834.0365    7128.1128   -706.05343   -412.65193   -193.23511    -3969.259 
25448000    139.67146   -4975.1332   -4705.7651   -4975.1332            0    6889.6769    19.796824    19.771898    20.588707    8058.8477    5769.3965    8625.1115    6274.5228   -381.34805   -267.79107    16.290357   -3896.0212 
25449000    136.54103   -4965.0301   -4701.6992   -4965.0301            0    5113.6595    19.900597     19.95165    20.410436    8103.9584    5386.3325    4309.2051    5645.4411    373.53833    1189.7457    579.28001   -4097.3265 
25450000    132.18232    -4963.401   -4708.4763    -4963.401            0    7964.5012    19.774337    19.660817    20.484176    7963.8302     7288.253    8044.7913    8560.4594    16.878509   -99.155477    705.80637   -3783.4449 
25451000    138.73662   -4970.0169   -4702.4517   -4970.0169            0    7808.4917    19.856624    19.546274    20.534533    7969.9251    7249.9859    9953.7237    6221.7655    225.48229    881.14395   -480.57274   -3794.8458 
25452000    135.77585   -4963.7184   -4701.8633   -4963.7184            0      8147.26    19.785518     19.78012    20.444697     8001.235    8078.8866    7386.6576    8976.2359    258.97562    704.69419   -789.78964   -3751.1611 
25453000    134.19211   -4972.6457   -4713.8449   -4972.6457            0     8271.984    19.754473    19.676483    20.557816    7990.7933    9804.8383    8384.9734    6626.1403   -549.44364    492.91648   -67.764341   -3749.8484 
25454000    134.78234   -4980.1747   -4720.2356   -4980.1747            0    6517.6639    19.810713    19.859011    20.401562    8026.4061    7199.5681    5151.7594    7201.6642   -152.10855    786.56455    715.95816   -3957.2981 
25455000    131.00105   -4975.6066   -4722.9601   -4975.6066            0    6887.4162    19.527845    20.029887    20.452181    7999.6769    8763.9758    4968.8376    6929.4352   -660.00253   -475.44763   -497.79395   -3919.4253 
25456000     135.1244    -4985.195   -4724.5963    -4985.195            0    6707.5998    19.857585    19.846457    20.403346    8041.0139       6599.5    6225.1205    7298.1788    199.09091    451.00171    7.8256224   -3937.9964 
25457000    134.89813   -4966.7338   -4706.5715   -4966.7338            0    6522.3067    19.725333    19.966799    20.385924    8029.0323    5881.9312    6441.7076    7243.2812   -177.79277   -690.21665    1275.6518   -3942.8406 
25458000    137.31759   -4969.6836   -4704.8551   -4969.6836            0    6122.3035    19.691318    19.964535    20.423967    8029.2335    7513.7172    3836.9191    7016.2742    125.22132    408.33347   -214.99965   -3987.9447 
25459000    134.43238   -4963.6801    -4704.416   -4963.6801            0    7200.1581    19.693321    19.854238    20.461381    8000.3162     6838.754    8178.4236    6583.2969    186.11935   -578.55269    741.85112   -3864.3274 
25460000    142.10253   -4967.5143   -4693.4577   -4967.5143            0    6705.5947    19.861057    19.755608    20.514336    8049.1538    7730.2171    5101.8111    7284.7558    138.65067    581.83613    126.45141   -3906.2969 
25461000    138.50176   -4969.1628   -4702.0505   -4969.1628            0    7675.4708    19.778008    19.926421    20.286625    7995.0585    7801.0727    6190.4046     9034.935   -742.45559    -415.3972    706.03602   -3807.0927 
25462000    134.98695   -4965.8253   -4705.4916   -4965.8253            0    7789.4903    19.829898    19.794295    20.432506     8020.144    7890.1356    7099.0803    8379.2549   -240.73885   -142.71453    703.25015   -3794.3894 
25463000    136.81261   -4962.0522   -4698.1976   -4962.0522            0    6207.7406    19.881666    19.949966    20.363632    8077.0016    6609.3816    5873.9007    6139.9395    60.787113    381.28497   -26.216942   -3966.9581 
25464000      134.377   -4956.2104    -4697.053   -4956.2104            0    8503.1523    19.794182    19.818755    20.364301    7988.8345    8606.9818    8201.5765    8700.8986   -89.796202    960.50568    558.65385   -3706.3596 
25465000    131.52498   -4976.5688   -4722.9119   -4976.5688            0    8243.0629    19.802152    19.633629    20.526347    7980.3994    8669.0769    8058.1884    8001.9235    202.22278    1025.6176   -898.99543   -3763.5352 
25466000    132.11235   -4971.6832   -4716.8934   -4971.6832            0    6283.5743    19.771836    19.825182     20.48341    8029.0922    5992.4823    6193.9874    6664.2532    -182.5375    964.23393   -830.50878   -3981.1115 
25467000    129.32701   -4972.9079   -4723.4899   -4972.9079            0    8482.3359    19.657641    19.885344    20.403731    7975.7969    8682.4841    7696.7127    9067.8109   -402.55831    -674.4838   -812.16598   -3736.8346 
25468000    140.55588    -4965.414   -4694.3401    -4965.414            0    7282.1545    19.760352     19.92655     20.31822    8000.4138    7522.0058    6515.6917    7808.7661   -308.95627    20.739821    156.86336   -3844.6741 
25469000    140.78294   -4968.6744   -4697.1627   -4968.6744            0    8267.0914    19.805693    19.846675    20.303733    7980.9337    7927.5731    8110.0755    8763.6256   -147.01324    -796.2535    117.67068   -3734.9251 
25470000     136.3762   -4981.9545   -4718.9415   -4981.9545            0    6977.2694     19.81975    19.802346    20.416229    8012.9118    8123.7471    6273.1717    6534.8893     186.5599    937.65587   -656.85789   -3903.5771 
25471000    129.99025   -4960.0939   -4709.3968   -4960.0939            0     8400.383    19.614797    19.836496     20.49921    7976.0139    8832.7119    8094.9745    8273.4626    82.629358    966.37886    1057.7283   -3732.2476 
25472000    133.38287   -4976.6228   -4719.3827   -4976.6228            0    6269.4782    19.776856     19.77949    20.550842    8038.9988     6267.054    5610.7836    6930.5971   -579.92709     658.6157    241.27067   -3984.3456 
25473000    134.53858   -4976.3016   -4716.8327   -4976.3016            0    6213.9057    19.880202    19.689661    20.463542    8010.1348     5926.638    7195.3172     5519.762    197.52544     679.0571    288.35566   -3990.9267 
25474000     134.9471   -4972.5368     -4712.28   -4972.5368            0    6140.0444    19.759993    19.898764    20.465933    8047.1931    5965.1346     5605.187    6849.8116     2.255408     671.3987   -805.50333    -3991.684 
25475000    130.45819   -4975.6274   -4724.0278   -4975.6274            0    6784.4428    19.664921    20.032371     20.47384    8065.3618    7331.0678    6565.0434    6457.2172   -293.39002   -409.76901   -652.68185   -3926.0075 
25476000    135.02613   -4965.9826   -4705.5734   -4965.9826            0    6526.4066    19.833982    19.640023    20.489024    7981.2916    7318.4179      5681.51    6579.2918   -677.14829   -283.82006   -281.63829   -3945.9065 
25477000    145.58769   -4950.9245   -4670.1464   -4950.9245            0    6920.8324    19.563061    19.803955    20.589956    7977.0836    7360.4974    6920.2965    6481.7035     428.6471    798.17734   -510.86835   -3864.9935 
25478000    136.30933   -4954.4781   -4691.5941   -4954.4781            0    8215.9015    19.745418    19.814539    20.451083    8001.4118    9200.5342    7527.9862    7919.1842    17.397882    47.148818   -284.45248   -3732.8609 
25479000    139.20255   -4962.4956   -4694.0318   -4962.4956            0    7881.0955    19.765955     19.71902     20.57313    8018.6916    7806.4792    8601.0233    7235.7838    -163.0047   -418.47633   -504.95809   -3772.3819 
25480000     142.1255   -4954.7885   -4680.6875   -4954.7885            0      8223.93     19.60152    19.940867    20.432375    7986.4288    8663.0373    7503.7745    8504.9784   -194.62843   -310.86841    177.23224   -3722.8145 
25481000    137.33216   -4961.9391   -4697.0824   -4961.9391            0     6675.193    19.684673    19.985015    20.444128    8042.6892    7581.3578    5831.6494    6612.5719   -362.18037   -394.70067    56.181173   -3914.1199 
25482000    134.16106    -4966.196   -4707.4551    -4966.196            0    5889.1754    19.851067    19.970036    20.370999    8075.6042    5874.3892    5527.6874    6265.4496    4.6066048    -221.6163     137.5891    -4013.861 
25483000    138.92458   -4972.6129   -4704.6851   -4972.6129            0    7547.7326    19.742976      19.7936    20.367151    7959.1684    6989.1393    7978.9155    7675.1431    263.53657    129.67639    236.12516   -3828.5722 
25484000    140.51665   -4971.2433   -4700.2451   -4971.2433            0    7734.7082    19.842175    19.789889     20.47478    8039.9227    7923.7792    7149.9769    8130.3685   -117.03979    1524.9704   -636.75857   -3793.3194 
25485000    131.46271   -4973.3204   -4719.7835   -4973.3204            0    6810.7746    19.660647    19.808263    20.512381    7988.4088    5558.4818    7277.9748    7595.8672   -318.82497    734.30364   -943.73058   -3926.3096 
25486000    128.77839   -4963.9256   -4715.5657   -4963.9256            0    6853.2775    19.734167    19.797483    20.534298    8022.4799    7255.1791    6703.3783    6601.2751   -334.08222    1183.4463   -706.15402   -3913.7347 
25487000    139.59702   -4978.8987   -4709.6741   -4978.8987            0    6360.1782    19.732289    19.914336    20.462674    8040.9188     6063.324    5981.4361    7035.7744   -167.11329    307.59576    254.57873   -3963.8252 
25488000     139.9955    -4963.172   -4693.1789    -4963.172            0    7415.9146    19.641958    19.828228    20.397335    7944.0524    7715.9213    7094.1999    7437.6225   -511.39125      680.258   -107.33163   -3834.0018 
25489000    134.14979   -4960.2831    -4701.564   -4960.2831            0     8230.879    19.725265     19.80046    20.402674    7968.6589    7907.9901    8154.5853    8630.0617    133.84388   -92.162829   -798.50379   -3745.0147 
25490000    137.69195   -4966.2477   -4700.6972   -4966.2477            0    7428.6703    19.764157    19.958795    20.389074    8042.8527    8395.2107    6421.0159    7469.7842   -438.90729    1498.3467     653.9215   -3829.3383 
25491000    134.47581   -4974.6573   -4715.3094   -4974.6573            0    7179.8115    19.631169    19.880806    20.404279    7963.4527    6873.0828    6909.7897    7756.5619   -269.62877   -263.99136    -993.7281   -3881.4548 
25492000    137.57514   -4967.1744   -4701.8492   -4967.1744            0    8419.7283    19.744207    19.893272    20.271594    7962.2136    8418.2341    8148.0296    8692.9211   -181.96677    617.86163    849.83086   -3724.1443 
25493000    143.46097   -4969.9019   -4693.2254   -4969.9019            0     7418.284     19.74129    19.800078     20.41821    7981.0516    7566.9563    7791.9452    6895.9504   -242.56533    241.77771    639.05365   -3829.7709 
25494000    140.16409   -4962.2496   -4691.9314   -4962.2496            0    8072.8351    19.815217    19.679693    20.413225    7960.2877    7367.4088    8168.0484    8683.0482   -21.309925   -339.43445     861.4398   -3754.7347 
25495000    138.41369   -4955.9018   -4688.9594   -4955.9018            0    6524.5541    19.901396     19.82005    20.497942    8085.3449    7328.2466    6009.4215    6235.9941    505.88693    910.99603   -619.08516    -3919.607 
25496000    145.89282   -4982.7977   -4701.4311   -4982.7977            0    6876.8276     19.82722    19.894876    20.403456    8048.3489    7361.7039    7178.9922    6089.7868    -113.8461   -114.16784     395.7261   -3894.2503 
25497000    137.59418   -4971.6383   -4706.2764   -4971.6383            0    6910.4493    19.517419     19.80519    20.645086    7980.2794    6969.2685     7575.067    6187.0123    78.210408   -434.24259   -295.12579   -3902.0093 
25498000    133.65714   -4950.5024   -4692.7333   -4950.5024            0    7161.6985    19.872852    19.548253    20.655394    8024.1977    6970.0313    8105.9382    6409.1261    11.771337    932.23681   -834.48713   -3854.6378 
25499000    132.51393   -4972.3456   -4716.7814   -4972.3456            0      7258.56    19.778645    19.684745    20.565485    8006.9159    7578.9508    7483.9969    6712.7322    244.61206    567.17328    95.916298   -3869.1801 
25500000     144.0564   -4958.3998   -4680.5749   -4958.3998            0     8185.588     19.92316    19.666435    20.438763    8008.2657    6316.1838    8948.9931    9291.5873    272.01133    119.32373   -1447.5276   -3724.5609 
Loop time of 383.481 on 64 procs for 250000 steps with 972 atoms

Performance: 112.652 ns/day, 0.213 hours/ns, 651.922 timesteps/s
192.8% CPU use with 32 MPI tasks x 2 OpenMP threads

MPI task timing breakdown:
Section |  min time  |  avg time  |  max time  |%varavg| %total
---------------------------------------------------------------
Pair    | 27.208     | 35.784     | 46.376     |  77.9 |  9.33
Bond    | 1.0111     | 1.2073     | 1.9173     |  14.1 |  0.31
Kspace  | 162.02     | 176.8      | 185.54     |  42.6 | 46.10
Neigh   | 0.98242    | 1.0723     | 1.1866     |   5.8 |  0.28
Comm    | 65.994     | 73.103     | 79.117     |  35.0 | 19.06
Output  | 0.70269    | 0.70309    | 0.70502    |   0.0 |  0.18
Modify  | 74.452     | 77.319     | 79.476     |  16.6 | 20.16
Other   |            | 17.49      |            |       |  4.56

Nlocal:        30.3750 ave          35 max          24 min
Histogram: 3 1 3 3 3 2 3 4 3 7
Nghost:        2694.25 ave        2724 max        2655 min
Histogram: 1 0 2 2 7 5 7 4 3 1
Neighs:        9807.03 ave       12572 max        6616 min
Histogram: 1 0 3 4 8 5 3 4 2 2

Total # of neighbors = 313825
Ave neighs/atom = 322.86523
Ave special neighs/atom = 2.0000000
Neighbor list builds = 2945
Dangerous builds = 0

unfix		3
unfix		2
unfix		1

write_data	data.final.${pid}
write_data	data.final.1
System init for write_data ...
PPPM initialization ...
  extracting TIP4P info from pair style
  using 12-bit tables for long-range coulomb (../kspace.cpp:340)
  G vector (1/distance) = 0.37226367
  grid = 24 24 24
  stencil order = 5
  estimated absolute RMS force accuracy = 0.0034997675
  estimated relative force accuracy = 1.0539446e-05
  using double precision FFTW3
  3d grid and FFT values/proc = 3211 432
Last active /omp style is kspace_style pppm/tip4p/omp
WARNING: Not all mixed pair coeffs generated from mixing. Use write_data with 'pair ij' option to store all pair coeffs. (../write_data.cpp:312)

write_restart   restart.lmp.${pid}
write_restart   restart.lmp.1
System init for write_restart ...
PPPM initialization ...
  extracting TIP4P info from pair style
  using 12-bit tables for long-range coulomb (../kspace.cpp:340)
  G vector (1/distance) = 0.37226367
  grid = 24 24 24
  stencil order = 5
  estimated absolute RMS force accuracy = 0.0034997675
  estimated relative force accuracy = 1.0539446e-05
  using double precision FFTW3
  3d grid and FFT values/proc = 3211 432
Last active /omp style is kspace_style pppm/tip4p/omp
Total wall time: 0:06:23
