LAMMPS (30 Jul 2021)
  using 1 OpenMP thread(s) per MPI task
package omp 0
using multi-threaded neighbor list subroutines
echo both

include		in.partitions
variable        pid world 0
include		in.temp
variable        temperature equal 264.93
variable	tempDamp equal 100.0
include		in.pressure
variable        pressure equal 9125.0
variable        pressureDamp equal 1000.0 # This is 1 ps
include		in.seed
variable        seed world 745823

units		real
atom_style	full
read_restart	restart.lmp.${pid}
read_restart	restart.lmp.0
Reading restart file ...
  restart file = 30 Jul 2021, LAMMPS = 30 Jul 2021
  restoring atom style full from restart
  orthogonal box = (0.56535432 1.7574440 0.68973095) to (17.642218 21.871734 21.523465)
  4 by 4 by 4 MPI processor grid
  restoring pair style lj/cut/tip4p/long/omp from restart
  restoring bond style harmonic/omp from restart
  restoring angle style harmonic/omp from restart
  864 atoms
  576 bonds
  288 angles
Finding 1-2 1-3 1-4 neighbors ...
  special bond factors lj:    0        0        0       
  special bond factors coul:  0        0        0       
     2 = max # of 1-2 neighbors
     1 = max # of 1-3 neighbors
     1 = max # of 1-4 neighbors
     2 = max # of special neighbors
  special bonds CPU = 1.081 seconds
  read_restart CPU = 1.353 seconds
include 	in.setup
variable	out_freq equal 1000
variable	out_freq2 equal 10000
variable	out_freq3 equal 1000

timestep	2.0

neigh_modify    delay 7 every 1

include		in.tip4p
# This is TIP4P/Ice

# create groups ###
group ox type 2
288 atoms in group ox
group hy type 1
576 atoms in group hy

# set charges - beside manually ###
set group ox charge -1.1794
Setting atom values ...
  288 settings made for charge
set group hy charge 0.5897
Setting atom values ...
  576 settings made for charge

# ### TIP3P Potential Parameters ###
pair_style lj/cut/tip4p/long/omp 2 1 1 1 0.1577 8.5
pair_coeff 1 1*2 0.000 0.000
pair_coeff 2 2 0.21084 3.1668
bond_style  harmonic
bond_coeff  1 450 0.9572
angle_style harmonic
angle_coeff 1 55 104.52
kspace_style pppm/tip4p/omp 1.0e-5
pair_modify tail yes

thermo          ${out_freq}
thermo          1000
thermo_style    custom step temp pe etotal epair emol press lx ly lz vol pxx pyy pzz pxy pxz pyz enthalpy

restart 	${out_freq3} restart.lmp.${pid} restart2.lmp.${pid}
restart 	1000 restart.lmp.${pid} restart2.lmp.${pid}
restart 	1000 restart.lmp.0 restart2.lmp.${pid}
restart 	1000 restart.lmp.0 restart2.lmp.0


include         in.dump
dump            myDump all atom ${out_freq2} dump.water.${pid}
dump            myDump all atom 10000 dump.water.${pid}
dump            myDump all atom 10000 dump.water.0
dump            myDump2 all dcd ${out_freq2} dump.dcd
dump            myDump2 all dcd 10000 dump.dcd
dump_modify     myDump append yes
dump_modify     myDump2 append yes


variable natoms 	equal  "count(all)"                        # NUMBER ATOMS
variable H      	equal  "enthalpy/v_natoms"                 # ENTHALPY-per-atom
variable Vol      	equal  "vol/v_natoms"                 # volume-per-atom
fix AVG all 		ave/time ${out_freq} 1 ${out_freq} v_Vol v_H file vol_enthalpy.dat
fix AVG all 		ave/time 1000 1 ${out_freq} v_Vol v_H file vol_enthalpy.dat
fix AVG all 		ave/time 1000 1 1000 v_Vol v_H file vol_enthalpy.dat


timer           timeout 23:50:00 every 1000
New timer settings: style=normal  mode=nosync  timeout=23:50:00

fix 		1 all shake 1e-6 200 0 b 1 a 1
       0 = # of size 2 clusters
       0 = # of size 3 clusters
       0 = # of size 4 clusters
     288 = # of frozen angles
  find clusters CPU = 0.399 seconds
fix             2 all nph iso ${pressure} ${pressure} ${pressureDamp}
fix             2 all nph iso 9125 ${pressure} ${pressureDamp}
fix             2 all nph iso 9125 9125 ${pressureDamp}
fix             2 all nph iso 9125 9125 1000
fix             3 all temp/csvr ${temperature} ${temperature} ${tempDamp} ${seed}
fix             3 all temp/csvr 264.93 ${temperature} ${tempDamp} ${seed}
fix             3 all temp/csvr 264.93 264.93 ${tempDamp} ${seed}
fix             3 all temp/csvr 264.93 264.93 100 ${seed}
fix             3 all temp/csvr 264.93 264.93 100 745823

run             250000
PPPM initialization ...
  extracting TIP4P info from pair style
  using 12-bit tables for long-range coulomb (../kspace.cpp:340)
  G vector (1/distance) = 0.3737675
  grid = 24 24 24
  stencil order = 5
  estimated absolute RMS force accuracy = 0.0032178392
  estimated relative force accuracy = 9.6904273e-06
  using double precision FFTW3
  3d grid and FFT values/proc = 2535 216
Last active /omp style is kspace_style pppm/tip4p/omp
Neighbor list info ...
  update every 1 steps, delay 7 steps, check yes
  max neighbors/atom: 2000, page size: 100000
  master list distance cutoff = 10.8154
  ghost atom cutoff = 10.8154
  binsize = 5.4077, bins = 4 4 4
  1 neighbor lists, perpetual/occasional/extra = 1 0 0
  (1) pair lj/cut/tip4p/long/omp, perpetual
      attributes: half, newton on, omp
      pair build: half/bin/newton/omp
      stencil: half/bin/3d
      bin: standard
Per MPI rank memory allocation (min/avg/max) = 9.234 | 9.238 | 9.241 Mbytes
Step Temp PotEng TotEng E_pair E_mol Press Lx Ly Lz Volume Pxx Pyy Pzz Pxy Pxz Pyz Enthalpy 
20750000    258.81974   -3820.7846   -3377.1764   -3820.7846            0    7056.7291    17.076864     20.11429    20.833734    7156.1581     6231.313    8650.8448    6288.0294    694.26031   -604.61886   -609.80745   -2640.6993 
20751000    264.28348   -3870.3587   -3417.3858   -3870.3587            0    7957.1918    17.062284    20.097116    20.815946    7137.8441    7642.3324    6367.8383    9861.4048    1651.6523    1265.8205     786.3316    -2589.057 
20752000    263.95053   -3857.8564   -3405.4542   -3857.8564            0    9513.0675    16.973788     19.99288    20.707981     7027.355    12198.134       9439.6    6901.4687    1694.8021   -173.49634    226.06191   -2430.4907 
20753000    264.68839   -3880.6998    -3427.033   -3880.6998            0    9937.2167    16.985338    20.006485    20.722073    7041.7107    11471.024    9122.1539    9218.4722     472.0964    -356.5106      153.518   -2406.5193 
20754000    255.89099   -3919.2502   -3480.6618   -3919.2502            0    6591.1683    17.031056    20.060335    20.777849    7098.7249     5867.463    8864.7494    5041.2924    169.70067    1163.4439   -349.81581   -2798.2938 
20755000    271.45526   -3855.7968   -3390.5318   -3855.7968            0     8717.093    16.977038    19.996709    20.711947    7031.3932    9281.3978    8743.9955    8125.8857    476.78912   -269.16597   -1994.9849   -2496.6318 
20756000    269.42883   -3836.5736   -3374.7818   -3836.5736            0    8655.8949    16.938347    19.951135    20.664744    6983.4282    8650.3102    8810.2094    8507.1651   -552.63076    757.33656    273.16668   -2493.2124 
20757000    270.28773   -3863.7276   -3400.4637   -3863.7276            0    8669.5464    16.974462    19.993674    20.708804    7028.1925    5004.3648    10239.771    10764.503    390.16832   -17.236568    907.92982   -2511.8441 
20758000    262.18198   -3844.3757   -3395.0048   -3844.3757            0    10025.119    16.943752    19.957502    20.671338    6990.1158    9943.4886    8905.3191     11226.55   -1543.9936    41.929631   -114.28829   -2373.0074 
20759000    267.52455   -3848.7975   -3390.2696   -3848.7975            0     7734.818      17.0276    20.056263    20.773632    7094.4034    8517.5713    5555.3585    9131.5242   -448.02999   -78.855947   -434.52716   -2589.9897 
20760000    272.93913   -3863.1747   -3395.3664   -3863.1747            0    8270.9019    16.908853    19.916395    20.628761    6947.0118    10319.429    6739.7442    7753.5321   -195.37681    -706.4798    158.34868   -2557.3996 
20761000    252.64216   -3831.4846   -3398.4646   -3831.4846            0     10683.23    16.871128     19.87196    20.582737    6900.6176    10838.799    11971.891    9238.9988    1655.2098    -377.4092    744.51593   -2323.3211 
20762000    274.82502   -3849.3815   -3378.3408   -3849.3815            0    7472.9809    16.944039    19.957839    20.671688    6990.4702    6895.0428    9526.2727     5997.627    1101.7061    801.58585   -910.01889   -2616.4791 
20763000    275.27565   -3867.0671   -3395.2541   -3867.0671            0    9436.5036    16.946285    19.960486    20.674428    6993.2511    11247.741    9001.0801    8060.6894    185.92553    971.59578   -164.78108   -2432.8308 
20764000    249.70253   -3867.6073   -3439.6258   -3867.6073            0    6449.0157    16.975633    19.995053    20.710232    7029.6465    7840.4683    5312.0783    6194.5006    40.915161   -1113.0721   -230.65806   -2778.4715 
20765000    282.97997   -3911.9989   -3426.9809   -3911.9989            0    7828.4576    16.918578     19.92785    20.640626    6959.0055    8615.3409    8383.8074    6486.2244   -866.92386    1050.3347    129.78798   -2632.4711 
20766000    269.93723    -3867.813   -3405.1498    -3867.813            0    8725.8317    16.893084    19.897821    20.609523    6927.5936    7124.9682    10177.622    8874.9048    1692.6357   -682.01844   -293.09742   -2523.5629 
20767000    284.70523    -3900.227   -3412.2519    -3900.227            0    9532.9712     16.87832    19.880432    20.591511    6909.4466    9615.5365     9909.123    9074.2542    2172.5698   -1010.3956   -220.40643   -2451.6412 
20768000    260.95268   -3903.5953   -3456.3314   -3903.5953            0    7422.3907    16.858272    19.856817    20.567052    6884.8539    7172.9392    7279.5088    7814.7243    562.41816   -1117.7671   -1479.9667     -2711.06 
20769000    270.14092   -3869.4419   -3406.4296   -3869.4419            0    10396.962    16.818393    19.809846      20.5184    6836.1107    9737.2401    9843.2706    11610.375    1017.1082    229.09306    960.52519   -2369.8768 
20770000    261.59634   -3890.9406   -3442.5734   -3890.9406            0    7971.6244    17.023743     20.05172    20.768926    7089.5834    8538.1189    7888.2101    7488.5441     982.7822    -960.5013   -1974.4708   -2618.3528 
20771000    269.18851   -3887.1192   -3425.7393   -3887.1192            0    9517.4667    16.859963     19.85881    20.569116    6886.9269    9968.0304    9310.4105    9273.9592     1807.304   -1184.5608    549.69895   -2469.8167 
20772000    271.71762   -3858.4132   -3392.6985   -3858.4132            0    8858.8847    16.912801    19.921046    20.633578    6951.8793    9248.9866    8100.8812    9226.7864   -959.87908    120.54094   -1586.8151   -2494.5314 
20773000    261.56698   -3883.2002   -3434.8834   -3883.2002            0    8983.5859    16.924216    19.934491    20.647504    6965.9649     9695.636    7841.1487     9413.973   -475.14225    113.35069   -714.78744   -2522.2279 
20774000    282.45098   -3839.7821   -3355.6707   -3839.7821            0    11551.616    16.855002    19.852966    20.563063    6880.8485    12976.176    11386.263    10292.411    1060.2822    412.05523   -730.02143   -2196.4647 
20775000    260.20387   -3852.9035    -3406.923   -3852.9035            0    8050.0591    16.923233    19.933334    20.646305    6964.7514    8776.5568    8033.9506    7339.6699    1202.1797   -748.86988    488.72475   -2589.2483 
20776000    285.54282   -3873.8403   -3384.4297   -3873.8403            0    8145.0126    16.967681    19.985688    20.700532    7019.7735      6563.56     9139.004     8732.474   -1490.0242   -2876.0009    643.63996   -2550.5743 
20777000    268.62849     -3845.61   -3385.1899     -3845.61            0    8449.2649    16.934066    19.946092     20.65952     6978.134    7181.1641    8325.5466    9841.0838   -674.94395   -1024.1277    -919.7973   -2525.3173 
20778000    264.21875   -3853.8287   -3400.9668   -3853.8287            0    11091.355    16.823659    19.816048    20.524824    6842.5335    11680.901    12338.181    9254.9836     1071.051    3.7456233    1078.9765   -2294.1457 
20779000    249.69779   -3849.1181   -3421.1446   -3849.1181            0    8814.0432    16.942542    19.956077    20.669862    6988.6183    7762.1224    10130.302    8549.7052   -185.00074    497.31503   -140.70951   -2522.8012 
20780000    265.96018   -3822.2894   -3366.4427   -3822.2894            0    9424.5096    16.917962    19.927124    20.639874    6958.2448    9592.2182    9270.3097    9411.0008   -443.73522    893.96367   -2544.8648   -2410.0542 
20781000    279.88809   -3846.1726    -3366.454   -3846.1726            0    8282.8934    16.928103     19.93907    20.652246    6970.7656    6919.4943    8306.9422    9622.2435   -322.76721    104.83348   -949.96919   -2524.4029 
20782000    254.22937   -3848.1853   -3412.4449   -3848.1853            0    8124.1783    16.981515    20.001981    20.717408    7036.9563    7727.4318    9337.1428    7307.9603   -26.013764   -844.67022    1072.9268   -2578.6866 
20783000    255.36294   -3840.4662   -3402.7828   -3840.4662            0      8253.75    17.003793    20.028222    20.744588    7064.6888    7225.3063    8261.0848    9274.8589   -301.94597   -238.66342    214.78439   -2552.3887 
20784000    251.06154   -3865.0657   -3434.7548   -3865.0657            0    11635.191    16.901911    19.908219    20.620292    6938.4591    11807.991    13167.739    9929.8428    1239.2587   -1049.1273   -503.61286   -2257.3862 
20785000     259.8762   -3898.2028   -3452.7838   -3898.2028            0    8514.1461    16.905449    19.912385    20.624608    6942.8164    7521.9402    9042.9952    8977.5027   -278.38042   -204.80349    980.48099   -2590.6937 
20786000    268.69502   -3883.2204   -3422.6863   -3883.2204            0    7609.6421    16.902415    19.908812    20.620907    6939.0799    7461.2658    8145.7163    7221.9443     428.7253    127.86505   -315.07961   -2652.5954 
20787000    268.59772   -3848.4005   -3388.0332   -3848.4005            0    10609.455    16.886545     19.89012    20.601546    6919.5524    12497.233    11524.405    7806.7247    414.94496   -218.82822   -1269.0847   -2317.3846 
20788000    258.16127   -3849.4307   -3406.9511   -3849.4307            0    7239.5205     16.94913    19.963836    20.677899    6996.7733    8020.5927    6432.0326    7265.9363    83.156308   -810.55928   -379.15869   -2668.2249 
20789000    269.57279   -3851.4001   -3389.3615   -3851.4001            0    7246.2819    16.920834    19.930507    20.643378    6961.7892    6553.9568    8277.9805    6906.9084    337.13614    1862.4419    -273.6998   -2653.6425 
20790000     266.4453   -3860.6311    -3403.953   -3860.6311            0    7238.0509    17.012847    20.038887    20.755634    7075.9802    8503.3795    5599.7897    7610.9836    1240.3634    867.01154   -52.376553   -2657.0157 
20791000     266.3573   -3867.4033    -3410.876   -3867.4033            0    8898.5355    16.946685    19.960957    20.674916    6993.7462    7925.4975    10058.221     8711.888    848.88154    718.27004   -2025.8833   -2503.2555 
20792000    264.96444   -3865.3944   -3411.2544   -3865.3944            0    8898.6117    16.910723    19.918598    20.631042    6949.3166    10020.502    9457.8348    7217.4982    948.37603   -2083.8107    -178.9253   -2509.3921 
20793000     262.3964   -3833.5525   -3383.8141   -3833.5525            0    8594.6332    16.946115    19.960285    20.674221    6993.0403    8630.3239    7947.0445    9206.5311   -1.4002557    242.53874    941.57867   -2507.2791 
20794000    263.83573   -3843.1963   -3390.9909   -3843.1963            0    6938.2686    16.989002      20.0108    20.726542     7046.268    6474.8512    6669.3361    7670.6186   -251.69997   -355.73393    566.01881   -2677.9964 
20795000    251.67419   -3880.5706   -3449.2097   -3880.5706            0    10184.067    16.977857    19.997673    20.712946    7032.4109    10242.004    9820.3513    10489.846   -601.62067   -634.63999    946.94023   -2404.7266 
20796000    280.82188   -3866.0309   -3384.7118   -3866.0309            0    7869.0721     17.00116     20.02512    20.741375    7061.4066    8311.5428    6882.1744    8413.4991   -904.55082    613.77214    241.91408   -2574.3282 
20797000    254.49872   -3853.9137   -3417.7116   -3853.9137            0    9349.8355    16.966031    19.983744    20.698519    7017.7256    9108.9271    9458.6717    9481.9077   -1293.3334    813.58615     128.2932   -2460.7903 
20798000    256.92397   -3838.5173   -3398.1584   -3838.5173            0    7728.8973     17.05306    20.086252    20.804694    7126.2748    6323.6657    9407.8023    7455.2239     17.15448   -487.06933    1408.4446   -2594.8986 
20799000    280.20802   -3871.9543   -3391.6873   -3871.9543            0    9652.3973    16.993952    20.016631    20.732582    7052.4293    10677.166    8094.2147    10185.811   -24.527589   -504.70783    499.19465   -2398.9146 
20800000    251.79806   -3831.9002    -3400.327   -3831.9002            0    9372.1761    16.941516    19.954868     20.66861     6987.348    8857.5225    9377.6575    9881.3485   -935.66472    -1482.029   -1457.1847   -2445.2713 
20801000    263.21044   -3832.2751   -3381.1414   -3832.2751            0    6125.5122    17.041902    20.073109     20.79108     7112.295    6184.1334    6104.9256    6087.4776   -1811.4319   -609.69371   -556.27197   -2745.7694 
20802000    254.84429   -3839.7617   -3402.9673   -3839.7617            0    7824.8183     16.97066    19.989195    20.704165    7023.4704    7669.6446    6989.1707    8815.6396   -885.69444    1420.2416    565.95856   -2601.4703 
20803000    260.24035   -3853.6217   -3407.5786   -3853.6217            0    10062.727    16.909141    19.916735    20.629113    6947.3672    12249.615     11661.84     6276.725     596.6392   -786.62016   -921.80515   -2388.0209 
20804000    268.33492   -3846.0869   -3386.1701   -3846.0869            0      8058.17    17.010642    20.036289    20.752943    7073.2285    6854.5714    9883.2991    7436.6395    114.69203   -462.54049   -1895.9602   -2554.9232 
20805000      256.625   -3834.6881   -3394.8417   -3834.6881            0    9725.7029    16.932839    19.944648    20.658024    6976.6178    9859.5157    10841.942    8475.6514    268.33692   -1.2777565   -201.36894   -2405.2824 
20806000     270.4458   -3800.0621   -3336.5273   -3800.0621            0    8611.7344    17.014738    20.041114    20.757941    7078.3398    8584.2281     8568.838     8682.137   -8.3632492   -1165.0055     479.5216   -2447.5351 
20807000    273.72393   -3864.3803   -3395.2268   -3864.3803            0    8647.5017    16.909383    19.917019    20.629407    6947.6647    8904.7874    8851.6364    8186.0812    433.21715    54.644778    146.68549   -2519.0225 
20808000    264.72384   -3826.8227   -3373.0951   -3826.8227            0    10265.106     16.92568    19.936215     20.64929    6967.7722    10883.204     9053.349    10858.766   -250.82876    342.40746    293.59748   -2329.9775 
20809000     264.5642   -3827.2533   -3373.7993   -3827.2533            0    10381.254     16.88571    19.889135    20.600526    6918.5253     11498.82    9459.2989    10185.643    176.48468   -1322.7988    1002.1911   -2326.3349 
20810000    244.20345   -3844.6502   -3426.0938   -3844.6502            0    10163.963    16.904744    19.911555    20.623748    6941.9479    9351.5841     10013.03    11127.274    1153.6507   -668.36868   -685.54972   -2397.0822 
20811000    267.56515   -3888.6476   -3430.0501   -3888.6476            0    9082.6697    16.911384    19.919377    20.631849    6950.1322    10395.146    7953.1468    8899.7163    2266.3848   -2193.9901   -652.01547   -2509.4257 
20812000     261.1338   -3832.5604    -3384.986   -3832.5604            0    9731.5597    16.901969    19.908287    20.620363    6938.5307    9355.0942    9523.3077    10316.277   -245.74559    464.04447   -589.13239   -2400.2363 
20813000    278.74079   -3846.1939   -3368.4417   -3846.1939            0    8506.7209    16.953709     19.96923    20.683486    7002.4462      9225.44    8107.8267    8186.8959    48.162316    -982.7729    1820.8397   -2499.7056 
20814000    277.31125   -3885.5398   -3410.2378   -3885.5398            0     7513.871    16.914408    19.922938    20.635538    6953.8608    7326.6124    6766.0257    8448.9749     1096.923    531.56715   -665.32661   -2648.2191 
20815000    252.90412   -3871.9577   -3438.4887   -3871.9577            0    8114.9768    16.929503    19.940718    20.653954    6972.4952    9129.2495    9193.2123    6022.4686    504.90821    387.52049    709.02338   -2613.3035 
20816000    284.80616   -3863.4814   -3375.3334   -3863.4814            0     12024.76    16.874173    19.875546    20.586451     6904.354     12071.07    10656.714    13346.496   -2040.4174   -209.14975   -679.89997   -2164.5252 
20817000    257.32477   -3891.6432   -3450.5974   -3891.6432            0    9219.1646    16.912574    19.920779    20.633301    6951.5994    6504.3938    10362.325    10790.775   -367.18209     726.4611    371.86729   -2515.9405 
20818000    273.21746   -3888.8779   -3420.5925   -3888.8779            0    9193.5395    16.888978    19.892986    20.604514     6922.544    7361.8075    10509.565    9709.2456    1357.8294   -80.314289    617.82443   -2492.4293 
20819000    257.83452   -3900.0704   -3458.1508   -3900.0704            0    9389.0264    16.932805    19.944608    20.657983    6976.5762    9968.6015    10084.418    8114.0599    388.94991   -387.75346   -1063.8435    -2502.853 
20820000     275.4569   -3897.6291   -3425.5054   -3897.6291            0    9330.6794    16.992501    20.014921    20.730811    7050.6229    9890.5896    9204.9574    8896.4911    988.76155    1513.5285   -1184.9175    -2466.068 
20821000    264.90496   -3867.3957   -3413.3576   -3867.3957            0    9948.9487    16.925568    19.936084    20.649154    6967.6347    10033.231    9761.8287    10051.786   -1537.8891     297.4564   -845.42152   -2402.3872 
20822000    290.84589   -3864.7303   -3366.2304   -3864.7303            0    5408.7634    17.074814    20.111876    20.831233    7153.5819    5582.1878    4393.0946    6251.0079    1903.5538     884.2502    1354.1981   -2801.9468 
20823000    254.38772    -3853.867   -3417.8552    -3853.867            0    10998.616    16.924101    19.934356    20.647364    6965.8229    11043.066     10804.98    11147.801    272.38124   -511.63405     1178.679   -2300.5126 
20824000    255.43751   -3841.6391    -3403.828   -3841.6391            0    10483.228    16.900021    19.905992    20.617986    6936.1316    7600.3325    12407.298    11442.054   -290.85416   -14.947698    2603.0166   -2343.3827 
20825000    263.81287   -3825.3608   -3373.1946   -3825.3608            0    10239.183    16.863966    19.863525    20.573999    6891.8333    11421.849    9403.6666    9892.0321    182.81265   -1702.3943     58.05786   -2344.0511 
20826000    267.90712   -3844.5194   -3385.3358   -3844.5194            0    8625.6176    16.942539    19.956073    20.669858    6988.6138    9595.6368    7635.3573    8645.8587     587.6542    1114.0404    -424.0065   -2506.1976 
20827000    256.98625    -3850.501   -3410.0354    -3850.501            0    9454.2384    16.911415    19.919413    20.631887    6950.1699    9094.5124    8986.6777    10281.525   -426.86569    438.86912     384.6619   -2451.7434 
20828000    280.76297   -3820.2862    -3339.068   -3820.2862            0     9058.178    16.920728    19.930383    20.643249    6961.6592     8976.323    10619.085    7579.1265   -778.52013   -493.25716    1350.9582   -2419.4034 
20829000      270.801   -3852.3374   -3388.1937   -3852.3374            0    9074.4068     16.87724    19.879159    20.590193    6908.1198    8080.6205    7446.0604    11696.539    217.54385      558.849    200.00033   -2473.9668 
20830000    287.07894   -3852.7954   -3360.7519   -3852.7954            0    7317.5649    16.961765    19.978718    20.693313    7012.4325    7888.6716    7344.0102    6720.0128   -1323.5401    243.22987    130.07371   -2612.3909 
20831000    264.26323   -3837.4946   -3384.5565   -3837.4946            0    7838.5432    16.991473    20.013711    20.729558    7049.3439    8928.9125    6856.6675    7730.0496   -1223.4856    732.78502    -569.9746   -2578.6958 
20832000     272.3164   -3883.2322   -3416.4912   -3883.2322            0    8977.8245    16.897537    19.903067    20.614956    6933.0742    9847.9914    8440.7839    8644.6981    2221.9547   -102.59069   -1079.2096   -2508.7274 
20833000    249.84702   -3853.6813   -3425.4521   -3853.6813            0    8881.5639    16.912118    19.920241    20.632745     6951.037    9836.7463    7895.6313     8912.314    248.31999    1406.5436   -1474.9494   -2525.0947 
20834000    273.96787   -3823.9623   -3354.3908   -3823.9623            0    8617.8983    16.955911    19.971824    20.686172    7005.1752    7247.3365    10654.004    7952.3547    1783.0825    514.43881   -416.13297   -2473.9579 
20835000    260.77872   -3851.6151   -3404.6493   -3851.6151            0    8622.7248    16.850685    19.847881    20.557797    6875.5633    6023.5443    8471.7831    11372.847   -459.80064   -70.747962   -687.47385   -2540.0225 
20836000    267.09321   -3876.9115   -3419.1229   -3876.9115            0    8791.9893    16.960489    19.977216    20.691757    7010.8507    9131.8282    8923.0795      8321.06     653.6929   -842.25348     -1441.53   -2520.1766 
20837000     256.5432   -3848.9166   -3409.2104   -3848.9166            0    9817.4845    16.915323    19.924016    20.636654     6954.989    10508.223    9097.7032    9846.5272    1029.1418    -716.6331   -666.86449   -2413.4094 
20838000    266.81038   -3836.5062   -3379.2023   -3836.5062            0    9116.3279    17.012477     20.03845    20.755182    7075.5175    9673.3773    6561.2619    11114.344    -996.5702    1106.9947    366.45732   -2438.4961 
20839000    263.08276   -3896.5422   -3445.6273   -3896.5422            0    8378.5409    16.979408    19.999499    20.714838    7034.3374    8124.3477    9069.2424    7942.0327   -69.243656    213.78664   -713.29279   -2586.0846 
20840000    264.83865   -3859.5086   -3405.5842   -3859.5086            0    11481.155     16.90098    19.907122    20.619156    6937.3125    12090.652    10325.968    12026.846    948.56104   -738.00679    371.19591   -2243.9946 
20841000    255.75678   -3881.8874    -3443.529   -3881.8874            0    10891.892    16.940624    19.953818    20.667522    6986.2453     12678.35    9476.2792    10521.047    117.07439    266.56267     -754.314   -2333.7844 
20842000    274.26872   -3876.1297   -3406.0425   -3876.1297            0    8734.4278    16.975973    19.995454    20.710647    7030.0695    9391.4694    7003.3142    9808.4997    610.45993   -23.558269    1737.0145   -2510.5335 
20843000    261.82747   -3914.7143    -3465.951   -3914.7143            0    8684.1467    16.943418    19.957108     20.67093    6989.7019    8364.8471    9641.8915    8045.7015    -1216.318   -401.75373    190.20266   -2580.7096 
20844000     254.5963    -3890.321   -3453.9517    -3890.321            0    9447.9425    16.963173    19.980377    20.695032    7014.1795    10463.548    8668.2788    9212.0011    2637.4058   -206.35845    1303.5661    -2487.478 
20845000    274.04707   -3926.5466   -3456.8393   -3926.5466            0    9292.0834    16.911638    19.919676    20.632159    6950.4448    8759.4427    9289.9506    9826.8567   -348.92857   -772.72841    777.22286   -2514.9462 
20846000    273.96871   -3875.8885   -3406.3155   -3875.8885            0    8498.0878    16.982109    20.002682    20.718134    7037.6958    8886.1414    8747.1093    7861.0127   -128.41919   -15.595748    754.86843   -2534.0924 
20847000    278.21795     -3902.15    -3425.294     -3902.15            0    7140.3341    17.002022    20.026136    20.742427     7062.481    7005.8263    7135.2824    7279.8935    535.83411     -680.498    1542.6948   -2689.8464 
20848000    250.98208   -3870.6103   -3440.4356   -3870.6103            0    9844.0685    16.966384    19.984159    20.698948    7018.1628    9575.4588    8464.5321    11492.215    1237.4434     -1327.86     524.9798   -2432.8686 
20849000    271.55497   -3883.7858   -3418.3499   -3883.7858            0    9162.0342    16.964325    19.981734    20.696437    7015.6086    10501.372    8622.1565    8362.5746    69.813375    710.42191   -295.65012   -2480.9322 
20850000    256.88463   -3864.5305   -3424.2391   -3864.5305            0    9139.2359    16.978743    19.998717    20.714027    7033.5118    7980.6933    9296.7975    10140.217    419.61566    785.09412   -603.44807   -2486.7677 
20851000    255.67643   -3871.1368   -3432.9161   -3871.1368            0    10392.978    16.909109    19.916697    20.629073     6947.327    11191.745    9798.5345    10188.653   -772.02572    914.28763     114.8708   -2379.9034 
20852000    259.17415   -3833.1993   -3388.9836   -3833.1993            0    7439.5204     16.99622    20.019302    20.735349    7055.2538    8321.0763    6179.4486    7818.0362    606.70375    841.46459    630.97326   -2623.5043 
20853000    258.95893   -3835.6956   -3391.8489   -3835.6956            0    10666.445    16.913384    19.921732    20.634289    6952.5978    12205.651    9156.1435    10637.539   -353.37622    671.91688   -1113.8232   -2310.3087 
20854000    259.60343   -3857.9112   -3412.9598   -3857.9112            0    6904.6907    16.967367    19.985318    20.700149    7019.3837    4928.8503    7171.1665    8614.0555   -382.45357    -776.2226    1584.1027   -2706.1231 
20855000    278.82526     -3856.09    -3378.193     -3856.09            0    9068.9198    16.940044    19.953134    20.666814    6985.5272    9501.9231    8933.5954    8771.2408    1153.8397    621.50314   -63.006226    -2454.281 
20856000    259.22707   -3872.4502   -3428.1439   -3872.4502            0    9448.5514     16.90039    19.906427    20.618436    6936.5856    12072.485    7832.2481    8440.9215    399.80683   -2085.6909    709.42284   -2472.3002 
20857000    259.74085    -3846.053   -3400.8661    -3846.053            0    10615.678    16.868258     19.86858    20.579235    6897.0962    11640.407    9636.1318    10570.494   -350.20618   -84.459969   -1292.3832   -2333.0662 
20858000    251.53762   -3827.7481   -3396.6212   -3827.7481            0     7234.863    16.958442    19.974805     20.68926    7008.3123    8590.3612    7284.3267     5829.901   -393.91692   -607.20687     222.1272   -2657.1528 
20859000     255.8272   -3863.4479   -3424.9688   -3863.4479            0    11784.653    16.886498    19.890064    20.601488    6919.4945    12402.047    11827.797    11124.115   -244.63313   -198.81363    1569.9464   -2235.7355 
20860000    262.78149   -3864.2589   -3413.8605   -3864.2589            0    8869.4399    16.980463    20.000743    20.716126    7035.6497    8857.7247    8666.5168    9084.0783    524.55538   -1175.0037    905.91337   -2503.7873 
20861000    264.84902   -3858.7067   -3404.7645   -3858.7067            0    9379.6071    16.980739    20.001067    20.716462    7035.9921    9795.5985    8276.6089    10066.614      303.621   -104.10935   -1705.1432   -2442.2974 
20862000    272.04749    -3843.762   -3377.4819    -3843.762            0    9482.2146    16.920548     19.93017    20.643029    6961.4359     10076.06    8548.3442    9822.2399   -255.97192   -661.27797   -276.80984   -2414.7962 
20863000    264.57843   -3882.2941   -3428.8157   -3882.2941            0    9006.9509    16.947187    19.961548    20.675528    6994.3674    8497.6635     9178.858    9344.3313   -726.39056    443.56686    750.32779   -2510.0556 
20864000    279.07505   -3836.8381    -3358.513   -3836.8381            0    9633.6103    16.984904    20.005974    20.721544    7041.1714    8941.7777    7911.0929     12047.96   -164.51919    238.81175   -1081.5774   -2369.2543 
20865000    277.71944    -3873.943   -3397.9414    -3873.943            0    7887.0281    16.977086    19.996765    20.712005    7031.4525    10264.298    8646.5085    4750.2775   -1485.1811    234.08185    -1308.838   -2589.1541 
20866000    255.39739     -3841.76   -3404.0176     -3841.76            0     9008.128    16.927994    19.938941    20.652113    6970.6304    10418.336     9482.178    7123.8696   -957.33243   -589.64141    1239.0611   -2488.2558 
20867000    254.16795    -3861.007   -3425.3718    -3861.007            0    10392.236    16.891331    19.895757    20.607384    6925.4374    10592.037    9467.1514    11117.519    331.23364   -661.36554   -850.07151   -2375.7518 
20868000    269.54845   -3863.8377   -3401.8408   -3863.8377            0    10689.849    16.901142    19.907313    20.619354    6937.5122    11438.759     9683.289    10947.499    2377.5249   -631.79313   -1771.4044   -2320.2793 
20869000    268.93528   -3840.2531   -3379.3073   -3840.2531            0    7757.8539    16.964212    19.981601    20.696299    7015.4686    8315.5718    7608.5907    7349.3993    376.59983   -1806.1079   -2467.8916   -2585.5748 
20870000    274.56627   -3896.4653   -3425.8682   -3896.4653            0    9461.4116    16.945633    19.959717    20.673632    6992.4435    11613.875    7466.0449     9304.315    1032.4757    242.01204   -67.989511    -2461.016 
20871000    256.12916   -3853.4465   -3414.4499   -3853.4465            0    10910.308    16.891228    19.895635    20.607258    6925.3101    11379.934    10455.741    10895.248    161.83169   -2139.3906   -236.50885   -2312.5247 
20872000    277.38079   -3855.1976   -3379.7764   -3855.1976            0    9319.4886    16.949386    19.964137    20.678211    6997.0901    8038.7986    7354.8658    12564.801   -300.93421   -49.692605     536.9842   -2428.7656 
20873000     247.1263   -3873.9904   -3450.4243   -3873.9904            0     6693.196    16.944094    19.957904    20.671755    6990.5382    6229.2443    6577.2613    7273.0824   -814.44367   -635.45182   -700.10535   -2768.0541 
20874000    271.89525   -3844.4282   -3378.4091   -3844.4282            0    9359.1184    16.896783    19.902178    20.614036    6932.1453    10023.454    11309.897    6744.0039   -13.085018    1061.8916   -1387.4705   -2432.2188 
20875000    277.46071   -3841.1618   -3365.6036   -3841.1618            0    10027.353    16.881595    19.884289    20.595507    6913.4694    10905.068    10149.654    9027.3372   -719.33369   -292.83513    1077.8785   -2354.5871 
20876000    258.53776   -3855.6672   -3412.5423   -3855.6672            0    9454.2822    16.933338    19.945236    20.658633    6977.2346    8388.9894    9864.9029    10108.954    1531.2028    1992.7219   -695.20881   -2450.5141 
20877000    264.06758   -3840.0383   -3387.4356   -3840.0383            0    8065.4039    16.966528    19.984329    20.699125     7018.342    6419.8136    8105.5647    9670.8334    147.54397    259.90869    587.37094   -2561.8986 
20878000    273.39378   -3874.9721   -3406.3845   -3874.9721            0    10173.455    16.910192    19.917972    20.630395    6948.6621    9513.2198    9913.2771    11093.869    49.795216    1915.0651    925.79125   -2375.4156 
20879000    273.59319   -3871.3935   -3402.4642   -3871.3935            0    8013.6555    16.977639    19.997416     20.71268    7032.1396    8961.1287     7033.385    8046.4528   -872.25414    715.06355   -1939.6453   -2580.6114 
20880000    256.58045    -3885.634   -3445.8638    -3885.634            0    9596.1812    16.895023    19.900106    20.611889      6929.98    8932.9315    7844.1635    12011.449   -1106.5515    88.495478   -1258.9562     -2476.01 
20881000     251.7782   -3870.7064   -3439.1671   -3870.7064            0    7880.8489    16.942699    19.956261    20.670053    6988.8119    7699.8837    7526.2289    8416.4343    577.19465    404.21094    192.32544   -2635.9143 
20882000    272.60354   -3812.0406   -3344.8074   -3812.0406            0    8358.6463    16.992072    20.014416    20.730288    7050.0889    7354.1555    9985.1937    7736.5895    513.00513    246.49368    1563.8745   -2485.3855 
20883000    264.18448   -3851.8158   -3399.0127   -3851.8158            0    8694.9856    16.972038    19.990819    20.705846    7025.1815    10076.962    8249.8415    7758.1529    2150.6349   -196.63573    516.35095   -2508.1674 
20884000    251.13004   -3861.0005   -3430.5722   -3861.0005            0    9914.0918    16.978707    19.998674    20.713982     7033.466    9737.9534    8946.6153    11057.707    571.55686   -213.24121   -300.74879   -2413.6254 
20885000    251.36576   -3886.6914   -3455.8591   -3886.6914            0    8232.5394      16.9174    19.926462    20.639188    6957.5512    7201.4287    8994.8631    8501.3264   -465.81023   -645.12558    621.46074   -2620.5137 
20886000    261.29311   -3815.6402   -3367.7928   -3815.6402            0    9371.3504    16.835572    19.830079    20.539358    6857.0794    9419.1537    9527.7663    9167.1313    388.92329    102.87819   -907.79222   -2430.6252 
20887000    260.84633   -3876.3219   -3429.2402   -3876.3219            0    8697.8734    16.897693     19.90325    20.615145     6933.265    7663.2985    7890.1433    10540.178    231.75702   -306.12603    829.64071   -2549.7586 
20888000      270.383   -3851.6525   -3388.2253   -3851.6525            0    9900.8317    16.900096    19.906081    20.618077    6936.2236    10005.449    8787.0061     10910.04    723.72183    320.45474    644.91004   -2386.6799 
20889000    253.09987   -3905.4433   -3471.6388   -3905.4433            0     8804.311    16.909832    19.917549    20.629956     6948.219    8705.9723    8145.0118    9561.9488   -149.58695   -465.03713    1010.8504   -2579.4747 
20890000    265.35394   -3872.9182   -3418.1106   -3872.9182            0     10053.25    16.906726     19.91389    20.626166    6944.3901    9282.2098    10316.743    10560.798   -1169.6809   -37.742542   -54.014098   -2399.9495 
20891000    256.12085   -3865.9247   -3426.9423   -3865.9247            0    7913.2836    16.945869    19.959996    20.673921    6992.7363    7247.0125    7515.8874    8976.9509   -150.03236    259.24471    190.46841   -2619.9307 
20892000    257.72578   -3852.9791   -3411.2459   -3852.9791            0    7776.3502    16.933371    19.945275    20.658674    6977.2759    8016.6045    6739.9646    8572.4815   -624.27025    315.31723     867.5008   -2619.9524 
20893000    252.41773   -3843.9857   -3411.3503   -3843.9857            0     10845.44     16.91938    19.928794    20.641604    6959.9944    10136.083    12342.991    10057.245     508.8569    1289.2524    513.13355   -2310.4907 
20894000    269.13918   -3864.1559   -3402.8606   -3864.1559            0    8854.9136     16.97632    19.995862     20.71107    7030.5003      9517.43    8134.6772    8912.6336    746.44975   -84.467546    468.19516   -2494.9429 
20895000    280.41943   -3872.9694     -3392.34   -3872.9694            0    8234.8788    16.999947    20.023692    20.739896    7059.8958    10301.257    7400.0455    7003.3334   -805.36722    365.54043    58.802294   -2544.4659 
20896000    245.84542   -3849.7195   -3428.3488   -3849.7195            0     9266.759    16.965787    19.983456    20.698221    7017.4225    9686.4577    8876.7198    9237.0995   -662.74397    1460.7095   -2696.3997    -2479.971 
20897000    260.52108   -3889.2631   -3442.7389   -3889.2631            0    10537.101    16.908869    19.916415    20.628781    6947.0318    8913.3254    11646.279    11051.699    1055.5039   -19.308336   -1331.0403    -2375.169 
20898000    244.01559   -3869.7866   -3451.5523   -3869.7866            0     8167.938    16.954441    19.970093    20.684379    7003.3535    9524.2187    7627.2429    7352.3525    764.51636   -93.893926      -1153.6   -2617.3058 
20899000    282.45072   -3836.4211   -3352.3103   -3836.4211            0    9209.0651    16.972188    19.990995    20.706029    7025.3678    9293.4983    9549.1849    8784.5121   -59.069816   -578.76766   -751.50281   -2408.7699 
20900000    273.01812   -3871.8122   -3403.8685   -3871.8122            0    10681.619    16.907942    19.915322     20.62765    6945.8891    11251.073    10130.784    10663.001   -927.82089     745.3298    2037.4196   -2321.8347 
20901000    268.12013   -3857.7905   -3398.2418   -3857.7905            0    7905.0878    16.977213    19.996915    20.712161    7031.6107    8197.8471    7964.1524     7553.264    1626.1711   -161.10856   -82.078163   -2587.5842 
20902000      254.328   -3880.0921   -3444.1826   -3880.0921            0    8866.7524    16.890045    19.894242    20.605816     6923.856    9125.9185    7664.6341    9809.7047    595.83155    312.91834   -186.64782   -2548.8416 
20903000     270.2216    -3871.189   -3408.0384    -3871.189            0    8686.3718    16.909621    19.917301    20.629699     6947.959    7804.6422    9630.4647    8624.0084    475.62792   -1108.9507    1899.8146   -2527.8583 
20904000    255.50372   -3857.4028   -3419.4782   -3857.4028            0    11574.701    16.839416    19.834608    20.544048    6861.7782    13028.819    9851.7108    11843.574    750.55631   -1136.5254    812.11402   -2261.1747 
20905000    268.05403   -3877.7672   -3418.3318   -3877.7672            0    8167.4383      16.9474    19.961798    20.675788    6994.6308    8608.0286    9064.4502    6829.8361   -1910.0608    1066.2705    761.16526   -2585.1753 
20906000    252.99595   -3883.2979   -3449.6715   -3883.2979            0    8697.5432     16.89797    19.903577    20.615484    6933.6065    9469.6646    9220.8631    7402.1019   -103.02533    525.75681   -1064.8567   -2570.1799 
20907000    259.06985   -3864.0044   -3419.9676   -3864.0044            0    10297.641    16.893903    19.898787    20.610523    6928.6018    10720.035    10437.016    9735.8713   -2617.4783   -1068.2957     1411.193   -2379.4265 
20908000    262.88641   -3877.8672   -3427.2889   -3877.8672            0     8268.331    17.054948    20.088476    20.806997    7128.6423     8584.491    7685.4474    8535.0547   -219.24974   -752.95933    635.46761   -2567.6806 
20909000    258.11432   -3834.7065   -3392.3074   -3834.7065            0    9517.6344    16.931074    19.942568     20.65587    6974.4359    10619.515    7651.9706    10281.417   -135.08686    923.83677   -1294.4338   -2424.2213 
20910000    287.41229   -3858.3703   -3365.7554   -3858.3703            0    9054.8007    16.943049    19.956674     20.67048    6989.2456    8897.8438    9391.5038    8875.0546    -462.1729    259.76561   -1691.4191   -2442.7907 
20911000    254.19117   -3849.3612   -3413.6863   -3849.3612            0    10940.833    16.861597    19.860734    20.571109    6888.9286     12978.57    10078.833    9765.0957   -543.66706    29.091701    1491.9646   -2314.4831 
20912000    261.93381   -3847.4945   -3398.5489   -3847.4945            0    8735.7679    16.906634    19.913781    20.626053    6944.2765    7828.3245    12316.312    6062.6675     623.0339   -455.66815    904.09676   -2513.8327 
20913000    244.82805   -3823.0002   -3403.3733   -3823.0002            0    9136.0447    16.963136    19.980333    20.694986    7014.1333    9218.3932    9421.7769    8767.9641    624.11118    679.04896   -1148.4691   -2468.8113 
20914000    273.40986   -3891.4063   -3422.7912   -3891.4063            0    10273.002     16.93632    19.948748    20.662271    6980.9216    10697.208    10297.846    9823.9524   -122.88625   -1223.9778   -1576.1286   -2376.9012 
20915000     257.5036   -3868.2105   -3426.8582   -3868.2105            0    10248.706     16.91518    19.923848     20.63648    6954.8134    11260.455    10021.416    9464.2485   -89.194059    19.211336     701.2204    -2387.344 
20916000    265.68624   -3858.0684   -3402.6913   -3858.0684            0    8871.9909    16.948669    19.963293    20.677337    6996.2029    8159.4462    8668.4698    9788.0565   -977.24269    1169.1286   -172.22271   -2497.4604 
20917000    249.15681   -3891.2682   -3464.2219   -3891.2682            0    8306.2304    16.924624    19.934972    20.648002    6966.4687     7651.049    10338.501    6929.1412   -898.67253   -949.04007    297.37734   -2620.3189 
20918000    276.79487   -3846.1013   -3371.6843   -3846.1013            0    8306.4017     16.93922    19.952163    20.665808    6984.5073    6287.7497    9314.7762    9316.6791    1793.3365     303.0488   -558.14694   -2525.5787 
20919000    275.34501   -3859.0202   -3387.0883   -3859.0202            0    8535.6003    16.961933    19.978917    20.693519    7012.6411    9397.2198    7118.0988    9091.4822   -768.77088   -566.85491   -776.05338   -2514.1339 
20920000    258.56362   -3823.3906   -3380.2214   -3823.3906            0    10323.574    16.924523    19.934853    20.647879    6966.3441    9073.3917     12960.06    8937.2713   -1554.9066   -76.056338   -1145.3971   -2331.3774 
20921000    266.14763   -3852.8972   -3396.7293   -3852.8972            0    8940.5944    16.928178    19.939158    20.652338     6970.858    6920.0839    12043.555    7858.1446    852.89679     26.21045    506.77047   -2487.8033 
20922000    264.88431   -3865.8925   -3411.8898   -3865.8925            0    9278.4969     16.96683    19.984684    20.699492    7018.7162    8425.8649    11483.391    7926.2352   -84.299912    79.192849    102.97366   -2462.1357 
20923000    260.18825   -3863.7581   -3417.8043   -3863.7581            0    7167.9413    16.887516    19.891264    20.602731    6920.7465    6528.1222    6921.4964    8054.2054   -1535.6376   -339.82745   -1145.7939   -2694.3297 
20924000    255.08181   -3831.5458   -3394.3443   -3831.5458            0    10257.326    16.868219    19.868533    20.579187     6897.048    8890.6786    11314.387    10566.912    739.70824    293.15621    42.917106   -2362.5971 
20925000    270.98795   -3852.8106   -3388.3465   -3852.8106            0    8620.0021    16.885329    19.888688    20.600062     6918.058    6554.3279    9483.5528    9822.1257    79.452699    592.69196   -196.22222   -2518.6505 
20926000    260.60452   -3885.6393   -3438.9721   -3885.6393            0    7885.5982    16.943212    19.956866     20.67068    6989.4476    6409.8325    9399.3684    7847.5936    400.69911    -973.2593    424.04028   -2635.1622 
20927000    265.15473    -3835.481   -3381.0149    -3835.481            0    8594.6178    16.963125     19.98032    20.694972    7014.1194    7503.9982    8798.5825    9481.2728   -214.12056   -1206.3625    1328.3396   -2501.8393 
20928000    275.75965   -3863.5672   -3390.9246   -3863.5672            0    9026.5899    16.944367    19.958227    20.672089    6990.8771    9669.2336    8223.5503    9186.9859    -372.2378   -1056.3674     283.6154   -2470.6207 
20929000     262.6034   -3865.8217   -3415.7285   -3865.8217            0    7570.5226    16.982684    20.003358    20.718835    7038.4101    8315.5733    7333.3323    7062.6623    823.58885    423.54686    2259.5016   -2638.6295 
20930000    266.70527   -3864.2245   -3407.1008   -3864.2245            0    9211.1415    16.929401    19.940598    20.653829    6972.3684    10448.486    8117.1429    9067.7959    1046.5454   -1204.1543   -1799.6984   -2470.4674 
20931000    264.25229    -3856.297   -3403.3776    -3856.297            0    10491.218    16.845504    19.841779    20.551476    6869.2236    12170.948     9648.431    9654.2743    4.6063696   -1959.4884   -353.88459   -2352.3613 
20932000    272.88785   -3866.2145   -3398.4941   -3866.2145            0    8248.5094    16.946191    19.960375    20.674314    6993.1346     8797.869    7230.3788    8717.2804    134.38263   -1989.0562    680.03474   -2557.2476 
20933000    258.28326   -3876.1623   -3433.4736   -3876.1623            0    9368.8945     16.90902    19.916592    20.628964    6947.2172    9027.5935    8687.0688    10392.021    316.98351    -236.4993   -474.09143   -2484.2356 
20934000    264.10304    -3914.251   -3461.5874    -3914.251            0    8072.8607    16.965218    19.982785    20.697526    7016.7159    8519.4179    7770.3046    7928.8594   -1004.4004    -331.8934   -292.98082   -2635.4787 
20935000    276.18542   -3856.2417   -3382.8694   -3856.2417            0    8704.4441    16.923285    19.933394    20.646368     6964.815    9195.3742    7323.6036    9594.3544    -507.7503   -514.74978   -314.57336   -2498.7182 
20936000     266.2886   -3837.4972   -3381.0876   -3837.4972            0    8632.3385    16.925623    19.936148     20.64922     6967.702    9818.9428    7685.5155    8392.5573   -271.21796   -1582.9566   -528.05471   -2503.8971 
20937000    272.23051   -3876.2551   -3409.6614   -3876.2551            0    8384.1849    16.920309    19.929889    20.642738    6961.1418    9520.5066    6321.8564    9310.1916    837.05739    307.10319    734.91797   -2558.4896 
20938000     275.4103   -3849.6836   -3377.6398   -3849.6836            0     9566.716    16.892515    19.897152    20.608829     6926.894    11187.912    7729.1786    9783.0578    284.00831   -525.20911     669.2145   -2411.1944 
20939000    248.87709   -3866.5829   -3440.0161   -3866.5829            0    8483.1826    16.875849    19.877521    20.588496    6906.4115    7547.9737    9311.9274    8589.6468   -1055.3624    1652.6415   -4.5488544   -2585.5651 
20940000    282.97688   -3855.1891   -3370.1764   -3855.1891            0    8404.6828    16.891298    19.895718    20.607344    6925.3966    8355.9613    7375.9763    9482.1107   -110.44089    724.55721    770.83346   -2521.3051 
20941000    280.47185   -3863.4472   -3382.7281   -3863.4472            0    8768.7281    16.919282    19.928679    20.641484    6959.8735    8299.5623    8649.0986    9357.5233    1720.5486     1596.512     -702.741   -2492.6792 
20942000    259.98976   -3816.7377   -3371.1242   -3816.7377            0    9370.3424    16.896614    19.901979    20.613829    6931.9374    10886.969    7497.2868     9726.771   -217.48483    -599.1375   -62.118374   -2423.8276 
20943000    251.41589   -3829.3173    -3398.399   -3829.3173            0    7163.7881    16.949049    19.963741      20.6778    6996.6734    7295.2033     6026.144     8170.017    45.153089    758.18122     1001.989   -2667.4111 
20944000    267.58824   -3828.3881    -3369.751   -3828.3881            0     10133.15    16.863832    19.863366    20.573835    6891.6683    9576.4911    10396.595    10426.365   -582.03412    -1114.355    1358.0076   -2351.2892 
20945000    254.73588   -3851.3638   -3414.7553   -3851.3638            0    8740.4901    16.941556    19.954915    20.668659    6987.3977    8621.2119    8262.0595     9338.199    106.19898   -610.49266    2061.7822   -2524.0641 
20946000    261.88943    -3868.326   -3419.4565    -3868.326            0    7542.3903    16.994465    20.017234    20.733207    7053.0677    6781.7345     9548.715    6296.7213   -878.97332    101.58068     -966.317    -2643.633 
20947000    264.54635   -3858.0459   -3404.6225   -3858.0459            0    8458.5505    16.941411    19.954744    20.668481    6987.2179    8285.7887    6950.0797    10139.783   -243.38525   -1681.6648    349.57852   -2542.6843 
20948000    269.62073   -3864.4009   -3402.2802   -3864.4009            0     9887.173    16.947947    19.962442    20.676455    6995.3081    11585.494     9207.965      8868.06    71.238313   -1674.4975     966.9046   -2393.5968 
20949000    268.30304   -3841.5297   -3381.6675   -3841.5297            0    9087.3691    16.934518    19.946625    20.660072    6978.6932    7798.7689    8307.4608    11155.878   -1836.4466    -766.0428    42.376169   -2456.7816 
20950000    264.32934   -3873.6207   -3420.5692   -3873.6207            0    9883.6179    16.905179    19.912068    20.624279    6942.4841    8869.4337    11857.311    8924.1094   -233.42018   -114.13665   -1378.9503   -2419.8627 
20951000    251.61402   -3850.3862   -3419.1283   -3850.3862            0    7156.5445    16.983641    20.004486    20.720002       7039.6    4898.5379    7338.1363    9232.9592     173.7734    1254.1474   -1880.1518   -2684.3992 
20952000    268.25847   -3844.0045   -3384.2186   -3844.0045            0    10198.472    16.919956    19.929473    20.642307    6960.7058    9451.7349    9641.2147    11502.467   -312.24521   -1048.6529    2097.4202   -2348.9232 
20953000    254.86864   -3893.8056   -3456.9695   -3893.8056            0    8585.3011    16.938879    19.951762    20.665393    6984.0865    9165.4436    8644.6664    7945.7935    471.47478   -1584.2721    1065.4956   -2582.5073 
20954000    273.63898    -3906.809   -3437.8011    -3906.809            0    8648.4802    16.933688    19.945647    20.659059    6977.6667     11243.79    8710.2314    5991.4195   -855.58455   0.30963551    -695.1336   -2557.7135 
20955000    248.97065   -3882.3277   -3455.6005   -3882.3277            0    8955.5765    16.889847    19.894009    20.605574    6923.6125    9793.5183    7326.8276    9746.3836   -843.05186   -692.12216    25.246907    -2551.322 
20956000    253.84426    -3898.218   -3463.1376    -3898.218            0    10439.187    16.904556    19.911334    20.623519    6941.7166    10955.832    8208.9535    12152.775    -1579.825    596.54119   -573.34193   -2406.2971 
20957000    271.23778   -3903.4181   -3438.5258   -3903.4181            0    9401.8907    16.897479    19.902999    20.614885    6933.0026    9941.4737    8877.5688    9386.6297    834.71666    1653.1238    338.35236   -2487.8938 
20958000    268.14552   -3858.0945   -3398.5023   -3858.0945            0     11827.55    16.894285    19.899236    20.610988    6929.0709    9447.1535    11997.089    14038.409   -1398.9955    1288.4994    376.15882   -2203.2882 
20959000    264.35065   -3861.9447   -3408.8568   -3861.9447            0    11840.738    16.853706    19.851439    20.561481    6879.2611    11831.656    11918.457    11772.102    2091.1311    13.477308    1469.3089   -2220.9114 
20960000    273.11418   -3855.9751   -3387.8668   -3855.9751            0    7989.8651    16.969078    19.987332    20.702236    7021.5069    7335.7014    8934.3832    7699.5106   -348.46297   -986.91671    944.36022   -2569.6928 
20961000    272.29814   -3854.6641   -3387.9544   -3854.6641            0     10565.67    16.864873    19.864593    20.575106    6892.9455    10537.227    10898.463     10261.32   -998.76363   -623.95184    679.29426   -2325.8242 
20962000    252.99139   -3816.1896    -3382.571   -3816.1896            0    10700.194    16.896603    19.901966    20.613816    6931.9238    8646.1459    13061.133    10393.302   -912.39843     1684.277    315.23814    -2300.835 
20963000    268.72988   -3817.7805   -3357.1867   -3817.7805            0    11397.333    16.829698    19.823161    20.532192    6849.9047    11110.448    10290.779     12790.77    795.46714    741.68845   -44.982734   -2218.6064 
20964000    264.91208   -3836.0088   -3381.9585   -3836.0088            0    9491.2412    16.935271    19.947512     20.66099    6979.6236    10274.495     8962.614    9236.6149   -182.18977    1041.0439   -280.54429   -2415.8389 
20965000    255.15804   -3881.2476   -3443.9154   -3881.2476            0    7827.8407    16.902332    19.908714    20.620805    6938.9769    8394.7997     7423.153    7665.5693   -1024.9305    620.66749    775.32038   -2651.7547 
20966000    271.48526   -3874.2992   -3408.9827   -3874.2992            0    9879.0185    16.877393    19.879339     20.59038    6908.3075    7514.9699    11930.721    10191.365   -836.56623    16.246747    1705.3206   -2413.6659 
20967000    256.98492   -3894.8082   -3454.3448   -3894.8082            0    8998.4147    16.920979    19.930678    20.643555    6961.9684    8786.0196    9815.9684    8393.2562    699.89757    78.650413   -4.5869988   -2540.7073 
20968000    261.27757   -3849.8759   -3402.0551   -3849.8759            0    8109.2472    16.952264    19.967527    20.681722    7000.6551    10954.272    6167.8703    7205.5998   -1154.8119   -729.37272      1311.09   -2574.1222 
20969000    261.59464   -3825.8074   -3377.4431   -3825.8074            0    9862.5141    16.943893    19.957668     20.67151    6990.2897    9073.3044    11429.759    9084.4783    49.184273   -1205.0371   -637.52796   -2371.9973 
20970000    255.03331   -3862.3615   -3425.2432   -3862.3615            0    8149.1916    16.922357    19.932301    20.645236    6963.6691    8102.1725    8423.1666    7922.2356    2177.8935   -720.69452   -427.31711   -2597.6278 
20971000    262.79298   -3830.3175   -3379.8993   -3830.3175            0    10980.235    16.912425    19.920603     20.63312    6951.4159    12290.796    9361.3626    11288.548    591.40128    370.35549    -1220.814    -2266.731 
20972000    262.25133   -3852.7065   -3403.2167   -3852.7065            0    9140.1454    16.956968    19.973069    20.687462    7006.4853    7926.3989    8063.8686    11430.169   -397.82063   -1121.2435   -8.1975644   -2469.2547 
20973000    260.91645   -3839.5086   -3392.3068   -3839.5086            0    8380.9549    16.904776    19.911593    20.623787    6941.9879    7325.6618    7154.1308    10663.072    736.74559    179.36547    1477.5303    -2543.804 
20974000     264.9521   -3834.7592   -3380.6403   -3834.7592            0    9168.7109    16.906934    19.914136    20.626421    6944.6474    7877.6387     8084.109    11544.385   -675.08697   -913.14065    1848.4281   -2452.0282 
20975000    263.93553   -3851.2495    -3398.873   -3851.2495            0    10073.957    16.892735    19.897411    20.609098    6927.1647    9602.2703    7610.0484    13009.553    1824.1934    200.96725   -3.1107855   -2381.1455 
20976000    271.34674   -3841.6052   -3376.5262   -3841.6052            0     9755.805    16.919855    19.929354    20.642183    6960.5805    10307.878    10241.335    8718.2024    1737.2035    1142.6102   -325.78789   -2386.1859 
20977000    273.53527   -3809.3436   -3340.5135   -3809.3436            0    7604.7006    17.026896    20.055434    20.772773    7093.5237     5656.463    9082.3434    8075.2953   -1208.2525    927.11463    1082.9052   -2553.7938 
20978000    276.99532    -3850.958   -3376.1975    -3850.958            0    8938.7069    16.912693    19.920919    20.633446     6951.746     11371.56    5730.0098    9714.5509    755.05307   -1614.9928    38.538359   -2469.9549 
20979000    269.86685   -3848.4731   -3385.9306   -3848.4731            0    7212.4195    16.967484    19.985455    20.700291    7019.5284    8210.6641    6084.6735    7341.9208   -1031.3799   -376.03229    171.86788   -2647.5763 
20980000    267.57989   -3820.6518    -3362.029   -3820.6518            0    9147.5746    16.986411    20.007748    20.723382     7043.045    7515.0817    10278.335    9649.3069    252.18292    49.459759    -576.9839   -2422.4306 
20981000    277.49491   -3855.1179   -3379.5011   -3855.1179            0    8307.4595    16.955715    19.971592    20.685932    7004.9316    11497.368    4903.5694     8521.441    2750.2991   -345.73829   -966.42169   -2530.8132 
20982000    268.51852   -3868.3125   -3408.0809   -3868.3125            0    9862.6055    16.932771    19.944568    20.657941    6976.5336    11014.208    6960.6717    11612.937    721.24256   -838.14339   -97.655332   -2404.6043 
20983000    261.72335   -3884.8367   -3436.2519   -3884.8367            0    8814.7618    16.996613    20.019765    20.735828    7055.7432    7391.6589    8636.9516    10415.675    180.52928   -714.17363    248.74862    -2529.206 
20984000    272.64142   -3839.0832   -3371.7851   -3839.0832            0    9737.9384    16.911528    19.919546    20.632024    6950.3089     10548.08    9475.8417    9189.8933   -1807.3272   -792.65663   -93.040958   -2384.7172 
20985000     253.4746   -3847.7016   -3413.2548   -3847.7016            0    8200.8046     17.00157    20.025603    20.741875    7061.9177    8252.7683    8219.8663    8129.7792    936.47914   -605.89264    35.669169   -2568.6472 
20986000    256.16575   -3849.4607   -3410.4014   -3849.4607            0    10656.765     16.89812    19.903753    20.615667    6933.7914    11178.187    11291.804    9500.3045    808.54826   -195.62553    631.81946   -2332.7655 
20987000    263.08519   -3871.2248   -3420.3057   -3871.2248            0    9082.5869    16.962214    19.979248    20.693862    7012.9899    9583.1918    6487.1882    11177.381   -1724.7013    502.62198   -1366.7066   -2491.3636 
20988000    268.91845    -3889.201   -3428.2839    -3889.201            0    8936.8837    16.956188     19.97215     20.68651    7005.5183    8648.3302    8277.9853    9884.3357   -605.47572   -3633.4485    1128.8981   -2515.2177 
20989000    263.50783    -3877.269   -3425.6256    -3877.269            0    9139.1792    16.991446    20.013679    20.729524      7049.31    8933.2094     9211.523    9272.8051    431.03414   -179.56785   -1463.6039   -2486.0544 
20990000    265.98445   -3851.9708   -3396.0826   -3851.9708            0    10101.434    16.880019    19.882432    20.593583    6911.5325    11682.683    8908.5451    9713.0737   -1355.4775   -877.15628   -424.60968   -2377.8822 
20991000    252.84549    -3889.631   -3456.2625    -3889.631            0    8341.5885    16.916778     19.92573     20.63843    6956.7848    10421.251    7982.6485    6620.8656    1082.7901   -1911.4589    836.80079   -2609.9452 
20992000    280.02785   -3896.0304   -3416.0722   -3896.0304            0    8781.0835    16.974815     19.99409    20.709235    7028.6314    6916.2848    10405.978    9020.9872   -1140.5307   -614.02309    1241.0317   -2515.9639 
20993000     268.2065   -3842.8562   -3383.1594   -3842.8562            0    8517.9476    16.948988    19.963669    20.677726    6996.5978    7346.5021     9500.842    8706.4987   -1131.3423    1484.4553   -376.57212   -2514.0033 
20994000    274.59145   -3875.3194    -3404.679   -3875.3194            0    10306.632    16.910232     19.91802    20.630444    6948.7117    10139.896     9517.835    11262.165   -403.83439   -520.50053   -1911.5417   -2360.2067 
20995000    265.62096   -3816.1244   -3360.8592   -3816.1244            0    9581.7223    16.986642     20.00802    20.723663    7043.3321    10950.126    9556.8729    8238.1676    -1015.892     1288.608   -459.52275   -2376.6268 
20996000    277.73528   -3871.3311   -3395.3024   -3871.3311            0    8942.8457    16.964012    19.981365    20.696055    7015.2201     8467.825    8764.3446    9596.3674   -741.91419   -133.47435   -204.08211   -2480.3617 
20997000    267.74683   -3868.3724   -3409.4635   -3868.3724            0    7914.7459    16.980382    20.000647    20.716026    7035.5485    8403.3765    8506.7258    6834.1352   -1628.3316   -955.85713    918.36241   -2597.3611 
20998000    266.67425   -3825.2767   -3368.2061   -3825.2767            0    10405.589    16.968721    19.986912      20.7018    7021.0639    10795.405    8883.5982    11537.764   -1238.9172    176.49664   -1535.4839   -2302.7257 
20999000    255.90168   -3881.3586   -3442.7518   -3881.3586            0    8144.9689    16.979146    19.999192    20.714519    7034.0127    8093.2236    6350.3495    9991.3335   -926.33836    539.14048    -2045.147   -2607.2095 
21000000    275.09744   -3857.3256    -3385.818   -3857.3256            0    10434.533    16.953217    19.968651    20.682886    7001.8368     10494.84    8229.8952    12578.862     387.9082   -806.60534   -483.05474   -2320.2998 
Loop time of 514.557 on 64 procs for 250000 steps with 864 atoms

Performance: 83.956 ns/day, 0.286 hours/ns, 485.855 timesteps/s
98.9% CPU use with 64 MPI tasks x 1 OpenMP threads

MPI task timing breakdown:
Section |  min time  |  avg time  |  max time  |%varavg| %total
---------------------------------------------------------------
Pair    | 21.811     | 27.436     | 32.896     |  47.8 |  5.33
Bond    | 0.27211    | 0.28305    | 0.29701    |   1.1 |  0.06
Kspace  | 211.85     | 222.25     | 233.73     |  31.3 | 43.19
Neigh   | 5.6358     | 6.7243     | 7.7927     |  22.6 |  1.31
Comm    | 117.55     | 128.71     | 141.79     |  46.4 | 25.01
Output  | 0.84229    | 0.84381    | 0.85586    |   0.2 |  0.16
Modify  | 119.45     | 121.96     | 124.2      |   9.3 | 23.70
Other   |            | 6.343      |            |       |  1.23

Nlocal:        13.5000 ave          18 max           9 min
Histogram: 2 2 9 11 9 10 9 5 3 4
Nghost:        2244.41 ave        2273 max        2215 min
Histogram: 5 3 5 13 5 9 7 8 4 5
Neighs:        4404.27 ave        6543 max        2378 min
Histogram: 1 2 7 14 14 10 7 4 2 3

Total # of neighbors = 281873
Ave neighs/atom = 326.24190
Ave special neighs/atom = 2.0000000
Neighbor list builds = 14419
Dangerous builds = 0

unfix		3
unfix		2
unfix		1

write_data	data.final.${pid}
write_data	data.final.0
System init for write_data ...
PPPM initialization ...
  extracting TIP4P info from pair style
  using 12-bit tables for long-range coulomb (../kspace.cpp:340)
  G vector (1/distance) = 0.3743674
  grid = 24 24 24
  stencil order = 5
  estimated absolute RMS force accuracy = 0.003148953
  estimated relative force accuracy = 9.4829783e-06
  using double precision FFTW3
  3d grid and FFT values/proc = 2535 216
Last active /omp style is kspace_style pppm/tip4p/omp
WARNING: Not all mixed pair coeffs generated from mixing. Use write_data with 'pair ij' option to store all pair coeffs. (../write_data.cpp:312)

write_restart   restart.lmp.${pid}
write_restart   restart.lmp.0
System init for write_restart ...
PPPM initialization ...
  extracting TIP4P info from pair style
  using 12-bit tables for long-range coulomb (../kspace.cpp:340)
  G vector (1/distance) = 0.3743674
  grid = 24 24 24
  stencil order = 5
  estimated absolute RMS force accuracy = 0.003148953
  estimated relative force accuracy = 9.4829783e-06
  using double precision FFTW3
  3d grid and FFT values/proc = 2535 216
Last active /omp style is kspace_style pppm/tip4p/omp
Total wall time: 0:08:40
