#include		in.partitions
include		in.temp
variable        temperature equal 276.73
variable	tempDamp equal 100.0
include		in.pressure
variable        pressure equal -1125.0
variable        pressureDamp equal 1000.0 # This is 1 ps
include		in.seed
variable        seed equal 745823

units		real
atom_style	full
read_restart	restart.lmp.${pid}
read_restart	restart.lmp.1
Reading restart file ...
  restart file = 30 Jul 2021, LAMMPS = 30 Jul 2021
  restoring atom style full from restart
  orthogonal box = (-0.16460482 0.89764854 -0.20081749) to (18.372177 22.731529 22.414013)
  2 by 2 by 4 MPI processor grid
  restoring pair style lj/cut/tip4p/long/omp from restart
  restoring bond style harmonic/omp from restart
  restoring angle style harmonic/omp from restart
  864 atoms
  576 bonds
  288 angles
Finding 1-2 1-3 1-4 neighbors ...
  special bond factors lj:    0        0        0       
  special bond factors coul:  0        0        0       
     2 = max # of 1-2 neighbors
     1 = max # of 1-3 neighbors
     1 = max # of 1-4 neighbors
     2 = max # of special neighbors
  special bonds CPU = 0.001 seconds
  read_restart CPU = 0.005 seconds
include 	in.setup
variable	out_freq equal 1000
variable	out_freq2 equal 10000
variable	out_freq3 equal 1000

timestep	2.0

neigh_modify    delay 7 every 1

include		in.tip4p
# This is TIP4P/Ice

# create groups ###
group ox type 2
288 atoms in group ox
group hy type 1
576 atoms in group hy

# set charges - beside manually ###
set group ox charge -1.1794
Setting atom values ...
  288 settings made for charge
set group hy charge 0.5897
Setting atom values ...
  576 settings made for charge

# ### TIP3P Potential Parameters ###
pair_style lj/cut/tip4p/long/omp 2 1 1 1 0.1577 8.5
pair_coeff 1 1*2 0.000 0.000
pair_coeff 2 2 0.21084 3.1668
bond_style  harmonic
bond_coeff  1 450 0.9572
angle_style harmonic
angle_coeff 1 55 104.52
kspace_style pppm/tip4p/omp 1.0e-5
pair_modify tail yes

thermo          ${out_freq}
thermo          1000
thermo_style    custom step temp pe etotal epair emol press lx ly lz vol pxx pyy pzz pxy pxz pyz enthalpy

restart 	${out_freq3} restart.lmp.${pid} restart2.lmp.${pid}
restart 	1000 restart.lmp.${pid} restart2.lmp.${pid}
restart 	1000 restart.lmp.1 restart2.lmp.${pid}
restart 	1000 restart.lmp.1 restart2.lmp.1


include         in.dump
dump            myDump all atom ${out_freq2} dump.water.${pid}
dump            myDump all atom 10000 dump.water.${pid}
dump            myDump all atom 10000 dump.water.1
dump            myDump2 all dcd ${out_freq2} dump.dcd
dump            myDump2 all dcd 10000 dump.dcd
dump_modify     myDump append yes
dump_modify     myDump2 append yes


variable natoms 	equal  "count(all)"                        # NUMBER ATOMS
variable H      	equal  "enthalpy/v_natoms"                 # ENTHALPY-per-atom
variable Vol      	equal  "vol/v_natoms"                 # volume-per-atom
fix AVG all 		ave/time ${out_freq} 1 ${out_freq} v_Vol v_H file vol_enthalpy.dat
fix AVG all 		ave/time 1000 1 ${out_freq} v_Vol v_H file vol_enthalpy.dat
fix AVG all 		ave/time 1000 1 1000 v_Vol v_H file vol_enthalpy.dat


timer           timeout 23:50:00 every 1000
New timer settings: style=normal  mode=nosync  timeout=23:50:00

fix 		1 all shake 1e-6 200 0 b 1 a 1
       0 = # of size 2 clusters
       0 = # of size 3 clusters
       0 = # of size 4 clusters
     288 = # of frozen angles
  find clusters CPU = 0.000 seconds
fix             2 all nph iso ${pressure} ${pressure} ${pressureDamp}
fix             2 all nph iso -1125 ${pressure} ${pressureDamp}
fix             2 all nph iso -1125 -1125 ${pressureDamp}
fix             2 all nph iso -1125 -1125 1000
fix             3 all temp/csvr ${temperature} ${temperature} ${tempDamp} ${seed}
fix             3 all temp/csvr 276.73 ${temperature} ${tempDamp} ${seed}
fix             3 all temp/csvr 276.73 276.73 ${tempDamp} ${seed}
fix             3 all temp/csvr 276.73 276.73 100 ${seed}
fix             3 all temp/csvr 276.73 276.73 100 745823

run             250000
PPPM initialization ...
  extracting TIP4P info from pair style
  using 12-bit tables for long-range coulomb (../kspace.cpp:340)
  G vector (1/distance) = 0.37243018
  grid = 24 25 27
  stencil order = 5
  estimated absolute RMS force accuracy = 0.0030569942
  estimated relative force accuracy = 9.2060472e-06
  using double precision FFTW3
  3d grid and FFT values/proc = 5700 1200
Last active /omp style is kspace_style pppm/tip4p/omp
Neighbor list info ...
  update every 1 steps, delay 7 steps, check yes
  max neighbors/atom: 2000, page size: 100000
  master list distance cutoff = 10.8154
  ghost atom cutoff = 10.8154
  binsize = 5.4077, bins = 4 5 5
  1 neighbor lists, perpetual/occasional/extra = 1 0 0
  (1) pair lj/cut/tip4p/long/omp, perpetual
      attributes: half, newton on, omp
      pair build: half/bin/newton/omp
      stencil: half/bin/3d
      bin: standard
Per MPI rank memory allocation (min/avg/max) = 12.19 | 12.22 | 12.23 Mbytes
Step Temp PotEng TotEng E_pair E_mol Press Lx Ly Lz Volume Pxx Pyy Pzz Pxy Pxz Pyz Enthalpy 
 4750000     290.2259   -3791.8988   -3294.4615   -3791.8988            0   -1065.1853    18.536782    21.833881    22.614831    9152.8979    -1845.615   -942.71265   -407.22838   -7.8830148    390.67137   -722.90033   -3436.6484 
 4751000    257.47675   -3794.9945   -3353.6882   -3794.9945            0   -1729.1388    18.606038    21.915455    22.699323    9255.8711   -2863.3203   -1904.0609   -420.03522    1130.4877   -446.01936    450.94795   -3587.1001 
 4752000    279.26354   -3818.1074   -3339.4593   -3818.1074            0   -1941.1598    18.580173     21.88499    22.667768    9217.3245   -1934.0786   -2834.5825   -1054.8184    1120.9878    1003.5793    726.01661   -3600.4001 
 4753000    286.64191   -3853.7105   -3362.4161   -3853.7105            0   -1097.0095    18.674675      21.9963    22.783059    9358.6827   -1413.0832   -369.08134   -1508.8641   -421.43355    -1192.605    334.41135   -3512.1434 
 4754000    265.67984   -3866.4131    -3411.047   -3866.4131            0    -1503.784    18.601993    21.910691    22.694388    9249.8363   -1380.1701   -1834.1129   -1297.0691    665.92356    112.64112    130.18992   -3613.9065 
 4755000     281.1297   -3835.8538   -3354.0072   -3835.8538            0   -644.59754    18.476186    21.762507    22.540904    9063.4301   -793.90771   -1525.2021     385.3172     1180.775    460.47722   -171.63234   -3439.2106 
 4756000    286.32272   -3818.3518   -3327.6045   -3818.3518            0    545.54707    18.437895    21.717404    22.494188    9007.1951    56.826123    1659.1452   -79.330158     1056.736   -175.62713    205.41896   -3255.9411 
 4757000    275.41848   -3788.9575   -3316.8997   -3788.9575            0    -1656.768    18.604924    21.914143    22.697963    9254.2083   -2383.5726   -2370.1102    -216.6211    111.69188    41.233768   -962.23406   -3540.5023 
 4758000    300.33995   -3821.5137   -3306.7413   -3821.5137            0   -1892.1603    18.609128    21.919095    22.703092    9260.4832   -3486.2677   -1403.0319   -787.18116    -598.7087   -243.58085    303.41584   -3562.2864 
 4759000    294.63192   -3800.9206   -3295.9315   -3800.9206            0   -1061.1481    18.666682    21.986886    22.773309    9346.6718   -1432.9118   -1125.0122   -625.52041    313.88428   -805.48114   -179.37936   -3440.5784 
 4760000    280.01727   -3788.5388   -3308.5988   -3788.5388            0   -1699.3537    18.500063    21.790631    22.570034    9098.6139   -1551.0036   -1225.8902   -2321.1672   -457.26847   -16.540774    279.86338   -3534.0927 
 4761000    281.58504   -3803.4386   -3320.8115   -3803.4386            0  -0.25656824    18.434547    21.713461    22.490104    9002.2898    595.89879    20.307615   -616.97611   -565.04267    -91.83137      459.515   -3320.8452 
 4762000    290.04727   -3772.4154   -3275.2843   -3772.4154            0   -1138.3811    18.651476    21.968976    22.754758    9323.8491   -708.28853     -1944.81   -762.04479   -814.87119    1225.4135   -1203.5322   -3430.0799 
 4763000    294.18652   -3810.4983   -3306.2727   -3810.4983            0   -1590.0974    18.715507    22.044395    22.832874    9420.2049   -2327.7585   -1474.1398     -968.394    952.75919   -364.79922    649.61426   -3524.7267 
 4764000    261.95362   -3810.7605    -3361.781   -3810.7605            0    416.63222    18.516478    21.809965     22.59006    9122.8541    187.65226    1687.3888   -625.14444    26.892432   -223.19218   -270.62617   -3306.3491 
 4765000    280.76109   -3821.8804   -3340.6655   -3821.8804            0   -1462.1891    18.675293    21.997029    22.783814    9359.6128   -2972.0122    21.372091   -1435.9272   -58.169288    642.99134    226.42422   -3540.2548 
 4766000    274.00221   -3797.3276   -3327.6972   -3797.3276            0   -2384.9609    18.533968    21.830566    22.611397    9148.7298   -2313.2631   -2006.6951   -2834.9246    457.52858   -537.55653    367.68346   -3645.9103 
 4767000    285.22315   -3805.3126   -3316.4499   -3805.3126            0    458.61251    18.568815    21.871612    22.653911    9200.4312   -80.776347    1260.5209    196.09295    306.06918   -556.57804    837.49504   -3254.9138 
 4768000    268.41545   -3832.6383   -3372.5835   -3832.6383            0   -1551.0355    18.679789    22.002324    22.789299    9366.3739   -421.04416   -2417.4481   -1814.6144   -369.38517   -811.46363   -382.90642   -3584.4533 
 4769000     286.4689   -3823.6938   -3332.6959   -3823.6938            0   -1868.7955    18.718633    22.048077    22.836688    9424.9262    -2040.586   -1469.5648   -2096.2357   -42.103502    323.57529    -312.1666   -3589.5672 
 4770000    269.30707   -3823.0664   -3361.4833   -3823.0664            0    -2950.478    18.665165    21.985098    22.771457    9344.3923   -3025.9191   -2688.8231   -3136.6919   -123.46403   -1049.9561   -21.504158   -3763.5697 
 4771000    265.32764   -3784.1568   -3329.3943   -3784.1568            0   -1540.0151    18.629392    21.942963    22.727815     9290.769   -3294.0118   -458.52718   -867.50622    696.56258    1825.5109    924.94736   -3538.0607 
 4772000    275.65318   -3782.5605   -3310.1004   -3782.5605            0   -404.37339    18.502855     21.79392     22.57344     9102.734   -287.94327    -450.7379   -474.43901    1523.5934    844.18898   -44.882163   -3363.7826 
 4773000    265.22037   -3819.6987   -3365.1201   -3819.6987            0   -1527.1631    18.581442    21.886484    22.669316    9219.2125    -1718.199   -3058.9879     195.6977   -216.79878    102.81824   -413.18612   -3570.4514 
 4774000      286.064   -3758.0175   -3267.7136   -3758.0175            0   -406.77504    18.542916    21.841105    22.622314    9161.9869   -649.34159   -941.83298    370.84946    305.47434   -694.55098    279.19014   -3322.0661 
 4775000    273.62889   -3785.7509   -3316.7604   -3785.7509            0   -884.31324    18.546534    21.845367    22.626728    9167.3515    138.11262   -1665.2449   -1125.8074   -436.50986   -400.58264   -803.77663   -3434.9899 
 4776000    278.80782   -3767.4332   -3289.5662   -3767.4332            0   -859.57793      18.5453    21.843913    22.625222    9165.5211    -622.3145   -1137.1229   -819.29643       769.83    683.76162   -502.17162   -3404.4657 
 4777000    284.44224   -3777.3221   -3289.7979   -3777.3221            0    1156.4026    18.395032    21.666918    22.441896    8944.5236    930.93323    412.41261    2125.8621   -926.46403    1508.4599    268.36528   -3138.9489 
 4778000    269.87458   -3798.5936   -3336.0378   -3798.5936            0   -1332.2163    18.419955    21.696274    22.472302    8980.9298   -1388.2358   -2347.3489   -261.06433    -167.3413    243.17261   -179.76895   -3510.5284 
 4779000    265.50391   -3811.8516    -3356.787   -3811.8516            0   -1897.3619     18.58165     21.88673     22.66957    9219.5229    -1785.791   -2748.5851   -1157.7095   -198.92365    952.86655    422.19355   -3611.9011 
 4780000    289.68064   -3804.7997    -3308.297   -3804.7997            0   -965.55478    18.588822    21.895177     22.67832    9230.2024   -367.96692   -1081.6964    -1447.001    1035.7548   -278.08409   -1279.1666   -3438.2733 
 4781000    286.24608   -3795.1414   -3304.5255   -3795.1414            0     136.9021    18.467314    21.752056     22.53008    9050.3792    1132.0507   -437.16336   -284.18107   -101.59035   -661.14404   -687.94919   -3286.4557 
 4782000    261.32869   -3791.3111   -3343.4027   -3791.3111            0    -744.1096    18.539188    21.836714    22.617766    9156.4618   -1174.7961   -1159.4916    101.95892    848.71062    489.72799    -1275.871   -3442.7693 
 4783000    276.47213   -3817.6909   -3343.8271   -3817.6909            0   -1234.9239    18.406989    21.681002    22.456484    8961.9777   -999.21886    -1486.836   -1218.7168   -434.70866   -436.96874    -814.5569   -3505.2332 
 4784000    260.99226   -3839.2427   -3391.9109   -3839.2427            0    -1713.991    18.549677    21.849069    22.630562    9172.0123   -2145.8393   -2312.6217   -683.51199    126.56684    945.03206    181.66637   -3621.1818 
 4785000    270.23097   -3867.3925   -3404.2258   -3867.3925            0   -2579.5585    18.574284    21.878053    22.660583    9208.5619   -2261.8377   -3614.2388   -1862.5991   -158.60625    197.75671    410.26799   -3750.6539 
 4786000    282.78698   -3895.3255   -3410.6383   -3895.3255            0   -1001.5838    18.543776    21.842119    22.623364    9163.2626   -1502.6692   -257.09348   -1244.9888     120.3794   -178.82905    215.73867   -3544.4868 
 4787000     275.0926   -3822.8891   -3351.3898   -3822.8891            0   -846.89653    18.564653    21.866709    22.648834    9194.2459   -829.15332   -481.89702   -1229.6392    167.27899   -358.98372    204.00132   -3464.9491 
 4788000    282.44997   -3841.0823   -3356.9727   -3841.0823            0   -1543.2081    18.619332    21.931113    22.715541    9275.7245   -1747.1093   -2617.8937   -264.62135   -728.75887    960.03453   -91.302597   -3565.7331 
 4789000    280.25111   -3831.3658    -3351.025   -3831.3658            0   -576.43094    18.511213    21.803764    22.583636    9115.0743    70.711726   -54.618538    -1745.386    1029.6074    1318.3657   -671.55092   -3427.6523 
 4790000    269.58441   -3819.5916   -3357.5332   -3819.5916            0   -1205.6729    18.626183    21.939184      22.7239    9285.9686    -206.3521   -841.03361   -2569.6329    415.99343    854.38105   -308.45565    -3520.813 
 4791000    274.38758   -3836.8393   -3366.5484   -3836.8393            0   -1239.0918    18.608793      21.9187    22.702684    9259.9828   -1878.8188   -993.39311   -845.06341     608.3102    1311.9338    298.53323   -3533.8844 
 4792000    295.38658   -3873.0553   -3366.7729   -3873.0553            0   -2116.5083    18.713287     22.04178    22.830167    9416.8538   -1447.8798    -1212.939   -3688.7062   -38.135826    7.4185291    597.09363   -3657.4439 
 4793000    290.19916   -3844.3147   -3346.9232   -3844.3147            0   -681.24206    18.636281    21.951077    22.736219    9301.0786    158.36515   -2077.1318   -124.95949    262.37733   -726.09549   -57.682611   -3439.3315 
 4794000    276.67457   -3842.5544   -3368.3436   -3842.5544            0   -1099.2584    18.726356    22.057173     22.84611    9436.5967   -746.43471    -1614.704   -936.63653     -198.677     1696.716   -627.48698    -3519.627 
 4795000    262.07081   -3871.9808   -3422.8004   -3871.9808            0   -1719.5066    18.717608     22.04687    22.835438    9423.3785   -2862.0089   -232.35623   -2064.1548   -1198.9205    869.36556   -258.00204   -3659.1127 
 4796000    285.23719    -3849.749   -3360.8623    -3849.749            0   -821.18128     18.68482     22.00825    22.795437    9373.9442   -2480.3731    626.39135   -609.56208   -330.00997   -957.88057   -510.64467   -3473.1254 
 4797000    265.50145   -3849.7721   -3394.7117   -3849.7721            0   -1284.3519     18.61091    21.921194    22.705267    9263.1446   -1935.3463   -676.25148   -1241.4579    659.66359     435.8412    907.37565   -3568.2192 
 4798000    284.22573   -3855.0046   -3367.8514   -3855.0046            0   -415.53837     18.60921    21.919191    22.703192    9260.6055   -818.41348    119.78283   -547.98447   -447.36335   -327.01768    727.94626   -3423.9726 
 4799000    284.59332   -3830.9932     -3343.21   -3830.9932            0   -824.52999      18.6312    21.945093    22.730021    9293.4743    -1283.205   -1836.2511     645.8662    665.28313   -71.174455    9.8546828   -3454.9633 
 4800000    274.51758   -3821.8384   -3351.3246   -3821.8384            0   -3341.6264    18.831361    22.180855    22.974216    9596.2309   -3260.3776   -3282.5407   -3481.9607    39.595791   -178.51418     608.0595   -3818.9892 
 4801000    289.40982   -3821.1367   -3325.0981   -3821.1367            0   -1434.8149    18.759748    22.096505    22.886849    9487.1683   -1182.8614   -1224.2684    -1897.315   -134.72721    286.59736    345.65451     -3523.62 
 4802000    264.86686   -3828.8629   -3374.8901   -3828.8629            0   -1703.7183    18.702344    22.028891    22.816816     9400.343   -1060.9772   -2163.4452   -1886.7325   -57.663556     1146.641   -400.93902   -3608.4603 
 4803000    274.42296   -3844.1943   -3373.8428   -3844.1943            0    454.89479    18.554306    21.854521     22.63621    9178.8805    899.82079    143.35616    321.50743    258.42996    544.79874    -50.50493   -3312.9485 
 4804000    288.72828   -3821.3003   -3326.4299   -3821.3003            0   -488.30842    18.580369    21.885221    22.668007    9217.6157   -1563.6792    269.10148   -170.34755    91.206619    533.46939   -656.44726    -3392.073 
 4805000    270.00156   -3814.4229   -3351.6495   -3814.4229            0   -1021.5383    18.704447    22.031368    22.819381    9403.5143   -1910.6875   -678.38727   -475.54028    830.92293    818.43692    1555.9857   -3491.7439 
 4806000    289.22973    -3784.837   -3289.1072    -3784.837            0   -1633.2433    18.620741    21.932773     22.71726     9277.831   -216.68611   -3077.3116   -1605.7322    312.90287    762.50201   -219.27566   -3510.0975 
 4807000    284.69536   -3813.4469   -3325.4888   -3813.4469            0   -73.193343    18.437764    21.717251    22.494029     9007.004   -2087.0303    1896.2508   -28.800506    -436.2291    329.94532   -294.35737   -3335.1033 
 4808000     281.8962   -3810.3819   -3327.2215   -3810.3819            0   -882.01241    18.408704    21.683022    22.458576    8964.4833   -503.47405   -1385.6109   -756.95226    -1106.764    77.734386   -306.54932   -3442.5338 
 4809000     285.0509   -3797.2556   -3308.6881   -3797.2556            0   -1883.7624    18.470653     21.75599    22.534154    9055.2896   -1109.1222   -2557.9787   -1984.1862    1059.2393    497.43631   -1100.6205   -3557.4618 
 4810000    269.12687    -3838.661   -3377.3868    -3838.661            0   -2104.1869    18.389391    21.660273    22.435014    8936.2976    -2058.449   -2111.6053   -2142.5063    878.46314   -1009.2632   -674.77301   -3651.6186 
 4811000    272.46292   -3785.2533   -3318.2612   -3785.2533            0    15.170551    18.480737    21.767868    22.546457    9070.1294   -420.65891    240.99456    225.17601    1456.8611    554.23798    85.685705   -3316.2544 
 4812000    262.62894   -3727.3865   -3277.2494   -3727.3865            0   -1750.8084     18.50362    21.794821    22.574374    9103.8632   -2814.6133   -1393.6531   -1044.1588      598.546    875.82851    687.38831   -3509.7052 
 4813000    280.60737   -3738.2238   -3257.2723   -3738.2238            0   -158.20917    18.689878    22.014207    22.801607    9381.5579    332.38801    435.56707   -1242.5826    935.37311   -671.77945    979.23101   -3278.9186 
 4814000    277.80145   -3807.7441   -3331.6019   -3807.7441            0   -586.22049    18.429371    21.707365     22.48379    8994.7091   -401.94227    -740.9666   -615.75261   -271.26493   -329.49292    670.45324   -3408.5015 
 4815000    260.45443   -3816.1245   -3369.7145   -3816.1245            0    263.59928    18.370108    21.637561    22.411489    8908.2154    349.91859   -139.69874    580.57799    207.40982    1093.4382    66.937738   -3335.4684 
 4816000    285.57891   -3803.6279   -3314.1555   -3803.6279            0   -1195.5281    18.511606    21.804227    22.584116    9115.6551   -1618.1204   -301.69051   -1666.7734   -366.85883    118.14793    475.96322   -3473.0919 
 4817000     280.8098   -3871.6117   -3390.3134   -3871.6117            0   -348.09024    18.467733     21.75255    22.530591    9050.9952    1095.8966   -942.35727     -1197.81    349.16471    330.66695   -30.636747   -3436.2611 
 4818000    276.76341   -3844.4394   -3370.0764   -3844.4394            0   -777.20201    18.531817    21.828033    22.608774    9145.5454   -1662.5466    218.98395   -888.04338    879.64867   -368.28354   -131.02045   -3473.7383 
 4819000    267.89983   -3858.3496   -3399.1785   -3858.3496            0   -1135.9638    18.559306    21.860411     22.64231     9186.303   -1512.6966   -1072.3378   -822.85703    1136.2302     -425.644    110.37632   -3551.3667 
 4820000    278.25168   -3845.8894   -3368.9756   -3845.8894            0   -981.01844    18.549319    21.848647    22.630126    9171.4813    -1136.321    726.44769    -2533.182   -836.93509    -11.80845    297.68035   -3500.1933 
 4821000    273.85326   -3847.2844   -3377.9092   -3847.2844            0   -2022.7952    18.504554     21.79592    22.575513    9105.2412   -2266.1342   -1352.0638   -2450.1876   -632.35795    744.03068    313.41894   -3646.5174 
 4822000    298.54433   -3804.1522   -3292.4575   -3804.1522            0   -536.49837    18.521864    21.816309     22.59663     9130.817   -76.567737   -1060.9734   -471.95404    413.97961    528.73643    1037.6235   -3363.8995 
 4823000    260.86919   -3862.7934   -3415.6725   -3862.7934            0    243.47925    18.524194    21.819054    22.599474    9134.2645    662.40606    658.83026   -590.79857   -288.48653    29.228324    658.54168   -3383.2377 
 4824000    283.66419   -3876.7528    -3390.562   -3876.7528            0   -353.37843    18.529443    21.825236    22.605877    9142.0302    -1837.397   -517.49259    1294.7543    681.60259    153.51643   -346.32494    -3437.677 
 4825000    281.89055   -3849.6948   -3366.5441   -3849.6948            0   -827.04433     18.56796    21.870604    22.652867    9199.1593   -1828.1928      905.637   -1558.5771   -536.01893    319.52719   -115.23834   -3477.5006 
 4826000    266.84008   -3817.5096   -3360.1548   -3817.5096            0    -562.3133    18.560407    21.861708    22.643653    9187.9387    430.80529   -1355.5517   -762.19348   -142.78814     87.17658   -814.03328   -3435.5029 
 4827000    271.06973   -3855.3258   -3390.7216   -3855.3258            0   -1206.6521    18.632124    21.946181    22.731148    9294.8567   -2237.5228   -1273.9415   -108.49213    718.82309    77.808519    201.76045   -3554.2904 
 4828000     288.0417      -3779.3   -3285.6064      -3779.3            0   -1274.8512    18.665951    21.986025    22.772417    9345.5734   -1.6365091   -2292.6058   -1530.3112    45.696406    890.04934   -947.09644    -3459.363 
 4829000    277.76252    -3852.319   -3376.2435    -3852.319            0   -2178.0862    18.669716    21.990459     22.77701    9351.2298   -971.60229   -2238.5557   -3324.1005    391.31685    244.11778   -664.57827   -3673.2868 
 4830000      291.125   -3820.4677   -3321.4894   -3820.4677            0   -2356.8888    18.701722    22.028158    22.816057    9399.4054   -929.06404   -2562.7345   -3578.8679     1845.985   -1308.6158   -1484.7641   -3644.5733 
 4831000    270.30012   -3814.0838   -3350.7986   -3814.0838            0   -1357.8259    18.479846    21.766818    22.545369    9068.8171   -2329.3026   -1020.6624    -723.5127   -272.10707   -472.76896    -124.4132   -3530.3839 
 4832000    263.23076   -3863.4469   -3412.2784   -3863.4469            0   -1845.7574    18.523343    21.818051    22.598435     9133.005   -2248.4238   -2547.3202   -741.52825    647.67966    433.84482     294.2928    -3658.125 
 4833000    267.31225   -3814.2015   -3356.0374   -3814.2015            0   -2337.1975    18.580705    21.885616    22.668416    9218.1153   -1353.7628   -3125.0184   -2532.8112    358.76321   -137.77736    961.75124   -3670.2427 
 4834000    290.06558   -3824.1147   -3326.9522   -3824.1147            0   -490.70767    18.594304    21.901634    22.685008    9238.3709   -313.62353   -587.77554   -570.72393   -382.28491   -1016.2289    459.20366   -3393.0663 
 4835000     274.5408   -3826.0937   -3355.5402   -3826.0937            0   -1304.9579    18.632961    21.947167    22.732169    9296.1097   -1005.6126   -775.93056   -2133.3306    483.64523   -394.12002    502.92938   -3532.4589 
 4836000    279.34828   -3847.0245   -3368.2311   -3847.0245            0   -292.85216    18.479521    21.766435    22.544973     9068.339   -313.63854    293.60531   -858.52325   -727.02955    -177.8563    869.61904   -3406.9615 
 4837000    267.91402   -3847.0707   -3387.8753   -3847.0707            0   -1818.8838    18.630969     21.94482    22.729738    9293.1274     -1041.84   -2992.9058   -1421.9056   -10.279255   -197.23987   -327.14874   -3634.3899 
 4838000    275.92081   -3797.4654   -3324.5466   -3797.4654            0   -1384.3513    18.666038    21.986128    22.772523    9345.7046   -2560.4995    -824.7536   -767.80075   -657.28455   -696.24328    87.607018   -3513.2303 
 4839000    283.56124   -3864.9294   -3378.9152   -3864.9294            0   -856.14478     18.55836    21.859297    22.641156    9184.8985   -2396.1185    5.6945239   -178.01034    137.61672   -23.625499   -973.04329   -3493.5977 
 4840000    280.56149   -3832.0824   -3351.2096   -3832.0824            0    45.467158    18.597486    21.905382    22.688889    9243.1136   -965.28265    993.06217    108.62196   -246.52256   -1575.7406   -224.63642   -3345.0806 
 4841000    271.76165   -3873.8321   -3408.0419   -3873.8321            0   -554.26608    18.599362    21.907592    22.691178    9245.9116    462.72452   -1090.0095   -1035.5132    88.914657     1373.748    737.18677   -3482.7803 
 4842000    280.04717   -3849.3903    -3369.399   -3849.3903            0    1.3526502    18.571162    21.874376    22.656775    9203.9204    1153.3165   -516.12591   -633.13265    724.50037   -95.956388   -282.59975   -3369.2174 
 4843000    269.43959   -3860.7806   -3398.9704   -3860.7806            0   -840.74262    18.573156    21.876725    22.659207    9206.8853    -972.2471   -589.07602   -960.90473    -66.45403    94.929171    504.32588   -3511.8594 
 4844000     264.0196   -3849.6275   -3397.1069   -3849.6275            0   -2226.9885    18.664139    21.983891    22.770206    9342.8525   -2286.2059   -3732.9683   -661.79128   -1476.4943   -158.54468    700.75695   -3700.5473 
 4845000    265.61692   -3869.4023    -3414.144   -3869.4023            0   -1140.1752    18.636425    21.951247    22.736395    9301.2947    857.44069   -2604.4328   -1673.5334    1057.9143    288.61856    375.75557   -3568.8086 
 4846000    287.19745   -3868.5488   -3376.3022   -3868.5488            0    -1631.773    18.742158    22.075787    22.865389    9460.5063   -1435.4875   -3112.7363    -347.0953   -457.20442   -938.07646   -693.27064   -3601.4408 
 4847000    271.12823   -3846.4779   -3381.7734   -3846.4779            0   -2175.1664    18.581055    21.886029    22.668844    9218.6373   -2406.5964   -3463.4124   -655.49031   -1243.0456   -1043.3914    -751.3591   -3674.2123 
 4848000    275.24964   -3898.4277   -3426.6593   -3898.4277            0   -1739.0556    18.570015    21.873025    22.655375    9202.2152   -319.44953   -2304.4514    -2593.266    61.720522     395.2937    289.28198    -3660.049 
 4849000    281.45767   -3866.5337   -3384.1249   -3866.5337            0    -1338.681    18.621224    21.933342     22.71785     9278.553   -1767.8127   -1345.1606   -903.06987   -466.26337    849.88315    436.28681   -3565.2728 
 4850000    274.92009   -3886.5542   -3415.3506   -3886.5542            0    254.14439    18.543879     21.84224    22.623489    9163.4147   -663.31235    162.18618    1263.5593    954.23525    914.33951   -609.27182    -3381.387 
 4851000    259.15349   -3869.9013   -3425.7211   -3869.9013            0    83.838878     18.39372    21.665372    22.440295    8942.6101   -628.59838    97.124289    782.99073    -203.2387   -659.48694    1485.6747   -3414.7869 
 4852000    289.23507   -3861.4273   -3365.6883   -3861.4273            0   -252.66925    18.536919    21.834043    22.614998    9153.1016   -583.39276    51.693635   -226.30861    270.91759    -422.7406     996.9785   -3399.4168 
 4853000    270.89979   -3817.9213   -3353.6083   -3817.9213            0    247.41141    18.509978    21.802309    22.582129    9113.2495   -1211.8546    881.32152    1072.7673   -532.90501    336.55906    49.966196   -3320.7255 
 4854000    280.90841   -3870.7013   -3389.2339   -3870.7013            0   -1660.2398     18.60456    21.913714    22.697519    9253.6651   -1419.5153   -2189.8705   -1371.3337   -163.42482   -584.89643   -611.80033   -3613.2919 
 4855000    276.09501   -3826.3266   -3353.1092   -3826.3266            0    -2217.799    18.591295     21.89809    22.681337    9233.8865   -2606.1452    -1652.848   -2394.4037    659.30364   -611.85646    1076.8503    -3651.773 
 4856000    269.54903   -3868.0666   -3406.0687   -3868.0666            0   -2975.4063    18.572435    21.875876    22.658328    9205.8131   -3854.6021   -3276.6271   -1794.9896    74.034442   -306.91366     1367.135   -3805.5389 
 4857000    276.59508   -3844.6178   -3370.5433   -3844.6178            0   -2379.5406    18.539178    21.836703    22.617754     9156.448   -2135.8739   -2579.2589   -2423.4889    836.74121   -28.969558   -193.96651    -3688.301 
 4858000    272.05981   -3817.9955   -3351.6943   -3817.9955            0   -1836.6986    18.602092    21.910808    22.694509    9249.9838    -2778.644   -1079.2025   -1652.2493   -70.278537   -393.58505   -396.01315   -3599.4678 
 4859000    275.99499   -3852.6842   -3379.6382   -3852.6842            0   -1256.3122    18.462776    21.746711    22.524543    9043.7085   -2660.0409   -89.949975   -1018.9456    1320.1501    224.21946   -193.07329   -3545.3373 
 4860000    277.59696   -3857.5894   -3381.7977   -3857.5894            0   -799.82968    18.476699     21.76311    22.541529    9064.1839   -281.15783    -2008.113   -110.21819   -392.11852    556.26161   -1096.3161   -3487.5286 
 4861000    265.07931   -3827.9101   -3373.5732   -3827.9101            0   -2511.3797    18.621913    21.934153     22.71869    9279.5826   -1926.1439   -3297.5649   -2310.4304    807.80143    12.339769    756.17023   -3713.4462 
 4862000    275.33091   -3856.2939   -3384.3862   -3856.2939            0   -1760.9045    18.630056    21.943745    22.728625     9291.762   -2103.5019    -1025.679   -2153.5326   -7.7972904   -1135.4513   -16.657608   -3623.0078 
 4863000    275.61244   -3860.4949   -3388.1046   -3860.4949            0   -754.46013    18.623391    21.935895    22.720494     9281.793   -1906.5277     160.8313   -517.68399    -526.3696   -726.13551   -366.36682   -3490.2325 
 4864000    285.29158    -3820.875    -3331.895    -3820.875            0   -1415.1259    18.610671    21.920912    22.704975    9262.7868   -37.747562   -1444.8167   -2762.8135    113.06699   -523.57678    670.55355   -3523.0619 
 4865000    280.33377   -3823.8465    -3343.364   -3823.8465            0   -718.67822    18.583051     21.88838    22.671279    9221.6084   -1619.7276    163.16768    -699.4747   -102.15421   -549.74678   -996.54665   -3440.0174 
 4866000    273.67073   -3859.7612   -3390.6989   -3859.7612            0    -571.6426     18.55046    21.849991    22.631517    9173.1735   -1701.1837     1106.371   -1120.1151    559.05119   -1487.0038     1169.139    -3467.174 
 4867000    266.87853   -3864.9378   -3407.5171   -3864.9378            0   -1767.7037     18.70721    22.034622    22.822752    9407.6821   -2003.6526   -1764.1927    -1535.266     379.1926   -68.954757    89.040279   -3650.0485 
 4868000    262.93203   -3840.4733   -3389.8168   -3840.4733            0    -2200.657    18.677929    22.000133     22.78703     9363.576   -3383.3637   -988.59351   -2230.0138    551.28134   -333.29943    887.64728   -3690.3344 
 4869000    270.58291   -3800.0025   -3336.2326   -3800.0025            0   -1047.3863    18.652186    21.969811    22.755623    9324.9132   -1874.1787   -1720.3349    452.35463    1378.8328   -573.07858    1035.0135   -3478.6712 
 4870000    272.71791   -3852.0817   -3384.6525   -3852.0817            0   -1144.9391    18.682821    22.005895    22.792998    9370.9352   -1086.5513   -1859.8361   -488.42997    294.29013   -594.18852   -241.99463   -3541.1262 
 4871000    276.19283    -3858.898    -3385.513    -3858.898            0    -1576.426    18.720228    22.049955    22.838634    9427.3354   -980.97141   -2245.0463   -1503.2604    335.13299   -482.51579   -951.44554   -3602.2526 
 4872000    302.03027   -3849.0212   -3331.3516   -3849.0212            0   -1711.1589    18.719906    22.049576    22.838241    9426.8494   -915.22296   -1088.8434   -3129.4104    263.45772    601.50221   -45.848041   -3566.6034 
 4873000    251.68554   -3849.4232   -3418.0428   -3849.4232            0   -825.01233    18.701459    22.027848    22.815736    9399.0087    293.28709    101.55077   -2869.8749    1549.0472    875.13269    894.12157   -3531.1313 
 4874000     289.9988   -3870.1746   -3373.1266   -3870.1746            0   -2094.1932    18.753044    22.088608    22.878669    9476.9999   -3044.9134   -753.11398   -2484.5521   -947.39963    74.124463    70.273212   -3662.5699 
 4875000    297.94767   -3825.5764   -3314.9043   -3825.5764            0    -767.0727    18.653823     21.97174    22.757621    9327.3694   -529.93048   -535.94913   -1235.3385    90.776579   -319.00536    464.87983   -3419.2493 
 4876000    285.76814   -3848.4442   -3358.6474   -3848.4442            0   -1205.4393    18.617736    21.929234    22.713594    9273.3399   -3078.5135   -271.14803   -266.65651    415.80123    311.84544   -389.76804   -3521.6736 
 4877000    290.20947   -3875.3793   -3377.9702   -3875.3793            0   -1151.5218    18.570092    21.873116    22.655469    9202.3292   -559.04544   -632.50751   -2263.0124   -446.74358   -163.87894    39.283224   -3532.5119 
 4878000    274.52443   -3841.9885    -3371.463   -3841.9885            0   -636.46924    18.633751    21.948098    22.733133    9297.2918   -904.30241   -1024.7766    19.671301    532.18358   -106.09961   -376.28582   -3457.7628 
 4879000    283.97069   -3817.9366   -3331.2205   -3817.9366            0    -1229.927    18.704212    22.031091    22.819095    9403.1602      -1389.4   -1727.7679   -572.61314   -151.55629    274.66189    721.29517   -3499.8871 
 4880000    271.69781   -3868.4393   -3402.7586   -3868.4393            0   -2445.6259    18.795272    22.138347    22.930187     9541.165   -3253.4243   -2705.5264   -1377.9271   -1048.2665   -494.32518   -477.88603   -3743.0628 
 4881000     269.8693    -3856.932   -3394.3853    -3856.932            0   -477.07057    18.724169    22.054598    22.843443    9433.2918    271.83166   -1255.3982   -447.64517    369.02711   -446.80814    -476.7871   -3460.0182 
 4882000    271.84289   -3807.9758   -3342.0464   -3807.9758            0   -1083.5995    18.694249    22.019356    22.806941    9388.1427    143.66304   -721.87764   -2672.5838   -608.94306   -122.44556   -142.48412   -3490.4089 
 4883000    276.26398   -3861.2735   -3387.7665   -3861.2735            0   -608.13618    18.599912     21.90824    22.691849     9246.732     606.3386    -1853.722   -577.02515   -1204.1917   -460.97314   -512.46622   -3469.7761 
 4884000    281.56647   -3894.5768   -3411.9815   -3894.5768            0   -656.73089    18.694496    22.019647    22.807242     9388.515   -1955.8321   -109.80754    95.446941   -1122.2181   -800.62695    96.537947   -3501.9023 
 4885000    259.02176   -3867.4804   -3423.5259   -3867.4804            0   -2848.2972    18.636054     21.95081    22.735942    9300.7387   -3235.4296   -3070.8854   -2238.5768   -583.48078   -458.04256    -119.8676   -3809.8739 
 4886000    275.04805   -3852.5421   -3381.1192   -3852.5421            0    -1991.769    18.694251    22.019359    22.806943    9388.1456   -3538.7195   -2901.8402    465.25277    1029.0428   -1712.2289   -1094.3643   -3653.8252 
 4887000    264.01728   -3857.5308   -3405.0143   -3857.5308            0   -1917.8756     18.75095    22.086142    22.876115    9473.8259   -2125.3282   -3325.2019    -303.0966   -76.711357   -834.91013    158.78244   -3669.9995 
 4888000    267.89551    -3830.737   -3371.5733    -3830.737            0   -1654.1357    18.673392     21.99479    22.781495    9356.7549   -2247.3354   -1435.4221   -1279.6495    914.24875   -576.79579    331.02069   -3597.2945 
 4889000    257.01058   -3885.4107   -3444.9033   -3885.4107            0   -1825.2042    18.535746    21.832661    22.613567    9151.3635   -2894.3673   -2475.9185   -105.32682     473.3407    736.99449    234.27535    -3688.501 
 4890000    263.06186   -3836.3671    -3385.488   -3836.3671            0   -2415.7778    18.637555    21.952578    22.737774    9302.9867   -3437.2546    -3458.511   -351.56774   -723.17146    495.62431   -220.64429   -3713.2475 
 4891000    263.13841   -3878.4108   -3427.4006   -3878.4108            0    -3149.291    18.570565    21.873673    22.656046    9203.0325   -3818.5694   -3174.3686   -2454.9349    427.88472    234.60177    560.45677   -3850.0883 
 4892000    279.65375    -3877.264   -3397.9471    -3877.264            0   -3095.2086     18.51061    21.803054    22.582901    9114.1843   -3614.8692   -3641.4115   -2029.3451    60.361806   -559.10417    622.49201   -3809.3654 
 4893000    263.12553   -3807.9389   -3356.9507   -3807.9389            0   -1568.4178    18.599603    21.907875    22.691472    9246.2705   -1674.5849   -1162.5887   -1868.0798   -306.86511    999.83654    731.37836   -3568.4477 
 4894000    269.84597   -3815.3999   -3352.8931   -3815.3999            0   -11.799155    18.567322    21.869853     22.65209    9198.2118    374.32243   -1985.0394    1575.3195    401.52373   -224.56196    248.12606   -3354.4759 
 4895000    293.65928   -3847.2725   -3343.9506   -3847.2725            0   -1214.9046    18.472003    21.757579      22.5358    9057.2747   -435.08269   -3013.0873   -196.54385   -316.11753    598.41076   -330.37456   -3504.4286 
 4896000     270.7068   -3848.1704   -3384.1882   -3848.1704            0    662.66434    18.416984    21.692774    22.468677    8976.5838   -76.493793    208.76297    1855.7238    941.18492   -510.72346    270.29729    -3297.436 
 4897000    249.84624   -3825.2822   -3397.0543   -3825.2822            0   -1135.0511    18.495597     21.78537    22.564585    9092.0255    -1137.374   -920.10791   -1347.6715   -870.10536    71.570128    960.96512   -3547.5596 
 4898000    258.47516   -3843.0961   -3400.0786   -3843.0961            0    74.511437    18.569976    21.872979    22.655328    9202.1572   -1305.9591    1082.1235    447.36992   -50.442407   -469.79705    1401.7261   -3390.0788 
 4899000    286.56216   -3779.5413   -3288.3836   -3779.5413            0   -1630.8237    18.653721     21.97162    22.757496    9327.2159   -2380.1439   -2054.4443   -457.88289    516.31701   -20.760131   -980.26179   -3510.2211 
 4900000    273.23197   -3834.7807   -3366.4705   -3834.7807            0    -488.2392    18.419799     21.69609    22.472111    8980.7007   -781.20826    819.43126   -1502.9406   -970.68212    -842.8656     122.8839   -3430.4173 
 4901000    291.75926   -3815.1255   -3315.0601   -3815.1255            0   -2573.8429    18.527248    21.822651    22.603199    9138.7822   -3163.9622   -2826.4196   -1731.1469   -1009.7294    14.182011    119.57517   -3658.1013 
 4902000    257.43146   -3810.7917    -3369.563   -3810.7917            0   -1196.5781    18.539289    21.836834     22.61789    9156.6127    56.388893   -1391.7882   -2254.3351   -198.82909   -184.34151    647.31054   -3529.3538 
 4903000    278.98085   -3826.2652   -3348.1015   -3826.2652            0   -661.88766    18.530495    21.826476    22.607161    9143.5883   -497.50719   -1847.9997    359.84388   -245.11325   -189.83208    1451.4092   -3436.3642 
 4904000    260.10606   -3821.7497   -3375.9368   -3821.7497            0   -3034.9144    18.743909    22.077849    22.867525    9463.1578    -2414.736   -2374.4784   -4315.5286   -517.58056    268.49356   -132.73375   -3794.7867 
 4905000     270.2105   -3839.2524   -3376.1209   -3839.2524            0   -858.92203    18.691852    22.016532    22.804015    9384.5308   -536.34031   -1333.2786   -707.14716    167.60827     567.8669   -431.70696   -3493.6762 
 4906000    248.93342   -3840.9531   -3414.2897   -3840.9531            0    -1983.222    18.705388    22.032476    22.820529    9404.9336   -881.74833   -3223.2847    -1844.633   -58.497742     295.6742    33.997163    -3686.311 
 4907000    260.91343   -3831.2179   -3384.0212   -3831.2179            0   -1877.4662    18.692389    22.017165     22.80467    9385.3395   -1951.2633   -1291.8839   -2389.2513   -62.245459   -732.88523    259.87977   -3641.0004 
 4908000    276.57563   -3854.5165   -3380.4753   -3854.5165            0    -1125.362    18.738166    22.071084    22.860519    9454.4624   -2178.0485    55.298878   -1253.3364     240.6613   -216.84999     109.4834   -3535.6443 
 4909000    269.89132   -3842.7432   -3380.1587   -3842.7432            0   -373.57614    18.689692    22.013989    22.801381     9381.279   -1054.9996    198.17213   -263.90091    243.85871   -246.56136   -65.933133     -3431.27 
 4910000    282.44957   -3823.2635   -3339.1546   -3823.2635            0   -385.77354    18.698418    22.024267    22.812027    9394.4253    96.439751     -221.719   -1032.0414   -996.71104     559.1885   -752.79258   -3392.0087 
 4911000    271.72926   -3880.7909   -3415.0562   -3880.7909            0   -202.34703    18.625097    21.937904    22.722575     9284.344    -403.0714    1795.0939   -1999.0636    460.69331    97.914543    606.70493   -3442.4545 
 4912000    279.72189   -3855.0124   -3375.5787   -3855.0124            0   -1423.8867    18.706823    22.034166     22.82228    9407.0981    -1275.964   -1329.6948   -1666.0013    323.35172   -479.93538    41.311548   -3570.9258 
 4913000    264.95916   -3815.0281   -3360.8972   -3815.0281            0   -1035.3277    18.711967    22.040226    22.828556    9414.8612    190.90833   -1957.4345   -1339.4568    1075.0656    57.067507   -1138.7643    -3503.054 
 4914000     281.4091   -3845.8282   -3363.5026   -3845.8282            0   -1443.7238    18.686052    22.009701     22.79694    9375.7987   -1412.4012   -360.77461   -2557.9955    128.02121     568.3975   -274.24612   -3560.9122 
 4915000    261.09853   -3788.2386   -3340.7247   -3788.2386            0   -1887.3978    18.678149    22.000393    22.787299    9363.9078   -2369.5181   -1312.7269   -1979.9485   -728.30499   -263.40244   -752.79109   -3598.4734 
 4916000    276.39512   -3799.8784   -3326.1466   -3799.8784            0   -1927.1686    18.659495     21.97842     22.76454    9335.8792   -1184.8774   -2497.2373   -2099.3911    66.981596   -737.90968    1495.1544   -3588.5388 
 4917000    263.37326   -3828.3005   -3376.8877   -3828.3005            0   -1425.1108    18.533531    21.830052    22.610865    9148.0836   -2677.3391   -272.25666   -1325.7366    336.36553   -791.29846    97.108824   -3567.0195 
 4918000    283.08538   -3790.2102   -3305.0116   -3790.2102            0   -500.99253    18.559801    21.860995    22.642914    9187.0392   -932.51647    391.83798   -962.29909    1068.1322    900.46135   -1072.8031   -3372.1363 
 4919000    284.05942   -3789.3922   -3302.5241   -3789.3922            0   -560.31805    18.583894    21.889373    22.672308    9222.8635   -646.44328   -14.889009   -1019.6218   -857.32173    441.17101    95.973126   -3377.8902 
 4920000    270.88574   -3769.4091   -3305.1202   -3769.4091            0   -2899.2484     18.68731    22.011183    22.798475    9377.6918   -3729.8389   -2375.5438   -2592.3626    259.66443    254.71734    506.03692   -3701.6331 
 4921000    270.88606   -3791.6214    -3327.332   -3791.6214            0   -64.032642    18.446491     21.72753    22.504676    9019.7996    544.64434   -127.72918   -609.01309    572.95393   -1326.4742   -1773.0663   -3335.7551 
 4922000    268.81388   -3783.6042   -3322.8664   -3783.6042            0   -615.39077    18.568374    21.871092    22.653373    9199.7759   -686.52856   -1326.9452    167.30141    857.74429   -390.49987   -493.02869    -3405.433 
 4923000     277.0322   -3825.2433   -3350.4196   -3825.2433            0    -779.9373    18.601329    21.909909    22.693578    9248.8457   -1482.9839    137.21778   -994.04579   -255.82383   -519.84246    342.21602   -3455.6214 
 4924000    274.63723   -3842.9806   -3372.2618   -3842.9806            0    -1757.648    18.588404    21.894685    22.677809    9229.5792   -2741.8838   -724.23835   -1806.8219    1800.5372   -563.88982   -395.00592   -3608.8481 
 4925000    277.75128   -3789.9708   -3313.9146   -3789.9708            0   -1104.3983    18.626425    21.939468    22.724195    9286.3298   -2261.4688   -990.48478   -61.241352    687.42747    -123.9579   -113.72861    -3463.485 
 4926000    286.25746   -3809.0014   -3318.3659   -3809.0014            0   -446.44716    18.584312    21.889865    22.672817    9223.4854   -1420.8652   -117.21284    198.73655    589.06847     459.2864   -88.106293   -3378.4198 
 4927000    274.72481   -3749.9568   -3279.0879   -3749.9568            0   -637.62728    18.596262    21.903941    22.687397    9241.2898   -987.51765   -466.17206   -459.19212    566.22532    229.22748   -676.46653   -3365.0239 
 4928000    283.91804   -3793.9839   -3307.3581   -3793.9839            0   -1403.3972    18.629202    21.942739    22.727583    9290.4844    -307.4023   -1844.8901   -2057.8993    1153.3175   -1081.1655    590.62126   -3497.5075 
 4929000    276.50898   -3830.9307   -3357.0037   -3830.9307            0   -1461.1245    18.675399    21.997153    22.783943    9359.7718   -554.02858    -1540.695   -2288.6498   -402.98967   -10.566916    753.21024   -3556.4511 
 4930000    275.52475   -3830.8016   -3358.5616   -3830.8016            0   -1515.8399    18.695648    22.021004    22.808647    9390.2504   -3.2693684   -1383.9169   -3160.3335    176.67887    360.39314   -404.12376   -3566.1516 
 4931000    288.49643    -3801.713     -3307.24    -3801.713            0        -1814    18.686836    22.010625    22.797896    9376.9784   -2835.1502   -1357.5294   -1249.3203    292.13524   -91.268103    16.652378    -3555.311 
 4932000    292.62834   -3792.2134   -3290.6584   -3792.2134            0    -350.0125    18.596482    21.904199    22.687664    9241.6164   -454.88585   -36.664814   -558.48684    222.28669   -471.19882    395.55642   -3337.8329 
 4933000    270.06593    -3811.605   -3348.7213    -3811.605            0   -1456.6216    18.603882    21.912916    22.696693    9252.6541   -550.77153   -1690.8638   -2128.2294   -707.60045    1215.4765   -727.54252   -3545.2784 
 4934000    271.05759    -3817.528   -3352.9446    -3817.528            0    -1665.221    18.658141    21.976825    22.762888    9333.8472   -245.53748   -1928.6225    -2821.503   -375.36807    1060.8257   -248.85264   -3579.6221 
 4935000    269.90523   -3768.5106   -3305.9023   -3768.5106            0    -501.0576    18.532171    21.828449    22.609205    9146.0689    361.97515   -593.81886   -1271.3291    708.99955   -726.54108    113.56427   -3372.7364 
 4936000    284.58667   -3756.5831   -3268.8113   -3756.5831            0   -1065.0478    18.590255    21.896864    22.680067     9232.336    -390.1294   -1300.2581   -1504.7558    377.91856    680.80953     465.3089   -3412.2138 
 4937000    261.46177   -3803.4895    -3355.353   -3803.4895            0   -1039.3242     18.59292    21.900004    22.683319    9236.3081   -1477.1097    37.422249    -1678.285   -422.50429    -312.8286   -677.76609   -3495.3522 
 4938000    287.64529   -3802.0642     -3309.05   -3802.0642            0   -966.02272    18.442753    21.723127    22.500116    9014.3179   -1433.6484   -281.45772    -1182.962   -289.56906    495.75437    399.73788   -3436.0477 
 4939000    259.96516   -3810.9297   -3365.3583   -3810.9297            0   -3543.5934    18.576898    21.881132    22.663773    9212.4513   -3434.8538   -3308.9001   -3887.0262    659.80663   -31.559318   -777.99793   -3841.4548 
 4940000    284.50355   -3779.7348   -3292.1055   -3779.7348            0   -2034.0052    18.494154    21.783671    22.562825    9089.8983    -1942.633   -1822.0028   -2337.3798   -801.34463    518.77167     156.9517   -3561.7471 
 4941000    277.74636   -3781.5741   -3305.5264   -3781.5741            0   -1492.6925    18.510197    21.802567    22.582397    9113.5731   -1263.4731   -2324.1813   -890.42321    302.41751    350.24399   -970.09208   -3503.9233 
 4942000    284.83589   -3813.3913   -3325.1923   -3813.3913            0   -1141.1694    18.670194    21.991022    22.777593    9351.9476    36.105509   -2338.3733   -1121.2403   -491.35579    827.80763    1.6367633   -3480.8348 
 4943000    283.82184   -3828.1699    -3341.709   -3828.1699            0    186.27592    18.480818    21.767963    22.546555    9070.2483   -547.86738    -249.4543    1356.1494   -90.897026   -744.35625   -791.73979   -3317.0683 
 4944000    271.81822   -3785.4969   -3319.6097   -3785.4969            0   -549.70233    18.539714    21.837335    22.618408    9157.2424   -721.88042   -1331.9982    404.77166    385.76743   -236.41327    235.95061   -3393.0219 
 4945000    274.80947   -3819.3832   -3348.3692   -3819.3832            0   -1349.7355    18.504908    21.796338    22.575945    9105.7641   -1142.3041    -1919.429   -987.47341    242.54552     428.1751    361.77373   -3527.6116 
 4946000    270.64395   -3807.1169   -3343.2424   -3807.1169            0   -2426.4805    18.594497    21.901861    22.685243    9238.6577   -1538.5241   -3287.3503   -2453.5671   -534.23154   -868.58055   -319.30863   -3670.1775 
 4947000    278.21668   -3827.3334   -3350.4796   -3827.3334            0    14.691112    18.488893    21.777474    22.556407    9082.1433    988.96625   -1115.2225    170.32958    84.753241    96.224876   -559.95463   -3348.5337 
 4948000    282.42436   -3826.7113   -3342.6456   -3826.7113            0   -783.93161    18.595035    21.902495    22.685899    9239.4598   -891.44139   -540.98098   -919.37247   -1224.5239    80.937651    843.28903   -3448.2789 
 4949000    279.32892   -3809.5658   -3330.8056   -3809.5658            0     -1140.88    18.586595    21.892554    22.675602    9226.8847   -1247.7947   -413.89247   -1760.9527   -846.80197    598.03815    -54.06762   -3484.3277 
 4950000    275.73468   -3820.5212   -3347.9214   -3820.5212            0   -1508.1789    18.652346    21.969999    22.755818    9325.1526   -2135.6852   -182.26546   -2206.5859   -1060.7715    972.15756   -559.09388   -3553.0303 
 4951000    273.64419      -3819.1   -3350.0832      -3819.1            0    -1792.342    18.656569    21.974974     22.76097    9331.4883   -490.64661   -2077.2063   -2809.1731    955.40255   -418.57965   -699.20784   -3594.0034 
 4952000    274.33835   -3802.3442   -3332.1376   -3802.3442            0    -717.9297    18.604002    21.913057    22.696839    9252.8327   -1229.6757    382.60857    -1306.722   -435.12689    1011.0642   -415.85529   -3429.0173 
 4953000    263.40852   -3841.7856   -3390.3125   -3841.7856            0   -710.71262    18.665622    21.985637    22.772015    9345.0796   -2252.0504    1520.7595   -1400.8469   -1080.8809    -987.9339   -178.36029   -3487.1743 
 4954000    276.59726   -3875.5085   -3401.4303   -3875.5085            0   -735.24619    18.639108    21.954407    22.739668    9305.3124    672.35967   -932.38803   -1945.7102   -427.32283    599.68681   -1307.4758   -3501.2094 
 4955000    278.56187   -3875.4217   -3397.9762   -3875.4217            0    956.36848    18.577833    21.882234    22.664913    9213.8426    1282.8365   -195.82501     1782.094    941.87544     91.55425    196.40753   -3269.4647 
 4956000    268.03414   -3844.2131   -3384.8117   -3844.2131            0   -1548.3731    18.558463    21.859418    22.641282    9185.0523   -1456.4534   -1712.0741   -1476.5917    119.10917    593.17924    925.54538   -3592.2234 
 4957000    263.35869   -3825.7914   -3374.4036   -3825.7914            0   -1661.0886    18.620668    21.932688    22.717172    9277.7228   -3627.6592   -833.20987   -522.39692   -635.41062    657.61441    510.20731    -3599.159 
 4958000    283.96719    -3830.956   -3344.2459    -3830.956            0   -1225.0198    18.627127    21.940295    22.725051    9287.3798   -728.31482   -2172.0435   -774.70107    1437.8142   -560.64846   -350.70589   -3510.1711 
 4959000     263.4634   -3843.5619   -3391.9947   -3843.5619            0   -1381.7946    18.562235    21.863861    22.645883    9190.6531   -1781.9019   -2315.0641   -48.417629   -477.80118   -499.64868   -639.12764   -3577.2052 
 4960000    283.77671   -3842.3779   -3355.9943   -3842.3779            0    351.49596    18.551391    21.851088    22.632654    9174.5557     197.2559    642.52223    214.70975    729.28962    223.00373    1917.3836   -3308.9636 
 4961000    278.97601   -3883.6577   -3405.5024   -3883.6577            0   -624.95921    18.468132    21.753021    22.531078    9051.5829   -1131.4094     718.6397   -1462.1079   -474.59942    560.53164   -182.62634    -3488.002 
 4962000    281.08633   -3855.1723   -3373.3999   -3855.1723            0   -1889.4393    18.579729    21.884467    22.667226    9216.6634   -2861.5166   -453.64269   -2353.1587    567.71147   -145.16457    800.57709     -3627.37 
 4963000    295.05774   -3862.0137   -3356.2948   -3862.0137            0   -376.58265    18.472563    21.758239    22.536483    9058.0985   -694.78462    111.19566   -546.15899   -215.86098    362.97154   -114.28594   -3406.0426 
 4964000    280.30651   -3851.8043   -3371.3685   -3851.8043            0    -1858.451    18.624029    21.936646    22.721271    9282.7462   -2103.3776   -719.64394   -2752.3314   -268.28728   -376.18071   -847.33775   -3622.9644 
 4965000    249.85775   -3839.8895   -3411.6419   -3839.8895            0    -2177.443    18.638353    21.953518    22.738747    9304.1821   -3670.0585   -1590.5597   -1271.7108   -657.18229    -556.4124    229.20205   -3707.1034 
 4966000    259.66726   -3842.3825   -3397.3217   -3842.3825            0   -2258.7192    18.702415    22.028974    22.816903    9400.4502    -3092.424   -1124.8507    -2558.883   -196.39736    923.06392     365.6231   -3706.9829 
 4967000    271.00909   -3856.8234   -3392.3231   -3856.8234            0   -1324.7649     18.63486    21.949403    22.734485     9298.951    -1392.132   -1329.5886   -1252.5742   -252.77005    69.872277   -664.20165   -3571.9819 
 4968000    278.39889   -3852.2903   -3375.1241   -3852.2903            0   -1905.8431    18.603677    21.912674    22.696443    9252.3481   -1868.5448   -1344.3567   -2504.6277   -678.73896    419.38718    755.51186    -3632.291 
 4969000    280.42321    -3832.521   -3351.8852    -3832.521            0   -1805.9039    18.661096    21.980306    22.766494     9338.283   -1870.6155   -2427.6682    -1119.428   -624.03397    1063.3941   -200.30325     -3597.83 
 4970000    276.21358   -3886.9633   -3413.5426   -3886.9633            0   -682.28667    18.552386     21.85226    22.633867    9176.0312    -455.5816   -785.23747   -806.04093    -1229.897   -1190.7903   -473.60612   -3504.8483 
 4971000    279.27205   -3822.5105   -3343.8477   -3822.5105            0   -428.01878    18.607872    21.917616    22.701561    9258.6091    487.55863   -76.168986    -1695.446    8.5664302    298.47938    59.616752    -3401.642 
 4972000    271.36651   -3856.9209    -3391.808   -3856.9209            0   -1642.4176    18.589102    21.895507    22.678661     9230.619   -942.69318   -2594.5626   -1389.9969   -414.86038   -1281.4885    84.475446   -3612.9088 
 4973000    264.96572   -3847.5585   -3393.4163   -3847.5585            0   -1299.3183    18.592868    21.899943    22.683256    9236.2304   -1491.1853   -1517.8217   -888.94784    281.54362   -445.93935   -810.73597   -3568.4357 
 4974000      288.139   -3852.5618   -3358.7014   -3852.5618            0   -1305.0458    18.519263    21.813245    22.593457    9126.9711   -855.04071   -2522.0402   -538.05661   -777.09631   -263.08975    216.09324   -3532.4128 
 4975000     271.2736   -3874.6724   -3409.7187   -3874.6724            0    934.62296    18.509914    21.802234    22.582052    9113.1564   -172.46986    1222.0804    1754.2583    696.16912     -555.066    1216.5615   -3285.5016 
 4976000     288.4583   -3857.7102   -3363.3026   -3857.7102            0   -504.92739    18.612693    21.923294    22.707442    9265.8063   -51.245112   -1150.3944    -313.1427    1077.2895   -223.23618    57.809363   -3431.5346 
 4977000    281.90889    -3787.053   -3303.8708    -3787.053            0    -469.1864    18.561904    21.863471    22.645479    9190.1614   -234.65962    337.24169   -1510.1413    2452.8752    682.88564   -657.22146   -3366.7555 
 4978000    283.81884   -3819.7394   -3333.2836   -3819.7394            0   -1517.9052    18.700314      22.0265    22.814339    9397.2823   -508.11494   -1917.6399   -2127.9608   -534.79609    757.15317    164.86963   -3541.3121 
 4979000    277.84616   -3832.8608    -3356.642   -3832.8608            0   -1755.0637    18.677618    21.999767     22.78665    9363.1086   -2890.4558   -896.96415   -1477.7712   -87.618666   -891.52553   -1071.3008   -3596.2983 
 4980000    286.09757   -3828.9481   -3338.5867   -3828.9481            0   -1467.0772    18.658507    21.977257    22.763335    9334.3969   -763.70595   -454.21518   -3183.3105   -560.24093   -45.244263     987.0103   -3538.3037 
 4981000    278.01622   -3839.0147   -3362.5044   -3839.0147            0   -99.060881    18.638578    21.953783    22.739022    9304.5194   -516.36396    1353.4871   -1134.3057   -146.84618   -52.836485   -1097.4469   -3375.9466 
 4982000    274.98412   -3838.9032   -3367.5898   -3838.9032            0   -2003.2863    18.663105    21.982672    22.768944    9341.2988   -1396.0183   -1056.2147    -3557.626   -364.56087    118.31468    962.80889   -3640.5041 
 4983000    263.39762   -3830.7641   -3379.3096   -3830.7641            0   -1107.5943    18.612713    21.923318    22.707467     9265.837   -967.86289   -1760.3286   -594.59129    1244.2237   -98.318426   -103.92946   -3528.9819 
 4984000     275.0938   -3805.5434    -3334.042   -3805.5434            0   -1762.4199    18.647954    21.964827    22.750461    9318.5679   -1351.5966   -1141.8557   -2793.8075   -1182.9507   -434.83756    178.85393    -3573.558 
 4985000    267.78453   -3844.6048   -3385.6313   -3844.6048            0   -2075.5183    18.622131    21.934411    22.718957    9279.9097   -1438.0123   -2793.6345   -1994.9081    188.01846   -472.70172   -741.62168   -3666.5277 
 4986000     274.0977   -3854.9003   -3385.1062   -3854.9003            0   -953.02883    18.560463    21.861773    22.643721    9188.0211    -132.7714   -1814.7019   -911.61318    666.37134   -643.58981    1523.6412     -3512.81 
 4987000    285.56362   -3865.6895   -3376.2432   -3865.6895            0   -1046.5404    18.609591    21.919641    22.703658    9261.1753   -1301.8731   -395.91516   -1441.8328   -1101.5215   -1.7035588   -437.17233    -3517.594 
 4988000    294.80761   -3853.5996   -3348.3094   -3853.5996            0    -1795.211    18.725216    22.055831    22.844719    9434.8734   -1892.1002   -1437.2471   -2056.2857   -116.39202   -179.34679   -652.31722   -3595.3268 
 4989000    275.10895   -3843.7147   -3372.1874   -3843.7147            0   -2001.4499    18.578201    21.882667    22.665362    9214.3896   -2354.4535   -1865.5514   -1784.3449   -485.79662   -433.71913    337.83638   -3641.1471 
 4990000    275.42082   -3813.7804   -3341.7186   -3813.7804            0   -1579.6673    18.664616    21.984453    22.770788    9343.5688    -801.5512   -2240.0657   -1697.3849    203.61146   -222.99438     191.0322   -3556.9741 
 4991000    273.72278   -3854.7357   -3385.5842   -3854.7357            0   -1968.9488     18.66406    21.983797    22.770109    9342.7331   -1357.7945   -2663.1917   -1885.8603   -889.04371    -597.8759     620.4196   -3653.8617 
 4992000    277.60972   -3828.4627   -3352.6491   -3828.4627            0   -2951.3765    18.713236     22.04172    22.830104    9416.7763   -2800.8749   -2746.8155    -3306.439     936.5413   -64.541223    521.86703   -3757.9735 
 4993000    282.74529   -3817.2204   -3332.6046   -3817.2204            0    -723.5464    18.567939     21.87058    22.652842    9199.1288   -1227.0446    291.20093   -1234.7955    204.57957   -1249.2945    1888.3939   -3429.6755 
 4994000    277.20994   -3824.2058   -3349.0774   -3824.2058            0    797.20843    18.518399    21.812227    22.592403    9125.6933    2335.7389    679.44575   -623.55934   -8.1659518   -1661.1725     1846.548   -3242.9778 
 4995000    284.59658   -3799.1664   -3311.3776   -3799.1664            0   -2384.1599    18.684236    22.007562    22.794724     9373.065   -3743.8302   -2847.1012   -561.54838   -560.09663   -1001.3584    857.21283    -3637.284 
 4996000    281.78755   -3844.4578   -3361.4835   -3844.4578            0   -302.18569    18.642592    21.958511    22.743919    9310.5316   -1138.6041    184.28258    47.764434    333.73029    665.82228    593.74883   -3402.5157 
 4997000    275.15588   -3852.4681   -3380.8604   -3852.4681            0   -1686.6209    18.652201    21.969829    22.755642    9324.9359     -1383.82    -1677.481   -1998.5617    798.94151     137.3648   -1300.1998   -3610.2317 
 4998000    300.25627   -3844.4554   -3329.8264   -3844.4554            0   -126.75206    18.636501    21.951336    22.736487    9301.4081    208.09252    407.66823   -996.01694    543.88865   -236.48723    113.52901   -3347.0205 
 4999000    274.73116   -3847.9683   -3377.0885   -3847.9683            0   -1462.8621    18.569878    21.872864    22.655208     9202.011    -1304.695   -1835.8403    -1248.051    -300.7471    372.83247   -402.71479   -3573.4073 
 5000000    290.28369   -3835.1848   -3337.6485   -3835.1848            0   -2436.7756    18.787534    22.129234    22.920748    9529.3869   -2552.1185   -1498.0198   -3260.1883   -193.45638   -610.94061    162.75505   -3676.3026 
Loop time of 371.212 on 64 procs for 250000 steps with 864 atoms

Performance: 116.376 ns/day, 0.206 hours/ns, 673.471 timesteps/s
372.9% CPU use with 16 MPI tasks x 4 OpenMP threads

MPI task timing breakdown:
Section |  min time  |  avg time  |  max time  |%varavg| %total
---------------------------------------------------------------
Pair    | 26.237     | 27.673     | 30.45      |  22.6 |  7.45
Bond    | 1.5802     | 1.9133     | 2.8516     |  25.7 |  0.52
Kspace  | 185.76     | 191.62     | 195.11     |  18.3 | 51.62
Neigh   | 3.2657     | 3.5934     | 3.8021     |   9.8 |  0.97
Comm    | 60.123     | 63.408     | 69.494     |  35.3 | 17.08
Output  | 0.52358    | 0.52392    | 0.52546    |   0.1 |  0.14
Modify  | 58.634     | 65.695     | 71.502     |  49.7 | 17.70
Other   |            | 16.79      |            |       |  4.52

Nlocal:        54.0000 ave          61 max          45 min
Histogram: 1 1 0 1 1 6 3 0 1 2
Nghost:        2436.56 ave        2478 max        2403 min
Histogram: 2 1 1 5 2 1 0 0 2 2
Neighs:        12931.4 ave       14990 max       10434 min
Histogram: 1 0 1 2 2 6 1 1 0 2

Total # of neighbors = 206903
Ave neighs/atom = 239.47106
Ave special neighs/atom = 2.0000000
Neighbor list builds = 14763
Dangerous builds = 2

unfix		3
unfix		2
unfix		1

write_data	data.final.${pid}
write_data	data.final.1
System init for write_data ...
PPPM initialization ...
  extracting TIP4P info from pair style
  using 12-bit tables for long-range coulomb (../kspace.cpp:340)
  G vector (1/distance) = 0.37131734
  grid = 24 25 27
  stencil order = 5
  estimated absolute RMS force accuracy = 0.0031814122
  estimated relative force accuracy = 9.5807285e-06
  using double precision FFTW3
  3d grid and FFT values/proc = 5700 1200
Last active /omp style is kspace_style pppm/tip4p/omp
WARNING: Not all mixed pair coeffs generated from mixing. Use write_data with 'pair ij' option to store all pair coeffs. (../write_data.cpp:312)

write_restart   restart.lmp.${pid}
write_restart   restart.lmp.1
System init for write_restart ...
PPPM initialization ...
  extracting TIP4P info from pair style
  using 12-bit tables for long-range coulomb (../kspace.cpp:340)
  G vector (1/distance) = 0.37131734
  grid = 24 25 27
  stencil order = 5
  estimated absolute RMS force accuracy = 0.0031814122
  estimated relative force accuracy = 9.5807285e-06
  using double precision FFTW3
  3d grid and FFT values/proc = 5700 1200
Last active /omp style is kspace_style pppm/tip4p/omp
Total wall time: 0:06:11
