#include		in.partitions
include		in.temp
variable        temperature equal 256.19
variable	tempDamp equal 100.0
include		in.pressure
variable        pressure equal 7500.0
variable        pressureDamp equal 1000.0 # This is 1 ps
include		in.seed
variable        seed equal 745823

units		real
atom_style	full
read_restart	restart.lmp.${pid}
read_restart	restart.lmp.0
Reading restart file ...
  restart file = 30 Jul 2021, LAMMPS = 30 Jul 2021
  restoring atom style full from restart
  orthogonal box = (-0.11798896 -0.11158674 -0.13735720) to (24.847990 24.841588 22.947357)
  4 by 4 by 2 MPI processor grid
  restoring pair style lj/cut/tip4p/long/omp from restart
  restoring bond style harmonic/omp from restart
  restoring angle style harmonic/omp from restart
  1920 atoms
  1280 bonds
  640 angles
Finding 1-2 1-3 1-4 neighbors ...
  special bond factors lj:    0        0        0       
  special bond factors coul:  0        0        0       
     2 = max # of 1-2 neighbors
     1 = max # of 1-3 neighbors
     1 = max # of 1-4 neighbors
     2 = max # of special neighbors
  special bonds CPU = 0.003 seconds
  read_restart CPU = 0.010 seconds
include 	in.setup
variable	out_freq equal 1000
variable	out_freq2 equal 10000
variable	out_freq3 equal 1000

timestep	2.0

neigh_modify    delay 7 every 1

include		in.tip4p
# This is TIP4P/Ice

# create groups ###
group ox type 2
640 atoms in group ox
group hy type 1
1280 atoms in group hy

# set charges - beside manually ###
set group ox charge -1.1794
Setting atom values ...
  640 settings made for charge
set group hy charge 0.5897
Setting atom values ...
  1280 settings made for charge

# ### TIP3P Potential Parameters ###
pair_style lj/cut/tip4p/long/omp 2 1 1 1 0.1577 8.5
pair_coeff 1 1*2 0.000 0.000
pair_coeff 2 2 0.21084 3.1668
bond_style  harmonic
bond_coeff  1 450 0.9572
angle_style harmonic
angle_coeff 1 55 104.52
kspace_style pppm/tip4p/omp 1.0e-5
pair_modify tail yes

thermo          ${out_freq}
thermo          1000
thermo_style    custom step temp pe etotal epair emol press lx ly lz vol pxx pyy pzz pxy pxz pyz enthalpy

restart 	${out_freq3} restart.lmp.${pid} restart2.lmp.${pid}
restart 	1000 restart.lmp.${pid} restart2.lmp.${pid}
restart 	1000 restart.lmp.0 restart2.lmp.${pid}
restart 	1000 restart.lmp.0 restart2.lmp.0


include         in.dump
dump            myDump all atom ${out_freq2} dump.water.${pid}
dump            myDump all atom 10000 dump.water.${pid}
dump            myDump all atom 10000 dump.water.0
dump            myDump2 all dcd ${out_freq2} dump.dcd
dump            myDump2 all dcd 10000 dump.dcd
dump_modify     myDump append yes
dump_modify     myDump2 append yes


variable natoms 	equal  "count(all)"                        # NUMBER ATOMS
variable H      	equal  "enthalpy/v_natoms"                 # ENTHALPY-per-atom
variable Vol      	equal  "vol/v_natoms"                 # volume-per-atom
fix AVG all 		ave/time ${out_freq} 1 ${out_freq} v_Vol v_H file vol_enthalpy.dat
fix AVG all 		ave/time 1000 1 ${out_freq} v_Vol v_H file vol_enthalpy.dat
fix AVG all 		ave/time 1000 1 1000 v_Vol v_H file vol_enthalpy.dat




fix 		1 all shake 1e-6 200 0 b 1 a 1
       0 = # of size 2 clusters
       0 = # of size 3 clusters
       0 = # of size 4 clusters
     640 = # of frozen angles
  find clusters CPU = 0.000 seconds
fix             2 all nph aniso ${pressure} ${pressure} ${pressureDamp}
fix             2 all nph aniso 7500 ${pressure} ${pressureDamp}
fix             2 all nph aniso 7500 7500 ${pressureDamp}
fix             2 all nph aniso 7500 7500 1000
fix             3 all temp/csvr ${temperature} ${temperature} ${tempDamp} ${seed}
fix             3 all temp/csvr 256.19 ${temperature} ${tempDamp} ${seed}
fix             3 all temp/csvr 256.19 256.19 ${tempDamp} ${seed}
fix             3 all temp/csvr 256.19 256.19 100 ${seed}
fix             3 all temp/csvr 256.19 256.19 100 745823


run             250000
PPPM initialization ...
  extracting TIP4P info from pair style
  using 12-bit tables for long-range coulomb (../kspace.cpp:340)
  G vector (1/distance) = 0.37430532
  grid = 30 30 30
  stencil order = 5
  estimated absolute RMS force accuracy = 0.0032871475
  estimated relative force accuracy = 9.8991472e-06
  using double precision FFTW3
  3d grid and FFT values/proc = 5400 960
Last active /omp style is kspace_style pppm/tip4p/omp
Neighbor list info ...
  update every 1 steps, delay 7 steps, check yes
  max neighbors/atom: 2000, page size: 100000
  master list distance cutoff = 10.8154
  ghost atom cutoff = 10.8154
  binsize = 5.4077, bins = 5 5 5
  1 neighbor lists, perpetual/occasional/extra = 1 0 0
  (1) pair lj/cut/tip4p/long/omp, perpetual
      attributes: half, newton on, omp
      pair build: half/bin/newton/omp
      stencil: half/bin/3d
      bin: standard
Per MPI rank memory allocation (min/avg/max) = 10.54 | 10.55 | 10.55 Mbytes
Step Temp PotEng TotEng E_pair E_mol Press Lx Ly Lz Volume Pxx Pyy Pzz Pxy Pxz Pyz Enthalpy 
10250000    264.47652   -9116.9964   -8108.6913   -9116.9964            0    7968.6617    24.965979    24.953174    23.084714    14381.325    8430.5103    8332.5581    7142.9168   -233.03079   -311.07449    841.14698    -6437.369 
10251000    257.29834   -9138.4863   -8157.5477   -9138.4863            0    7830.4702    25.001067    25.027911    22.948629    14359.519    6913.1449    8227.5125    8350.7531   -692.09299    781.68381   -1253.5535   -6517.6996 
10252000    259.65441    -9133.634    -8143.713    -9133.634            0    7502.7037    25.058163    24.981217     22.98928    14390.908    7666.9954    7275.3447     7565.771    775.05443    404.85124   -440.95103   -6569.0708 
10253000    260.81276    -9131.368   -8137.0308    -9131.368            0    7602.9938    24.924336     24.98437    23.104268    14387.463    7397.3514    8498.4004    6913.2297   -43.952354    255.94797    247.18847   -6541.7221 
10254000    257.06495   -9163.1727   -8183.1239   -9163.1727            0    6267.6997    24.999343    25.072252    23.040328    14441.443    5978.1265    5825.0327    6999.9399   -211.26862    1757.3306    340.87561   -6863.0609 
10255000    249.09129   -9080.2134   -8130.5638   -9080.2134            0    6634.8545    24.983787    25.118279    23.033539    14454.691    7526.8112     5524.677    6853.0753    594.04698   -195.13561    585.80083   -6731.8911 
10256000     252.5203   -9067.2985    -8104.576   -9067.2985            0    6908.5138     24.88611    25.031914    23.198984    14451.737    7367.1796    7554.9774    5803.3845    137.35742   -92.597445   -397.39472   -6648.5116 
10257000     263.7359   -9171.9736   -8166.4921   -9171.9736            0    6771.8622    24.947105    25.015368    23.074821    14400.097    7419.9712    6350.2835    6545.3318   -358.75968   -564.71051    -976.5996    -6744.329 
10258000    248.07699   -9113.8418   -8168.0591   -9113.8418            0    6235.4297    25.087379    25.146825    22.892605     14442.21    6498.5957      5522.45    6685.2433   -818.20331    597.08543    509.28933   -6854.7229 
10259000    264.04331   -9107.3863   -8100.7328   -9107.3863            0    8195.4641    24.905259    24.983642    23.113651    14381.871    9524.3791    8010.2353    7051.7779    620.71655    -3.308988   -494.91038   -6381.7765 
10260000    259.19326    -9112.931   -8124.7681    -9112.931            0    8247.8622    25.048377    24.884559    23.022959    14350.621    6791.2499    9431.6046     8520.732   -880.57295    277.44075     1254.527   -6398.5806 
10261000    254.93334   -9125.6171   -8153.6949   -9125.6171            0      7351.37     25.11133    25.029483    22.880777    14381.108    7759.7497    6288.4793    8005.8811    269.71233   -430.14141   -208.64967   -6611.8648 
10262000    260.56833   -9094.8089   -8101.4036   -9094.8089            0    7251.3094    24.990506     24.98208    23.087352    14413.777    7147.8034    7214.3893    7391.7355    331.86911   -56.218051   -521.80246   -6577.1047 
10263000    251.52199   -9082.9511   -8124.0346   -9082.9511            0    5952.7528    25.057195    24.975945    23.151576    14488.885     5450.237    6621.9236     5786.098   -670.52799     103.3263    431.38184    -6866.185 
10264000    256.23275   -9167.7435   -8190.8674   -9167.7435            0    7168.2816    25.037799    25.023624    22.965295    14388.594     6114.217    7464.2364    7926.3914    837.59603   -410.57843   -406.26542   -6686.6545 
10265000    259.23896   -9130.9787   -8142.6415   -9130.9787            0    7203.5349    24.916865    24.936195    23.175153    14399.459    7905.6236    7216.0427    6488.9383    197.69712    -77.65804   -505.06051   -6629.8895 
10266000    260.86961   -9123.5162   -8128.9623   -9123.5162            0    6751.6849    24.939684    25.018757    23.083525    14403.194     7432.962    6557.5742    6264.5185   -104.54161   -560.57774   -52.158761   -6710.7317 
10267000    254.66814   -9104.9532   -8134.0422   -9104.9532            0    7270.3896    24.993856    25.101248    22.992391    14424.896    7749.6824    6700.6719    7360.8144    544.82338    1123.1625     132.0322   -6604.5535 
10268000    259.49532   -9169.3454   -8180.0309   -9169.3454            0    5925.5047    24.918403    25.109238    23.088691     14446.18    7091.9149    5307.6743    5376.9249    781.82455    513.93922    477.26162   -6931.6294 
10269000    256.31767   -9134.1104   -8156.9105   -9134.1104            0    7494.2884    24.942611    25.061556    23.009323    14383.143    7814.7612    6574.7321     8093.372    1067.3533   -365.92789    636.89539   -6584.8832 
10270000    247.91593   -9117.3498   -8172.1812   -9117.3498            0    7473.7667     24.80445    25.075228    23.124309    14382.794    9418.1372     6485.278    6517.8848   -361.80444   -1477.7665    795.25388   -6604.4966 
10271000    249.25478   -9104.1385   -8153.8656   -9104.1385            0    9034.2415    25.020233     24.91339    22.967437    14316.495    7470.6023    9697.7599    9934.3623   -167.27501   -1362.6027   -195.50759   -6267.5937 
10272000    258.77391   -9095.1072    -8108.543   -9095.1072            0    8123.1127    25.052355     25.02018    22.897771    14352.653    7709.1772    8107.5744    8552.5866    225.30465    12.023463    597.83369   -6408.2234 
10273000    250.68949   -9143.3417    -8187.599   -9143.3417            0    7973.9042    24.907121    24.945885    23.073672    14336.369    9104.3351    7947.0913    6870.2863   -407.95737   -197.10062    28.911616   -6520.4052 
10274000    263.60871   -9071.2321   -8066.2355   -9071.2321            0    8767.1314    24.897305    25.008429    23.039784    14345.549    8860.5588    8697.7613    8743.0739   -631.93778   -976.50554    612.54935   -6232.0191 
10275000    264.25087   -9136.7742   -8129.3293   -9136.7742            0    7418.5576     25.05053    25.086031    22.885668    14381.774    6901.3371    7090.8247     8263.511     659.1901    -45.80125   -24.638392   -6573.3357 
10276000    267.64819   -9126.5128   -8106.1159   -9126.5128            0    6934.7088     24.93497    25.070985    23.064093    14418.385    7593.2636    7039.8801    6170.9828   -283.91918    963.96427    162.29474   -6647.9036 
10277000    260.67167   -9127.9908   -8134.1915   -9127.9908            0    7454.6439    24.932252    24.979881    23.125391    14402.602    7610.1719    7824.4203    6929.3396   -31.857152   -365.06872   -676.13676   -6568.3646 
10278000    250.62412   -9114.3808   -8158.8874   -9114.3808            0    7704.0577    24.907088    25.201782    22.898772    14373.628    9563.9544    5796.1943    7752.0243   -250.44326    149.30658    827.26632   -6543.9272 
10279000    254.71264   -9141.2136   -8170.1329   -9141.2136            0    7136.3749    24.985586    25.120845    22.972302    14418.773    7388.1148    5871.9467     8149.063    33.808773   -51.067115    436.56133   -6669.4745 
10280000     256.7576   -9087.4013   -8108.5242   -9087.4013            0    6549.2213    25.019147    25.079652    23.061241    14470.271    6093.9538    7099.7881    6453.9219    738.35995    743.83321   -114.89796   -6726.4155 
10281000    256.75127   -9078.1919    -8099.339   -9078.1919            0    6217.1997    24.966913    25.016185    23.164862    14468.238    6458.8923    6455.2144    5737.4926    95.019894    430.15906     202.4651   -6787.4824 
10282000    255.94661    -9092.997   -8117.2118    -9092.997            0     6409.602    25.006216    25.198686    22.987942    14485.249    5826.8455    6116.2472    7285.7133    545.87724   -493.55758    80.346459   -6763.1674 
10283000    254.33621   -9096.0368   -8126.3911   -9096.0368            0    6814.0806    24.999828    25.023549    23.056116    14423.547    7520.0987    6715.0663    6207.0767    793.46077   -377.09808    320.36546   -6693.0313 
10284000    255.01687   -9165.3211   -8193.0805   -9165.3211            0    6114.9217    25.000772    24.990758    23.100261    14432.771    5573.2633    6483.1238     6288.378   -277.42422    220.25288    424.75277    -6905.968 
10285000    253.62892   -9174.1238   -8207.1747   -9174.1238            0    6725.6911    25.014923    24.927559    23.090215    14398.157    7044.0926    6384.7079    6748.2727   -471.13486    604.60779   -97.848542   -6794.8983 
10286000    256.64104   -9136.6049   -8158.1722   -9136.6049            0    7495.5167    25.023022    24.987952    22.975399    14365.922    7380.8543    7913.7179    7191.9778    324.03545   -905.82647    314.42832   -6587.7698 
10287000    255.70015   -9121.4156     -8146.57   -9121.4156            0    8467.6178    24.967206    24.997196    22.997018    14352.672    8770.0082    7775.1506    8857.6945   -183.31744   -61.160947   -216.26111   -6374.1367 
10288000    262.47743   -9121.5206   -8120.8369   -9121.5206            0    8532.1459    24.972055    24.897362    23.085373    14353.061    7292.4389    9072.0117    9231.9872   -59.932708   -272.61984    136.21913   -6334.8483 
10289000    250.55391   -9129.7294   -8174.5036   -9129.7294            0     6654.648    25.118201    25.073972    22.935714    14445.212    6167.5599    6809.8291    6986.5552    697.27118   -54.235936    591.01059   -6772.5782 
10290000    254.01142    -9125.999   -8157.5916    -9125.999            0    7483.5856    25.112225    24.941215    22.948053     14373.04    5917.0003    7306.9699    9226.7866    796.16078   -321.91942   -63.606396    -6588.912 
10291000    247.79143   -9142.5698   -8197.8758   -9142.5698            0    8346.9509    24.997094     25.01191    22.954196    14351.539    7769.2039    8082.4516    9189.1972    122.08255   -279.02097   -93.717149   -6450.8384 
10292000    263.98385   -9154.9911   -8148.5643   -9154.9911            0     7504.079    24.928045    25.034807    23.049815     14384.67    8099.9705    6997.8406    7414.4258    152.42033     118.7993   -541.57873   -6574.3161 
10293000    258.04353     -9100.54   -8116.7604     -9100.54            0     8208.438    24.885176    25.070627     23.02127     14362.67    9305.3315     7335.825    7984.1574    431.37854   -14.013336    848.75522   -6397.3815 
10294000    255.08452   -9124.7413   -8152.2428   -9124.7413            0    7917.6208    24.963114    25.037994    22.976812    14361.112    7949.4381    7607.0242       8196.4   -393.66823    -399.6094    154.46254   -6493.9598 
10295000    253.58889   -9168.4786   -8201.6821   -9168.4786            0    9205.2593     24.79556    25.058243    23.000751    14291.129    10545.248    7419.5363    9650.9941    216.46723    1228.1838    1894.2268   -6283.1085 
10296000    270.90824   -9123.4578    -8090.632   -9123.4578            0    8127.0895    24.860941    24.988797    23.122844    14364.951    7935.8813    9181.8788    7263.5085    842.13017    74.874973    496.35172   -6388.0224 
10297000    257.23444   -9135.3953   -8154.7003   -9135.3953            0    7852.2845    24.914393    25.120109    22.900731    14332.475      9176.13    6198.6179    8182.1057    249.71065   -179.77525   -461.17608   -6513.3809 
10298000     258.8045    -9145.825   -8159.1442    -9145.825            0    7571.3872    24.816955    25.181923    23.015454    14383.247    9991.0923    5504.4494      7218.62   -174.75082    120.54004    922.86438   -6570.9329 
10299000    256.55384   -9107.1615   -8129.0612   -9107.1615            0    7718.4087    24.811407    25.111129    23.148114    14422.258    8835.0774    7139.5399    7180.6086   -170.06205    357.16409   -522.34589   -6505.6187 
10300000    254.85949   -9083.2208   -8111.5802   -9083.2208            0    8593.6576    24.995649    25.096477    22.873148    14348.388    8958.8232     7136.497    9685.6527    68.352027   -165.49461   -860.06808   -6313.3013 
10301000    263.43066   -9139.6869   -8135.3691   -9139.6869            0    6323.6469    24.921147    25.041071    23.087009      14407.5    6932.2562     6396.212    5642.4725    36.899828    422.07659   -289.52218   -6806.6533 
10302000    257.94893   -9138.2515   -8154.8325   -9138.2515            0     6737.095    24.976511    24.918281    23.186182    14430.424    6259.5419    7669.1924    6282.5507   -948.29141   -440.54817   -444.09179   -6736.9912 
10303000    256.92138   -9133.6494   -8154.1479   -9133.6494            0    6891.6503    25.078827    24.974946    22.999772    14405.731    6001.3699    7546.4963    7127.0848    858.82913   -275.82668   -738.55693   -6706.2617 
10304000    263.45251   -9133.5617   -8129.1605   -9133.5617            0    6540.4674    25.131176     25.01588    22.948769    14427.397     6225.744    7012.8525    6382.8058   -609.50888   -501.39917    635.67248   -6752.9887 
10305000    257.96602   -9096.2275   -8112.7434   -9096.2275            0    7719.3648    25.171247    24.871621    22.933674     14357.62    7235.8833    7632.4867    8289.7243   -405.81461    942.21831    165.41628   -6496.3766 
10306000    260.95997   -9103.8512   -8108.9528   -9103.8512            0    7766.5602     25.01447    24.964092    23.051773    14394.992    6696.6993    8149.5238    8453.4576   -611.16952    611.46311   -3.8107996   -6478.4708 
10307000    250.27045   -9108.9288   -8154.7837   -9108.9288            0    6669.2314    24.976901    25.032763    23.104586    14445.931    6994.8833    6381.3806    6631.4303    716.04894    1229.0572    765.80337   -6749.7161 
10308000    253.91802    -9132.697   -8164.6457    -9132.697            0    6846.5823     24.98236    25.064955    23.012083    14409.746    6930.5494    6861.4772    6747.7201   -180.08694   -1125.4689    1047.1086   -6725.8271 
10309000    257.65126    -9122.513   -8140.2289    -9122.513            0    9188.3064    24.878927    25.044198    22.924222    14283.459    10169.356    7786.9022    9608.6614     355.6604    638.19257   -603.57831   -6226.2165 
10310000    244.43094   -9126.4937   -8194.6114   -9126.4937            0     8574.273    24.798062    24.979728    23.158441     14345.47    9800.4997    8454.1805    7468.1388    119.03278    305.19772   -1938.0897   -6400.7538 
10311000    256.08663   -9136.9298   -8160.6108   -9136.9298            0    7564.2327    24.884416    25.140264    22.992084    14383.866     7324.321    6808.8695    8559.5077   -201.08513    487.55575   -262.02107    -6573.832 
10312000    266.49158   -9161.8683   -8145.8808   -9161.8683            0    7258.6052     24.96135    25.088689    22.978357     14390.14    7621.1595    6926.0496    7228.6065   -531.00027   -815.99946    296.58619   -6622.5505 
10313000    261.09483   -9081.8067   -8086.3942   -9081.8067            0    7333.5524    24.948127    25.050826    23.086492    14428.392     7550.833    6979.2259    7470.5982   -1354.1711   -228.72237    556.01944   -6543.2439 
10314000    262.12622   -9130.8047     -8131.46   -9130.8047            0    7425.7506    24.969357    24.962885    23.091026    14392.802    9385.0691    7625.5087    5266.6739   -329.03538   -19.079316   -985.04471   -6572.7634 
10315000    249.84433   -9149.0316   -8196.5111   -9149.0316            0    6757.2225    25.010627     24.99591     23.04802    14408.778    6540.9113    6557.1528    7173.6035    4.1860006   -1481.6724    1396.5779    -6776.567 
10316000    266.11451    -9093.034   -8078.4842    -9093.034            0    6566.2579    25.039725    25.033524    23.097245    14478.105    6698.3579    7601.4847    5398.9311   -753.96075    -744.8094    349.27959   -6692.0299 
10317000    253.76584   -9155.0812     -8187.61   -9155.0812            0    6822.2427    24.926985     25.05453    23.071236    14408.769    7193.6701    7135.5116    6137.5464   -35.388478    726.41996    598.26502   -6754.0036 
10318000    252.84043   -9141.7846   -8177.8415   -9141.7846            0    7206.9169    24.989715    24.974458    23.040376    14379.605    7784.5516     7396.036     6440.163   -582.17532    908.86123   -679.93559   -6666.4661 
10319000    262.13567   -9176.8465   -8177.4658   -9176.8465            0    7491.8181    24.981435    24.914351    22.999811    14314.996    7800.8152    8289.8293    6384.8097    915.27681   -1382.3354    995.52066   -6613.4025 
10320000    250.94142   -9122.2277   -8165.5245   -9122.2277            0    8126.5901    25.013629    24.954018    22.991688    14351.194    7964.5958    7781.0768    8634.0978   -431.99597   -517.46753    -187.1394   -6464.6499 
10321000    252.15704   -9093.1198   -8131.7821   -9093.1198            0    7424.3262    25.099594    24.931605    23.049293    14423.629    6794.1679    7870.8738    7607.9368   -494.14957    328.33956       57.125   -6570.0466 
10322000    261.15407   -9094.2525    -8098.614   -9094.2525            0    8215.2084    25.005003    24.880922    23.053176    14342.476    7855.5054    9622.9592    7167.1605    877.65574    -925.4867    -433.1295   -6380.2364 
10323000    246.56272    -9152.357   -8212.3475    -9152.357            0    8151.0428    24.977062    24.946501    22.979132    14318.074    7656.3526    8934.7194    7862.0565    -983.3992   -27.340538    833.59098   -6510.2922 
10324000    257.58583   -9095.4293   -8113.3946   -9095.4293            0    8480.4092    24.962782    25.017039    22.953997    14334.654    7979.9861    8345.1811    9116.0603     298.7059   -276.01858    221.78933   -6340.5124 
10325000    267.51641   -9119.3602   -8099.4656   -9119.3602            0    7942.8755    24.937849    24.971338    23.095425    14382.247    8565.2577     8999.796    6263.5729    514.29363    159.31659    525.66622   -6433.4449 
10326000    260.12449   -9135.4686   -8143.7554   -9135.4686            0    8221.4045    24.959183    25.002222    22.961158    14328.567    7839.8551    8862.7255    7961.6329   -469.92428    865.72344    825.81512   -6425.7494 
10327000    255.22533   -9164.1512   -8191.1159   -9164.1512            0    8370.6929    24.901777    24.981569    23.027696    14325.195    8264.0712    7971.8055     8876.202    48.167788    71.322127    1019.5882   -6442.3252 
10328000    262.55776   -9112.3063   -8111.3164   -9112.3063            0    6503.7498     24.96525    25.021786    23.155524    14464.681     6857.522    6817.6456    5836.0817    143.59512    60.462583    51.858593   -6739.3339 
10329000    248.66887   -9116.8443   -8168.8051   -9116.8443            0    7495.7202    24.998491     25.09827    22.942576    14394.606    7177.8226     7426.301    7883.0369   -158.12958   -162.96554   -1270.9626   -6595.2244 
10330000    252.20173   -9110.6391   -8149.1311   -9110.6391            0    6919.1313    24.930893    25.119984     23.03858    14428.225    7159.0969     6260.979    7337.3181    74.947427     643.4226    103.98303   -6693.2015 
10331000    260.45436   -9107.8546   -8114.8838   -9107.8546            0    7210.7719    24.916713    25.051623    23.108738    14424.569    9118.8872    6476.4234    6037.0051   -295.87451    24.940981   -1448.5137   -6597.9714 
10332000    258.16433   -9144.3391   -8160.0989   -9144.3391            0    6426.7048    24.938004    25.194483    22.944705    14416.161    6546.2261    5485.3191    7248.5693   -257.57967   -164.01088   -180.19872   -6808.9169 
10333000    258.50567   -9177.9627   -8192.4212   -9177.9627            0    7175.8344    24.861396    25.056311    23.039938    14352.381    9219.0101    5786.3353    6522.1578    139.30226    223.01732   -216.11431   -6690.4131 
10334000    263.18283   -9105.9218   -8102.5488   -9105.9218            0    6689.7273    24.879459    25.055579    23.182292    14451.128      7389.46    6545.1202    6134.6017   -415.08373   -309.27367   -558.15024   -6692.6562 
10335000    254.79189   -9133.5543   -8162.1714   -9133.5543            0    7596.1027    25.017897    24.981202    23.011932    14381.931    7719.7486    8062.1392    7006.4203   -778.57164   -1994.8353    989.83835   -6568.9214 
10336000    261.75751     -9127.56    -8129.621     -9127.56            0    7239.7984    24.894963    25.125225    22.988613    14379.183    6953.8808    6647.2562    8118.2583   -392.19106   -1356.7069    312.30623   -6611.3945 
10337000    255.70134    -9130.979   -8156.1289    -9130.979            0    8164.7249    24.883051    24.922219    23.137952    14348.789     7799.224    9367.7839    7327.1667   -355.92406   -850.33771    897.17975   -6447.5592 
10338000    267.12261    -9114.135   -8095.7418    -9114.135            0    8101.3349     24.98045     25.02943    22.948616     14348.54    7821.2197    7782.8349    8699.9501   -433.40843    194.90017    230.73977   -6400.4667 
10339000    253.91308    -9161.021   -8192.9885    -9161.021            0    9104.2976    24.786602     24.98079    23.042869    14267.888    10010.427    8399.5428    8902.9225    446.07786   -1058.2401    199.66748   -6298.5434 
10340000    260.75213   -9116.9267   -8122.8207   -9116.9267            0    8813.6216    24.888727    25.069664    22.945158    14316.678    9221.3721     8088.618    9130.8747   -23.230639    743.63809    748.70577   -6282.5889 
10341000    253.47634   -9148.5197   -8182.1523   -9148.5197            0    8081.4154    24.907364    24.974137    23.039374    14331.411    8888.9825    8138.9453    7216.3185    449.74445    360.04956   -963.72459   -6493.0643 
10342000    264.23493   -9152.4633   -8145.0793   -9152.4633            0    7363.7161    24.992797    24.969159    23.067792    14395.435    7651.6171    7483.4337    6956.0976   -508.70138    140.08439   -389.78966   -6599.1212 
10343000     250.3363   -9092.4397   -8138.0436   -9092.4397            0    5872.4744    25.116598    25.138981    22.966278    14501.038    5362.0352    5122.8391    7132.5489   -383.08471    948.09702    523.44853   -6896.1164 
10344000    252.89286   -9129.6134   -8165.4705   -9129.6134            0    5569.9152     25.01998    25.059419    23.070425    14464.837    5376.7882    5269.8823    6063.0752   -303.94971   -509.81315    1344.0474     -6990.47 
10345000    247.17691   -9153.6556   -8211.3045   -9153.6556            0    7681.0558    24.841431    25.106541    23.024997    14360.285    8343.3428    6075.2197    8624.6048    -340.1528   -521.58874    761.57186   -6602.6608 
10346000     251.4011   -9109.9371   -8151.4815   -9109.9371            0    6571.2276    24.908058    25.091345    23.145351    14465.304    7170.8396    5901.0526    6641.7907   -909.94764    1027.8578    175.30299   -6765.2046 
10347000    264.97039   -9137.6587   -8127.4708   -9137.6587            0    7209.8965    24.923256    25.062246    23.018129    14377.878    7264.5717    7213.4856    7151.6322    778.80919    -1104.199     505.6057    -6615.652 
10348000    248.60308   -9152.1675   -8204.3792   -9152.1675            0    8075.9618    24.932077    24.989177    23.031298    14349.237    9635.4775    7324.7808    7267.6271   -245.43591    284.47762    -1025.361   -6514.3315 
10349000    258.16094   -9109.0021   -8124.7749   -9109.0021            0    7001.9016    24.930466    25.139826    23.035662    14437.545    7202.7494    6514.6521    7288.3032    70.007095   -233.66264    337.59214    -6650.477 
10350000    258.55168   -9173.2833   -8187.5664   -9173.2833            0    7018.4885    25.013684    24.999262    22.991164    14376.918     7127.446    6737.1575    7190.8621   -668.43798   -589.35018    135.33931   -6715.9816 
10351000    259.87432   -9151.4265   -8160.6671   -9151.4265            0    8691.6067    24.880424    25.022696    22.968146      14299.4     8402.853    8705.3697    8966.5973    803.55707   -452.74849   -337.01004   -6348.1014 
10352000    267.89094   -9132.9641   -8111.6416   -9132.9641            0    8326.5114    24.858785    24.987287    23.080215    14336.358    9631.4375    7279.3082    8068.7884    321.26028   -1327.6702   -121.16344   -6370.7257 
10353000    260.96813   -9125.9611   -8131.0316   -9125.9611            0    8623.7352    24.914757    25.031783    23.034568    14365.756    8717.1201    7874.7197    9279.3657    354.04812   -508.38847      93.4114   -6324.2744 
10354000    258.37486   -9137.3624   -8152.3196   -9137.3624            0    7037.3147    25.018814    25.143103    22.904255    14407.935    5833.5666    6620.4466     8657.931    158.21798    616.20532    238.67321   -6673.6041 
10355000    258.97933   -9120.6261   -8133.2788   -9120.6261            0    6739.4511    24.972235     25.06835    23.034135    14419.662     7242.375    5947.2233     7028.755   -688.64342   -330.09763    221.69377   -6715.9993 
10356000     250.5441   -9123.3111   -8168.1228   -9123.3111            0     9701.965    24.771537    24.873201    23.202013    14295.861    10922.131    9947.2618    8236.5022    221.76488    261.53787    1813.4356   -6145.3555 
10357000    260.45123   -9137.5088   -8144.5499   -9137.5088            0    7342.0804    25.088485    25.030176    22.885275    14371.248    7094.1322    6472.4653    8459.6437    1160.7458    263.46324    786.29265    -6605.724 
10358000    260.04856   -9132.9894   -8141.5656   -9132.9894            0    7178.0693    24.915237    25.070212    23.024423    14381.752    7920.5785    6993.1735    6620.4558   -400.58323    340.42673   -648.82159   -6636.0151 
10359000    250.30641   -9111.0742   -8156.7921   -9111.0742            0     7695.882    24.850073    25.003026    23.142089    14378.805    9044.3997    6718.4732     7324.773    333.20108   -95.093995    630.95858   -6542.9647 
10360000    253.49742   -9138.3097   -8171.8619   -9138.3097            0    6866.2004    24.846939    25.151195     23.05645    14408.672    8157.9045    5835.3718    6605.3248   -19.377536    -835.3428   -881.10076   -6729.0281 
10361000    253.68186    -9120.815   -8153.6641    -9120.815            0    6443.3817    25.026677    25.059324    23.028334    14442.256    6363.5205    6390.6002    6576.0244    240.77182    183.95145    999.67511   -6796.5236 
10362000    258.22343   -9127.0576   -8142.5921   -9127.0576            0     6708.561    25.034675    25.084543    22.976042    14428.573       5924.3    6662.9561    7538.4269     935.9261   -534.63341   -694.70163   -6730.9369 
10363000    247.96591   -9088.8945   -8143.5354   -9088.8945            0    7322.3765    24.999664    24.961094    23.111693    14422.135    7040.8547      8980.33    5945.9449   -742.99575    845.07856   -586.93339   -6603.4049 
10364000    266.83788   -9105.8272   -8088.5195   -9105.8272            0    7408.0243    25.112114    24.920464    23.016838    14404.065    6036.1345    8294.2756    7893.6627     584.5752    948.36688   -312.23434   -6532.3269 
10365000    271.49765    -9130.901   -8095.8282    -9130.901            0    7463.9694    25.073742    25.019354    22.974018    14412.264    8032.1442     6292.783    8066.9809    827.80479   -782.27491   -730.31922   -6526.9907 
10366000    260.29145   -9158.9564   -8166.6066   -9158.9564            0     7732.049    24.873133    24.877172    23.192986    14351.199    8921.3149    7690.7828    6584.0494   -867.05634   -975.53438   -873.61576    -6548.308 
10367000    249.56656   -9157.4989   -8206.0374   -9157.4989            0    8200.1687    25.007607    24.982349    22.963988    14346.723    8548.5454    7783.4691    8268.4915    -208.6246   -632.53898    1422.3559   -6490.2977 
10368000     251.2166   -9163.3695   -8205.6173   -9163.3695            0     7951.591    25.002777    25.043552      22.8631     14315.92     8182.143    7398.9187    8273.7113    -1215.549    1107.5021    1014.3283   -6545.4602 
10369000    259.30267   -9130.1574   -8141.5773   -9130.1574            0    8658.8548     24.91527    24.986661    23.021664    14332.123     10449.51    7712.9864    7814.0677    489.37503   -984.48403    292.20516   -6331.7094 
10370000    246.38871   -9097.3817   -8158.0356   -9097.3817            0    8407.3718    24.907436    24.976863    23.081198    14359.035    8433.1619    9211.1288    7577.8249   -339.24731   -691.28575    765.76135   -6397.4327 
10371000    256.32179   -9137.5682   -8160.3526   -9137.5682            0    7231.3299    25.020594    25.230281    22.742288    14356.675    6666.3242    6511.5397    8516.1259   -704.17652    1225.6127    534.36144   -6646.2757 
10372000    257.86828   -9117.0994    -8133.988   -9117.0994            0    6490.4464    25.033725    25.057283    23.042302    14453.909    5530.8704    7734.4637    6206.0051    383.62287   -412.33224   -359.33241   -6765.8314 
10373000     252.3675   -9145.1134   -8182.9734   -9145.1134            0    5877.0919    24.996042    24.985318    23.160786    14464.699    5517.7504    7489.2181    4624.3072   -747.19241    21.026932     436.5607   -6943.1844 
10374000    269.41751   -9141.0269   -8113.8845   -9141.0269            0    6647.1015    24.987127    25.062724    23.064957    14444.325    7122.1322    6704.2334     6114.939   -423.55823    436.24107    246.22384    -6713.635 
10375000     267.9816   -9128.4756   -8106.8076   -9128.4756            0    6868.4205    25.001724    25.072014    23.033834    14438.611     6932.362    6479.5093    7193.3903   -13.847449   -1350.0901   -233.93606   -6660.5083 
10376000    260.80055   -9146.4012   -8152.1106   -9146.4012            0    7108.7281    25.096114    25.083761    22.809627    14358.773     6084.338    6887.2165    8354.6299   -4.7156767   -20.756948    83.278828   -6663.4863 
10377000    251.44864   -9093.2658   -8134.6288   -9093.2658            0    7672.5605    25.032161    24.940953    23.033955    14380.696    7426.3671    7634.7679    7956.5466     509.2735    -2047.662   -576.65474   -6525.4804 
10378000    257.01688    -9136.443   -8156.5774    -9136.443            0    6770.6924    25.111602    24.801934    23.127259    14404.034    6613.9871    7987.2986    5710.7916   -452.47398    207.91409   -112.03443   -6734.2712 
10379000    257.95764   -9106.5535   -8123.1013   -9106.5535            0    7066.8779     25.04618    24.965108    23.068182    14424.086    6493.5776    8010.0728    6696.9833    888.49642    450.52376    180.75578   -6636.5094 
10380000    255.29175    -9157.409   -8184.1205    -9157.409            0    6316.0314    25.078242    24.970354    22.991723    14397.706    5160.5701    6923.9062    6863.6178     -840.839   -940.47531   -158.10282   -6857.9069 
10381000    248.93138   -9135.5783   -8186.5383   -9135.5783            0    8227.8501      24.9564    24.953602    23.035758    14345.566    8202.2443    7894.4265    8586.8794   -252.48878   -554.07008   -660.38772   -6465.1456 
10382000     255.7967   -9134.7289   -8159.5152   -9134.7289            0    6545.8179    24.985536     25.07903    23.054107    14446.003    5765.6268    6713.4135    7158.4134   -269.27228   -931.29459    946.10852   -6780.4414 
10383000    254.12501    -9135.592   -8166.7516    -9135.592            0    6629.5056    25.054677    25.029688    23.003749    14425.898    5715.7811    6943.4039    7229.3317     252.9196   -619.85298   -123.79621   -6771.9902 
10384000    255.32706   -9164.3563   -8190.9331   -9164.3563            0    6791.2653    25.005016    24.846908    23.200258    14414.258    7278.7206    7519.6804    5575.3949    -606.4224    243.70786   -35.227286   -6763.2925 
10385000    245.97685   -9145.6128   -8207.8369   -9145.6128            0      7472.33    25.029776    24.874296    23.074731    14366.283    7377.6228    7204.1061     7835.261   -905.43598   -509.45696    1889.8572    -6642.253 
10386000    252.14959   -9101.1886   -8139.8793   -9101.1886            0    6355.5853    25.196516    24.970121    22.943957    14435.422    6105.1877     6321.435    6640.1332    808.89807    342.14587    1820.0305   -6801.8645 
10387000    248.85793   -9117.6756   -8168.9157   -9117.6756            0    6930.4936      25.0561    24.926058    23.041953    14390.848    6830.4813    7034.3675     6926.632    542.53467   -336.11536    612.13304   -6714.3731 
10388000    258.98717   -9130.9834   -8143.6062   -9130.9834            0    6273.2444    24.962454    24.849116    23.288278    14445.601    5792.9987     7859.375    5167.3597    85.350263    113.84035   -13.106104   -6821.9951 
10389000     251.5717   -9146.9864   -8187.8803   -9146.9864            0    7867.3465    24.955136      25.0254     23.00802    14368.791    7775.6092     7769.783    8056.6473    93.926941   -682.32339    584.62789   -6539.2458 
10390000     259.5616   -9132.7397   -8143.1725   -9132.7397            0    7801.6923    25.001208    25.084221    22.934964    14383.337    8169.7033    6362.6833    8872.6903    631.65877    590.10587     405.4804    -6506.641 
10391000    247.98316   -9136.2971   -8190.8721   -9136.2971            0    6311.7836    24.869787    25.019022    23.190578    14429.589    7909.7389     6160.843     4864.769   -196.81359   -1095.1863   -581.24853   -6862.6157 
10392000    250.53565   -9145.5705   -8190.4143   -9145.5705            0    7288.0739    24.955763    25.062223    22.995295    14382.336    7025.8763    6784.1885    8054.1569     567.4601    674.58115    429.50657   -6661.7291 
10393000    257.45296    -9125.223   -8143.6949    -9125.223            0    7328.0447    25.001581    25.064425     22.98192    14401.626    7549.9852    7285.2108    7148.9381     370.2293    581.36955    1086.2551   -6604.5642 
10394000    255.77007   -9132.9011    -8157.789   -9132.9011            0    6487.9491    24.937426    25.050686    23.091224    14425.079    6726.3078    6128.6488    6608.8907   -81.257005    255.67918    322.10213   -6792.8868 
10395000      260.939   -9089.9149   -8095.0964   -9089.9149            0    6993.3643     24.97068    25.009741    23.133848    14447.325    8353.6706    6300.8421    6325.5803    565.56777    149.99094     147.4843   -6621.5986 
10396000      250.285   -9118.7982   -8164.5977   -9118.7982            0    6802.6408    24.966425    25.069832    23.034905    14417.642    6640.5856    6723.4558    7043.8811   -611.24309     -1.99072    1330.6144   -6734.2301 
10397000    260.15847   -9149.1043   -8157.2616   -9149.1043            0    7335.1101    24.919702    25.134636    23.005982    14409.743    6657.1501    7970.1919    7377.9884    358.85642   -780.97082   -151.11249   -6615.7785 
10398000    258.65232   -9176.2991   -8190.1985   -9176.2991            0    8643.0554    24.854515    24.988795    23.025216    14300.602     7903.382    8936.6405    9089.1436    213.02195   -1724.0048   -455.42948   -6387.6062 
10399000    253.26926   -9096.0612   -8130.4833   -9096.0612            0     8022.854    24.911593    25.081511    22.973786     14354.49    8790.5782    7778.5835    7499.4003    372.30722     62.68485    407.03103   -6450.9348 
10400000    251.13212   -9120.8968   -8163.4666   -9120.8968            0    8078.7897    24.922216    25.125804    22.890491    14333.813     8803.474    6651.8752    8781.0198   -209.72223    762.68913     548.2079   -6474.6444 
10401000    256.69005   -9111.5259   -8132.9064   -9111.5259            0    8549.8187    24.921425    25.005803    23.038385    14357.066    8628.2059    8865.2384    8156.0119    387.65671    46.934811   -11.149675    -6342.719 
10402000    255.10877   -9156.0048   -8183.4139   -9156.0048            0    6630.5203    24.985568    24.943876    23.162343    14435.627    7108.5968    7594.8906    5188.0734    173.77523   -901.54697    473.89646   -6787.4983 
10403000    255.85593   -9126.6139   -8151.1744   -9126.6139            0    6459.6749    25.045009     25.12383    22.952123    14442.085    6251.4453    5181.4616    7946.1178    1054.7216     687.9063    469.78421   -6790.6184 
10404000    253.20967   -9155.6703   -8190.3195   -9155.6703            0    7989.7235    24.975174     24.97874    22.980122    14336.111    7614.1904    7719.7326    8635.2474    91.966956   -1170.7409    -702.5956   -6519.8483 
10405000    259.38765   -9139.0821   -8150.1781   -9139.0821            0     7963.425    24.932243    24.859347    23.113164    14325.522     7846.645    8463.3603    7580.2697    166.88422   -180.19332   -540.07528    -6486.435 
10406000    250.32585   -9179.7145   -8225.3582   -9179.7145            0    9709.6192    24.957047    24.871734    22.939013     14238.82     9419.615    10613.899     9095.344   -366.08173   -432.73217    93.113518   -6209.0725 
10407000    253.33955   -9129.3655   -8163.5196   -9129.3655            0    7636.5939    24.999704    24.991563     22.99291    14365.549    7942.3138    7879.9437    7087.5241   -262.61265    565.38311   -330.25109   -6563.6012 
10408000    257.56457   -9121.0574   -8139.1038   -9121.0574            0    7868.6149    24.973891    24.921223    23.052629    14347.493     8434.864    7597.2145     7573.766   -66.277201    386.92265   -143.90299   -6492.6475 
10409000    260.06654   -9104.0616   -8112.5693   -9104.0616            0     7997.891    25.073939    24.906459    23.015609    14373.318    7038.7253    9045.8056    7909.1421   -51.534158   -397.07757     789.2122   -6436.0506 
10410000    251.90147   -9108.4696   -8148.1063   -9108.4696            0    8503.3825    24.959117     24.98533    22.957695    14316.689    8313.2345    8591.8115    8605.1015   -28.283617   -546.98416   -226.55503   -6372.6491 
10411000    245.52139    -9136.001   -8199.9615    -9136.001            0    8119.9243    24.896026    24.887579    23.101055    14313.456    8951.5541    8511.7765    6896.4422   -85.524509   -226.36873   -509.01911   -6504.9511 
10412000    259.06142   -9139.1311   -8151.4708   -9139.1311            0    7054.7653    25.033499    25.076049     22.96833    14418.168    7655.9547    6796.5117    6711.8294   -957.11401   -25.033113   -26.683349   -6668.0358 
10413000    254.84302   -9109.5126   -8137.9348   -9109.5126            0    7358.6275    25.001627    25.019116    22.979437    14374.065    6898.6092    7245.6713    7931.6019   -541.73824   -318.80993    120.61008   -6595.3384 
10414000    254.61159   -9149.6562   -8178.9607   -9149.6562            0    6780.4494    24.980328    25.008066    23.086662    14422.461    7073.6126    6722.2876     6545.448   -521.66719   -664.93065   -920.10254   -6752.7826 
10415000     254.0853   -9121.3883   -8152.6992   -9121.3883            0    8021.9918    25.085747    25.002738    22.905476    14366.598    7472.6444    7833.2293    8760.1016    85.184026    199.74306   -383.10802   -6471.9147 
10416000    255.15391   -9099.9197   -8127.1566   -9099.9197            0    7861.6394    24.962255    24.964313    23.137171    14418.288    7720.5577     7397.979    8466.3814   -95.901703    272.00904    -454.6419    -6474.043 
10417000    242.55558   -9150.1949   -8225.4624   -9150.1949            0    6615.7213    24.986747    24.990039    23.104139    14426.681    5372.2433    7825.2164    6649.7042    374.29998    54.226321    12.437167   -6833.5256 
10418000    261.05844   -9100.2262   -8104.9524   -9100.2262            0     7316.768    25.022101    24.977517    23.063614    14414.527    7361.5828    7578.1689    7010.5522   -128.73095   -385.47986    312.27653   -6566.8135 
10419000    251.63914   -9112.1073   -8152.7441   -9112.1073            0    6749.0334    25.070185    25.041567    22.959974    14414.196    6411.1269    6374.5813    7461.3919    346.69701   -340.31766    482.92494   -6733.9875 
10420000    258.82928   -9150.9808   -8164.2056   -9150.9808            0    7183.1241    24.909367    25.020851    23.049965    14365.972    7948.7961    6726.5469    6874.0292    120.43128     258.0772    136.12704   -6659.2479 
10421000    247.62678   -9108.3645   -8164.2982   -9108.3645            0    7881.6217    24.812139    24.994067    23.158555    14361.922    9439.7513    6934.2339    7270.8799   -477.32888   -662.35312   -9.1456178   -6513.4618 
10422000    260.63778   -9149.0079   -8155.3378   -9149.0079            0    8683.5669    24.916943    25.020567    22.950432    14308.126    7658.2744    8277.0027    10115.424   -69.622439    428.69265    -558.6308   -6343.3436 
10423000     263.7548   -9158.4065   -8152.8529   -9158.4065            0    8411.0641    24.895342    25.058671    22.934047    14307.272    8256.8825    8989.9604    7986.3495     483.8976   -784.20005    681.12658   -6397.8265 
10424000    249.78937   -9133.4023   -8181.0913   -9133.4023            0    8385.7642    24.905452    24.906314    23.085545    14320.033    7802.0143    8729.5234    8625.7549    192.40965   -313.31252    196.64617   -6429.7831 
10425000    255.57383    -9136.244     -8161.88    -9136.244            0    7140.4169    24.995517    25.007435    23.049485    14407.628    7976.7699    6391.6057    7052.8751    16.983887     1165.449    537.51379   -6661.5322 
10426000    252.79513   -9148.6843    -8184.914   -9148.6843            0    8078.2897    25.024974    24.947819    22.954755    14331.079    6654.6625    9731.4367    7848.7697   -687.34652    632.01144   -368.50969   -6496.5185 
10427000    252.18964   -9102.1671   -8140.7052   -9102.1671            0    7100.5448     25.01503    24.882644    23.140105    14403.329    8331.0464    7395.9591    5574.6288    761.79471    1127.0769   -258.05135   -6649.1805 
10428000    255.45479   -9147.6345   -8173.7244   -9147.6345            0    5377.9472    25.097871    25.016663    23.029231    14459.248    3753.6244    6473.5183    5906.6989    315.10574   -1277.4978   -642.53612   -7039.6589 
10429000    251.67992   -9131.1517   -8171.6331   -9131.1517            0     5618.558    25.128084    25.095004    22.969405    14484.263     4392.885    5426.0896    7036.6993   -252.27413    841.48015    829.47943   -6984.7795 
10430000    252.24262   -9143.9816   -8182.3177   -9143.9816            0     6778.768    25.052731    24.927053    23.060768    14401.237    7444.5821    6551.9047    6339.8171    183.26584   -50.192342    66.794572   -6758.5916 
10431000    256.60449   -9132.3438   -8154.0505   -9132.3438            0    7574.5715    24.931264    24.987277    23.026507    14344.694    8219.8952    7546.7203    6957.0989    251.39175    293.38182    -247.3747     -6569.43 
10432000     253.0664   -9075.0992   -8110.2947   -9075.0992            0      8132.14    24.964531    25.034514    23.010466    14380.964    7598.9776    8667.8242    8129.6181   -592.89929   -271.53348   -243.46332   -6404.7279 
10433000    243.78684   -9082.3454   -8152.9188   -9082.3454            0    7238.7742    25.058103    24.997801    23.008878    14412.703    7136.0997    6844.9783    7735.2446    86.388896    213.90315    1388.6863   -6631.3683 
10434000    254.87099   -9107.8701   -8136.1857   -9107.8701            0    7978.3485    24.925647    24.913364    23.106945    14348.991    9130.3633    7826.6423    6978.0398    119.86805     -52.9602     1314.143   -6466.5941 
10435000    267.13007   -9109.7798   -8091.3581   -9109.7798            0    8199.0217    24.963941    24.889987    23.054856    14325.185    8420.1308    9560.7335    6616.2007   -229.68861    1217.3984    461.52078   -6378.4339 
10436000    256.98162   -9086.0302   -8106.2991   -9086.0302            0    7523.9954    25.183021    24.981866     22.90132    14407.653    5360.2015    8605.5914    8606.1934   -48.985731    83.632814   -511.85026   -6525.3509 
10437000    248.45705   -9152.0096    -8204.778   -9152.0096            0    7307.1013    25.019601    24.926773    23.065433     14384.94    6779.8997    7379.1173    7762.2868   -120.52962      -1057.9    730.44534   -6671.8242 
10438000    258.82144   -9109.0592   -8122.3138   -9109.0592            0    7525.4039    25.052941    24.895092    23.062331    14383.867    7336.0305    8453.9135    6786.2679   -426.17744   -10.762085   -397.91265   -6543.6801 
10439000    251.79274   -9171.2137    -8211.265   -9171.2137            0     8458.886    25.061503    24.847696    22.963058    14299.569    6867.6132    9380.5764    9128.4683   -689.05939   -1135.7168    1283.2272   -6447.2104 
10440000    257.54839   -9085.6098   -8103.7179   -9085.6098            0     7560.873    25.006805    24.950073    23.071795    14394.992    6615.1322    7807.5247    8259.9621   -1197.2245       2.6339    127.04679    -6516.417 
10441000    256.25947   -9134.8197   -8157.8417   -9134.8197            0    5655.8821    25.099406    25.055029    23.022971    14478.372    4744.9375    5430.2988    6792.4101   -725.21826   -567.12496    207.91905   -6963.5898 
10442000      260.577   -9123.8433   -8130.4049   -9123.8433            0    7180.7675    25.035007     24.95658    23.035768    14392.475    5624.1729     8316.618    7601.5116   -774.61978    -419.1708    374.64453   -6623.1655 
10443000    259.75589   -9156.7089    -8166.401   -9156.7089            0    6013.0306    25.087332     24.91713    23.087305    14431.974    4942.8518    7790.3714    5305.8686    43.737319    388.84727     695.0068   -6900.8052 
10444000    249.32066   -9117.1423   -8166.6183   -9117.1423            0    6458.3956    25.015077    25.049157    23.045268    14440.317    7190.7881    5923.3059    6261.0928    85.487251   -545.03648   -634.39094   -6806.4982 
10445000    254.88104   -9124.8316   -8153.1088   -9124.8316            0    6672.1147    25.000138    25.110997    22.956125    14411.359    6413.3853    5556.0208    8046.9382   -469.91511    204.51107    783.47097   -6750.7979 
10446000    260.26823   -9130.6157   -8138.3545   -9130.6157            0    6835.4456    24.911339    25.080659    23.082142    14421.556    7540.6098    5722.4232    7243.3038    1095.7905   -1118.1442   -200.87929   -6700.6989 
10447000    258.73417   -9133.4117   -8146.9991   -9133.4117            0    6344.8788    24.950237    25.020003    23.097778    14418.904    7293.8068    5456.4227     6284.407    343.21326    4.0364851    431.06301   -6812.7667 
10448000    250.80052   -9087.3583   -8131.1924   -9087.3583            0    6715.9956    25.001771    25.048711     23.11846    14478.216    5941.3793    7604.8578    6601.7497   -1642.4729    439.91056   -681.75503   -6713.1104 
10449000    255.95978   -9095.1042   -8119.2687   -9095.1042            0    6061.7124    25.116473    25.079046     22.99154    14482.306    5922.4223    5625.8572    6636.8576    109.99347   -1014.5248   -49.424051    -6838.977 
10450000    259.12624   -9137.1244    -8149.217   -9137.1244            0    7180.7574    25.022466    25.001063    23.053555    14422.033    6116.9174     8071.159    7354.1957   -187.75756   -1469.9446    367.79471   -6638.8842 
10451000    264.92242    -9120.945     -8110.94    -9120.945            0    8597.8798    24.952759    24.894006    23.144393    14376.699     7979.631    8810.5042    9003.5041    205.16618   -739.00494   -1191.7489   -6308.2277 
10452000    257.77816    -9145.767   -8162.9991    -9145.767            0    8141.8293    25.048342    25.009411    22.892187    14340.679    7117.7214    8089.5229    9218.2436   -318.43534   -1212.0178     921.5115   -6460.1836 
10453000    257.10823   -9183.6497   -8203.4358   -9183.6497            0    7786.6049    25.011737    24.969244     22.94281    14328.339     7400.714    7573.6858    8385.4149   -112.64499   -763.28131   -288.56796   -6576.3147 
10454000    262.22196   -9122.7858   -8123.0761   -9122.7858            0    8019.6292    24.873125      24.9267    23.138139     14345.76    8624.6305    7799.3686    7634.8884   -545.59776     -383.376    280.94888   -6445.2237 
10455000    254.72844    -9147.198    -8176.057    -9147.198            0    7040.2958    24.911842    25.030377    23.058439    14378.154    8047.7561     6293.653    6779.4783    545.91494   -472.69735     811.3332    -6699.773 
10456000    240.72254   -9148.3781    -8230.634   -9148.3781            0    7519.7067    25.033256    25.069025    22.909039    14376.781    6509.6183    7165.4957    8884.0059    135.52811   -1575.0187    -469.3025   -6653.9726 
10457000    256.14821   -9117.6637   -8141.1099   -9117.6637            0    7995.5423    24.918224    25.075188    22.965202    14349.328    8619.7493    7222.6958    8144.1818     330.8719    -134.4233   -152.71192    -6467.881 
10458000    253.04152   -9111.4197   -8146.7101   -9111.4197            0    7488.4464    24.872408    24.968162    23.179638     14394.98    7947.5724    7465.6661    7052.1009   -515.67625   -639.45307    388.74184   -6574.6154 
10459000    254.25048   -9080.0742   -8110.7555   -9080.0742            0    7265.5524    24.957881    25.179689    22.942941    14418.071    7366.1931    6083.7181     8346.746    581.61651    1071.4473    225.15178   -6583.0076 
10460000    259.89814   -9126.0567   -8135.2064   -9126.0567            0    6305.5591    25.012316    25.075536    23.008937    14431.142    4826.1928    7829.4338    6261.0506    -50.09616    122.72771    1031.1077   -6808.1171 
10461000    257.42371   -9106.1543   -8124.7377   -9106.1543            0    5800.0593    24.947625    25.069896    23.171553    14492.286    6342.4765    5901.1211    5156.5801    286.30516   -389.82228    141.83358   -6898.8655 
10462000    258.27815   -9149.8183   -8165.1442   -9149.8183            0    6917.5803    24.983754    25.036248     23.03198    14406.491    6070.7732    7471.0165    7210.9511   -823.56755   -894.72039    490.52548   -6711.7337 
10463000    244.42329   -9100.5902   -8168.7371   -9100.5902            0    7319.4312    25.101981     25.11145    22.879349    14421.932    6834.4745    6502.9648    8620.8544    198.33875   -170.91246   -563.79776   -6629.2479 
10464000    248.50558   -9080.0423   -8132.6257   -9080.0423            0    7748.8257    24.917361    24.944464    23.153254     14390.91     8938.228    8058.3604    6249.8886   -139.58334     495.2007    271.93197   -6506.3281 
10465000    256.58725   -9153.9547   -8175.7271   -9153.9547            0    7214.8242    24.963575    24.926624    23.159979    14411.474    8485.1977    7028.5349    6130.7399    171.74108     508.9368    605.07661   -6659.3402 
10466000    250.18436   -9147.4872   -8193.6703   -9147.4872            0    6983.9403    25.014598    24.973327    23.025133    14383.749    6404.2746    7340.2797    7207.2666   -784.08743    139.92589   -1503.0087   -6728.6337 
10467000    256.76941   -9105.6438   -8126.7217   -9105.6438            0     8552.835    25.061698    25.011538    22.870131    14335.721    7653.4754     7735.037    10269.993    529.76348    136.67881   -100.94056   -6338.5652 
10468000    252.46838   -9109.3951   -8146.8705   -9109.3951            0    8717.7626    24.911576    24.953047    23.069623    14340.533    9716.1075    7311.3465    9125.8339   -62.529679     56.13536    220.38108   -6323.6205 
10469000    257.94094   -9174.2651   -8190.8766   -9174.2651            0    8237.3005    24.936028    25.014395     22.95922    14321.035    8586.2959    7648.9232    8476.6825    85.160755    485.55163    1857.3155   -6470.4537 
10470000    253.97128   -9121.0266   -8152.7723   -9121.0266            0    8326.3042    24.742789    25.017703    23.188598    14353.922    9866.2678    8491.7461    6620.8986    -603.2492    497.12548   -464.65768   -6409.7669 
10471000    256.71658   -9131.8796   -8153.1589   -9131.8796            0    7895.2467    24.948947    25.086645    22.942519    14359.387    7517.3527    8184.4729    7983.9146   -734.73193   -450.53047    179.95428   -6499.7606 
10472000    255.12592   -9142.1248   -8169.4685   -9142.1248            0    8710.6072    24.912493    24.979515    23.014148     14321.75    9344.9808    8294.3567    8492.4841   -292.01765   -43.850735   -866.45831   -6350.1011 
10473000    255.97106   -9120.5722   -8144.6938   -9120.5722            0    8427.8291    24.908718    24.920062    23.116656    14349.128    9391.9432    8829.6322    7061.9117   -19.855046   -1697.2261    231.56129   -6381.0247 
10474000     269.5787   -9099.4519    -8071.695   -9099.4519            0    9265.4561    24.997497    24.995698    22.860092    14283.669    7965.7257    9501.0495    10329.593    1533.1114    -156.7405    65.540225   -6141.5832 
10475000    251.82082   -9127.6447   -8167.5889   -9127.6447            0    7457.9809    24.971178    25.034746    22.994966    14375.237    6997.0618    7574.6528    7802.2282    441.05755   -450.39827   -329.61016   -6604.0375 
10476000    262.27502   -9148.7603   -8148.8483   -9148.7603            0    8754.9967    24.886627    24.960977    23.050493     14318.84     9431.737    8017.0973    8816.1558   -539.44989    957.92286    660.88259   -6320.5808 
10477000    255.31659   -9100.9267   -8127.5435   -9100.9267            0    6960.2123    24.969376    25.158991    22.959727    14423.399      7745.88    6218.8305    6915.9265   -177.52916   -137.69896   -477.30124   -6663.4594 
10478000    250.68809   -9082.3865   -8126.6492   -9082.3865            0    6825.7548    24.994405    25.086663    23.073601    14467.753    6917.8937    7251.9435    6307.4272     207.3142    378.46734     981.0415   -6686.4331 
10479000    246.25716   -9109.2882   -8170.4436   -9109.2882            0    7202.6874    24.775996    25.088257    23.173823    14404.537    9238.3721     5785.359     6584.331    -211.0228   -1032.1267    1462.5124   -6657.3362 
10480000     256.1232   -9112.3251   -8135.8666   -9112.3251            0    6733.2282    24.964297    25.099882    22.973513    14395.224     6712.508    6071.1728    7416.0038    129.19072    -467.7956    642.53332   -6722.2955 
10481000    264.48468   -9116.8207   -8108.4845   -9116.8207            0    7643.0514    24.993468    25.111619    22.954231    14406.683    7058.7586    6597.4442    9272.9514   -1353.4073    1398.5401    -671.2193   -6502.6283 
10482000    259.87271   -9131.9352    -8141.182   -9131.9352            0    6669.2141    24.875618    24.972158    23.204678    14414.697    6929.3461     7525.291    5553.0051   -89.280493    1065.2411    287.70188    -6739.156 
10483000    255.06579   -9091.7665   -8119.3394   -9091.7665            0    7299.8371    24.968507     25.04179     23.05122    14412.916    6783.5825    7907.2959    7208.6329    59.242401   -57.830365    118.33689   -6584.9312 
10484000    252.04475   -9088.4061   -8127.4966   -9088.4061            0    7341.7042    25.022318    25.026448    22.980543     14390.87    7439.8532    7067.8051    7517.4543   -202.82576   -876.72961    1725.8919   -6586.6485 
10485000    255.49689   -9162.2777    -8188.207   -9162.2777            0    6803.0256    24.978929     25.00345    23.032178    14384.963     6302.553    7292.7391    6813.7847   -1103.9335     286.4444    -627.3791   -6761.0007 
10486000    265.18789   -9143.8911   -8132.8739   -9143.8911            0    8095.9889    24.964982    24.972063    22.991524    14333.539    7397.7497    8008.6216    8881.5954   -392.08587   -15.008346    405.08845   -6440.4887 
10487000    254.44232   -9140.5417   -8170.4916   -9140.5417            0    8525.4313    25.013033    24.973977    22.900016    14305.065    9175.6665    8024.4833    8376.1441    624.64738   -855.00684    -476.6748    -6391.876 
10488000    261.83621   -9085.1314   -8086.8923   -9085.1314            0     8087.132    25.039333    25.038093    22.941125    14382.644    6715.0106    7974.3409    9572.0446    495.81676   -600.66625    191.80849    -6390.567 
10489000    262.52985   -9153.8723   -8152.9888   -9153.8723            0    6295.2009    24.953223    24.922926    23.233516    14449.094    4981.7957    7773.5719    6130.2349   -329.10144   -717.64539   -13.847774   -6826.4312 
10490000    261.68222   -9112.8894   -8115.2374   -9112.8894            0    6687.2541    25.053963    25.042237     23.00314    14432.337    5999.1622    6804.0362    7258.5639   -57.709428    130.61353    756.00984   -6707.6986 
10491000    259.03656   -9129.4768   -8141.9114   -9129.4768            0    6559.7044    25.076025    24.949474    23.054769    14423.839     5524.982    8093.9056    6060.2257    32.722062    174.89106    125.24886   -6762.0323 
10492000    265.96001   -9128.4302   -8114.4693   -9128.4302            0    7113.4563    24.956593    24.877457    23.158346    14378.011    6560.0833     8824.038    5956.2477   -307.64105   -633.31648   -139.91038   -6622.8591 
10493000    250.24861   -9102.7163   -8148.6545   -9102.7163            0    8413.4647    25.000122    24.949181    22.960217    14321.035    8417.7714    7509.1535    9313.4694    742.89862   -123.27485   -16.055006   -6391.4384 
10494000    249.56044   -9125.6731   -8174.2349   -9125.6731            0    7469.8134    25.129271    24.958091    22.934401    14383.967    6455.6129    8095.0045    7858.8227   -552.11096   -676.89335    543.23327   -6607.2518 
10495000    256.82933   -9112.3503   -8133.1998   -9112.3503            0     7211.905    25.057764    24.975938    23.018019    14405.624    7457.1498    7991.6226    6186.9427   -424.34081   -1272.6752    96.078597   -6618.0417 
10496000    247.99714   -9112.8495   -8167.3713   -9112.8495            0    7750.2237    24.951257    24.894524    23.147651    14378.155    9130.8044    8109.4505    6010.4163    324.07788    239.13381   -827.95598   -6542.2219 
10497000     260.1524   -9095.3791   -8103.5595   -9095.3791            0    7656.4605    25.014441    24.991255    23.059717    14415.603    7574.4408    8638.5847     6756.356    1143.3239    256.95216    1157.6682   -6493.8898 
10498000    251.97468   -9156.8037   -8196.1613   -9156.8037            0    5794.1837    25.193906    25.105844    22.865626    14462.835    5441.0915    4527.9286     7413.531   -297.78972    220.20501    271.40096   -6974.0196 
10499000     254.7903   -9184.7672   -8213.3903   -9184.7672            0    7356.2438    24.890489    24.996762    23.070724     14354.18    7319.8291    6718.7197    8030.1825    161.42261   -518.10091   -388.15548   -6673.4269 
10500000    264.41283   -9120.1286   -8112.0663   -9120.1286            0    7260.6003    25.014767    24.994697    23.041715    14406.522     6747.897    8560.6783    6473.2256    280.62198   -257.46589    97.139579   -6586.5826 
Loop time of 554.536 on 64 procs for 250000 steps with 1920 atoms

Performance: 77.903 ns/day, 0.308 hours/ns, 450.827 timesteps/s
190.3% CPU use with 32 MPI tasks x 2 OpenMP threads

MPI task timing breakdown:
Section |  min time  |  avg time  |  max time  |%varavg| %total
---------------------------------------------------------------
Pair    | 68.034     | 74.853     | 82.314     |  42.0 | 13.50
Bond    | 0.55135    | 0.90845    | 1.3159     |  22.2 |  0.16
Kspace  | 243.59     | 254.71     | 266.76     |  32.2 | 45.93
Neigh   | 4.6251     | 5.0826     | 5.8374     |  16.1 |  0.92
Comm    | 87.814     | 97.305     | 104.26     |  45.8 | 17.55
Output  | 0.56023    | 0.56052    | 0.56279    |   0.1 |  0.10
Modify  | 93.148     | 97.457     | 101.45     |  21.3 | 17.57
Other   |            | 23.66      |            |       |  4.27

Nlocal:        60.0000 ave          64 max          56 min
Histogram: 3 2 2 7 0 4 5 5 2 2
Nghost:        3355.34 ave        3392 max        3328 min
Histogram: 5 2 3 6 4 4 2 3 0 3
Neighs:        21072.5 ave       22746 max       19058 min
Histogram: 1 0 4 3 6 5 4 5 2 2

Total # of neighbors = 674321
Ave neighs/atom = 351.20885
Ave special neighs/atom = 2.0000000
Neighbor list builds = 10526
Dangerous builds = 0

unfix		3
unfix		2
unfix		1

write_data	data.final.${pid}
write_data	data.final.0
System init for write_data ...
PPPM initialization ...
  extracting TIP4P info from pair style
  using 12-bit tables for long-range coulomb (../kspace.cpp:340)
  G vector (1/distance) = 0.3742264
  grid = 30 30 30
  stencil order = 5
  estimated absolute RMS force accuracy = 0.0032983631
  estimated relative force accuracy = 9.9329224e-06
  using double precision FFTW3
  3d grid and FFT values/proc = 5400 960
Last active /omp style is kspace_style pppm/tip4p/omp
WARNING: Not all mixed pair coeffs generated from mixing. Use write_data with 'pair ij' option to store all pair coeffs. (../write_data.cpp:312)

write_restart   restart.lmp.${pid}
write_restart   restart.lmp.0
System init for write_restart ...
PPPM initialization ...
  extracting TIP4P info from pair style
  using 12-bit tables for long-range coulomb (../kspace.cpp:340)
  G vector (1/distance) = 0.3742264
  grid = 30 30 30
  stencil order = 5
  estimated absolute RMS force accuracy = 0.0032983631
  estimated relative force accuracy = 9.9329224e-06
  using double precision FFTW3
  3d grid and FFT values/proc = 5400 960
Last active /omp style is kspace_style pppm/tip4p/omp
Total wall time: 0:09:14
