LAMMPS (30 Jul 2021)
  using 1 OpenMP thread(s) per MPI task
package omp 0
using multi-threaded neighbor list subroutines
echo both

include		in.partitions
variable        pid world 0
include		in.temp
variable        temperature equal 261.13
variable	tempDamp equal 100.0
include		in.pressure
variable        pressure equal 8000.0
variable        pressureDamp equal 1000.0 # This is 1 ps
include		in.seed
variable        seed world 745823

units		real
atom_style	full

read_restart	restart.lmp.${pid}
read_restart	restart.lmp.0
Reading restart file ...
  restart file = 30 Jul 2021, LAMMPS = 30 Jul 2021
  restoring atom style full from restart
  orthogonal box = (-0.027360648 0.13759824 0.052696981) to (20.027362 19.862403 20.647301)
  4 by 4 by 4 MPI processor grid
  restoring pair style lj/cut/tip4p/long/omp from restart
  restoring bond style harmonic/omp from restart
  restoring angle style harmonic/omp from restart
  972 atoms
  648 bonds
  324 angles
Finding 1-2 1-3 1-4 neighbors ...
  special bond factors lj:    0        0        0       
  special bond factors coul:  0        0        0       
     2 = max # of 1-2 neighbors
     1 = max # of 1-3 neighbors
     1 = max # of 1-4 neighbors
     2 = max # of special neighbors
  special bonds CPU = 1.658 seconds
  read_restart CPU = 1.962 seconds
include 	in.setup
variable	out_freq equal 1000
variable	out_freq2 equal 10000
variable	out_freq3 equal 1000

timestep	2.0

neigh_modify    delay 7 every 1

include		in.tip4p
# This is TIP4P/Ice

# create groups ###
group ox type 2
324 atoms in group ox
group hy type 1
648 atoms in group hy

# set charges - beside manually ###
set group ox charge -1.1794
Setting atom values ...
  324 settings made for charge
set group hy charge 0.5897
Setting atom values ...
  648 settings made for charge

# ### TIP3P Potential Parameters ###
pair_style lj/cut/tip4p/long/omp 2 1 1 1 0.1577 8.5
pair_coeff 1 1*2 0.000 0.000
pair_coeff 2 2 0.21084 3.1668
bond_style  harmonic
bond_coeff  1 450 0.9572
angle_style harmonic
angle_coeff 1 55 104.52
kspace_style pppm/tip4p/omp 1.0e-5
pair_modify tail yes

thermo          ${out_freq}
thermo          1000
thermo_style    custom step temp pe etotal epair emol press lx ly lz vol pxx pyy pzz pxy pxz pyz enthalpy

restart 	${out_freq3} restart.lmp.${pid} restart2.lmp.${pid}
restart 	1000 restart.lmp.${pid} restart2.lmp.${pid}
restart 	1000 restart.lmp.0 restart2.lmp.${pid}
restart 	1000 restart.lmp.0 restart2.lmp.0


include         in.dump
dump            myDump all atom ${out_freq2} dump.water.${pid}
dump            myDump all atom 10000 dump.water.${pid}
dump            myDump all atom 10000 dump.water.0
dump            myDump2 all dcd ${out_freq2} dump.dcd
dump            myDump2 all dcd 10000 dump.dcd
dump_modify     myDump append yes
dump_modify     myDump2 append yes


variable natoms 	equal  "count(all)"                        # NUMBER ATOMS
variable H      	equal  "enthalpy/v_natoms"                 # ENTHALPY-per-atom
variable Vol      	equal  "vol/v_natoms"                 # volume-per-atom
fix AVG all 		ave/time ${out_freq} 1 ${out_freq} v_Vol v_H file vol_enthalpy.dat
fix AVG all 		ave/time 1000 1 ${out_freq} v_Vol v_H file vol_enthalpy.dat
fix AVG all 		ave/time 1000 1 1000 v_Vol v_H file vol_enthalpy.dat


timer           timeout 02:55:00 every 1000
New timer settings: style=normal  mode=nosync  timeout=02:55:00

fix 		1 all shake 1e-6 200 0 b 1 a 1
       0 = # of size 2 clusters
       0 = # of size 3 clusters
       0 = # of size 4 clusters
     324 = # of frozen angles
  find clusters CPU = 0.006 seconds
fix             2 all nph aniso ${pressure} ${pressure} ${pressureDamp}
fix             2 all nph aniso 8000 ${pressure} ${pressureDamp}
fix             2 all nph aniso 8000 8000 ${pressureDamp}
fix             2 all nph aniso 8000 8000 1000
fix             3 all temp/csvr ${temperature} ${temperature} ${tempDamp} ${seed}
fix             3 all temp/csvr 261.13 ${temperature} ${tempDamp} ${seed}
fix             3 all temp/csvr 261.13 261.13 ${tempDamp} ${seed}
fix             3 all temp/csvr 261.13 261.13 100 ${seed}
fix             3 all temp/csvr 261.13 261.13 100 745823


run             250000
PPPM initialization ...
  extracting TIP4P info from pair style
  using 12-bit tables for long-range coulomb (../kspace.cpp:340)
  G vector (1/distance) = 0.37177285
  grid = 24 24 24
  stencil order = 5
  estimated absolute RMS force accuracy = 0.0035627954
  estimated relative force accuracy = 1.0729252e-05
  using double precision FFTW3
  3d grid and FFT values/proc = 2197 216
Last active /omp style is kspace_style pppm/tip4p/omp
Neighbor list info ...
  update every 1 steps, delay 7 steps, check yes
  max neighbors/atom: 2000, page size: 100000
  master list distance cutoff = 10.8154
  ghost atom cutoff = 10.8154
  binsize = 5.4077, bins = 4 4 4
  1 neighbor lists, perpetual/occasional/extra = 1 0 0
  (1) pair lj/cut/tip4p/long/omp, perpetual
      attributes: half, newton on, omp
      pair build: half/bin/newton/omp
      stencil: half/bin/3d
      bin: standard
Per MPI rank memory allocation (min/avg/max) = 9.224 | 9.226 | 9.228 Mbytes
Step Temp PotEng TotEng E_pair E_mol Press Lx Ly Lz Volume Pxx Pyy Pzz Pxy Pxz Pyz Enthalpy 
16000000    279.08863   -4691.1531   -4152.9072   -4691.1531            0    8524.6042    20.054722    19.724805    20.594604    8146.7203    8250.8348    9169.0016    8153.9761    393.10265    2110.4689    896.03916   -3140.0857 
16001000    264.45917    -4715.924   -4205.8922    -4715.924            0    5613.7935    19.775144    19.923723     20.72025    8163.6641    5584.7883    7837.9641     3418.628    648.32278    1570.3064    569.02925   -3537.5215 
16002000    261.60482   -4704.3165   -4199.7896   -4704.3165            0    7683.4382    19.867913    19.835488    20.808758     8200.518    9479.8889    8113.7778    5456.6479    -665.1688    271.72779    993.15155     -3280.88 
16003000    262.41138   -4719.0021   -4212.9197   -4719.0021            0     6647.072    19.869741     20.03789      20.5465    8180.5414    6815.0191    6450.2464    6675.9506   -216.37918    408.64013   -293.52813   -3419.8921 
16004000    246.78063   -4706.2578   -4230.3206   -4706.2578            0    9079.3013     19.84561    20.120911    20.233584    8079.5082    9334.6785    7648.7987    10254.427    382.27198   -425.86059    1406.7454   -3160.4944 
16005000    260.60367   -4694.4958   -4191.8997   -4694.4958            0    9449.0632    19.864074    19.978778    20.399799    8095.8632    9959.2356    8313.4471    10074.507     208.4616    1386.2943   -1170.3656   -3076.2502 
16006000    268.76187   -4708.2563   -4189.9264   -4708.2563            0    6547.0286    20.064832     19.93085     20.42832    8169.4723    6154.1374    6459.7254    7027.2231   -119.59478   -1430.3735     228.5375   -3409.8914 
16007000    270.79356     -4708.35   -4186.1018     -4708.35            0    6297.8311     19.82968    19.881608    20.617447    8128.3447    8102.5369     5229.308    5561.6484   -609.71426   -1338.0395   -83.960258   -3439.5344 
16008000     274.4431   -4718.7959   -4189.5093   -4718.7959            0    7837.9602    19.864682    19.925804    20.470152    8102.4909     7553.964    7403.8985     8556.018    163.62081     180.1646    502.10273   -3263.3248 
16009000    269.57258   -4684.9391   -4165.0457   -4684.9391            0    8066.6215    19.972403    19.821015    20.514098    8120.9834    8182.7436    8692.4532    7324.6678   -350.32327    633.08785   -1064.9121   -3209.6656 
16010000    268.96744   -4692.9901   -4174.2637   -4692.9901            0    8649.3333    20.079384     19.75645    20.352422    8073.7513    7885.7633    8671.1983    9391.0384    442.32469    -679.6563    143.92605   -3155.8274 
16011000    258.15848   -4693.9206   -4196.0402   -4693.9206            0    9380.4139    19.952876    19.923159    20.415627    8115.7085    10102.567    9081.6426    8957.0319   -341.82571    53.274442    1418.8349   -3085.7812 
16012000    275.69429   -4678.6859   -4146.9863   -4678.6859            0    8288.9055    19.925054    19.621011    20.779875    8123.8862    6155.2954    10641.492    8069.9293   -189.95444    3200.1694    864.94336   -3164.9288 
16013000    274.70052   -4677.4421    -4147.659   -4677.4421            0    6908.9028    19.857108    19.745881    20.809821    8159.4492    7605.2537    5777.7861    7343.6686    1066.3409     -1118.59    -1563.908   -3325.5189 
16014000    260.26536    -4707.542   -4205.5984    -4707.542            0    9198.8357    19.768728    19.868993    20.601958    8092.1342     10852.05    7465.6221     9278.835   -364.10991    810.14801   -1283.0587   -3119.9934 
16015000    258.09295   -4694.5737   -4196.8197   -4694.5737            0    8866.6231    20.051442    19.852332    20.359843    8104.5994     7860.543    8538.5433    10200.783   -279.94345   -758.54031   -575.66248   -3148.8091 
16016000    254.58793   -4683.2689   -4192.2747   -4683.2689            0    8323.7233    19.829006    19.986143    20.535851    8138.4677    9969.0755    7483.1002    7518.9942    676.84896   0.92600506   -149.38165   -3204.3219 
16017000    256.29431   -4698.6071    -4204.322   -4698.6071            0    6098.1253    19.993478    19.801482    20.680296    8187.3395    6086.4454    6399.3946    5808.5358    531.25302     -1426.33    134.38475   -3476.1818 
16018000    260.54551   -4727.9113   -4225.4274   -4727.9113            0    8882.9362      19.7832    19.851853    20.509323    8054.6917    8932.5134     8594.372    9121.9232    1240.1434   -974.36695    939.56096    -3181.954 
16019000    261.58756   -4698.4214   -4193.9278   -4698.4214            0    8041.5392    20.009825    19.909808     20.43933    8142.8613    8198.7502    6578.6483     9347.219   -410.39223    105.43309    535.28209   -3238.9526 
16020000    256.76217   -4697.3166   -4202.1291   -4697.3166            0    8029.0212    20.013449     19.95339    20.490057    8182.4208    7577.9108    7837.5781    8671.5749    110.21809    -659.4866   -970.33875   -3244.0083 
16021000    250.41559   -4706.9246   -4223.9771   -4706.9246            0    7953.3627    19.992706    19.646874    20.744232    8148.2136    8176.7695    9157.7411    6525.5776   -14.559319   -586.81638   -442.38735   -3278.8524 
16022000    270.15524   -4710.1479   -4189.1308   -4710.1479            0    7121.3146     19.86812     19.86463     20.61345     8135.569    7573.3961    7816.3657    5974.1821   -33.394257   -239.31481   -183.33306   -3344.1944 
16023000    267.94645   -4743.8375   -4227.0802   -4743.8375            0    5677.3244    20.020011    19.683985    20.697212    8156.2245    5887.8831    4890.6438    6253.4462   -242.08986    271.60973   -812.07083   -3551.7616 
16024000    272.78131   -4669.6415   -4143.5598   -4669.6415            0    8744.9049    19.690918    20.057253    20.444306    8074.3911    8915.4297    9567.2904    7751.9945   -331.29113   -824.82678    1103.5966   -3113.7886 
16025000    270.76266   -4687.4978   -4165.3092   -4687.4978            0    7510.6035    20.098709    19.761016    20.525111     8151.977    7336.4421    6414.5621    8780.8064    162.94191    22.504676    285.83934   -3272.3869 
16026000    271.22229   -4694.7964   -4171.7214   -4694.7964            0    5995.4963    20.036032    19.910377    20.697225    8256.6391    4851.2961    6591.4882    6543.7047    823.23875   -897.41231   -71.905272    -3449.776 
16027000    278.06726   -4679.0001    -4142.724   -4679.0001            0    10693.428    19.641484    19.661299    20.896956    8069.9257    11815.398     10599.69    9665.1951   -1183.4297    805.89166    -802.3911   -2884.1975 
16028000    255.23571   -4698.4119   -4206.1684   -4698.4119            0    8860.3283    19.917078     19.88262    20.513249    8123.3227    7543.8194    10439.517    8597.6486   -8.7924118   -656.69858    1719.7913   -3156.4824 
16029000     258.4826   -4678.3296   -4179.8242   -4678.3296            0    7247.0651    20.189368    19.974234       20.168    8133.0922    6228.3332    6802.3016    8710.5605    417.24939    1537.9007   -1384.7149   -3320.2294 
16030000    271.35204   -4695.5307   -4172.2055   -4695.5307            0    7437.5215    19.877979    19.856456    20.542273    8108.1626    8244.0159    7860.8528    6207.6959    415.90822   -332.02123    -786.2585   -3292.7242 
16031000    272.58317   -4682.9856   -4157.2861   -4682.9856            0    8214.9323    19.948462     19.63142    20.652522    8087.8712    9752.7522    8275.7924    6616.2522    826.95861    50.906818    107.00151   -3188.3076 
16032000    267.18212   -4691.1523   -4175.8692   -4691.1523            0    6958.8946    19.907467    19.991925    20.455286    8140.9705    6695.9622    6121.4143    8059.3074   -697.28091    578.15991   -1050.4387   -3349.6556 
16033000    262.68258   -4690.5041   -4183.8987   -4690.5041            0    9815.2563    20.013293     19.91711    20.254153    8073.4468    9140.7588    11059.682    9245.3282    -782.4083     1474.631   -1040.2153   -3028.2215 
16034000    255.04876   -4706.8845   -4215.0015   -4706.8845            0    8582.5793    19.861752    19.875221    20.456818    8075.4661    8473.2959     9248.439     8026.003    155.95951    829.45402    331.65059   -3204.2107 
16035000    253.65132   -4733.0049    -4243.817   -4733.0049            0    8539.6568    19.942488    19.628771    20.693657    8100.4602    9796.8968    9799.6955    6022.3781    219.38846     305.5308   -45.695287   -3234.9684 
16036000    262.65661   -4729.8988   -4223.3434   -4729.8988            0    6846.7402    19.835193    19.998318    20.509474    8135.5034    7475.5979     7663.324    5401.2987    64.842833    98.729585   -78.402523   -3410.9916 
16037000    267.27839   -4716.9795   -4201.5106   -4716.9795            0    7374.3319    19.861349    20.071788    20.420905    8140.8506    7889.4482    5821.3374      8412.21   -457.49445     597.7946    345.56102    -3325.986 
16038000    260.43345    -4672.345   -4170.0772    -4672.345            0    9073.0032    20.051335    19.639488    20.553992    8094.1198    9461.3833    9584.3594    8173.2668    78.461202    1566.2205    1111.8941   -3099.0596 
16039000    254.31044    -4714.374   -4223.9149    -4714.374            0    6061.7281    19.731892    20.187561    20.566644    8192.4918    7785.7886     4547.214    5852.1817    -124.6472    1506.8696    530.53028   -3499.6652 
16040000    246.42466   -4666.6835   -4191.4328   -4666.6835            0    9601.0959    20.102526    19.690517    20.353851     8056.647    9623.3286    10718.228    8461.7313   -695.06424    -565.7879   -1918.2887   -3063.3239 
16041000    254.75189   -4676.8642   -4185.5538   -4676.8642            0    7665.6764    19.775749    20.035684     20.52507    8132.4564    9863.5343    4847.0632    8286.4317    657.11568    966.63283    1157.6326   -3276.3775 
16042000    253.60712   -4704.6263   -4215.5236   -4704.6263            0     6730.423    20.376115    19.640481    20.532002    8216.8393    4264.0092     8315.293    7611.9666    151.37351    -605.2813   -573.06634   -3408.9889 
16043000    262.12319   -4683.6374   -4178.1108   -4683.6374            0    8061.5092    19.825135    20.019966    20.442153    8113.4604    6097.4778    10130.617    7956.4328    110.78388     1739.273   -184.48733   -3224.2207 
16044000    259.99526   -4728.0759   -4226.6532   -4728.0759            0    8501.3455    19.885447     19.89498    20.565967    8136.3197     8222.973    8529.8342    8751.2293   -183.93055    209.27688   -397.93381   -3217.8846 
16045000    249.90699   -4715.8189   -4233.8523   -4715.8189            0     8535.996     19.75934     19.85841    20.676593    8113.2693    9551.3554    9559.9647    6496.6678   -69.164254    347.99381   -870.67351   -3223.8416 
16046000    257.77248   -4721.5576   -4224.4217   -4721.5576            0    7085.9155    20.084215    19.922122    20.657189    8265.3584    6300.1229    7438.5401    7519.0834   -736.28525   -605.96956   -1874.2358   -3370.2729 
16047000    263.13304   -4707.0083   -4199.5341   -4707.0083            0    9112.9367    19.684864    20.071769    20.523328     8108.973     9891.844    8451.0411    8995.9249   -228.07124   -7.2701381   -1111.4512   -3121.8286 
16048000    252.21398   -4709.5903   -4223.1744   -4709.5903            0    8133.3354    19.711157    19.806142    20.788525    8115.8816    9467.8957    7906.9889    7025.1215   -356.94701   -621.32671    464.18834   -3260.4981 
16049000    255.80745   -4680.4948   -4187.1486   -4680.4948            0    9052.1941    19.819089    20.001439    20.464408     8112.302    8811.5868    11639.617    6705.3784   -222.44666   -7.8634772    419.51121   -3116.1871 
16050000    253.16519   -4706.5266   -4218.2762   -4706.5266            0    8402.4152    19.887164    19.869531    20.472332    8089.6136    8472.8143    8446.2398    8288.1915   -778.80754    74.398369    1495.1547   -3226.9701 
16051000     274.1569   -4655.0468   -4126.3121   -4655.0468            0    8259.7987    19.861299    20.041077    20.364247    8105.8219    9249.0162    7172.1791    8358.2009   -1401.1878    36.879638    1347.1483   -3149.8792 
16052000    255.50646   -4711.6903   -4218.9246   -4711.6903            0    8048.7548    19.963212     19.66332    20.729901    8137.3778    7677.1202    9373.8385    7095.3056    46.753201   -1052.6056     1036.034   -3263.7361 
16053000    253.76553   -4712.8243   -4223.4162   -4712.8243            0    8089.0128    19.821666     20.03073    20.447437    8118.5005    7699.5053    7769.1473    8798.3858    201.25957    147.82183    530.86266    -3265.677 
16054000    266.19462    -4674.046   -4160.6673    -4674.046            0    7173.7638    20.121523    19.726572    20.623067    8185.8868     6645.869    7887.9382    6987.4842    -378.6588    1907.0831    -465.9869   -3304.2436 
16055000    259.42615   -4696.4051   -4196.0799   -4696.4051            0    7342.4093    19.998288    19.968822    20.498734    8186.0107    6967.0981    6807.8175    8252.3121    481.21771    1196.9126   -1071.3959   -3319.5096 
16056000    264.13885   -4660.9667   -4151.5527   -4660.9667            0    6373.9674    19.927364    20.147751    20.230149    8122.2344    5022.3832    6640.3908    7459.1282   -144.14178   -796.53287    426.86239   -3396.5279 
16057000    248.75176   -4708.7553   -4229.0166   -4708.7553            0    7999.6913    19.950198    19.922002    20.433137    8121.1069    5868.8065    9988.8342    8141.4331    775.94533    373.93907   -989.07048    -3281.549 
16058000    267.13818   -4723.0776   -4207.8791   -4723.0776            0    5632.2378    20.165733    19.819774    20.524763     8203.343    5508.1525    5459.4478    5929.1131   -941.73892    471.45952   -392.21683   -3534.0532 
16059000    257.19701   -4708.7353   -4212.7093   -4708.7353            0    7009.7131    19.784044    19.965491    20.791375    8212.5544    6877.3922    7974.8435    6176.9035   -139.20982    -696.9412    114.61955   -3373.1442 
16060000    260.19131   -4708.5557   -4206.7549   -4708.5557            0    6785.5549    19.859367    19.989388    20.615746    8183.9686    6879.5526    6682.2033    6794.9086   -144.78443    2082.0039   -155.40573   -3396.8665 
16061000     260.1983   -4692.1062   -4190.2919   -4692.1062            0    7136.9869    19.950917    19.883791     20.64742    8190.8286    6688.4579     7906.375    6816.1279   -120.26192    1264.4247   -283.90454   -3337.7443 
16062000    276.72159   -4691.6925   -4158.0116   -4691.6925            0    6728.7703    19.877782    19.928469    20.696128     8198.435    5332.0173    7960.8542    6893.4395   -407.26445   -638.04905   -23.375806    -3353.481 
16063000    261.10158   -4675.4969   -4171.9405   -4675.4969            0    8757.0744     19.91408    19.960891    20.447372    8127.8871    10774.485    6960.7612    8535.9769    -106.9345    2347.9012   -1100.6727   -3133.9041 
16064000    257.17242   -4692.4518   -4196.4731   -4692.4518            0    7619.6758    19.859043    19.947392     20.50419      8122.45    6376.9774    8012.8762    8469.1737   -474.00816    288.34119   -66.424151   -3293.8646 
16065000    259.97397   -4709.4147    -4208.033   -4709.4147            0    8774.8197    20.016066    19.635316    20.665303    8121.9141    9165.5236    9589.3742    7569.5613   -969.14659    1210.9086   -1003.6156   -3168.6575 
16066000     265.1739   -4663.4511   -4152.0409   -4663.4511            0    7012.9916    19.827809    20.075682    20.581343    8192.5431    6863.6486    7972.8031    6202.5231    63.166539    63.337943    1111.5396   -3314.1298 
16067000    254.89422   -4703.9605   -4212.3755   -4703.9605            0    6917.8273     19.93465    20.009797    20.477801    8168.3551    5300.8985    7922.1925     7530.391   -580.00363    116.94452    394.89951    -3388.275 
16068000    254.29774    -4677.013   -4186.5785    -4677.013            0    8795.8001    19.626651    20.039808      20.5167    8069.5118    8492.0525    8721.4656    9173.8821   -181.87089   -35.031211    1389.6465   -3151.4399 
16069000    255.62313   -4726.6373   -4233.6466   -4726.6373            0    7176.1001     19.98894    19.734865    20.591264    8122.8219    5986.6311    9244.5663    6297.1028    126.72162   -761.61066   -1416.5082   -3383.5441 
16070000    258.96062   -4686.8035   -4187.3762   -4686.8035            0    7305.8267     19.95819    19.951402    20.529073    8174.5513    7331.1922    7059.6071    7526.6807   -126.92498   -467.02781   -1608.2164   -3316.3942 
16071000    258.34248   -4684.4266   -4186.1914   -4684.4266            0     8305.597    20.250183    19.607111    20.563307    8164.6114    5866.6127    10346.365    8703.8133   -121.94885    -561.2627   -1332.6099   -3197.2233 
16072000    271.70484   -4656.0746   -4132.0689   -4656.0746            0    8349.6891    19.750503    20.075594    20.444886    8106.4603    11158.013    6378.7612    7512.2935    138.97059    423.52047    327.55185   -3144.9319 
16073000    250.14407   -4715.4352   -4233.0113   -4715.4352            0    7555.3541    20.055592    19.762858    20.448254    8104.7846    7337.3209    7368.9581    7959.7834    570.08504    236.79183   -1009.2075   -3339.9687 
16074000    261.35811   -4728.6121    -4224.561   -4728.6121            0     8558.242    19.881487    19.916576    20.492107    8114.2827    9097.3496    8177.9963    8399.3801   -131.53805    91.870276    437.24178   -3211.7915 
16075000    256.21063   -4693.3029   -4199.1791   -4693.3029            0    8394.6834    19.876235    19.840167    20.607641    8126.5786    7653.5461    8276.9936    9253.5103   -312.06571    1577.8939    1638.4025   -3204.2596 
16076000    266.43816   -4709.7784     -4195.93   -4709.7784            0    8464.9454    20.052592    19.702511     20.41077    8064.0179    8591.9354    8016.1392    8786.7618    569.97137   -1270.0374   -80.063039   -3200.4064 
16077000    253.15333   -4715.5222   -4227.2948   -4715.5222            0    8475.0287    20.111573    19.752149     20.45292    8124.8566    7773.9556    8800.5777    8850.5528    681.93658   -1114.7583     301.7864   -3223.0657 
16078000    259.63741   -4668.6838   -4167.9513   -4668.6838            0     7161.297    19.997679    19.931497    20.606826    8213.5443    7569.9871    6438.8881    7475.0159   -152.81775    139.16515   -275.12143   -3310.1273 
16079000    250.53381   -4704.7716   -4221.5961   -4704.7716            0    6658.6759    20.009693     20.01769    20.304754    8133.0254    5651.3638    6732.7197    7591.9444   -593.47704   -568.04145   -464.21648   -3431.7983 
16080000    262.76001   -4683.4615   -4176.7068   -4683.4615            0    7083.8766    19.859999    20.145452    20.377446    8152.7851    8081.5101    4948.5522    8221.5674   -61.771978   -288.85877   -1138.1893   -3334.4338 
16081000    271.50286   -4705.3424   -4181.7263   -4705.3424            0    9144.4509     20.00024    19.744224    20.555247    8117.0456    10854.621    7127.1166    9451.6148   -556.41156   -1318.7784     1232.826   -3099.2173 
16082000    253.31328   -4703.9722   -4215.4362   -4703.9722            0    7336.9494    19.900076    20.046949     20.41202    8143.0858    7042.8804    8713.3146    6254.6534   -482.75131     1577.175   -1049.3054   -3344.1107 
16083000    261.63927   -4677.9778   -4173.3845   -4677.9778            0    11114.445    19.938957    19.948241    20.344583    8091.9992    12481.582    9716.5943    11145.159    269.16804   -238.02934      -1165.5   -2861.7298 
16084000    267.22438   -4674.6185   -4159.2538   -4674.6185            0     7246.725    19.975461    19.926037    20.491562    8156.2926    6577.6816    7037.1173    8125.3761   -470.50087   -571.13194    73.902413   -3297.2474 
16085000    253.76562   -4708.1407   -4218.7324   -4708.1407            0     7352.178    19.830775    19.856266    20.605725    8113.8167    8165.5385    7350.5487    6540.4466    596.81397    64.183087   -766.97053   -3348.7367 
16086000    261.55493   -4706.2852   -4201.8545   -4706.2852            0    8295.4704    19.444346    19.902172    20.879152     8079.913    10605.589    7846.5986    6434.2239    253.28239    164.53918    297.44636   -3224.3392 
16087000    252.64354   -4701.7155   -4214.4712   -4701.7155            0    8899.7799    19.881637    19.697377    20.658826    8090.3287    9033.4271    9414.7591    8251.1534     128.0724   -545.04348   -2780.8991   -3164.3938 
16088000    252.77466   -4688.8542    -4201.357   -4688.8542            0    8197.7205    20.125839    19.896259    20.303133    8129.9613    7077.5425    8835.4198    8680.1991   -388.29339   -1354.7371    806.90746   -3229.3766 
16089000    247.91765   -4720.4458   -4242.3158   -4720.4458            0    6497.5063    19.721519    19.889751    20.657121    8102.8821    8769.7639    5483.5831     5239.172    58.124492   -585.60386    294.30335    -3474.491 
16090000    249.02766   -4686.9346   -4206.6638   -4686.9346            0    8426.4591    19.839192    19.783149    20.769694    8151.7245    9986.5981    8661.1045    6631.6746    182.09726    163.76184     18.02347   -3204.8881 
16091000    260.11332   -4708.7777   -4207.1272   -4708.7777            0    7971.4262    19.812578    19.965077    20.525247    8118.9596    6558.5534    9047.2082    8308.5171     367.0527    607.11742   -137.61974    -3263.257 
16092000    257.89277   -4717.4434   -4220.0755   -4717.4434            0    7351.0373    19.728501    19.923603    20.719175    8143.9373    7827.2435    8818.6726    5407.1958    72.424067    661.97346    1163.2465   -3346.9857 
16093000    262.27373    -4672.144    -4166.327    -4672.144            0    8038.6524    19.841992    19.826186    20.532521    8077.3091     7557.377    8193.4695    8365.1109    469.71626   -825.53729    540.38218   -3219.3797 
16094000    257.14158    -4702.012   -4206.0929    -4702.012            0    8314.8862    19.938506    19.966614    20.464477    8146.9993    7447.7222    8866.3258    8630.6106   -169.86345    713.74021     1150.234   -3218.1544 
16095000    253.16135   -4721.2899    -4233.047   -4721.2899            0    7997.7588     19.97603    19.919154    20.253619    8059.0286    9115.7051    7522.6022    7354.9692     1039.056     1695.285    1362.7756   -3293.0491 
16096000    254.47366   -4680.9299   -4190.1561   -4680.9299            0    8878.4306    19.921944    19.867366    20.644466    8171.0085    8993.0145    8761.6738    8880.6036   -55.646521    627.11545    -172.3362    -3132.151 
16097000    268.20365   -4711.5773    -4194.324   -4711.5773            0    5680.3874    19.903699    19.664748    20.844735     8158.655    5221.9383    6081.5627    5737.6612    -567.9839    1574.7007   -1170.9285   -3518.4396 
16098000    269.71293   -4710.2308   -4190.0668   -4710.2308            0     10276.64    19.427318    19.908744    20.769493    8033.0891    11048.753    10834.547    8946.6204   -743.58834    259.76478   -712.78903   -2986.1135 
16099000    252.64898   -4683.5351   -4196.2803   -4683.5351            0    8117.2441    20.093679    19.680552    20.515675    8113.0198    6540.6675    9492.9352    8318.1298    145.57045   -340.50624   -30.200945   -3235.8474 
16100000    257.67726   -4691.8167   -4194.8644   -4691.8167            0    8778.5208    19.856387    19.999258    20.479965    8132.8606    7459.1496     9776.911    9099.5018   -236.57542    1703.7837   -774.10948   -3153.6491 
16101000    241.94981    -4703.198   -4236.5774    -4703.198            0    8484.8377    19.876329    19.694883    20.751401    8123.3845    8276.7786    8569.2631    8608.4715   -822.71547    925.83049    42.049336   -3231.3683 
16102000     252.5581   -4688.7216   -4201.6421   -4688.7216            0    6450.2389    20.099918    19.739941    20.657636    8196.3549    5462.8627    6319.7407    7568.1134    608.55303    841.68792   -899.33012     -3430.61 
16103000    267.33359   -4701.0619   -4185.4866   -4701.0619            0    7476.6209     19.76643     20.05356    20.558713    8149.2123    8461.1642    7554.7971    6413.9013    567.19637   -59.704547    613.60795   -3296.9059 
16104000    264.55752   -4686.7833   -4176.5619   -4686.7833            0    8067.9641    19.868712    19.905594    20.486657    8102.4426     6953.289     9428.475    7822.1284   -125.74355   -1072.6429   -67.340073   -3223.2043 
16105000    252.22516    -4640.309   -4153.8715    -4640.309            0    7907.8973    19.850466    20.092213    20.493061    8173.4485    7769.0536    8375.1664     7579.472    454.16874    1202.3344    1528.2842   -3211.2394 
16106000    262.40881   -4725.7844    -4219.707   -4725.7844            0    10613.928    19.901048     19.73852     20.47486    8042.8778    9153.2817    11530.372    11158.129    546.29518   -1639.4546   -937.65535   -2974.7238 
16107000    260.85305   -4698.2623   -4195.1852   -4698.2623            0    7000.3152    19.808777    20.006143    20.577569    8154.8336    5980.4194    9400.6488    5619.8773    338.84235    276.09776   -594.76607   -3362.6385 
16108000    257.40949    -4669.928   -4173.4922    -4669.928            0    7670.5989    19.973808    19.683261    20.788369     8172.941    6579.3883    9534.8002    6897.6083   -408.79054   -1621.5205   -501.18911   -3259.2031 
16109000    260.32018   -4704.7072   -4202.6579   -4704.7072            0    7064.9033    20.016903    19.829512    20.573544    8166.1627    6671.0768    8400.8392    6122.7938    117.15983   -135.64442    22.879485   -3361.2625 
16110000    267.15034   -4693.6551   -4178.4332   -4693.6551            0    6860.6927    19.906674    19.962614    20.605981    8188.5953    5876.6801    8077.8787    6627.5193    1038.3986   -2428.1829   -345.96545   -3359.1137 
16111000    279.60877    -4705.096    -4165.847    -4705.096            0    7995.7055    20.025587     19.91325    20.373033    8124.2465    7482.3558    8484.4978    8020.2629    277.73598    471.53326    1399.1422   -3218.4854 
16112000    259.40097   -4687.4973   -4187.2207   -4687.4973            0     6873.542     19.91732    19.943199    20.480263    8135.0691    6762.7899    8318.5178    5539.3184    517.18462    461.73085   -81.040404   -3371.7324 
16113000    260.42072   -4721.7488   -4219.5055   -4721.7488            0    8735.4874    19.822037    19.862852    20.554019     8092.573     8226.365    9696.9433    8283.1541    481.27207   -912.81307    -564.8844   -3188.5269 
16114000     258.4961   -4678.1297   -4179.5982   -4678.1297            0    9123.3749    19.826668    19.730222    20.634088    8071.7366    10037.851    8684.5985    8647.6756    163.71315    1471.2324   -718.45934   -3105.6128 
16115000    257.72575   -4697.1779   -4200.1321   -4697.1779            0     7762.124    19.805438     19.88153     20.55833    8095.0976    6259.6933    7732.2673    9294.4115    481.18371    1036.8002   -1004.3998   -3283.7459 
16116000    253.87034   -4713.3788   -4223.7684   -4713.3788            0    6768.7828    19.968837    20.124695    20.381773    8190.7569    6651.8226    6215.9993    7438.5266   -165.71647    1326.4432    479.67781   -3415.2117 
16117000    258.28958   -4726.9084   -4228.7753   -4726.9084            0    8454.1751    20.051459    19.733788    20.506681     8114.314    8569.1846    8744.6839    8048.6568    659.02391    420.89032   -559.31497   -3228.3171 
16118000     251.6712   -4707.0377   -4221.6686   -4707.0377            0    7423.0247    19.746015    19.961187    20.716813    8165.6128    10388.919    5448.8526    6431.3021    313.14903    411.01281   -943.02395   -3337.6823 
16119000    244.52866   -4690.0172   -4218.4231   -4690.0172            0    9364.2591    19.883283     19.79123    20.495483    8065.2725    7396.9217    12088.271     8607.585    184.54321    608.87638    400.19172   -3116.9641 
16120000    267.38018   -4708.3395   -4192.6743   -4708.3395            0    8488.0275     19.77603    20.140399    20.444014     8142.792    9346.0465    7157.4137    8960.6222    1015.8971    347.52887    789.97261   -3184.6848 
16121000    256.34337   -4732.6278   -4238.2481   -4732.6278            0    7984.7331    20.090622    19.944301    20.367991    8161.3198    7611.2023    9734.5739    6608.4232    512.82396    636.00667   -1294.2585   -3287.8694 
16122000    263.71399   -4673.6767   -4165.0821   -4673.6767            0    9291.6993     19.79505     19.94118     20.47586    8082.5721     10039.63    8215.6373    9619.8306    154.30567   -620.00481   -73.393711   -3069.8135 
16123000    267.50078   -4703.1503   -4187.2526   -4703.1503            0     8783.204    19.945787     19.63744    20.525684     8039.586    7537.4451    9852.3565    8959.8104    873.03167   -569.32292   -1191.9249   -3157.4297 
16124000     259.1316   -4682.8188   -4183.0617   -4682.8188            0    9108.8857    19.784261     19.95286    20.488041    8087.7074     10053.72    7432.0411    9840.8965    613.08477     715.7805    -518.1351   -3108.6603 
16125000    274.28084   -4699.1802   -4170.2065   -4699.1802            0     8165.371    19.966422    19.820444     20.61261    8157.3032    7874.4576    7973.6023    8648.0532    275.21648   -1638.5858    115.09953   -3198.8058 
16126000    251.45015    -4718.384   -4233.4412    -4718.384            0    7823.3048    19.702102    20.050662    20.694578    8175.1899    9505.8634    7186.5023    6777.5487   -768.36248   -836.14806   -1230.1035   -3300.6939 
16127000    258.59019   -4703.0628   -4204.3499   -4703.0628            0    5627.8959    20.090013    19.945765    20.403837    8176.0355     3036.911    7084.4936    6762.2832    9.5345244   -1435.7815    339.91161   -3533.2847 
16128000    253.47354   -4712.0337   -4223.1887   -4712.0337            0      6440.87    19.874124    19.891715     20.73364    8196.6381    6040.2249    7416.6909    5865.6942    219.45346    402.14477   -515.26983   -3453.2499 
16129000    271.89686    -4671.464   -4147.0881    -4671.464            0    7878.2729    19.713475    20.000566    20.503635     8084.187    8051.6215    7175.2248    8407.9723    350.29066   -543.47877    214.65481   -3218.2431 
16130000    257.04631   -4741.8727   -4246.1372   -4741.8727            0    7400.1554    20.214956    19.603101    20.587274    8158.2388    4274.4482    10437.598    7488.4199    30.193622    -1229.423    195.53719   -3365.6701 
16131000    257.77781   -4731.1437   -4233.9975   -4731.1437            0    9022.8076    19.803534    20.030685     20.28137    8045.1805    9858.2755    7057.8967    10152.251    295.70885    102.36522    48.107385   -3175.3452 
16132000    272.01875   -4688.9004   -4164.2894   -4688.9004            0     8138.002    20.356158    19.602965    20.542613     8197.346    7283.7933    9979.1049    7151.1078   -139.54467    2132.8533   -2105.4807   -3191.3922 
16133000    268.44259   -4685.6959   -4167.9818   -4685.6959            0    7451.9044    19.777441    19.931611    20.713125    8165.0365    9100.0917    6192.8642    7062.7574    323.25424     1407.048   -829.61724   -3280.6188 
16134000    260.11962   -4713.0918   -4211.4293   -4713.0918            0    8561.6624    19.853898    19.696249    20.769964    8122.0388    7583.2956    10181.871    7919.8207    89.731913   -100.42917   -151.52286   -3197.2866 
16135000    256.87368   -4694.7144   -4199.3119   -4694.7144            0    11020.068    19.820661    19.870168    20.438691    8049.5713    12633.992    10117.977    10308.235     59.25726   -447.99075    1242.7561   -2905.6139 
16136000    270.86273     -4714.89   -4192.5085     -4714.89            0    6594.1526    19.931248    19.998702    20.505532    8173.4865    7714.5455    5954.6377    6113.2745    106.68522   -828.62231    970.46852   -3406.4729 
16137000      259.126    -4718.299   -4218.5527    -4718.299            0    8322.9189    20.018614    20.035007    20.208148    8104.9438    6289.7262    8388.7483    10290.282   -135.92891    1630.7522    499.49353   -3234.7647 
16138000    269.96183   -4721.7433   -4201.0992   -4721.7433            0    9091.5611     19.76935    19.989643    20.427148     8072.446    9706.7917    8996.7389    8571.1528    360.64545   -161.28528    543.87619   -3130.7648 
16139000    245.40422    -4709.924   -4236.6413    -4709.924            0    8894.6548    19.922017     19.73087    20.535306    8071.9919    9028.4308    9021.0943    8634.4394    165.60213    1343.4284    433.19029   -3189.5472 
16140000      267.016   -4702.9466   -4187.9838   -4702.9466            0    8555.9025    19.687723    19.996882    20.695232    8147.5695    8701.0671    8939.1214     8027.519   -3.1509796    450.47371   -585.55586   -3171.3377 
16141000    259.59952   -4694.4213   -4193.7618   -4694.4213            0    8749.6805    19.914485    19.659962    20.571504    8054.1147    8843.0337    9199.0402    8206.9674   -176.34839   -1260.6223   -887.14991   -3166.0155 
16142000    257.45141     -4700.22   -4203.7033     -4700.22            0    7807.1292    19.895932    19.972961    20.432653    8119.5413    9238.4824    6045.2747    8137.6306     15.94631    1195.9674   -868.16542   -3279.2207 
16143000    265.62829   -4718.7541   -4206.4676   -4718.7541            0    8922.0312    19.961352    19.829033    20.484263    8107.9641    9370.5544    9189.6673    8205.8719   -16.579132   -64.722084    186.64147   -3151.4701 
16144000    268.76789   -4715.6866   -4197.3451   -4715.6866            0    7715.5092    19.765879    19.969627    20.672338    8159.7281    7372.7643    8013.9867    7759.7766    -199.7143    1583.7287    1620.1142   -3279.1898 
16145000     253.0454   -4679.0585   -4191.0392   -4679.0585            0    7960.3449     19.87552    19.876809    20.548256    8117.8336    8542.5535    6728.0626    8610.4185    176.01998   -706.36522   -932.39776   -3248.6117 
16146000    259.93318   -4722.6759    -4221.373   -4722.6759            0    6807.9886    19.921267    20.089034      20.2994    8123.7997    6365.9863     6564.571    7493.4084   -459.10568   -1491.6205    113.33881   -3414.7809 
16147000    244.24331   -4714.0624   -4243.0186   -4714.0624            0    6602.4956    19.913882    19.937955    20.597368    8178.0219    7315.8962    4490.5688    8001.0218    565.46627    594.84424    1523.8578   -3455.5518 
16148000    249.67244   -4701.2797   -4219.7654   -4701.2797            0    6751.7868    19.832283    19.904662    20.702965    8172.5967    7572.4491    5417.6936    7265.2176    628.03348    1749.0229    1097.1605   -3415.0271 
16149000    264.15314   -4689.0642   -4179.6226   -4689.0642            0    9288.4465    19.963743    19.996157    20.367573    8130.6977    9225.8435    9681.9779    8957.5181   -84.793175   -285.70944    1058.8581   -3078.2183 
16150000    258.63695   -4704.7378   -4205.9346   -4704.7378            0    8241.1794    19.942104     19.90932    20.417023    8106.2466    7310.6298    8496.7335    8916.1748   -866.87949    -783.1295   -139.62115   -3231.6518 
16151000    266.98288   -4674.9956   -4160.0967   -4674.9956            0    7460.8364    19.876064    19.930871    20.574038    8150.3492    7760.8629     6818.232    7803.4143      19.7711   -397.19795   -302.43812   -3273.2682 
16152000    271.35298   -4704.8376   -4181.5106   -4704.8376            0     8367.087    19.899705    19.896321    20.493143    8113.8688    9515.9285    7455.4704    8129.8622    240.72613    1235.5757   -576.63096   -3191.4126 
16153000    262.35323   -4708.8989   -4202.9286   -4708.8989            0    7447.6863    19.826672    19.889893    20.543024    8101.1496    7542.5124    7538.8948    7261.6515    685.96843    383.20742   -1295.4642   -3323.0071 
16154000    259.87622   -4699.0905   -4197.8973   -4699.0905            0    8811.7701    19.802079    19.718667    20.893722    8158.3843    9308.0673    9729.4077    7397.8353   -58.777792    245.05795   -1543.8461   -3149.4582 
16155000    261.36048    -4699.264   -4195.2083    -4699.264            0    9335.3081    19.771408    19.882177    20.441732    8035.6168    8920.3022     10209.46    8876.1624    405.14312    327.13061    603.63399   -3101.1921 
16156000    259.44494   -4718.5481   -4218.1867   -4718.5481            0    6916.7411    19.990964    19.696216    20.738355    8165.6514     6282.324    8092.4439    6375.4553   -2.3854126    229.98081    1134.1904   -3394.4882 
16157000    255.79277   -4689.8728   -4196.5549   -4689.8728            0    7527.2244    19.832766    20.048092    20.531258    8163.4153    6793.8406    8314.3298    7473.5027    -708.7125   -420.06172   -880.87882    -3300.401 
16158000    248.25202   -4719.6855   -4240.9106   -4719.6855            0    6543.1805     19.90748     19.61743    20.898667    8161.6313    6687.5274    7643.9802    5298.0339   -495.65139      673.149   -1478.3822   -3462.0822 
16159000    262.61698   -4718.5565   -4212.0776   -4718.5565            0    6822.4493    19.680913    19.972912     20.56766    8084.8415    7588.2731     5546.554    7332.5207    762.89985   -277.87277    440.06537   -3407.6486 
16160000    270.60235   -4716.4637   -4194.5843   -4716.4637            0    8035.2311    20.081272    19.702421    20.500634    8111.0692    8069.0905    6989.8604    9046.7426    507.30529   -1042.7121    250.81457   -3244.0838 
16161000    246.34993   -4691.6297   -4216.5232   -4691.6297            0    8399.8148    19.539159    20.134362    20.524784    8074.6243    7504.0583    9141.0497    8554.3365   -24.733844    415.30771   -341.69596     -3227.36 
16162000     256.8121   -4691.8621   -4196.5783   -4691.8621            0    6280.4022    19.980996    19.755275    20.765274     8196.678    6033.3331    6527.4846     6280.389   -8.7069625   -120.00361    27.299765   -3445.8182 
16163000     268.7272   -4704.1609   -4185.8979   -4704.1609            0    6595.5127    19.874806    19.686031    20.757597    8121.5357    6869.0817    6472.8337    6444.6228    813.82095    643.88011    73.448375   -3404.6972 
16164000    256.14812   -4693.5481   -4199.5449   -4693.5481            0    9015.5892    19.833307    19.744983    20.641841    8083.5165    9434.5315    10137.665     7474.571    773.45507    442.42284    1043.9333    -3136.699 
16165000    268.69321   -4713.3566   -4195.1592   -4713.3566            0    8428.7518     19.68902    19.930655     20.61049    8087.8667    9637.3719    6297.8445    9351.0391   -277.29549    607.69451    310.29084   -3200.9606 
16166000    268.97421   -4700.2481   -4181.5088   -4700.2481            0    7996.7631    19.981134    19.845439    20.478514    8120.4347    9795.3407     5861.115    8333.8337    6.0156969   -1239.4086    456.66783   -3234.4664 
16167000    261.84939   -4696.1598   -4191.1612   -4696.1598            0    9070.0605    19.800872    19.958754    20.317922    8029.6577    7816.2239      9062.61    10331.348   -820.00064   -638.66009   -152.10322    -3129.018 
16168000    280.20569   -4698.7546   -4158.3544   -4698.7546            0    7803.4592     19.91473    20.016821     20.34461    8109.9637    7347.3618    7817.1961    8245.8197    45.166043   -228.90665   -885.28485   -3235.3963 
16169000    271.55706   -4687.5975   -4163.8769   -4687.5975            0    9299.1722    19.964434      19.7377    20.518275    8085.2671    8189.4527    11616.046    8092.0179   -634.76983    414.73611    152.13765   -3067.3619 
16170000    261.79674   -4693.5158   -4188.6188   -4693.5158            0    7412.5946    19.927483    19.837781    20.669024    8170.8174    6022.8397    9034.4564    7180.4876    814.73292    903.00001   -23.324232   -3305.3118 
16171000    265.80176   -4685.8532   -4173.2322   -4685.8532            0    7658.0457    19.853388    19.953232    20.516749    8127.4898    6433.0274    7531.2639    9009.8456   -355.19488   -1895.2081    -62.03099   -3265.5156 
16172000    257.77103   -4713.0396   -4215.9065   -4713.0396            0    6967.6441    19.903758    20.141856    20.369819    8166.2328    6854.6566    7461.4983    6586.7773   -170.09615    87.445105   -561.18836    -3386.087 
16173000    271.06452   -4747.4089   -4224.6382   -4747.4089            0    7008.3263    19.799015    19.748586    20.691722    8090.5161    7915.0726    7846.8718    5263.0345   -343.63492   -446.59003   -121.51665   -3397.7126 
16174000    255.28987   -4704.1317   -4211.7838   -4704.1317            0    6629.9118    19.742293     20.01348    20.685959      8173.27    7492.1061     6115.162    6282.4674    44.697216    1168.3239   -160.06509   -3421.5065 
16175000    268.01981   -4714.1115   -4197.2127   -4714.1115            0    9142.9637    19.889258     19.56537    20.666666    8042.2403    8838.4729     9813.052    8777.3663   -238.25514    413.47021   -905.44109   -3124.8544 
16176000    257.70933   -4726.4517   -4229.4376   -4726.4517            0    9047.1003    19.903512     19.92576    20.425454    8100.5839    9337.8957    9171.6211    8631.7842    369.76755    543.05808   -1020.5859   -3160.6248 
16177000    244.02723   -4663.3003   -4192.6733   -4663.3003            0    6895.0391    19.937706    20.013034    20.411797    8144.5928    7452.1783    6234.1113    6998.8278   -867.01529   -143.29134    363.93592   -3373.6768 
16178000    271.55433   -4727.1562   -4203.4409   -4727.1562            0    7137.0011     19.82098    20.004026    20.501327    8128.7638     7427.576    6853.7359    7129.6914    338.30188   -373.63097   -212.73504   -3357.3517 
16179000    257.58919   -4666.9918   -4170.2094   -4666.9918            0    8892.1761    19.904144    19.949324    20.534077    8153.5528    9176.0314    8503.0957    8997.4013    -668.2558    637.42181     176.4821     -3112.83 
16180000     269.1463   -4704.1148   -4185.0435   -4704.1148            0    8147.8706    19.924956    19.804235     20.59881    8128.2598    6217.2028    8659.7994    9566.6097    95.680417    605.67395    1231.3453    -3219.176 
16181000    262.46711   -4719.1226   -4212.9327   -4719.1226            0    9332.2453    19.821723    19.827376    20.604006    8097.6376    8153.4862    11452.623    8390.6268   -93.622177   -759.81498    2165.9284   -3110.8343 
16182000    260.49362   -4698.3818   -4195.9979   -4698.3818            0    7644.6353     19.84333    20.086685    20.356578    8113.8614    6296.4458    8613.5767    8023.8833    975.64536    374.62683    1908.5336   -3291.3903 
16183000    259.06981   -4712.6495   -4213.0116   -4712.6495            0    7623.3961    19.876074    19.839769    20.440932    8060.6101    5258.7845    9756.8335    7854.5704   -493.64996    705.99108   -1389.9388   -3316.8377 
16184000    253.63939   -4704.9581   -4215.7932   -4704.9581            0    7268.6315     19.76396    19.863164     20.51054    8051.9208    8708.1987    7380.1291    5717.5668   -211.72518   -993.50262    1468.3618    -3362.245 
16185000    276.90824   -4711.9045   -4177.8637   -4711.9045            0    8493.8759    19.846742    19.930775     20.61182    8153.2309    9411.5268    7879.8235    8190.2775   -10.947199   -460.14137    625.49468   -3167.8866 
16186000    263.91524   -4677.8411   -4168.8584   -4677.8411            0    8754.4745    19.896447    19.963209    20.481665    8135.2545     8896.602    8931.3031    8435.5183    691.04919    866.99086    1259.7738   -3130.1896 
16187000    256.11988   -4720.2099   -4226.2612   -4720.2099            0     5329.209    19.900398    20.209111    20.602308    8285.6168    4918.0925    7136.7289    3932.8055    22.030678    694.55939    1059.2256   -3582.2944 
16188000    253.87558   -4673.9389   -4184.3185   -4673.9389            0    9016.3393    19.901441    19.935057    20.431918    8106.0847     7889.029    9802.7483    9357.2404    73.354046    382.74327    443.33154   -3118.4166 
16189000    245.94151   -4704.9391   -4230.6202   -4704.9391            0    7627.4444    20.057848    19.872056    20.419202    8138.9037    8270.7266    6586.2107    8025.3958    39.589722    1180.5001   -143.79332   -3325.2612 
16190000    266.01938   -4668.4446   -4155.4039   -4668.4446            0    7459.6878    19.887492    20.002203    20.447757    8133.9878    9165.0914    6455.5225    6758.4494     -726.049    208.91118   -491.04417   -3270.4919 
16191000    265.96694   -4688.6407   -4175.7011   -4688.6407            0    9026.5929    19.859936    19.812089    20.461157    8050.7861    9335.0275     9441.549     8303.202    -329.4742    622.67334   -554.96645   -3115.8667 
16192000    266.80303   -4702.9849   -4188.4328   -4702.9849            0    8812.4933    19.893143    19.940806    20.428904    8103.8462    7979.2877    8716.5788    9741.6133   -1158.8854    814.35692   -329.48585   -3146.9169 
16193000    251.39563   -4684.3741   -4199.5365   -4684.3741            0    7376.2009    20.101903    19.805401    20.480334    8153.7584    7837.5009    6383.2888    7907.8131    -680.3145   -532.93952    755.18369   -3322.4014 
16194000     262.3462   -4686.4951   -4180.5384   -4686.4951            0    8407.3951    19.927867    19.738546    20.673667    8131.9274    7474.2546     9873.664    7874.2666     159.5053    1182.7223   -117.04798   -3183.4565 
16195000    262.88144   -4701.5448   -4194.5558   -4701.5448            0    8314.4786    19.630846    20.029697    20.543803    8077.8217    9965.3958    7169.8543    7808.1856     114.8675    1451.3769    978.33123   -3215.0542 
16196000     256.8606   -4695.6887   -4200.3114   -4695.6887            0     6410.581    20.000303     19.88899    20.487092    8149.4746    7318.2268    5556.6559    6356.8603   -356.30876    503.00497   -223.89147   -3438.4028 
16197000    252.82331    -4684.537    -4196.946    -4684.537            0    7799.5977    20.180525    19.892904    20.206878    8112.0355    5752.3126    7695.9266    9950.5538   -156.23889     1795.373    81.692354    -3274.209 
16198000    248.89395   -4665.3116   -4185.2987   -4665.3116            0    8479.1707    19.817099    20.032825    20.428045    8109.7806    8633.6296    6998.5554     9805.327    617.92245    576.42088   -73.953365   -3182.4432 
16199000    264.85233   -4682.3413   -4171.5513   -4682.3413            0    7988.5151    19.762698    19.955697    20.627586    8135.0743    9884.6758    5956.7887    8124.0808   -645.45666   -840.28045     221.6395   -3223.7802 
16200000    261.21454   -4717.7443   -4213.9701   -4717.7443            0    7911.5557    19.934822    19.780557    20.568026    8110.4224    7602.4645    8552.1998    7580.0027    170.19906    37.068964    632.82058    -3278.174 
16201000    260.88139   -4709.9136   -4206.7819   -4709.9136            0    7400.9132    19.992089    19.943104     20.38236    8126.5345    6242.6327    8176.3133    7783.7936   -37.667146    285.56793   -525.85818   -3329.6467 
16202000    249.57494   -4678.0434   -4196.7171   -4678.0434            0    7969.0979    19.880853     20.03367    20.463488    8150.3296    8783.0393    6280.0913     8844.163    439.55422   -22.229881   -344.24109   -3249.4767 
16203000    249.48174   -4695.9758   -4214.8293   -4695.9758            0    9546.2759     19.77477    19.793803    20.575327    8053.5511    10713.219    10371.894    7553.7146   -805.06508    -437.7218    512.68041   -3093.5926 
16204000    261.87263   -4718.6793   -4213.6359   -4718.6793            0    8386.0108    19.766922    19.929832    20.524059    8085.4826    9394.6719    6992.9144    8770.4461   -8.3917068    360.99086    317.24906   -3224.7703 
16205000    245.76012    -4711.881    -4237.912    -4711.881            0    6937.6884    19.872522     19.73857    20.672587    8108.9292    6060.7104    8818.0317     5934.323    1261.7129    -477.8996    1615.1992    -3417.458 
16206000    264.29999   -4732.9076   -4223.1828   -4732.9076            0    8516.4324    19.903927    19.872744    20.414703    8074.9469    8960.4395    8608.7837    7980.0739    531.70403     941.3111   -440.49941   -3220.2467 
16207000    271.44353   -4723.4188   -4199.9171   -4723.4188            0    8153.5283    19.984073    19.756871    20.518904    8101.3301    7011.8235    10050.331      7398.43   -205.65638    482.40494    857.11474   -3236.5811 
16208000    258.26007   -4681.1342    -4183.058   -4681.1342            0    8012.4361    19.716477    19.934879    20.694611    8133.9255    8733.4889    7491.1867    7812.6327     71.91773   -12.759062    436.97217    -3232.583 
16209000    267.40794   -4724.2869   -4208.5682   -4724.2869            0    6919.3558    20.127201    19.802123    20.547959    8189.6212    5929.8926    6857.0945    7971.0804   -278.79048    161.78877   -471.32765   -3382.1395 
16210000    265.21542   -4679.8062   -4168.3159   -4679.8062            0    9182.3466    19.869694    20.015181    20.395199    8111.0794    10012.575    9000.9523    8533.5126   -57.541439   -595.62493    1334.8858   -3082.1199 
16211000    262.87922   -4707.5615   -4200.5768   -4707.5615            0    7299.7283    20.071031    19.908252    20.449771    8171.3019    7516.9833    7378.0977    7004.1041    363.98527   -1051.5162    531.62085   -3330.6677 
16212000    271.54099   -4719.1748   -4195.4852   -4719.1748            0    7611.3853    19.966225    20.013052    20.219013    8079.2165    7025.6053    6843.5041    8965.0463    -182.2585   -175.62011     1452.816   -3298.6579 
16213000    267.35238   -4687.4476   -4171.8361   -4687.4476            0    7833.8891     19.98488    19.924676    20.569557     8190.638    6042.6867    9714.6592    7744.3214    595.38613    -109.8954    28.696458   -3236.0619 
16214000    268.08498   -4710.9336   -4193.9092   -4710.9336            0    8981.7153    19.810618    19.699378    20.748519    8097.2518    9422.0919    10023.619    7499.4351    624.80964    247.70887    1271.0111   -3133.2574 
16215000    246.05937   -4723.3664   -4248.8202   -4723.3664            0    8132.7227    19.930328    19.975176    20.381329    8114.0481    7570.7069    8032.8393    8794.6221   -276.70815    661.99218   -816.11499   -3286.4339 
16216000    258.39281    -4714.066   -4215.7337    -4714.066            0    6725.4277     19.79224    20.066567    20.538504    8157.1194    7385.5126    5495.5288    7295.2417    869.86773   -118.36534    1066.0105   -3415.6552 
16217000     244.0167   -4699.2131   -4228.6063   -4699.2131            0    7385.4088    19.862774    19.810361     20.65625    8128.0014    7422.9479    7498.5753    7234.7032     435.1408    1108.5891   -656.03921   -3353.1506 
16218000    261.63547   -4693.6206   -4189.0346   -4693.6206            0    6240.9319     20.10443    19.726782    20.729583     8221.264    4527.8585    8008.8722     6186.065   -331.97994    403.85303    896.54237    -3440.755 
16219000    258.64997   -4695.4057   -4196.5775   -4695.4057            0    6713.4971     19.88221    20.019886    20.540721    8176.0197    7803.3035     5204.246    7132.9419    533.96526    2150.2015    471.37116   -3396.0677 
16220000    260.34953   -4741.8064   -4239.7005   -4741.8064            0    7214.2711     19.83001    20.186805    20.347106    8145.0389     7108.027    5284.6767    9250.1097    327.45517   -512.05197    239.47631   -3382.7386 
16221000    253.84449   -4709.4336   -4219.8732   -4709.4336            0    6674.0273    20.122522    19.739168    20.635227    8196.3502     5881.664    7159.5001    6980.9178    905.91892    181.91512    250.30738   -3422.0909 
16222000    255.16128   -4707.8474   -4215.7474   -4707.8474            0    8211.8183    19.987741    19.717086    20.599531    8118.2749    8215.3632    9882.9259    6537.1658    -228.2556    999.87592   -333.34607   -3243.4951 
16223000    261.69549   -4723.7775   -4219.0758   -4723.7775            0    6734.0678    20.001931    20.023758    20.476235    8201.0154    6024.9538    6612.3106    7564.9391   -4.0670815   -699.80344   -1126.1758   -3413.6584 
16224000    265.73817    -4709.492   -4196.9936    -4709.492            0    8929.5164    19.749915    19.880136    20.708019    8130.6098    9604.6875    8404.9642    8778.8975   -181.41363    90.952132   -650.17669   -3138.1618 
16225000    254.07343   -4711.9393   -4221.9374   -4711.9393            0    7516.6547    19.902868    19.649584    20.798608    8133.9835    7696.5813    8701.8635    6151.5192    189.59254    829.28628    458.90456   -3330.2682 
16226000    251.74534   -4692.2805   -4206.7684   -4692.2805            0    7981.9164    19.757909    20.042995    20.555698    8140.2141    9801.9263    6780.9217    7362.9013   -547.27372    161.74241    728.40477   -3259.1819 
16227000    267.24072     -4650.04   -4134.6438     -4650.04            0    9044.4894    20.242192    19.619719    20.589686     8177.114    9773.7667    9003.8296     8355.872    754.64391   -276.27204    1269.1015   -3056.0448 
16228000    259.62754   -4675.8308   -4175.1173   -4675.8308            0    7719.3018    19.910475    20.003967    20.480405    8157.1091    8013.2008    6886.1483    8258.5563    999.76827   -355.36325    -262.6662   -3256.8055 
16229000    271.49225   -4703.6149   -4180.0193   -4703.6149            0    8326.8588    19.703889    19.908594    20.735612    8134.0979    7653.6797    7779.6429    9547.2538   -833.43741   -463.36817    1191.1495   -3192.2251 
16230000    269.81884    -4691.454   -4171.0857    -4691.454            0    7410.5114    20.048659    19.799726    20.671523    8205.7257    4828.3779    10434.938    6968.2186   -733.11348   -1655.4525    271.80209   -3284.2543 
16231000    266.89039   -4691.2293   -4176.5088   -4691.2293            0    8150.3369    19.776312    20.016059    20.545632    8132.8618    10723.747    5365.0452    8362.2187   -1154.9252    1053.3347    164.55959   -3209.8018 
16232000    258.80111   -4693.0655   -4193.9458   -4693.0655            0    9315.9925    19.960148    20.058066    20.239051    8102.9464    9002.9692    9183.1304    9761.8778    438.04718   -665.24498   -501.56779   -3093.0455 
16233000    256.88933   -4707.8902   -4212.4575   -4707.8902            0    7283.2947    20.020266    20.069388    20.329187    8168.1551    6233.2167    7480.3855    8136.2819   -139.53589    1158.5069   -424.06268   -3344.8411 
16234000    263.18907   -4693.4633    -4185.881   -4693.4633            0    7549.8666    19.596943     20.02923    20.814288    8169.8513    9609.9851    5810.2844    7229.3303   -508.20926    212.59967   -104.93672   -3286.3227 
16235000    248.15539   -4705.4308   -4226.8423   -4705.4308            0    8551.0006    19.887649      19.8767    20.617223    8150.0054    8446.6345      9579.26    7627.1074   -1010.2839     638.2566    863.72254   -3210.4749 
16236000    257.30438   -4709.9148   -4213.6817   -4709.9148            0    8019.8966    20.084708    19.758792    20.406587    8098.3455    7621.3917    7290.9775    9147.3208   -504.67053   -935.80474    852.39969   -3266.4832 
16237000    255.19403   -4695.9532     -4203.79   -4695.9532            0    7508.6857    19.772962     20.13473     20.51222    8166.3916    7543.3492    5970.1554    9012.5527   -177.80148   -576.20085   -552.63003   -3309.5172 
16238000    266.58326   -4697.0903    -4182.962   -4697.0903            0    7743.0469    19.813052    19.901339    20.634164    8136.1802    8088.3799    8150.0307    6990.7301    141.38533   -169.33612    575.65287   -3264.1888 
16239000    251.90734   -4693.3753   -4207.5508   -4693.3753            0    7197.3278    19.859937    19.708574    20.773502     8130.978    8172.6052    7549.8106    5869.5676    371.32521    -580.6174    407.94811   -3354.0775 
16240000     262.0812   -4699.7733   -4194.3277   -4699.7733            0    7296.1064    19.772433    20.069911    20.572957    8163.9864    9215.7254    6068.2599    6604.3337   -741.33149   -1030.5754    1000.5523   -3325.6287 
16241000    254.88507     -4700.43   -4208.8627     -4700.43            0     8474.399    20.138294    19.752755    20.389303    8110.5954    10185.272    8249.2069    6988.7177   -267.36689    316.19761   -927.01917   -3206.4708 
16242000    257.73142   -4686.4697    -4189.413   -4686.4697            0    8103.8832    19.817228    20.131474    20.348306    8117.9571    8925.0869    6651.4181    8735.1445   -507.34278     582.7783   -351.23544   -3229.9774 
16243000    252.44581   -4666.6694   -4179.8065   -4666.6694            0    7832.1107    20.121306     19.75729    20.533479    8162.9305    7679.6799    8520.8041    7295.8481    12.593336    904.47571    488.14292   -3247.4096 
16244000    260.39069   -4682.3557   -4180.1704   -4682.3557            0    7985.6279    19.720542    20.092677    20.512106    8127.6856    9917.5859    6785.4368    7253.8608    541.52996    -898.0973    18.871562   -3233.6023 
16245000    276.53716   -4682.2618   -4148.9366   -4682.2618            0     7764.111    20.064113    19.768189    20.432534    8104.1803    8270.4024    7150.5597    7871.3711    281.04514      375.105   -745.29128   -3231.2874 
16246000    268.91457   -4697.7848   -4179.1604   -4697.7848            0     7328.498    19.837693    19.938081    20.566386    8134.5307    10255.125    5592.7176    6137.6518   -696.49565    309.13279   -306.48794    -3309.753 
16247000    259.18836   -4704.1074   -4204.2408   -4704.1074            0    6077.7196    20.005744    20.009349    20.600908     8246.583    5131.5351    6347.4619     6754.162    747.04277   -267.63867    7.3706775   -3473.2859 
16248000    267.25076    -4694.979   -4179.5634    -4694.979            0    7883.5031    19.996789     19.73255    20.738606    8183.1975    6021.6714    10088.994     7539.844   -256.92683    1134.0791   -370.92646   -3238.7183 
16249000     253.2293   -4705.4289   -4217.0549   -4705.4289            0    9104.1648    19.950644    19.803797    20.534777    8113.2598    10985.755    6905.9646    9420.7749     668.1802    1578.8781   -1411.1699   -3139.8175 
16250000    263.71218      -4663.4   -4154.8089      -4663.4            0    6328.3446    19.944231    20.007529    20.410168    8144.3669    4961.4956    7605.6018    6417.9364   -176.58164    220.52515   -758.30633   -3403.1456 
Loop time of 513.229 on 64 procs for 250000 steps with 972 atoms

Performance: 84.173 ns/day, 0.285 hours/ns, 487.112 timesteps/s
99.1% CPU use with 64 MPI tasks x 1 OpenMP threads

MPI task timing breakdown:
Section |  min time  |  avg time  |  max time  |%varavg| %total
---------------------------------------------------------------
Pair    | 20.419     | 28.642     | 37.573     |  77.6 |  5.58
Bond    | 0.26934    | 0.28       | 0.30323    |   1.1 |  0.05
Kspace  | 213.47     | 226.61     | 243.66     |  48.2 | 44.15
Neigh   | 3.117      | 3.7935     | 4.5319     |  22.7 |  0.74
Comm    | 107.64     | 120.01     | 133.06     |  60.8 | 23.38
Output  | 1.1326     | 1.1338     | 1.1363     |   0.1 |  0.22
Modify  | 123.53     | 126.55     | 129.07     |  13.6 | 24.66
Other   |            | 6.199      |            |       |  1.21

Nlocal:        15.1875 ave          21 max           9 min
Histogram: 2 4 5 4 7 24 7 7 2 2
Nghost:        2256.94 ave        2293 max        2213 min
Histogram: 2 2 4 5 12 11 13 8 4 3
Neighs:        4821.41 ave        7237 max        2812 min
Histogram: 3 7 3 9 14 16 7 2 2 1

Total # of neighbors = 308570
Ave neighs/atom = 317.45885
Ave special neighs/atom = 2.0000000
Neighbor list builds = 7895
Dangerous builds = 0

unfix		3
unfix		2
unfix		1

write_data	data.final.${pid}
write_data	data.final.0
System init for write_data ...
PPPM initialization ...
  extracting TIP4P info from pair style
  using 12-bit tables for long-range coulomb (../kspace.cpp:340)
  G vector (1/distance) = 0.37184099
  grid = 24 24 24
  stencil order = 5
  estimated absolute RMS force accuracy = 0.0035502657
  estimated relative force accuracy = 1.069152e-05
  using double precision FFTW3
  3d grid and FFT values/proc = 2197 216
Last active /omp style is kspace_style pppm/tip4p/omp
WARNING: Not all mixed pair coeffs generated from mixing. Use write_data with 'pair ij' option to store all pair coeffs. (../write_data.cpp:312)

write_restart   restart.lmp.${pid}
write_restart   restart.lmp.0
System init for write_restart ...
PPPM initialization ...
  extracting TIP4P info from pair style
  using 12-bit tables for long-range coulomb (../kspace.cpp:340)
  G vector (1/distance) = 0.37184099
  grid = 24 24 24
  stencil order = 5
  estimated absolute RMS force accuracy = 0.0035502657
  estimated relative force accuracy = 1.069152e-05
  using double precision FFTW3
  3d grid and FFT values/proc = 2197 216
Last active /omp style is kspace_style pppm/tip4p/omp
Total wall time: 0:08:37
