LAMMPS (30 Jul 2021)
  using 1 OpenMP thread(s) per MPI task
package omp 0
using multi-threaded neighbor list subroutines
echo both

include		in.partitions
variable        pid world 0
include		in.temp
variable        temperature equal 220.55
variable	tempDamp equal 100.0
include		in.pressure
variable        pressure equal 2375.0
variable        pressureDamp equal 1000.0 # This is 1 ps
include		in.seed
variable        seed world 745823

units		real
atom_style	full
read_restart    restart.lmp.${pid}
read_restart    restart.lmp.0
Reading restart file ...
  restart file = 30 Jul 2021, LAMMPS = 30 Jul 2021
  restoring atom style full from restart
  triclinic box = (-3.3264243 -0.15590092 -0.13411912) to (14.936423 22.735900 19.364117) with tilt (-0.28798891 -7.0328755 0.24246853)
  4 by 4 by 4 MPI processor grid
  restoring pair style lj/cut/tip4p/long/omp from restart
  restoring bond style harmonic/omp from restart
  restoring angle style harmonic/omp from restart
  1008 atoms
  672 bonds
  336 angles
Finding 1-2 1-3 1-4 neighbors ...
  special bond factors lj:    0        0        0       
  special bond factors coul:  0        0        0       
     2 = max # of 1-2 neighbors
     1 = max # of 1-3 neighbors
     1 = max # of 1-4 neighbors
     2 = max # of special neighbors
  special bonds CPU = 0.240 seconds
  read_restart CPU = 0.456 seconds

include 	in.setup
variable	out_freq equal 1000
variable	out_freq2 equal 10000
variable	out_freq3 equal 1000

timestep	2.0

neigh_modify    delay 7 every 1

include		in.tip4p
# This is TIP4P/Ice

# create groups ###
group ox type 2
336 atoms in group ox
group hy type 1
672 atoms in group hy

# set charges - beside manually ###
set group ox charge -1.1794
Setting atom values ...
  336 settings made for charge
set group hy charge 0.5897
Setting atom values ...
  672 settings made for charge

# ### TIP3P Potential Parameters ###
pair_style lj/cut/tip4p/long/omp 2 1 1 1 0.1577 8.5
pair_coeff 1 1*2 0.000 0.000
pair_coeff 2 2 0.21084 3.1668
bond_style  harmonic
bond_coeff  1 450 0.9572
angle_style harmonic
angle_coeff 1 55 104.52
kspace_style pppm/tip4p/omp 1.0e-5
pair_modify tail yes

thermo          ${out_freq}
thermo          1000
thermo_style    custom step temp pe etotal epair emol press lx ly lz vol pxx pyy pzz pxy pxz pyz enthalpy

restart 	${out_freq3} restart.lmp.${pid} restart2.lmp.${pid}
restart 	1000 restart.lmp.${pid} restart2.lmp.${pid}
restart 	1000 restart.lmp.0 restart2.lmp.${pid}
restart 	1000 restart.lmp.0 restart2.lmp.0


include         in.dump
dump            myDump all atom ${out_freq2} dump.water.${pid}
dump            myDump all atom 10000 dump.water.${pid}
dump            myDump all atom 10000 dump.water.0
dump            myDump2 all dcd ${out_freq2} dump.dcd
dump            myDump2 all dcd 10000 dump.dcd
dump_modify     myDump append yes
dump_modify     myDump2 append yes


variable natoms 	equal  "count(all)"                        # NUMBER ATOMS
variable H      	equal  "enthalpy/v_natoms"                 # ENTHALPY-per-atom
variable Vol      	equal  "vol/v_natoms"                 # volume-per-atom
fix AVG all 		ave/time ${out_freq} 1 ${out_freq} v_Vol v_H file vol_enthalpy.dat
fix AVG all 		ave/time 1000 1 ${out_freq} v_Vol v_H file vol_enthalpy.dat
fix AVG all 		ave/time 1000 1 1000 v_Vol v_H file vol_enthalpy.dat



fix 		1 all shake 1e-6 200 0 b 1 a 1
       0 = # of size 2 clusters
       0 = # of size 3 clusters
       0 = # of size 4 clusters
     336 = # of frozen angles
  find clusters CPU = 0.097 seconds
fix             2 all nph tri ${pressure} ${pressure} ${pressureDamp}
fix             2 all nph tri 2375 ${pressure} ${pressureDamp}
fix             2 all nph tri 2375 2375 ${pressureDamp}
fix             2 all nph tri 2375 2375 1000
fix             3 all temp/csvr ${temperature} ${temperature} ${tempDamp} ${seed}
fix             3 all temp/csvr 220.55 ${temperature} ${tempDamp} ${seed}
fix             3 all temp/csvr 220.55 220.55 ${tempDamp} ${seed}
fix             3 all temp/csvr 220.55 220.55 100 ${seed}
fix             3 all temp/csvr 220.55 220.55 100 745823


run             250000
PPPM initialization ...
  extracting TIP4P info from pair style
  using 12-bit tables for long-range coulomb (../kspace.cpp:340)
  G vector (1/distance) = 0.37897331
  grid = 24 27 36
  stencil order = 5
  estimated absolute RMS force accuracy = 0.0024549346
  estimated relative force accuracy = 7.3929626e-06
  using double precision FFTW3
  3d grid and FFT values/proc = 4050 480
Last active /omp style is kspace_style pppm/tip4p/omp
Neighbor list info ...
  update every 1 steps, delay 7 steps, check yes
  max neighbors/atom: 2000, page size: 100000
  master list distance cutoff = 10.8154
  ghost atom cutoff = 10.8154
  binsize = 5.4077, bins = 5 5 4
  1 neighbor lists, perpetual/occasional/extra = 1 0 0
  (1) pair lj/cut/tip4p/long/omp, perpetual
      attributes: half, newton on, omp
      pair build: half/bin/newton/tri/omp
      stencil: half/bin/3d/tri
      bin: standard
Per MPI rank memory allocation (min/avg/max) = 9.327 | 9.338 | 9.355 Mbytes
Step Temp PotEng TotEng E_pair E_mol Press Lx Ly Lz Volume Pxx Pyy Pzz Pxy Pxz Pyz Enthalpy 
18500000    233.37457    -4904.895   -4438.1171    -4904.895            0    2332.0883    18.262848    22.891801    19.498236    8151.6173    781.40538    2575.5875    3639.2721    1007.8193   -773.05532   -1291.0099   -4160.8715 
18501000     223.5942   -4918.6136   -4471.3976   -4918.6136            0    2505.7854    18.135696    22.893794    19.502181    8097.2061     2885.439    2934.7258    1697.1913    1888.1199    28.727191    67.829615   -4175.4908 
18502000    220.28376   -4899.2441   -4458.6494   -4899.2441            0    2041.9279    18.181284    22.852794    19.578918    8134.9062    2790.8523    1873.3227    1461.6086    480.24498    571.90268   -1763.5038   -4216.3966 
18503000    217.84376   -4911.4302   -4475.7157   -4911.4302            0    1382.2638     18.23357    23.096835    19.339335    8144.5244    540.06041    1154.2084    2452.5226   -842.99022   -1434.8512    1565.5792   -4311.5311 
18504000     209.0311   -4910.7138   -4492.6258   -4910.7138            0    1187.6637    17.973677    23.338171    19.451973    8159.5726    2822.5806    52.312319    688.09829   -1477.5264   -627.52581   -915.08009    -4351.295 
18505000    220.50622   -4904.8538   -4463.8141   -4904.8538            0    2295.9233    18.130337     22.96831    19.521261    8129.1058     2505.389    1836.9404    2545.4404    141.19826     94.52552    1653.7396   -4191.6217 
18506000    226.81831   -4900.8984   -4447.2337   -4900.8984            0    3950.7155    18.146362    22.824488    19.534382    8090.7784    4271.2716    4203.2621    3377.6127    327.31446   -191.54754    601.94185   -3981.0663 
18507000     220.2175   -4904.6029   -4464.1407   -4904.6029            0    3321.6693     18.24562    22.907874    19.380454    8100.4168    2717.7077    3443.4732    3803.8269    -1289.866     406.9813    1037.1159    -4071.731 
18508000     223.7375   -4912.1059   -4464.6032   -4912.1059            0    575.84717    18.103443    23.053524    19.609642    8184.0482    2763.6488    79.124178   -1115.2314     306.3117   -331.22189    -1155.642   -4395.8725 
18509000    233.82801   -4901.0246   -4433.3397   -4901.0246            0    1854.2659    18.139052    23.054274    19.529501     8166.899    3246.8799    1560.3392    755.57858    214.99578    759.91653   -170.53122   -4212.4858 
18510000     221.3058   -4895.7414   -4453.1025   -4895.7414            0    2387.7204    18.267166     22.91495    19.455219    8143.7834    383.59322     3425.402     3354.166    109.55061    1138.7205   -712.67043    -4169.516 
18511000    223.41007   -4917.9169   -4471.0692   -4917.9169            0    1857.4181    18.235488    22.928465    19.438249    8127.3604    2899.4449    1930.8313    741.97802    65.356744   -299.71395   -758.41721   -4250.9109 
18512000    233.35207   -4889.4856   -4422.7526   -4889.4856            0     1497.942    18.217632    23.013681    19.529068    8187.6547    1891.7016    1246.9902    1355.1342    698.16052    372.50497    496.81694   -4243.8856 
18513000    236.26748   -4907.5856   -4435.0214   -4907.5856            0    2517.5267    18.146587    23.057605    19.483732    8152.3217    4020.3096    1152.5496    2379.7208   -56.262641    296.00625   -593.28332   -4135.7045 
18514000    222.64584    -4907.726   -4462.4069    -4907.726            0    3720.1035    18.192655    22.958496    19.364524    8088.0972    2827.9462    4188.5272    4143.8372    158.57906     567.6853    1302.5824   -4023.5961 
18515000    217.83874   -4897.9936   -4462.2892   -4897.9936            0    1048.0859    18.168981    23.027076    19.510633    8162.8296    428.97072    1998.2565    717.03052   -1571.5376    -418.6157   -1195.0112   -4337.5183 
18516000    219.53064   -4895.1335   -4456.0451   -4895.1335            0    2961.9261    18.053119    23.125261    19.425755    8109.9242    2529.9948    3564.4757    2791.3078   -428.19716    76.380413    895.64505   -4105.7235 
18517000    228.10049   -4917.3049   -4461.0757   -4917.3049            0    2592.9618    18.104034    23.004459    19.480164    8112.9724     3790.311    2073.6924    1914.8818   -109.16748   -1416.1413    2002.7048   -4154.2781 
18518000      220.012   -4919.1185   -4479.0673   -4919.1185            0    1385.6506    18.279105    22.981561    19.354592    8130.5229    1000.7131    627.46215    2528.7766   -1258.2149   -2025.3779    598.99851   -4314.7634 
18519000    228.64095    -4921.397   -4464.0869    -4921.397            0    1299.2171    18.210454    22.757214    19.659402    8147.2337    1587.5661    1511.4857    798.59938    882.54785   -1500.7685   -164.81954   -4309.7151 
18520000    220.45217   -4909.8581   -4468.9265   -4909.8581            0     662.6673    18.300503    22.839597    19.552577    8172.5097    293.34705     1241.279    453.37585   -134.68986    1254.7681    -1036.272   -4389.9447 
18521000    218.81645   -4931.5935   -4493.9336   -4931.5935            0    2554.7832    18.328088    23.002677    19.299029     8136.376    2659.9143    2288.9721    2715.4632   -86.461147    1382.9873   -427.15837   -4190.7812 
18522000    215.77521   -4890.0811    -4458.504   -4890.0811            0    3445.6164     18.13682      23.0192    19.389646     8095.082    3278.5029    3333.0006    3725.3458    538.01819    2290.2182    235.96467   -4051.7198 
18523000    215.89347   -4926.5267   -4494.7131   -4926.5267            0    1240.7634    18.254533    23.157221    19.272327    8146.8798    883.67324   -58.536916     2897.154   -597.90987    209.16168   -1026.4405   -4347.2932 
18524000    226.97406   -4874.4271    -4420.451   -4874.4271            0    3646.0397    18.058954    23.026575    19.461135    8092.6379    4339.0225    3050.3002    3548.7964    1076.5205   -751.24613    1172.7526   -3990.1351 
18525000    222.96965   -4878.6512   -4432.6843   -4878.6512            0    378.56024    18.384869    22.967393    19.445868    8211.0663   -1024.5748    1226.0757    934.17984   -415.70668   -654.46228    1084.0171   -4387.3518 
18526000    227.39345   -4895.0242   -4440.2093   -4895.0242            0    1772.7716    18.198491    22.708206    19.762889    8167.1142    1069.3229    2811.8076    1437.1843    54.578096    43.253005    641.78842   -4229.0562 
18527000     232.4213   -4902.3935   -4437.5222   -4902.3935            0    803.78026    18.193426    23.048803    19.485065    8170.8026    746.27418    92.589258    1572.4774    95.917571   -624.94191    1262.9316   -4341.7415 
18528000    218.59143   -4906.9596   -4469.7497   -4906.9596            0    2734.6009    18.050404    23.232244     19.33114    8106.5404    4105.9276    669.48387    3428.3913    16.007249   -1906.2464   -280.87429   -4146.4499 
18529000    215.59764   -4896.3889    -4465.167   -4896.3889            0    2376.6739    18.001621    23.161386    19.486349     8124.687     3304.138    1030.0867    2795.7969    79.701893   -269.75846    330.10188   -4183.5543 
18530000    220.30001   -4881.2954   -4440.6681   -4881.2954            0    2145.3618    18.276332    22.973581    19.448703    8165.9811    1111.9518    2470.6602    2853.4736    243.52484   -39.974805    1222.8061   -4185.1717 
18531000    220.92336   -4877.4152   -4435.5411   -4877.4152            0    2321.9042     18.27719    22.707753    19.628671    8146.5646    2011.0517    3405.8263    1548.8347   -44.679793    308.72718    -67.95375   -4159.6774 
18532000    229.49534   -4907.5075   -4448.4885   -4907.5075            0    3359.1043    18.216703    22.737312    19.523221    8086.4959    3344.2032    2497.4327    4235.6772   -1483.5972    20.465705    862.10493   -4052.3384 
18533000    211.98168    -4887.095   -4463.1055    -4887.095            0     2769.619    18.075778    23.071157    19.467184    8118.3823    2017.8617    2756.8727    3534.1225   -1049.3613    877.15037    190.37124   -4135.1874 
18534000    215.81107   -4922.1182   -4490.4694   -4922.1182            0    2274.9716    18.138752    23.233688    19.241419    8108.9133    1165.4347    1658.6712     4000.809   -220.22722    9.7756609    2421.7815   -4221.4309 
18535000    210.42175   -4914.6121   -4493.7426   -4914.6121            0    583.96479    18.223819    23.043154    19.489162    8184.1667   -1342.8662    1276.9626     1817.798    655.94409    370.92551    71.375926    -4424.042 
18536000    220.86351   -4931.7722   -4490.0179   -4931.7722            0     1844.796    18.142028    22.903852    19.541326    8119.8571    4003.9803    190.90093    1339.5067    50.194024   -815.93061   -870.70572   -4271.5575 
18537000     203.4695   -4870.5021    -4463.538   -4870.5021            0     833.0881    18.314292    23.097539    19.386709    8200.8704     229.4704    729.64018    1540.1537     1311.014    371.93608    1728.1404   -4363.8996 
18538000    222.65324   -4913.3214   -4467.9874   -4913.3214            0      595.817    18.099553    23.102781    19.488835    8149.2568   -393.27545    358.90283    1821.8236    204.19412   -44.665801    374.85594   -4397.1754 
18539000    220.63669   -4911.3576   -4470.0569   -4911.3576            0      2789.34    18.167286    23.058867    19.363959    8111.8927    2612.7154    2831.0002    2924.3046    578.74573    741.85812   -1361.6131   -4140.0679 
18540000    224.02452    -4905.172   -4457.0953    -4905.172            0    1966.3765    18.239214    23.052364    19.366564    8142.8072    2292.3877    2023.9014    1582.8403    574.33532      101.691   -769.41461   -4223.5792 
18541000    219.25578   -4894.9114   -4456.3728   -4894.9114            0    1520.3245    17.957866    23.141605    19.581497     8137.558     2709.531    236.17433    1615.2682    341.26803   -969.19764    347.77146   -4275.9438 
18542000    229.53092    -4917.777   -4458.6868    -4917.777            0    3215.0252    18.137978    22.951588    19.419033    8084.0541    1820.7358    3286.8985    4537.4414   -546.54272    447.91676   -245.04529   -4079.6429 
18543000    216.54791   -4876.4146    -4443.292   -4876.4146            0    2051.2888    18.362051    22.940255    19.388698    8167.1039    1387.3149    2846.0271    1920.5246   -266.14289    724.60503    430.15705   -4198.9654 
18544000     211.9725   -4915.0984   -4491.1273   -4915.0984            0    2213.3162    18.153222    22.790273    19.655483    8131.8051    1971.9558    2130.0367     2537.956   -137.57961   -473.46439    606.46024   -4228.6412 
18545000    217.88345   -4931.2412   -4495.4474   -4931.2412            0    3472.0619    18.194525    22.810363    19.438033    8067.2445     3838.154      2886.83    3691.2018    176.00562   -755.63606   -347.39446   -4086.9506 
18546000    212.52476    -4906.676   -4481.6002    -4906.676            0     1046.812    18.220095    22.938489     19.55532    8172.9789    2089.8735    708.78056    341.78176   -472.43718   -620.03335   -1760.8389   -4356.8259 
18547000    226.54805   -4916.6868   -4463.5627   -4916.6868            0    2307.2175    18.129478     22.92162    19.504866    8105.3837    2694.6881    2029.6969    2197.2676    1639.6463   -524.49297    1122.7178   -4190.8295 
18548000    218.57194   -4915.2961   -4478.1252   -4915.2961            0    2350.0711    18.125974    22.962825    19.516223    8123.1123    1576.7532    2878.2497    2595.2105     -306.023    719.01143   -1738.5729   -4199.7187 
18549000     226.0431   -4899.7485   -4447.6344   -4899.7485            0    3712.2201    18.218123    23.028689    19.255658    8078.5093    3641.1346    3461.8264    4033.6993   -321.62266    918.72381     103.0803   -4010.2726 
18550000    215.54467   -4917.0389   -4485.9229   -4917.0389            0    2896.5934    18.265279    22.986692    19.338522    8119.4401    2170.3353    2799.4237    3720.0212   -191.70518   -349.43862    806.46091   -4142.9266 
18551000    233.25797   -4878.1132   -4411.5684   -4878.1132            0    2569.5903    18.109156    22.878741    19.638548     8136.539    3005.3504    2712.0033    1991.4174   -249.29693   -540.32504    1870.9265   -4106.6529 
18552000    225.16703   -4929.5559    -4479.194   -4929.5559            0     3146.009     18.05971    22.872342    19.525327    8065.2849    3336.8489    3797.6569    2303.5213   -1105.9734    97.443891    1415.2359   -4109.1481 
18553000    212.04511   -4921.8956   -4497.7792   -4921.8956            0    3012.4623    18.062478    22.952866    19.488892    8079.8148    2916.1411    3550.2833    2570.9624    750.50404   -478.72008    1531.3613   -4142.8033 
18554000    230.01603   -4891.6545    -4431.594   -4891.6545            0    1542.8082    18.056834    23.115154    19.490697    8135.1537     3228.541    1160.1365    239.74716   -411.59411    -290.8252   -340.09294   -4248.5508 
18555000    225.25068    -4893.994   -4443.4648    -4893.994            0    3627.6584    18.134752    22.928236    19.414864    8072.6596    4682.5299     3046.362    3154.0831    714.86176   -460.30939   -859.80904   -4016.3753 
18556000    238.44038   -4895.3147   -4418.4045   -4895.3147            0    1893.0562    18.388136    22.772755    19.482591    8158.3064    1799.7268    2830.0829    1049.3589    689.84485     510.1077   -1340.3184   -4193.1677 
18557000    215.03585   -4920.9207   -4490.8224   -4920.9207            0    2074.3748    18.085677    22.942655    19.594229    8130.3011    1593.3291    3322.1991    1307.5962    1667.6703    2231.7951    2711.7279   -4244.8594 
18558000    223.73965   -4910.7054   -4463.1985   -4910.7054            0    2375.1993    18.162201    23.120356     19.30594     8106.884    1512.8508    2634.9154    2977.8316   -1306.5464    864.26773   -1422.6003   -4182.3773 
18559000    217.90937   -4900.4224   -4464.5768   -4900.4224            0    2045.2372    18.116681    23.148972    19.413275    8141.5883    2376.5863    1774.0828    1985.0425    909.17419    1526.3965    311.45488    -4221.732 
18560000    216.65195   -4897.1229   -4463.7922   -4897.1229            0      2138.76    18.284694     22.87724    19.429864    8127.5768    2346.5026     2705.153    1364.6243   -1051.1437    363.80409   -2467.5645   -4210.2799 
18561000    220.81496   -4887.9081   -4446.2509   -4887.9081            0    3015.9597    18.197792    22.939886    19.478709    8131.4896     2735.419    3677.3803    2635.0798    676.12643    494.52693   -645.26574   -4088.5899 
18562000     234.4782    -4884.696   -4415.7106    -4884.696            0    2059.1608    18.180731    22.962265    19.507309    8143.7315    2187.8867    1582.1683    2407.4274    73.606977    1300.4103   -237.65534   -4171.1483 
18563000    228.04197   -4887.3922   -4431.2801   -4887.3922            0    1442.0706    18.191506    23.030282     19.50666    8172.4229    1012.5125    1380.5388    1933.1603   -652.22875   -652.46298   -822.09814   -4259.4049 
18564000    215.55073   -4899.9059   -4468.7778   -4899.9059            0     2826.567    18.220398    22.891779    19.476033    8123.4016    3087.3328    3069.4743    2322.8938    442.36618   -1063.5787    134.95027   -4133.9103 
18565000    220.99854   -4932.9083   -4490.8839   -4932.9083            0    2983.9582    18.192959    22.873513    19.517263    8121.8529    3996.2532    3029.4456     1926.176   -586.15457    877.80592   -871.19078   -4137.4374 
18566000    226.64164   -4884.7224   -4431.4111   -4884.7224            0    1814.5569    18.227706    22.889027    19.553881    8158.1617    2119.5581    2106.1214    1217.9913    1113.3632   -136.89314    1241.9757    -4215.518 
18567000     226.6649   -4928.0188    -4474.661   -4928.0188            0    2131.8866    18.202795    23.052722    19.366532    8126.6613    2682.9258    2148.2902    1564.4437    521.02374     641.9462   -68.919937   -4221.9919 
18568000    224.73391    -4911.142   -4461.6464    -4911.142            0    1774.8169    18.123792     23.08219    19.466925    8143.7313    929.32317    2424.6522    1970.4755   -1091.5509    1119.7065   -684.05924    -4250.855 
18569000    211.14664   -4917.9876   -4495.6682   -4917.9876            0    1834.1763    18.094727    23.294432    19.266501    8120.9531    1202.9377    1465.1087    2834.4825   -970.82669   -39.241191     -2732.79   -4278.4361 
18570000    218.30501   -4889.2197   -4452.5827   -4889.2197            0    289.17997    18.134001    23.125111    19.588621    8214.5038    78.367622    994.39119    -205.2189   -60.551058   -218.42897     526.8738   -4417.9389 
18571000     222.3669   -4909.4299   -4464.6686   -4909.4299            0    3607.4751    18.188727     22.88396    19.412082    8079.8932    3857.5905    3814.9005    3149.9344   -169.28125     659.1747   -27.484956   -4039.5748 
18572000    227.04566   -4854.9434    -4400.824   -4854.9434            0    874.08975    18.225019    22.950739    19.573159    8187.0151    912.28084     429.7769    1280.2115   -60.984238   -2282.8689    671.79996   -4296.4583 
18573000    209.11017   -4915.6733   -4497.4271   -4915.6733            0     2918.946    18.217171    22.729866    19.631592     8128.929    1992.0982    4759.5658    2005.1741    108.30604    32.622916   -1515.4645   -4151.3799 
18574000    212.19404   -4928.2906   -4503.8763   -4928.2906            0    1453.3091    18.308925    22.889686    19.454532     8153.113    1395.8562    654.91053    2309.1606   -510.26821   -384.73577    1092.6778   -4331.0709 
18575000    220.49531   -4918.5018   -4477.4839   -4918.5018            0    2576.6629    18.124194    22.853809    19.582026    8111.0094    3008.2383    2085.9666    2635.7839   -578.36947    372.63454   -1042.9174   -4172.6885 
18576000    222.64866   -4893.9911   -4448.6662   -4893.9911            0    2702.5072    18.164671    23.099354     19.37979    8131.6084    3416.7019    1681.7775    3009.0422   -154.88725    676.29051    717.11618   -4128.1728 
18577000    215.58541   -4936.2163   -4505.0188   -4936.2163            0    2941.1694    18.016286     23.06716    19.480687    8095.8725    4700.5557      1914.41    2208.5426   -423.48925    569.72983   -458.24222    -4157.755 
18578000    232.94034   -4892.8166   -4426.9072   -4892.8166            0    2433.9916    18.187222      23.0631     19.39771    8136.4412    1135.5569    1603.8949    4562.5231    -853.1158   -450.71525   -462.92292   -4138.0857 
18579000    216.18106   -4909.7984   -4477.4095   -4909.7984            0    2707.6876    18.194356     22.75891    19.529611    8086.8939    4574.4051    2247.4895    1301.1681    702.67107   -726.20991   -744.24029   -4158.0674 
18580000    230.22363   -4894.1635   -4433.6878   -4894.1635            0    2238.9129    18.328046    22.804662    19.507216    8153.3317     2979.289     1224.167    2513.2828    2084.5834   -1348.5464    259.71004   -4167.4632 
18581000    219.85279   -4897.9506   -4458.2179   -4897.9506            0    1780.7373    18.075206    23.162337    19.485875    8158.0344     2244.494    907.72191    2189.9961    1142.4049   -24.676978    2260.6634   -4246.3518 
18582000    223.06289   -4933.8406   -4487.6873   -4933.8406            0    1595.6083     18.18895    23.055789    19.341011    8110.8577    2090.4056    1309.9438    1386.4754   -300.73659    700.80239    547.75662   -4298.9451 
18583000    225.71323    -4903.373   -4451.9187    -4903.373            0    2812.7095    18.148835    22.886141    19.584925    8134.7314    3621.3267     3128.156    1688.6458      163.687    1332.3223   -233.50047   -4118.2281 
18584000    216.22791     -4861.91   -4429.4275     -4861.91            0    1413.3554    18.370597    22.707079    19.629943    8188.4856     1924.032    2169.1351     146.8992   -1506.5888    1465.6003   -326.55634   -4260.6436 
18585000    217.08654   -4914.5262   -4480.3263   -4914.5262            0    3076.4271     18.15947    22.887744    19.482967    8097.6923     3943.299    3496.8171     1789.165    820.89338    1638.6848   -913.76869   -4117.0109 
18586000    217.16605   -4916.6114   -4482.2525   -4916.6114            0    1169.8881    18.209202    23.007172    19.411268    8132.2003    1081.4683     1054.023    1374.1729    121.48417    762.11544    1068.0407    -4343.504 
18587000     217.2277   -4913.3576   -4478.8754   -4913.3576            0     2215.366    18.194167    23.213253    19.353151    8173.7223    3060.1665    1297.9577     2287.974    153.44689    99.356376    -797.9555   -4214.7919 
18588000    216.79191   -4899.8865   -4466.2759   -4899.8865            0    3907.5489    18.063525    22.911421    19.549928     8090.953    3578.3261    5031.6881    3112.6325   -206.61034    1390.5951    1264.5526   -4005.1919 
18589000     216.5736   -4943.7753   -4510.6013   -4943.7753            0    3945.0711    18.155347    22.849574    19.424752    8058.2019    3043.6707    4735.3326    4056.2101    390.64869    350.97097     1267.275   -4046.9742 
18590000     217.5433    -4905.861   -4470.7475    -4905.861            0     3438.542     18.08171    23.068254    19.376284    8082.1092    4417.2965    2448.8174    3449.5121    182.16645   -470.80031    548.36983   -4065.4491 
18591000    222.30167   -4922.9566   -4478.3258   -4922.9566            0     1722.668    18.017951    23.050452     19.57756    8130.9896    3315.9315    1767.2271    84.845482    1136.7637   -786.04187    725.22269   -4274.0481 
18592000    225.19623   -4922.8819   -4472.4616   -4922.8819            0    2706.3252    18.201094    22.852967    19.505032    8113.0987    3976.0902    2991.6595    1151.2258    539.98548    725.99437    182.35093   -4152.2459 
18593000     218.3803   -4885.6327   -4448.8451   -4885.6327            0    2741.0622    18.341603    22.799319    19.424931    8123.0414    621.21856    2772.3307    4829.6373    841.09394   -1271.2584   -125.67161   -4124.1218 
18594000    219.54917    -4909.691   -4470.5655    -4909.691            0     3079.744    18.090762    23.141345    19.331763    8093.1378    2496.6901    3197.1633    3545.3786    279.82404   -426.81446    279.47334    -4107.063 
18595000    207.67268   -4917.6971   -4502.3261   -4917.6971            0     1162.028    18.074107    23.251821    19.391378    8149.3412    1520.4235    1101.0967    864.56366    510.19449     605.2557    1853.5243   -4364.2193 
18596000    223.91481   -4907.1739   -4459.3166   -4907.1739            0     859.6725    18.201525    23.078769     19.45453    8172.2407   -257.94348     861.7022    1975.2588   -1513.1062    113.64736    -1628.614   -4356.8576 
18597000    218.19953   -4909.7521   -4473.3261   -4909.7521            0    2649.0899    18.208692    22.808858      19.4791    8090.0494    2144.0959    3040.2529    2762.9211   -899.14789    191.83248    1963.8552    -4160.773 
18598000    221.21798    -4910.981   -4468.5177    -4910.981            0    1523.8775    18.269629    22.693596    19.652553    8148.0184    2117.7518    1871.7582    582.12246    83.526169    328.65726     386.5575   -4287.4346 
18599000    216.06142   -4905.2726   -4473.1231   -4905.2726            0    4091.2703    18.109228    22.949098    19.337606    8036.5243    4790.3556    3333.8038    4149.6515    127.26102   -583.33968    276.90121   -3993.6079 
18600000    216.55712   -4895.2108   -4462.0698   -4895.2108            0    3330.3578    18.139532    22.998386    19.407429    8096.3904    3223.3338    3562.1473    3205.5922   -1294.0193   -183.67717     -1195.44   -4068.8293 
18601000    215.67046   -4935.6589   -4504.2913   -4935.6589            0    742.17677    18.134874    22.807596     19.63047    8119.4156    824.58292    1261.3732    140.57416    608.93849   -544.23241    -275.0339   -4416.4077 
18602000    218.22456   -4903.2582   -4466.7821   -4903.2582            0    2691.0097    18.245517    23.014362    19.319142    8112.2804    2454.8003    2932.9012    2685.3274    231.21321   -533.42357    421.67834   -4148.4107 
18603000    227.49771   -4905.1762   -4450.1527   -4905.1762            0    3640.2912    17.988318    23.101277    19.447788     8081.589    3371.5305    4722.9957    2826.3473   -89.787708    929.58867    1463.0132   -4021.1018 
18604000     216.4029   -4886.7501   -4453.9176   -4886.7501            0     2888.561    18.072594    23.237149    19.326222    8116.1543    2004.9764    2255.5959    4405.1106   -379.17809   -304.68551    1551.1834   -4112.0108 
18605000    236.17499   -4896.4851   -4424.1059   -4896.4851            0    2990.5036    18.108735     23.05777    19.413136    8105.8977    2148.7145    3094.4156    3728.3808    -1022.805    561.61599    1759.5893   -4070.5799 
18606000    217.87013   -4926.2537   -4490.4865   -4926.2537            0    807.94073    18.317285    22.859665    19.472497      8153.66    631.06636    495.80482     1296.951   -140.33117   -803.42761    503.59793    -4394.412 
18607000    217.98186   -4894.4905   -4458.4999   -4894.4905            0    1894.1929    18.402488     22.67054    19.608377    8180.5039    1513.8309    2793.3715    1375.3762   -1193.0538   -549.26431    526.93183   -4232.5146 
18608000    220.52175   -4889.4497    -4448.379   -4889.4497            0    2243.6401      18.3132    22.793294    19.551172    8161.0144    1247.9457    3342.4877     2140.487    571.84598    379.42957   -1124.8964   -4181.3409 
18609000    217.70009   -4914.4139   -4478.9868   -4914.4139            0    938.93865    18.121885    23.320661    19.277858    8147.0992    1060.4733    1158.2932     598.0494    1140.1828    534.30808     -314.627   -4367.4249 
18610000    230.09793   -4902.1969   -4441.9727   -4902.1969            0    3748.2486    18.080601    23.068029    19.394389    8089.0862     3669.968    3215.7083    4359.0695    323.42101    207.28862    990.09644   -3999.7879 
18611000    230.71545   -4883.9957   -4422.5363   -4883.9957            0    3085.1703    18.247716     22.92959    19.339622    8091.9423    4157.3574    1797.0172    3301.1364    324.23066    -899.7043    435.47395    -4058.447 
18612000    213.08315   -4882.2897   -4456.0971   -4882.2897            0    3696.0733    18.196394    22.705974     19.65141    8119.3111     4967.681    3828.9552    2291.5836   -1342.0708   -143.82701   -306.71377   -4018.4383 
18613000    222.45515   -4925.0811   -4480.1433   -4925.0811            0    3372.1696    18.218397    22.722947    19.480987    8064.6547    3268.7449    4189.5164    2658.2474    431.75823    6.9941604   -492.71536   -4083.5265 
18614000    229.59751   -4913.5231   -4454.2997   -4913.5231            0    1974.9981    18.183846    23.055438    19.340848      8108.39    2075.4521    984.60457    2864.9377   -478.99768    1136.8278   -834.35413   -4220.7511 
18615000     216.6601   -4906.0113   -4472.6643   -4906.0113            0    1507.0844    18.146946    23.251901    19.358701    8168.4229    1867.7083    663.42059    1990.1243    731.92367    1233.7572    861.30273   -4293.1282 
18616000    211.92794   -4915.6776   -4491.7955   -4915.6776            0    1779.4162    18.330389    22.845265    19.420259    8132.4781   -405.68591    2307.3414    3436.5933   -594.75344   -24.555848   -435.32933   -4280.7499 
18617000    206.10839   -4909.1041   -4496.8619   -4909.1041            0    3218.6776    18.290388    22.606609    19.545771    8081.8567    1361.6519    4437.0989     3857.282    868.56906    63.910353    1378.7919   -4117.4906 
18618000      219.716   -4929.3102   -4489.8511   -4929.3102            0    1498.4114    18.150534    22.901719    19.513572     8111.371    1175.7464    1691.9961    1627.4919    -191.6438   -581.19451   -65.320589   -4312.5949 
18619000     206.8832   -4897.1205   -4483.3285   -4897.1205            0    3228.2505    18.022613    23.149072     19.36728    8080.1605    4472.0916    1425.0958    3787.5641   -669.62565   -867.93346   -1028.4093   -4102.9087 
18620000    222.33444    -4915.275   -4470.5787    -4915.275            0    2111.6258    18.038276    23.147827    19.515146    8148.4886    2896.7519    2022.6276    1415.4978    912.29257   -111.37278    717.30734   -4219.6387 
18621000     214.4066   -4917.2555   -4488.4158   -4917.2555            0    1596.5625    18.192403    23.000205    19.454019    8140.1259    3520.3411     566.2769    703.06949   -507.12279    -1164.574    230.24502   -4298.8793 
18622000    229.77021   -4902.2733   -4442.7045   -4902.2733            0    3493.1616    18.151253    22.766214     19.61823     8106.945    3608.7496    4091.8475    2778.8879   -2081.7642    177.45374   -372.61101   -4029.7028 
18623000    212.35916   -4895.6207   -4470.8762   -4895.6207            0     1561.917    18.122918    22.863383    19.712617    8167.9468    2260.9703    2067.6799    357.10084   -397.81491    495.11564    1192.9981   -4284.8189 
18624000    215.88846   -4887.8239   -4456.0203   -4887.8239            0    2882.4748    18.236929    22.962031    19.366926    8110.0346    2814.9971    3154.5525    2677.8747   -681.33303    473.94617    431.54408   -4115.0912 
18625000    217.53622   -4883.6201   -4448.5208   -4883.6201            0    2324.4385    18.246264    23.020389    19.439246    8165.1852    1488.6666    2990.4019    2494.2469    1090.8028    693.03094   -114.24301   -4171.7246 
18626000     215.5468   -4914.1308   -4483.0106   -4914.1308            0    2653.2557    18.127236    22.925166    19.489851    8099.3951    2706.5348    2183.0818    3070.1506    461.50653    577.78513    359.19502   -4169.6044 
18627000    213.05007   -4906.1954    -4480.069   -4906.1954            0    3518.5668    18.213684    23.033921    19.371612    8127.0221    5249.6567    2561.3655    2744.6783    640.35358    457.97063    473.41282   -4063.0333 
18628000    219.53284   -4918.7261   -4479.6333   -4918.7261            0    1674.6595     18.10745    23.133686    19.479476    8159.7983    1448.2124    1467.6009    2108.1652   -202.53147    216.02759   -76.451153   -4280.3449 
18629000    233.93431   -4895.6395   -4427.7419   -4895.6395            0    3133.6967    18.268451    23.015288    19.323143    8124.4863    3049.5895    2802.5399    3548.9607   -584.03877   -347.31581   -895.28943   -4056.4387 
18630000    225.07929     -4949.77   -4499.5836     -4949.77            0    1591.6963    18.156279    22.790499    19.655505    8133.2647    1764.0179    1939.6837    1071.3873   -5.9191403    60.572778     1952.619   -4310.7841 
18631000    210.19068   -4920.2642   -4499.8569   -4920.2642            0    2421.0511    18.227352    22.964554     19.46935     8149.539    1478.8665    2921.6287    2862.6581    681.63963    232.17509    897.53671   -4212.1085 
18632000    221.69696   -4879.8267   -4436.4054   -4879.8267            0    2904.7095    17.897877    23.399672    19.341139     8100.155    4098.2791    1469.9669    3145.8825   -332.24093   -17.254176    949.01336   -4093.2649 
18633000    223.06395   -4892.8211   -4446.6656   -4892.8211            0    1878.7042    18.069486    23.232412     19.44208    8161.7415    1271.9674      1958.45    2405.6951    -528.3506   -106.71025    990.27369   -4223.0423 
18634000    206.86071   -4904.6563   -4490.9093   -4904.6563            0    3564.5283    18.145998     22.85225    19.458559    8069.0143    3318.5807    3094.0471     4280.957   -536.95495    508.37687    -1310.272   -4071.4417 
18635000     209.2267   -4893.5418   -4475.0626   -4893.5418            0    4568.9751    18.307226    22.555786    19.521164      8060.95     3086.785     5413.165    5206.9752    782.45073     152.6465     424.5949   -3937.9307 
18636000    239.64879   -4927.2533   -4447.9261   -4927.2533            0    2193.6257    18.200316    22.849882    19.544657    8128.1357    1992.0313     2739.085    1849.7607   -742.09928    107.51662    -350.8194   -4187.8926 
18637000    226.36953   -4931.9551   -4479.1881   -4931.9551            0    2321.5188    18.009132    23.199989    19.381402    8097.7759    3623.9625    1257.2358    2083.3581   -851.26723   -143.02225    677.35994   -4205.0219 
18638000    223.45238   -4918.4299   -4471.4976   -4918.4299            0    1891.8568    17.988787    23.104283    19.535504    8119.3076    2695.0635     1949.859    1030.6479     193.0165    533.34486   -226.63507   -4247.4795 
18639000    210.31694   -4916.2526   -4495.5928   -4916.2526            0    2526.5242    18.181723    23.076607    19.373603    8128.6302    3215.7336    2199.8126    2164.0265   -1085.6177   -189.59218   -1165.2819    -4196.079 
18640000    226.85985    -4911.644   -4457.8963    -4911.644            0    2711.0423    18.280788    22.716213    19.560299    8122.8109    2724.9707    3402.7732    2005.3829    771.65217    205.63637    1151.9684   -4136.7384 
18641000    222.79121   -4916.2598   -4470.6499   -4916.2598            0     3380.699    18.099881    22.800192    19.585055    8082.3753    3845.5597    3522.0506    2774.4866    1788.5474   -342.04049   -778.86702   -4072.1562 
18642000    226.95459   -4923.5292    -4469.592   -4923.5292            0    2700.3624    18.206924    23.038887    19.348153    8115.9167    2518.8852    3048.4869    2533.7152    210.79791   -325.37711   -764.96608   -4149.9708 
18643000    217.93672   -4910.8449   -4474.9446   -4910.8449            0    2470.7104      18.0073    23.422281    19.209317    8101.9529    3052.6299    976.22954    3383.2719   -514.71852   -408.27473   -451.79073   -4183.0087 
18644000    231.66701   -4921.8402   -4458.4775   -4921.8402            0    1150.2004    18.006139    23.464132    19.291143    8150.4772    1639.2377   -370.30797    2181.6716    24.421339    500.82032    2473.2086   -4321.7574 
18645000    219.16189   -4909.5921   -4471.2413   -4909.5921            0      2618.91    18.155425    22.971424     19.48306    8125.5266    2616.9567    1820.6101    3419.1632   -30.493009    -900.0484   -1121.6209   -4160.8939 
18646000    222.99747   -4922.6069   -4476.5844   -4922.6069            0    25.628372    18.292498    22.839959    19.615023    8195.1547     329.1045    931.12552   -1183.3449   -1051.7634    118.63516    130.82939   -4473.5213 
18647000    222.06336   -4937.6646   -4493.5104   -4937.6646            0    3042.7892    18.268351      22.9045    19.337691    8091.4206    3306.7019    2071.0361    3750.6295   -1053.6471   -468.86307    976.47379   -4134.4459 
18648000    222.02998   -4919.9519   -4475.8645   -4919.9519            0    2528.6746    18.032083    22.993197    19.601005    8126.8754    2957.7667    2839.9239    1788.3332   -242.53167   -372.77016   -58.761261   -4176.1606 
18649000    228.47458   -4903.1159   -4446.1385   -4903.1159            0    901.08965    18.202444    23.092964     19.44704     8174.532     1597.491    671.65166    434.12631   -471.33659   -401.32253    35.636096   -4338.7131 
18650000    217.29114   -4913.4401    -4478.831   -4913.4401            0    1819.0445    18.061301    23.008641    19.608714    8148.7149    2127.7943     1294.115    2035.2242   -284.52633    161.81473   -640.68878   -4262.6546 
18651000    230.61478   -4881.6342   -4420.3762   -4881.6342            0    1817.5198    18.324846    22.981582    19.448248    8190.3173     722.8981    1931.8431    2797.8181    1479.1681   -189.62136   -1300.1739   -4203.2782 
18652000    222.74392   -4900.1254   -4454.6101   -4900.1254            0    3735.5595    18.183812    22.917488    19.380192    8076.2551    3377.2776    3660.4143    4168.9867    1191.4414    1386.1964    122.20001   -4014.6213 
18653000      215.508   -4888.8947   -4457.8521   -4888.8947            0      2946.09    18.155894    22.939312    19.518767    8129.2488    3239.0244    3586.2046    2013.0411    1684.8641   -131.26655   -777.71597   -4108.5732 
18654000    218.45127   -4908.0804   -4471.1509   -4908.0804            0    2754.6272    18.151182    23.002784    19.411098    8104.6718    2163.1467    3543.3173    2557.4175   -1282.0992    265.38682    756.41335   -4145.5585 
18655000    221.18649   -4920.3909   -4477.9906   -4920.3909            0    400.98665    18.234745    22.930685    19.562402    8179.7288    588.73631    308.27982    305.94384   -291.35923   -423.64727    1912.8807   -4430.1557 
18656000    213.24131   -4921.0346   -4494.5256   -4921.0346            0    960.82467    18.306491    22.898372    19.480329    8165.9365   -52.924102    1452.5148    1482.8833   -934.03687   -459.94812    21.105913   -4380.0993 
18657000    222.43844   -4913.6459   -4468.7415   -4913.6459            0    3784.4188    18.050425    22.931735    19.494463    8069.2954    4220.4468    3989.2363    3143.5732   -658.69647   -51.058582   -1279.4542    -4023.382 
18658000     216.8811   -4923.8895   -4490.1005   -4923.8895            0    2606.4707    17.956394    23.245776    19.392008    8094.4243     2956.589    2422.7567    2440.0665   -968.04863    839.64806   -2327.0163   -4182.4096 
18659000    214.96822   -4919.6581   -4489.6951   -4919.6581            0    1801.3268    18.153176    23.173184    19.316125    8125.6541    2313.1838     766.7544    2324.0421     167.4455   -487.83081   -2459.6881   -4276.2301 
18660000    222.74325    -4905.009   -4459.4949    -4905.009            0    3313.3699    18.185709    22.981995    19.447386    8127.9158    3891.8195    2310.2268    3738.0634    601.30242    32.391216   -617.69086    -4066.737 
18661000    224.27591    -4938.628   -4490.0485    -4938.628            0    2903.8841    18.211555     22.57892    19.657743    8083.2098    2430.1981    4231.5288    2049.9253     131.2888    345.37715   -1276.0279   -4147.7232 
18662000    220.93067   -4903.1028   -4461.2142   -4903.1028            0    2822.3487     18.33523    22.869957    19.399947    8134.9008    2712.0687    2767.7829    2987.1946   -20.595911    354.55973   -783.95553   -4126.3731 
18663000    212.81718   -4893.5288   -4467.8681   -4893.5288            0    2610.0413    18.138656    22.985057    19.461449     8113.829    2173.8044    2830.1091    2826.2105   -739.86792    -31.26137    294.85282    -4159.017 
18664000    224.39433    -4932.178   -4483.3616    -4932.178            0    1555.8884     18.16787    22.978328    19.555599    8163.8223    2446.7512    1291.3561    929.55781     124.0095    239.48853    672.39364    -4298.116 
18665000     214.4233   -4912.0428   -4483.1697   -4912.0428            0    2375.8214    18.253898    22.961557    19.452592     8153.319    1980.2574    2734.0848    2413.1219   -697.27434    274.32994    176.66358   -4200.6661 
18666000    232.54354   -4896.8502   -4431.7344   -4896.8502            0    2386.9267    18.246206    22.907175    19.406048     8111.127    1462.9044    3313.3974    2384.4783    593.58208    392.87239    1166.0279   -4149.3789 
18667000    214.89611   -4906.7846   -4476.9659   -4906.7846            0    2240.2939    18.170457      22.9234    19.544198    8140.7186     2354.567    2186.8809    2179.4338   -622.81392   -202.97055    -674.2939   -4210.9891 
18668000    219.11757   -4890.3733   -4452.1111   -4890.3733            0    3093.0497     18.17432     23.00736    19.413184    8117.4889    2874.6499    3448.1623     2956.337   -558.64413    814.59111    -421.2019   -4085.9396 
18669000    230.15708   -4897.5887   -4437.2461   -4897.5887            0    3514.0657    18.137686    22.930254    19.430122    8081.0217    3339.7637    4066.9625    3135.4709    -1615.959    1158.0005   -519.96544   -4023.1015 
18670000    221.65326   -4900.8599    -4457.526   -4900.8599            0    320.75082    18.288133    23.021277    19.507916    8213.1479   -78.664082    585.05044     455.8661    322.24231   -27.253381   -359.21339   -4419.1063 
18671000    226.67282   -4914.5837     -4461.21   -4914.5837            0    609.22503    18.113143    23.162693    19.551092    8202.6445    1626.4356   0.50087037    200.73857    351.48876    642.79638   -452.37704   -4388.3302 
18672000     218.1238   -4918.9074   -4482.6328   -4918.9074            0    2271.8174    18.155935    22.965367    19.446896    8108.5333    2127.6412    2368.9361    2318.8749   -32.030318   -184.82225    -207.0339   -4213.9799 
18673000    212.58944   -4918.2419   -4493.0368   -4918.2419            0    1797.3385    18.243454    22.922673    19.519372     8162.781    1599.6773    1913.1899    1879.1483    1364.3171    436.26941     425.8647   -4279.0712 
18674000    223.77203   -4924.5613   -4476.9896   -4924.5613            0    2136.9784    18.050939    22.965201     19.56367    8109.9915      3668.84    1856.8389     885.2562     1396.832   -530.72534    455.98451   -4224.2365 
18675000    216.35711   -4909.8933   -4477.1523   -4909.8933            0    2922.9833    18.049612    23.251236    19.336433    8115.0328     4119.068    1707.5819    2942.3001   -1049.0464   -294.12934   -922.65405   -4131.2189 
18676000    225.69256   -4924.5201   -4473.1071   -4924.5201            0     2954.389    17.947412    23.124726    19.441938    8068.9676    3237.7918    2335.9999    3289.3754   -388.34517    643.20917     141.3504   -4125.4416 
18677000    228.23825   -4905.8546   -4449.3499   -4905.8546            0     1208.732    18.289446    23.003241     19.40871    8165.5655    -285.0451    2037.9007    1873.3404   -1141.2544    701.61259    1446.9726   -4305.4064 
18678000     219.3769   -4897.9318   -4459.1509   -4897.9318            0    385.00353     18.32568    22.802596    19.599464    8190.0883    447.51497    1263.1028   -555.60714   -220.84951   -620.47021    2037.9776   -4413.1646 
18679000     229.8393   -4909.6611   -4449.9541   -4909.6611            0    2571.1521    18.333452    22.756449    19.440358    8110.6002    620.27864    3201.8679    3891.3099   -439.01289    -823.5869   -722.38723    -4145.826 
18680000    221.67686   -4904.0728   -4460.6917   -4904.0728            0    2222.1364    18.206362    22.986421    19.424151    8128.9897    793.67224    2646.4348    3226.3021    848.86515   -296.94083   -241.39693   -4197.2508 
18681000     221.0736   -4922.8074   -4480.6329   -4922.8074            0    2273.7023    17.984123    23.175533    19.431849    8099.0321    3643.8864    693.10171    2484.1189    368.76731   -1182.3283    945.75406   -4212.0721 
18682000    219.42666   -4902.2286   -4463.3482   -4902.2286            0    3183.4863    18.159003    23.010057    19.408242    8109.5335    3594.3965    2707.3184    3248.7438    376.06312    178.95832   -2313.7345   -4086.8397 
18683000    211.07457   -4908.9516   -4486.7764   -4908.9516            0    1625.1913    18.332549    22.795507    19.484693    8142.6483    836.06376    2425.6986    1613.8116   -426.05329   -176.70258   -500.21928   -4293.7814 
18684000    213.63716   -4921.5926   -4494.2919   -4921.5926            0    2992.5491    18.228622    22.580969    19.626613    8078.7055     2061.241    4926.5198    1989.8866   -1242.8506    129.93891   -2615.9744   -4141.7108 
18685000    226.41248   -4895.2389   -4442.3859   -4895.2389            0    3836.1486    18.047953    23.064341    19.377915    8066.3311    3609.7119    4949.1556    2949.5782    699.40357    303.35167     1252.263   -3991.1046 
18686000    227.38131   -4905.9688   -4451.1781   -4905.9688            0    1724.2797    18.080048    23.196065     19.37737    8126.5969    2402.4416    867.93494    1902.4625    247.46474   -1813.3235    1086.6613   -4246.8198 
18687000    214.36312   -4908.6284   -4479.8756   -4908.6284            0    2633.8061    18.047555    23.118843    19.401832    8095.1931    1737.3211    1874.4048    4289.6924    150.38467   -1081.9117    1924.1152   -4168.9283 
18688000    229.29111   -4906.3553   -4447.7447   -4906.3553            0       3008.6    18.151862    22.856275    19.509399    8094.1369    2715.1154    3067.7221    3242.9626   -203.18962   -463.13373    230.39089   -4092.5955 
18689000    205.70476   -4905.6941   -4494.2592   -4905.6941            0    1731.7358    18.275948     22.90147    19.448633    8140.1488     270.2551    2397.0385    2527.9137   -147.25916    937.25617    1612.2595   -4288.6749 
18690000    233.21363   -4899.7684   -4433.3123   -4899.7684            0    1345.2197    18.235868    22.926265    19.549724    8173.3554    1220.3186    1788.5742    1026.7664   -252.38119    1004.5854    453.80218   -4272.9621 
18691000    211.13742   -4881.4621   -4459.1611   -4881.4621            0     3400.164    18.219965    22.860503    19.464521    8107.3145     2779.746    4421.1567    2999.5891    93.857494   -170.24123    289.93264   -4057.1364 
18692000    226.60019    -4911.092   -4457.8636    -4911.092            0    709.73553    18.194684    22.943657    19.538724    8156.4911    995.58882    1070.1981    63.419713   -71.538451    187.63456    1905.9993   -4373.4377 
18693000    221.68128   -4909.0152   -4465.6252   -4909.0152            0    3759.5637    18.019263    22.903121    19.501114    8048.0586    4722.7736    3231.0307    3324.8869   -732.40257   -491.50324   -383.72158   -4024.3552 
18694000    221.12213   -4903.7416     -4461.47   -4903.7416            0    2288.8261    18.159361    23.113544    19.350329     8121.859    3343.3081    1187.4182    2335.7519    546.95518   -394.20669    1396.5311   -4190.3609 
18695000    217.14931   -4896.4112   -4462.0857   -4896.4112            0    3091.7857    18.027693    23.094977     19.48597    8112.9672    3637.4368    1775.3187    3862.6016    712.65218   -239.05903    857.00155   -4096.2678 
18696000    223.42889   -4921.8043   -4474.9189   -4921.8043            0    2250.6664    18.178145    22.986448    19.482212    8140.6615    4062.5089    2212.2208    477.26954    -1080.112    202.19035   -24.050783   -4207.7126 
18697000    227.40192   -4918.0814   -4463.2495   -4918.0814            0    2706.0483    17.981425     23.15386    19.472452    8107.1491    5091.8657    879.08397    2147.1953    801.27835    535.73425    2036.0747   -4143.3013 
18698000    209.22864   -4883.5366   -4465.0535   -4883.5366            0    2599.3673    18.102687     23.22761    19.312695    8120.6437    2984.3189    1747.1015    3066.6815   -177.37879   -257.46583   -739.47725   -4157.2071 
18699000    218.03151   -4886.3922   -4450.3022   -4886.3922            0    1707.7559     18.30598    23.000937    19.432033    8181.9484     2048.026    777.46267     2297.779    285.01182     -512.763   -109.51314   -4246.5237 
18700000    215.99863   -4904.6857   -4472.6618   -4904.6857            0    3962.4535    18.210218    22.591343    19.608225    8066.6916    4316.1658    4586.4909    2984.7038    1936.6102     970.0475     862.9737   -4006.5012 
18701000    221.32942   -4901.8333   -4459.1471   -4901.8333            0    2608.9332    18.344323    22.739188     19.54205    8151.6733    1044.2427    3399.8787    3382.6782    -465.1233    689.04892   -1542.0992   -4148.9872 
18702000    220.03569   -4906.7728   -4466.6742   -4906.7728            0    2402.0122    18.152609    23.133309    19.399445    8146.4075    2043.1171    2105.2962    3057.6233    1611.5913   -1468.4504    1128.6217   -4181.2984 
18703000    210.34528   -4913.7469   -4493.0303   -4913.7469            0    3298.3349    17.988149    23.217946    19.347384    8080.3937    4184.9227    2971.4621    2738.6199    5.6280676   -30.674925    2184.7363   -4104.3405 
18704000    221.19054   -4932.4104    -4490.002   -4932.4104            0    2212.7258    18.117286    23.038225    19.394852    8095.2197     950.3388    2768.5487    2919.2899   -16.992513    20.084617    1027.2093   -4228.7665 
18705000    213.35925   -4925.9098   -4499.1649   -4925.9098            0    1253.7259    18.350607    22.864611    19.476911    8172.1126    265.78395    1968.3047    1527.0891      301.077    290.74091   -240.33507   -4349.7435 
18706000    213.35108   -4912.1261   -4485.3976   -4912.1261            0    3258.2811    18.172864    22.706798    19.550523    8067.4755    5558.2348    3658.6134    557.99519    49.938584    393.92548    1282.2895   -4102.0417 
18707000    218.35798   -4897.5063   -4460.7633   -4897.5063            0    2722.5947    18.156344    22.980447    19.389509    8090.0963    1978.0305    3157.9872    3031.7663   -39.274044    744.71389   -16.865082   -4139.5359 
18708000    223.97357   -4897.8255   -4449.8507   -4897.8255            0    2087.4527    17.945012    23.351793    19.391571    8126.0029    2909.4365    122.02734    3230.8944    170.09047    318.55013   -893.56329   -4202.4679 
18709000    224.09364    -4918.166    -4469.951    -4918.166            0    2058.5284    18.311618    23.004606    19.355286    8153.4446    2424.2839    1628.1156    2123.1857    50.461237   -682.55888     -557.639   -4225.1722 
18710000    228.77267   -4913.4276    -4455.854   -4913.4276            0    2535.5409    18.171923    22.749619    19.598874    8102.2595    2875.8845     2240.776    2489.9623   -150.66683    194.51591    -1229.108   -4156.2465 
18711000    220.31837   -4902.0365   -4461.3725   -4902.0365            0    2858.2046    18.147454    23.054241    19.421367    8125.4297    990.81709    2454.6783    5129.1185    128.88395    838.95705   -1251.3879   -4122.6723 
18712000     217.5133   -4896.7313   -4461.6778   -4896.7313            0    3007.0426    18.051206    23.173284    19.331603    8086.5199    3907.1359    2458.8376    2655.1544     -550.931   -1224.5019   -752.13827   -4107.0465 
18713000    210.59656   -4887.6635   -4466.4444   -4887.6635            0    2328.6347     18.14826    23.086405    19.492329     8166.859    3055.2434    2215.7472    1714.9134    824.70427    8.8189899    1159.8012   -4189.0917 
18714000    215.02273   -4900.5718   -4470.4998   -4900.5718            0    2873.0562    18.287344    22.837182    19.453861    8124.5434    1961.3663    3100.8788    3556.9235   -790.81407   -214.14391   -2041.7307   -4130.0767 
18715000    219.86284   -4949.5713   -4509.8185   -4949.5713            0    2431.8102    18.154827    22.696523    19.578815     8067.479    2339.3492    2617.0693    2339.0121    7.7240183   -55.430037   -452.33722   -4223.7016 
18716000     217.9295   -4909.0137   -4473.1278   -4909.0137            0    2575.0481    18.226492    22.943964    19.415995    8119.5356    4092.1588    2613.0891    1019.8962   -514.09818    -110.1961   -98.481072   -4168.2032 
18717000    212.09898   -4924.7572    -4500.533   -4924.7572            0    2320.2222    18.087053    22.985954    19.457104    8089.2553    2802.3692     2182.372    1975.9254    854.20801    845.52257    49.023714   -4226.8083 
18718000    223.32466   -4893.9144   -4447.2374   -4893.9144            0    595.93686    18.148324    23.216437    19.543405     8234.407    1255.2299    747.58745   -215.00672    1352.6971    283.09876    239.30964   -4375.6712 
18719000    222.06239   -4910.8834   -4466.7311   -4910.8834            0    4365.5162    18.198958    22.969425    19.298372    8067.0976    3149.9774    3961.7285    5984.8428   -252.26921   -453.94057   -680.26075   -3953.1266 
18720000    210.85408   -4916.6246   -4494.8904   -4916.6246            0    3768.3624    18.063305    22.779519    19.588357    8060.0878    3681.7135     3198.944    4424.4297     1342.057   -123.28558    1567.1273   -4051.9265 
18721000     219.9465   -4915.1583   -4475.2382   -4915.1583            0    2353.5152    18.289719    22.654746    19.642498    8138.8481    2017.1583    3735.8639    1307.5235   -1215.7938   -324.16714   -1459.9654   -4195.8836 
18722000    205.88786   -4919.2406   -4507.4394   -4919.2406            0    2595.2878    18.218526    22.978738    19.386175    8115.8037    953.05196    3793.4236    3039.3879    1531.1648    1468.8245    1310.6427   -4200.2594 
18723000    205.62212   -4912.9612   -4501.6915   -4912.9612            0    2749.0425    18.005403    23.104032    19.438293    8086.2794    3800.4124    2266.7115    2180.0035    -1324.833    85.440484    339.50863   -4177.4967 
18724000     222.7179   -4911.5147   -4466.0514   -4911.5147            0    2200.6253    18.191565    23.129764    19.324445    8131.0809    2474.8386    1152.8582    2974.1792    1875.0636   -195.74691    534.67813   -4205.0936 
18725000    223.57462   -4933.4777   -4486.3008   -4933.4777            0    2788.2418    18.287854    22.901779    19.317196    8090.5129    2593.8129    3152.6087    2618.3037    195.26409   -303.62403    2569.1615    -4157.311 
18726000    224.25149   -4924.8712   -4476.3405   -4924.8712            0    1936.6244    18.151215     22.90562    19.624422    8159.1441    2151.5308    2813.5929     844.7496   -809.83627    1172.5629   -123.09843   -4245.8962 
18727000    229.36857   -4876.9549   -4418.1894   -4876.9549            0    2271.4168    18.220003    22.977582    19.464861    8148.9953    2700.9722     3277.899    835.37934   -342.49721    123.92695   -517.14998   -4148.2435 
18728000    224.61548   -4894.3082   -4445.0495   -4894.3082            0    2107.7195    18.261509    22.885839    19.484679     8143.231    1702.9955    2694.5611    1925.6019     766.3614    572.29291   -947.74523   -4194.7354 
18729000    215.51551   -4879.8754   -4448.8177   -4879.8754            0    2703.4948    18.104538    22.747549    19.746514    8132.2832    3339.3842    3049.7321    1721.3681   -469.80534    208.40509   -516.33768   -4128.1805 
18730000    235.85114   -4896.6616   -4424.9302   -4896.6616            0    3202.5114    18.142681    22.945877    19.494785    8115.6734    737.66779    4452.6184    4417.2479    176.15148    1055.5541   -473.12734   -4045.8849 
18731000     215.3779   -4878.4236   -4447.6412   -4878.4236            0    3901.8343    18.128423     23.24956    19.213727    8098.1607    3539.3939    3092.1915    5073.9177   -760.46835    439.41741    1504.3589   -3986.8215 
18732000    230.63061    -4924.095   -4462.8053    -4924.095            0    2149.3865    18.066505    23.079517    19.501215    8131.3477    3155.2705    1046.9485    2245.9406    573.99718    534.06239   -1338.7062   -4207.9152 
18733000    207.20513     -4896.51   -4482.0742     -4896.51            0    2655.2995    18.205935    22.872029    19.538443    8135.9381    1933.1189    2742.3326    3290.4471    -415.2541    463.05828   -238.85416   -4167.0114 
18734000    224.87874   -4897.9258   -4448.1405   -4897.9258            0    1825.5489    18.311555    22.773768    19.502582     8133.027    1860.2278    1988.1877    1628.2312     443.3123   -999.21988   -904.62703   -4231.6087 
18735000    214.92539   -4915.5104   -4485.6331   -4915.5104            0    3732.5734    18.198264    22.743986    19.555414    8094.0065     3242.694    3687.6609    4267.3653   -1579.1087    644.43089   -877.07034   -4045.0298 
18736000    220.19267   -4924.2088   -4483.7963   -4924.2088            0    1299.7223    18.120011     23.11243    19.451555    8146.2621    1772.2608    902.69146    1224.2146    293.29083    868.12318    392.04555   -4329.3829 
18737000    213.05752   -4900.8736   -4474.7322   -4900.8736            0    2520.3857    18.016684    23.318096    19.347712    8128.2598    2799.4095    2706.0558    2055.6919   -906.57074    1175.5284    710.10674   -4175.9598 
18738000    209.53376    -4873.012   -4453.9186    -4873.012            0     2644.473    18.027927    23.026025    19.592951    8133.2593    3074.3584    3638.8077    1220.2529    163.12659    1152.9174    792.47005   -4140.2438 
18739000      221.348   -4910.7957   -4468.0724   -4910.7957            0    3010.1456     18.25322    22.824596    19.506873    8126.9999      2476.41    3329.2466    3224.7804    1138.4391   -391.46208   -19.580757    -4111.298 
18740000    227.89744    -4905.792    -4449.969    -4905.792            0    810.44672    18.271891    22.694993     19.71086    8173.7082    157.80021    2326.5655   -53.025601     748.8974    1291.9101     1497.049   -4353.3596 
18741000    219.39793   -4923.9511   -4485.1281   -4923.9511            0    3362.4456    18.164126    23.079107    19.229986    8061.4369     2585.847    3231.4276    4270.0622   -672.42816    832.54985   -1849.4002   -4089.8128 
18742000    213.94372   -4906.5598    -4478.646   -4906.5598            0    879.90482    18.092376       23.219    19.453513    8172.1655     1573.241    492.02723    574.44627    422.60222   -180.97871    383.13367   -4373.7766 
18743000    228.68339   -4901.7745   -4444.3794   -4901.7745            0    2636.9306    18.188008    23.028057    19.370383    8112.9846    1573.3893    3452.9784    2884.4241    149.39688    643.23249    842.62806    -4132.379 
18744000    230.54593   -4909.8425   -4448.7221   -4909.8425            0     2802.013    18.324031    22.637205       19.502    8089.5242    2697.9777    3499.2664    2208.7948   -269.09744   -287.34596    1205.0596   -4118.1479 
18745000    226.56493   -4889.0775   -4435.9196   -4889.0775            0    3808.5633     18.20017    22.609265    19.694242    8104.0323    5312.7952    4998.3293    1114.5653   -257.69198    329.94184    232.65292   -3985.7893 
18746000    223.53203   -4914.4877    -4467.396   -4914.4877            0    1330.5765     18.06434    23.119137    19.507243    8146.8482    2109.3391    1163.7273    718.66304   -1663.6768    95.393527   -1771.1656   -4309.3057 
18747000    219.43311    -4904.519   -4465.6256    -4904.519            0    1624.9565    18.046016    23.406643    19.314998    8158.5906    1517.5675    693.66129    2663.6408    1282.9729   -66.400931    1160.8364   -4272.2807 
18748000    222.69702    -4897.417   -4451.9954    -4897.417            0    2970.2159     18.14196    22.992302    19.455127    8115.2284    2361.8804     2375.217    4173.5503   -351.82852   -411.67864   -1301.1915   -4100.4636 
18749000     216.0411    -4906.141   -4474.0321    -4906.141            0    3307.8031    18.313137    22.435326     19.74795    8113.6663    1965.2646    5370.4661    2587.6787    615.22911    546.39234   -555.49303   -4082.6214 
18750000    223.16415   -4890.2775   -4443.9217   -4890.2775            0    1793.7217    18.288785    22.910364    19.525005    8181.0302    2552.8014    1490.6358     1337.728   -406.24165   -355.96164   -808.79682   -4229.9093 
Loop time of 445.771 on 64 procs for 250000 steps with 1008 atoms

Performance: 96.911 ns/day, 0.248 hours/ns, 560.826 timesteps/s
99.2% CPU use with 64 MPI tasks x 1 OpenMP threads

MPI task timing breakdown:
Section |  min time  |  avg time  |  max time  |%varavg| %total
---------------------------------------------------------------
Pair    | 27.705     | 31.447     | 34.996     |  30.9 |  7.05
Bond    | 0.28486    | 0.29536    | 0.3063     |   0.7 |  0.07
Kspace  | 205.66     | 211.12     | 219.15     |  21.7 | 47.36
Neigh   | 2.9489     | 3.3128     | 3.6753     |  10.4 |  0.74
Comm    | 83.258     | 91.642     | 100.46     |  35.4 | 20.56
Output  | 0.99195    | 0.9928     | 0.99816    |   0.1 |  0.22
Modify  | 92.372     | 97.846     | 102.92     |  25.2 | 21.95
Other   |            | 9.113      |            |       |  2.04

Nlocal:        15.7500 ave          21 max          11 min
Histogram: 1 1 6 11 7 14 14 7 1 2
Nghost:        2469.97 ave        2485 max        2453 min
Histogram: 2 4 12 4 5 12 5 8 9 3
Neighs:        5123.09 ave        6891 max        3572 min
Histogram: 1 7 7 9 14 12 10 1 2 1

Total # of neighbors = 327878
Ave neighs/atom = 325.27579
Ave special neighs/atom = 2.0000000
Neighbor list builds = 7177
Dangerous builds = 0

unfix		3
unfix		2
unfix		1

write_data	data.final.${pid}
write_data	data.final.0
System init for write_data ...
PPPM initialization ...
  extracting TIP4P info from pair style
  using 12-bit tables for long-range coulomb (../kspace.cpp:340)
  G vector (1/distance) = 0.37843688
  grid = 24 27 36
  stencil order = 5
  estimated absolute RMS force accuracy = 0.0025234976
  estimated relative force accuracy = 7.599438e-06
  using double precision FFTW3
  3d grid and FFT values/proc = 4050 480
Last active /omp style is kspace_style pppm/tip4p/omp
WARNING: Not all mixed pair coeffs generated from mixing. Use write_data with 'pair ij' option to store all pair coeffs. (../write_data.cpp:312)

write_restart   restart.lmp.${pid}
write_restart   restart.lmp.0
System init for write_restart ...
PPPM initialization ...
  extracting TIP4P info from pair style
  using 12-bit tables for long-range coulomb (../kspace.cpp:340)
  G vector (1/distance) = 0.37843688
  grid = 24 27 36
  stencil order = 5
  estimated absolute RMS force accuracy = 0.0025234976
  estimated relative force accuracy = 7.599438e-06
  using double precision FFTW3
  3d grid and FFT values/proc = 4050 480
Last active /omp style is kspace_style pppm/tip4p/omp
Total wall time: 0:07:27
