LAMMPS (30 Jul 2021)
  using 1 OpenMP thread(s) per MPI task
package omp 0
using multi-threaded neighbor list subroutines
echo both

include		in.partitions
variable        pid world 0
include		in.temp
variable        temperature equal 263.99
variable	tempDamp equal 100.0
include		in.pressure
variable        pressure equal 8625.0
variable        pressureDamp equal 1000.0 # This is 1 ps
include		in.seed
variable        seed world 745823

units		real
atom_style	full
read_restart    restart.lmp.${pid}
read_restart    restart.lmp.0
Reading restart file ...
  restart file = 30 Jul 2021, LAMMPS = 30 Jul 2021
  restoring atom style full from restart
  triclinic box = (-3.1301610 -0.22657880 -0.0084157770) to (14.740160 22.806578 19.238414) with tilt (0.12572986 -6.4374702 -0.16866678)
  4 by 4 by 4 MPI processor grid
  restoring pair style lj/cut/tip4p/long/omp from restart
  restoring bond style harmonic/omp from restart
  restoring angle style harmonic/omp from restart
  1008 atoms
  672 bonds
  336 angles
Finding 1-2 1-3 1-4 neighbors ...
  special bond factors lj:    0        0        0       
  special bond factors coul:  0        0        0       
     2 = max # of 1-2 neighbors
     1 = max # of 1-3 neighbors
     1 = max # of 1-4 neighbors
     2 = max # of special neighbors
  special bonds CPU = 1.890 seconds
  read_restart CPU = 2.291 seconds

include 	in.setup
variable	out_freq equal 1000
variable	out_freq2 equal 10000
variable	out_freq3 equal 1000

timestep	2.0

neigh_modify    delay 7 every 1

include		in.tip4p
# This is TIP4P/Ice

# create groups ###
group ox type 2
336 atoms in group ox
group hy type 1
672 atoms in group hy

# set charges - beside manually ###
set group ox charge -1.1794
Setting atom values ...
  336 settings made for charge
set group hy charge 0.5897
Setting atom values ...
  672 settings made for charge

# ### TIP3P Potential Parameters ###
pair_style lj/cut/tip4p/long/omp 2 1 1 1 0.1577 8.5
pair_coeff 1 1*2 0.000 0.000
pair_coeff 2 2 0.21084 3.1668
bond_style  harmonic
bond_coeff  1 450 0.9572
angle_style harmonic
angle_coeff 1 55 104.52
kspace_style pppm/tip4p/omp 1.0e-5
pair_modify tail yes

thermo          ${out_freq}
thermo          1000
thermo_style    custom step temp pe etotal epair emol press lx ly lz vol pxx pyy pzz pxy pxz pyz enthalpy

restart 	${out_freq3} restart.lmp.${pid} restart2.lmp.${pid}
restart 	1000 restart.lmp.${pid} restart2.lmp.${pid}
restart 	1000 restart.lmp.0 restart2.lmp.${pid}
restart 	1000 restart.lmp.0 restart2.lmp.0


include         in.dump
dump            myDump all atom ${out_freq2} dump.water.${pid}
dump            myDump all atom 10000 dump.water.${pid}
dump            myDump all atom 10000 dump.water.0
dump            myDump2 all dcd ${out_freq2} dump.dcd
dump            myDump2 all dcd 10000 dump.dcd
dump_modify     myDump append yes
dump_modify     myDump2 append yes


variable natoms 	equal  "count(all)"                        # NUMBER ATOMS
variable H      	equal  "enthalpy/v_natoms"                 # ENTHALPY-per-atom
variable Vol      	equal  "vol/v_natoms"                 # volume-per-atom
fix AVG all 		ave/time ${out_freq} 1 ${out_freq} v_Vol v_H file vol_enthalpy.dat
fix AVG all 		ave/time 1000 1 ${out_freq} v_Vol v_H file vol_enthalpy.dat
fix AVG all 		ave/time 1000 1 1000 v_Vol v_H file vol_enthalpy.dat



fix 		1 all shake 1e-6 200 0 b 1 a 1
       0 = # of size 2 clusters
       0 = # of size 3 clusters
       0 = # of size 4 clusters
     336 = # of frozen angles
  find clusters CPU = 0.033 seconds
fix             2 all nph tri ${pressure} ${pressure} ${pressureDamp}
fix             2 all nph tri 8625 ${pressure} ${pressureDamp}
fix             2 all nph tri 8625 8625 ${pressureDamp}
fix             2 all nph tri 8625 8625 1000
fix             3 all temp/csvr ${temperature} ${temperature} ${tempDamp} ${seed}
fix             3 all temp/csvr 263.99 ${temperature} ${tempDamp} ${seed}
fix             3 all temp/csvr 263.99 263.99 ${tempDamp} ${seed}
fix             3 all temp/csvr 263.99 263.99 100 ${seed}
fix             3 all temp/csvr 263.99 263.99 100 745823


run             250000
PPPM initialization ...
  extracting TIP4P info from pair style
  using 12-bit tables for long-range coulomb (../kspace.cpp:340)
  G vector (1/distance) = 0.3831898
  grid = 24 30 32
  stencil order = 5
  estimated absolute RMS force accuracy = 0.0019743297
  estimated relative force accuracy = 5.9456352e-06
  using double precision FFTW3
  3d grid and FFT values/proc = 4080 384
Last active /omp style is kspace_style pppm/tip4p/omp
Neighbor list info ...
  update every 1 steps, delay 7 steps, check yes
  max neighbors/atom: 2000, page size: 100000
  master list distance cutoff = 10.8154
  ghost atom cutoff = 10.8154
  binsize = 5.4077, bins = 5 5 4
  1 neighbor lists, perpetual/occasional/extra = 1 0 0
  (1) pair lj/cut/tip4p/long/omp, perpetual
      attributes: half, newton on, omp
      pair build: half/bin/newton/tri/omp
      stencil: half/bin/3d/tri
      bin: standard
Per MPI rank memory allocation (min/avg/max) = 9.343 | 9.347 | 9.349 Mbytes
Step Temp PotEng TotEng E_pair E_mol Press Lx Ly Lz Volume Pxx Pyy Pzz Pxy Pxz Pyz Enthalpy 
 6500000    266.31974   -4783.6371   -4250.9647   -4783.6371            0    9430.3305    17.870321    23.033157     19.24683    7922.1856    9328.0636    9690.8832    9272.0448   -1527.7677     831.5573   -966.81166   -3161.4131 
 6501000    259.33813   -4813.0313    -4294.323   -4813.0313            0    8666.4203     17.89996    23.036895    19.273727    7947.7044    10255.689    7441.5889    8301.9828    87.334409    47.545986     1529.324   -3289.8059 
 6502000    264.59457    -4803.698   -4274.4762    -4803.698            0    9710.1702    17.893209    23.042096    19.136461     7889.906    10956.316    8159.8466    10014.348    223.97876   -230.36562    -2362.418   -3157.1639 
 6503000    261.35737   -4822.4545   -4299.7075   -4822.4545            0    7640.6863     17.88861    22.901275    19.434927    7961.9453    8428.9103    7276.8323    7216.3162   -1797.1075    250.55392   -1029.4725   -3412.4954 
 6504000    251.53574   -4832.3489   -4329.2463   -4832.3489            0    7750.6606    17.947211    23.255479    19.087292    7966.4822    8271.7321    5474.1796    9506.0699   -884.51318   -1412.8429    1219.8602   -3428.7516 
 6505000    261.17868   -4804.3853   -4281.9956   -4804.3853            0    8949.6086    17.601969    23.148486    19.416319    7911.3527    11018.111    8377.1231    7453.5915   -722.52404    685.54953   -825.38313   -3249.3991 
 6506000    269.18142   -4798.6992   -4260.3031   -4798.6992            0    8907.8719    18.096857    22.993574    19.047143    7925.7338    6917.5627    8623.9577    11182.095    214.13937    764.56693    576.29332   -3230.6538 
 6507000    264.95788   -4810.1099   -4280.1614   -4810.1099            0    9387.4285    17.700026    22.914758    19.494182    7906.6805    9180.3299    8723.8708    10258.085   -1484.6517   -213.86326    -1315.695   -3197.6893 
 6508000    258.94416   -4801.0159   -4283.0956   -4801.0159            0    8536.2185      18.0068    22.960301    19.255992     7961.227    7022.9935     8971.408    9614.2541   -243.41128    422.69453    123.84114   -3291.9866 
 6509000    269.22523   -4795.8269   -4257.3432   -4795.8269            0    8721.8728    17.929549     22.87117    19.403825     7956.922    8500.9036    8695.6382    8969.0766   -656.13529    494.96414    300.90979   -3245.2261 
 6510000     264.1458   -4800.8492    -4272.525   -4800.8492            0    9253.6315    18.059181    22.747864    19.381492    7962.0682    10005.526    9138.1834    8617.1855    292.48391    612.48136   -1235.0761   -3198.0062 
 6511000    262.99509   -4817.0843   -4291.0616   -4817.0843            0    9685.7604    18.170146    22.418307    19.497762    7942.2945    9766.7633    9166.3412    10124.177    1496.8065   -142.92155    200.36773   -3169.1579 
 6512000    258.75751   -4750.8035   -4233.2565   -4750.8035            0    8070.6664    18.130725    22.738246    19.344215    7974.8631    9057.5087    8391.6865    6762.8039    1609.5124    343.70234   -250.62833   -3294.5961 
 6513000    286.01449   -4816.2604   -4244.1961   -4816.2604            0    8429.1724    18.133582    22.716672    19.284136    7943.8036    8545.2467     7832.808    8909.4625    1578.8128   -1106.8324    1104.2658   -3267.6577 
 6514000    265.34941   -4818.1445   -4287.4129   -4818.1445            0    10344.622     17.99607    22.504846    19.490681    7893.7017    9250.7427    11389.809    10393.313   -369.99235    307.07498   -575.06073   -3096.5241 
 6515000    262.17532   -4809.5985   -4285.2155   -4809.5985            0    8403.5095     18.23184    22.604099    19.260414    7937.4922    7587.5409    8162.4603    9460.5271   -610.97757   -143.62323    344.02893   -3312.4237 
 6516000    269.75165   -4810.7347    -4271.198   -4810.7347            0    9270.8797    17.982547    22.682175    19.430391    7925.3318    10230.875    8363.7132    9218.0509    1568.6692   -2247.6325    -663.2173   -3199.6435 
 6517000    265.16275   -4805.2163    -4274.858   -4805.2163            0    11254.426    17.939208    22.692671    19.311123    7861.3372    9836.4216    11516.231    12410.624    18.049491   -268.70729    848.98264   -2984.5433 
 6518000     264.4086   -4849.4849    -4320.635   -4849.4849            0       7139.1    18.006302    23.022074    19.272024    7989.0712    5718.9722    7990.9138     7707.414    1018.1534   -152.61031    34.101124   -3488.8413 
 6519000    262.56053   -4810.8477   -4285.6942   -4810.8477            0    9927.6007    17.849269    22.939704    19.324105    7912.3891    10848.597     10240.14    8694.0654    414.39369    -359.1773    122.05992   -3140.1078 
 6520000    267.10796   -4823.4719    -4289.223   -4823.4719            0    8615.5436     18.07679    23.029393    19.052367    7931.4529    7518.9609    7736.8084    10590.861   -2736.3765    524.29527    1555.5481    -3292.645 
 6521000    255.56128   -4825.9999   -4314.8458   -4825.9999            0    7335.6891    17.842944    23.068978     19.41688    7992.3464    7712.3375    6614.8456    7679.8841   -1201.8862    16.238745    187.29978   -3459.7966 
 6522000    261.65069   -4810.2478   -4286.9141   -4810.2478            0    6626.2817    18.059196    23.099669    19.104248    7969.5558    5417.7881    5827.6922    8633.3647    669.13096    -187.3932    375.57919   -3516.7559 
 6523000    258.80735   -4839.4178   -4321.7711   -4839.4178            0    7691.9688    17.779751    22.977582    19.427756    7936.9317    9178.2834    6557.0213    7340.6017   -1313.4284    70.206416    1029.2181   -3431.4103 
 6524000    275.47943   -4778.8698    -4227.877   -4778.8698            0    9725.8603    18.073953    22.717939    19.242151    7900.8844    11174.236     9218.413    8784.9321   -1275.9409   -1286.4475    2191.4201   -3107.2021 
 6525000    280.37143     -4812.55   -4251.7725     -4812.55            0    8165.5753    17.885125    22.749354     19.47675    7924.6034    10028.251    8242.2388    6226.2365    -634.9474   -121.60953    1378.7634   -3308.0589 
 6526000      260.831   -4799.4357   -4277.7415   -4799.4357            0    6031.2207     18.29089    22.718523    19.323729    8029.8212     4742.896    7273.1798    6077.5863    491.52758   -119.74667   -566.75521   -3571.4451 
 6527000    267.98701   -4797.1044   -4261.0973   -4797.1044            0     8326.028    17.867588    22.879071    19.466802    7957.9083    10290.194    7627.0245    7060.8655   -290.76437   -470.93816    1740.5489   -3294.7957 
 6528000    263.60425   -4838.9704   -4311.7293   -4838.9704            0    6453.9576    18.225873    22.844038    19.244692    8012.5761    4859.6629    6824.8431    7677.3669    150.13234    1480.8953    1033.1921   -3557.5508 
 6529000    261.10894   -4812.7772   -4290.5271   -4812.7772            0    8710.5923     17.99111    22.729526    19.497762    7973.2083    8983.0097     8743.691    8405.0761    1029.0084    218.51137    519.82403   -3277.6501 
 6530000     272.8254   -4808.3535    -4262.669   -4808.3535            0    7983.9598     17.96361    22.830317    19.379253    7947.7205    9634.0643    8226.8989    6090.9163   -901.66715    52.445863   -646.64319   -3337.2534 
 6531000    284.50921   -4817.5805    -4248.527   -4817.5805            0    8406.7133    17.936392    22.967365    19.300965    7951.0647    9306.6649    8069.1708    7844.3041    -812.6731   -155.04692    1539.4511   -3273.7003 
 6532000    267.99394    -4803.564    -4267.543    -4803.564            0    9540.6843    17.843649    22.980982    19.268688    7901.4063    10524.185    8850.2305    9247.6375    -1022.733    323.46949   -180.12296   -3168.1327 
 6533000    263.66932   -4797.6243   -4270.2531   -4797.6243            0    11142.064    17.927354    22.891117    19.177632    7870.0621    12094.727    10175.184    11156.282    338.84665    240.13254   -556.09197   -2991.4028 
 6534000    255.76959    -4829.707   -4318.1362    -4829.707            0    6720.6724    17.998954    22.881803     19.41339    7995.3759    5547.9195    5996.8714    8617.2263    773.69117    466.68229     187.5535   -3534.4765 
 6535000    261.36447    -4841.633   -4318.8718    -4841.633            0    8042.0098    18.170025     22.60718    19.289743    7923.7061    6304.8866    8884.8872    8936.2557   -102.65142   -246.07217   -513.81149   -3389.5441 
 6536000     266.8905   -4850.1514   -4316.3374   -4850.1514            0    8945.2694     18.08295     22.62858    19.367295    7924.9323    9637.4658     8554.237    8644.1053    1074.5521     305.2882   -793.46912     -3282.47 
 6537000    272.02138   -4830.6317   -4286.5553   -4830.6317            0      7268.72    18.168721    22.606378    19.525985     8019.888    8469.4936    7096.2878    6240.3787   -709.33638   -520.97995   -2401.6338   -3436.3925 
 6538000    265.43048   -4818.5508    -4287.657   -4818.5508            0    9847.5129    18.053487    22.816109    19.203924    7910.2946     7549.546    10331.775    11661.218    20.775812   -691.32762     1401.462   -3151.6131 
 6539000    262.75958   -4823.7885   -4298.2369   -4823.7885            0    6601.8696    17.853991    22.762999    19.684075    7999.8125    7252.3117    6969.1588    5584.1383       341.21     350.2956    194.90099   -3528.0029 
 6540000    263.13641   -4811.2686   -4284.9633   -4811.2686            0    8798.0153    18.121077    22.876231    19.202445    7960.2188    9211.6042    8745.6936    8436.7481    1223.0191   -480.06084    1201.3431   -3263.5874 
 6541000    270.48328   -4823.2344   -4282.2344   -4823.2344            0    8746.6617    17.939932    22.850217     19.34734    7931.0812    9489.4626     8812.608    7937.9145   -641.15384   -955.24099   -1691.8521    -3270.537 
 6542000    270.11275    -4821.951   -4281.6921    -4821.951            0     9860.128    17.954116    22.723437    19.382714    7907.7446     11610.69    9335.9381    8633.7556     1137.727    317.37279   -8.8072865   -3144.5596 
 6543000     274.0633   -4809.3134   -4261.1529   -4809.3134            0     8703.514     18.11948    22.693349    19.320661    7944.4951    10017.484    7544.7084    8548.3498    -977.8243   -2494.0692   -1129.0983   -3252.7436 
 6544000    266.05245   -4841.3389   -4309.2012   -4841.3389            0    8615.8378    17.991227    22.623042    19.413103    7901.4489    8629.1863    9283.0663    7935.2607    1919.0985   -898.00767    555.56756   -3316.3592 
 6545000    255.14864   -4826.0637   -4315.7349   -4826.0637            0    8020.8522    18.076235      22.5203    19.539965    7954.3727    7485.7603    9107.0222    7469.7741   -37.385462    132.75023   -1284.1106   -3385.2649 
 6546000     255.0131   -4825.6575   -4315.5998   -4825.6575            0    6313.3565     18.28807    22.495452    19.531838    8035.3669    5976.8461     8049.602    4913.6213    1907.4207    437.94594   -877.42631   -3575.7528 
 6547000    276.04137   -4825.4697   -4273.3529   -4825.4697            0    9317.7726     18.15391    22.688692    19.172862    7897.0807    8267.8552    9577.0976    10108.365     219.8502   -528.21789   -1762.4742   -3200.2173 
 6548000    266.39605   -4836.2236   -4303.3986   -4836.2236            0    9058.3035    17.866373     22.75387     19.48166    7919.8627    9069.6612    9970.8957    8134.3538    1341.9999   -343.92564    1007.6322   -3257.1367 
 6549000     266.9323   -4800.4134   -4266.5159   -4800.4134            0    8256.7613    18.098779    22.719024     19.40058    7977.2586    9169.9217    6875.4115    8724.9508   -96.637437   -1846.8861   -682.81727   -3305.9231 
 6550000    259.17065   -4830.0097   -4311.6364   -4830.0097            0    9715.7538    18.065038    22.682777    19.303768    7910.0131     8263.332    9752.2174    11131.712   -18.540046    149.07903   -590.29755   -3190.8326 
 6551000    266.79513   -4759.6535   -4226.0302   -4759.6535            0     7837.126     18.19076    22.400958    19.666275    8013.8196     5923.157    8228.8555    9359.3655    783.48083   -106.39543    1170.7109   -3310.0791 
 6552000    261.88204   -4831.2509   -4307.4545   -4831.2509            0    9255.2038    18.148248    22.463402    19.369646    7896.4503    9208.0733    8779.1964    9778.3415    922.48053   -362.03363    2350.6766   -3241.6101 
 6553000    245.49229   -4824.1017   -4333.0868   -4824.1017            0    8790.2097    18.016428    22.759703    19.362517    7939.5721    9544.9414      9083.19    7742.4977    1387.9674    1056.8261     2207.298   -3315.2638 
 6554000    270.18111     -4779.44   -4239.0444     -4779.44            0    10392.845    18.051746    22.444592    19.431601    7872.9864    10737.038    11073.494    9368.0046   -788.80974    45.989713    58.395556   -3045.7438 
 6555000    273.98292   -4807.0891   -4259.0894   -4807.0891            0    11085.598    18.195615    22.351595    19.406385    7892.5964    9937.4989     12271.29    11048.005   -1605.1527    105.45273    975.46978    -2983.077 
 6556000    276.40411    -4797.558   -4244.7156    -4797.558            0    8693.4177     18.10868    22.684125    19.447947    7988.8192    7267.4966    10005.399     8807.357    1063.9392    758.65468    2930.8847   -3231.8565 
 6557000    264.91955   -4854.1902   -4324.3183   -4854.1902            0    8318.6568     18.11646    22.771738    19.272728    7950.8344    8230.8702    8798.1674    7926.9326   -505.65439    935.46921    2795.9811   -3359.7304 
 6558000    270.61322   -4825.7684   -4284.5086   -4825.7684            0    8468.5627    17.801916    22.941798    19.481339    7956.3341    9698.8979    7906.1797    7800.6103    825.26931    481.42472    1140.7231   -3301.8592 
 6559000    252.30397    -4792.711   -4288.0719    -4792.711            0    9125.1005     18.08219     22.87489    19.180655    7933.6584    9036.3297    8700.9847    9637.9871   -1018.3114   -1401.9108    1560.3468   -3232.2589 
 6560000    267.17386   -4819.4638   -4285.0831   -4819.4638            0    9790.7192    17.909573     22.86952    19.294396    7902.6628    10137.205    9370.6163    9864.3363   -1608.0963    118.48949     -283.924   -3156.6809 
 6561000    260.57231    -4778.427   -4257.2502    -4778.427            0    8269.7331    17.876977    22.958572    19.429424     7974.416    7038.9616    9810.8792    7959.3585    509.34359    1556.3785     282.4797   -3295.4911 
 6562000    273.57624    -4782.426   -4235.2397    -4782.426            0    8477.6202    17.994508     22.98774    19.265204    7969.1112    9557.0925    7717.8711    8157.8971    -243.0478    871.40703    271.34834   -3249.9596 
 6563000    270.24375   -4798.0906   -4257.5697   -4798.0906            0    7717.0438     17.97797     22.89524    19.360621    7969.0237    8245.7512    7144.2004      7761.18    566.04804     -204.102   -303.79084   -3360.6946 
 6564000    269.30207   -4818.5044    -4279.867   -4818.5044            0    9825.3713    17.781053    23.146559    19.177162    7892.7485    11539.315    8163.3226    9773.4768   -510.84637   -912.95066    781.78443   -3148.8917 
 6565000    251.79296    -4811.322    -4307.705    -4811.322            0     8327.629    17.716684    23.217303    19.275459    7928.6445    8755.5658    8391.2341    7836.0869     786.8223    140.30276   -567.58661   -3344.7717 
 6566000    259.37344    -4769.115   -4250.3361    -4769.115            0    6576.5118    17.985068    23.216064    19.171271      8004.82     7044.741    6076.0961    6608.6983   -107.97463    57.911887   -1409.4913   -3482.5803 
 6567000    257.29685    -4813.392   -4298.7665    -4813.392            0    8966.5807    17.729554    23.088108    19.370271    7929.0627    9091.7803    9224.3604    8583.6014    261.70761    941.86152   -918.71642   -3261.8958 
 6568000    264.82114   -4815.0393   -4285.3643   -4815.0393            0    7533.2063    18.050422    22.925901    19.241245    7962.4544    7121.8459    6181.6287    9296.1442   -514.14979   -1099.1589   -1205.8944   -3410.5765 
 6569000    260.71185   -4839.9441   -4318.4882   -4839.9441            0     9408.608    17.840105    22.889075    19.298674    7880.4881    10704.368    8981.2129    8540.2433    1046.6875    250.31957   -696.66848   -3237.1679 
 6570000    273.34335   -4823.9559   -4277.2355   -4823.9559            0    6480.0759    17.925553    23.107238    19.312005    7999.2257    7569.8014    5739.5774    6130.8488    1968.0369     372.1689    395.69408   -3521.2666 
 6571000    265.21126   -4811.2015   -4280.7462   -4811.2015            0    10367.405    18.003512    22.904957     19.15664    7899.6174    10207.571    9665.4256    11229.219    427.18241   -232.25358     1226.703   -3086.3401 
 6572000    269.79704    -4776.032   -4236.4046    -4776.032            0     8120.597    17.945162    22.996304    19.421324    8014.6443    10029.261    8234.7719    6097.7584    1286.9984    646.30123   -642.43385   -3287.2256 
 6573000    255.97439    -4838.311   -4326.3306    -4838.311            0    8032.0742    17.890705    23.101807    19.174187    7924.8374    7449.3511    8266.0611    8380.8104    1714.8652   -77.940607   -1142.7268   -3398.0186 
 6574000    262.95822    -4847.513   -4321.5641    -4847.513            0    9530.6135     17.79365     22.96881    19.237924    7862.5199    10885.443    8795.2321    8911.1651    469.63256    -673.4948   -1147.6478   -3228.7193 
 6575000    253.02747   -4799.8886   -4293.8024   -4799.8886            0    8540.4065    17.861584    23.123366    19.243091    7947.7805    7970.6028    9385.7606     8264.856    258.35508    9.1411211   -533.97245   -3303.8819 
 6576000    273.80582   -4824.8352   -4277.1897   -4824.8352            0    8703.7056    17.813129    22.930827    19.413515    7929.8342    8765.8629    9068.0496    8277.2043    -98.87431   -103.82936   -498.93158   -3270.6192 
 6577000    261.68185   -4854.2552   -4330.8592   -4854.2552            0    8875.3887    18.084575    22.815698    19.131707    7893.9759    7009.5636       9503.8    10112.803    147.24193    228.52002   -434.98259   -3309.0753 
 6578000    277.35104   -4781.6429   -4226.9065   -4781.6429            0    10533.243    17.945338    22.807576    19.289467    7894.9795    10302.835    10284.298    11012.596   -486.24101     944.7945    712.50248   -3014.1071 
 6579000    267.02558   -4833.1094   -4299.0253   -4833.1094            0    9136.8963    18.047669    23.022249    19.053167    7916.5512    8021.8301    8351.0189     11037.84    1796.8649    -448.0553    168.86157    -3244.127 
 6580000    256.91346   -4759.5339   -4245.6753   -4759.5339            0    9195.9374    18.016609    22.825117    19.261592    7920.9681    8264.0282    9650.7361    9673.0481   0.38057348   -400.62562    1242.8396    -3183.368 
 6581000    266.58105   -4816.9383   -4283.7433   -4816.9383            0    7283.6148    18.046834     22.89976    19.297496    7975.0407    6979.6117    7467.8694    7403.3635    796.81553    22.220882   -833.64978   -3436.6021 
 6582000    246.93854    -4807.974   -4314.0664    -4807.974            0    8645.5058    17.782048    23.068204    19.312522     7921.995     10133.35    7754.6765    8048.4904    86.602142   -654.24858   -43.517516    -3315.215 
 6583000    269.79621   -4805.9376   -4266.3119   -4805.9376            0    9433.7325    17.693749    23.318896    19.176771    7912.3107    9837.4064    9494.2731     8969.518   -1586.7794    561.60409   -200.27163   -3177.7258 
 6584000    279.23693   -4810.4265   -4251.9181   -4810.4265            0    8291.9149    17.981061    23.193269    19.085524    7959.4191    6246.7961    8521.5415    10107.407    286.44702    1173.2093    812.04012    -3289.393 
 6585000    270.97715   -4846.2257   -4304.2379   -4846.2257            0     10090.03    17.829762    23.039642    19.218335    7894.7253    11315.304    9761.5316    9193.2546    1059.5874    531.81252    2631.3997   -3142.5075 
 6586000    266.07169   -4824.1047   -4291.9285   -4824.1047            0    9039.9425    17.846047    23.178423    19.169464    7929.3192    8440.3076    7971.4898     10708.03     -1430.28   -183.25551   -413.98612   -3246.5406 
 6587000    255.35265   -4815.3018   -4304.5649   -4815.3018            0    6837.0877    17.789566    23.172074    19.339297    7972.0668    6901.3539    5548.0564    8061.8527    761.34952   -1059.1269    363.73035   -3509.6549 
 6588000    263.12316   -4822.7849   -4296.5061   -4822.7849            0    5832.5091    17.984284    23.237627    19.201847    8024.6839    5531.8267    5394.0127     6571.688    -451.3986    408.13655    444.82839   -3613.9171 
 6589000    254.28819   -4841.0966   -4332.4888   -4841.0966            0    10158.498    17.779802     23.09826    19.164663    7870.5915    11828.744     8765.862    9880.8869    131.90613    505.13682    395.01298   -3166.4507 
 6590000    261.39109   -4823.9645     -4301.15   -4823.9645            0    8164.8168    17.841517    23.231072    19.154997    7939.3164     9338.912    7377.2154     7778.323   -147.34637    963.31489    2656.1049   -3355.7721 
 6591000    252.52183   -4809.3473   -4304.2724   -4809.3473            0    7376.3084    17.935204    23.076421    19.267265    7974.3418    8538.7243    6195.3116    7394.8892   -620.96903   -834.87104   -883.30127   -3446.4255 
 6592000    260.11776   -4821.0181   -4300.7504   -4821.0181            0    8635.3291     17.80922    22.967184     19.36152    7919.3964    10419.406    9110.8631    6375.7184    554.02277   -734.08535   -471.99135   -3303.4021 
 6593000     271.8245   -4809.6121   -4265.9295   -4809.6121            0    7011.0678    17.914021    23.223063    19.133095    7959.7203    7316.9015    5770.7308    7945.5711   -1933.0662   -1141.5906   -1591.1641   -3452.0542 
 6594000     261.0635   -4806.5277   -4284.3685   -4806.5277            0    8219.4386    17.914108    23.135779     19.18456    7951.1723    7760.0741    7689.4367    9208.8051    1512.6599    744.37311    1435.2269   -3331.2449 
 6595000    252.68748   -4832.0949   -4326.6887   -4832.0949            0    8407.3635      17.7532    23.159981    19.259648    7918.8695    9202.8283    8267.6889    7751.5732    -860.2757   -431.34101   -2903.9913   -3355.7341 
 6596000    270.57933   -4811.6565   -4270.4645   -4811.6565            0     9053.383    18.012898    22.967681    19.186724     7937.826     8362.635    9617.8652    9179.6487    974.61728    438.34385    1118.4953   -3222.3991 
 6597000    269.00776    -4825.545   -4287.4963    -4825.545            0    9035.5838    17.767772    22.922823    19.405643    7903.6759    9519.2307    9231.4252    8356.0954    242.28047   -147.15972   -582.49239   -3245.9916 
 6598000    264.65319   -4823.1039   -4293.7648   -4823.1039            0    9061.8954     17.91156     23.08692    19.159889    7923.0503    9599.5338    9025.1195    8561.0331    84.996821   -1046.8635   -837.41307   -3246.6668 
 6599000    254.50695   -4803.5376   -4294.4922   -4803.5376            0    7968.7414    17.718559    23.204626     19.27487    7924.9118    8572.8085    7608.6518    7724.7639   -1554.7425   -350.91812    481.56716   -3373.4913 
 6600000    267.12308   -4816.3134   -4282.0342   -4816.3134            0    9340.8437    17.811369    23.238472    19.106488    7908.3473    9699.8864    7758.7628    10563.882   -378.94864    288.61544   -1669.1033   -3204.7068 
 6601000    260.86207   -4855.8719   -4334.1156   -4855.8719            0    7496.1349    17.822678    23.220831    19.261684    7971.5905    10315.602    5499.0522     6673.751   -1345.9019   -286.82812   -2082.9439   -3462.6339 
 6602000    256.49524   -4800.1435   -4287.1213   -4800.1435            0    7146.9404    17.965641    22.934073    19.370524    7981.1461    7963.1544     6702.999    6774.6678   -107.34104    88.720583   -798.82927   -3455.2401 
 6603000    273.10963   -4816.6544   -4270.4014   -4816.6544            0    9643.1043     18.03069    22.733496    19.335014    7925.4342    8464.4839    10383.338     10081.49   -409.32793   -29.046504    155.31876   -3155.8097 
 6604000    265.55748   -4804.9022   -4273.7545   -4804.9022            0    8109.6494    17.946182    22.816442    19.353191    7924.5127    6598.7159    9024.7997    8705.4327   -731.95249    632.90904    278.93643   -3336.5151 
 6605000    274.48333   -4789.8208   -4240.8202   -4789.8208            0    7976.8908    18.212394    22.737231    19.258976    7975.1305    7327.9317    7890.6678    8712.0728    1066.6061   -827.53907    3285.6518   -3313.0352 
 6606000    250.68849   -4819.6467   -4318.2388   -4819.6467            0    7068.8725    17.935698    22.733393    19.632705    8005.0249    7138.8686    6602.9284    7464.8206    896.90454   -220.82178    747.25132   -3492.9827 
 6607000    259.93305   -4798.7853    -4278.887   -4798.7853            0    9887.8268    18.139778    22.886826    19.074669    7919.0764    10020.139    9481.8887    10161.453   -350.48555      951.194   -591.03234    -3136.926 
 6608000    269.92839   -4811.4856   -4271.5955   -4811.4856            0    7147.0743     18.00138    22.833091     19.41729    7981.0333    6636.1298     8099.191    6705.9022   -1341.3635   -622.81696    649.92419   -3439.7104 
 6609000    257.32232   -4811.4066   -4296.7302   -4811.4066            0    8938.2773    17.854315    22.877657    19.331746    7896.3397    10732.053    7746.1051    8336.6743    -1206.485   -603.94853   -257.51875    -3267.398 
 6610000    262.60821   -4781.5198   -4256.2709   -4781.5198            0    9050.4799    18.065807    22.935692    19.131205    7927.0493    6216.4846    9996.8735    10938.082    970.85866   -402.85269     1006.012   -3209.9641 
 6611000    284.49535   -4827.6903   -4258.6645   -4827.6903            0    7374.5055    17.944272    22.912096    19.434154    7990.1751    8335.0066    6701.8959    7086.6139    24.259877   -418.01241   -486.41296   -3399.3243 
 6612000    279.73014   -4847.6339   -4288.1391   -4847.6339            0    7854.0713    17.984762    22.962927    19.293105    7967.7197    7980.2477    8048.8546    7533.1116   -263.07453    471.46496    -2144.611    -3375.488 
 6613000    261.97135   -4816.2703   -4292.2952   -4816.2703            0    9556.4442    17.913455    22.875349    19.181362    7860.0722    10630.935    8326.4775    9711.9202     2040.104   -980.07284   -420.25016   -3196.8296 
 6614000    264.85149   -4805.3676   -4275.6319   -4805.3676            0    6780.6636    18.014506    23.077315    19.244225    8000.3328    6885.8712    5697.9734    7758.1463    927.00525   -1227.1453   -2330.4653   -3484.4868 
 6615000    261.08887   -4811.7496   -4289.5396   -4811.7496            0    9021.0107    17.883132    22.942525    19.289443    7914.1539     9386.725    8392.3546    9283.9525    923.83135   -126.46553    1145.1406   -3248.3362 
 6616000      265.391   -4852.1791   -4321.3643   -4852.1791            0    8144.7736    18.013901    23.028762    19.176584    7955.1726    8434.9447    8295.0152     7704.361   -732.55692     872.3576    854.29201   -3376.4237 
 6617000    256.17569   -4822.4346   -4310.0516   -4822.4346            0    9352.6088    17.810828    23.088762    19.141784    7871.6754     9376.721    8478.8466    10202.259     469.0374   -963.77791   -240.28231   -3236.3692 
 6618000    266.42617    -4845.262   -4312.3768    -4845.262            0    8905.9818    17.883976    22.976195      19.2598    7913.9617    10446.201    9357.9561    6913.7884   -1576.1316    116.87969   -3126.3765   -3284.4749 
 6619000    253.19204   -4818.3901   -4311.9748   -4818.3901            0    9203.4553    17.968195    22.770319    19.339217    7912.4769    10299.956    7848.8107    9461.5995    945.16059    63.006275   -190.97191   -3249.9387 
 6620000    264.28121   -4818.7722   -4290.1771   -4818.7722            0    8501.6818    18.322017    22.589608    19.203727    7948.1761    6505.9719    9169.4686     9829.605   -600.79875   -48.330248   -962.34018   -3304.6962 
 6621000    259.25306   -4821.8139   -4303.2758   -4821.8139            0    9848.4749    17.963159    22.582322    19.462943    7895.1395    10454.321    11298.949    7792.1547     423.5139    1024.4398    -97.23979   -3169.2976 
 6622000    266.93968   -4795.1612   -4261.2489   -4795.1612            0     7524.017    18.070882    22.859328    19.300795    7972.9308    9626.7608    6380.5301    6564.7601     766.0634    177.77456    729.48586   -3386.3787 
 6623000    250.51849   -4800.0046   -4298.9367   -4800.0046            0    6884.0024    17.963104    22.790752    19.525914    7993.7656    7035.2524    7299.9636    6316.7913   -620.41856    666.55012    24.356186   -3496.3937 
 6624000    264.66623   -4804.7683   -4275.4031   -4804.7683            0    9037.4435    18.204167    22.782002     19.16125    7946.6951    9186.0333    8642.3428    9283.9543    478.90759    631.23314    507.35813    -3228.014 
 6625000    258.94918   -4779.8981   -4261.9677   -4779.8981            0    8164.5016     17.94932    22.877199    19.485584    8001.3685    7413.4733    8300.8306     8779.201   -1679.6058    513.60673   -3147.2786   -3309.2377 
 6626000    264.50691   -4825.6964   -4296.6498   -4825.6964            0    8646.5859    17.933044    22.828778    19.286616    7895.7379    9515.4255     7848.352    8575.9803    1316.3101   -1079.2909   -48.331102   -3300.9848 
 6627000     262.3305   -4826.9861   -4302.2927   -4826.9861            0    8848.4154    18.049817    22.643726    19.330961    7900.8555    7280.5013    9237.5183    10027.226    750.91927    -1308.221   -1263.9917   -3282.7263 
 6628000    258.69874   -4827.7048   -4310.2754   -4827.7048            0    6643.9756    18.283662    22.721961    19.216317    7983.2393    6126.3916    6880.5702    6924.9649   -646.81666    38.408971    493.84542   -3536.7348 
 6629000    285.48741    -4810.485   -4239.4749    -4810.485            0    7076.0554    17.928051    22.740721    19.571996    7979.4401    6861.5293    8025.4474    6341.1896   -1136.3097   -295.43331   -264.33711   -3416.0205 
 6630000    237.16403   -4805.0465   -4330.6891   -4805.0465            0    7571.0034    18.201596    22.856207    19.190255    7983.5192    6599.7631    7943.6645    8169.5827   -890.96486   -764.11263   -817.34727   -3449.1863 
 6631000    265.24677   -4856.2521   -4325.7258   -4856.2521            0    9928.1193     17.87186    22.874072    19.329656    7902.0061    10615.156    9750.9463    9418.2559    776.15631    663.00753    1433.1688   -3181.5829 
 6632000    267.19664   -4793.1334   -4258.7071   -4793.1334            0     8802.197    17.964873    23.055853    19.182348    7945.2417    6132.4937    9029.4023    11244.695   -1078.4045    26.360658   -709.55107   -3238.7684 
 6633000    261.61132   -4788.1922   -4264.9372   -4788.1922            0    10384.085    17.760246    23.173355    19.156299    7884.0525    9891.3246    10327.596    10933.335    419.35713   -1203.9045   -471.85036   -3070.9666 
 6634000    252.71841   -4815.7068   -4310.2387   -4815.7068            0    9491.7641    17.789255    23.104563    19.248873    7911.5364    9831.3043    8311.4279     10332.56   -375.39333    171.19192   -1372.7375   -3215.0634 
 6635000     260.9208   -4827.7893   -4305.9155   -4827.7893            0    9711.5287    17.915451    22.967709     19.19327    7897.5869    10180.167     8670.959    10283.461   -150.79787    387.81068   -512.15637   -3187.3591 
 6636000    274.66732   -4812.6642   -4263.2957   -4812.6642            0    8609.1346    17.764888    23.021142    19.414429    7939.8803     7138.622    8725.9624    9962.8194   -1485.8202    706.42436   -1343.9805   -3266.4008 
 6637000    262.81038   -4818.6691   -4293.0159   -4818.6691            0    10336.532    17.953748    23.055149    19.113072    7911.4038    10835.737    9764.5577    10409.301   -311.00342   -380.48691     362.3222   -3100.3898 
 6638000    260.85519   -4816.9311   -4295.1885   -4816.9311            0    8296.6063    17.757991    23.070964    19.349125    7927.2201    8850.9693     7572.432    8466.4175   -524.31922   -268.68403   -1046.1906   -3336.0147 
 6639000    261.96194    -4848.859   -4324.9028    -4848.859            0     8475.308    17.950546    23.155732     19.06196    7923.2565    7687.8247    7441.5812    10296.518    591.27037    9.3613799    -338.8211   -3345.5592 
 6640000    265.53223   -4803.7524   -4272.6551   -4803.7524            0    7838.5936    17.868198    22.902861    19.403378    7940.4995    9124.5788    7999.0626    6392.1392     1413.799    778.48838    858.31922   -3364.9143 
 6641000    268.35921   -4839.8789   -4303.1273   -4839.8789            0    8863.6277    18.110323    22.835956    19.160428    7924.1118    7675.6574    8362.8489    10552.377   -1577.5838    -282.3692   -2312.7814   -3278.8018 
 6642000    273.54988   -4835.6886    -4288.555   -4835.6886            0    9020.5679    17.870404    22.848393    19.424119    7931.0623    7713.5978    9461.0992    9887.0068   -356.28424   -55.537426    1663.9132   -3245.1783 
 6643000    264.26039   -4832.9276   -4304.3742   -4832.9276            0    8451.4399    18.000579    23.056695    19.147138    7946.7105     7714.288    8317.0563    9322.9755     115.9217    209.04718   -996.59442   -3324.8978 
 6644000    265.16306   -4810.9763   -4280.6174   -4810.9763            0    11625.674    17.851483    22.790977    19.315365    7858.5092    10618.928    12516.107    11741.986   -493.81662    2230.3008    470.09271   -2948.2188 
 6645000    257.80087   -4812.3885   -4296.7549   -4812.3885            0    7431.3934    18.106271    22.892329    19.204756    7960.2699    4644.1004    7418.6277    10231.452    271.27279    766.93664    430.09911   -3434.0268 
 6646000    265.15798   -4823.1979   -4292.8492   -4823.1979            0     9213.542    17.926529    22.753356    19.360535    7896.9435    8959.8359    9202.9128    9477.8773   -245.76332   -297.61441     566.2041   -3231.7364 
 6647000     254.9932   -4835.3461   -4325.3282   -4835.3461            0    8714.2779    17.930429    22.807783    19.389716    7929.4892    9965.9767    8045.8121    8131.0448     -396.906   -692.76606   -2609.2562   -3317.5789 
 6648000    257.60651   -4825.8481   -4310.6032   -4825.8481            0    6711.5291    18.146466    22.788374     19.32584    7991.7847    6706.8794    6508.6871    6919.0208    -653.9786   -166.72261    1157.6117   -3528.3612 
 6649000    272.83316   -4812.6893   -4266.9893   -4812.6893            0    6123.6195    18.013735    22.936649    19.434006    8029.6399    5578.8697    6628.8102    6163.1786   -1448.3227    299.60983   -631.37524   -3549.8886 
 6650000    252.13939   -4819.2633   -4314.9534   -4819.2633            0     6366.134    18.093388    22.850239    19.330619    7992.0169    7172.3663     5240.919    6685.1168   -546.75166    207.93289    753.63622   -3572.9463 
 6651000    279.07518   -4795.9815   -4237.7967   -4795.9815            0    6732.8256    18.145516      22.7446     19.43963    8022.9783    6005.6037    7280.7006    6912.1724   -729.13516    1007.1705    386.77896   -3450.0096 
 6652000    259.91339   -4799.5734   -4279.7145   -4799.5734            0     9048.292    17.985203    22.849151    19.229664    7902.3655    8972.7822    8885.7122    9286.3817   -1151.5233    153.62318    1172.3357   -3236.9179 
 6653000     269.1205    -4811.759   -4273.4848    -4811.759            0    8403.9019    17.814863    22.940423    19.426959     7939.419    10193.739    8244.3914    6773.5752   -1084.7909   -770.15884    546.64212   -3300.4114 
 6654000     261.1752   -4813.5218   -4291.1391   -4813.5218            0     6895.358    18.013464    23.087765    19.128732    7955.4603    6826.8044    6403.6013    7455.6683   -1130.0562    167.03652    2421.2982   -3491.1243 
 6655000    255.41467   -4817.5145   -4306.6536   -4817.5145            0    7923.4275    17.753688    23.114236    19.334467    7934.1486    8776.7599    7823.2622    7170.2604   -1739.5573    753.36686   -43.307413   -3389.8225 
 6656000    255.64491   -4841.1015   -4329.7801   -4841.1015            0    6563.8071    18.010576    23.096546    19.202674    7987.9687    7035.8713    5649.0739    7006.4761   -2384.1007   -218.02294   -916.32715   -3565.1206 
 6657000    259.75788    -4822.093   -4302.5452    -4822.093            0    6285.9904    17.840251    23.274237    19.294075    8011.2521    5055.2938    6796.4428    7006.2346    -112.5883     335.8294    2038.6322   -3568.1159 
 6658000    260.26547   -4829.9432   -4309.3801   -4829.9432            0    9608.5718    17.821778    23.065018    19.152231    7872.7092    9812.9738    10393.686    8619.0553    281.16698   -105.58398    1368.0498   -3206.1682 
 6659000     265.6069   -4835.5343   -4304.2877   -4835.5343            0    9222.1467    18.024217    22.986113    19.108727    7916.8734    8241.9134    9180.9845    10243.542   -732.93883    -689.0701    597.32417   -3239.5034 
 6660000     271.8955   -4825.5533   -4281.7287   -4825.5533            0    7546.1066    17.783668    22.915171    19.532573     7959.832    9706.5809    8121.0352    4810.7038    862.70777    169.54596    2246.9343   -3405.7314 
 6661000    259.53888   -4830.0478    -4310.938   -4830.0478            0    9727.7482    17.921694    23.251838    18.910333    7880.1687    9151.1657    9153.0319    10879.047    -221.4691    562.22577    651.27445   -3192.9845 
 6662000    269.24491   -4826.2675   -4287.7444   -4826.2675            0    7476.3775    17.734264    23.240573    19.321561    7963.4674    7789.3907    7543.2199    7096.5218    610.82795    235.89472     351.1851   -3419.4453 
 6663000    265.43034   -4829.4131   -4298.5196   -4829.4131            0    8896.0781    17.925591    23.031325    19.178545    7917.8643    8203.3628    8265.2371    10219.634   -556.44709    -350.1065    512.71048   -3271.2545 
 6664000    257.68379   -4818.8037   -4303.4042   -4818.8037            0    8695.2636    17.722473     22.94001    19.522128    7936.7934    10572.043      8422.23    7091.5175   -1016.5232    835.25909   -1518.7053   -3296.9276 
 6665000    259.82623   -4821.7098   -4302.0252   -4821.7098            0    9478.9178    17.965067    23.134545    18.987929    7891.6423    10025.104    7964.5652    10447.084    847.67953   -1058.6301    1167.8233   -3211.0823 
 6666000    269.73639   -4786.5952   -4247.0891   -4786.5952            0    9935.7566    17.857468    22.908693    19.358533    7919.4065    11579.909    9637.1866    8590.1743    962.89372    882.24147   -2362.4922   -3099.5448 
 6667000    265.36774   -4826.6307   -4295.8624   -4826.6307            0    9125.8879     18.03379    22.905898    19.127161    7901.0508    8157.7583    8516.3319    10703.574    316.10095   -233.99202    1178.7604   -3244.2981 
 6668000    264.16557   -4795.8906   -4267.5269   -4795.8906            0    7068.8576     17.79413    22.983827    19.476045    7965.2583    8205.4475    5449.7612     7551.364    529.36607   -709.36332    894.44521   -3446.3722 
 6669000    273.21672   -4802.3293   -4255.8621   -4802.3293            0    8638.6567    18.107679    22.927786    19.103483    7931.1736    7714.8713    8577.4537    9623.6452   -784.97678   -652.65089    544.22773   -3256.6457 
 6670000    253.17784   -4786.7666   -4280.3796   -4786.7666            0    8034.8188    17.933443    22.788456    19.486094    7963.4885    10181.457    7445.1753     6477.824    1570.9488   -1361.7661    1207.7286   -3347.2213 
 6671000    270.59188   -4818.9953   -4277.7782   -4818.9953            0    8444.2146    18.111456    22.792364    19.221012    7934.4891     7521.899    7948.8495    9861.8952   -2139.2826   -416.98148    -2669.481   -3300.6442 
 6672000    258.52256   -4818.6495   -4301.5724   -4818.6495            0    10273.394     17.95014    22.584807    19.426047    7875.3278    11235.367    10511.038     9073.777   -594.58687   -294.24443    -434.7075   -3121.6364 
 6673000    252.47947   -4826.8125   -4321.8223   -4826.8125            0    7882.3906    18.094589     22.94323    19.205516    7973.1377    8229.9185    7437.8095    7979.4438   -2361.5267   -1706.6517    428.85706   -3405.2577 
 6674000    255.67887   -4815.4428   -4304.0535   -4815.4428            0    8470.8871    17.875101    22.655183    19.562999     7922.304    7478.9944    9990.5518    7943.1152    2012.9616    593.18105    1222.6723   -3325.3384 
 6675000    258.28251     -4814.21   -4297.6131     -4814.21            0    9203.3208    18.143755    22.718196    19.265812    7941.2398    8601.6541     9520.305    9488.0034   -1130.9328   -510.24846   -1545.8625    -3231.732 
 6676000    272.84909   -4846.7617   -4301.0298   -4846.7617            0    8823.7598    17.893451    22.844558    19.418719    7937.7504    9932.0256    9036.2247    7503.0292    85.289867    638.02221   -337.35831   -3279.5565 
 6677000     271.9307   -4809.9987   -4266.1037   -4809.9987            0    8626.8806    18.161807    22.595716    19.365958    7947.3829    9447.4874    8292.0416    8141.1127    1241.6225    756.10608    2614.3522   -3266.2101 
 6678000    270.36936   -4820.6925   -4279.9204   -4820.6925            0    8651.8447    18.014445    22.639993    19.509992    7957.0901    9345.4938    9281.3352    7328.7052   -530.69929    2.0552096    -2265.875   -3275.9085 
 6679000    271.67131   -4805.4609   -4262.0847   -4805.4609            0    10182.536    17.866247    22.851742    19.343783    7897.5805    12058.809    10112.507     8376.292    1095.8464   -889.13974     127.7903   -3089.2794 
 6680000    264.69539   -4819.1021   -4289.6786   -4819.1021            0    8923.1604    17.977991    22.944014     19.26667    7947.2562    7788.8378    8180.8874    10799.756    1068.6098   -352.09292    1555.1916   -3255.4613 
 6681000    262.67791   -4823.9172   -4298.5289   -4823.9172            0    10360.646    18.008618    22.684174    19.251275    7864.3503    9775.7951    11328.986    9977.1565   -2443.2068    540.81012   -415.82531   -3110.2304 
 6682000    268.12296   -4813.0648   -4276.7857   -4813.0648            0    8671.4229    18.126422    22.711749    19.353933    7967.6803     7394.966    10048.213      8571.09    257.50934     1584.982     984.4636   -3269.1625 
 6683000    260.37508   -4829.4634    -4308.681   -4829.4634            0     8614.378    18.043185    22.692831    19.368741    7930.5494    10373.146    8191.7665     7278.222    2279.6904   -95.222774    1398.7906   -3312.3513 
 6684000    257.62566   -4830.8395   -4315.5564   -4830.8395            0    8128.1764    18.003532    22.775367    19.368182     7941.672    8446.7398    8457.8835     7479.906   -1643.2086   -219.79014   -968.11988   -3374.1417 
 6685000    256.32552   -4777.3156   -4264.6329   -4777.3156            0    9838.4203     17.98867    22.631658    19.478256    7929.8596    11325.628     10667.09    7522.5428    1341.5629    1451.5334     725.7529   -3126.8307 
 6686000    271.11095   -4823.7945   -4281.5391   -4823.7945            0    7772.7617    18.207767    22.787845    19.219016    7974.2727    5935.0872    9226.1075    8157.0903    179.88241     345.5712   -391.32553   -3377.5935 
 6687000      262.414   -4823.9131   -4299.0527   -4823.9131            0    9767.3004    17.940622     22.69508    19.429291    7910.9048     10207.99    10288.641    8805.2701   -1441.7518    173.24027    639.21587   -3172.1755 
 6688000    264.40688    -4799.395   -4270.5486    -4799.395            0    8555.5027    18.146608    22.799754    19.175953    7933.8242    8874.1367    8002.8567    8789.5146   -1174.6151    162.98473   -2020.6272   -3280.6197 
 6689000    255.95335    -4833.353   -4321.4147    -4833.353            0    8146.2266     17.71319     23.15616    19.373998    7946.6222    7916.5848    7629.5091     8892.586   -98.673844    941.59265    253.87434   -3377.3213 
 6690000    282.02225   -4803.7387   -4239.6593   -4803.7387            0    9894.9121    18.005792    23.078186     19.03192    7908.5431    9885.0106    9192.8987    10606.827   -302.19065   -923.47861    928.01584   -3098.4001 
 6691000    270.78641   -4807.4534   -4265.8471   -4807.4534            0    8828.7801    17.758146    22.938113      19.4467    7921.3871     9175.163    10545.399    6765.7785    981.41298    1690.3287    475.47118   -3245.8996 
 6692000    269.61244   -4812.9718   -4273.7136   -4812.9718            0    7322.5741    18.080553    23.068288    19.121619    7975.3861    5094.6972    7079.9738    9793.0515    780.51002    995.32607    405.33548   -3422.0043 
 6693000    276.43483   -4849.1194   -4296.2156   -4849.1194            0     7266.986    17.789577    23.041715     19.38828    7947.3017    6485.8351    8254.0238    7061.0991   -93.742554   -304.68159   -566.01446   -3453.9484 
 6694000    259.75043   -4792.6826   -4273.1496   -4792.6826            0    9040.7269    18.005879    23.056895    19.061762    7913.6749    6559.3276    9756.8224    10806.031    1587.7155   -696.07532    1151.7359   -3229.7337 
 6695000     253.1692   -4794.3519   -4287.9822   -4794.3519            0    7799.0798    17.885766    22.871502    19.489276    7972.5623    9066.8017    7486.7848    6843.6529   -40.579148    104.18848    809.75259   -3381.1704 
 6696000    262.57651   -4825.6044   -4300.4189   -4825.6044            0     9010.573     18.06587    22.876492    19.177458    7925.7313    9622.1236    8527.9745    8881.6209    50.464639   -146.97505   -426.73103   -3258.8989 
 6697000    266.68934   -4817.0852   -4283.6735   -4817.0852            0    8636.5378    17.867198    22.741057    19.449944    7902.8811    11399.279    8814.4642    5695.8706   -22.619607    1315.9109    2122.4327   -3288.2658 
 6698000    256.58616    -4809.164     -4295.96    -4809.164            0    8524.7296    18.057393     22.95777    19.268695    7987.9813    8673.2693    7553.7161    9347.2034    1023.9398   -399.81699      114.631   -3302.8587 
 6699000    275.46281   -4821.3709   -4270.4113   -4821.3709            0    7666.5522    17.952077    22.958018    19.336133    7969.2731    8401.1231    7106.4321    7492.1013   -103.71183   -112.84376    529.09092   -3379.3764 
 6700000    271.45353   -4845.3819   -4302.4413   -4845.3819            0    7570.0887    17.974746    22.894473    19.333875    7956.3217    6441.2873    7765.8509    8503.1279   -124.39217   -1422.7032   -1519.3184   -3424.0476 
 6701000    256.64906   -4805.4352   -4292.1053   -4805.4352            0    8382.2429    17.959061     22.91032    19.257519    7923.4645    7389.9427    8584.9154    9171.8705    1779.3484    53.878909   -330.49323   -3323.4902 
 6702000    270.27084   -4833.1751      -4292.6   -4833.1751            0    8245.1458    17.908623    22.987013    19.277244    7935.7809    8223.7102    8280.8904    8230.8369    420.60576    914.50211   -1331.8517   -3338.3462 
 6703000    260.09592    -4827.646    -4307.422    -4827.646            0    8948.9334    17.880096    23.146556     19.09173    7901.3536    9296.3716    8472.4981    9077.9304    1352.0812   -1247.3037     321.9192   -3276.2083 
 6704000    255.11489   -4826.3705   -4316.1092   -4826.3705            0    9503.5287    17.906646    23.045804    19.187628    7918.2171    9532.1222    8311.5555    10666.908   -834.59947    13.615343    -733.2596   -3218.6505 
 6705000    251.92801    -4833.486   -4329.5989    -4833.486            0     7564.175    17.909622    23.053971      19.3301    7981.1642    6666.2583    8255.6057     7770.661    1336.9293    -91.01418    2587.0089   -3449.1509 
 6706000    254.53316   -4812.9487   -4303.8509   -4812.9487            0    8916.1795     17.98231    22.826477    19.274204    7911.5362    9441.8349    9188.1941    8118.5094   -1898.0639    419.99425   -3554.1912   -3275.0875 
 6707000    267.94164   -4824.8903   -4288.9739   -4824.8903            0    8757.6822    18.004832    22.901171    19.262722    7942.6318    8352.1879    9058.6744    8862.1845   -1211.4855   -168.89437   -734.95369   -3274.5266 
 6708000    263.45484   -4791.1366   -4264.1944   -4791.1366            0    10008.156    17.865464    22.760829    19.428112    7900.1075    10007.413    9930.4235     10086.63   -673.28801    199.98865    156.97421   -3111.1051 
 6709000    257.84232   -4800.1535    -4284.437   -4800.1535            0    9475.8242    18.052605    22.763334    19.259031    7914.2574    10013.194    10420.224    7994.0541    543.23583    769.23685    1552.5888   -3190.7248 
 6710000    267.15515   -4811.1735   -4276.8302   -4811.1735            0    9234.9554    17.968355    22.792745    19.380866    7937.3979    9968.1353    9382.6169     8354.114      592.885   -152.42618   -2405.8644   -3207.8028 
 6711000    276.98803   -4845.8763   -4291.8661   -4845.8763            0    7935.1702    18.178814    22.809316    19.221981    7970.3236    5911.3285    8574.8403    9319.3418    616.83689    42.738159   -275.64802   -3369.4899 
 6712000    268.04093   -4821.7825   -4285.6676   -4821.7825            0    10386.186    17.960444    22.640692     19.40366    7890.2436    8774.4354    12008.183    10375.941     1019.104    960.25661   -231.15452   -3090.5176 
 6713000    252.00217   -4795.9647   -4291.9292   -4795.9647            0    9016.7205    17.918932    22.857748    19.359832    7929.5246    8998.1616    9078.1081    8973.8919   -109.61308   -52.882298     814.6935   -3249.1998 
 6714000    263.23609   -4821.1816   -4294.6769   -4821.1816            0    9557.1294    17.964794    23.004559    19.162682    7919.4027     8404.673    9378.2198    10888.495    487.15783   -896.64619     2676.639   -3190.8632 
 6715000    249.68786   -4837.0669   -4337.6604   -4837.0669            0    10646.228    17.979071    22.845073    19.282531    7919.9753    9312.4243    11493.159    11133.102    1722.6279    1107.6692    385.42556   -3107.9708 
 6716000    264.59956   -4827.7663   -4298.5345   -4827.7663            0    7860.2074    17.961069    22.961472     19.31999    7967.8071    7895.8667    7179.5025    8505.2531    111.87469   -207.91111    605.83803   -3385.1603 
 6717000     254.1643   -4834.5824   -4326.2224   -4834.5824            0    9252.3402    17.817984    23.116573     19.20533    7910.4973     8900.475    9518.8466    9337.6991   -99.161487   -41.719465     1047.699   -3258.8124 
 6718000    264.37283   -4791.4191   -4262.6408   -4791.4191            0    12474.568    17.788072    22.867627    19.295585    7848.8844    12803.265    12841.613    11778.827    1003.6631    -567.6201   -1429.3718   -2834.7028 
 6719000    269.61651   -4838.7842   -4299.5179   -4838.7842            0    5391.9359    18.042576    23.157444    19.230039    8034.6938    3565.8789    6190.8733    6419.0554    63.624098    594.39167   -533.14402   -3667.7029 
 6720000    263.92535   -4850.7645   -4322.8812   -4850.7645            0    9298.9947    17.743996    22.982459    19.388031    7906.4519    9653.4012    9366.6891    8876.8939   -28.973288    647.74027   -216.21149   -3250.6374 
 6721000    254.25993   -4801.2911   -4292.7398   -4801.2911            0     9560.117    18.037609    22.958296    19.106499    7912.2452    9593.5323    9476.5251    9610.2936    94.859763    194.00036   -113.77462    -3189.579 
 6722000    248.38025    -4825.684   -4328.8928    -4825.684            0    7589.0406    17.737603    22.955675    19.579676    7972.4262     8282.743    7957.3688    6527.0101     499.7474    712.42206   -342.59629   -3446.5176 
 6723000    255.70263   -4840.5605   -4329.1236   -4840.5605            0    8223.4039    18.007608    23.104395    19.092993    7943.7331    7520.4953    8301.1633     8848.553   -237.61536     1181.291    77.124502   -3376.4324 
 6724000    267.61212   -4821.8369   -4286.5796   -4821.8369            0    8722.6144    17.792733     22.97673    19.339214    7906.2348    10653.562    7512.0694     8002.212   -262.42216    -581.0715    101.12982   -3280.8244 
 6725000    257.23581   -4820.3294    -4305.826   -4820.3294            0    8255.6181    17.782974    23.192343    19.287644    7954.7809    10145.998    7723.1385     6897.718    -503.7852   -461.84454   -521.07608   -3348.0726 
 6726000     257.0463    -4818.396   -4304.2717    -4818.396            0     7151.816    17.842964    23.300467    19.202605    7983.4712    7820.3519    6251.3074    7383.7888    398.16952   -571.36596    1442.2129   -3471.5805 
 6727000     280.6035   -4784.9734   -4223.7317   -4784.9734            0    8645.6948    17.832521    23.100074    19.246463    7928.2448    9525.1114    7884.2074    8527.7655   -1391.0076    1114.4682    952.97208   -3224.0705 
 6728000    278.64947     -4820.06   -4262.7266     -4820.06            0    8843.8674     17.97193    22.942216    19.218665    7924.1611    8736.6396    8942.0019    8852.9607    351.26474    242.59603   -266.66107   -3240.6784 
 6729000    268.55137   -4812.5941   -4275.4582   -4812.5941            0    8893.1666    17.916765     22.97927     19.33733    7961.4531    9219.0057     8479.831    8980.6631   -778.29008    482.00958    324.72656   -3242.8759 
 6730000    272.06516   -4778.9927   -4234.8288   -4778.9927            0     10870.65    17.741964     23.06096    19.317814    7903.8206    11609.091    11801.054    9201.8057    1380.1228    679.37037    479.63792   -2981.7786 
 6731000    276.66671     -4814.17   -4260.8024     -4814.17            0    9642.7651    17.870337    22.967308    19.230191    7892.7153    10569.683    9129.6053    9229.0067   -681.27141   -834.14899   -983.89086   -3150.8511 
 6732000    262.06529   -4805.9786   -4281.8156   -4805.9786            0       8911.5    17.962758    22.891795    19.303452    7937.5749    8518.0262    8784.7371    9431.7369    1698.1918    203.92305    498.04055    -3250.208 
 6733000    257.84368   -4826.1736   -4310.4544   -4826.1736            0    7340.6362    18.054125     22.99292    19.217876    7977.6682    6234.1795    7980.6819    7807.0471     480.1753     203.1646   -648.00627   -3456.3999 
 6734000    278.91583   -4809.4716   -4251.6055   -4809.4716            0    11275.839    17.723166      22.6751    19.510152    7840.6337    12838.796    12063.825    8924.8953    955.37368   -323.32477    925.87832   -2962.2404 
 6735000    260.90521   -4835.4361   -4313.5935   -4835.4361            0    9316.1823    18.011306    22.881898    19.238611     7928.864    8651.9979    9587.2762    9709.2729   -1835.1468   -579.01852   -6.7364114   -3236.3228 
 6736000     267.1517   -4839.0778   -4304.7414   -4839.0778            0    7655.7842    17.878697    23.080875    19.274543    7953.7552    7259.1524    8003.0791     7705.121   -1013.0423   -187.91726    829.01958   -3416.6907 
 6737000    252.94947    -4810.458   -4304.5278    -4810.458            0    7263.5008    18.079426    23.091167    19.144861    7992.5019    6584.6276    6338.9792    8866.8957    146.75187    880.56041    539.82169   -3457.8764 
 6738000    260.17255    -4793.513   -4273.1358    -4793.513            0    9032.1373    18.022835    22.870194     19.38207    7989.0127    9669.0337     8163.589    9263.7892    913.02397   -391.95256    432.54393   -3220.7874 
 6739000    257.48516    -4806.775   -4291.7729    -4806.775            0    8093.2374    18.005542    22.793322    19.414048     7967.644    9282.7402     7637.859    7359.1131    -289.1031   -245.26875   -1293.9614   -3351.3394 
 6740000    256.54999   -4782.3631   -4269.2314   -4782.3631            0    9861.1422    17.998283    22.791911    19.300206     7917.239    9144.2078    10578.351    9860.8682    1049.3429     449.4107    701.01971   -3130.6165 
 6741000    252.46438   -4807.0398   -4302.0799   -4807.0398            0    8131.3243     17.92331    22.879192    19.337254     7929.644    7334.2486    8799.4541    8260.2703   -886.08316   -840.18665    412.35062    -3361.727 
 6742000    273.73559   -4845.5799   -4298.0749   -4845.5799            0    7019.7621    17.911374    23.066299    19.253292    7954.4808    7418.1055    6796.0564    6845.1243    206.57337   -420.43981    634.27151   -3483.7268 
 6743000    275.41738   -4817.2877   -4266.4189   -4817.2877            0    7754.6128    18.007515    23.047947    19.226503    7979.6956    7616.6564    7141.3125    8505.8695   -530.52688    827.76034    828.23086   -3363.9706 
 6744000    258.02464   -4785.1269   -4269.0458   -4785.1269            0     10186.44    17.824639    23.126814    19.244339    7933.0383    10944.146    10106.402    9508.7711   -562.74704    1075.1741   -464.89645   -3090.5233 
 6745000    266.22307   -4789.0516   -4256.5725   -4789.0516            0    7882.2941    17.805266    23.286402    19.249413    7981.2028    9149.1019    7155.9493    7341.8312    285.98635   -1228.8893    961.04904    -3339.092 
 6746000    265.79145    -4825.114   -4293.4982    -4825.114            0    8300.8058    17.797368       23.174    19.215336    7925.1001    8100.9143    8739.2334    8062.2696   -894.90743    1034.1857     1328.776   -3334.0956 
 6747000    262.17234   -4813.9855   -4289.6084   -4813.9855            0    7693.2246    17.825351    23.193191    19.199434    7937.5602    9176.7895     6170.993    7731.8912   -1996.6534   -596.47043   -1279.6401   -3399.0317 
 6748000    276.93146   -4814.2105   -4260.3134   -4814.2105            0    7994.5216    17.655064    23.472706    19.168713    7943.7468    9635.8331     6819.585    7528.1468    11.291773    366.01445    685.54124   -3334.1369 
 6749000    258.17169   -4819.6079   -4303.2326   -4819.6079            0    7713.5912    17.968357    23.135989    19.107779    7943.4041    7665.0184    6470.0256    9005.7296    1405.4258   -187.68536    941.95691   -3409.6408 
 6750000    272.43955   -4809.5698    -4264.657   -4809.5698            0    7970.4047     17.85096    23.003841    19.394116    7964.0124    8196.9747    7547.6433    8166.5962   -192.80501   -1020.4909    606.20697   -3338.9188 
Loop time of 564.673 on 64 procs for 250000 steps with 1008 atoms

Performance: 76.504 ns/day, 0.314 hours/ns, 442.734 timesteps/s
99.0% CPU use with 64 MPI tasks x 1 OpenMP threads

MPI task timing breakdown:
Section |  min time  |  avg time  |  max time  |%varavg| %total
---------------------------------------------------------------
Pair    | 28.963     | 32.623     | 36.282     |  31.0 |  5.78
Bond    | 0.28953    | 0.29934    | 0.31556    |   1.0 |  0.05
Kspace  | 270.05     | 280.78     | 287.77     |  22.1 | 49.72
Neigh   | 4.8058     | 5.4675     | 5.8373     |  11.5 |  0.97
Comm    | 107.52     | 113.49     | 126.29     |  38.1 | 20.10
Output  | 1.0588     | 1.0598     | 1.0654     |   0.1 |  0.19
Modify  | 119.91     | 123.36     | 125.99     |  16.7 | 21.85
Other   |            | 7.592      |            |       |  1.34

Nlocal:        15.7500 ave          19 max          11 min
Histogram: 1 2 3 7 0 17 11 12 8 3
Nghost:        2498.16 ave        2531 max        2470 min
Histogram: 3 6 6 15 5 10 9 7 2 1
Neighs:        5250.58 ave        6384 max        3638 min
Histogram: 1 2 3 7 13 6 9 12 8 3

Total # of neighbors = 336037
Ave neighs/atom = 333.37004
Ave special neighs/atom = 2.0000000
Neighbor list builds = 9730
Dangerous builds = 0

unfix		3
unfix		2
unfix		1

write_data	data.final.${pid}
write_data	data.final.0
System init for write_data ...
PPPM initialization ...
  extracting TIP4P info from pair style
  using 12-bit tables for long-range coulomb (../kspace.cpp:340)
  G vector (1/distance) = 0.3835331
  grid = 24 30 32
  stencil order = 5
  estimated absolute RMS force accuracy = 0.0019320333
  estimated relative force accuracy = 5.8182608e-06
  using double precision FFTW3
  3d grid and FFT values/proc = 4080 384
Last active /omp style is kspace_style pppm/tip4p/omp
WARNING: Not all mixed pair coeffs generated from mixing. Use write_data with 'pair ij' option to store all pair coeffs. (../write_data.cpp:312)

write_restart   restart.lmp.${pid}
write_restart   restart.lmp.0
System init for write_restart ...
PPPM initialization ...
  extracting TIP4P info from pair style
  using 12-bit tables for long-range coulomb (../kspace.cpp:340)
  G vector (1/distance) = 0.3835331
  grid = 24 30 32
  stencil order = 5
  estimated absolute RMS force accuracy = 0.0019320333
  estimated relative force accuracy = 5.8182608e-06
  using double precision FFTW3
  3d grid and FFT values/proc = 4080 384
Last active /omp style is kspace_style pppm/tip4p/omp
Total wall time: 0:09:28
