#include		in.partitions
include		in.temp
variable        temperature equal 278.27
variable	tempDamp equal 100.0
include		in.pressure
variable        pressure equal 8439.9
variable        pressureDamp equal 1000.0 # This is 1 ps
include		in.seed
variable        seed equal 745823

units		real
atom_style	full
read_restart	restart.lmp.${pid}
read_restart	restart.lmp.0
Reading restart file ...
  restart file = 30 Jul 2021, LAMMPS = 30 Jul 2021
  restoring atom style full from restart
  orthogonal box = (-0.12965674 -0.15577089 -0.14254490) to (24.859658 24.885772 22.952545)
  4 by 4 by 2 MPI processor grid
  restoring pair style lj/cut/tip4p/long/omp from restart
  restoring bond style harmonic/omp from restart
  restoring angle style harmonic/omp from restart
  1920 atoms
  1280 bonds
  640 angles
Finding 1-2 1-3 1-4 neighbors ...
  special bond factors lj:    0        0        0       
  special bond factors coul:  0        0        0       
     2 = max # of 1-2 neighbors
     1 = max # of 1-3 neighbors
     1 = max # of 1-4 neighbors
     2 = max # of special neighbors
  special bonds CPU = 0.002 seconds
  read_restart CPU = 0.007 seconds
include 	in.setup
variable	out_freq equal 1000
variable	out_freq2 equal 10000
variable	out_freq3 equal 1000

timestep	2.0

neigh_modify    delay 7 every 1

include		in.tip4p
# This is TIP4P/Ice

# create groups ###
group ox type 2
640 atoms in group ox
group hy type 1
1280 atoms in group hy

# set charges - beside manually ###
set group ox charge -1.1794
Setting atom values ...
  640 settings made for charge
set group hy charge 0.5897
Setting atom values ...
  1280 settings made for charge

# ### TIP3P Potential Parameters ###
pair_style lj/cut/tip4p/long/omp 2 1 1 1 0.1577 8.5
pair_coeff 1 1*2 0.000 0.000
pair_coeff 2 2 0.21084 3.1668
bond_style  harmonic
bond_coeff  1 450 0.9572
angle_style harmonic
angle_coeff 1 55 104.52
kspace_style pppm/tip4p/omp 1.0e-5
pair_modify tail yes

thermo          ${out_freq}
thermo          1000
thermo_style    custom step temp pe etotal epair emol press lx ly lz vol pxx pyy pzz pxy pxz pyz enthalpy

restart 	${out_freq3} restart.lmp.${pid} restart2.lmp.${pid}
restart 	1000 restart.lmp.${pid} restart2.lmp.${pid}
restart 	1000 restart.lmp.0 restart2.lmp.${pid}
restart 	1000 restart.lmp.0 restart2.lmp.0


include         in.dump
dump            myDump all atom ${out_freq2} dump.water.${pid}
dump            myDump all atom 10000 dump.water.${pid}
dump            myDump all atom 10000 dump.water.0
dump            myDump2 all dcd ${out_freq2} dump.dcd
dump            myDump2 all dcd 10000 dump.dcd
dump_modify     myDump append yes
dump_modify     myDump2 append yes


variable natoms 	equal  "count(all)"                        # NUMBER ATOMS
variable H      	equal  "enthalpy/v_natoms"                 # ENTHALPY-per-atom
variable Vol      	equal  "vol/v_natoms"                 # volume-per-atom
fix AVG all 		ave/time ${out_freq} 1 ${out_freq} v_Vol v_H file vol_enthalpy.dat
fix AVG all 		ave/time 1000 1 ${out_freq} v_Vol v_H file vol_enthalpy.dat
fix AVG all 		ave/time 1000 1 1000 v_Vol v_H file vol_enthalpy.dat




fix 		1 all shake 1e-6 200 0 b 1 a 1
       0 = # of size 2 clusters
       0 = # of size 3 clusters
       0 = # of size 4 clusters
     640 = # of frozen angles
  find clusters CPU = 0.001 seconds
fix             2 all nph aniso ${pressure} ${pressure} ${pressureDamp}
fix             2 all nph aniso 8439.9 ${pressure} ${pressureDamp}
fix             2 all nph aniso 8439.9 8439.9 ${pressureDamp}
fix             2 all nph aniso 8439.9 8439.9 1000
fix             3 all temp/csvr ${temperature} ${temperature} ${tempDamp} ${seed}
fix             3 all temp/csvr 278.27 ${temperature} ${tempDamp} ${seed}
fix             3 all temp/csvr 278.27 278.27 ${tempDamp} ${seed}
fix             3 all temp/csvr 278.27 278.27 100 ${seed}
fix             3 all temp/csvr 278.27 278.27 100 745823


run             250000
PPPM initialization ...
  extracting TIP4P info from pair style
  using 12-bit tables for long-range coulomb (../kspace.cpp:340)
  G vector (1/distance) = 0.37415527
  grid = 30 30 30
  stencil order = 5
  estimated absolute RMS force accuracy = 0.0033058607
  estimated relative force accuracy = 9.9555013e-06
  using double precision FFTW3
  3d grid and FFT values/proc = 5400 960
Last active /omp style is kspace_style pppm/tip4p/omp
Neighbor list info ...
  update every 1 steps, delay 7 steps, check yes
  max neighbors/atom: 2000, page size: 100000
  master list distance cutoff = 10.8154
  ghost atom cutoff = 10.8154
  binsize = 5.4077, bins = 5 5 5
  1 neighbor lists, perpetual/occasional/extra = 1 0 0
  (1) pair lj/cut/tip4p/long/omp, perpetual
      attributes: half, newton on, omp
      pair build: half/bin/newton/omp
      stencil: half/bin/3d
      bin: standard
Per MPI rank memory allocation (min/avg/max) = 10.54 | 10.54 | 10.55 Mbytes
Step Temp PotEng TotEng E_pair E_mol Press Lx Ly Lz Volume Pxx Pyy Pzz Pxy Pxz Pyz Enthalpy 
 3500000    291.37267   -9034.9371   -7924.0916   -9034.9371            0    7319.4308    24.989314    25.041543     23.09509    14452.237    7422.0449    7518.4414     7017.806   -549.56811    74.836721    1014.3491   -6381.3675 
 3501000    269.88586   -8996.8799    -7967.952   -8996.8799            0    10111.541    24.893986    25.005271     23.06562    14357.907    11336.068     9384.697    9613.8591   -668.97334     27.11642    667.20429   -5850.6423 
 3502000    270.40219   -8985.7304    -7954.834   -8985.7304            0    8698.1553    25.005876    25.047995    23.011899    14413.435    7516.5849    9619.0913    8958.7898    473.51518    63.164113   -110.25799   -6126.4368 
 3503000     281.1552   -9027.8611   -7955.9692   -9027.8611            0     7877.384    25.020608    24.993642    23.084555    14436.067    6989.2266    8566.5761    8076.3494    87.581148   -552.39017    1083.5355   -6297.5023 
 3504000    271.88537   -9048.8325   -8012.2815   -9048.8325            0    6728.7512    24.993825    24.997496    23.162191    14471.344    5403.9424    8204.3415    6577.9698    -324.5344    176.18898    623.68412   -6592.1805 
 3505000    275.40534   -9004.4583   -7954.4875   -9004.4583            0    7948.3851     25.03064    25.067989    23.068263    14474.593    7352.3803    8289.3502    8203.4248   -140.09956   -209.70458    684.08827   -6276.6066 
 3506000    283.71509   -9003.9165   -7922.2652   -9003.9165            0    9473.3652    24.879404    24.984685    23.109018    14364.659    9823.6873    10494.689    8101.7191   -342.25057    439.71394   -560.31512   -5937.6537 
 3507000    276.62166   -9034.6504   -7980.0424   -9034.6504            0    9594.8583    24.950871    24.978523    22.989537    14327.905    9180.3518     10436.81    9167.4135    715.84799   -15.994454    143.52905   -5975.1219 
 3508000     275.5168   -9027.8326   -7977.4369   -9027.8326            0    9305.3755     24.89097    24.927755    23.116188    14343.039    10467.236    8857.4167    8591.4741   -675.88145    690.78875   -814.59398   -6030.9523 
 3509000    278.22686   -8968.4701   -7907.7424   -8968.4701            0     8653.659    25.052539     24.93406    23.027459    14384.367     7878.718    9972.4777    8109.7813    45.118437    -832.0186   -207.69029   -6092.3671 
 3510000    277.99969   -8990.8773   -7931.0158   -8990.8773            0     10407.85    25.025821    24.910342    22.981664    14326.809    9971.4602    10729.864    10522.225   -960.50375    -2485.096     467.7633   -5756.3807 
 3511000    267.98554   -8992.3584   -7970.6753   -8992.3584            0    8284.8567     25.02807    24.954602    23.141541    14453.409    8438.2563     8177.276    8239.0378    592.83761    246.01056   -141.71234   -6224.3257 
 3512000    284.65459   -8997.7169   -7912.4838   -8997.7169            0    7924.0361    24.953868    25.212454    23.007477    14475.114    8055.6867    7587.2789    8129.1428   -870.49801   -224.83981    860.81661   -6239.6826 
 3513000     281.3257   -9008.5779    -7936.036   -9008.5779            0     9303.143     24.81214    25.108239    23.069384    14371.976    11497.208      6531.65    9880.5709   -1043.7403   -2197.1285    617.96689   -5986.0923 
 3514000    275.30517   -9049.5768   -7999.9879   -9049.5768            0    8044.5046     24.90056    25.086077    23.008076    14372.164    9210.2575    7313.6532    7609.6031   -197.08449   -136.33907    920.96267   -6313.8335 
 3515000    274.18928   -9006.9711   -7961.6366   -9006.9711            0    7654.6457    24.785627    25.109981    23.218115     14450.18    8765.0046    6754.1415    7444.7912    -463.9834    1245.3241    1559.3026   -6348.4885 
 3516000    279.00947   -9016.2374    -7952.526   -9016.2374            0    7465.5449    24.982153     25.09686    23.051864    14452.909    7529.8704    7316.3678    7550.3966    1519.7979   -336.22722   -309.50794   -6378.9321 
 3517000     280.9219   -9009.7577   -7938.7553   -9009.7577            0    8976.2209    25.014724    24.936343    23.025805    14362.938    8486.8619    9340.2401    9101.5608    0.5500052   -933.06786   -458.52767   -6058.5178 
 3518000    272.84675   -9030.1375   -7989.9212   -9030.1375            0    7907.4317    25.002875     24.97086    23.125961    14438.538    6898.2967    8535.2932    8288.7053   -619.19662    -11.28664    249.53407   -6324.8433 
 3519000    277.96133   -9036.0996   -7976.3843   -9036.0996            0    8690.5386    25.106451    25.038289    22.908021    14400.499    8311.6472    8127.0738    9632.8948    159.90011   -1273.7273   -1124.1026   -6151.2277 
 3520000    276.27703   -9035.2663   -7981.9723   -9035.2663            0    8867.7592    24.970264    24.912422    23.115625    14379.531    8565.1663    10305.093    7733.0181   -659.27995    222.19644    579.04474   -6122.3082 
 3521000    275.37334   -9026.6315   -7976.7827   -9026.6315            0    8599.2234    24.907143    25.122107    22.960601    14366.906    9413.3999    7412.9155    8971.3548    587.74982    -758.6669    725.08025   -6175.0168 
 3522000    280.21332   -9000.4164   -7932.1154   -9000.4164            0    7228.4003    25.020213    25.077313    23.139339    14518.541    7285.8375    7240.3613     7159.002    440.03106   -131.46056   -29.750259   -6401.5882 
 3523000    262.32074   -9026.4276   -8026.3413   -9026.4276            0    7516.7455    24.892399    25.129276    23.071096    14431.615    10100.069    5278.0498    7172.1179    1105.9836   -173.66891    131.33465   -6444.2896 
 3524000    294.95039   -9012.5205   -7888.0352   -9012.5205            0    7330.5989    25.019403    25.126341    23.054358    14493.031    8011.2681    6539.3815    7441.1472   -249.11335   -671.24368    39.362704   -6338.5958 
 3525000    272.45678   -9003.1102   -7964.3807   -9003.1102            0    8275.6468    24.927414    25.166881    22.972088     14411.43    8041.5204    7145.3581    9640.0617   -388.80216   -435.61638    686.38902   -6225.0389 
 3526000    285.90987   -9022.3676   -7932.3488   -9022.3676            0    7996.4011    24.897509    25.038602    23.183829    14452.771    9250.1743    7569.0836    7169.9454   -739.29365    325.33011   -67.165095   -6246.8766 
 3527000    273.43085   -8993.6483   -7951.2052   -8993.6483            0    7812.5813    25.073033    24.955312     23.07713    14439.484    7603.0791    7960.9644    7873.7004    426.02787    500.22402     384.2121   -6305.9923 
 3528000    275.24977   -9022.2034   -7972.8258   -9022.2034            0    8176.1387    25.177871    25.068629    22.843514    14418.249    6903.7844    7774.8947    9849.7369    928.08202   -168.77817    837.66592   -6253.5852 
 3529000    273.43384   -9036.3061   -7993.8516   -9036.3061            0    7615.9221    25.035891     24.93906    23.122213    14436.853    6195.5809    8646.2009    8005.9844   -17.716932    -1433.767    833.91683   -6390.3444 
 3530000    278.16558   -8984.3376   -7923.8435   -8984.3376            0    8375.5861    24.999194    24.957762    23.169167    14455.797    8519.3215    8476.9441    8130.4927   -190.26912   -406.18802    346.01199   -6158.0775 
 3531000    287.95928   -9007.8469   -7910.0149   -9007.8469            0    7660.1466    24.963971    25.126703    23.037317    14450.441    7410.3173    7008.2242    8561.8985   -857.26532    316.23644   -100.32974   -6295.6783 
 3532000    286.39829   -9016.2424   -7924.3615   -9016.2424            0    8175.8203    24.848855    24.957905    23.322493    14464.036     8880.235    9784.7149    5862.5108    274.87715    -559.4037   -884.16642   -6199.7284 
 3533000    283.20541   -9017.7983   -7938.0902   -9017.7983            0    7953.3283    25.088026    25.129072    22.885044     14427.62    7211.3992     7377.485    9271.1005   -757.41704   -872.60506   -877.48673   -6264.6141 
 3534000    269.16659   -9041.6555   -8015.4697   -9041.6555            0     8062.369    24.940512    25.033979    23.096558    14420.573    8110.6366    8320.0926    7756.3779    -163.7951    26.536146    973.80492   -6319.8787 
 3535000    268.39962   -9054.4648   -8031.2031   -9054.4648            0     7808.483    24.978623    25.008147    23.080825    14417.877    7584.6169    8546.4572    7294.3748    527.35092    -1923.233    486.77273   -6389.3137 
 3536000    279.96939    -9039.135    -7971.764    -9039.135            0    9094.9352    25.071907    24.953428    22.971019    14371.359    7859.9044    9401.5917    10023.309   -395.58084   -537.61095    315.85031   -6065.5426 
 3537000    275.66854   -8999.6465   -7948.6723   -8999.6465            0     9994.107    25.069835    24.945174    22.925553    14336.985    10273.783    9920.3128    9788.2256    1192.2807   -538.98752    682.86859   -5859.0022 
 3538000    284.27894   -9017.2968   -7933.4959   -9017.2968            0    9100.9078    24.923932    24.959107     23.06876    14350.594    9460.2079    8988.1473    8854.3681   -387.72191   -223.41669    814.42074   -6028.7788 
 3539000    267.91908   -9017.2286   -7995.7989   -9017.2286            0    7554.1652    24.927987      24.9825    23.190426    14442.149    8862.3355    7332.0248    6468.1353   -409.16079    567.61804    232.30446   -6404.7109 
 3540000    276.91407     -9034.21   -7978.4873     -9034.21            0    8948.1767     24.99358    25.049792    22.993473    14395.845    7965.0539    8919.2651     9960.211     253.6834     321.1071    145.76221   -6099.8299 
 3541000    269.10337   -9042.2223   -8016.2775   -9042.2223            0    8078.2338     24.91357    25.180504    22.985539    14419.662    7644.6675    6908.9939      9681.04   -745.50019    968.62046   -474.57187   -6317.4574 
 3542000    279.87478   -9042.6232   -7975.6129   -9042.6232            0    7111.2803    24.887068    25.081719    23.136942    14442.321    8527.7225    5945.5011    6860.6172    528.38555    161.53551   -407.25894   -6477.7893 
 3543000     290.9042   -9043.4743   -7934.4148   -9043.4743            0    9672.9207    24.929405    25.187706    22.835573    14338.788    9819.0153    8229.5262    10970.221   -169.37942    -189.7888    595.48276   -5911.6472 
 3544000    281.43301   -9040.4025   -7967.4515   -9040.4025            0    8336.5553    24.954751    24.966253    23.051651    14361.792    8875.9942    9088.7117    7044.9599    -788.9499    72.907179   -473.55387   -6221.3433 
 3545000    272.09662   -9060.2633   -8022.9069   -9060.2633            0    9328.6442    24.966473    24.923581    23.052041    14344.223      8600.88    9962.6631    9422.3896    159.57677   -765.18087   -76.866115   -6071.3939 
 3546000    292.41542   -9027.7336   -7912.9126   -9027.7336            0    7866.2886    24.960477    25.086787    23.056945    14437.756    8313.3044    8609.2295    6676.3317   -672.84736   -771.52741   -1238.3624    -6256.588 
 3547000    277.67291   -9036.9877   -7978.3719   -9036.9877            0    9575.8569    24.746359    25.023121    23.112367    14311.897    11487.121    8738.0985    8502.3516    311.16652   -82.080685   -372.03767   -5979.6576 
 3548000     287.2777   -9065.1682   -7969.9346   -9065.1682            0    8157.4966    24.898558    25.157237    22.968741    14387.135    8167.4006    8588.9632    7716.1261   -126.97582   -34.533067     233.2913   -6258.3156 
 3549000    288.03676   -9026.3166   -7928.1891   -9026.3166            0    8530.5769    24.918467    25.007511    23.115388    14404.327    8322.6821    8156.9467    9112.1018    640.05787    457.05964   -77.552278   -6136.1509 
 3550000     293.5853   -9039.2893   -7920.0082   -9039.2893            0    8822.5878    24.999002    25.013535    22.979999    14369.702     7214.114    9743.4075    9510.2419   -235.65889   -66.463559   -1429.9954   -6071.0818 
 3551000    275.95773   -9003.6303   -7951.5536   -9003.6303            0    7839.0125    25.147612    24.952223    23.037065    14455.501    6577.3394    8167.7715    8771.9266    769.48601      1150.53      207.561   -6298.9435 
 3552000    281.87994   -9037.8648   -7963.2099   -9037.8648            0    8884.8218    25.092376    24.874925    23.044672    14383.815    8808.6761     8991.396    8854.3934    54.759973   -1710.6476    167.82946   -6099.4125 
 3553000    272.17346   -9009.9589   -7972.3096   -9009.9589            0    9204.6228    24.961298    24.909896    23.134463    14384.623    8985.0527    10198.958    8429.8579   -11.005513   -1092.1828    299.27397    -6041.318 
 3554000     274.8113   -8988.0644   -7940.3584   -8988.0644            0    8731.2338    24.980942    25.078363    22.983955    14399.015    8713.5445    8002.9514    9477.2056    666.06401    538.61224    491.33476   -6106.8442 
 3555000    281.49565   -8993.0051   -7919.8153   -8993.0051            0    9388.9491    24.878532    25.133194    23.007351    14385.966    10523.325    7838.7813    9804.7408   -300.12074    -1057.667    23.417227   -5949.9709 
 3556000    282.92411   -9001.5489   -7922.9132   -9001.5489            0    8339.1128    24.889083    25.147462    23.026985    14412.527     9604.264    8025.3444    7387.7299   -202.22384    458.91633   -231.43558    -6170.099 
 3557000    283.53109   -9040.0308    -7959.081   -9040.0308            0    8807.3475    24.928626    25.058343    23.035009    14389.281    9175.0984    8066.6948    9180.2493     999.6481    541.50656   -854.66212   -6110.8336 
 3558000    279.77531   -9045.4044   -7978.7734   -9045.4044            0    8695.4141    24.938089    25.093089     22.99365    14388.821    9104.8991    7199.0842     9782.259    331.42294   -710.71408    781.25577   -6154.0738 
 3559000     276.6226   -9003.2232   -7948.6117   -9003.2232            0    9683.7839    24.941339    24.954165    23.052647    14347.744    9743.6743    9856.5959    9451.0814   -400.67024    130.61693    323.77367   -5922.3077 
 3560000    277.44382   -9076.6153   -8018.8729   -9076.6153            0    7639.4418    24.985468    25.015253    23.086191     14429.28    7818.9155    7832.0178    7267.3921   -787.96158   -385.20564    703.79703   -6411.2574 
 3561000    277.67029   -9053.5458   -7994.9401   -9053.5458            0    7429.9052    25.076012    24.979944    23.112795    14477.794    6704.0834    7370.5409    8215.0914   -436.60389    -1263.341    635.97037   -6426.1618 
 3562000    279.18268   -9031.5555   -7967.1838   -9031.5555            0    8215.3217    25.122509    24.933885    22.987151    14399.191    7562.8407    7515.7928    9567.3317   -233.87397   -330.22371    695.48418   -6241.9872 
 3563000    282.99913   -8981.7267    -7902.805   -8981.7267            0    9039.6388    25.051788    24.898267    23.117046    14419.167    8595.4131    9304.4219    9219.0815    261.16128    482.34422   -438.70859   -6001.8705 
 3564000    274.98946   -8994.6485   -7946.2633   -8994.6485            0    8614.5936     25.00389    25.024354    23.005089    14394.427    8659.2431    7335.7694    9848.7685    1032.4132    15.934478     450.7493   -6137.8193 
 3565000    267.84954   -9044.0577   -8022.8931   -9044.0577            0    7320.1452    25.014092    25.037079     23.13081    14486.359    6454.5833    7895.5887    7610.2636    821.67824   -427.60641    2001.4086   -6476.3756 
 3566000    288.61391   -8983.4415   -7883.1137   -8983.4415            0    8973.7444    24.935973    24.964657    23.120043    14392.643    9892.5761    8224.0648    8804.5924    316.62385   -332.78547    488.45389   -5999.5073 
 3567000    273.55498    -9036.824   -7993.9077    -9036.824            0     10182.69    24.851035    25.133285    22.853295    14273.897    10536.502    9624.2729    10387.294     344.9857     428.9996   -109.87043   -5874.1757 
 3568000    274.35296   -9042.7147   -7996.7561   -9042.7147            0    8018.4934    24.964397    25.048726    23.041071    14408.189    7911.6694    7861.7364    8282.0744   -763.57747    716.09834    477.60043   -6311.8409 
 3569000    266.17786   -9010.4375   -7995.6461   -9010.4375            0    9144.4853    25.000754    24.803953    23.146853     14353.77    8095.7183    10902.103    8435.6341    195.75808    1534.6641   -993.68483   -6081.3852 
 3570000     271.9525   -9029.2303   -7992.4233   -9029.2303            0    9125.6259    25.113013    24.889932    22.978323    14362.858     6980.008    10647.056    9749.8133    -183.8153   -518.32547     678.3837   -6080.9008 
 3571000     276.7096   -9008.1479   -7953.2047   -9008.1479            0    7287.4968    25.042964    25.106892    23.052525    14494.298    8071.6168    6850.5195    6940.3541    469.86223     669.6229    862.29117    -6412.741 
 3572000    284.59429   -9018.4191   -7933.4159   -9018.4191            0    7748.5445    24.945489    25.045783    23.105444    14435.803    7700.8755    8818.8309     6725.927    247.79922    91.541983    -593.5084   -6302.1041 
 3573000    264.20411   -9055.3965   -8048.1299   -9055.3965            0    8222.9755    24.995213    25.138833    22.917404    14400.162     9497.892    6719.1418    8451.8929   -619.76906   -19.430292    1193.0107   -6321.2097 
 3574000    293.32886   -9054.7058   -7936.4024   -9054.7058            0    10292.306    24.907335    24.935249    23.032686    14304.924    10822.974    9388.4728    10665.472    444.59915   -338.94349    377.38979   -5789.1942 
 3575000    281.79997   -8980.2058   -7905.8557   -8980.2058            0    9436.0609    25.084208    24.962158    22.992324    14396.781    8795.4484    9285.4001    10227.334    410.52429   -719.93017    587.33792   -5924.6389 
 3576000    282.12571   -9028.9499    -7953.358   -9028.9499            0    9514.7972    25.049991    24.861811    23.072218    14369.104    9920.4921    9705.4153    8918.4844   -28.214174     819.1552    1048.3885   -5959.4501 
 3577000    277.27525    -9060.657   -8003.5572    -9060.657            0    9239.3741    24.949894    24.887388    23.120987    14356.693     9139.657    10118.222    8460.2432   -249.30403   -397.69376   -101.90642   -6069.0389 
 3578000    281.09786    -8986.129   -7914.4558    -8986.129            0    8264.5306    24.979909    25.101088    23.051114    14453.576    8172.9048    7905.3135    8715.3734   -485.76352    1060.6163    26.997497   -6172.3706 
 3579000    280.85155   -9049.6132    -7978.879   -9049.6132            0    8501.7698    24.885368    25.084637    23.010618    14364.158    8762.5682    8577.4893    8165.2517   -83.464762   -1121.6951    1060.9404   -6197.8729 
 3580000    271.79626    -8992.919   -7956.7077    -8992.919            0    9991.5646    24.842492    25.078649    23.007092    14333.789     11097.99    10100.812    8775.8917   -352.61628    645.19241   -129.60726   -5868.0349 
 3581000    293.02996   -9037.4762   -7920.3124   -9037.4762            0    8908.5256    24.912479    25.025244    23.094486    14398.046    9506.9555     8233.746    8984.8754   -181.41247   -150.35478    263.60433   -6049.6936 
 3582000    276.47568   -9028.2902   -7974.2388   -9028.2902            0    7094.2894    25.172969    25.046293    22.982012    14489.919    5707.5798    8039.6149    7535.6736   -446.58553   -498.61844    1010.9894   -6475.0693 
 3583000    270.80803   -9051.4383   -8018.9946   -9051.4383            0    8883.1872    24.970152    24.906222    23.160519    14403.808    8562.5481    9154.0074    8933.0062   -331.74003    396.77956    586.12374   -6152.9499 
 3584000    281.35221   -8972.1237   -7899.4807   -8972.1237            0    7929.5473    25.311453    25.012438    22.841965    14461.274    5366.9532    9135.5717    9286.1169    591.19181   -390.00156    93.930335   -6227.1166 
 3585000    273.64199   -9027.3809   -7984.1328   -9027.3809            0    7723.1458    25.046528    24.968559    23.099636    14445.952    7050.8527    8075.4387    8043.1459    268.21198   -35.001833   -670.58725   -6357.0252 
 3586000    279.44654   -9019.0178   -7953.6402   -9019.0178            0    8528.7367    25.046825    24.972832    22.997239    14384.547     8003.444    8675.7289    8907.0372   -131.61478   -170.62707   -323.90567   -6164.4489 
 3587000    278.05301   -9021.1943   -7961.1294   -9021.1943            0    9551.6531    24.917347    24.994798    23.043474    14351.569    10062.592    8987.7052    9604.6625    150.77949   -490.89029    729.14889   -5961.9406 
 3588000     286.5778   -9012.8786   -7920.3133   -9012.8786            0    6680.4281    25.003665    25.094409    23.061085    14469.728    7622.4781    6213.0437    6205.7626    270.82833    22.461327    1850.4734   -6510.5684 
 3589000    273.78249   -9074.9907    -8031.207   -9074.9907            0    7800.6523     24.83419    25.048594      23.1239    14384.489    8995.6596    7873.3864    6532.9109    528.22373     941.0694   -341.71964   -6394.7626 
 3590000    286.13353   -9039.9831   -7949.1115   -9039.9831            0    8535.0588    25.063526    25.010952     22.98244    14406.833    8548.0029    9434.0699    7623.1035    1064.7945    1110.9714     360.4195   -6155.8199 
 3591000    282.02075   -9073.0467   -7997.8549   -9073.0467            0    9366.2926    25.019596     24.93353    22.963327     14325.14    8650.0261    10241.473    9207.3785   -64.196773   -96.989453     553.6869   -6041.0728 
 3592000    282.11825    -9018.918   -7943.3546    -9018.918            0    9641.5796    24.919021    24.908003    23.091643    14332.591    9929.4251    10339.277    8656.0365   -446.55468     312.1742   -319.56253   -5928.0124 
 3593000    278.58683   -9006.0281   -7943.9281   -9006.0281            0    7938.3331    24.952026    25.046386    23.081513    14424.978    7727.7546    7782.3984    8304.8462   -1520.3683    752.03376   -228.53771   -6273.9131 
 3594000     271.3525   -9003.9745    -7969.455   -9003.9745            0    8236.9088    24.917816     25.21109     22.97419    14432.507    9430.6852    6305.3281    8974.7132     490.2777   -856.46737    -80.01748   -6235.7231 
 3595000    269.58289   -9066.9063   -8039.1334   -9066.9063            0    9312.7542    24.899166    25.024525    22.996048    14328.603     10100.89    8664.8309    9172.5415    727.86242    203.62864   -260.15833    -6093.066 
 3596000    282.92364   -9033.1493   -7954.5154   -9033.1493            0    8678.3885    24.854838    25.123527    23.010377    14368.627     9657.746    7848.3003    8529.1191   -745.55305   -72.096565   -1204.6841   -6135.9444 
 3597000    286.56332   -9038.5579   -7946.0478   -9038.5579            0    8027.5802    24.957334    25.053802     23.07501    14428.253    7900.8608    7367.4866    8814.3932     281.6251   -182.71984    268.83624   -6256.8742 
 3598000    266.61856   -9045.1116   -8028.6401   -9045.1116            0    8338.5878    25.065294     25.03473    22.930408    14388.897    6841.9399    8858.8757    9314.9479   -886.56854    60.484974   -605.98071   -6278.8099 
 3599000    279.68159   -9012.9613   -7946.6876   -9012.9613            0    8304.1093    25.002722    24.933212    23.171631    14445.152    8525.3113    8697.1027     7689.914   -652.73454    286.73915   -106.66938   -6197.2797 
 3600000    276.21215   -9055.3972   -8002.3505   -9055.3972            0     8548.257    24.971417    24.992855    23.003177    14356.444    8766.6094    7178.6976    9699.4639   -67.754426   -888.33359    474.16325   -6212.5676 
 3601000     282.4246   -9044.1712   -7967.4398   -9044.1712            0    10231.917    24.964154    24.905397    22.993629    14296.108    9658.7679    10998.233    10038.749   -54.229971    637.25743    717.99428   -5834.1459 
 3602000    284.98854   -9018.1106   -7931.6043   -9018.1106            0    8251.9592    24.926605    25.011196    23.125818    14417.657    7258.9402    9833.8112    7663.1261   -20.878794     144.2026    503.06361   -6196.4918 
 3603000    274.10555   -8991.6961   -7946.6808   -8991.6961            0    9234.6904    24.925278    25.095996     22.99246    14382.351     9710.134    8588.5914    9405.3457    355.78773   -294.02865   -24.929603   -6009.6875 
 3604000    268.39142   -8987.6286   -7964.3981   -8987.6286            0    9174.5735    24.839165    24.944412      23.2827    14425.923    11215.518    8744.5497    7563.6533   -248.14393   -666.00999    231.37675   -6034.1845 
 3605000    282.91218   -9026.0232    -7947.433   -9026.0232            0    8303.7273    25.065419    25.130909    22.901559    14426.076    7566.1082    7844.0625    9501.0112    178.92338    832.25583   -26.122334   -6200.4158 
 3606000    276.59591   -9027.8109   -7973.3012   -9027.8109            0    10569.796     24.91119    24.852989    23.070126    14283.119    9973.8046    12015.238    9720.3458    453.28906   -506.49731   -136.01518   -5771.5636 
 3607000    285.43437   -9055.0772   -7966.8713   -9055.0772            0    7314.2551    25.100141    25.030577    22.979999    14437.667    7384.9577    6910.8714    7646.9361   -801.37567    234.20499    263.87211   -6426.7922 
 3608000    287.36655    -9044.488   -7948.9156    -9044.488            0    8204.1985    25.004747     24.73248    23.293169    14405.181    8739.6702    9750.8408    6122.0846    56.321212   -246.06168     238.7809   -6225.3383 
 3609000    279.11692   -9039.6131   -7975.4922   -9039.6131            0    7950.4988    25.042464    25.014912    22.986886     14399.79     7704.366    8287.9313    7859.1991    802.35083   -1683.8214   -540.46665   -6305.8383 
 3610000    268.99277   -9007.9216   -7982.3985   -9007.9216            0    8511.5681    24.916173    25.073715    23.074665     14415.69    8488.9768    8892.4867    8153.2408   -641.55802    188.53229   -1481.1851    -6192.943 
 3611000    276.18861   -9014.6413   -7961.6844   -9014.6413            0    7918.3703    24.935668    25.026668    23.119828    14428.083    7788.9967    8513.2442    7452.8701     151.6112    -470.6642   -612.49163   -6295.5105 
 3612000    274.98954   -9003.8609   -7955.4754   -9003.8609            0    8709.6024    24.954873    25.217985     22.87329    14394.427     10273.83    6011.3878    9843.5898     600.9271    677.65381    -292.9125   -6127.0864 
 3613000    278.42335   -9013.3366   -7951.8599   -9013.3366            0    8351.8771    24.979162    24.968622    23.091301    14401.935    7541.5732    9304.3908    8209.6674    -284.5952   -18.747221   -272.43538   -6197.6529 
 3614000    287.92199   -8991.3788   -7893.6889   -8991.3788            0    9247.4008    25.064353    24.995837    22.926424    14363.508    9236.4621    9945.4932    8560.2472   -207.12806   -991.85975     414.0363   -5956.5708 
 3615000    287.19946    -9002.433   -7907.4977    -9002.433            0    7628.4043    25.055753    24.998202    23.094121    14464.974    7414.6903    8411.5515    7058.9712    409.34113   -271.09774   -231.77956   -6298.2339 
 3616000    277.10937   -9044.0807   -7987.6134   -9044.0807            0    8000.3814    25.046734    24.912451    23.086809    14405.604    7493.8052    9070.7632    7436.5757    -535.8147   -1521.0581   -564.63911   -6306.8056 
 3617000    272.07702   -9064.5149   -8027.2333   -9064.5149            0      7833.65    25.071028    24.997333    22.994583    14410.908    7362.3811    7708.5769    8429.9919    -464.8523   -851.50105    89.782459   -6380.8482 
 3618000    262.83502   -9025.7966   -8023.7497   -9025.7966            0    8639.6241    25.129485    24.842336     23.05965    14395.566    7141.1515    10711.503    8066.2176   -1423.5067   -1824.8091    431.43092   -6209.9076 
 3619000    275.06895   -9019.8171   -7971.1288   -9019.8171            0    8353.2611    24.992115     25.02155    23.058038    14419.147     8968.901    7557.2129    8533.6695    533.06463   -115.85515    -596.7257   -6214.5343 
 3620000    274.51985    -9031.619   -7985.0242    -9031.619            0    7484.9344    24.928546    25.123916    23.082966    14456.923    8164.3707    6460.1916     7830.241    57.444239    553.95412   -382.76288   -6406.9051 
 3621000    272.84094   -9024.9288   -7984.7347   -9024.9288            0     8004.529    24.877763    25.151056    23.057669     14427.23    9775.8022    5944.0009    8293.7837    741.43705   -315.01671    270.09818    -6300.531 
 3622000    283.99043   -9030.0009   -7947.2999   -9030.0009            0    7645.8908    24.956537    25.171244    22.994129    14444.614    8013.0978    7106.1273    7818.4473    288.26906      279.729    496.95879   -6336.6174 
 3623000    268.63668   -9037.7069   -8013.5414   -9037.7069            0    7174.4475    24.949329    25.021952    23.140938    14446.446    8416.1269    7505.4441    5601.7716    162.86906   -669.50144    113.00094   -6501.9815 
 3624000    284.79004    -9010.383   -7924.6335    -9010.383            0    9205.5739    24.955297    24.944036    23.098099    14378.239    8446.0927    10694.828    8475.8009   -847.35143   -517.23481   -508.67105   -5994.2994 
 3625000    285.00575   -8992.2768   -7905.7049   -8992.2768            0    9158.2106    25.075951    24.875641    23.034278     14368.33    8488.1356    9392.1554    9594.3409     164.4907   -722.18263    1714.0454   -5986.6261 
 3626000    288.27348   -9062.6798   -7963.6498   -9062.6798            0    9205.6195    25.022263    24.887782    23.032196    14343.268    8949.9705    9936.9167    8729.9712   -1038.1142   -217.84914   -157.28238   -6038.0013 
 3627000     277.1197    -8997.037   -7940.5304    -8997.037            0    9486.4463    24.977509    25.007693    23.024515      14381.8    10226.014    8504.1771    9729.1481   -231.86622     873.5879   -659.69029   -5950.8071 
 3628000    277.32831   -9044.4218   -7987.1199   -9044.4218            0    7985.2829    24.939726    25.025745    23.105967    14421.248    7534.7687     8782.504    7638.5761   -187.44779    334.60659    969.39348   -6307.6623 
 3629000    276.36932   -8997.8277   -7944.1818   -8997.8277            0    7861.5314    24.957041    25.154683    22.974789    14423.262    8630.3396    7042.5257    7911.7289   -78.582187   -383.42446    482.72474   -6290.5206 
 3630000    264.67565   -9018.9769   -8009.9126   -9018.9769            0    8305.7752    24.904629    25.034336    23.110155    14408.508    8583.6841    7666.3748    8667.2667    -201.6802    314.95223    114.59112   -6264.5926 
 3631000    281.16068    -9087.384   -8015.4713    -9087.384            0    8034.6192    24.924153    25.025613    23.075033    14392.872    8288.2403    8727.8046    7087.8128    364.76568    1035.6712    754.07742   -6328.9623 
 3632000    277.39552   -9035.8816   -7978.3234   -9035.8816            0    7044.5936    25.089974    25.095077    22.932251    14438.944    7530.8014    6427.6581    7175.3215    464.10458     283.0776    331.16395   -6494.8926 
 3633000    278.01807   -9036.2438   -7976.3121   -9036.2438            0    7767.6205    25.052587    24.875579    23.152438    14428.544    7509.6177    8719.5915    7073.6523   -303.63685    288.88808    93.126818   -6341.8065 
 3634000    275.83454    -9073.792   -8022.1849    -9073.792            0    6959.5939     25.14665    25.001189    22.983354    14449.546    5631.6224    6848.3469    8398.8124    66.364472    92.934081   -449.98998   -6555.5771 
 3635000    272.53832   -9081.0247   -8041.9843   -9081.0247            0    7519.5976    25.008303    24.943637    23.110077     14416.02    7092.1774     7876.554    7590.0616   -581.75657   -871.69592    888.22289   -6461.0425 
 3636000    277.70542   -9018.6372   -7959.8974   -9018.6372            0    9069.8474    25.090255    24.968825    22.953874    14380.009    8215.4614    9970.8764    9023.2044    622.56598   -790.43213    1210.8489     -6057.79 
 3637000    279.31765   -9057.0833   -7992.1971   -9057.0833            0    8238.7288    25.019183    24.989093    22.980802    14367.751    7066.8904    8438.0204    9211.2757    466.06981    484.62234   -669.76794   -6265.8628 
 3638000    280.99236   -9032.2985   -7961.0275   -9032.2985            0    8021.2686    24.830943    25.158506    23.070507    14412.363    9901.0429    7274.9242    6887.8386    470.65685   -351.32556    775.19005   -6275.0408 
 3639000    276.78261   -9065.1837   -8009.9621   -9065.1837            0    8577.9485    24.905518    25.004563    23.062472    14362.191    9382.0716    9200.7816    7150.9924    114.07697    218.29795   -94.946045   -6213.2437 
 3640000    278.00866    -9021.774   -7961.8782    -9021.774            0      7153.66    24.979418    25.261137    22.932898    14470.853    7475.7577    6013.2905    7971.9317    332.36555   -780.69414    285.71799   -6452.1515 
 3641000    270.43067   -9043.9164   -8012.9114   -9043.9164            0     6953.938    24.964525    25.016517    23.164669    14466.926    7089.7386    7447.3155    6324.7599   -498.66566    139.46433    285.72953   -6545.7328 
 3642000    274.62774   -9062.9893   -8015.9831   -9062.9893            0    8565.4936    25.066229    24.948272    23.027282     14400.32    8001.1377    8774.2437    8921.0995    633.97026    468.12691    252.85278   -6217.1104 
 3643000    273.98211   -9013.1023   -7968.5575   -9013.1023            0    8856.1588    25.047912    24.914187    23.082237    14404.433    7736.0709    10336.173    8496.2326    116.84537   -143.02126   -128.65219   -6108.1099 
 3644000    276.04592   -9024.4923   -7972.0794   -9024.4923            0    8710.6196    25.101386    24.822569    23.062207    14369.621    7679.7767    10103.604    8348.4785   -366.61671   -987.79072    610.11371   -6146.6281 
 3645000    300.41133   -9036.0936   -7890.7886   -9036.0936            0    8891.0572     25.01494    24.982233    23.023415    14388.001    9240.9928    8692.2153    8739.9635    36.817849    660.42946   -500.72192   -6025.1404 
 3646000    268.08359   -9006.1573   -7984.1004   -9006.1573            0    7751.5682    24.930425    25.044402    23.145436     14451.26    8477.0023    7209.1532    7568.5491    114.56413    -28.33743   -758.44792   -6350.4047 
 3647000    276.49528   -9033.9212   -7979.7951   -9033.9212            0    9052.4375    24.965141    25.158997    22.892315    14378.616    8855.2831     8134.921    10167.108    119.56017    28.691991    1885.2459   -6081.5228 
 3648000    279.63036   -9080.0998   -8014.0214   -9080.0998            0    9260.1094    24.865051    24.989237    23.043088    14318.022    10823.432    9337.1553    7619.7406   -1240.7395   -971.28696    -71.88119    -6080.384 
 3649000    286.14672   -9050.2596   -7959.3378   -9050.2596            0    7504.0337    24.945546    25.023063     23.14626    14448.219    7477.7693    8035.9242    6998.4075   -672.12153   -1256.9124     365.4586   -6378.1444 
 3650000    276.36093   -9048.1524   -7994.5385   -9048.1524            0    7631.2369    25.072087     25.19503    22.866947    14444.867     6824.284    7494.5353    8574.8914    228.44797     477.8234    69.945402   -6386.9149 
 3651000    288.34026    -9041.427   -7942.1424    -9041.427            0    8559.4556    24.846846    24.983131    23.217097     14412.06    9162.6119    8968.3123    7547.4427   -66.706341    427.75365    -709.6032   -6143.0723 
 3652000    283.41311   -9080.1417   -7999.6417   -9080.1417            0    7795.0086    25.064799    25.030448    22.972188    14412.364    6320.8788    8689.1488    8374.9982   -201.92022   -286.42058   -455.27338   -6361.2124 
 3653000    287.61393   -9062.4552   -7965.9398   -9062.4552            0    6689.1226    25.185151    24.780051    23.186676    14470.557     6164.729    7961.6228     5941.016   -772.15793     1001.671   -327.95335   -6554.2791 
 3654000    276.51301   -9061.3017    -8007.108   -9061.3017            0    8586.8022    25.083744     24.90272    22.966473    14346.087    7597.1543    9073.9193    9089.3329    869.27244   -1068.4679    78.445993   -6210.5519 
 3655000    278.89508   -9024.5443   -7961.2691   -9024.5443            0    10288.607    24.969431    24.853723    23.065586    14314.118    10524.005    10785.228    9556.5861    873.23383    1457.6694    695.92796   -5813.4532 
 3656000    265.86291   -9074.5242   -8060.9336   -9074.5242            0    8371.5447    24.985371    25.020736    22.922985    14330.358    7645.1991    8673.4763    8795.9587   -28.632529    270.92615   -505.42496   -6311.3345 
 3657000     279.7935   -9058.2778   -7991.5774   -9058.2778            0    7309.4353     25.01475     25.11806    23.020723    14464.427    6709.8451    7845.8324    7372.6285   -127.94886     288.9793    255.03046   -6449.6606 
 3658000    284.82597   -9058.0528   -7972.1663   -9058.0528            0     6851.319    24.934849    25.071735    23.147959    14471.177    7626.9102    7492.9331    5434.1136    615.75644    572.82978   -20.063029   -6526.2142 
 3659000     279.8454   -9008.2139   -7941.3156   -9008.2139            0     8381.263    24.999601    25.038842     22.99648    14394.901     9745.966    7607.9899     7789.833   -433.95342   -112.69883   -866.88972   -6181.7963 
 3660000    284.13485    -9049.879   -7966.6274    -9049.879            0    10496.953    24.762697    25.025802    23.052461    14285.756    12038.054    9216.8351     10235.97   -229.61448   -496.10587    285.62053   -5779.6596 
 3661000    272.84782   -9055.2063    -8014.986   -9055.2063            0    9073.8694     24.94494    25.059451    22.900547    14315.281    8866.5182    8682.6701      9672.42    538.16397    287.44282     415.7174   -6120.6008 
 3662000    280.89772   -9047.1443   -7976.2341   -9047.1443            0    8000.6572     25.01923    24.952196    23.092783    14416.472    7211.7343    9023.6386    7766.5986   -1021.5799   -1284.0767    794.42386   -6294.1003 
 3663000    279.33276    -9013.543   -7948.5991    -9013.543            0      7749.43      25.0916     25.04262    22.991493    14446.921    6879.6152    8367.6851    8000.9897   -517.91936     -887.898   -110.63728   -6315.8444 
 3664000    277.32408   -9057.7525   -8000.4666   -9057.7525            0    8115.6722    24.919402     24.99622     23.09659    14386.654    9725.5053    7511.7943    7109.7171   -101.22731    -104.8772    425.34829   -6297.6801 
 3665000    280.73081   -9038.8262   -7968.5523   -9038.8262            0    9450.7582    24.909855    25.063786    22.987239    14351.744    9748.3907    9337.0787    9266.8053    60.794694    1038.5499    461.82298   -5990.4569 
 3666000    280.17632   -8997.1949    -7929.035   -8997.1949            0    9217.7678    24.996337    25.068869    22.966381    14391.421    9460.4089    8600.8028    9592.0916     152.7205     -352.336    1157.1127   -5994.3721 
 3667000    268.11727   -9065.4177   -8043.2324   -9065.4177            0    7865.9435    24.929834    24.914772    23.206116    14413.809    8334.5212    8536.2008    6727.1085   -662.38204    823.23999   -688.64934   -6389.7276 
 3668000    292.53178   -9035.2491   -7919.9845   -9035.2491            0    7827.9317    25.069863    25.063242    22.958003    14425.248    8140.2948    7264.0943     8079.406    237.11511    155.18951    6.7528498   -6273.1642 
 3669000    275.63156   -9021.9181   -7971.0849   -9021.9181            0    7874.0298     25.01894    24.869919    23.183389    14425.145    8386.6424    8951.5979    6283.8491    1107.5214   -82.393925     197.5453   -6314.5784 
 3670000     271.9813   -9010.9386   -7974.0218   -9010.9386            0     9734.298    24.945568    24.989294    23.007008    14341.927    9672.9406    9384.1296    10145.824    705.99707    820.14876   -809.38879   -5937.9736 
 3671000    274.44121   -9030.7053   -7984.4102   -9030.7053            0    8046.2805    25.006787    25.021551    23.027475    14408.489    8631.1982    7604.8134    7902.8298    636.17808    235.81701    339.74201   -6293.6209 
 3672000    273.51297    -9026.554   -7983.7979    -9026.554            0    8228.6195    24.890444    24.976682    23.188917    14416.102    9477.0568    8838.6643    6370.1375   -440.30984    634.32218    950.52313   -6253.7795 
 3673000    273.28258    -9003.311   -7961.4332    -9003.311            0    10337.562    24.928244    25.017463    22.935841     14303.74    9871.0447    10356.539    10785.103   -168.13242   -1812.2097    144.10481    -5804.962 
 3674000     270.5996   -9022.1792   -7990.5301   -9022.1792            0    8428.0593    25.073065    25.053396    22.890142    14378.796    7162.1394     8415.956    9706.0826    472.36046   -127.55104     444.9534   -6223.1662 
 3675000    266.71911   -8996.5978   -7979.7429   -8996.5978            0    9232.8351    24.932612    24.847834    23.233584    14393.703    9433.3672    9699.3252    8565.8129   -667.25942   -1092.2622    166.61772   -6041.6103 
 3676000     275.5421   -9044.8456   -7994.3535   -9044.8456            0    9727.2805    24.927691    24.941925    23.015732    14309.907    10068.556    9739.5604    9373.7257    604.78323    2093.2626   -601.26422   -5964.3156 
 3677000    278.04135   -9018.6417   -7958.6213   -9018.6417            0    8508.0203    24.972309     25.12006    22.929066    14383.538    8606.8388    7506.8685    9410.3537   -914.47437    808.91066   -796.97587   -6173.9011 
 3678000    274.74211   -9041.1286   -7993.6864   -9041.1286            0    7186.3387    24.973588    24.989885     23.21623     14488.95    7520.7199    8037.0857    6001.2104    248.36143     711.2538    177.04756   -6475.1665 
 3679000     278.2699   -9034.6189   -7973.7272   -9034.6189            0    7713.7696     25.02185     25.15706     22.88584    14406.092    7019.4699    7217.1454    8904.6934    237.93194   -52.009956   -520.77139   -6353.0791 
 3680000    271.44365   -9036.8791    -8002.012   -9036.8791            0    8428.3068    25.001341    24.913361    23.138591    14412.275    7693.4214    8853.2576    8738.2414   -621.01891   -359.93782    672.06402   -6230.4811 
 3681000    280.04895   -9046.0827   -7978.4084   -9046.0827            0    8719.6196    25.151468    24.813199    23.007357    14358.624    7583.3864    9560.7848    9014.6877   -788.18515    -1091.074    283.83443   -6152.4695 
 3682000    281.30663   -9000.1574   -7927.6882   -9000.1574            0    9257.0167    25.011853    25.020487    22.957261    14366.855    8758.0958    9247.2081     9765.746    427.59142    821.75968    411.67852   -5988.1041 
 3683000    285.84626   -9068.4145   -7978.6381   -9068.4145            0    7235.6165    24.876105    24.987436    23.187935     14413.39    7968.6177    7198.3343    6539.8976    492.23755   -90.571046    566.04747   -6457.6789 
 3684000    274.46299   -9005.0212   -7958.6431   -9005.0212            0    8646.5996    24.878377     24.99946    23.144895    14394.875    8434.1111    9203.5718     8302.116    701.35629   -615.35366    182.82188   -6143.4237 
 3685000    290.23602   -9010.6784   -7904.1663   -9010.6784            0    9020.8306     25.04566    25.152943    22.832529    14383.855     8472.218    8674.5193    9915.7545    104.65801    77.528848   -188.26031   -6011.8326 
 3686000    293.62924   -9041.9974   -7922.5488   -9041.9974            0     7405.333    24.984983    24.963613     23.16893     14450.82    8498.3842    6262.7023    7454.9127   -366.00103    441.05459   -815.58014   -6361.8721 
 3687000    270.01144   -9058.3941   -8028.9874   -9058.3941            0    8145.7273    25.007435    24.999899     22.98408    14369.264    7655.9862    8110.8807    8670.3149     244.1245   -329.35651    1048.8046   -6321.9608 
 3688000    285.36648   -9016.3584   -7928.4112   -9016.3584            0    8484.0143    25.040213    25.046677    22.948468    14392.686    8175.6109     9217.564    8058.8682   -751.08697    504.32989   -578.04611   -6147.5949 
 3689000    265.54963   -9035.3352   -8022.9389   -9035.3352            0    9279.4393     24.89885    24.936613    23.129275    14360.805     9962.222    8989.8395    8886.2564    49.272256    697.96447     65.33648   -6079.4754 
 3690000    278.89576   -8975.1104   -7911.8326   -8975.1104            0    8768.8425    25.023046    25.146165    22.896027     14406.95    8668.2638     8610.626    9027.6376    498.00743   -618.56513    1430.9043   -6069.4059 
 3691000    276.92661   -9023.2173   -7967.4468   -9023.2173            0    7499.4149    24.932827    24.975189     23.20394    14449.141    7224.9413    8875.1854    6398.1179    288.10612    579.14944    1535.8355   -6387.1258 
 3692000    283.25341    -9017.971   -7938.0799    -9017.971            0      7932.18    25.038025    25.143138    22.922959    14430.794    7269.9703    7900.6458    8625.9241    60.947987    234.07127    1434.0593   -6268.6866 
 3693000    280.72266   -9044.4134   -7974.1706   -9044.4134            0    9520.6205    24.962704    24.980539    23.023152    14356.819    9805.8927    9013.3157     9742.653    811.83412   -1528.3598   -334.51648   -5980.7481 
 3694000    282.73455   -9046.8502   -7968.9371   -9046.8502            0     7763.951     24.94968     24.94507    23.115364    14386.344    7876.1374    8257.4596    7158.2561   -227.77127    199.18221    202.81593    -6339.982 
 3695000    275.22721   -9009.9878   -7960.6961   -9009.9878            0    9278.4066    25.027134    25.038195    22.914229    14358.841    7902.4412    9895.6885     10037.09   -470.75707    789.40869   -239.38594   -6017.7146 
 3696000    282.50242   -9020.7159   -7943.6879   -9020.7159            0    8587.3946    24.981132    24.918494    23.133837    14400.633    8048.1682    9383.9683    8330.0474   -290.16166   -1256.6119    -424.8095   -6140.1765 
 3697000    276.97499   -9025.4145   -7969.4595   -9025.4145            0     6085.948    25.076893    25.055578    23.090512     14508.14    6119.3448    5002.1663    7136.3329   -386.76436   -268.01259    515.15989   -6681.7561 
 3698000    278.64201   -9008.1119   -7945.8015   -9008.1119            0    8850.0134    25.000559    24.960028    23.059881    14389.704    8576.4506     9442.417    8531.1727    99.563156   -311.72955    21.557995   -6088.5459 
 3699000    283.46524   -8996.3562   -7915.6575   -8996.3562            0    10396.019    25.044086    24.816861    23.057686    14330.712      9357.68    11233.794    10596.582   -241.54379     -116.557   -189.26131   -5742.9028 
 3700000    277.64598   -9019.2497   -7960.7366   -9019.2497            0    9389.9334    25.023494    25.023909    22.929755    14358.284    8485.6445    9680.1089    10004.047   -271.91431   -272.14455    786.68754   -5994.4767 
 3701000    281.34505   -8987.4864   -7914.8708   -8987.4864            0    9209.6938    24.879645    24.957706    23.096664    14341.617    8790.0885    9619.4039    9219.5889   -189.24639    147.30668   -343.41959   -5988.5918 
 3702000    276.80913   -9030.8614   -7975.5387   -9030.8614            0    8573.4437    24.950293    25.093257    22.981895    14388.599    8674.6245    8109.3087    8936.3979    464.26613   -162.27695   -160.11059   -6176.4619 
 3703000    271.91207   -9061.0082   -8024.3554   -9061.0082            0    7702.5552    24.931528    25.091891    23.036477     14411.14    7113.0867    7090.7999    8903.7791    452.43401    111.63274   -517.71171   -6405.4963 
 3704000    277.31537   -9010.0235   -7952.7708   -9010.0235            0    7381.9648     25.00734    25.002908    23.149928    14474.637    7308.8088    8302.8568    6534.2288    439.65101   -301.64559   -399.93151   -6394.4548 
 3705000    266.53516   -9016.4861   -8000.3325   -9016.4861            0    8420.0636    24.919105    25.039146    23.061692    14389.415    9495.9405    8175.6197    7588.6306    700.55186    136.15713    896.39025   -6233.3413 
 3706000    263.32593   -9054.2264   -8050.3079   -9054.2264            0    8607.0212    24.959863    25.164303    22.830697    14339.905    8291.3749    7946.6699     9583.019   -767.64998   -22.110034    418.25566   -6250.2973 
 3707000    272.22239   -8996.3787   -7958.5428   -8996.3787            0    9206.7451    24.863568    24.915041    23.194836    14368.663    10825.337    8846.7568    7948.1415    305.94121    669.20771    328.37573    -6029.249 
 3708000    279.02598   -9032.0941   -7968.3198   -9032.0941            0    8193.6229    24.997604     25.17076    22.948588    14439.451    8674.6928      7280.24    8625.9358   -86.721421    1.1596379    658.96097   -6242.8691 
 3709000    281.29396   -9016.6802   -7944.2593   -9016.6802            0     7580.709     24.95761    25.110554    23.097034    14474.897    7795.4986     7604.172    7342.4563    823.52527    41.069575    186.29786   -6343.9601 
 3710000    276.44581   -9021.1154   -7967.1778   -9021.1154            0    6887.6482    24.946235    25.174864    23.065761    14485.714     7054.232    6829.1614    6779.5511   -596.21673   -365.24485    465.24748   -6512.0982 
 3711000    286.14805   -9034.1945   -7943.2677   -9034.1945            0    7969.9485    24.937641    25.127773    23.016386    14422.697    8261.8551    7466.3243    8181.6662     125.4156   -1005.6326    758.81893   -6266.8667 
 3712000    283.02946   -9072.5742   -7993.5368   -9072.5742            0     8314.117    24.876332     25.00465    23.136493    14391.453    9421.9185    7786.4367    7733.9957   -536.82333    818.24712    307.74872   -6248.5318 
 3713000    268.61536   -9012.2897   -7988.2054   -9012.2897            0    8245.0655    25.017399    25.023391    23.031157    14417.969    8793.1378    7209.0413    8733.0174    525.86798    799.53104   -156.75151   -6254.5049 
 3714000    279.38012   -9018.2012   -7953.0768   -9018.2012            0    10051.896    24.924837    25.019897    23.003967    14345.662    10344.403    10089.369    9721.9175    254.09843    1414.1339   -319.96344   -5850.0516 
 3715000     270.3765   -9015.2363   -7984.4377   -9015.2363            0     9791.483    24.981058    25.008714    22.929352    14324.978    9350.8225    10495.599     9528.028   -153.87004    76.075014   -562.20639    -5938.849 
 3716000    269.36886   -9037.2438   -8010.2869   -9037.2438            0    8615.2534    24.900865    24.888287    23.168598    14358.504    6879.8016    10366.809      8599.15    284.06442    1806.7764   -464.50316   -6206.2179 
 3717000    281.50805   -9010.8216   -7937.5845   -9010.8216            0     8734.748    24.941311    24.937894    23.128251    14385.397    9110.8808    9133.5509    7959.8122    382.57166   -947.86673   -448.72989   -6105.0671 
 3718000    275.97671   -9002.3175   -7950.1684   -9002.3175            0     9341.414    25.018776    25.090446    22.849721    14343.507    8482.8225    8398.4052    11143.014   -169.00758    173.34822    784.01884   -5996.0815 
 3719000    280.92922   -9080.3691   -8009.3388   -9080.3691            0    7668.8282    24.828201    25.018495    23.161594    14387.153    6923.1147    8967.5072    7115.8627    881.56318   -978.00612   -468.84685   -6400.2509 
 3720000    278.94651   -9048.6856   -7985.2143   -9048.6856            0    8107.2237    25.006298    25.082744    22.965136    14404.343    7714.9322    6827.4335    9779.3054   -147.21895   -73.047082   -112.27778   -6282.1089 
 3721000    270.32058   -9000.6823    -7970.097   -9000.6823            0    9617.6311    24.955827    25.055257    22.927742    14336.136    10736.815    8916.4325    9199.6462   -257.11221   -644.71782    1374.3333   -5959.2634 
 3722000    272.43521   -9027.4388   -7988.7915   -9027.4388            0    9498.7478     24.96726    24.897362    23.105549    14362.846    10485.595    8730.4817    9280.1667   -400.82699   -293.06107   -1166.2959   -5999.1137 
 3723000    266.95128   -8992.6308   -7974.8908   -8992.6308            0    8167.2693    25.027962    25.114441    22.985664    14447.944    6825.4201    7997.8042    9678.5836    191.89848   -831.00666    318.48712   -6253.9782 
 3724000    295.02201    -9020.364   -7895.6055    -9020.364            0    8492.4178    24.991918    24.985647    23.101176    14425.281    8538.6796    7876.8146    9061.7593   -89.690465    422.24797   -2606.3992   -6108.9883 
 3725000     275.8914    -9046.593   -7994.7691    -9046.593            0    7775.1872     25.10701    24.960807    23.010578    14420.528    7049.4651    7741.2546     8534.842    569.46388    246.62349    1678.8477   -6359.5804 
 3726000    273.13989   -9004.9621   -7963.6283   -9004.9621            0    9133.7645    25.032893    24.968847    22.975046     14360.38     7600.052    9548.7511     10252.49   -40.250225    778.81898   -497.37159   -6050.7312 
 3727000    272.63947   -8988.9758   -7949.5498   -8988.9758            0    6505.9916    24.989784    24.932688    23.318698    14529.006    7339.7866    7921.0819    4257.1064    176.81889    522.77174    414.79896   -6570.9911 
 3728000    285.18775   -9024.0603   -7936.7945   -9024.0603            0    7518.5219     25.03643    25.140253    22.972225    14459.228    7274.1189    6785.2399    8496.2069   -403.06376   -99.149291   -1222.3709   -6351.3411 
 3729000    281.79617   -9061.6398   -7987.3043   -9061.6398            0    7665.6797    24.848284    25.136554    23.109165     14433.99    7921.2539    6899.7454    8176.0398    1025.8547    817.55838    128.18984   -6373.6409 
 3730000    279.69729   -9009.1072   -7942.7736   -9009.1072            0    8808.2963    24.989512    24.905355    23.158429    14413.173     9689.739    8839.8552    7895.2946   -389.70205    -99.20937   -307.14785   -6091.2579 
 3731000    284.54776    -9011.034   -7926.2082    -9011.034            0    8295.6584    25.107649    25.091538    22.871758    14408.968    7995.8108    7367.6476    9523.5167   -59.787702    231.17412   -142.99777   -6182.9583 
 3732000     275.2193   -9011.0699   -7961.8084   -9011.0699            0    8488.7781    24.993192    24.997695    23.054606    14403.877    8693.1464      8990.56    7782.6279   -1072.9144   -286.81141   -256.50555   -6178.6067 
 3733000    287.01994   -9015.9108   -7921.6599   -9015.9108            0    10413.913    24.912756    24.876812    23.016912     14264.73    10577.946    10988.391     9675.401    143.99474    345.35564   -1098.6529   -5755.1865 
 3734000    283.26567   -9021.3584   -7941.4205   -9021.3584            0    8557.4799    24.993537    24.999997    23.047267    14400.817    9100.0008    8180.1056    8392.3334   -578.67422   -167.32861    608.50256   -6144.1687 
 3735000    266.83339   -9022.7466    -8005.456   -9022.7466            0    8157.3972    25.121487    24.981667     22.96152    14410.113    5921.1598     10080.38    8470.6517   -348.33916   -777.84251    -221.9484   -6291.1242 
 3736000    276.24627   -8987.2741   -7934.0973   -8987.2741            0    10217.966    24.959049    24.801757    23.124192    14314.529    9279.6055    11572.754    9801.5384   -328.46492   -786.84396   -491.52589   -5800.9669 
 3737000    278.18167   -9037.4247   -7976.8693   -9037.4247            0    9073.2019     24.94268    24.985724    23.027975    14351.285    8403.6416    9753.3214    9062.6428   -714.93559   -321.50109   -198.78387   -6077.8593 
 3738000    286.14789   -8981.1905   -7890.2642   -8981.1905            0    7814.3644    25.075911     25.02487    23.027153    14450.032    8319.8558    6557.6135    8565.6241    1323.5193    433.41741    304.65637   -6243.4737 
 3739000    276.16314   -9025.1351   -7972.2753   -9025.1351            0     7202.342    24.911137    25.045536    23.196915    14472.852    7004.1656     8452.442    6150.4183   -248.62598   -381.84916    144.40652   -6452.0647 
 3740000     289.8863   -9018.5767   -7913.3979   -9018.5767            0     8856.734    24.918094    25.143061    22.947818    14377.202    9255.5885     8249.299    9065.3145   -233.49512   -768.62949   -820.90739   -6056.3468 
 3741000    285.88239   -9039.6418   -7949.7277   -9039.6418            0    8976.0178    24.809431    25.011235    23.174392    14380.046    9470.0918    9563.9272    7894.0346    393.23882    -352.4012   -1095.6356   -6067.2932 
 3742000    283.00159   -9000.7459   -7921.8147   -9000.7459            0    8744.0288    25.051024    25.041377    22.950231    14396.958    7161.8453    8609.0637    10461.177    998.66197   -774.88154    74.392227   -6085.8758 
 3743000     280.0681   -9049.1453   -7981.3979   -9049.1453            0    8271.5111    25.009704    24.952845    23.103458    14418.019    7944.3349    8401.6696    8468.5288     40.73895   -1118.2863    464.72227   -6242.1305 
 3744000    273.62841   -9054.0986   -8010.9023   -9054.0986            0    6515.6432    25.120348    24.984813    23.097589    14496.675    5619.4337     7136.378    6791.1178    475.24073   -66.040255   -513.76803   -6633.3707 
 3745000    285.56769   -9044.4601   -7955.7458   -9044.4601            0    7921.0425    25.090921    24.937439    23.054292    14425.146    8333.6583    7500.4062    7929.0631     584.2763    42.868273   -207.48173   -6289.3489 
 3746000    275.18473   -9029.3119   -7980.1822   -9029.3119            0    8491.4447    24.900649     24.97111     23.14093    14388.957     9136.084    9914.9814    6423.2687    298.57798    11.243503    883.52177    -6198.268 
 3747000    283.30348   -8990.4895   -7910.4074   -8990.4895            0    8179.3485    24.966274    25.123054    23.002671    14427.944    8578.3436    7943.2592    8016.4428   -317.33757   -464.23956    900.71855   -6189.3354 
 3748000    256.11391    -8994.651    -8018.228    -8994.651            0    8369.6056     24.96368    25.053326    23.079563    14434.494    8551.7701    7410.3322    9146.7145    226.17548   -682.73743    -44.23844   -6256.3231 
 3749000    266.44452   -9049.9361    -8034.128   -9049.9361            0    8259.1636    24.846926    25.040809    23.141732    14398.488    9355.7807    7676.5034    7745.2067   -361.12204    1391.0557    1249.3769   -6299.8096 
 3750000     286.7811   -9025.2714   -7931.9311   -9025.2714            0    7558.9326    25.032913    25.215582    22.882855    14444.104    7769.9943    6048.9371    8857.8664    330.04602    346.96486   -185.42752   -6339.6235 
Loop time of 548.08 on 64 procs for 250000 steps with 1920 atoms

Performance: 78.821 ns/day, 0.304 hours/ns, 456.138 timesteps/s
195.3% CPU use with 32 MPI tasks x 2 OpenMP threads

MPI task timing breakdown:
Section |  min time  |  avg time  |  max time  |%varavg| %total
---------------------------------------------------------------
Pair    | 72.029     | 75.068     | 82.163     |  20.0 | 13.70
Bond    | 0.85687    | 1.0047     | 1.4661     |  11.2 |  0.18
Kspace  | 256.58     | 263.03     | 271.35     |  23.3 | 47.99
Neigh   | 6.6699     | 7.2285     | 8.129      |  15.9 |  1.32
Comm    | 80.889     | 90.966     | 97.792     |  42.8 | 16.60
Output  | 0.85515    | 0.85547    | 0.85738    |   0.0 |  0.16
Modify  | 90.566     | 95.478     | 98.344     |  22.2 | 17.42
Other   |            | 14.45      |            |       |  2.64

Nlocal:        60.0000 ave          65 max          51 min
Histogram: 1 0 0 1 1 9 8 8 1 3
Nghost:        3314.16 ave        3333 max        3290 min
Histogram: 1 2 0 4 5 7 4 1 7 1
Neighs:        21021.3 ave       22634 max       17870 min
Histogram: 1 0 0 1 4 7 5 7 4 3

Total # of neighbors = 672683
Ave neighs/atom = 350.35573
Ave special neighs/atom = 2.0000000
Neighbor list builds = 13550
Dangerous builds = 2

unfix		3
unfix		2
unfix		1

write_data	data.final.${pid}
write_data	data.final.0
System init for write_data ...
PPPM initialization ...
  extracting TIP4P info from pair style
  using 12-bit tables for long-range coulomb (../kspace.cpp:340)
  G vector (1/distance) = 0.37404599
  grid = 30 30 30
  stencil order = 5
  estimated absolute RMS force accuracy = 0.0033264642
  estimated relative force accuracy = 1.0017548e-05
  using double precision FFTW3
  3d grid and FFT values/proc = 5400 960
Last active /omp style is kspace_style pppm/tip4p/omp
WARNING: Not all mixed pair coeffs generated from mixing. Use write_data with 'pair ij' option to store all pair coeffs. (../write_data.cpp:312)

write_restart   restart.lmp.${pid}
write_restart   restart.lmp.0
System init for write_restart ...
PPPM initialization ...
  extracting TIP4P info from pair style
  using 12-bit tables for long-range coulomb (../kspace.cpp:340)
  G vector (1/distance) = 0.37404599
  grid = 30 30 30
  stencil order = 5
  estimated absolute RMS force accuracy = 0.0033264642
  estimated relative force accuracy = 1.0017548e-05
  using double precision FFTW3
  3d grid and FFT values/proc = 5400 960
Last active /omp style is kspace_style pppm/tip4p/omp
Total wall time: 0:09:08
