LAMMPS (30 Jul 2021)
Processor partition = 1
  using 1 OpenMP thread(s) per MPI task
using multi-threaded neighbor list subroutines
variable        pid world 0 1
variable        phase world IceII IceIII

shell cd ${phase}
shell cd IceIII
include Restart.lmp
echo both
log log.lammps
#include		in.partitions
include		in.temp
variable        temperature equal 70.60
variable	tempDamp equal 100.0
include		in.pressure
variable        pressure equal 293.8
variable        pressureDamp equal 1000.0 # This is 1 ps
include		in.seed
variable        seed equal 745823

units		real
atom_style	full

read_restart	restart.lmp.${pid}
read_restart	restart.lmp.1
Reading restart file ...
  restart file = 30 Jul 2021, LAMMPS = 30 Jul 2021
  restoring atom style full from restart
  orthogonal box = (-0.0039277632 -0.021927368 -0.028112034) to (20.003929 20.021928 20.728110)
  4 by 4 by 4 MPI processor grid
  restoring pair style lj/cut/tip4p/long/omp from restart
  restoring bond style harmonic/omp from restart
  restoring angle style harmonic/omp from restart
  972 atoms
  648 bonds
  324 angles
Finding 1-2 1-3 1-4 neighbors ...
  special bond factors lj:    0        0        0       
  special bond factors coul:  0        0        0       
     2 = max # of 1-2 neighbors
     1 = max # of 1-3 neighbors
     1 = max # of 1-4 neighbors
     2 = max # of special neighbors
  special bonds CPU = 0.005 seconds
  read_restart CPU = 0.013 seconds
include 	in.setup
variable	out_freq equal 1000
variable	out_freq2 equal 10000
variable	out_freq3 equal 1000

timestep	2.0

neigh_modify    delay 7 every 1

include		in.tip4p
# This is TIP4P/Ice

# create groups ###
group ox type 2
324 atoms in group ox
group hy type 1
648 atoms in group hy

# set charges - beside manually ###
set group ox charge -1.1794
Setting atom values ...
  324 settings made for charge
set group hy charge 0.5897
Setting atom values ...
  648 settings made for charge

# ### TIP3P Potential Parameters ###
pair_style lj/cut/tip4p/long/omp 2 1 1 1 0.1577 8.5
pair_coeff 1 1*2 0.000 0.000
pair_coeff 2 2 0.21084 3.1668
bond_style  harmonic
bond_coeff  1 450 0.9572
angle_style harmonic
angle_coeff 1 55 104.52
kspace_style pppm/tip4p/omp 1.0e-5
pair_modify tail yes

thermo          ${out_freq}
thermo          1000
thermo_style    custom step temp pe etotal epair emol press lx ly lz vol pxx pyy pzz pxy pxz pyz enthalpy

restart 	${out_freq3} restart.lmp.${pid} restart2.lmp.${pid}
restart 	1000 restart.lmp.${pid} restart2.lmp.${pid}
restart 	1000 restart.lmp.1 restart2.lmp.${pid}
restart 	1000 restart.lmp.1 restart2.lmp.1


include         in.dump
dump            myDump all atom ${out_freq2} dump.water.${pid}
dump            myDump all atom 10000 dump.water.${pid}
dump            myDump all atom 10000 dump.water.1
dump            myDump2 all dcd ${out_freq2} dump.dcd
dump            myDump2 all dcd 10000 dump.dcd
dump_modify     myDump append yes
dump_modify     myDump2 append yes


variable natoms 	equal  "count(all)"                        # NUMBER ATOMS
variable H      	equal  "enthalpy/v_natoms"                 # ENTHALPY-per-atom
variable Vol      	equal  "vol/v_natoms"                 # volume-per-atom
fix AVG all 		ave/time ${out_freq} 1 ${out_freq} v_Vol v_H file vol_enthalpy.dat
fix AVG all 		ave/time 1000 1 ${out_freq} v_Vol v_H file vol_enthalpy.dat
fix AVG all 		ave/time 1000 1 1000 v_Vol v_H file vol_enthalpy.dat


timer           timeout 02:55:00 every 1000
New timer settings: style=normal  mode=nosync  timeout=02:55:00

fix 		1 all shake 1e-6 200 0 b 1 a 1
Finding SHAKE clusters ...
       0 = # of size 2 clusters
       0 = # of size 3 clusters
       0 = # of size 4 clusters
     324 = # of frozen angles
  find clusters CPU = 0.002 seconds
fix             2 all nph aniso ${pressure} ${pressure} ${pressureDamp}
fix             2 all nph aniso 293.8 ${pressure} ${pressureDamp}
fix             2 all nph aniso 293.8 293.8 ${pressureDamp}
fix             2 all nph aniso 293.8 293.8 1000
fix             3 all temp/csvr ${temperature} ${temperature} ${tempDamp} ${seed}
fix             3 all temp/csvr 70.6 ${temperature} ${tempDamp} ${seed}
fix             3 all temp/csvr 70.6 70.6 ${tempDamp} ${seed}
fix             3 all temp/csvr 70.6 70.6 100 ${seed}
fix             3 all temp/csvr 70.6 70.6 100 745823


run             250000
PPPM initialization ...
  extracting TIP4P info from pair style
  using 12-bit tables for long-range coulomb (../kspace.cpp:340)
  G vector (1/distance) = 0.3723734
  grid = 24 24 25
  stencil order = 5
  estimated absolute RMS force accuracy = 0.0034123239
  estimated relative force accuracy = 1.0276112e-05
  using double precision FFTW3
  3d grid and FFT values/proc = 2366 288
Last active /omp style is kspace_style pppm/tip4p/omp
Neighbor list info ...
  update every 1 steps, delay 7 steps, check yes
  max neighbors/atom: 2000, page size: 100000
  master list distance cutoff = 10.8154
  ghost atom cutoff = 10.8154
  binsize = 5.4077, bins = 4 4 4
  1 neighbor lists, perpetual/occasional/extra = 1 0 0
  (1) pair lj/cut/tip4p/long/omp, perpetual
      attributes: half, newton on, omp
      pair build: half/bin/newton/omp
      stencil: half/bin/3d
      bin: standard
Setting up Verlet run ...
  Unit style    : real
  Current step  : 7000000
  Time step     : 2
  Walltime left : 2:54:59.94
Per MPI rank memory allocation (min/avg/max) = 9.227 | 9.231 | 9.238 Mbytes
Step Temp PotEng TotEng E_pair E_mol Press Lx Ly Lz Volume Pxx Pyy Pzz Pxy Pxz Pyz Enthalpy 
 7000000    75.903413   -5106.5924   -4960.2063   -5106.5924            0   -7.8057075    20.007857    20.043856    20.756222     8323.963    1457.0855   -1441.7297   -38.772979    308.38654   -42.495376   -154.80572   -4961.1539 
 7001000    66.922562   -5106.2895   -4977.2237   -5106.2895            0    556.97166    19.968783    20.029298    20.962334    8384.1101    553.29225    447.07123    670.55151   -7.3215864   -592.83166    590.29061   -4909.1208 
 7002000     71.42396    -5112.365   -4974.6179    -5112.365            0   -138.50975    20.185418    20.010999    20.768992    8389.2268   -613.68468   -390.41147     588.5669   -11.729529    590.54596   -427.09773   -4991.5643 
 7003000    72.004199    -5119.203   -4980.3369    -5119.203            0   -465.64164    20.106709    19.969376    20.906026    8394.1549   -748.07408   -35.061444   -613.78939    150.75067   -41.446816   -440.87072   -5037.3408 
 7004000    68.590801   -5118.3542   -4986.0711   -5118.3542            0     525.0249    19.997963    19.964843     20.92695    8355.2143   -128.59531     1051.148    652.52202    196.32763    210.34873    126.42721   -4922.0956 
 7005000    69.555764   -5108.6921   -4974.5479   -5108.6921            0      281.691    19.911231    19.914466    21.062192    8351.6129    838.88042     321.7098   -315.51723   -106.08329    952.81883   -197.70473    -4940.238 
 7006000    72.164382   -5109.7211    -4970.546   -5109.7211            0    912.40632    20.008725    19.992822    20.780794    8312.9589    1163.0791    615.88816    958.25168   -101.55457    28.552936    101.21473   -4859.9296 
 7007000     70.17565   -5111.8474   -4976.5077   -5111.8474            0   -190.31855    20.003453    19.891678    21.037731    8370.9608   -154.52754    242.37333   -658.80145   -470.92501    901.05629   -229.21171   -4999.7422 
 7008000    70.171652    -5108.984   -4973.6521    -5108.984            0    850.01987    20.084304    19.866474     20.83681     8313.977    138.24205    1724.4939     687.3237   -366.88932   -357.29271    112.64793   -4870.5865 
 7009000    72.094352   -5107.0931   -4968.0531   -5107.0931            0    702.04002    19.918086    19.988187    21.000327    8360.7854    895.20313    398.34382    812.57311    17.220006    436.35904    117.36491   -4882.4509 
 7010000    71.084294   -5107.8948   -4970.8027   -5107.8948            0    240.04485    19.972125    19.993531    20.881937    8338.4354    135.21114    437.57787    147.34552   -262.93306    -129.6298    84.467264   -4941.6115 
 7011000    69.708782   -5111.0121   -4976.5728   -5111.0121            0    795.74335    19.928061    19.877802    21.005799    8320.9443    1236.9634    486.84661    663.42008    -452.9207     420.0129   -933.40159   -4880.0074 
 7012000    72.420383   -5101.6161   -4961.9473   -5101.6161            0   -330.59124    20.030182    20.000046    20.920696    8380.9265    848.82643   -1638.6271   -201.97301   -436.05295     404.1145     74.62476   -5002.3545 
 7013000    73.276647   -5107.9892    -4966.669   -5107.9892            0     284.0033    20.040311    19.960792    20.930465    8372.6143   -354.60027    777.95258    428.65758   -108.96622   -266.76652    529.24936   -4931.9905 
 7014000    68.753181   -5112.9013    -4980.305   -5112.9013            0    542.27349    20.044326    19.971687    20.816279    8333.1519    403.48812    299.18449    924.14786   -72.979312   -197.31113   -104.97522   -4914.4022 
 7015000    68.113424   -5108.1465    -4976.784   -5108.1465            0    1139.8529    20.004668    19.968684    20.844702    8326.7682    907.60406    1455.4262    1056.5284   -333.34256    975.03929    226.20891   -4838.3633 
 7016000    66.197756   -5104.4214   -4976.7535   -5104.4214            0    17.135317    20.000092    20.021025    20.902605    8369.8701    793.75801   -481.24182   -261.11024    30.378735    562.68888    496.94307   -4974.6619 
 7017000    69.841537   -5111.6143   -4976.9191   -5111.6143            0   -94.580563     19.93643    19.984745    21.051625    8387.4826   -68.941789    342.49615   -557.29605   -435.44709    663.28495   -124.68172   -4988.4884 
 7018000    70.760461   -5119.6037   -4983.1362   -5119.6037            0    92.105453    20.025009    20.038906    20.879606    8378.5531    -53.20913   -903.18693    1232.7124    18.732144     577.7577    1040.4392   -4971.8816 
 7019000    69.175861   -5109.6122   -4976.2008   -5109.6122            0    523.48867    20.040902    19.954297    20.935853    8372.2921   -356.22033    1366.6238    560.06257   -171.21267    574.71051    -394.4388   -4912.2821 
 7020000     69.42476   -5110.8351   -4976.9436   -5110.8351            0    1032.1545    19.984453    19.936078    21.048578    8385.9978    716.34162    1519.3047    860.81723   -216.59168   -73.720832    92.024983   -4850.7099 
 7021000    68.188749   -5116.3061   -4984.7983   -5116.3061            0    71.188156    19.940774    20.060682    20.902838    8361.6692    1147.5787   -964.12184    30.107627   -179.95967    182.38797   -263.18613   -4976.1172 
 7022000    70.916242   -5110.6423   -4973.8744   -5110.6423            0    481.72328    19.923935    20.163733    20.943358    8413.8039    977.10489   -713.25123    1181.3162   -110.84341    521.57607   -577.86804   -4914.7637 
 7023000     69.56398   -5116.5099   -4982.3499   -5116.5099            0   -437.95179    20.069616    19.962313    20.937901    8388.4761   -397.80449   -191.17277    -724.8781   -111.83361   -114.12898    84.593753   -5035.9277 
 7024000    75.050553   -5108.2442   -4963.5029   -5108.2442            0    651.68727    20.092453    19.947136    20.891561    8373.0642    133.54142    920.77305    900.74733   -107.86326    1084.0289   -134.57791   -4883.9237 
 7025000    73.771017    -5109.951   -4967.6774    -5109.951            0    342.17957    19.962861    19.992964    20.941148    8357.9634    153.40409   -361.41876    1234.5534   -59.406226    641.47317    620.72793   -4925.9684 
 7026000    72.658295   -5108.5172   -4968.3896   -5108.5172            0    25.758226    20.045432     19.92502    20.987129    8382.3774    297.13818    84.821692    -304.6852   -324.36888    252.00035    652.92303   -4965.2407 
 7027000    73.030751   -5107.8051   -4966.9591   -5107.8051            0    381.56458    19.889772    20.008423    21.034999    8371.1506     1656.329   -699.99912    188.36389    25.023582   -217.05773    540.79316   -4920.3759 
 7028000    69.663365   -5113.9359   -4979.5842   -5113.9359            0    966.03111    20.024728    20.038392    20.850185    8366.4153    425.93757    820.62434    1651.5314    44.463675   -370.63048    270.29995   -4861.7134 
 7029000    70.687684   -5107.6654   -4971.3382   -5107.6654            0    669.10105    20.078701    19.941649    20.875785    8358.7144     1771.659   -126.57636    362.22052    91.117959   -159.63737    531.44559   -4889.7726 
 7030000    72.700225   -5110.2108   -4970.0023   -5110.2108            0   -865.48888    20.149763    19.993491    20.769101    8367.1254   -1470.4337   -869.80405   -256.22888   -175.96963   -119.23243   -129.86764   -5075.6144 
 7031000    73.202882   -5108.8021   -4967.6242   -5108.8021            0    769.57714    19.940062    19.965817    20.885761    8315.0314     527.8744    1015.7084    765.14863    59.696846   -550.89918    737.11572   -4874.3005 
 7032000    71.027333    -5108.555   -4971.5729    -5108.555            0    683.26974    19.992329    20.088326    20.749091    8333.0927    582.08732    1.2342993    1466.4876   -93.826664   -75.700657   -293.19731   -4888.5354 
 7033000    73.647638   -5117.7907    -4975.755   -5117.7907            0   -182.25806     20.08116    19.952071    20.822992    8342.9551   -298.50762    17.747926   -266.01449    13.437639    424.82045    -568.4475    -4997.931 
 7034000    69.446948   -5115.8587   -4981.9245   -5115.8587            0   -565.62281    20.069187    19.951263    20.919183    8376.1583   -733.23027   -396.28322   -567.35494   -13.762247    255.17489   -343.99265   -5051.0196 
 7035000    69.454865   -5125.3708   -4991.4213   -5125.3708            0   -48.851321    20.077429    20.011063    20.752393    8337.7037   -413.82378   -580.64294    847.91276   -38.868877    369.95959   -187.78726   -4997.3614 
 7036000    71.464895   -5123.7567   -4985.9306   -5123.7567            0   -269.08728    19.999485    19.997574    20.913518    8364.1771    -227.1596    374.27709   -954.37933   -12.501642    1043.9589    78.264589   -5018.7547 
 7037000    70.150653   -5111.4901   -4976.1986   -5111.4901            0    319.45379    20.004535    20.015053    20.937469    8383.1917   -32.480345    587.84356    402.99815   -138.93755     591.4263   -192.04104   -4937.1421 
 7038000    71.748868   -5110.7754   -4972.4017   -5110.7754            0     128.5698    20.075483    19.947352    20.935269    8383.5856   -352.17674    625.27165    112.61447    215.66329   -16.483838   -844.46506    -4956.682 
 7039000    70.379253    -5116.705   -4980.9727    -5116.705            0    278.78342    20.037696    19.977408    20.825978    8336.6646    720.97037   -549.10146    664.48136   -81.367717    101.63188    539.59125   -4947.0777 
 7040000    71.655169   -5115.5829   -4977.3899   -5115.5829            0   -443.77864    20.076852    20.111742    20.761805    8383.2112   -519.26866   -777.63364   -34.433608  -0.05809473   -215.24029    717.76052   -5031.6465 
 7041000    69.281747   -5109.7552   -4976.1395   -5109.7552            0    599.13637    20.023935    19.992341    20.845159    8344.8451    456.19731    491.49659    849.71521    64.303245   -547.79056   -208.00186    -4903.224 
 7042000    69.337289   -5110.1778    -4976.455   -5110.1778            0   -554.44856    20.143341    19.962219    20.806335     8366.348    79.785311   -1615.5599   -127.57108   -127.55868    370.44726     400.0097   -5044.1058 
 7043000    73.128601   -5111.9543   -4970.9197   -5111.9543            0    1000.5524    20.012629    19.973187     20.84383    8331.6121    639.29447    676.93142    1685.4312   -396.46881   -268.50893     253.5031   -4849.3445 
 7044000    70.206536   -5120.1606   -4984.7614   -5120.1606            0    738.51527    19.988459    19.893598    20.962628    8335.6293    730.66717     867.2105    617.66814    67.874345    993.38845   -396.15271   -4894.9826 
 7045000    67.648131   -5116.6508   -4986.1857   -5116.6508            0    195.85337    19.980691    20.049211    20.899251    8372.1791   -224.56197    305.31915    506.80293   -46.473791    539.29231   -438.88472   -4962.2721 
 7046000    70.782917   -5118.6188    -4982.108   -5118.6188            0   -628.76404    20.073432    19.977826     20.96249    8406.4515   -1785.7714    540.14405   -640.66473   -171.88528    712.28853   -499.40932   -5059.1941 
 7047000    72.771499   -5117.3844   -4977.0385   -5117.3844            0    304.92841    20.117335    19.989412    20.740956    8340.6372   -128.49646    559.86402    483.41767   -116.46864   -197.16618    -447.3514   -4939.9471 
 7048000    69.129806   -5117.9169   -4984.5942   -5117.9169            0    1369.4591    20.012858    19.906741    20.841908     8303.224    1290.5567    1049.9096    1767.9109    42.512583    1338.6423   -216.72622   -4818.7609 
 7049000    69.743786   -5108.3012   -4973.7945   -5108.3012            0    799.08141    19.988345    19.955947    20.881239    8329.2414    1472.5778    259.12953    665.53692    278.92655    633.12882   -727.15467   -4876.7273 
 7050000     68.52402   -5116.9431   -4984.7888   -5116.9431            0   -13.821376    20.042249    19.973014    20.881427    8358.9211    23.458891   -539.62614    474.70312    255.52111   -143.76937   -534.33079   -4986.4737 
 7051000    74.143452   -5100.3153   -4957.3234   -5100.3153            0     400.8115    20.042585    19.949721    20.789525    8312.5664    180.44632    460.94793    561.04026   -87.754903    834.06329   -563.98833   -4908.7329 
 7052000    71.498792   -5120.7314   -4982.8399   -5120.7314            0    830.97866    20.053708    19.918486    20.732093    8281.2168    532.51984    1269.1495    691.26664   -380.98196   -60.841109   -853.82501   -4882.4801 
 7053000    68.002685   -5117.1333   -4985.9844   -5117.1333            0   -201.13032    20.054726    19.946771     20.93749    8375.5616    353.79621   -650.35402   -306.83314    405.49518    478.48027   -308.95404   -5010.5523 
 7054000     74.31266   -5111.3238   -4968.0056   -5111.3238            0    132.73029    20.004111    20.006046    21.018167    8411.5367     778.0797    190.62006   -570.50887    440.97172    320.47608   -207.30024   -4951.7231 
 7055000    67.945934    -5105.974   -4974.9345    -5105.974            0    127.81232    20.010922    20.011229    20.883327    8362.5852    904.39597   -405.09873   -115.86029    120.01709   -339.68969   -113.28246   -4959.3466 
 7056000    74.535008   -5108.3095   -4964.5625   -5108.3095            0    620.45947    19.930846     20.06664    20.881485     8351.448    1184.9715    473.58158    202.82529    134.79357    699.00271   -28.666879   -4888.9922 
 7057000    67.317914   -5115.5456   -4985.7174   -5115.5456            0    128.59202    20.034197    19.987785    20.873426    8358.5383    120.10412   -475.68285    741.35479   -116.92903    344.01594   -837.31814   -4970.0419 
 7058000    69.965809   -5109.8421   -4974.9071   -5109.8421            0     327.0378     20.00029    20.009402    20.895051    8362.0711    1455.6941   -381.81165   -92.769036   -4.0798887    -329.0035   -197.11828   -4935.0241 
 7059000    72.018965   -5118.3103   -4979.4157   -5118.3103            0    170.30173    19.969006    20.068677    20.890268    8371.8068    1043.8309   -744.99655    212.07087   -347.72467   -768.34287     226.4329   -4958.6228 
 7060000    71.548128   -5114.4406   -4976.4541   -5114.4406            0     47.36715     20.15171    19.954414     20.79906    8363.6257   -1391.0521    645.83479    887.31876   -234.51703    692.94891   -172.86501   -4970.6765 
 7061000     71.30868     -5111.91   -4974.3852     -5111.91            0    788.37233     20.04555    19.937752    20.890639      8349.22    1009.0138    748.90431    607.19888   -31.799993    218.76463    195.70166   -4878.3892 
 7062000    70.464874   -5101.7628   -4965.8654   -5101.7628            0    1027.9533    19.987073     19.96126    20.989261    8374.0256    1393.1649    1023.1805    667.51447   -3.0816726    850.89684   -123.39302   -4840.3249 
 7063000    71.609747   -5108.2082   -4970.1028   -5108.2082            0     127.7449    20.078941    19.831037    20.997179    8360.7875   -243.28501    1079.6212   -453.10147   -476.66207    481.05155    262.89832   -4954.5264 
 7064000    68.826677   -5111.9905   -4979.2525   -5111.9905            0    172.78187    20.059975    19.966086    20.929472    8382.6551    351.88931    81.039129    85.417169   -395.93241    262.63634    246.27163   -4958.1295 
 7065000    71.067135   -5116.2398   -4979.1809   -5116.2398            0    188.98611    20.016545    20.002619    20.929019    8379.6303     710.9014   -737.74393    593.80087   -86.003406     335.9643    172.36007   -4956.0852 
 7066000    73.346322   -5107.8412   -4966.3866   -5107.8412            0    106.14116    20.011353    20.093539    20.833105    8376.9688   -296.75649    436.99151    178.18846    187.12127     223.4459    662.77488   -4953.4194 
 7067000    71.930345   -5119.8512   -4981.1275   -5119.8512            0    1008.2421    19.964443     19.96808    20.892136    8328.6833     647.8018    1348.8147    1028.1098   -242.76484    213.45593   -289.68249    -4858.661 
 7068000    70.031011   -5114.1586   -4979.0979   -5114.1586            0    893.62448    19.977647    19.939606    20.875528    8315.6917    1365.9056    315.43163    999.53618   -405.45976   -119.89417   -326.98881   -4870.7228 
 7069000    70.685782   -5122.8327   -4986.5093   -5122.8327            0    617.82287    20.091029    19.846579    20.834272    8307.4202    -127.5264    1375.1041    605.89097   -109.87205    99.344671    277.85029   -4911.6568 
 7070000    71.480573   -5112.2731   -4974.4168   -5112.2731            0   -97.517375    20.062633    19.914521    21.023407    8399.6444   -326.50844    356.39391    -322.4376   -213.09374    813.05111    -249.4809   -4986.3627 
 7071000    72.414722   -5113.5525   -4973.8946   -5113.5525            0    1051.4792    19.996473    19.916423    20.960456    8347.6736    492.75052    1948.8456     712.8413   -171.30948    1011.7083    917.37069   -4845.8851 
 7072000    77.174688   -5109.3925   -4960.5547   -5109.3925            0   -271.56606    20.034173    19.961347    21.008909    8401.6533    466.58653    -962.3249   -318.95982    50.236767   -210.47857   -631.40775   -4993.8295 
 7073000    66.194401    -5116.027   -4988.3655    -5116.027            0    -334.1752    20.108559    20.000334    20.807739    8368.4125   -425.90271     -452.126   -124.49689   -23.230846    136.82366   -189.53263   -5029.1498 
 7074000     67.56248   -5112.2555   -4981.9556   -5112.2555            0    437.48616    19.957014    19.941389    20.880708    8309.9074    1491.3885   -337.53131    158.60129   -391.18299    564.79641     523.1526    -4928.936 
 7075000    71.991862   -5117.7157   -4978.8734   -5117.7157            0    1628.4586    20.057069    19.889549    20.882446    8330.5521    965.49998    2257.0574    1662.8183   -154.95192   -356.87843    164.01918   -4781.0278 
 7076000    72.705518   -5118.2006   -4977.9819   -5118.2006            0    190.53404     19.96528    19.934447    20.998958    8357.5185    572.44458    289.50997   -290.35244   -359.01693   -290.07878    361.28098   -4954.7585 
 7077000     67.49605   -5117.5993   -4987.4275   -5117.5993            0    600.44561    19.932737    20.011252    20.959318    8360.2321    1111.1743    290.23491    399.92756    299.21897    184.12908   -75.543649   -4914.2179 
 7078000    74.465098   -5111.4158   -4967.8035   -5111.4158            0    77.487517    20.030794      19.9808    20.898833     8364.367    406.26314   -1111.1718    937.37125   -205.97521   -266.36325   -261.13796   -4958.3512 
 7079000    70.735756   -5118.2457   -4981.8258   -5118.2457            0   -59.293976    20.013831    19.868426    21.067361    8377.2955   -100.68973    639.16532   -716.35752    136.74604    360.77748    573.94688     -4989.07 
 7080000    72.199669    -5109.498   -4970.2549    -5109.498            0    149.10161     20.05785    19.885299    21.001342    8376.5187   -333.81388    764.07833    17.040377     52.08209    444.23658    953.36643   -4952.0402 
 7081000    68.794672   -5107.2772   -4974.6009   -5107.2772            0    269.46557    19.888766    19.971916    21.012414     8346.483    500.48268   -106.23438    414.14843    95.954928   -110.20657   -15.319639   -4941.8002 
 7082000    68.922327    -5113.821   -4980.8985    -5113.821            0    617.68482    20.035705    19.880466    20.986705    8359.4063   -192.82439    1814.0649     231.8139    107.18771    242.42513   -434.25302   -4905.5944 
 7083000    70.786124   -5109.4658   -4972.9488   -5109.4658            0    893.26747     19.95532    20.005467    20.916722    8350.2793    1273.7861    518.28773    887.72855   -191.07156     241.1336    807.26368   -4864.1665 
 7084000    72.453518   -5106.1033   -4966.3706   -5106.1033            0    -617.4415    19.979093    20.009531    20.987598    8390.2598    33.680379   -865.37594   -1020.6289    357.47435   -222.51803   -55.002672   -5041.9228 
 7085000    68.031488   -5111.7138   -4980.5094   -5111.7138            0    886.39124    19.998034    19.975427    20.812556    8313.9764    499.21543    1565.5364    594.42192    -229.0105    493.87389   -223.76605   -4873.0337 
 7086000    69.981817   -5116.1337   -4981.1679   -5116.1337            0    410.90363    19.917045    19.961823    20.998654    8348.6559    484.79726    933.77602   -185.86238    158.10751    27.840375   -43.492107   -4931.1376 
 7087000    70.465566   -5115.4047   -4979.5059   -5115.4047            0    33.523925    19.975869    20.008822     20.87779    8344.7196    585.48272   -113.70723   -371.20372    53.258823   -42.997161    529.68212    -4975.426 
 7088000    72.360445   -5115.0713   -4975.5181   -5115.0713            0   -671.12713    19.965383    20.018598    21.035516    8407.4535    198.34408   -1370.4053   -841.32015   -193.90974   -297.16223    429.77875   -5057.8077 
 7089000    67.862504   -5119.4448   -4988.5663   -5119.4448            0    161.42831    20.048449    19.979397    20.861285    8356.1111    976.47394   -1044.2269    552.03789   -330.00441    248.77698    149.94216   -4968.8938 
 7090000    71.215035   -5116.1428   -4978.7986   -5116.1428            0     269.8133    20.045195    19.944871    20.887177     8350.669    141.50255    593.58565    74.351701    195.96678   -234.29228   -284.09744   -4945.9391 
 7091000    68.548231   -5113.3365   -4981.1355   -5113.3365            0     -685.986    20.118951    20.069891    20.861689    8423.6405   -772.23491    -673.7071   -612.01598    193.26798    121.53739    428.94884    -5065.409 
 7092000    70.377929   -5114.0345   -4978.3048   -5114.0345            0    1550.8463    20.022121    19.853359    20.882325    8300.8568    1631.1888    1534.3887    1486.9614   -131.58062    601.90736   -68.447159   -4790.5601 
 7093000    74.845254   -5115.4223    -4971.077   -5115.4223            0   -194.18069    20.001686    20.076874    20.893255     8390.132   -148.18694    289.03266   -723.38778   -179.21994   -351.37446   -1051.8178   -4994.8372 
 7094000    68.059522   -5107.5639   -4976.3054   -5107.5639            0    508.59365    19.987707    19.935704    20.946158    8346.3947    668.07901    409.11845     448.5835   -350.95333    257.19109    411.54514   -4914.3976 
 7095000    69.975263    -5122.073   -4987.1198    -5122.073            0   -208.58024    19.979561    20.034049    20.883154    8358.9319   -167.52342   -31.898905   -426.31841   -112.88336    128.29302   -167.25371    -5012.547 
 7096000     72.69956   -5112.8558   -4972.6486   -5112.8558            0    871.79369    19.974883     19.82291    21.086125    8349.2685    1479.1322    904.29481    231.95403    -81.87958    -66.40179    87.985039   -4866.4942 
 7097000    72.002443   -5113.5506   -4974.6878   -5113.5506            0    434.02611    20.063579    19.785288    21.115133    8381.9413    42.826389    1723.5133   -464.26131   -76.043217     740.0388    59.799448   -4921.6316 
 7098000    69.596306   -5112.2553    -4978.033   -5112.2553            0     132.4745    20.020751     19.95255    20.918629    8356.2609   -715.69472    1520.9972   -407.87894   -62.355357   -177.71993   -267.45242   -4961.8887 
 7099000    68.168525   -5109.2719   -4977.8032   -5109.2719            0     568.2271    20.054801    19.921607    20.758055    8293.3381    433.93221   -72.337929     1343.087   -286.59382    61.121205   -71.480734   -4909.0762 
 7100000    69.324085   -5110.9346   -4977.2373   -5110.9346            0    510.06905    19.962286    19.990658    20.998733    8379.7383    285.00437    1440.1761    -194.9733    166.83764    154.47886    1006.5011   -4914.9018 
 7101000    68.041546   -5120.3422   -4989.1184   -5120.3422            0    384.37634    19.897168    19.979804    20.980547    8340.6382    1193.9808    -261.2396    220.38786   -29.500558   -276.53246    475.87934    -4942.363 
 7102000    72.052616   -5114.7594   -4975.7999   -5114.7594            0    1146.4724    19.956903    19.905408    21.035333    8356.2923    576.56946    2398.0307    464.81705    47.169766   -341.92237      -346.63   -4836.0817 
 7103000    71.370669   -5108.8143     -4971.17   -5108.8143            0   -749.31224    20.029971    19.959148    21.023115    8404.6453   -922.70254   -480.33966   -844.89451   -1.6102952   -557.30585    384.58241   -5063.0155 
 7104000    72.667749    -5111.402   -4971.2561    -5111.402            0   -188.67248    20.138571    19.881697    20.938793    8383.6615   -59.574777   -504.62674   -1.8159246    -358.9997    9.6758778    287.02168   -4994.3245 
 7105000    74.219867   -5108.5076   -4965.3684   -5108.5076            0    528.47782    20.026673    19.905063    20.969449    8359.0972    433.23101     1026.979    125.22349   -334.90641   -44.801654   -1069.2556   -4900.9423 
 7106000    71.295988     -5119.95   -4982.4497     -5119.95            0    632.23498    19.928415    19.910032    20.998552    8331.7087    -456.9669    2350.4544    3.2174764   -49.248869     323.2404    171.17058   -4905.6272 
 7107000    69.669731   -5109.0733   -4974.7094   -5109.0733            0    397.20128    20.092344    19.908073    20.848962    8339.5819   -78.835413    645.39658    625.04269   -54.753165    140.18487   -415.20449   -4926.4001 
 7108000     71.75301   -5109.6797   -4971.2979   -5109.6797            0    333.81224    20.013716    19.899969    20.933368    8337.1813    328.30723    208.71464    464.41487    136.22148    206.74824    367.22253     -4930.71 
 7109000    73.075842     -5118.28   -4977.3471     -5118.28            0    294.25396    19.995305    20.006689    20.899331    8360.5652     401.0252    291.81952    189.91716   -419.10488   -92.400375   -512.98366   -4941.4686 
 7110000     75.58149   -5115.1031   -4969.3379   -5115.1031            0    1276.9646    20.032496    19.885171    20.883928    8319.1043    1934.6759     879.4618     1016.756   -138.51186    37.822047   -442.46699   -4814.4094 
 7111000    71.070685    -5104.463   -4967.3972    -5104.463            0    605.17386    19.925743    19.968119    21.102316    8396.1809    1627.2944   -94.151002     282.3782   -154.53408   -211.12729   -64.089115   -4893.2938 
 7112000    72.931162   -5113.0462   -4972.3923   -5113.0462            0   -643.37581    20.081419    19.970077    20.972988    8410.7444   -209.05977   -596.89042   -1124.1772   -180.88787   -24.823602    15.247763   -5051.3101 
 7113000     67.45418   -5112.2066   -4982.1155   -5112.2066            0   -26.260002    19.936861    19.976856     21.05599    8386.0913    621.22543   -684.73707   -15.268365   -335.73449   -107.66067     134.6101   -4985.3272 
 7114000    71.552755   -5111.7557   -4973.7601   -5111.7557            0    423.95607    20.041833    19.951215    20.838335    8332.3944   -314.72319     582.4183    1004.1731   -380.22922    481.89354   -220.73865   -4922.2413 
 7115000    68.225689   -5107.6192   -4976.0402   -5107.6192            0   -301.66858    20.114205    19.992797    20.944042    8422.4204    299.37203   -1283.0139    78.636118   -129.24838    695.78499    48.397067   -5013.0949 
 7116000     70.71163   -5120.7575   -4984.3842   -5120.7575            0    842.89978    20.095982    19.917695    20.802026    8326.3363    951.45827    244.24666    1332.9944    136.51995    47.056151   -380.64026     -4882.03 
 7117000    69.816889   -5119.7469   -4985.0992   -5119.7469            0    -162.2856    20.029532    20.022728    20.950245    8402.0094     179.9638   -870.16561      203.345   -347.84039    492.15085   -214.33944   -5004.9848 
 7118000    70.012372    -5116.383   -4981.3583    -5116.383            0     430.4129    19.935547    19.987274    20.954141    8349.3293    1187.0936    191.63569   -87.490638   -245.14903    224.24363   -469.80277   -4928.9485 
 7119000    69.784995   -5118.7726   -4984.1863   -5118.7726            0   -420.40042    19.958648    19.996814    21.038833    8396.7952     -411.186    10.760785   -860.77605   -154.22805    53.593999    157.11941    -5035.668 
 7120000    73.459291   -5120.2833   -4978.6109   -5120.2833            0    533.23638    20.027574    19.875176    20.998862    8358.6295    468.95675    655.10471    475.64768   -357.75215    -203.5078   -532.66247   -4913.6083 
 7121000    68.570185   -5120.5967   -4988.3534   -5120.5967            0    424.06063    20.059562    20.008809    20.889018     8384.182    393.08216    692.01882     187.0809   -136.35931   -246.93771   -308.70347   -4936.5015 
 7122000    70.987469    -5107.152   -4970.2467    -5107.152            0   -141.14234    19.964948     20.10022    20.830172     8359.145   -4.1410527   -751.38844    332.10247   -167.16628    81.267746   -210.34409   -4987.4533 
 7123000    71.136176   -5111.7157   -4974.5236   -5111.7157            0    1007.8616    20.049315     19.87306    20.984799    8361.2091   -408.89147    2668.2799    764.19632   -407.98222   -14.510805    347.74152   -4851.6253 
 7124000    67.534519   -5104.9045   -4974.6585   -5104.9045            0    109.40827    20.134095      19.9613    20.878079    8390.9568   -885.87414    439.90024     774.1987    80.472162   -252.25599    842.64932   -4961.2698 
 7125000    71.735251     -5107.97   -4969.6225     -5107.97            0    156.72136     19.98443    19.993162     20.99488    8388.5453    1246.1286   -942.49402    166.52946   -573.03902    852.90178    678.44203   -4950.4495 
 7126000    65.833369   -5112.3071   -4985.3419   -5112.3071            0    732.60336    19.987129    19.978748     20.91216    8350.5984     638.1889     654.3252    905.29597   -428.29591    212.34893    99.369964   -4896.1219 
 7127000    70.329922    -5117.366   -4981.7288    -5117.366            0    574.19245    20.075703    19.836051    20.989412    8358.4597   -112.39589    1222.0474    612.92586   -445.61514    38.438029    112.46406    -4911.735 
 7128000     72.02553   -5118.2438   -4979.3365   -5118.2438            0    1636.7162    20.043716    19.916569    20.798432    8302.7763    911.15569    2351.6674    1647.3256    58.262995   -129.26699   -485.54062   -4781.1507 
 7129000    72.682861   -5104.4453   -4964.2703   -5104.4453            0   -15.061997    19.982133    20.056384    20.907592    8379.1218    127.41892   -277.12205    104.51714    -660.5554   -328.36887    219.81903   -4966.1109 
 7130000    67.426727   -5116.7502   -4986.7121   -5116.7502            0    554.47417    20.114409    19.904598    20.881885    8360.4639   -438.99106    1423.2406    679.17298   -411.63131     694.0782    218.82453   -4919.1057 
 7131000    67.605166    -5119.178   -4988.7957    -5119.178            0    636.65223    19.992336    19.960316     21.02463    8389.9488    111.17774    1168.1919    630.58703   -173.03631    246.10828    603.90856   -4910.8957 
 7132000    75.367046   -5111.9112   -4966.5595   -5111.9112            0   -548.25609    19.972625    20.046617    20.973456    8397.4268   -418.96183   -1249.1349    23.328448   -276.28108   -321.95306    -252.5949   -5033.7032 
 7133000    73.438539   -5108.0645   -4966.4321   -5108.0645            0    277.42675    20.032809    19.997938    20.891426    8369.4159    328.99766    43.809541    459.47306    348.26677   -104.76562   -190.09363   -4932.5696 
 7134000    65.857718    -5106.612   -4979.5998    -5106.612            0    860.28395    19.995559    20.015061    20.845766    8342.7329    1618.2335    69.272098    893.34625   -50.704064   -52.132969    502.24577   -4874.9289 
 7135000    66.655525   -5106.1194   -4977.5686   -5106.1194            0    1400.5123    19.961542    19.878792    20.968096    8320.3785    1568.5653    2298.5707    334.40104   -530.44083    247.22053   -526.83364   -4807.6246 
 7136000    72.658167   -5113.0104    -4972.883   -5113.0104            0    39.343719    19.884902    20.043732    21.074782    8399.7264    -136.6406    362.69555   -108.02379   -44.404473    770.43244    580.03973   -4968.0633 
 7137000    70.086981   -5117.6471   -4982.4784   -5117.6471            0   -64.110277    19.936025    20.058495    20.979802     8389.543     1160.431   -1360.4965    7.7346648   -183.75351     161.7033   -930.45814   -4990.3225 
 7138000    70.785307   -5116.4914    -4979.976   -5116.4914            0   -138.98199    20.059617    19.901148    20.951489    8364.0316   -111.12675    291.93944   -597.75866   -70.690841    105.44872   -20.076729   -4996.9291 
 7139000    68.699115   -5121.1294   -4988.6373   -5121.1294            0    94.674553    19.956617    19.904766    21.118239    8388.8358   -322.07946    717.27143   -111.16831    289.51234   -444.75159    156.73629   -4977.0546 
 7140000    72.083337    -5111.697   -4972.6782    -5111.697            0   -66.376871    19.983807    20.034985    20.891997    8364.6391   -326.08999    80.549454    46.409925    30.072948    118.04891    285.66349   -4980.7755 
 7141000    68.987698   -5112.7914   -4979.7428   -5112.7914            0    581.69854    19.985908    19.946755    20.955036    8353.8092   -61.718682    926.57367    880.24065   -113.02393   -317.39505   -109.43832   -4908.8734 
 7142000    70.579097   -5114.3523   -4978.2346   -5114.3523            0    317.91709    19.960142    19.952804    20.953797    8345.0761    104.72039    563.02889    286.00199   -157.33465    166.08345     174.4364   -4939.5427 
 7143000    70.113258   -5114.5802   -4979.3609   -5114.5802            0    377.67172    20.029829    19.926722    20.898543    8341.2112   -458.27955    1061.8279    529.46678   -397.08401    363.21337     335.5671   -4933.4179 
 7144000    71.973328   -5114.7787   -4975.9721   -5114.7787            0   -392.93782    19.928602    20.104415    20.885865    8367.9819    148.24203   -1073.8391   -253.21639   -358.11694    258.10013   -162.54763   -5023.9256 
 7145000     71.78915   -5116.7367   -4978.2853   -5116.7367            0    -33.29145    19.992189    20.007041    21.008036    8402.8893   -554.93466    529.61796   -74.557642   -333.67258   -422.78154   -330.26341   -4982.3651 
 7146000    70.381167   -5118.0722   -4982.3362   -5118.0722            0     708.0919    19.876737    19.973743    21.078827    8368.5648    1874.2419    207.07215    42.961652   -190.68846    313.36266    354.57194   -4895.9158 
 7147000     65.94409   -5114.0736   -4986.8949   -5114.0736            0    1296.6959    19.997917    19.885329    20.918137     8318.414   -36.113148    2614.6332    1311.5678    12.072327    351.45666   -659.16834   -4829.5855 
 7148000    69.912917   -5116.2771   -4981.4441   -5116.2771            0   -610.76678    19.945458    19.999256    21.140048    8432.6451   -825.42416    91.227658   -1098.1038   -88.116838    691.70918    -307.6887   -5056.5571 
 7149000    74.115692   -5113.0892   -4970.1508   -5113.0892            0    964.13342    19.999154    19.892651    20.970479    8342.8154    1048.7831    1492.1658    351.45132   -383.78241    549.51516   -271.70718   -4852.8433 
 7150000    71.413484   -5117.1918   -4979.4649   -5117.1918            0   -328.32067    19.970259    20.014048    20.965558    8379.6341    301.49429   -828.21832   -458.23799    -57.89206   -9.4480706   -27.416895   -5019.5884 
 7151000    74.696578   -5109.1462   -4965.0875   -5109.1462            0    947.13195    19.934737    20.013269    20.797365    8297.3016    1230.1016    742.93512     868.3591    71.919776    221.63835   -228.99119   -4850.4773 
 7152000    75.381098   -5118.1584   -4972.7796   -5118.1584            0    1391.7906    20.085873    19.928212    20.739129    8301.3662    1247.5362    1666.8782    1260.9574    423.16279    686.47556   -193.24994   -4804.2798 
 7153000    68.181515   -5109.2914   -4977.7976   -5109.2914            0    -395.6482    20.055773    19.891727    20.985036    8371.8534   -520.30952    256.30713   -922.94223   -441.96867    1110.6384   -380.63874   -5026.1043 
 7154000    69.362087   -5110.3456    -4976.575   -5110.3456            0    417.48213    20.009038    19.956502      20.9055    8347.7837    541.02183    239.02254    472.40201   -211.08676   -251.26292   -669.39772   -4925.7491 
 7155000    69.522992   -5112.8879    -4978.807   -5112.8879            0   -638.67391    20.031452    19.909877    21.022939    8384.4473   -706.20969   -75.626962   -1134.1851   -72.392398   -319.98957    429.56464   -5056.9031 
 7156000    67.307857   -5112.5193   -4982.7105   -5112.5193            0    343.04835    20.046234    19.855146    21.047301    8377.2652     270.3229    991.45332   -232.63117    -29.85817    97.912383   -282.14019    -4940.799 
 7157000    73.757595   -5116.8873   -4974.6396   -5116.8873            0    1719.6092    19.937037     19.96976    20.846682    8299.8529     1921.377    1277.7256    1959.7251    59.430741   -610.87838    636.77457   -4766.4898 
 7158000    67.215875   -5115.6289   -4985.9974   -5115.6289            0    324.91754    20.105725    19.860728    20.890058    8341.6995   -916.64495    1185.2761    706.12147   -235.33298   -117.91712    731.02208   -4946.4695 
 7159000    68.647856   -5115.5106   -4983.1175   -5115.5106            0   -449.63451      20.0039    20.043279    20.871378    8368.2486   -507.08367   -382.83484   -458.98503    7.4090924   -18.928897    29.587378   -5037.9919 
 7160000     69.42076   -5108.5443   -4974.6606   -5108.5443            0    1091.9513    20.043032    19.892664    20.937599    8348.0153    579.43976    1733.9812    962.43302   -94.759951    348.15284   -54.981646   -4841.7185 
 7161000    69.253572    -5115.433   -4981.8717    -5115.433            0    -256.9318    19.987761    20.030557    20.982461    8400.6637    225.50892   -983.66346   -12.640864   -354.11065    103.53022    252.87053   -5013.3497 
 7162000    69.768594   -5110.5843   -4976.0297   -5110.5843            0   -239.03123    19.957366     20.07015    20.896298    8369.9569    352.64037   -434.94291   -634.79115   -344.21132   -21.840894    366.91401   -5005.2076 
 7163000    71.918863   -5113.3968   -4974.6952   -5113.3968            0    271.28476    20.000928    19.924981    20.927982    8340.1798   -385.41497    1132.1497    67.119553    139.71501   -483.57036   -196.09894    -4941.698 
 7164000    68.406964   -5114.1906    -4982.262   -5114.1906            0   -467.76218    20.111009    20.002418    20.869617     8395.196   -790.17201   -493.42324   -119.69129    3.0561579   -434.66659    7.5039886   -5039.5326 
 7165000     70.63064   -5113.4503   -4977.2332   -5113.4503            0   -557.75799    20.065374    19.938187    20.887145    8356.2608    -284.9836    -758.4023   -629.88808   -136.28103    220.73187    244.86888   -5045.2057 
 7166000    68.720394   -5104.7895   -4972.2565   -5104.7895            0    445.99205    20.046682    19.898083    20.901054    8337.2324   -245.54097    1212.8969    370.62021    161.41556    230.70625    108.53794   -4918.0283 
 7167000    69.026104   -5107.9169   -4974.7943   -5107.9169            0    595.14256    20.052574    20.054721    20.738952    8340.1444   -302.61776    556.64685    1531.3986   -99.888766    274.03166    577.17609   -4902.4056 
 7168000    73.952942   -5108.4579   -4965.8334   -5108.4579            0   -591.82653    20.017719     19.91813     21.11835    8420.2142   -1607.5675    444.26343   -612.17546   -62.513147   -163.60968   -6.0812107   -5038.5099 
 7169000    73.047852   -5108.6354   -4967.7565   -5108.6354            0    315.95296    20.104023    19.904309    20.953061    8384.5073    367.43153   -357.54692    937.97427   -63.897531   -353.99734   -134.15467   -4929.1219 
 7170000    71.170013   -5111.6954    -4974.438   -5111.6954            0   -12.472314     19.99579    20.041607    20.813913    8341.1291   -576.80236    398.10292     141.2825   -147.74714   -465.38137   -16.140928   -4975.9552 
 7171000    73.746055   -5115.3103   -4973.0848   -5115.3103            0    311.69336    20.013628    19.979193    20.936676    8371.6585   -380.01694    284.76492    1030.3321   -168.46047   -360.82101     557.0016   -4935.0295 
 7172000    70.793903   -5116.5083   -4979.9763   -5116.5083            0    302.75103    20.010656    20.015312    20.803808    8332.3309    440.60393    223.79251    243.85665   -420.67445    253.89737   -81.847607   -4943.1865 
 7173000    64.894665   -5109.7796   -4984.6248   -5109.7796            0    1087.0481     19.97068    20.020157    20.758297    8299.5019    1089.9135    714.71856    1456.5124   -292.54666    811.56374    136.25193   -4853.0488 
 7174000    69.281127   -5112.0206   -4978.4061   -5112.0206            0   -86.037396    20.017775    20.046161    20.908265     8390.059   -184.58445    106.24724   -179.77498   -231.00565     919.9277   -611.29844   -4988.9337 
 7175000    71.313426   -5117.0132   -4979.4793   -5117.0132            0    69.689394    20.104701    19.902324    20.876813    8353.4448   -285.67552    241.46582    253.27789    36.723787    219.46273   -95.281965   -4970.9893 
 7176000    67.510623   -5114.4516   -4984.2517   -5114.4516            0     263.0062    20.023948    19.933856    21.029885    8394.1731    1023.5055    190.35411   -424.84103    306.31897     458.9814    236.68943   -4952.0544 
 7177000    71.353877   -5112.6771   -4975.0652   -5112.6771            0     250.8688    20.060095    19.979137    20.925627    8386.6437    976.53288   -1089.6993    865.77286   -118.45768    420.12197   -284.47066   -4944.3813 
 7178000    66.834736   -5105.6106   -4976.7142   -5105.6106            0    292.85022    19.902773     19.98487    21.013939    8358.3852    793.64234    111.92851   -27.020179   -284.05255    727.28658     527.2533   -4941.0162 
 7179000    74.268648   -5112.3022   -4969.0688   -5112.3022            0    782.69033    20.046339     19.89427     20.85837    8318.4698    -230.5438     1682.467    896.14775    103.10411    488.00194    681.53331   -4874.1157 
 7180000     73.42653   -5112.0007   -4970.3915   -5112.0007            0   -288.60242    20.084028     20.03011    20.849783     8387.561   -868.78651   -376.88545    379.86472   -351.33677    210.33011    342.65615   -5005.6945 
 7181000    70.072055   -5113.3466   -4978.2067   -5113.3466            0    187.91174    20.098478    20.011335    20.825409     8375.925   -71.319804    -175.4928    810.54781    63.694662    351.62376    933.96742   -4955.2525 
 7182000    72.663244   -5116.2277   -4976.0905   -5116.2277            0    346.33706    19.979436    20.000768    20.966914    8378.4637   -40.746019    926.59378    153.16341   -139.53107    30.445902    179.82644   -4933.7711 
 7183000    69.221403   -5117.4837   -4983.9844   -5117.4837            0    1562.6195    19.850554    20.039396    20.938201    8329.0719    1572.1506    1296.9518    1818.7559   -66.844108    241.27638    223.71297   -4794.1715 
 7184000    70.799515   -5120.9736   -4984.4308   -5120.9736            0   -215.54965     20.04273    19.999205     20.98762      8412.65   -723.44113     282.5593   -205.76713    136.46646     523.2233    277.62809   -5010.8766 
 7185000    75.425071   -5116.2471   -4970.7835   -5116.2471            0    677.46329    19.962165    20.033084    20.933016    8371.1911    1036.6626    424.63282    571.09447   -207.10987    481.25976    372.82641   -4888.0752 
 7186000    71.836355   -5108.2304    -4969.688   -5108.2304            0    337.32009    20.047458    19.955221    20.926492    8371.6737    1018.5488   -190.58942    184.00087    131.21452    282.18443    -128.1463   -4928.5038 
 7187000    68.822547   -5113.3396   -4980.6095   -5113.3396            0    323.09327    20.056411    19.993405    20.862515    8365.7841    562.54303    -99.03729    505.77405    176.94123     12.46485   -855.03301   -4941.1901 
 7188000    73.459573   -5113.4458   -4971.7728   -5113.4458            0    297.92299    19.959778    20.070492    20.793293    8329.8463    623.91658   -340.35094    610.20334   -283.38628    -203.3006    325.97489   -4935.5805 
 7189000    66.901739   -5114.1785   -4985.1528   -5114.1785            0    497.06333    19.982745    19.932479    20.823672     8294.186     530.6404    39.734231    920.81537   -182.37557     502.2228   -953.35525    -4925.027 
 7190000    73.510247   -5110.6509   -4968.8802   -5110.6509            0    565.88028    20.056974    19.971172    20.842774    8348.8077    21.277622    480.78263    1195.5806    1.6671603   -172.32209   -533.81305   -4899.9793 
 7191000    69.659792   -5110.7544   -4976.4096   -5110.7544            0   -268.22721    19.933901    20.066644     20.96111    8384.5798    803.85006   -1068.7281   -539.80364   -29.138819    177.20671    9.0044593   -5009.2086 
 7192000     73.00288   -5115.1568   -4974.3646   -5115.1568            0    728.05563    19.970467    19.933841    20.987435    8354.8483    759.47382    900.44848     524.2446   -299.84874     302.2635   -81.559053   -4885.6533 
 7193000    73.458665   -5116.6557   -4974.9845   -5116.6557            0    75.234129    20.017763    19.914533     21.11383    8416.9099    57.684254    723.49103    -555.4729    135.73535   -302.92586   -531.84452   -4965.7493 
 7194000    70.589887   -5106.3305    -4970.192   -5106.3305            0   -227.75822    20.113135    19.972993    20.909889    8399.9098    66.544344   -715.96637    -33.85264   -66.161202    367.69462    106.30867   -4998.0933 
 7195000    69.190635   -5108.5863   -4975.1464   -5108.5863            0    1061.5982    20.027288    20.024845    20.766951    8328.4476    662.98223    813.70734     1708.105   -61.092093    302.47704   -426.91779   -4846.2027 
 7196000    70.791978   -5114.7176   -4978.1893   -5114.7176            0   -358.36785    20.036257    20.042609    20.836817    8367.6253   -802.60323   -785.13609    512.63577    16.008293    867.67369    856.56742   -5021.9221 
 7197000    70.850616   -5111.3889   -4974.7475   -5111.3889            0    262.01357    19.883012    20.079706    20.936282    8358.7067    344.43335     370.9399    70.667464   -403.45685    293.28339    98.018259   -4942.8072 
 7198000    73.461051   -5115.8288    -4974.153   -5115.8288            0    92.899848    19.908141    20.008451    21.015864    8371.2717    452.96974    334.05171   -508.32191   -182.39557    256.29238   -129.82366   -4962.8112 
 7199000    71.879555   -5108.9924   -4970.3667   -5108.9924            0    12.122553     20.08466    19.921356    21.013146     8407.647   -64.691356    229.41815   -128.35914   -430.22913   -235.84596     8.074286   -4968.8802 
 7200000    70.370511    -5117.353   -4981.6375    -5117.353            0     1205.034    20.091773    19.819259    20.904323     8324.186    1018.8039    2130.4286     465.8695    94.957042    1190.7546   -310.73999   -4835.3467 
 7201000    70.321418   -5113.3052   -4977.6845   -5113.3052            0    944.78654    19.937567     20.02102    20.958159    8365.8772    2041.2031    331.97983    461.17665    145.99641    328.70629   -155.12535   -4862.4132 
 7202000    68.051369   -5107.7938    -4976.551   -5107.7938            0   -204.97734    20.041567    20.077975    20.789192    8365.4479   -957.16324   -71.300384     413.5316   -302.47527   -567.54304   -61.890649   -5001.5585 
 7203000    66.435225   -5110.9661   -4982.8401   -5110.9661            0    542.39774    20.052049    19.942271    20.881735     8350.259   -406.46988    925.53023    1108.1329   -108.58644    436.89942    1162.4292    -4916.787 
 7204000    68.916191    -5115.675   -4982.7643    -5115.675            0   -87.834438    19.894368    20.042245    20.977708    8364.3954   -15.729768   -775.05704     527.2835   -355.16308    314.09139    114.83639   -4993.4789 
 7205000    67.903429   -5116.9022   -4985.9447   -5116.9022            0    332.71357    20.124866    19.883331    20.865947    8349.4959     323.6459    494.49501     179.9998   -28.216691    523.67332    107.21783   -4945.4306 
 7206000    68.037189    -5116.657   -4985.4416    -5116.657            0    93.120894    20.068076    19.908106     21.00853    8393.2731   -230.18082      699.243    -189.6995   -96.720526    -0.791799     714.3157   -4974.0429 
 7207000    71.533169   -5116.5369   -4978.5792   -5116.5369            0   -148.70765    20.002001    19.982116    20.993893    8390.8874   -85.682475   -145.07801   -215.36246    267.58873   -284.54589    195.64191   -4996.7769 
 7208000    70.823367   -5109.1376   -4972.5488   -5109.1376            0   -52.236377    19.942254     20.00257    20.966816    8363.5858    925.62735   -750.25649   -332.07999   -74.973956   -69.023389    230.22971   -4978.9203 
 7209000    70.521856   -5111.3408   -4975.3335   -5111.3408            0    1307.0416    19.911553    19.924051    20.995263    8329.2153    1885.9379    1301.4738    733.71306    34.482544    282.35887   -292.06404   -4816.5631 
 7210000    71.526464    -5107.324   -4969.3792    -5107.324            0   -60.364657    20.071074    19.957302    20.936425    8386.3885    940.02046   -1338.0309    216.91649   -589.69837    304.67296    598.47649   -4976.7622 
 7211000    69.799394   -5111.0835   -4976.4695   -5111.0835            0    163.88755      19.9468    19.969654    21.054805    8386.7752    1214.4965    -574.9862   -147.84769   -391.92409    404.93765   -40.761924    -4956.424 
 7212000    73.694783   -5118.2911   -4976.1645   -5118.2911            0    844.59461    20.033801    19.889173     21.00913    8371.2086    595.74367    1583.7899    354.25031    165.54737    510.70546   -7.0531464   -4873.0518 
 7213000    73.844554   -5113.5915   -4971.1761   -5113.5915            0   -28.326628    19.961175     20.02679    21.044335    8412.6469    428.35671   -589.59611    76.259513    149.47077    190.40451    -339.0046   -4974.6514 
 7214000    71.604923   -5112.9632   -4974.8671   -5112.9632            0    306.96062    19.943559    19.978585    20.966624    8354.0273     1293.448     291.8193   -664.38541   -313.60798    277.81541     269.2646   -4937.4686 
 7215000     67.57545    -5119.716   -4989.3911    -5119.716            0   -434.24757    19.981859    20.016042    20.963187    8384.3886   -228.52846   -356.10758   -718.10668   -17.547637    139.65131    263.96447   -5042.4899 
 7216000    70.783391   -5116.7951   -4980.2834   -5116.7951            0   -175.95827    20.039006     19.92712    20.980335    8377.8607    -521.4415    496.37345   -502.80676   -257.02028    354.15074   -350.02276   -5001.7824 
 7217000    66.695128   -5116.0248   -4987.3977   -5116.0248            0    480.68743     20.11209     19.94072    20.809452    8345.6214    65.206502    1129.1873    247.66851   -97.583951    512.53262    677.95601   -4928.8921 
 7218000    73.095793   -5113.4291   -4972.4577   -5113.4291            0    231.66634    19.970475    20.008611    20.978061    8382.4445    1354.5407   -493.62481   -165.91685   -344.47567    69.501343   -545.60411   -4944.1367 
 7219000    71.972508   -5114.4082   -4975.6032   -5114.4082            0    469.14342    19.930189     20.00273    20.951103    8352.3292    991.10065    142.89815    273.43147   -336.91955   -380.12916    460.51336   -4918.4567 
 7220000    65.588323   -5110.1641   -4983.6715   -5110.1641            0    7.6912456    19.971539    19.977246    21.049482    8398.2454    210.94124   -409.17349    221.30598   -300.30315   -308.42317    205.17756   -4982.7295 
 7221000    69.307529    -5111.286   -4977.6206    -5111.286            0    365.11214    20.019446     19.89097    21.000331    8362.4624    125.63527    814.55956    155.14159     -94.8037   -129.95953    235.76651   -4933.0923 
 7222000    70.879244   -5119.4681   -4982.7715   -5119.4681            0    438.05603    20.041528    19.961398    20.986029    8395.6058   -651.58826    1412.0376    553.71875   -244.47506   -77.748008    383.85138   -4929.1354 
 7223000    70.952099   -5119.1442   -4982.3071   -5119.1442            0   -283.89142    20.050138     19.97932     20.86808     8359.505    265.91844   -932.74431    -184.8484    451.16697     1133.801    993.01706   -5016.9177 
 7224000     70.11964   -5112.0804   -4976.8488   -5112.0804            0    268.06321    20.073847    19.874807    20.929015    8349.9205   -164.40471    708.68821    259.90613    -70.18089   -348.03425    21.267032   -4944.2054 
 7225000    69.791991   -5118.3091   -4983.7093   -5118.3091            0    554.31035    19.996423     19.93365    20.941907    8347.4797    667.68215    1003.0097   -7.7607768     7.368993    225.22276   -191.40986   -4916.2279 
 7226000    67.748655    -5110.023    -4979.364    -5110.023            0   -29.314421    19.908476    20.139625    20.837484    8354.7734    269.85807   -1058.2061    700.40473   -106.36972    397.70136   -498.15007   -4982.9359 
 7227000    75.029133   -5104.4463   -4959.7463   -5104.4463            0    779.74055    19.933827    20.002399    20.986101    8367.6695    1358.0212    830.36794    150.83255   -305.87345    97.796438   -338.06992   -4864.5915 
 7228000    73.121225   -5112.3697   -4971.3492   -5112.3697            0   -93.933464    20.038164    19.890497    21.030573    8382.1355   -424.01693    791.47378   -649.25724    71.977731    169.01179     148.7778   -4982.8321 
 7229000     69.39985   -5108.9148   -4975.0714   -5108.9148            0   -2.3550219    20.087117    19.946075    20.914062    8379.4101    24.731896   -147.04548    115.24851   -223.74376    402.68377    52.569838   -4975.3592 
 7230000    72.500014    -5107.397   -4967.5746    -5107.397            0    363.94251    19.960007    19.960862    20.910934    8331.3121    564.66371     404.0885    123.07532    36.099621    -261.2421    134.66286   -4923.3543 
 7231000    71.011466   -5107.2562   -4970.3046   -5107.2562            0    284.30865    19.924359    19.996894    20.910707    8331.3548    924.21311   -139.91162    68.624468    6.0512212   -435.44449    339.88644   -4935.7599 
 7232000    72.198533    -5115.061     -4975.82    -5115.061            0   -40.001327     20.08769    20.014215    20.785362    8356.5333   -905.63948    587.82777    197.80773    62.576661   -372.25108   -24.317134    -4980.695 
 7233000    69.031887   -5113.3261   -4980.1923   -5113.3261            0    517.02203    20.041738    19.883526    20.965771    8354.8689     466.4317    917.56612    167.06826     249.5995    518.92171   -459.69302   -4917.1946 
 7234000    73.670762   -5113.3783   -4971.2981   -5113.3783            0    333.18746    19.942949    19.965411    21.016163    8367.9886    810.82407   -100.54609     289.2844    38.071341     526.4245     366.8789   -4930.6364 
 7235000    69.452678   -5120.3816   -4986.4362   -5120.3816            0    514.87868    20.031871    19.987733    20.883379    8361.5318    389.38361    377.84453    777.40791     103.1457     947.6135   -440.94132   -4923.6497 
 7236000    68.601093   -5115.6264   -4983.3234   -5115.6264            0     250.9152    19.991489    19.947339    21.008041    8377.5238   -309.48043    985.15916    77.066877     394.4688    637.38043   -167.91378   -4952.6672 
 7237000    70.314364   -5111.9226   -4976.3154   -5111.9226            0    206.49964    20.071252    19.934586    20.870281    8350.4521   -40.537345    610.02955     50.00671    7.7298079   -365.38438    176.25573   -4951.1673 
 7238000    71.850375   -5110.2164   -4971.6469   -5110.2164            0    798.67265    20.028197    19.942315    20.886837    8342.3822    996.38161    199.30838     1200.328   -31.593783    758.34221    610.70993   -4874.4764 
 7239000    70.800678   -5114.5027   -4977.9577   -5114.5027            0   -462.92719    20.145792    19.925443    20.896954    8388.3264   -1143.8991   -108.11512   -136.76737   -197.17386    428.05336   -219.17223   -5034.5899 
 7240000    71.132557   -5110.4513   -4973.2662   -5110.4513            0    -110.2436    19.995629    19.941078    21.004525    8375.2265   -275.44345      421.814   -477.10135    34.408691    428.25818    52.599608   -4986.7318 
 7241000    73.934555     -5124.93    -4982.341     -5124.93            0   -58.027895    19.970967    19.999281    20.888768    8343.0779   -144.05157   -83.266681    53.234566    231.80995    -508.4556   -297.85068   -4989.4015 
 7242000    69.070829   -5112.8967   -4979.6878   -5112.8967            0    320.96876    20.010194    19.916536    21.044327    8386.8747    803.40624    714.60012   -555.10008    30.816638   -1.4118933     143.8202   -4940.4288 
 7243000    72.206096   -5110.0949   -4970.8394   -5110.0949            0    577.08917    20.030927    19.970008    20.970801    8388.6927    336.80481    806.50941    587.95329   -166.27454   -493.96119     471.5398    -4900.238 
 7244000    71.542816   -5108.2028   -4970.2264   -5108.2028            0    124.03934    20.110362    19.909798    20.866748    8354.9052    237.18161   -273.39817    408.33459   -4.2180828    192.04687    143.58466   -4955.1125 
 7245000    74.555985   -5108.3504   -4964.5629   -5108.3504            0    1694.2296    19.934626    20.091139    20.738388    8305.9181    1886.7652    787.69963    2408.2239   -88.373678   -14.178504    475.32019   -4759.3353 
 7246000    72.823634   -5113.4916   -4973.0451   -5113.4916            0    628.37483    19.944598    19.980061    20.925936    8338.8661    649.95593    566.04282    669.12574   -196.39201    421.50345   -997.89225   -4896.6261 
 7247000    71.039561   -5113.7534   -4976.7477   -5113.7534            0    28.992487    20.040096    20.053128    20.820112     8366.908    265.72349    -567.0892    388.34317    23.672003     283.6251    633.96242   -4973.2099 
 7248000    69.278011   -5104.0285     -4970.42   -5104.0285            0    180.39562    19.990951    19.993108    20.860531    8337.5629    278.41558   -62.903016    325.67429   -217.21034   -222.14718   -499.08471   -4948.4849 
 7249000    68.827328   -5114.7588   -4982.0196   -5114.7588            0    121.95512    20.101525    19.955354    20.846197    8362.0987   -943.67466    948.99404    360.54597    -340.4663   -264.34165   -443.44578   -4967.1468 
 7250000    73.427655   -5106.9422   -4965.3308   -5106.9422            0   -73.657048    20.018768    19.968396    20.948616     8374.056     874.2523   -1069.4811   -25.742352   -341.41641    730.38581    44.911446   -4974.3263 
Loop time of 357.139 on 64 procs for 250000 steps with 972 atoms

Performance: 120.961 ns/day, 0.198 hours/ns, 700.007 timesteps/s
99.1% CPU use with 64 MPI tasks x 1 OpenMP threads

MPI task timing breakdown:
Section |  min time  |  avg time  |  max time  |%varavg| %total
---------------------------------------------------------------
Pair    | 17.502     | 26.901     | 36.216     |  87.1 |  7.53
Bond    | 0.25674    | 0.27338    | 0.28959    |   1.1 |  0.08
Kspace  | 144.69     | 153.55     | 162.85     |  36.4 | 43.00
Neigh   | 0.12069    | 0.1249     | 0.12771    |   0.6 |  0.03
Comm    | 82.095     | 83.408     | 84.323     |   5.8 | 23.35
Output  | 0.50759    | 0.50847    | 0.50983    |   0.1 |  0.14
Modify  | 82.961     | 84.464     | 87.874     |  12.1 | 23.65
Other   |            | 7.907      |            |       |  2.21

Nlocal:        15.1875 ave          20 max          11 min
Histogram: 3 2 10 10 13 4 14 5 2 1
Nghost:        2216.38 ave        2245 max        2177 min
Histogram: 2 1 7 6 8 10 9 5 10 6
Neighs:        4712.92 ave        6696 max        3216 min
Histogram: 5 6 9 10 10 8 8 5 2 1

Total # of neighbors = 301627
Ave neighs/atom = 310.31584
Ave special neighs/atom = 2.0000000
Neighbor list builds = 396
Dangerous builds = 0

unfix		3
unfix		2
unfix		1

write_data	data.final.${pid}
write_data	data.final.1
System init for write_data ...
PPPM initialization ...
  extracting TIP4P info from pair style
  using 12-bit tables for long-range coulomb (../kspace.cpp:340)
  G vector (1/distance) = 0.37222489
  grid = 24 24 25
  stencil order = 5
  estimated absolute RMS force accuracy = 0.0034294392
  estimated relative force accuracy = 1.0327654e-05
  using double precision FFTW3
  3d grid and FFT values/proc = 2366 288
Last active /omp style is kspace_style pppm/tip4p/omp
WARNING: Not all mixed pair coeffs generated from mixing. Use write_data with 'pair ij' option to store all pair coeffs. (../write_data.cpp:312)

write_restart   restart.lmp.${pid}
write_restart   restart.lmp.1
System init for write_restart ...
PPPM initialization ...
  extracting TIP4P info from pair style
  using 12-bit tables for long-range coulomb (../kspace.cpp:340)
  G vector (1/distance) = 0.37222489
  grid = 24 24 25
  stencil order = 5
  estimated absolute RMS force accuracy = 0.0034294392
  estimated relative force accuracy = 1.0327654e-05
  using double precision FFTW3
  3d grid and FFT values/proc = 2366 288
Last active /omp style is kspace_style pppm/tip4p/omp
Total wall time: 0:05:57
