LAMMPS (30 Jul 2021)
Processor partition = 0
  using 2 OpenMP thread(s) per MPI task
using multi-threaded neighbor list subroutines
variable        pid world 0 1
variable        phase world IceV IceIII

shell cd ${phase}
shell cd IceV
include Restart.lmp
echo both
log log.lammps
#include		in.partitions
include		in.temp
variable        temperature equal 188.97
variable	tempDamp equal 100.0
include		in.pressure
variable        pressure equal 7458.6
variable        pressureDamp equal 1000.0 # This is 1 ps
include		in.seed
variable        seed equal 745823

units		real
atom_style	full
read_restart    restart.lmp.${pid}
read_restart    restart.lmp.0
Reading restart file ...
  restart file = 30 Jul 2021, LAMMPS = 30 Jul 2021
  restoring atom style full from restart
  triclinic box = (-3.1501672 -0.27057336 0.078901560) to (14.760166 22.850572 19.151096) with tilt (-0.43595387 -6.5269830 0.46950279)
  2 by 4 by 4 MPI processor grid
  restoring pair style lj/cut/tip4p/long/omp from restart
  restoring bond style harmonic/omp from restart
  restoring angle style harmonic/omp from restart
  1008 atoms
  672 bonds
  336 angles
Finding 1-2 1-3 1-4 neighbors ...
  special bond factors lj:    0        0        0       
  special bond factors coul:  0        0        0       
     2 = max # of 1-2 neighbors
     1 = max # of 1-3 neighbors
     1 = max # of 1-4 neighbors
     2 = max # of special neighbors
  special bonds CPU = 0.002 seconds
  read_restart CPU = 0.008 seconds

include 	in.setup
variable	out_freq equal 1000
variable	out_freq2 equal 10000
variable	out_freq3 equal 1000

timestep	2.0

neigh_modify    delay 7 every 1

include		in.tip4p
# This is TIP4P/Ice

# create groups ###
group ox type 2
336 atoms in group ox
group hy type 1
672 atoms in group hy

# set charges - beside manually ###
set group ox charge -1.1794
Setting atom values ...
  336 settings made for charge
set group hy charge 0.5897
Setting atom values ...
  672 settings made for charge

# ### TIP3P Potential Parameters ###
pair_style lj/cut/tip4p/long/omp 2 1 1 1 0.1577 8.5
pair_coeff 1 1*2 0.000 0.000
pair_coeff 2 2 0.21084 3.1668
bond_style  harmonic
bond_coeff  1 450 0.9572
angle_style harmonic
angle_coeff 1 55 104.52
kspace_style pppm/tip4p/omp 1.0e-5
pair_modify tail yes

thermo          ${out_freq}
thermo          1000
thermo_style    custom step temp pe etotal epair emol press lx ly lz vol pxx pyy pzz pxy pxz pyz enthalpy

restart 	${out_freq3} restart.lmp.${pid} restart2.lmp.${pid}
restart 	1000 restart.lmp.${pid} restart2.lmp.${pid}
restart 	1000 restart.lmp.0 restart2.lmp.${pid}
restart 	1000 restart.lmp.0 restart2.lmp.0


include         in.dump
dump            myDump all atom ${out_freq2} dump.water.${pid}
dump            myDump all atom 10000 dump.water.${pid}
dump            myDump all atom 10000 dump.water.0
dump            myDump2 all dcd ${out_freq2} dump.dcd
dump            myDump2 all dcd 10000 dump.dcd
dump_modify     myDump append yes
dump_modify     myDump2 append yes


variable natoms 	equal  "count(all)"                        # NUMBER ATOMS
variable H      	equal  "enthalpy/v_natoms"                 # ENTHALPY-per-atom
variable Vol      	equal  "vol/v_natoms"                 # volume-per-atom
fix AVG all 		ave/time ${out_freq} 1 ${out_freq} v_Vol v_H file vol_enthalpy.dat
fix AVG all 		ave/time 1000 1 ${out_freq} v_Vol v_H file vol_enthalpy.dat
fix AVG all 		ave/time 1000 1 1000 v_Vol v_H file vol_enthalpy.dat



fix 		1 all shake 1e-6 200 0 b 1 a 1
Finding SHAKE clusters ...
       0 = # of size 2 clusters
       0 = # of size 3 clusters
       0 = # of size 4 clusters
     336 = # of frozen angles
  find clusters CPU = 0.000 seconds
fix             2 all nph tri ${pressure} ${pressure} ${pressureDamp}
fix             2 all nph tri 7458.6 ${pressure} ${pressureDamp}
fix             2 all nph tri 7458.6 7458.6 ${pressureDamp}
fix             2 all nph tri 7458.6 7458.6 1000
fix             3 all temp/csvr ${temperature} ${temperature} ${tempDamp} ${seed}
fix             3 all temp/csvr 188.97 ${temperature} ${tempDamp} ${seed}
fix             3 all temp/csvr 188.97 188.97 ${tempDamp} ${seed}
fix             3 all temp/csvr 188.97 188.97 100 ${seed}
fix             3 all temp/csvr 188.97 188.97 100 745823


run             250000
PPPM initialization ...
  extracting TIP4P info from pair style
  using 12-bit tables for long-range coulomb (../kspace.cpp:340)
  G vector (1/distance) = 0.38380844
  grid = 24 30 32
  stencil order = 5
  estimated absolute RMS force accuracy = 0.0019107069
  estimated relative force accuracy = 5.7540369e-06
  using double precision FFTW3
  3d grid and FFT values/proc = 5712 768
Last active /omp style is kspace_style pppm/tip4p/omp
Neighbor list info ...
  update every 1 steps, delay 7 steps, check yes
  max neighbors/atom: 2000, page size: 100000
  master list distance cutoff = 10.8154
  ghost atom cutoff = 10.8154
  binsize = 5.4077, bins = 5 5 4
  1 neighbor lists, perpetual/occasional/extra = 1 0 0
  (1) pair lj/cut/tip4p/long/omp, perpetual
      attributes: half, newton on, omp
      pair build: half/bin/newton/tri/omp
      stencil: half/bin/3d/tri
      bin: standard
Setting up Verlet run ...
  Unit style    : real
  Current step  : 14750000
  Time step     : 2
Per MPI rank memory allocation (min/avg/max) = 10.35 | 10.35 | 10.36 Mbytes
Step Temp PotEng TotEng E_pair E_mol Press Lx Ly Lz Volume Pxx Pyy Pzz Pxy Pxz Pyz Enthalpy 
14750000    186.49332   -4958.7587    -4585.749   -4958.7587            0    6872.1071    17.910333    23.121146    19.072195    7897.9376    6475.5116    6197.4143    7943.3954    118.95774   -120.45916   -1158.8713   -3794.1969 
14751000    184.80961   -4980.9563   -4611.3143   -4980.9563            0    9481.7477    17.838646    22.761053    19.271034    7824.5478    8741.2447    8814.7597    10889.239   -606.95685   -267.04608   -110.79313   -3529.3236 
14752000    185.21896   -4989.4505   -4618.9897   -4989.4505            0    5507.7054    17.880678      22.8302    19.476047    7950.5011    6485.3377    5481.7917    4555.9868    1355.4299    176.66417    1358.3241   -3980.3717 
14753000    197.06546    -5014.542   -4620.3867    -5014.542            0    8336.4832    17.813349    22.751053    19.305977    7824.1808    8395.8564    8370.4191    8243.1741    637.26463   -476.60446   -489.10571   -3669.1302 
14754000    179.84004   -5002.9574   -4643.2551   -5002.9574            0    6368.0235    17.811851    22.900552    19.390588    7909.4448    7293.3095    5777.1975    6033.5635    -1307.866   -745.29407   -287.87709   -3908.6964 
14755000    186.38796   -4985.3149    -4612.516   -4985.3149            0     7073.267    18.007342    22.718999    19.205436    7857.1127     5990.236    7990.3273    7239.2377   -988.47234   -344.43015    646.73284    -3802.005 
14756000     191.9258   -4980.7511   -4596.8758   -4980.7511            0    8635.0589    18.012019    22.755896    19.126859    7839.7099    10124.861    8143.8293     7636.486   -51.464819      423.528    723.47106   -3609.5939 
14757000    193.19139   -5005.9737   -4619.5671   -5005.9737            0    5640.9608    17.868741    23.087643    19.125312    7890.0925    5943.8777    4178.0231    6800.9818   -627.28736   -23.436592   -285.79534   -3970.4679 
14758000    185.94925   -4979.7985   -4607.8771   -4979.7985            0    7462.1465    17.862021    22.817375    19.298977    7865.5769    8519.3173    7048.4331     6818.689   -615.31359    105.48265   -557.78956    -3751.884 
14759000    195.17018   -4981.8982   -4591.5337   -4981.8982            0    8473.1469    17.780622    22.746382    19.386799    7840.8901    8765.7624    9786.0694    6867.6087    63.771564    976.80964   -282.00365   -3622.6181 
14760000    192.78981   -4990.4127   -4604.8093   -4990.4127            0    6291.3139    17.997292    22.747713    19.334633    7915.5454     6820.446    5996.1148    6057.3807    1677.7596   -372.13313   -994.56881   -3878.5393 
14761000    193.82947   -5000.5315   -4612.8486   -5000.5315            0      8450.33    17.853576    22.852729    19.230553     7846.122    8937.1356    8873.1229    7540.7314    669.05787    1169.4565    563.45743   -3645.8973 
14762000    203.80907   -4984.7803   -4577.1369   -4984.7803            0    7659.3127     17.86601    22.757989    19.265111    7833.0875    8254.6827    7870.5476     6852.708   -196.97805   -657.05355    619.40447   -3702.1559 
14763000    191.54208   -4966.9537   -4583.8459   -4966.9537            0    6756.5303    18.074717    22.735115    19.261677    7915.2155    6122.7838    6775.9535    7370.8534     49.82215     556.2232   -673.99208   -3803.9038 
14764000    192.53528   -4995.1722   -4610.0779   -4995.1722            0    8579.5437    17.930824    23.011729    19.004573    7841.6532    7466.5968    8279.4885    9992.5459   -235.08249    -106.5353    1078.6411   -3628.9001 
14765000     187.2494   -4979.4594   -4604.9375   -4979.4594            0    9783.8933    17.831303    22.894823    19.136286    7812.2838    10102.805    9334.2538    9914.6213    1226.2832    1390.8695    321.49745   -3490.2179 
14766000    197.84671   -5000.8199    -4605.102   -5000.8199            0    7528.5745    18.025547    22.722831    19.199246    7863.8469    7016.3896    7463.1026    8106.2312    722.66915   -190.64756    8.0134651   -3741.6789 
14767000    192.19465   -4995.9171    -4611.504   -4995.9171            0    7479.6357    18.077404    22.666353    19.195899     7865.497    7257.4224    7179.3059    8002.1788    1002.7328   -1284.1063    507.53856   -3753.5135 
14768000    187.24649   -5000.6808   -4626.1647   -5000.6808            0    7324.1333    17.963962    22.866027    19.140111    7862.0769    6957.0071    7592.2582    7423.1345   -227.60438    1321.5764    11.977921   -3786.3772 
14769000    193.59456   -5001.6075   -4614.3944   -5001.6075            0    7118.4112    17.814461    23.154577    19.178967    7911.0612    6039.2057    6174.5043    9141.5236    96.725602    777.81254     286.4743   -3793.1098 
14770000    188.25041   -4986.1769   -4609.6528   -4986.1769            0    9417.5041    17.787355    22.730537    19.314263    7809.0678    9234.7732    9205.6403    9812.0989    229.59489    747.13643   -154.92003   -3537.1192 
14771000    184.26409   -5001.7321   -4633.1812   -5001.7321            0    6450.7844    18.125003    22.390971    19.460885    7897.9359    5503.7123    7008.2696    6840.3711    -22.52771   -120.96141   -2222.2052   -3890.1586 
14772000    188.02155   -4977.9093    -4601.843   -4977.9093            0    9572.4755    17.950155    22.785593    19.138579    7827.7731    9000.9358    9649.6881    10066.803    427.84437    515.34546   -1691.6127   -3509.0488 
14773000    182.18304   -5003.1525   -4638.7639   -5003.1525            0    6663.3664    17.881633    23.065002    19.111924    7882.5201    7078.8883    5724.4916    7186.7194    76.997685   -635.33087    369.78982   -3872.7535 
14774000    190.78311   -4964.0105   -4582.4207   -4964.0105            0    6815.2205    18.014619    22.884381    19.231972     7928.446    6976.0147    6035.7113    7433.9356    -451.0909    241.39443   -1500.2164   -3794.3886 
14775000    194.38198   -4980.7304   -4591.9425   -4980.7304            0    6659.4799    18.078357    22.503944    19.430108    7904.8351    7599.0919    5972.9119    6406.4359   -414.17744   -511.93447    350.67674   -3824.2116 
14776000    192.08031   -4986.4836   -4602.2992   -4986.4836            0    6321.3872    17.931675    22.761984    19.371964    7906.8706    7265.6385    6515.8056    5182.7175   -680.32142    1298.3119   -473.26297   -3873.3573 
14777000    197.78752   -4985.5482   -4589.9488   -4985.5482            0    6363.8844    17.904623     22.86397    19.276482    7891.2281    5567.0689    7052.3334    6472.2508    123.84504    1703.0796     109.9904   -3857.5582 
14778000    178.40906    -4979.272   -4622.4318    -4979.272            0    6850.2762     17.96531    22.828545    19.236517    7889.3165    7155.4354    7049.9725    6345.4208    196.69951    503.93794   -875.88627   -3834.2555 
14779000    187.60165    -4980.559   -4605.3325    -4980.559            0    9016.4651     17.93991    22.746388    19.180431    7826.9235    8940.3846    9857.5523    8251.4584   -809.58537    -43.97614   -524.36279   -3576.1242 
14780000    192.54059   -4981.3882   -4596.2832   -4981.3882            0    7337.9782    17.922214    22.811467     19.27923    7881.9661    7198.5028    7130.8077    7684.6242   -1342.3753   -1488.4082   -1337.9182   -3752.7798 
14781000    198.49809   -4975.3846   -4578.3639   -4975.3846            0    8067.2394    17.961782    22.787259    19.192073    7855.3114    7998.9503    7485.3316    8717.4363   -791.78891   -597.17551    1355.0429   -3654.1676 
14782000    184.52595   -4973.7122   -4604.6375   -4973.7122            0    7220.1697    17.927572    22.859687    19.215532    7874.8838    7583.4333    6821.2211    7255.8547     423.9877    635.35339    869.63198    -3775.422 
14783000    191.54498   -4992.5293   -4609.4156   -4992.5293            0    5966.4838    17.914168    22.857857    19.274567    7892.5398    5832.9087    6261.7547    5804.7878    1466.1184    708.12301   -608.56467   -3922.6459 
14784000    178.04604   -4994.6788   -4638.5648   -4994.6788            0    5522.9933    18.019141    22.690665    19.353276    7912.9023    4288.1286     6200.697    6080.1542   -1065.5704     3.826938   -1562.7741   -4001.2027 
14785000    180.93366   -5002.9682   -4641.0785   -5002.9682            0    5903.9825    17.920546    22.790088     19.35338    7904.1296    7043.0205    6070.1022    4598.8248    497.88322   -1221.0332    484.69515   -3960.5051 
14786000    183.67117   -4999.3257   -4631.9606   -4999.3257            0    8060.4273    17.913065    22.889827    19.158131      7855.35    7676.3773    8014.2215    8490.6832   -42.647823   -168.79055     727.2628   -3708.5401 
14787000    189.58332   -4984.3497   -4605.1596   -4984.3497            0    7683.7052    17.859079    22.810491    19.284818    7856.1404    6793.9799    7604.0302    8653.1054   -329.87241    557.48003   -108.53171   -3724.8087 
14788000    187.45465   -4989.5171   -4614.5846   -4989.5171            0    8522.3618    17.887133     22.55937      19.4146     7834.227    9049.4688    9309.5708    7208.0457   -799.54905   -205.58865     229.9762   -3640.8693 
14789000    184.90193   -4987.1058   -4617.2791   -4987.1058            0     7132.098     17.97624     22.71789    19.273043    7870.7684    6895.4159    6702.5174    7798.3608    720.71777    104.54846    2236.3228   -3798.6064 
14790000    191.65282   -4987.2872   -4603.9579   -4987.2872            0    8429.3818    17.808899    22.952688    19.163691    7833.3908    7962.7132    8470.8287    8854.6034   -58.712745    -174.5421    1578.7918   -3640.9688 
14791000    182.34426   -4973.6237   -4608.9126   -4973.6237            0    6437.8338    17.841446    23.107617    19.134395    7888.5998    7401.0704    4983.4539    6928.9771    86.622234    -926.3803    593.26362   -3868.2583 
14792000    201.36226   -5011.9686   -4609.2192   -5011.9686            0    8527.2907    17.978831    22.585519    19.265733    7823.0671    7670.5384    10070.201    7841.1324    261.54879    151.24141   -622.86283   -3636.3286 
14793000    188.08741   -4967.4256   -4591.2276   -4967.4256            0      8406.63    17.952215    22.617042    19.306338    7838.8751    9623.1249    8792.9969    6803.7681     1107.664   -601.49455    1487.0654   -3630.1652 
14794000    188.30773   -5013.2772   -4636.6384   -5013.2772            0    6657.8897    17.894578    22.857973    19.227719    7864.7869    6978.4489    5693.1473    7302.0727   -357.44083    143.05466     -1117.41   -3872.9795 
14795000    179.76407   -4998.2252   -4638.6749   -4998.2252            0    6134.8559    17.905909    22.984666    19.208999    7905.6813    5186.2265     6412.303    6806.0381   -326.25264    976.81126    578.64146    -3931.349 
14796000    196.26351   -5025.2204   -4632.6691   -5025.2204            0    7377.8066    17.966961    22.801933    19.238177    7881.5241    6623.2538    7518.3974    7991.7686   -606.31486    339.06015    1032.8731   -3784.6349 
14797000    186.60062   -4992.5907   -4619.3664   -4992.5907            0    6513.1657    18.170991    22.616298     19.26736    7918.1246    5302.2433    7322.4698    6914.7841   -126.84548   -574.33565    -432.7096   -3867.2409 
14798000    190.24418   -5004.6843   -4624.1725   -5004.6843            0    7881.5392    17.963236    22.718954    19.213597    7841.1833    7996.4209     8400.427    7247.7696    351.16027    1001.1434    -2230.767   -3722.8742 
14799000    187.06272   -4975.1278   -4600.9792   -4975.1278            0    6804.4205    17.801985    22.791597      19.4407    7887.7854    9051.7443    6288.5979    5072.9194   -569.48715    253.63899    791.69041    -3818.231 
14800000    184.39323   -5000.8416   -4632.0324   -5000.8416            0    7005.6805    17.883671    22.990217    19.170411    7881.9046    5674.5102    6680.5244     8662.007    106.61222    723.50163    813.97154   -3826.7329 
14801000    192.93371   -4950.3053    -4564.414   -4950.3053            0     7425.167    18.026303    22.948478    19.081775    7893.6766     5837.222    6968.2411    9470.0379   -553.43071   -750.80346   -559.55465   -3709.6201 
14802000    188.60516   -5000.8471   -4623.6135   -5000.8471            0    7815.2018    18.133991     22.44667     19.25747    7838.7088     6424.512    9104.7482    7916.3451   -734.03997    299.30821   -1339.0765   -3730.1833 
14803000    179.05768   -5005.9496   -4647.8121   -5005.9496            0    5883.7005    17.978842    22.736866    19.327395    7900.7014    5391.0596    5992.6178    6267.4242   -189.60308    255.29687     585.3739   -3969.8708 
14804000    190.14706   -4964.3141   -4583.9965   -4964.3141            0     7151.023    17.771473    23.102394    19.187199    7877.5647    8085.8159    6202.3048    7164.9483   -325.36515    200.70312   -399.23885   -3762.4426 
14805000     195.1327   -4992.6806   -4602.3911   -4992.6806            0    7587.7943    17.920051    22.746699    19.277793    7858.0525    7975.5681    7721.1465    7066.6684   -55.952104   -470.74279    172.03992   -3732.8174 
14806000    196.73254   -4969.4452   -4575.9558   -4969.4452            0    8767.7726    18.099407    22.285548     19.47561    7855.5889    8279.0954    10418.383    7605.8396    1113.0072    583.91391    93.988631   -3571.4697 
14807000    183.77717   -5004.6106   -4637.0335   -5004.6106            0     7507.738    17.793997    22.997604    19.199565     7856.832    8332.2337    6613.0704    7577.9098   -1231.9727   -169.05294   -1751.5433   -3776.7681 
14808000     188.4695   -4990.6624   -4613.7001   -4990.6624            0    6925.3413    17.741297    23.097624    19.227734    7879.1751     7776.282    7153.8448    5845.8971   -734.23844    171.98203   -466.32881   -3817.9113 
14809000    190.72242   -4989.3163   -4607.8479   -4989.3163            0    9634.4568    17.933243    22.706304    19.165261    7804.0495    8978.8963     9793.322    10131.152    1209.8809   -569.94438    334.78535   -3511.3112 
14810000    186.04258   -4983.9432   -4611.8351   -4983.9432            0    9249.0745     17.95256    22.677578    19.220032    7824.8705    9569.7088    9550.8432    8626.6715    138.60248    269.69539   -939.99847   -3556.3519 
14811000    190.08753     -4972.19   -4591.9914     -4972.19            0    7998.2478    17.830151     22.94332    19.236907    7869.4892    8466.5825    8084.6928     7443.468    177.95462   -79.295567   -1389.0041   -3674.0451 
14812000    197.78417   -4973.8217   -4578.2289   -4973.8217            0    6150.8294    17.943857    22.942646    19.233301    7917.9568    5364.7486    7238.9513    5848.7882   -361.70461    1109.6927   -1181.3028   -3867.9602 
14813000    201.58511   -4994.4691    -4591.274   -4994.4691            0    6359.5191    17.962666    22.756721    19.350596      7909.97    7776.9757    5006.1842    6295.3975   -563.29065   -927.52523   -248.42304   -3857.6475 
14814000    187.52495   -4993.5386   -4618.4656   -4993.5386            0    7174.5976    18.056748    22.804248    19.096339    7863.3101    6275.3113    7094.1201    8154.3615    765.80958    436.08489    1485.8983   -3795.6948 
14815000    184.10571   -5004.1596   -4635.9254   -5004.1596            0    5789.4436    18.003746    22.992925    19.097306    7905.4976    5342.6591    4195.5586    7830.1131   -124.57696    -994.5134    1230.4426   -3968.4398 
14816000    190.55148   -4977.5691   -4596.4426   -4977.5691            0    5822.4694    18.040034    22.942025    19.203754    7947.9521    6125.4466    5608.3872    5733.5743   -348.06568    910.56379   -682.07642   -3921.5443 
14817000    188.75989   -4999.9211    -4622.378   -4999.9211            0    6840.9063    17.942401    22.823475    19.238134    7878.1684    8050.3051    6477.9419    5994.4718   -175.50795    549.66459   -231.92351    -3836.392 
14818000    188.36812   -4983.4692   -4606.7097   -4983.4692            0    8572.4846    18.017779    22.618754    19.266076    7851.6909    9117.8435    8158.3096    8441.3008   -736.86905   -45.985539    1175.0616   -3625.0843 
14819000    190.19855   -5022.0423   -4641.6217   -5022.0423            0    6389.2927    18.126554    22.670339    19.178478      7881.11    5619.2263    7300.6664    6247.9853    -75.68129     315.0732   -128.28826   -3907.2497 
14820000    192.16065   -4987.9662   -4603.6212   -4987.9662            0    7904.3659    18.021747    22.743439    19.169416    7857.0934    6472.0714    8212.4817    9028.5447    402.67407      625.278    2004.4133   -3697.8785 
14821000    188.55059   -4986.0964   -4608.9719   -4986.0964            0    7949.4785    17.990872    22.853889    19.153552    7875.2013    7041.6758    7505.5834    9301.1763    994.76722   -302.83639     340.3017   -3695.9605 
14822000    194.50584    -4962.946   -4573.9103    -4962.946            0    8325.4623    18.028447    22.777863    19.215065    7890.6567    7940.7332    7700.3222    9335.3315    1233.9967    -558.4319    42.742471   -3615.8399 
14823000    185.52977   -5011.7088   -4640.6263   -5011.7088            0    7294.5626    17.836057    22.812407    19.325859    7863.3709    8122.3086    6926.5315    6834.8478   -1910.6623   -168.19434    202.32568   -3804.0917 
14824000    182.00953   -5000.8938   -4636.8523   -5000.8938            0    6637.9816    17.795414    22.956177    19.289722    7880.1343    6672.0448    5559.8179    7682.0821    45.173009   -180.96927    968.93394    -3873.991 
14825000    189.37577   -4998.0359    -4619.261   -4998.0359            0    7350.7478    17.923873    22.815601     19.27825    7883.7235    7503.5917    6907.3591    7641.2926   -467.33866   -3.9287637   -258.01429   -3774.1013 
14826000    190.67419   -4988.4027   -4607.0308   -4988.4027            0    8627.6365    17.979406    22.782546    19.194147    7862.2424    7098.8889    9446.7086     9337.312    -771.7207    398.61145    948.15577   -3617.7623 
14827000    185.12355   -5020.9829   -4650.7129   -5020.9829            0    7532.3024    18.069622     22.75514    19.170657     7882.529    6804.3793    7467.0734    8325.4545   -267.63902   -246.92139   -2811.1031     -3784.81 
14828000    193.22773   -4962.9025   -4576.4232   -4962.9025            0    7954.3646    17.998081    22.721173     19.21247    7856.6999    7878.1451    7492.1653    8492.7833   -669.74335   -1065.8472    149.14435   -3664.9969 
14829000    187.06821    -5006.598   -4632.4385    -5006.598            0    6806.6719    17.994944    22.821272    19.221589    7893.6821    5870.6728    7379.0567    7170.2864    1005.7342    620.34447     170.7382   -3848.8459 
14830000    196.42627   -4980.4585   -4587.5817   -4980.4585            0    7828.4772     17.89258    22.856708    19.202956     7853.346    8251.3918     6859.766     8374.274    1206.4569   -868.03322   -214.41817   -3690.9627 
14831000    191.32123   -4989.3631    -4606.697   -4989.3631            0    7164.5315     18.01015    22.779531    19.188439    7872.3024    6257.8528    6909.9785    8325.7633   -359.89582   -209.29345   -8.4371954    -3784.141 
14832000    190.04906   -5012.5057   -4632.3841   -5012.5057            0    8052.7639    17.906501    22.750232    19.299088    7862.0057    5998.6403    8966.6504    9193.0011   -1775.4278    646.87256   -1829.2545   -3709.0599 
14833000    195.49068   -4985.0362   -4594.0307   -4985.0362            0    8299.8537    17.766402    23.081254    19.111279    7836.9779     10645.38    6606.6427    7647.5383   -1185.8678    1127.8735    447.02848   -3645.4049 
14834000    193.23845   -4967.9891   -4581.4883   -4967.9891            0    8884.5154    17.952242     22.65226    19.268865    7835.8547    9431.3823    8229.2253    8992.9386    294.65192   -330.80652    1077.9331   -3566.1846 
14835000    191.02291   -5012.4189   -4630.3495   -5012.4189            0    6365.8023    18.028075     22.66039    19.355124    7907.0176     6973.373     6595.286    5528.7479   -656.76126    -26.61304   -427.31435   -3896.2723 
14836000     180.8985   -4983.4524    -4621.633   -4983.4524            0    7550.0595    18.079327    22.704838    19.196038    7879.7469    6913.7551    7305.0332    8431.3904   -256.98778    262.04453    -116.2718   -3753.9951 
14837000    190.00138   -4993.5868   -4613.5606   -4993.5868            0    8483.4288    17.967926    22.812752     19.10962    7832.9919     6646.795     8627.133    10176.358   -285.38882     835.0075    1575.5144   -3644.4463 
14838000    185.69867   -4987.4511   -4616.0308   -4987.4511            0    7062.8759    17.984846    22.810212    19.230302    7889.0036    6627.6905    6672.4664    7888.4709   -292.36295   -763.44897   -273.33539   -3803.4256 
14839000    181.24391   -5008.9942    -4646.484   -5008.9942            0    7136.7204    17.918283    22.786934    19.217595    7846.5961    5624.9963    8133.0103    7652.1545   -126.63453    490.98653   -225.01353   -3829.7966 
14840000    196.77611   -5019.7138   -4626.1373   -5019.7138            0    5509.0185    17.976942    22.859212    19.225388    7900.4565    5883.5052    5811.1818    4832.3683    575.88017    -579.7794    130.53051   -3991.3879 
14841000    185.15102   -5003.3224   -4632.9975   -5003.3224            0    5732.1589    18.000234    22.827174    19.250553    7909.9458    4879.5767    5420.2617    6896.6382    -882.4687   -408.95372   -736.36354   -3971.7445 
14842000    189.49443   -5003.8838   -4624.8715   -5003.8838            0    6704.0159    17.847246    22.980744    19.239221    7890.8322    7572.0481    5963.0519    6576.9475   -1142.0708   -497.50657     735.1468   -3853.3754 
14843000    190.12802   -4970.4784   -4590.1989   -4970.4784            0     9455.491    17.886931    22.746028    19.240573    7828.1547    9324.1623      9673.91    9368.4006    335.09901    49.619265    250.58642    -3510.707 
14844000    190.40347   -4994.7934    -4613.963   -4994.7934            0    7907.9632    18.086434    22.469528    19.330916    7855.9609    6494.2081     8331.446    8898.2356   -9.2332799    569.45585   -1213.4375   -3707.9387 
14845000    178.98113   -4998.9734    -4640.989   -4998.9734            0    7869.7665    17.789879    23.030634     19.09779    7824.5977    8802.0601    6638.8755    8168.3639   -995.37787   -374.16814    -1014.614   -3742.9406 
14846000    192.69997   -4996.3546   -4610.9309   -4996.3546            0    7368.3518    17.982796    22.926214    19.156313    7897.7157    6686.2024    7337.5233    8081.3298    -884.6603    33.983349   -487.57836   -3762.2435 
14847000    182.99999   -4985.4927   -4619.4701   -4985.4927            0    6206.0481    18.028502    22.655004    19.363767    7908.8551     5895.966    6841.2765    5880.9018    1368.7289   -620.59952    590.20088   -3903.6487 
14848000    197.15287   -5010.5291    -4616.199   -5010.5291            0    7828.8981    18.090724    22.523876    19.324038     7874.028     7807.538    6979.3706    8699.7856     787.2359   -513.39429    1855.1365   -3717.1705 
14849000    184.36451   -4988.2366   -4619.4848   -4988.2366            0    7386.1662    17.945036    22.863737    19.147879    7856.1946    8025.9776    7330.5968    6801.9242    629.17998   -1219.7301    605.11399   -3773.2182 
14850000    188.67094   -4996.5253   -4619.1601   -4996.5253            0    5417.7649    17.773956    22.984523    19.380648    7917.4966    6217.3229     5543.406    4492.5659    104.89691    214.51608     187.5357   -3993.5786 
14851000    189.67035   -5022.4144   -4643.0503   -5022.4144            0    8705.8222    17.826561    22.854537    19.216213     7829.027    8684.2353     8693.553    8739.6785   -1273.5763    280.28792   -1632.3017   -3649.0341 
14852000    190.65132   -4991.4864   -4610.1602   -4991.4864            0    7036.9742    18.011696      22.7034    19.275452    7882.2478    7333.2644    6256.2495    7521.4087   -417.65981    521.31813   -176.77797   -3801.2284 
14853000    190.59341   -4982.4665   -4601.2561   -4982.4665            0    7852.1425    17.997937    22.613006    19.328085    7866.2881    7067.9395    8289.3182    8199.1699   -816.78857    924.03047   -88.996531   -3700.4446 
14854000    196.51144   -5001.5087   -4608.4616   -5001.5087            0    4906.7817    17.862175    22.911111    19.385254    7933.2655    5595.7634    5899.9303    3224.6514   -767.97186    42.904585    510.78968   -4040.7541 
14855000    192.57195   -4962.3877     -4577.22   -4962.3877            0     8095.472    17.788039    22.960339     19.25186    7862.8334      10017.6    7401.7948    6867.0214   -222.78686    35.948174    813.69654   -3648.9012 
14856000     181.7408   -5005.0331   -4641.5291   -5005.0331            0    7081.8775    17.970726    22.782277    19.261617    7885.9765    7427.4632    6589.5299    7228.6395    308.71054   -1450.4581    108.87987   -3827.0503 
14857000     192.0563   -4992.5994   -4608.4631   -4992.5994            0    6565.7752    18.061022    22.689034    19.255238    7890.5487    6766.3272    6793.2405    6137.7578     1003.991   -1016.2679    1524.7806   -3852.9028 
14858000     186.5213    -4974.928   -4601.8624    -4974.928            0    7617.7469    17.878762     22.87029    19.229066    7862.6202    5465.2882    9478.2427    7909.7099    -838.4744     406.3689   -900.59013   -3728.3486 
14859000     186.9422   -4997.1395    -4623.232   -4997.1395            0    6666.0517     17.80594    22.990941    19.336132    7915.7354    6487.2481    6314.2196    7196.6874   -368.13889    750.91389   -417.25582   -3853.6838 
14860000    194.35233   -4987.1852   -4598.4565   -4987.1852            0    7511.7621      17.9045    22.846257    19.239501    7869.9336    8424.3613    7310.9859    6799.9392     728.6632    23.940815    1925.7187   -3736.2947 
14861000    197.02704   -4980.0072   -4585.9288   -4980.0072            0    8515.4149    18.124453    22.546005    19.249673    7866.0706    8469.6872    8562.6801    8513.8773   -1230.7941    71.145987   -2301.4639   -3609.0526 
14862000    187.72216   -4986.5841   -4611.1166   -4986.5841            0    6410.8523    18.127426    22.609571    19.296556    7908.7574    7244.0052    6284.4419    5704.1099    650.32496   -106.63762    -1412.468   -3871.6818 
14863000    187.42341   -5002.7472   -4627.8772   -5002.7472            0    7966.3265    17.921331    22.755533    19.294218    7868.3641    8404.2743    7555.7597    7938.9456     652.1638    327.62356   -56.153034   -3713.7252 
14864000    193.75588   -4982.1047    -4594.569   -4982.1047            0    7287.2548    17.697572    23.087564    19.192708    7842.0223    7504.2721    7226.8598    7130.6327    75.559789    427.90048    650.38658   -3761.1414 
14865000    192.48809   -4996.9233   -4611.9234   -4996.9233            0    8330.9543    17.938981    22.647918    19.323358    7850.7048    8070.8903      7902.92    9019.0527    -1019.275   -637.90001       851.91   -3658.0751 
14866000    177.88241   -4988.8327   -4633.0459   -4988.8327            0    8444.5974    17.962444     22.69807    19.264431     7854.355    8720.4463    8356.0195    8257.3264   -2374.3107   -394.78046    568.76901   -3665.7366 
14867000    176.94458   -4996.3987   -4642.4877   -4996.3987            0    6605.7613    17.951108    22.887136    19.168959    7875.5563    6733.7648    6712.0262     6371.493     3.119205   -99.874847   -993.42218   -3883.7704 
14868000    191.29607    -5013.451   -4630.8352    -5013.451            0    7732.0446    17.894148    22.850746    19.145901    7828.6562    6784.0231    8250.9261    8161.1845   -594.98613    230.98067   -226.93735   -3748.0451 
14869000    190.90118   -5013.1764   -4631.3504   -5013.1764            0    6283.8145    18.007281    22.578065    19.409855    7891.4562    7832.0222    6016.5199    5002.9014    336.34087   -339.30304   -909.84895   -3908.1538 
14870000     189.7279   -4999.2936   -4619.8143   -4999.2936            0    6711.3013    17.905568    22.658824    19.435352    7885.2934    7093.2419    7550.0023    5490.6596   -467.71124    1601.6105    85.069802    -3848.022 
14871000    188.35877   -5003.4844   -4626.7436   -5003.4844            0     7100.316    17.904394    22.890721    19.153423    7849.9247    5786.3899    7692.2947    7822.2634   -714.97512    411.17434   -56.269251   -3813.8774 
14872000    190.42447   -4974.2188   -4593.3464   -4974.2188            0    6859.1092    17.936147     22.89661    19.215052    7891.1794     8328.857    6068.8993    6179.5712   -952.49344   -297.97202   -1046.4061   -3803.9675 
14873000    189.27462   -4987.5075   -4608.9349   -4987.5075            0     9131.515    17.957871    22.764202    19.108666    7811.5577    6639.9226    8839.7951    11914.827    285.49885     462.6851     175.5498   -3568.6402 
14874000    193.78161   -4991.3527   -4603.7655   -4991.3527            0    8831.0471    17.928318    22.589506    19.318092    7823.6697    9664.4542    8755.0676    8073.6195    1347.2933   -449.28459   -1238.4687   -3596.1413 
14875000     187.0118   -4967.1881   -4593.1414   -4967.1881            0    7885.6096    17.797445    22.759239     19.41236    7863.0987    7402.9538    9377.2604    6876.6144   -693.92141     991.1103    111.37988   -3688.8573 
14876000    188.22878    -5004.877   -4628.3962    -5004.877            0    8014.1343    17.764265    22.917627    19.295874    7855.6359    8834.8555    7583.3546    7624.1928   -1729.6052   -186.78782     470.9215   -3710.2457 
14877000    178.50399   -4987.7764   -4630.7464   -4987.7764            0    5838.8674    18.079066    22.848179    19.135942    7904.5547    6370.1871    5324.0717    5822.3434    166.55599   -411.93805    909.51647   -3957.6428 
14878000    192.13646   -5010.0043   -4625.7077   -5010.0043            0    7170.9029    17.960163    22.842236    19.172769    7865.6341    5872.3497    7911.6935    7728.6655    874.43841    1054.0602   -489.15749   -3803.1176 
14879000    200.10078   -4983.4375   -4583.2112   -4983.4375            0    5800.9376    17.771728    23.050877    19.303963    7907.9441     5683.003    5080.7735    6639.0362    1483.8846    245.53941    554.54994   -3914.1934 
14880000     178.8437   -4991.6992   -4633.9897   -4991.6992            0    8031.1267     17.83026    22.621309    19.449576    7844.8662    9328.2012    8736.9493    6028.2294    315.63498   -412.99314   -351.48975   -3715.1539 
14881000    182.71417   -5004.4197   -4638.9688   -5004.4197            0     8182.994    18.028692    22.547741    19.268373    7832.7147    8347.5814    8457.7786     7743.622     456.1037   -366.54893   -1164.6837   -3704.2081 
14882000    197.36632   -4991.0842   -4596.3272   -4991.0842            0    5747.7906    18.065099    22.842243    19.187764    7917.7805    4057.6361    6851.0585    6334.6772   -1154.3298     1048.617   -594.81544   -3932.6142 
14883000    195.79378   -4983.6713   -4592.0595   -4983.6713            0    8754.2662     17.95664    22.831942    19.135517    7845.2742    7116.6549    8445.4192    10700.724    476.83382   -198.13376    2057.2709   -3590.4377 
14884000    182.90146   -4998.8462   -4633.0206   -4998.8462            0     8017.045    18.003769     22.75014    19.161993    7848.5278    8718.1262    8324.5138    7008.4951    2006.9648     254.2277    738.59863   -3715.3678 
14885000     181.0963   -4981.3867   -4619.1717   -4981.3867            0    7759.1535    17.916809    23.010611    18.997047    7832.0403    8020.0755    6521.5959    8735.7891   -660.20377   -323.88706   -652.28628   -3732.9036 
14886000    206.72682   -5005.1121   -4591.6329   -5005.1121            0    8296.3094    17.922168    22.797546    19.161247    7828.9299    8872.5708    8257.9732    7758.3842   -1646.0633   -183.53383   -1123.6717   -3644.3859 
14887000    188.98258   -5002.1526   -4624.1641   -5002.1526            0    6879.1425    18.029283    22.539092    19.355346    7865.3092    5814.1846    8337.6671    6485.5759   -131.37121    202.30176   -74.797851   -3835.0751 
14888000    184.52663   -4985.0147   -4615.9386   -4985.0147            0    6928.4204    17.994746    22.620556    19.401763    7897.5102    6533.4918    7241.6218    7010.1477     -220.511    -287.3116    2078.3081   -3817.9433 
14889000    183.46045   -4997.0692   -4630.1256   -4997.0692            0    7839.2612     17.81513    22.986505     19.13875    7837.4631    8582.3967    7064.3745    7871.0122    -137.6064   -675.63152    953.19793   -3734.0874 
14890000    187.93554   -4982.2233    -4606.329   -4982.2233            0    7264.2505    17.868815    23.052103    19.092434    7864.4364    4976.8853    7241.0473    9574.8189    22.005709    1098.4763     295.6038   -3773.1577 
14891000    181.07449   -4983.9782   -4621.8068   -4983.9782            0    6759.1215    17.954296    22.771537    19.297993    7889.9251    6487.8414     7942.276    5847.2471   -56.210387    1856.7176   -659.65452   -3844.0586 
14892000    191.93164   -4997.9283   -4614.0413   -4997.9283            0      7371.28    18.016946    22.574851    19.305919    7852.2943    7677.4547    7291.5303     7144.855    728.46474    -461.5897   -239.73746   -3769.8996 
14893000    186.69144    -4997.922    -4624.516    -4997.922            0    7640.2443    18.082522    22.573419    19.280261    7869.9003    6819.2859     7936.614     8164.833   -889.38574   -434.53785   -763.12671   -3747.6114 
14894000    183.62922   -4968.3461    -4601.065   -4968.3461            0    9964.7189    17.807392     22.91357    19.088226    7788.5868     10363.78     9518.297     10012.08   -323.69333    1285.8105   -994.47373    -3469.187 
14895000    186.46055   -4990.3703   -4617.4262   -4990.3703            0    7798.7084    17.900436    22.927289    19.188007    7874.9205    9161.5461    6899.2155    7335.3635   -123.16031    601.27617   -359.97285   -3721.7629 
14896000    185.18007   -4991.1503   -4620.7672   -4991.1503            0    8822.8864    17.945253     22.65823    19.328771    7859.2264    9234.1971    9367.7887    7866.6732   -487.78972    1042.3575   -1210.8435    -3609.499 
14897000    184.00308   -5007.4832   -4639.4543   -5007.4832            0     7374.667    17.971048    22.604888    19.360998    7865.0868    7122.2928    8769.5166    6232.1915     865.7115    1326.1489    582.75618   -3793.5488 
14898000    182.11437   -4996.6127   -4632.3615   -4996.6127            0    6106.8913    17.884666      22.9487    19.279872    7913.0346    7373.2924    5652.6192    5294.7623   -393.33733   -81.050245    1569.6064   -3927.6049 
14899000    196.86664   -4973.9673   -4580.2097   -4973.9673            0    9785.4431    17.886909    22.900588    19.034277    7796.8347    9056.3657    9857.9758    10441.988   -1290.1895      2040.02    -2012.159   -3467.5184 
14900000     185.1309   -5000.5757   -4630.2911   -5000.5757            0    5445.4009    17.952807    22.947917    19.257149    7933.5516    5423.4283    5203.8237    5708.9507   -212.03005   -580.22542   -203.71659   -4000.2434 
14901000    196.34227   -4969.5169   -4576.8081   -4969.5169            0    8143.4234    17.940121    22.782243     19.26739    7874.8946    7164.1717     9473.719    7792.3794    846.15637   -172.41508   -43.285982   -3641.5583 
14902000    187.95195    -4985.257   -4609.3299    -4985.257            0    8912.2007    17.891768    22.716349    19.340157    7860.5289    8678.5914    9762.5629    8295.4477    1486.5941    441.45944    819.30107   -3587.6553 
14903000    191.67487   -4990.0917   -4606.7183   -4990.0917            0    6815.9647    17.825824    22.805895    19.396983    7885.5303    6974.9326    7807.6411    5665.3202    1124.1296    508.83205    455.29847   -3822.8662 
14904000    189.51278   -5003.1017   -4624.0528   -5003.1017            0    6074.5763    17.879218    22.998789    19.206443    7897.6966     7032.152    5412.9344    5778.6424   -767.23058     710.5462   -353.16518   -3924.3843 
14905000    180.02559   -4981.4336   -4621.3602   -4981.4336            0    8204.4839    18.042575    22.860511    19.008957    7840.4818    6720.6629    8495.1104    9397.6786    342.24711    625.33996    334.10092   -3683.2153 
14906000    180.37407   -5003.6051   -4642.8347   -5003.6051            0     6890.836    18.152985    22.589759    19.194237    7871.0104    4706.8049    7483.1365    8482.5666    389.11597   -478.29195   -1673.7379   -3851.8314 
14907000    186.03055   -4990.5612   -4618.4771   -4990.5612            0    7334.7509    18.044801    22.700338    19.266396    7891.9601    6763.6937    7516.0448    7724.5141   -485.06022    161.02637   -535.17283   -3774.2756 
14908000    172.69619   -4975.9835   -4630.5698   -4975.9835            0    8739.5289    17.742178    22.918107    19.213196    7812.4146    9277.0706    9104.5194    7836.9968   -761.16868    46.509201    512.08012   -3634.8223 
14909000    183.58291   -4992.7639   -4625.5754   -4992.7639            0    8961.1391    17.681206    22.932447    19.312244    7830.5998    9308.4211    7986.3883    9588.6078   -133.18957    46.201166   -897.45773    -3602.202 
14910000    192.35807   -4989.8489    -4605.109   -4989.8489            0    7217.0184    17.862964     22.68613    19.453175    7883.2345    6859.6187    7724.0255     7067.411    -46.93637   -192.69339    241.68718   -3775.3764 
14911000    181.31615   -4990.2732   -4627.6185   -4990.2732            0    8668.7349    18.016278    22.436805    19.348568    7821.2274    8594.4048     9536.141    7875.6587    347.82803   -305.96193   -53.351549   -3638.8229 
14912000    191.04864   -4994.5103   -4612.3894   -4994.5103            0    6297.2307    17.807723    23.097349    19.171658    7885.5177    6609.6609    5395.4921    6886.5392    1595.1884   -153.27641    522.19504   -3888.1941 
14913000    184.01088    -4992.161   -4624.1166    -4992.161            0    6839.7158     17.90995     23.00929    19.099535    7870.8273    6210.6903    6156.0161    8152.4409    200.91175   -131.98545   -1248.8742   -3838.9996 
14914000    188.48368   -5001.4196    -4624.429   -5001.4196            0    8151.2817    18.074241    22.332825    19.440415    7847.1013    8686.3209    9251.0414    6516.4829    288.01828    922.54812   -275.60364   -3691.5806 
14915000    188.65586   -4996.8757   -4619.5407   -4996.8757            0    8362.1335    17.959746    22.612049    19.256429     7820.164    8484.8695    7967.0949     8634.436    324.14133   -728.92668    409.53168   -3665.8471 
14916000     199.5372   -4974.7383   -4575.6393   -4974.7383            0    9353.7763    17.836929    23.075468    19.025947    7830.9937    8441.5643     8643.606    10976.159    -682.2847    1204.6031   -1443.6429   -3507.3725 
14917000    183.21004   -4987.9122   -4621.4695   -4987.9122            0    6659.9792    17.988989    22.833486    19.200077     7886.457    6729.5833    6641.1338    6609.2206    1070.6655   -300.06235    841.97125   -3855.4661 
14918000    181.50164   -4961.6387    -4598.613   -4961.6387            0    8258.2582    18.043909    22.717939    19.125491    7839.9295    9291.6149    7379.6694    8103.4901    365.26972     244.0697    1564.8512   -3654.3858 
14919000    198.72835   -4982.2798   -4584.7985   -4982.2798            0    8082.4226    17.933499    22.721675    19.305304    7866.5086    9791.4193    7961.3214    6494.5271     474.1414    737.08079   -1524.7258   -3657.5429 
14920000    189.25506   -4990.0953   -4611.5618   -4990.0953            0    7472.7773    17.901424    22.794417    19.315336    7881.6716     7975.561    7822.3097    6620.4613   -342.39668    373.84776   -294.31864   -3752.5952 
14921000    191.74627    -4986.712   -4603.1958    -4986.712            0    6431.4968    17.770573    22.942174    19.374488    7898.8928    6078.4009    6501.7739    6714.3157   -1038.8457    723.72667    457.80043   -3862.3051 
14922000    187.62958   -5002.6228   -4627.3405   -5002.6228            0    8776.5044    17.807611    22.674982    19.438025    7848.8271    9999.4597    8951.1539    7378.8998   -836.38029    741.72216   -1629.5531   -3622.7195 
14923000    184.32859   -5006.5803   -4637.9003   -5006.5803            0    5464.8599    18.024364    22.700709     19.34237    7914.2373     4562.923    6581.6614    5249.9954   -275.87078    -215.2333    159.87848   -4007.1405 
14924000    182.26077   -4987.3202   -4622.7762   -4987.3202            0    7616.2442    18.059829    22.698511    19.182505     7863.508    8347.7339    7351.1942    7149.8046   -190.56778   -39.418794    367.05964   -3749.3362 
14925000    184.40755   -4993.6438   -4624.8059   -4993.6438            0     8296.977     17.94432    22.760432    19.210123    7845.8075    8151.8807    8814.3555    7924.6947    439.05786    204.32958   -1822.0779   -3675.4404 
14926000    192.06558   -5002.9055   -4618.7506   -5002.9055            0    8412.2653    17.883554    22.815574    19.236543    7848.9624     10083.71    7121.6249    8031.4608    158.91319   -235.05235   -1484.8915   -3655.8065 
14927000    187.07742   -4972.8157   -4598.6377   -4972.8157            0    7268.3467    17.957236    22.618511    19.394418    7877.3519    7569.9847    7143.6235     7091.432   -1410.9076    446.88842    -1283.261   -3763.6276 
14928000    197.45129   -5000.8973   -4605.9703   -5000.8973            0    6225.0434     18.00818    22.778326    19.256124    7898.7886    3943.6629     7210.817    7520.6502   -1161.3348     954.0699   -422.06481   -3888.8719 
14929000     189.0973   -4980.8132   -4602.5952   -4980.8132            0    6852.6919    17.912843    22.935977     19.18669    7882.8236    7750.2761    6633.2409    6174.5587   -52.249394   -86.391438   -1794.9905   -3814.7899 
14930000    187.29804    -4984.642   -4610.0228    -4984.642            0    7046.5739    17.921834    22.867252    19.224043    7878.4568    7910.9674    6102.2782     7126.476   -218.31021    -366.2433    391.59479    -3800.377 
14931000    182.46664   -4987.4646   -4622.5088   -4987.4646            0    8510.0204    17.906636    22.562353    19.372669    7826.8654     8778.792    8728.2281    8023.0412    1379.3582    1542.3848    369.45515   -3651.1171 
14932000    193.71744   -5000.0161   -4612.5572   -5000.0161            0    5812.2752    18.014265    22.672973    19.323608    7892.4753    4948.9117    6372.3033    6115.6105    646.90379   -426.26263    470.53762   -3943.5431 
14933000    190.30713   -5013.2571   -4632.6194   -5013.2571            0     7356.647    17.901413    22.719187    19.287948    7844.5151    8080.6018    7207.0926    6782.2466   -935.02553   -999.37774   -68.941492    -3790.988 
14934000    181.03628   -4996.1365   -4634.0416   -4996.1365            0     7223.777    17.799315    23.056445     19.19484    7877.3499    6908.0286    6138.0385     8625.264   -620.81466   -169.50657    528.85879   -3804.1519 
14935000    203.78382   -5008.0872   -4600.4944   -5008.0872            0    7143.3744    17.902306    22.967235     19.12706    7864.4059    6297.1725    7333.9237     7799.027    939.80743   -114.82187    80.283625   -3781.1901 
14936000    188.86772   -4977.7006   -4599.9419   -4977.7006            0    6492.9542    18.195946     22.61398    19.167865    7887.2456     5185.967    6312.1551    7980.7406   -1610.2463   -197.63096   -458.44605   -3853.0743 
14937000    178.34486   -4984.2417   -4627.5299   -4984.2417            0    6599.1785    18.094595    22.727612    19.238171     7911.639    6141.3423    6497.2807    7158.9125    912.60499    352.82456   -1382.5801    -3866.096 
14938000    197.85474   -4995.8788   -4600.1449   -4995.8788            0    7200.4745    17.854452    22.858998    19.321971    7885.9704    7652.5004    6967.7627    6981.1606    575.25834   -1165.3149    1.0242826    -3772.027 
14939000    184.01329   -5004.9447   -4636.8954   -5004.9447            0    7560.3435    17.768825    22.849247    19.320233     7844.097    9507.7825    7357.1016    5816.1464   -424.52293    -290.2178   -218.53815   -3772.0064 
14940000    193.69014   -4969.8821   -4582.4779   -4969.8821            0    9508.7596    17.816542    22.870127    19.252492    7844.7469    10927.048    8232.1865    9367.0442   -2134.3164   -1478.8813   -122.75141   -3494.6037 
14941000    194.32822   -4994.6498   -4605.9693   -4994.6498            0    6703.4261     17.99568    22.766766     19.27119    7895.4727    5844.9916    7308.0263    6957.2602    883.89909   -705.22581   -1146.7864   -3834.0875 
14942000    193.11599   -4993.2442   -4606.9883   -4993.2442            0    7420.4945     17.97202    22.820083    19.191439    7870.8505    6644.0404    8151.3633    7466.0797    131.55005    232.11331   -603.93431   -3755.2025 
14943000    180.26935   -4983.2515   -4622.6905   -4983.2515            0    6905.4069    17.948871    22.922297    19.151641    7879.5472    6361.6718    7419.5021    6935.0467    813.26721    163.61356    781.60578   -3829.1549 
14944000    184.40345   -4975.7401   -4606.9104   -4975.7401            0    6529.8949    17.902144    22.941804    19.222217    7894.7084    5252.5324    7620.7892    6716.3631   -1139.8044    28.393901    1291.4072    -3855.083 
14945000    189.43785   -4986.5682   -4607.6691   -4986.5682            0    7558.3605    18.122115    22.514213    19.271411    7862.8352    6975.5651    8608.0433    7091.4732    322.79185   -137.86402   -1170.7227   -3740.9414 
14946000    186.04481    -4994.025   -4621.9124    -4994.025            0    6777.1599    18.077349    22.717202    19.175212    7874.6226    5837.7158    7661.4612    6832.3026    1732.8085   -206.19212    1092.9613    -3843.601 
14947000    184.54362   -4982.6291   -4613.5191   -4982.6291            0    7408.4116    17.968045    22.851447    19.156306    7865.4995    7614.7738    7228.4885    7381.9724    50.446249   -152.07223     377.4993   -3763.6984 
14948000    185.00162   -4988.6877   -4618.6616   -4988.6877            0    6113.1757    18.017942    22.886491    19.205661    7919.7898    6179.8687    5586.9434     6572.715    657.06295    972.77455   -211.39776   -3912.5775 
14949000    187.46573   -4977.4345   -4602.4799   -4977.4345            0    6966.0386    17.858181    22.829763    19.366541    7895.7006    6296.7329    7446.7805    7154.6026   -1162.0335    326.24815   -1234.8726   -3800.3357 
14950000    183.73738   -4984.2031   -4616.7057   -4984.2031            0    7983.8599    17.815513    22.829451    19.252986    7830.5432    9214.1317    7027.0927    7710.3553    49.377625   -322.81079    695.33974   -3704.9454 
14951000    200.70504   -5013.1798   -4611.7449   -5013.1798            0    7427.1213    18.098768    22.454284      19.3469     7862.481    6941.2567     7870.905    7469.2023    65.844048    607.04351    306.31145    -3760.105 
14952000    183.36386   -4991.6039   -4624.8535   -4991.6039            0    6805.6714    18.039155    22.765619    19.214571    7890.8964    7643.9502    6031.4172    6741.6468    207.54758   -3.6313247   -1093.8114   -3841.6526 
14953000    184.99367   -5001.7771   -4631.7669   -5001.7771            0    7712.0855    17.947848    22.840011    19.129761    7841.8444    8149.4179    7331.4745    7655.3639    -1551.104    10.225989    370.59055   -3749.7723 
14954000    178.12204   -4998.0382   -4641.7721   -4998.0382            0    6343.1755    17.840542    22.900982     19.31603    7891.8719    5594.4716    6563.3638    6871.6913   -1653.1155   -1191.8438   -255.27208   -3911.7052 
14955000    185.64624    -5006.092   -4634.7765    -5006.092            0    7717.3505    17.814696    22.904495    19.237825    7849.7371     7466.149    7142.4338    8543.4686    1172.8225   -601.22211    1787.8963   -3751.2914 
14956000    182.08947   -4989.5122   -4625.3108   -4989.5122            0    8057.7465    17.894477    22.802816    19.202642    7835.5318    8047.4084    7920.7652    8205.0659    917.56217   -52.975862   -104.95195   -3704.5263 
14957000    178.49803   -4975.7262   -4618.7081   -4975.7262            0    5526.5742    17.962547    22.704598    19.391913    7908.6502    4651.4261    6377.3935     5550.903    242.02309   -997.72198    388.66973   -3981.2755 
14958000    189.48354    -4969.754   -4590.7635    -4969.754            0    7985.8118    17.869789    23.077511    19.051662    7856.7197    7876.9932    7906.1308    8174.3114    797.60667   -217.50643   -124.46198   -3675.7316 
14959000    191.79679   -4998.4685   -4614.8512   -4998.4685            0    7317.2592    17.937907    22.848531    19.196282    7867.6889    5521.8118     8228.075    8201.8908    47.908671    484.36616    473.09392    -3775.253 
14960000    195.91494   -4996.8448   -4604.9907   -4996.8448            0    7032.6008    17.982337    22.558852    19.411921    7874.6568    7757.3812    6905.5552    6434.8661   -227.65741   -1082.1691   -723.90447   -3797.3402 
14961000    187.47853   -4983.8762   -4608.8959   -4983.8762            0    7318.5242     17.79939    22.804822    19.438273    7890.2265     8732.767    6818.0747     6404.731    1044.5154    62.719393   -901.55178   -3766.7471 
14962000    182.85712   -4977.4177   -4611.6809   -4977.4177            0    8010.1677    17.813175    22.898061    19.254119    7853.5082    8253.2651    7434.0371     8343.201   -83.741487   -654.84695    108.81155   -3694.2334 
14963000    183.15718   -4982.5956   -4616.2586   -4982.5956            0    6033.7725    17.978935    22.875139    19.183248    7889.5064    7223.5289    5691.2283    5186.5602    319.86608   -685.54381    854.94866   -3922.0106 
14964000    185.69827   -4987.0989   -4615.6794   -4987.0989            0    7878.8022    17.974379    22.793389    19.168188    7853.1495    8688.4076    8046.3332    6901.6659   -2202.2793   -1076.5237    386.56106   -3713.3192 
14965000    179.03007   -5008.9537   -4650.8714   -5008.9537            0    8102.8466    17.754446    22.968255    19.219736    7837.5901     7840.758    8087.6592    8380.1227   -357.22834    581.08478   -2433.6754     -3724.69 
14966000    179.25361    -4979.094   -4620.5646    -4979.094            0    7311.9126    17.831336    22.852161    19.324066    7874.2588    7885.2055    7021.9071    7028.6251    465.52496    244.35989   -1166.6589   -3780.8793 
14967000    185.49414   -5010.3864   -4639.3752   -5010.3864            0    7010.2622    17.912934    22.671237    19.337514    7853.1266    7773.6856    6575.8368    6681.2641   -33.512249   -1124.0379    2036.3706   -3836.4913 
14968000    184.13615   -4966.4784   -4598.1833   -4966.4784            0    7241.9626    18.212179    22.668504    19.098385    7884.6322    5942.5785    6948.6642    8834.6452   -931.84528     89.78943   -8.2703476   -3765.4353 
14969000    186.86357   -4993.3076   -4619.5574   -4993.3076            0    6809.2478    17.892371    22.956559    19.131149    7858.0674    9128.0122    5612.3583    5687.3729   -644.70016   -1265.4211   -720.88539    -3839.205 
14970000    184.78233   -5006.9721   -4637.3846   -5006.9721            0    7513.9052    17.854361    22.802961    19.247591     7836.316    6400.8146    8361.7148    7779.1862   -103.72661    462.25814   -289.15522   -3778.6607 
14971000    183.06709   -4992.3499   -4626.1931   -4992.3499            0    8089.0913    17.850393    22.618104    19.466929     7859.618    9406.7252    8052.1715    6808.3773    91.763634    213.90111   -1465.2403   -3698.9853 
14972000    173.99513   -4991.3888    -4643.377   -4991.3888            0    8395.3925    17.702657    22.731663    19.452446    7827.8752     11545.07    7086.4091    6554.6982    499.10977   -1674.3189    259.65801   -3684.9462 
14973000    182.32413   -5001.3741   -4636.7033   -5001.3741            0    7779.8318     17.98732    22.582395    19.347772    7859.0027    7201.1982    8607.1208    7531.1764    188.35785   -309.27209    900.02273   -3745.0141 
14974000    196.92071   -5007.0575   -4613.1917   -5007.0575            0     7967.705    17.959582    22.725721    19.184697    7830.1274    8035.9552    7369.6415    8497.5183    -641.4074   -171.27928   -1156.3888   -3703.3246 
14975000    178.81877   -4982.8871   -4625.2275   -4982.8871            0    8157.9935    17.846373    22.897392    19.179723    7837.5136    6521.8709    8542.6396    9409.4699   -212.39664   -27.711173   -663.64587   -3692.7517 
14976000    190.51387   -5003.9858   -4622.9345   -5003.9858            0    7391.0904    17.797473    22.893109    19.307913     7866.806      9780.04    5783.5038    6609.7274   -583.36021   -1296.7799   -980.92843   -3774.9599 
14977000    200.96702   -4980.0133   -4578.0544   -4980.0133            0    6171.4522    17.933323    22.911811    19.286865    7924.6817    5604.8613    6379.6383     6529.857   -31.806886   -311.66109    1007.1316    -3864.799 
14978000    193.74458    -4984.186   -4596.6729    -4984.186            0    7372.4218    17.991056    22.676214    19.322499    7882.9815    8276.0703    6672.7573    7168.4377    238.72326    91.350271   -1111.6833    -3749.101 
14979000    203.39547   -5010.0993   -4603.2832   -5010.0993            0     7347.816    18.058077     22.67677    19.223764    7872.1094    5916.6417    7240.0739    8886.7324    453.25852   -784.63358   -969.35592   -3759.7051 
14980000    193.70398   -4964.1555   -4576.7236   -4964.1555            0    7996.4273    17.992816    22.937026    19.028734    7853.1906    7437.1996    7290.2932    9261.7893    -941.6174   -1099.3064   -360.92295    -3660.887 
14981000    197.10102   -4986.8557   -4592.6293   -4986.8557            0    9293.6538    17.878365    22.799613    19.185601    7820.4311    9797.0387    8905.8188    9178.1038     467.8316    44.940444   -50.753697   -3532.6605 
14982000    185.82275   -4986.7527   -4615.0842   -4986.7527            0     6094.667    17.874219    22.703938    19.425065    7882.9856    6510.2511    6250.6051    5523.1448   -8.6926769   -773.85431    -83.11628   -3914.4093 
14983000    186.12122   -4993.6872   -4621.4218   -4993.6872            0    8584.3716    17.645703    22.851708    19.425695    7833.1095    9709.4544    8876.0976    7167.5626    655.18197   -585.12504    106.34534   -3640.7615 
14984000    190.59581   -4981.0873   -4599.8722   -4981.0873            0    8377.2533    17.822579    22.850251    19.300058    7859.9566     10078.17    7684.0851    7369.5046   -832.96574    231.72885   -75.015265   -3639.5926 
14985000    187.69721   -5007.7905   -4632.3729   -5007.7905            0    8255.1063    17.913793    22.877069     19.15977    7851.9627    8042.6338    8543.3735    8179.3117    -192.9573    713.55651   -1049.9974   -3687.0574 
14986000    198.45414   -5019.0573   -4622.1245   -5019.0573            0     7413.626    17.920739    22.895911    19.149721    7857.3535    5965.8948    7605.6001    8669.3833   -536.04332   -351.39978   -340.57479   -3772.5864 
14987000      185.958   -4993.5841   -4621.6451   -4993.5841            0    6873.2158    17.972174    22.650643    19.344013    7874.5858    7593.1564    6816.9212    6209.5699   -392.34462   -139.61851   -355.33579   -3832.3061 
14988000    185.77677   -4976.1637   -4604.5872   -4976.1637            0    6006.3482    18.067433    22.598704     19.35562     7902.911     5451.438    6185.7779    6381.8288   -1031.6018    420.04992   -187.45948   -3912.3204 
14989000    186.43335     -4984.46   -4611.5703     -4984.46            0    7652.6911    17.950737    22.782389    19.218361    7859.5539    6673.0521    8085.7788    8199.2426   -973.15485    551.50541    322.86499   -3734.3918 
14990000    193.45135   -4989.1379   -4602.2113   -4989.1379            0    8029.4444    17.872669    22.876043     19.23417    7864.0048    8368.0613    8490.5538    7229.7183    1594.2255    1171.0163    21.938198   -3681.3268 
14991000    189.82637   -5012.0414   -4632.3652   -5012.0414            0    5710.2516    18.058131    22.867077    19.197515    7927.3584    5803.8813    6189.5595     5137.314    1375.4643    274.39388    718.39768   -3972.1894 
14992000    191.03683   -5005.1368   -4623.0395   -5005.1368            0    6439.7842    18.140559    22.732991    19.192809    7914.9061    6021.4998     5717.428    7580.4247    1002.6416    11.697677   -705.51342   -3879.6901 
14993000     200.6766   -4993.4469   -4592.0689   -4993.4469            0    9117.0255    17.946236    22.785393     19.14954    7830.4776    10102.343    9271.5111    7977.2224   -108.31643    63.019742   -72.203512   -3550.9093 
14994000    197.74575   -4992.8212   -4597.3053   -4992.8212            0     7180.362    17.739824    22.927469    19.330994    7862.4809    7704.7368    7703.1785    6133.1705   -1082.0436    448.31461      76.9755   -3773.9604 
14995000    193.15721   -4979.0634   -4592.7251   -4979.0634            0    5983.2525    17.796293    22.967295    19.362766    7914.1959    7164.0125    5531.9144    5253.8305   -621.46112   -368.92983   -412.36559   -3902.1355 
14996000    191.50812   -5002.1493   -4619.1094   -5002.1493            0     6537.118    17.893709    22.791097    19.291817    7867.5362     6203.231    7988.2886    5419.8344    167.72375   -156.47532   -281.05372   -3869.0408 
14997000    188.34289   -4995.0947   -4618.3857   -4995.0947            0    7046.7792    17.910862    22.833611    19.263135    7878.0378    6563.3743     7444.109    7132.8543   -956.19476    1339.2731   -1410.8796   -3808.7594 
14998000    186.52041   -4977.4436   -4604.3797   -4977.4436            0    6142.8571    18.079635    22.689327     19.34804    7936.8517    3826.3257    7551.4741    7050.7714   -655.58524   -411.14715    1766.2047   -3893.3389 
14999000    192.10716   -5005.1785   -4620.9405   -5005.1785            0    9640.9931    17.986872    22.707831    19.126454    7812.0633     9091.005     9677.016    10154.958   -129.32429   -690.10797    580.42496   -3522.5332 
15000000     199.3269   -4987.1493   -4588.4709   -4987.1493            0    6427.0023    17.965022    22.933246    19.166914     7896.697      6973.58    5894.4333    6412.9937    1427.2521   -34.998844   -493.69025   -3848.3037 
Loop time of 451.869 on 64 procs for 250000 steps with 1008 atoms

Performance: 95.603 ns/day, 0.251 hours/ns, 553.258 timesteps/s
194.4% CPU use with 32 MPI tasks x 2 OpenMP threads

MPI task timing breakdown:
Section |  min time  |  avg time  |  max time  |%varavg| %total
---------------------------------------------------------------
Pair    | 37.067     | 40.09      | 47.329     |  34.9 |  8.87
Bond    | 0.97608    | 1.2192     | 1.8921     |  15.9 |  0.27
Kspace  | 219.13     | 229.02     | 234        |  20.6 | 50.68
Neigh   | 2.1589     | 2.3111     | 2.4421     |   5.1 |  0.51
Comm    | 69.527     | 75.222     | 79.243     |  22.9 | 16.65
Output  | 0.56465    | 0.56498    | 0.56661    |   0.0 |  0.13
Modify  | 87.903     | 89.652     | 92.672     |  11.1 | 19.84
Other   |            | 13.79      |            |       |  3.05

Nlocal:        31.5000 ave          36 max          26 min
Histogram: 1 0 3 5 2 6 4 2 5 4
Nghost:        2905.03 ave        2923 max        2888 min
Histogram: 2 2 3 6 4 2 6 2 4 1
Neighs:        10580.1 ave       12214 max        8660 min
Histogram: 1 1 4 4 5 5 3 4 2 3

Total # of neighbors = 338562
Ave neighs/atom = 335.87500
Ave special neighs/atom = 2.0000000
Neighbor list builds = 5322
Dangerous builds = 0

unfix		3
unfix		2
unfix		1

write_data	data.final.${pid}
write_data	data.final.0
System init for write_data ...
PPPM initialization ...
  extracting TIP4P info from pair style
  using 12-bit tables for long-range coulomb (../kspace.cpp:340)
  G vector (1/distance) = 0.37929042
  grid = 24 27 32
  stencil order = 5
  estimated absolute RMS force accuracy = 0.0024513043
  estimated relative force accuracy = 7.3820302e-06
  using double precision FFTW3
  3d grid and FFT values/proc = 5355 672
Last active /omp style is kspace_style pppm/tip4p/omp
WARNING: Not all mixed pair coeffs generated from mixing. Use write_data with 'pair ij' option to store all pair coeffs. (../write_data.cpp:312)

write_restart   restart.lmp.${pid}
write_restart   restart.lmp.0
System init for write_restart ...
PPPM initialization ...
  extracting TIP4P info from pair style
  using 12-bit tables for long-range coulomb (../kspace.cpp:340)
  G vector (1/distance) = 0.37929042
  grid = 24 27 32
  stencil order = 5
  estimated absolute RMS force accuracy = 0.0024513043
  estimated relative force accuracy = 7.3820302e-06
  using double precision FFTW3
  3d grid and FFT values/proc = 5355 672
Last active /omp style is kspace_style pppm/tip4p/omp
Total wall time: 0:07:32
