LAMMPS (30 Jul 2021)
Processor partition = 0
  using 2 OpenMP thread(s) per MPI task
using multi-threaded neighbor list subroutines
variable        pid world 0 1
variable        phase world IceVI Liquid

shell cd ${phase}
shell cd IceVI
include Restart.lmp
echo both
log log.lammps
#include		in.partitions
include		in.temp
variable        temperature equal 280.94
variable	tempDamp equal 100.0
include		in.pressure
variable        pressure equal 11000.0
variable        pressureDamp equal 1000.0 # This is 1 ps
include		in.seed
variable        seed equal 745823

units		real
atom_style	full
read_restart	restart.lmp.${pid}
read_restart	restart.lmp.0
Reading restart file ...
  restart file = 30 Jul 2021, LAMMPS = 30 Jul 2021
  restoring atom style full from restart
  orthogonal box = (-0.14851418 -0.016555570 -0.12035515) to (24.878515 24.746557 22.930355)
  4 by 4 by 2 MPI processor grid
  restoring pair style lj/cut/tip4p/long/omp from restart
  restoring bond style harmonic/omp from restart
  restoring angle style harmonic/omp from restart
  1920 atoms
  1280 bonds
  640 angles
Finding 1-2 1-3 1-4 neighbors ...
  special bond factors lj:    0        0        0       
  special bond factors coul:  0        0        0       
     2 = max # of 1-2 neighbors
     1 = max # of 1-3 neighbors
     1 = max # of 1-4 neighbors
     2 = max # of special neighbors
  special bonds CPU = 0.002 seconds
  read_restart CPU = 0.008 seconds
include 	in.setup
variable	out_freq equal 1000
variable	out_freq2 equal 10000
variable	out_freq3 equal 1000

timestep	2.0

neigh_modify    delay 7 every 1

include		in.tip4p
# This is TIP4P/Ice

# create groups ###
group ox type 2
640 atoms in group ox
group hy type 1
1280 atoms in group hy

# set charges - beside manually ###
set group ox charge -1.1794
Setting atom values ...
  640 settings made for charge
set group hy charge 0.5897
Setting atom values ...
  1280 settings made for charge

# ### TIP3P Potential Parameters ###
pair_style lj/cut/tip4p/long/omp 2 1 1 1 0.1577 8.5
pair_coeff 1 1*2 0.000 0.000
pair_coeff 2 2 0.21084 3.1668
bond_style  harmonic
bond_coeff  1 450 0.9572
angle_style harmonic
angle_coeff 1 55 104.52
kspace_style pppm/tip4p/omp 1.0e-5
pair_modify tail yes

thermo          ${out_freq}
thermo          1000
thermo_style    custom step temp pe etotal epair emol press lx ly lz vol pxx pyy pzz pxy pxz pyz enthalpy

restart 	${out_freq3} restart.lmp.${pid} restart2.lmp.${pid}
restart 	1000 restart.lmp.${pid} restart2.lmp.${pid}
restart 	1000 restart.lmp.0 restart2.lmp.${pid}
restart 	1000 restart.lmp.0 restart2.lmp.0


include         in.dump
dump            myDump all atom ${out_freq2} dump.water.${pid}
dump            myDump all atom 10000 dump.water.${pid}
dump            myDump all atom 10000 dump.water.0
dump            myDump2 all dcd ${out_freq2} dump.dcd
dump            myDump2 all dcd 10000 dump.dcd
dump_modify     myDump append yes
dump_modify     myDump2 append yes


variable natoms 	equal  "count(all)"                        # NUMBER ATOMS
variable H      	equal  "enthalpy/v_natoms"                 # ENTHALPY-per-atom
variable Vol      	equal  "vol/v_natoms"                 # volume-per-atom
fix AVG all 		ave/time ${out_freq} 1 ${out_freq} v_Vol v_H file vol_enthalpy.dat
fix AVG all 		ave/time 1000 1 ${out_freq} v_Vol v_H file vol_enthalpy.dat
fix AVG all 		ave/time 1000 1 1000 v_Vol v_H file vol_enthalpy.dat




fix 		1 all shake 1e-6 200 0 b 1 a 1
Finding SHAKE clusters ...
       0 = # of size 2 clusters
       0 = # of size 3 clusters
       0 = # of size 4 clusters
     640 = # of frozen angles
  find clusters CPU = 0.001 seconds
fix             2 all nph aniso ${pressure} ${pressure} ${pressureDamp}
fix             2 all nph aniso 11000 ${pressure} ${pressureDamp}
fix             2 all nph aniso 11000 11000 ${pressureDamp}
fix             2 all nph aniso 11000 11000 1000
fix             3 all temp/csvr ${temperature} ${temperature} ${tempDamp} ${seed}
fix             3 all temp/csvr 280.94 ${temperature} ${tempDamp} ${seed}
fix             3 all temp/csvr 280.94 280.94 ${tempDamp} ${seed}
fix             3 all temp/csvr 280.94 280.94 100 ${seed}
fix             3 all temp/csvr 280.94 280.94 100 745823


run             250000
PPPM initialization ...
  extracting TIP4P info from pair style
  using 12-bit tables for long-range coulomb (../kspace.cpp:340)
  G vector (1/distance) = 0.37449136
  grid = 30 30 30
  stencil order = 5
  estimated absolute RMS force accuracy = 0.0032650198
  estimated relative force accuracy = 9.8325101e-06
  using double precision FFTW3
  3d grid and FFT values/proc = 5400 960
Last active /omp style is kspace_style pppm/tip4p/omp
Neighbor list info ...
  update every 1 steps, delay 7 steps, check yes
  max neighbors/atom: 2000, page size: 100000
  master list distance cutoff = 10.8154
  ghost atom cutoff = 10.8154
  binsize = 5.4077, bins = 5 5 5
  1 neighbor lists, perpetual/occasional/extra = 1 0 0
  (1) pair lj/cut/tip4p/long/omp, perpetual
      attributes: half, newton on, omp
      pair build: half/bin/newton/omp
      stencil: half/bin/3d
      bin: standard
Setting up Verlet run ...
  Unit style    : real
  Current step  : 4000000
  Time step     : 2
Per MPI rank memory allocation (min/avg/max) = 10.54 | 10.55 | 10.56 Mbytes
Step Temp PotEng TotEng E_pair E_mol Press Lx Ly Lz Volume Pxx Pyy Pzz Pxy Pxz Pyz Enthalpy 
 4000000    295.66796   -9051.8896   -7924.6685   -9051.8896            0    10059.591    25.027029    24.763112     23.05071    14285.612    9152.9096    12116.532    8909.3324   -605.45851   -210.82979    993.33229   -5828.8432 
 4001000    278.56358   -9024.3001   -7962.2887   -9024.3001            0    10115.877    25.034273    24.909942     22.90606    14284.272    10627.273    9662.5431    10057.813    221.79213    149.33912    276.26236   -5854.9347 
 4002000    278.47572   -9010.6599   -7948.9835   -9010.6599            0    11427.251    24.832241    24.898392    23.042906    14247.034    12370.079    11170.075    10741.598   -843.46931   -654.35382   -1070.8892   -5574.6479 
 4003000     286.9218   -9038.2005   -7944.3237   -9038.2005            0     11430.26     24.78808    25.052115    22.948824    14251.079    11926.854    9886.0311    12477.895    620.55859    61.452586   -481.27894   -5568.6885 
 4004000    282.36994   -9072.9286   -7996.4056   -9072.9286            0    9693.8514    24.915428    24.996165    22.949942    14292.998    10122.033    8376.5184    10583.003    6.8333848    230.21142   -248.62379   -5975.7348 
 4005000    285.12961   -9035.3694   -7948.3252   -9035.3694            0    10132.185    24.855944    24.998802    23.034694    14313.041    10324.432    9789.0161    10283.108   -547.96179    509.78175   -214.71055   -5833.3226 
 4006000    291.37818   -9020.4893   -7909.6228   -9020.4893            0    11161.229    24.959991    24.943275    22.919182    14269.114     9541.717    12343.378    11598.592   -460.38606   -952.14534    1642.1237   -5586.9667 
 4007000    283.88137    -9056.555   -7974.2697    -9056.555            0    10387.695    24.945503    24.753564    23.118943    14275.718    11221.652    11173.492    8767.9416    812.43543     321.8407    470.10853   -5811.5858 
 4008000    278.68415   -9040.4733   -7978.0022   -9040.4733            0    9633.3717    25.052122    24.997698    22.851283    14310.511    9340.5347    9589.3075    9970.2729    398.67987     75.84296    491.45057   -5967.4779 
 4009000    282.41258   -8977.4037   -7900.7181   -8977.4037            0    11359.561    24.952278    24.960225    22.921532    14275.862    10358.369    12763.324    10956.991   -812.25733    -149.2722    404.95197    -5535.671 
 4010000    284.11961   -9008.7408   -7925.5473   -9008.7408            0    11086.175    24.686233    24.931625    23.134759    14238.702    12088.996    10544.235    10625.294   -57.439411   -892.24717   -827.72451    -5623.427 
 4011000    276.57816   -9019.6183   -7965.1763   -9019.6183            0    11019.421    24.865848    25.004723    22.956563    14273.556    12563.256    9242.3744    11252.632   -532.93707    65.116066    706.22149   -5671.3165 
 4012000    286.91216   -9006.2411   -7912.4011   -9006.2411            0        10278    24.835158    25.035017    23.011222    14307.195     10864.01    9919.3385    10050.651   -403.65402   -827.86769   -702.74239   -5767.8372 
 4013000    288.09204   -9033.2681   -7934.9299   -9033.2681            0    10031.119    24.970928    25.009414    22.921852    14314.886    9603.1737     10183.42    10306.762    -256.3492     -424.497   -971.97487    -5840.754 
 4014000    270.20351   -9038.4093   -8008.2703   -9038.4093            0    10152.885    24.897588    24.842633    23.059781    14262.973    10569.128    10513.578    9375.9494   -1278.3064   -974.76955   -1018.8629   -5896.3602 
 4015000    286.74354   -9044.7046   -7951.5074   -9044.7046            0    9674.4642    24.917843    24.919327    23.026239    14297.818    9545.2616    10731.503    8746.6281    24.942591    938.33988    58.975304   -5934.1977 
 4016000      281.145   -9004.2117   -7932.3587   -9004.2117            0     10882.57    25.060746    24.891383    22.862141    14261.326     10151.84    11697.269    10798.601   -614.26397    149.31581    -1469.203   -5668.9276 
 4017000    281.77456    -9004.629   -7930.3759    -9004.629            0    12979.552    24.941937    24.750368    22.999448    14198.068    12017.625    14310.424    12610.607   -485.76152    494.43568     108.9664   -5242.7746 
 4018000     271.2382   -9034.5788   -8000.4951   -9034.5788            0    10549.017    24.947683    24.899648    22.962066    14263.772    11313.661    10092.833    10240.557    68.499087    627.96756    1140.9757   -5806.0623 
 4019000    276.55973   -9005.8562   -7951.4844   -9005.8562            0    11717.773    24.804732    24.884972    23.041923    14222.974    12093.571    11756.588    11303.162   -476.39676    392.39962    -665.4418   -5520.8961 
 4020000    283.92574   -9056.9598   -7974.5054   -9056.9598            0    10326.618    24.962867    24.964859    22.861816    14247.357    9724.8089    11011.904    10243.141   -34.210745   -465.98971    2110.1286   -5828.8088 
 4021000     282.6817    -9043.788   -7966.0764    -9043.788            0    10539.488    24.830825    24.918541    23.090774    14287.369    11903.135    10265.915    9449.4139    75.120393   -535.95963   -304.53162   -5769.9988 
 4022000    291.38825   -9030.9774   -7920.0725   -9030.9774            0    9992.5072    24.937225    25.067471    22.905827    14318.734    9643.2604    9975.1607    10359.101   -1155.2404   -188.54944    238.92189   -5833.3967 
 4023000    268.74745    -9031.489   -8006.9012    -9031.489            0    11004.902    24.753759    24.989926    23.075792    14274.561    11351.002    10890.842    10772.863    1.7281183   -659.15944   -262.30582   -5715.9025 
 4024000    294.84698   -9002.4626   -7878.3715   -9002.4626            0    10737.838    25.000365    25.056402    22.860223    14320.082    9298.1667    11596.224    11319.123    353.65492    451.08977    59.996645   -5635.8415 
 4025000     280.1075   -9029.0307   -7961.1332   -9029.0307            0    9366.6067    24.893194    24.880579    23.157606    14342.827    10103.742    10231.391    7764.6874    550.09512    799.50892    206.38554   -6001.8693 
 4026000    273.76496   -8962.4166   -7918.6997   -8962.4166            0    10289.767      25.0969     24.92651    22.859578    14300.452    9091.2233    11301.064    10477.013   -110.17901    -668.1231   -262.03814   -5772.6924 
 4027000    281.55671   -9013.3036    -7939.881   -9013.3036            0    9320.3172    25.023092    24.842364    23.054301    14331.309    8996.2884    10615.078    8349.5849    887.47167   -719.27372   -591.02172   -5991.8654 
 4028000    272.10276   -9022.6573   -7985.2775   -9022.6573            0    9031.2137    25.102915    24.863711    22.959138    14329.983    8206.6845    9623.6717    9263.2847    627.38585   -540.41317    624.15616   -6097.8613 
 4029000    269.39731   -8999.9722   -7972.9068   -8999.9722            0    10800.673    24.929788    25.014505    22.943846    14307.927    11212.213    10020.868    11168.938    260.21051    -711.9554   -237.91891   -5719.1689 
 4030000    271.45434   -8949.5436   -7914.6359   -8949.5436            0    10192.179    24.843941    25.128671     22.93846    14320.372    11293.048    9578.9062    9704.5812   -633.57334    234.25073     352.4817   -5786.0205 
 4031000    282.44789   -8985.4854   -7908.6653   -8985.4854            0    9385.9733    24.908594     25.11568    22.963174    14365.676    10061.886    8265.0787     9830.955   -780.55577   -984.67345    168.89103   -5942.2226 
 4032000    286.57929   -9023.7491   -7931.1781   -9023.7491            0    9089.8939    24.953858    24.959993    23.083917    14377.774    10095.575    9470.8704    7703.2361    678.11676    -97.40727    135.86884   -6025.1629 
 4033000    289.43083   -9051.6891   -7948.2467   -9051.6891            0     9630.654    24.856353    25.039116     22.99298    14310.396    9439.4498    8978.7371    10473.775   -582.21716    257.94735   -68.804598   -5938.3057 
 4034000    279.16658   -9081.9234   -8017.6131   -9081.9234            0    9262.7437    24.899522    25.006603    22.966424    14300.101    10337.925    8529.5383    8920.7676   -17.547974   -189.82475    596.90727   -6085.8466 
 4035000    275.66113   -9068.5676   -8017.6217   -9068.5676            0     11450.08    24.920771    24.879794    22.934537    14219.955    10985.827    11108.149    12256.265    318.37011   -105.97667   -64.844313   -5643.0644 
 4036000      279.954   -9040.9989   -7973.6866   -9040.9989            0    10577.461    24.993112      24.8708    22.922926    14248.861    9695.0704    12408.889    9628.4226    889.78881   -318.19383    1129.7337   -5775.6371 
 4037000    284.16289   -9049.0418   -7965.6833   -9049.0418            0    11160.403    24.876835    24.874468    23.032774    14252.636    11529.798    11608.959    10342.452    83.465884   -353.29151    1169.9842   -5645.8811 
 4038000     295.0821   -9049.3148   -7924.3272   -9049.3148            0        11108    25.015874     24.90926    22.876961     14255.25     11364.36    10321.697    11637.943    -418.5897   -583.83875   -482.57027    -5614.994 
 4039000    281.25605   -9068.2655   -7995.9892   -9068.2655            0    9849.8824    24.889109     24.77025     23.15521    14275.405    10169.925    10603.558    8776.1648   -698.14919    345.42222    1626.2691    -5945.321 
 4040000    281.69282   -9036.7615     -7962.82   -9036.7615            0    11415.429    24.899705    24.924828    22.895068    14209.157    12764.569    9114.6142    12367.103   -55.554071    157.61484   -327.93982   -5597.2466 
 4041000    283.28358   -9064.7475   -7984.7413   -9064.7475            0    12360.966     24.89023    24.873468    22.802017    14116.873    11851.868    11701.299    13529.732   -72.072023    271.11124   -98.594674    -5439.864 
 4042000     281.1909    -9035.653   -7963.6251    -9035.653            0    11036.357    24.822577    24.974973    22.985238    14249.542    12047.725     10253.89    10807.455   -164.31737   -834.44707    664.19674   -5670.1051 
 4043000    285.99119   -9008.6221   -7918.2933   -9008.6221            0    11320.695    24.680942    25.144915    22.945406    14239.923    12643.749    10249.628    11068.707    111.78297   -739.08387    1620.0924   -5567.2717 
 4044000    274.32724   -8998.7928   -7952.9323   -8998.7928            0    10901.698    24.866163    25.010169    22.914401    14250.625    10107.566    10468.746    12128.781    37.845453    469.56565    1972.2896   -5687.2243 
 4045000    264.99759   -9024.5487    -8014.257   -9024.5487            0    11928.625    24.776243    24.931765    23.020773    14220.287    11821.178    11912.659    12052.037   -1464.8887   -1073.4013    917.47652   -5540.3999 
 4046000    289.63528   -8994.8965   -7890.6747   -8994.8965            0    12386.368    24.862786    25.006644    22.878111    14224.118    12017.189    12256.677    12885.238   -555.64038   -90.611242   -404.71952   -5321.1948 
 4047000    281.09666   -9032.0859   -7960.4172   -9032.0859            0    11564.951    24.751466    24.885788    23.074448    14212.931    12320.972    11899.411     10474.47    124.85205    1305.6414    454.51091   -5563.2223 
 4048000    284.88378   -9050.8132   -7964.7063   -9050.8132            0    10932.267    24.945989    24.866705     22.95663    14240.561    10319.343    11973.361    10504.096    184.36496    570.32959   -459.63768   -5694.2498 
 4049000     277.0177   -8979.7758    -7923.658   -8979.7758            0     11409.75    25.048414    24.879729    22.902055    14272.509    10350.046    11534.522    12344.682    801.93135    104.99186   -1032.8191   -5548.7196 
 4050000    281.67322   -8974.1558   -7900.2891   -8974.1558            0    13460.508    24.894446    24.772356     22.94999    14153.123    13545.494    13721.186    13114.844    483.24739    -1021.056     716.8176    -5121.922 
 4051000    285.02899   -9025.2854   -7938.6249   -9025.2854            0    11522.564    24.945303    24.895108    22.923096    14235.609    11131.942    10883.516    12552.234    -248.0118   -1158.5918   -120.05453   -5546.4051 
 4052000    291.89612   -9054.7454   -7941.9043   -9054.7454            0    10775.246    24.944986    24.970104    22.855531    14236.228    11156.691    10085.594    11083.453    -88.86746   -626.86295    522.17044   -5704.7393 
 4053000    280.02006   -9013.6534   -7946.0893   -9013.6534            0    11091.237    24.870947    24.875167    23.034415    14250.678    10730.198    12914.146    9629.3664   -595.72733    -384.5653   -231.00022   -5640.9807 
 4054000      279.577   -9001.6297   -7935.7546   -9001.6297            0    10255.951     25.10419     24.90749    22.891468    14313.631    9293.9335    11055.916    10418.003   -1440.8454    299.59921     428.5369   -5794.8287 
 4055000    289.44785   -9017.7716   -7914.2644   -9017.7716            0    11777.873    24.840425    24.819242    23.063343    14219.024    13391.232    12516.728    9425.6573   -231.03826     313.3364    557.40099   -5471.8883 
 4056000    281.18241   -8983.6243   -7911.6287   -8983.6243            0    11177.558    24.899677    24.978816    22.958464    14279.348    10118.672    11907.114    11506.889   -1084.9612   -99.484405   -263.75545   -5583.9062 
 4057000    274.70621   -9004.5834    -7957.278   -9004.5834            0      11165.4    24.757147    25.040266    23.040673    14283.501    12515.759    10312.782    10667.659    168.55796     683.4349   -357.00967   -5631.4112 
 4058000    279.26034   -9037.8571   -7973.1894   -9037.8571            0    11186.254    24.832845    24.967968    22.949294    14229.152    12065.543    10206.663    11286.554   -74.832959   -71.212724    568.67335   -5651.8451 
 4059000    283.43927   -9028.3139   -7947.7141   -9028.3139            0    12667.733    24.909717    24.914885    22.876503    14197.678    13449.655    11067.281    13486.262   -557.89886    290.56761    301.16116   -5324.7516 
 4060000    271.73229   -9037.4206   -8001.4532   -9037.4206            0    10625.756    25.001957    24.755902    23.058569     14272.01    9566.4355    12941.983     9368.849   -862.63739   -767.17904    67.457293   -5789.7805 
 4061000    278.51684   -9044.6647   -7982.8314   -9044.6647            0    10438.742    24.999971    24.911537    22.946193    14290.607    10047.167    10556.789     10712.27    872.46528    1531.5747    374.56391   -5807.2531 
 4062000    284.54858   -9017.8895   -7933.0605   -9017.8895            0    10335.199    25.031473    24.954688    22.919172     14316.52    9106.2967    10005.213    11894.088   -217.90933    137.33167    253.85401   -5775.1561 
 4063000     283.6613   -8983.5206   -7902.0744   -8983.5206            0    10222.074    24.927763    24.974905    22.999825    14318.967     10680.52    10488.087    9497.6141    1104.8712   -372.92123    1100.8845   -5767.4249 
 4064000    290.70724   -9050.9773   -7942.6687   -9050.9773            0    10526.902    24.863937    24.996743    23.009431    14300.762    11251.551    9851.4696    10477.685    405.78688    295.55127   -1080.4763   -5747.1576 
 4065000    280.57045   -9086.2618   -8016.5993   -9086.2618            0    8820.4279     24.86188    25.144892    22.960797    14353.926    9570.7024    6795.0543    10095.527    533.39829    -428.5798   -115.29983   -6170.1548 
 4066000    289.31881   -8982.3309   -7879.3156   -8982.3309            0    10011.777    24.922616    24.972302    23.033032    14335.185    9496.9456    11574.139    8964.2466   -81.014159    488.63868    821.09105   -5786.2137 
 4067000    276.54992    -9051.801   -7997.4666    -9051.801            0    11097.106    24.848153      25.0472    22.907445    14257.059    12454.723    10007.974    10828.619   -647.44981   -431.78525    872.55219   -5690.1056 
 4068000    278.79273   -9051.7341   -7988.8491   -9051.7341            0    10578.384    24.793806    25.063487    22.969207    14273.507    10834.204    10166.582    10734.365   -1134.3855   -1262.2539    824.89647   -5786.8055 
 4069000    283.28542   -9077.3233   -7997.3101   -9077.3233            0    11169.041    24.860624    24.967715    22.931357    14233.791    11788.103    9332.2212    12386.798    348.22685   -1705.3052    967.79608   -5678.7821 
 4070000      270.453   -9007.2294   -7976.1393   -9007.2294            0    11534.663    24.729058    24.970451    23.026792    14218.945    13388.067     11212.57    10003.352    -501.5223   -380.09285   -657.05061   -5584.2108 
 4071000    287.92409   -9047.4435   -7949.7456   -9047.4435            0     9811.837    24.946868    24.997404     22.91549    14290.259    10587.909    9326.3967    9521.2056   -406.91311   -811.65982    671.23152   -5904.8727 
 4072000    286.32055   -8992.4189   -7900.8344   -8992.4189            0    12279.883    24.817142    24.711087    23.198738    14226.825    12752.052    12962.282    11125.315   -705.92781   -257.76765    281.47193   -5352.9595 
 4073000    265.87403   -9056.1318   -8042.4987   -9056.1318            0    11014.182    24.985202    24.858653    22.925559    14239.029    9022.5043    11960.386    12059.654   -307.51603    157.36889    17.304344   -5755.2758 
 4074000    284.25668   -9009.4203   -7925.7042   -9009.4203            0    11622.888    24.932483    24.838937    22.956853    14217.096    11358.485    12361.906    11148.272   -972.60822    225.79192    -496.8727   -5515.7942 
 4075000     286.8435   -8987.8761   -7894.2978   -8987.8761            0    11878.774    24.859546     24.90158    22.984237    14228.207    12542.597    12177.309    10916.415   -362.04684    341.66404   -991.06725   -5429.4071 
 4076000    284.52731   -9013.5232   -7928.7753   -9013.5232            0    12555.982    24.869943    24.987342    22.811329     14175.73    11901.838     12988.82    12777.288    1293.1357   -723.24583    642.50145   -5332.9706 
 4077000    283.90397   -9067.7944    -7985.423   -9067.7944            0     12348.37    24.781881     24.97586    22.863206    14151.154    12991.946    11544.533    12508.632    486.72533    220.01203    998.37815   -5436.9655 
 4078000     285.2584     -8995.13   -7907.5949     -8995.13            0     10650.62    24.803453    25.028098    23.005492    14281.424    12042.542     9578.849    10330.469    415.12717    988.67896   -712.76345   -5689.2845 
 4079000    277.64863   -9033.7267   -7975.2035   -9033.7267            0    11787.062    24.871838    25.043136    22.855216    14235.801     12821.04    10119.144    12421.003   -161.29462    -125.5438   -910.90738   -5528.0378 
 4080000    274.43752   -9005.5799    -7959.299   -9005.5799            0    10916.584    24.894814    24.911345    23.008115    14268.788    10980.067    10696.921    11072.764    592.24951    16.875947    1749.8189   -5687.6055 
 4081000    286.72943   -9008.4995   -7915.3562   -9008.4995            0    12331.474    24.989623    24.783667    22.948024    14212.503    10375.847    14169.208    12449.366   -1167.9594    162.90268    299.39309   -5359.3527 
 4082000    278.70752   -9019.0516   -7956.4915   -9019.0516            0    11750.493    24.934161    24.871642    22.914522    14210.522    10024.056    12544.667    12682.755    221.94193   -289.47446   -64.796787   -5521.2503 
 4083000    272.04847   -9043.5684   -8006.3956   -9043.5684            0    11039.844    25.033744    24.773087    22.954707    14235.663    10184.788    12373.992    10560.752    619.13349    -1390.634    1699.1469   -5714.3856 
 4084000    278.40477   -8959.0428   -7897.6369   -8959.0428            0     10620.79    24.936822    24.831011    23.069661    14284.884    10859.217    11001.553    10001.601    309.20359   -1141.5376   -377.58077   -5685.0036 
 4085000     271.2249    -9002.854    -7968.821    -9002.854            0    11268.625    25.045538    24.939654    22.823566    14256.216    10116.174    11603.813    12085.889   -9.7857526    -109.9841    297.12805   -5625.9353 
 4086000    283.46739   -9025.8492   -7945.1422   -9025.8492            0    9984.0878    24.884905    24.980577    22.997391    14296.082     10489.73    9294.8491    10167.685   -350.68414   -1237.6999   -148.74033   -5863.5229 
 4087000    276.42273   -8996.7606   -7942.9111   -8996.7606            0    12766.753    24.719594    24.989747    22.985113     14198.74    13563.395    11488.268    13248.595    447.94849   -1126.3665     155.6696   -5299.2476 
 4088000    284.11928   -8981.6091   -7898.4169   -8981.6091            0    11958.185    24.873747    24.983149    22.908842    14236.117    13297.883    11601.346    10975.325    627.16052    504.28762   -109.82889   -5415.6686 
 4089000    280.85057   -9072.8985    -8002.168   -9072.8985            0    10749.917    24.839271    24.897007     23.01303    14231.799    9636.6147    11614.351    10998.786   -555.89549   -775.60013    619.68352   -5770.9562 
 4090000    284.70427   -9026.2865    -7940.864   -9026.2865            0    10939.672    24.945722    24.847842    22.962904    14233.496    9778.2092    11506.587    11534.221   -345.63224    389.70399   -434.67821   -5669.9967 
 4091000    277.09521   -9047.3328   -7990.9195   -9047.3328            0    11457.475     25.00965    24.801851    22.931279    14223.943    10608.274    11255.364    12508.786   -301.85166    605.60191    193.54069   -5614.1624 
 4092000    270.63209   -8982.2019   -7950.4289   -8982.2019            0    11181.498    24.961691    24.868488    22.966674    14256.782    10863.354    11432.124    11249.017    655.33365    127.34414   -342.01052   -5625.5658 
 4093000    273.02539   -8974.3129   -7933.4156   -8974.3129            0    10659.661    25.037144    24.943594    22.867996    14281.438    10399.587    11238.546    10340.849   -477.24817   -972.90387    119.87762   -5713.2201 
 4094000    274.48091   -9002.6594    -7956.213   -9002.6594            0    10951.762    24.830975    24.878627    23.065735    14249.102    11124.413    10623.028    11107.846    270.48071    -237.1175    631.14722   -5680.3434 
 4095000    279.05473    -9093.466   -8029.5821    -9093.466            0    10181.061    24.872976    25.085598    22.840359    14251.321     10720.51    8916.9941    10905.677   -183.41579   -332.46701    437.26004   -5913.5413 
 4096000     281.4648   -9022.7791   -7949.7069   -9022.7791            0    10221.988    24.787969    25.040517    23.025495    14292.007    12042.675    8517.7866    10105.504    880.58887    418.65741   -1040.4413   -5819.0943 
 4097000    282.72626   -9018.4014   -7940.5199   -9018.4014            0    10796.699    24.907386    25.029693    22.904489    14279.213    10726.156    10327.299    11336.643    64.453622    -488.2122    574.52652   -5692.1323 
 4098000    271.11395   -9057.7447   -8024.1347   -9057.7447            0    10502.837    24.926295    24.930967    22.966251     14272.07    10931.362    9304.4755    11272.674    314.36098    252.42771    76.312404   -5838.0374 
 4099000    279.22085   -9010.9557   -7946.4384   -9010.9557            0    9435.1099    25.051035    24.987791     22.87588    14319.616    8926.6099    9517.7688    9860.9508    67.803499   -103.43359   -263.78679   -5976.0393 
 4100000    280.94857   -9071.4596   -8000.3556   -9071.4596            0    11059.224    24.831952    24.866945    23.045562    14230.515    11738.466    10681.762    10757.442     180.1532   -899.84069   -250.25426   -5705.1524 
 4101000    290.96728   -9069.6074   -7960.3074   -9069.6074            0     12297.21    24.926319    24.994307    22.763067    14181.757    11435.667    11801.253     13654.71   -447.65754    737.61772   -99.263498   -5416.9201 
 4102000    286.57444   -9005.7515   -7913.1991   -9005.7515            0    10840.233    24.923204    24.931088    22.927055    14246.014    10487.048    11404.625    10629.025    367.75752   -650.42677   -282.71183   -5660.9943 
 4103000    283.82879   -9030.3104   -7948.2256   -9030.3104            0     10132.74    24.977322    24.885587    22.986942    14288.116    8962.3104    11265.942    10169.968   -890.87259   -91.036408   -454.43894   -5836.7904 
 4104000    283.10524   -9055.4138   -7976.0876   -9055.4138            0    11478.104    24.894747    24.984399    22.905825    14246.972    11973.395    10735.492    11725.424   -247.12303   -81.046251   -38.104141   -5591.1961 
 4105000    285.45714   -9028.0381   -7939.7453   -9028.0381            0    10717.195    24.838281    24.959838    23.036287    14281.564    11864.722    9941.2592    10345.605   -647.81489   -960.27094    205.03211   -5707.5468 
 4106000    286.69753   -9076.9526   -7983.9309   -9076.9526            0    11044.093    24.872261    25.018568    22.836439    14210.394    11020.363    9161.5801    12950.337   -598.05118    388.89248    46.677439   -5695.1086 
 4107000    284.32868   -9042.7967   -7958.8061   -9042.7967            0    10725.792    24.858089    24.825695    23.122348    14269.248    10792.465    11200.482     10184.43    104.64335   -472.85703    438.99384   -5726.7436 
 4108000    289.42078   -9040.9828   -7937.5788   -9040.9828            0    11314.108    24.868803    25.113678      22.7953    14236.739    10979.258    9910.4656    13052.601    -219.0479   -680.63881    313.50222   -5588.4505 
 4109000    284.34983   -9054.4344   -7970.3631   -9054.4344            0    10261.129    24.822539     25.04701    22.964767    14277.893    11381.746    9175.3795    10226.262    -597.7453   -1173.5462    76.050048   -5833.7044 
 4110000    272.67381   -9023.0315   -7983.4745   -9023.0315            0    10692.685     24.83355    25.006876    22.993208    14279.001     11672.84    9279.8588    11125.356    106.78017   -1053.0983   -186.89702   -5756.7808 
 4111000    278.40245   -9020.1433   -7958.7461   -9020.1433            0      9968.67    24.973326     25.04502    22.884204    14313.096    9546.0995    9311.8312    11048.079   -72.866396     205.6128    473.62249   -5877.8678 
 4112000    274.07078   -8990.7736   -7945.8908   -8990.7736            0    9677.7528    24.953316    24.960632    23.018233    14336.918     9068.852    10210.995    9753.4118    42.669432   -1505.6356    192.17736   -5922.3767 
 4113000    283.02654   -9038.1209   -7959.0947   -9038.1209            0    9658.5756    24.897083    25.057004    22.940499    14311.346    10323.653     9234.758    9417.3162    14.738798    784.14206    252.90028   -5943.1925 
 4114000    293.07226   -8996.3372   -7879.0121   -8996.3372            0    12308.683    24.864244    24.900623    22.943432    14205.085    12783.905      11921.8    12220.345    644.07937    1211.0603    879.24562    -5329.064 
 4115000    294.50777   -9013.3149    -7890.517   -9013.3149            0    12342.461    24.895006    24.859372    22.937068     14195.16    12889.886    12239.386    11898.112   -442.33136   -135.76302   -698.99667   -5335.3578 
 4116000    267.99836   -8990.8077   -7969.0757   -8990.8077            0    12615.487    24.951594     24.88198    22.855937    14189.995    12785.325    12035.971    13025.163    141.06766   -527.06606    561.78715   -5358.3446 
 4117000    261.24063   -9002.1498   -8006.1814   -9002.1498            0    11795.601    24.915453    24.842111    22.959811    14211.032     11298.12    12102.994    11985.688    245.63418    -631.0246   -574.91368   -5561.5039 
 4118000    272.00302   -9058.1083   -8021.1088   -9058.1083            0    10569.986    24.945925     24.94009    22.905149    14250.521    11276.114    9649.0124     10784.83    8.8308069   -278.21889   -500.79643   -5824.3567 
 4119000    282.77269   -9041.0847   -7963.0262   -9041.0847            0    10861.584    24.951149    24.938013    22.888217    14241.782    10135.299    11014.393     11435.06    165.39472   -1020.6227    1094.3327   -5707.0558 
 4120000    275.20367   -9020.9885   -7971.7866   -9020.9885            0    10188.072    24.927468    24.925154    23.035087    14312.183    10423.982    10564.999    9575.2339   -392.46482    633.67188   -1655.8418   -5845.2456 
 4121000    282.30465   -9055.0511    -7978.777   -9055.0511            0     9520.929    24.916835    24.951381    22.966965    14278.779    10057.884     9324.762    9180.1405    293.70513   -81.871078    128.41366   -5996.1259 
 4122000    276.92737   -8994.0241   -7938.2506   -8994.0241            0    9088.1419    25.056242    25.016791    22.964273    14394.621    7773.2057    9612.3641    9878.8558    10.830301    444.28564   -192.70759   -6030.3699 
 4123000    271.90712   -9040.1818   -8003.5478   -9040.1818            0    10143.027    24.909772    24.963338    23.005677    14305.645    10201.989    10625.753     9601.338   -672.79207   -1037.2308    -870.7946   -5887.3762 
 4124000    289.64268   -9020.5287   -7916.2787   -9020.5287            0    10828.981    24.946341    25.059674    22.821728    14266.938    10683.393    9934.3412    11869.209   -242.22736    796.70427    209.87984   -5663.1071 
 4125000    282.20211   -8969.0216   -7893.1385   -8969.0216            0    13060.645    24.872079    24.867874    22.998865     14225.16    13439.108    13361.749    12381.079   -55.489554    697.57109    29.303778   -5183.5853 
 4126000    284.78793   -9030.9971   -7945.2556   -9030.9971            0    11865.805    24.794234    25.119392     22.79734     14198.55    12968.443    10977.301     11651.67   -496.78858    426.02675    147.49973   -5488.1881 
 4127000    289.91189   -9033.2992   -7928.0229   -9033.2992            0    11824.163    24.816805    24.934509    22.944189    14197.746    13362.586    10787.809    11322.093    693.75245   -508.50639   -485.71236   -5479.7168 
 4128000     281.1961   -9033.7853   -7961.7375   -9033.7853            0    11546.069    24.780716    24.988189    22.952309    14212.648    12180.756    11286.978    11170.473   -239.09122    445.72687    42.528533   -5568.5042 
 4129000     284.9278   -9021.3321   -7935.0574   -9021.3321            0    10486.589    24.869301    25.010471     22.98425    14296.041    11500.231    9049.5631    10909.973    633.50703   -815.18728    1178.9419    -5748.676 
 4130000    274.60979   -9049.1002   -8002.1624   -9049.1002            0    10162.647    24.938516    24.954178    22.933725     14272.12    9486.7611    11413.045    9588.1339    646.83555   -972.89319    689.63435   -5886.8662 
 4131000    274.23316   -9034.6953   -7989.1935   -9034.6953            0    12476.647    24.864237    24.848458    22.925887    14164.483    12694.125    12943.456    11792.359    54.472776   -729.24315   -900.51083   -5411.8369 
 4132000    277.81845   -9025.2539   -7966.0833   -9025.2539            0     11124.04    24.865578    24.990168    22.943263    14256.828    11937.282     10015.88    11418.959    958.38814       -500.6   -119.34913   -5653.1593 
 4133000    288.92178   -9081.5139   -7980.0123   -9081.5139            0    8870.7723    24.856765    25.035355    23.018097    14324.115    9654.3034    8331.8698    8626.1438    368.83678   -168.17928    680.03683   -6126.8856 
 4134000    272.73837   -9051.2542   -8011.4511   -9051.2542            0     10401.04    24.996587    24.936762    22.913799    14282.948    10011.887    10316.117    10875.114     968.5206   -704.37652   -141.71395   -5844.8922 
 4135000    281.60289   -9093.2764   -8019.6777   -9093.2764            0    10785.852    24.999077    24.839607    22.892691    14215.611    9218.4349    12489.502    10649.619    740.10356   -277.99805   -283.88226   -5783.5537 
 4136000    277.45872   -9012.1904   -7954.3912   -9012.1904            0    12118.762    24.970235    24.748369     23.03805    14236.883    11128.079    13567.145    11661.063   -408.01872   -510.85668    101.71882   -5438.1686 
 4137000    273.19869    -9019.744   -7978.1861    -9019.744            0    12210.716    24.910076    24.896953    22.913192    14210.418    12753.938    11764.785    12113.426    79.125102    986.98203    911.04414   -5447.5839 
 4138000    285.21735   -9036.2644   -7948.8858   -9036.2644            0    11768.525    24.956576    24.901408    22.872476    14214.189    11357.626    12925.546    11022.404    577.77039   -0.4080441    451.76006   -5509.2779 
 4139000     279.9735    -9067.559   -8000.1724    -9067.559            0    11474.029     24.79689    24.904926    23.012414    14211.655    11555.378    11081.484    11785.226    145.45063    1058.4339   -1479.9308   -5622.0373 
 4140000    284.58464   -9039.1231   -7954.1567   -9039.1231            0    10023.314    24.921031    25.064565    22.908499    14309.446    10881.687    9140.9709    10047.285    -335.4408   -168.99032    1044.6142   -5862.4054 
 4141000    272.30765   -9042.6073   -8004.4463   -9042.6073            0    9634.7097    24.927488    24.966023    22.977388    14299.753    9667.1687    9607.3918    9629.5686   -680.06501    379.08524   -470.81974   -5995.1542 
 4142000    266.82258   -9012.6569   -7995.4075   -9012.6569            0    10320.396    24.993728    24.810742    23.017216    14273.273     9812.959    11495.815    9652.4152    -158.2534    323.65882    209.96749    -5847.103 
 4143000    282.09123   -9031.2751   -7955.8147   -9031.2751            0    10298.875    25.043193    24.823624    22.989776    14291.889    9278.7353    11299.563    10318.326    113.81451   -369.93125    336.27678   -5809.1941 
 4144000    283.36796    -9041.928   -7961.6001    -9041.928            0    11643.069    24.992198    24.797072    22.973149    14237.226    10304.695    13053.235    11571.276   -124.43129    151.74678    365.37302   -5544.0875 
 4145000    285.68678   -8979.0138   -7889.8455   -8979.0138            0    11220.796    24.894941    24.993876    22.954098    14282.523    11641.919    10735.633    11284.835    16.741306   -221.85133    1714.9299   -5552.5992 
 4146000    278.89223   -9048.5053    -7985.241   -9048.5053            0    9129.2227    24.777613    25.066516    23.089133    14340.393    10989.505    8021.5038    8376.6588   -836.63409    841.03621    1679.2717    -6075.956 
 4147000    273.07931   -9012.7482   -7971.6454   -9012.7482            0    11244.476    24.924898    24.968263    22.879293    14238.503    11923.937    10678.235    11131.255   -605.61703   -750.70349   -378.57738   -5636.6854 
 4148000    282.15323   -9084.1608   -8008.4641   -9084.1608            0    10056.477     24.70216    25.085979    23.033526    14273.366    11723.981    8494.3911    9951.0585    615.11806    31.641108    402.31119   -5915.0837 
 4149000    275.48141   -9001.1121   -7950.8514   -9001.1121            0    10782.707    24.868229    24.958613    22.992359    14270.817    11069.203     10584.34    10694.576   -411.23123   -719.07944    307.99152    -5706.698 
 4150000    278.76516   -9048.9079    -7986.128   -9048.9079            0    10022.289    24.938806     25.12238    22.818923    14296.561    11091.582    8752.4314    10222.852    465.91169   -849.33752   -13.533807    -5896.474 
 4151000    294.70964   -9067.5612   -7943.9936   -9067.5612            0    10420.097    24.847024    24.917255    23.040223    14264.654    11968.477    9446.2176    9845.5961   -608.00679    744.27629    933.34893   -5776.2451 
 4152000    278.38908   -9051.6562     -7990.31   -9051.6562            0     10264.59    24.956729    25.065094    22.816595    14272.755    10571.355    8541.0249    11681.391   -806.80526    463.38233    609.64433   -5853.6996 
 4153000     275.2001   -8993.0802   -7943.8919   -8993.0802            0    10513.002    24.997577    24.856296    23.015201    14300.431    9956.7397    11689.923    9892.3437    322.62441   -939.25264    250.67868   -5751.3305 
 4154000    285.42093   -9092.1157   -8003.9609   -9092.1157            0    9423.4972    25.003514    24.772724    23.097964    14306.998    9503.7076    10317.804    8448.9804    -906.9107    1805.2024    671.79714    -6037.721 
 4155000    289.91028   -9063.6929   -7958.4227   -9063.6929            0    10483.206    24.991926    24.973262    22.861856    14268.768    9873.6697    9876.4063    11699.543    653.31614   -950.81719    732.38476   -5776.9162 
 4156000    269.05695   -9068.9379   -8043.1701   -9068.9379            0    12543.744    24.891793    24.767973    22.980075    14167.659    11846.444    13713.373    12071.415    310.72958    84.711481    613.82376    -5451.372 
 4157000    278.35015   -9038.4649   -7977.2672   -9038.4649            0    10534.795    24.834125     24.92983    23.093876    14297.662    11860.517    10302.471    9441.3982    190.29468   -905.46943   -789.25011   -5780.5862 
 4158000    285.04467   -9056.7118   -7969.9915   -9056.7118            0     10262.33    24.895795    25.038008    22.920846    14287.505    10743.743    8739.1067    11304.141    274.05197   -476.95152     883.7384   -5831.6441 
 4159000    282.07156   -9000.2989   -7924.9135   -9000.2989            0    9855.2078    24.753288    25.069257    23.050586    14303.961    12093.973    8894.0183    8577.6318   -259.13278   -512.17558     1051.103   -5869.0323 
 4160000    281.94815   -9034.8256   -7959.9106   -9034.8256            0    11606.148    24.800728    25.044812    22.887307    14215.984    12624.812    10807.169    11386.463    52.838965    -1278.941   -712.72258   -5553.6597 
 4161000    267.32859   -9028.3357   -8009.1573   -9028.3357            0    11977.841    24.773282    24.921549    22.953827     14171.43    12743.282    11259.447    11930.794   -165.38054    216.77417    1093.1979   -5533.6277 
 4162000    281.05604   -9035.4603   -7963.9465   -9035.4603            0    9978.8646    24.933174    24.944476    22.982153    14293.635     9228.879    10315.848    10391.867   -79.191959   -271.03762    89.631321   -5883.7723 
 4163000    281.98539   -9035.7066   -7960.6497   -9035.7066            0    9522.3589    25.041708    25.050359     22.90206    14366.549    10282.495    7174.8598    11109.722    275.18952    856.06752    228.71455   -5965.5118 
 4164000    277.63963   -9046.7366   -7988.2477   -9046.7366            0    11197.313    24.873697    24.904086    22.993973     14243.77    11902.595    11063.946    10625.399   -878.66898   -513.13345   -426.51129   -5662.2211 
 4165000     274.9222   -8995.2362   -7947.1074   -8995.2362            0     12429.04    24.773517    25.002483    22.895555    14181.494    13539.038    10744.401    13003.681    64.387909    424.40549     720.9768   -5376.5018 
 4166000    286.72179   -9008.4545   -7915.3403   -9008.4545            0    11435.051    24.879738    24.947789     22.94877    14244.174    11063.035    11029.726    12212.392   -751.61819   -38.446175    1144.1736    -5539.861 
 4167000    265.09776   -9054.6805   -8044.0069   -9054.6805            0    9500.1127    24.884149    25.076249    22.974535    14336.136    10049.396    9599.6403    8851.3016   -1115.0188    123.70759   -395.68221   -6057.7439 
 4168000    283.24415   -8985.3773   -7905.5214   -8985.3773            0    11284.144    25.059034    24.927849    22.875302    14289.465    10258.946    11291.474    12302.012    -965.7723   -311.49053    214.23715   -5553.9375 
 4169000    274.86397   -9007.4831   -7959.5763   -9007.4831            0    10773.827    24.977853    24.843863    23.008651    14277.935    10804.594    11468.267    10048.621   -496.03656   -1004.2103    1206.1878   -5716.1527 
 4170000    281.06479   -9031.5345   -7959.9873   -9031.5345            0    13214.627     24.94761    24.847385    22.818322    14144.687    12714.611    13127.451     13801.82    1539.0199   -429.37767     789.9111    -5233.998 
 4171000    284.97303   -9049.3637   -7962.9165   -9049.3637            0    11629.031    24.891925    24.919938    22.890581    14199.147    11743.777    10802.258    12341.058   -898.45237    74.162323   -956.72669   -5554.7768 
 4172000    281.59777   -9038.9084   -7965.3293   -9038.9084            0    10786.535    24.806326    24.964342    22.967055    14222.891    10619.012    10615.763    11124.831   -380.75502    -162.4013    1217.7271   -5727.9184 
 4173000    280.84433   -9029.4953   -7958.7886   -9029.4953            0    12165.347    24.922573    24.914398    22.846871    14186.328    12104.023    12571.351    11820.668    565.25776   -206.97959   -339.53009   -5441.8629 
 4174000    284.78228   -9065.8336   -7980.1137   -9065.8336            0    12118.121    24.846006      24.7874    23.054483    14198.516    12063.197    12575.241    11715.924   -515.57534   -329.05787    19.035033   -5470.8049 
 4175000    281.68593   -9034.2036   -7960.2883   -9034.2036            0     11974.64    24.981127    24.940261    22.781386     14193.62    11049.602     11784.33    13089.988    214.96011    967.72032   -520.35035   -5481.5453 
 4176000    280.40723   -9054.6103   -7985.5701   -9054.6103            0    11650.951     24.90164    24.891954    22.904944     14197.64    11358.678    11800.819    11793.356   -326.30164    1159.9626   -278.11839   -5573.1472 
 4177000    277.43502   -8991.8839   -7934.1751   -8991.8839            0    13090.712    24.976133     24.75366    22.901764    14159.032    12687.342     13506.45    13078.344    192.38677    1400.5304    335.06294   -5231.0091 
 4178000    270.68601   -8990.7133   -7958.7348   -8990.7133            0     12015.23    24.921097    24.888065    22.936169    14225.881    11266.856    11990.257    12788.577    239.29037    -461.8358    190.19507   -5465.9365 
 4179000     282.5285   -9066.4391   -7989.3116   -9066.4391            0    9750.4895    24.967239    25.074455    22.865654    14314.812    9154.0621    9217.3828    10880.024    674.65021    304.04118   -198.45237   -5953.7326 
 4180000    278.41747    -9050.093   -7988.6386    -9050.093            0    10596.174    24.827148    24.978166    22.985374    14254.072    10779.891     10026.48    10982.151    155.20595    26.020231     1074.971   -5785.8951 
 4181000    277.75495   -9027.7432   -7968.8147   -9027.7432            0    11283.713       24.773    25.098598     22.90195     14239.69    12713.264    9924.9553     11212.92   -269.53706    19.056545    549.16206   -5625.5117 
 4182000     285.4739   -9001.1035   -7912.7468   -9001.1035            0    12499.874    24.685315    24.963464    23.079986    14222.602    13228.452    13262.624    11008.546     278.7326    357.27487    385.71443   -5319.9971 
 4183000    282.85322   -9044.0011   -7965.6356   -9044.0011            0    11627.357    24.862648    25.001805    22.900678    14235.315     11004.25    11586.114    12291.706    286.52244   -62.587599    338.38046   -5551.7095 
 4184000    283.98468   -9021.2645   -7938.5854   -9021.2645            0    12026.579    24.928451     24.86897    22.931204    14216.083    12566.906    12735.108    10777.724   -575.79241   -14.852572    100.33987    -5445.151 
 4185000    295.33629   -9015.0956    -7889.139   -9015.0956            0    11358.101    24.941581     24.90748    22.913996    14234.906    11501.572    11566.545    11006.187   -293.11494   -614.44138   -107.79755   -5531.1801 
 4186000    289.50753   -9022.8724   -7919.1376   -9022.8724            0    8875.5263    25.049596    24.871888    23.099597    14391.759    8230.4102    9253.2216    9142.9471   -594.83893   -1052.3484   -297.50977   -6056.2619 
 4187000    266.86452   -9034.1034   -8016.6942   -9034.1034            0    10255.704    25.067214    24.953447     22.84945    14292.637    8887.6127    10369.946    11509.552    291.75215   -1529.0543   -239.80496   -5878.9599 
 4188000    284.24795   -8996.4077   -7912.7249   -8996.4077            0    11775.378    24.910121    24.648861     23.18571    14236.168    11167.986    13114.704    11043.443    932.02398    164.50316   -9.5223777   -5467.9221 
 4189000    265.09444   -9024.5483   -8013.8874   -9024.5483            0    11270.341    24.913519    25.002775    22.828365    14219.951    11230.877    10633.841    11946.304   -711.76562    166.02146    77.076354   -5676.6059 
 4190000    293.10267   -9026.5793   -7909.1382   -9026.5793            0    10921.336    24.768818    24.946907    23.099036    14273.019    11792.029    10656.359     10315.62    860.65948   -270.74631   -147.71037    -5635.782 
 4191000    289.22002   -9059.8776    -7957.239   -9059.8776            0    10118.758     24.94305    25.017371    22.878597    14276.463    10546.762    10215.849     9593.664   -166.95143   -357.85086     711.6464   -5850.4369 
 4192000    281.39855    -8992.894   -7920.0744    -8992.894            0    11636.431     24.89618    24.948113    22.913211    14231.687    12549.482    10971.567    11388.244   -64.470727   -818.66701    1514.5821   -5504.8801 
 4193000    280.61976   -9028.7538   -7958.9033   -9028.7538            0    11291.008     24.92789    24.787983    23.026997    14228.661    10637.466    11557.342    11678.217   -894.99983    777.23605    198.26522   -5615.9014 
 4194000    275.60714   -9015.7695   -7965.0294   -9015.7695            0    10611.295    25.081308    24.869272    22.871474     14266.17    9817.1009    10796.099    11220.684   -908.41378   -698.16584   -197.16803   -5757.2704 
 4195000    286.21594   -9042.1085   -7950.9228   -9042.1085            0     10398.41    24.961929    24.833525    23.011629    14264.741    10607.298    11148.899    9439.0327    490.64443    593.07183    497.81896   -5787.6728 
 4196000    285.31877   -9022.8962   -7935.1309   -9022.8962            0     11038.51    24.980392    24.961337    22.858818    14253.479    11195.977    10231.268    11688.285   -480.45793    911.82224   -579.45147   -5640.5297 
 4197000    285.15357    -9059.292   -7972.1565    -9059.292            0    9012.3025    24.874948    24.949318    23.129632     14354.55    8354.6326    9240.2218     9442.053    440.18358   -686.44371    221.11981   -6085.4636 
 4198000    277.04877   -8986.1184   -7929.8821   -8986.1184            0    9795.4184    24.954395    25.106519    22.856726     14320.15    9931.9872    9397.5093    10056.759   -377.87354   -1389.5149   -717.32296   -5884.1609 
 4199000    284.56576   -9012.8319   -7927.9374   -9012.8319            0    10506.656    24.865941     24.97363    23.038767    14306.909    10628.005    10264.546    10627.417   -390.42568   -16.017991     412.8278    -5735.707 
 4200000    275.25573   -9009.4685   -7960.0681   -9009.4685            0    11840.356    24.873653    24.971369    22.939168    14248.186    11743.062    10790.077    12987.929    803.71247    1079.1628    -444.5743   -5499.6992 
 4201000    288.70194   -9007.2753   -7906.6119   -9007.2753            0    12872.735    24.845388    24.891925    22.937783    14185.861    12590.039     13378.19    12649.976    387.55525    1517.9425     1448.319   -5243.4202 
 4202000    283.99126   -9037.4779   -7954.7737   -9037.4779            0    13178.113    24.979134    24.759156    22.849873    14131.784    12803.217    14388.359    12342.764   -59.989839    206.55695    380.15854   -5238.7965 
 4203000    275.17743   -9070.5745   -8021.4727   -9070.5745            0    10354.148    24.942625    24.877307    22.931333    14229.015     10891.77    9669.1396    10501.533    1354.5012   -537.06903    -195.8568   -5872.8257 
 4204000    285.24572   -9016.1468     -7928.66   -9016.1468            0    11719.171    24.973321    24.914834    22.888569    14241.408    10730.339    11409.309    13017.865   -408.05876   -969.50837    229.29003   -5494.6313 
 4205000    277.99702   -9064.0689   -8004.2175   -9064.0689            0    10759.354    24.831067    24.998018    22.939528    14239.195    12262.186    9164.7321    10851.143    -467.2994   -516.81868    62.540549   -5769.8866 
 4206000    269.21055   -9075.8807   -8049.5274   -9075.8807            0    11350.095    24.811082    24.961692    22.933296      14203.2    12325.121    10196.292    11528.872   -742.35997   -598.28459   -195.97355   -5698.4789 
 4207000    279.75541   -9017.0444   -7950.4892   -9017.0444            0    12338.555    24.835358    24.871927    22.995373    14204.315    13238.358    12273.621    11503.686    118.13664   -63.133088   -190.38805   -5394.4913 
 4208000    278.92066   -9025.8268    -7962.454   -9025.8268            0    10505.661    25.029374      24.9036    22.917532    14284.991    9696.6718    11758.433    10061.878    948.73949    13.034916   -561.35754   -5773.7893 
 4209000    281.53201   -9001.3021   -7927.9736   -9001.3021            0    11172.581    25.023723    24.823088    22.967742    14266.782    10731.383    10804.806    11981.554   -931.86627    1387.4687   -1600.6462   -5603.3351 
 4210000    281.16946   -9021.6425   -7949.6963   -9021.6425            0    10384.371    24.950947    24.986279    22.921601    14290.044    10413.306    10237.701    10502.106   -474.61392    774.34879   -117.99883   -5785.5349 
 4211000    290.47432   -9047.2448   -7939.8242   -9047.2448            0    9831.6726    25.027855    24.988164    22.908787    14327.159    8495.6403    9410.6578     11588.72    38.854279   -81.727714   -41.076444   -5885.5266 
 4212000    278.29373   -9039.5346    -7978.552   -9039.5346            0    10573.909    24.925249    24.893033    23.013355    14278.983    10451.865    10250.828    11019.032      1074.46   -70.301636    1163.7799   -5776.5956 
 4213000    273.85494   -9030.7532   -7986.6933   -9030.7532            0    11040.201    24.965261    24.984409    22.876184    14268.843    10335.457    10135.405    12649.739   -685.75391    259.94115    44.716565   -5689.2668 
 4214000    282.23261   -9014.8491   -7938.8497   -9014.8491            0    12097.596    24.768275     24.92603    23.002392    14201.096    13351.707    12320.349    10620.731     456.9776    276.33557    816.33829   -5433.3357 
 4215000    281.94685    -9051.391    -7976.481    -9051.391            0    11654.171    24.845991    24.970614    22.860076    14182.841    11941.242    11576.201    11445.072   -283.02305    349.52147   -624.93113   -5565.9067 
 4216000     278.5388   -9057.8845   -7995.9676   -9057.8845            0    10599.323     24.94095    24.946591    22.906383    14252.161    10380.434    11392.284    10025.251    282.46723   -111.05562    820.41315    -5792.865 
 4217000    287.51483   -9031.0415   -7934.9038   -9031.0415            0    9947.4514    24.976825    24.782936    23.133253    14319.461    10202.893     12007.56    7631.9008    68.311179     825.0862   -40.169418   -5857.5312 
 4218000    282.76329   -9036.2754   -7958.2528   -9036.2754            0    10892.374    25.041858    24.889462    22.885524    14264.052    10127.121    10992.134    11557.868   -228.40816   -1352.6599   -181.31236   -5692.3496 
 4219000    269.15029   -9019.7636   -7993.6399   -9019.7636            0    11668.429    24.710828    24.856281    23.152838     14220.92    14156.521    11654.554    9194.2135    856.64622     60.19016   -163.15836   -5573.6365 
 4220000    281.91687   -9055.8914   -7981.0957   -9055.8914            0    10208.385    25.009023    24.984656    22.858174    14282.744    9253.6237    10530.113    10841.419    350.37227   -722.11421   -413.94793   -5854.6976 
 4221000     288.5455   -9062.7387   -7962.6717   -9062.7387            0    11168.653    24.889042    24.841029    22.994561    14216.834    10296.453    12328.926     10880.58   -81.786188    325.08924   -502.54447   -5646.9863 
 4222000    270.48346   -9002.9069   -7971.7006   -9002.9069            0    12807.739    24.816465    24.818796    23.029653    14184.303    12400.726    14401.423    11621.068    294.34737   -788.51596   -89.704064   -5322.2467 
 4223000    278.44294   -9034.4177   -7972.8662   -9034.4177            0    10289.021    25.014993    25.065845    22.829416    14314.545    10583.912    9721.9973    10561.152   -437.07693   -826.76142   -763.99344   -5824.8999 
 4224000    287.44692   -8981.4698   -7885.5911   -8981.4698            0    11465.575    24.944844    24.847337    23.010168        14262    11860.811     10470.97    12064.944   -68.850497    -234.7262    75.932427     -5500.79 
 4225000    282.57697    -9048.391   -7971.0787    -9048.391            0    10495.208    24.923664    24.909247    22.960799    14254.746    10749.892    10516.269    10219.462   -446.75361  -0.85131226   -156.84901   -5789.2211 
 4226000     290.7918   -9056.3332   -7947.7022   -9056.3332            0    11155.727    24.874701    24.917563    22.971448    14238.092    11024.428    10961.597    11481.155   -165.20699   -1161.6435    658.52722   -5631.2382 
 4227000    285.03542   -9019.6647   -7932.9797   -9019.6647            0    9419.6961    24.867901    25.077722    22.982381    14332.509    8830.0906    9522.3408    9906.6569   -438.10446   -170.71187    775.72099   -5964.0283 
 4228000    273.23232   -8972.4784   -7930.7922   -8972.4784            0    11164.897    24.865012    25.078253    22.918194    14291.122    12045.469    8927.4047    12521.819   -655.04823   -991.79485   -236.54651   -5603.7891 
 4229000    276.56919   -9021.5872   -7967.1794   -9021.5872            0    11440.911    24.881755    24.956894    22.918062    14231.459    12205.527    11081.454    11035.754   -748.28265   -489.55195    292.63261   -5592.6042 
 4230000    279.72279   -9010.7885   -7944.3577   -9010.7885            0    10001.832    24.975368    24.992754    22.888466    14287.054    9520.5057    10262.756    10222.234   -617.72499   -677.36234     107.7606   -5860.3557 
 4231000    286.29557   -9017.1476   -7925.6583   -9017.1476            0    10331.666    25.083643    24.775505    22.972477    14276.474    8406.7163    11987.226    10601.056   -958.87454   -1609.2884   -1385.4924   -5774.5255 
 4232000    284.72543   -9029.0669   -7943.5637   -9029.0669            0     10952.42    25.038023    24.846662    22.874652    14230.579    10103.476    11605.258    11148.528    427.36842   -139.08175    87.345484   -5670.5158 
 4233000    281.81669   -8970.4946   -7896.0809   -8970.4946            0    13999.775    24.914511    24.586146    23.042273    14114.586    12694.619     16385.54    12919.165   -447.69228    183.79832    155.46681   -5014.2726 
 4234000    283.37557   -9026.0241   -7945.6672   -9026.0241            0    10058.391    25.021622    24.953986     22.89343    14294.411    10032.147    9810.4783    10332.548   -168.67565    454.90345    114.89939   -5848.8013 
 4235000    277.81253   -9059.1963   -8000.0483   -9059.1963            0    10874.479    24.899091    24.958198     22.94361    14257.995    9795.3358    10386.417    12441.686    72.024462    -181.5908    566.10713   -5738.8282 
 4236000    285.58178   -9013.6366   -7924.8686   -9013.6366            0    12829.713     24.82804    24.900583     22.87347    14141.127    12840.289    13515.179    12133.671    480.75032   -738.61699    668.25262   -5278.9478 
 4237000    280.45376   -9038.0565   -7968.8388   -9038.0565            0    11740.328    24.760725    24.993119    22.923566    14186.197     13551.13    10688.208    10981.646   -391.48074   -706.76225   -459.37994    -5539.869 
 4238000    282.14101   -8972.8957   -7897.2455   -8972.8957            0    10757.213    24.883783    25.119984    22.864928    14292.414    10929.906    9391.0014    11950.732   -52.796837    542.68057   -1125.4181   -5655.0099 
 4239000    275.15411   -9003.4833   -7954.4703   -9003.4833            0    10325.653    24.831052    25.030103    23.018073     14306.28    12323.679    9025.4016     9627.877   -213.60199    110.29294    14.889282   -5800.1012 
 4240000    287.43802   -9011.7753   -7915.9305   -9011.7753            0    10649.729    25.021329    24.903883    22.893089     14265.33    9711.9346    11918.316    10318.937   -1620.2272    446.03472    1118.7691   -5700.3054 
 4241000    282.83639   -9015.7605   -7937.4593   -9015.7605            0    11285.133    24.991489    24.878925    22.893568    14234.337    9843.0892    11543.932    12468.377    568.07476   -450.14719    301.32622   -5594.7425 
 4242000    280.10742   -9003.2088   -7935.3116   -9003.2088            0    10357.667    25.016841    24.805763    23.090353    14328.991     10288.41    11716.801    9067.7888   -670.72615    1299.8914   -84.075781   -5770.8323 
 4243000    279.78769   -9027.7419   -7961.0636   -9027.7419            0    11624.279    25.030348    24.918917    22.837434    14244.374    10396.371    11487.297    12989.169   -652.41206    220.73108    495.76619   -5546.2408 
 4244000    282.73276   -9068.3238   -7990.4175   -9068.3238            0    10457.524    24.912767    24.954209    22.913051    14244.549     10626.96    10142.569    10603.043    -124.8872    325.54091    1180.8783   -5817.9493 
 4245000    283.50646   -9023.0556   -7942.1997   -9023.0556            0    10942.727    24.730733    24.948816    23.147645    14282.155    12345.631    9989.0123    10493.539    261.85665    674.67426     -147.794   -5662.9327 
 4246000    276.97067   -9029.8162   -7973.8776   -9029.8162            0    10295.987    24.941925    25.090528    22.820454    14281.178     11052.16    8498.7083    11337.092    374.39343   -725.50424    1545.5819   -5829.4672 
 4247000    291.54863   -9004.5857   -7893.0694   -9004.5857            0    11609.148    24.793751    24.955162     23.05308     14263.68    12561.517    10870.301    11395.626   -656.77545   -993.13797    329.66889   -5478.1212 
 4248000    273.77359   -9049.5073   -8005.7575   -9049.5073            0    10821.817    24.932622    25.012597    22.883506    14270.832    10453.982    10139.343    11872.126   -151.29466   -496.14121   -170.43608   -5753.4621 
 4249000    271.90687   -9066.8366   -8030.2036   -9066.8366            0    10183.546    24.923705    24.951164    22.950397    14272.288    9676.5389    10568.775    10305.325   -340.77036   -247.82577    119.16605   -5910.5323 
 4250000     290.7515    -9021.316   -7912.8387    -9021.316            0    9836.4782    24.863539      24.9642    23.083876    14328.124    10045.937    10461.849    9001.6483   -224.14903   -102.28776    1052.1194   -5857.3984 
Loop time of 571.564 on 64 procs for 250000 steps with 1920 atoms

Performance: 75.582 ns/day, 0.318 hours/ns, 437.396 timesteps/s
193.7% CPU use with 32 MPI tasks x 2 OpenMP threads

MPI task timing breakdown:
Section |  min time  |  avg time  |  max time  |%varavg| %total
---------------------------------------------------------------
Pair    | 68.347     | 74.759     | 80.934     |  34.1 | 13.08
Bond    | 0.71849    | 1.1304     | 1.5792     |  20.6 |  0.20
Kspace  | 256.57     | 265.61     | 283.17     |  36.5 | 46.47
Neigh   | 5.9307     | 6.7474     | 8.5192     |  25.3 |  1.18
Comm    | 92.206     | 105.84     | 112.71     |  46.6 | 18.52
Output  | 0.57165    | 0.57202    | 0.57368    |   0.0 |  0.10
Modify  | 93.038     | 100.76     | 108.31     |  32.9 | 17.63
Other   |            | 16.15      |            |       |  2.83

Nlocal:        60.0000 ave          65 max          56 min
Histogram: 2 3 2 5 7 6 3 3 0 1
Nghost:        3369.28 ave        3401 max        3342 min
Histogram: 2 4 4 4 5 1 7 1 2 2
Neighs:        21197.5 ave       22736 max       19697 min
Histogram: 2 2 4 2 7 3 5 3 2 2

Total # of neighbors = 678320
Ave neighs/atom = 353.29167
Ave special neighs/atom = 2.0000000
Neighbor list builds = 13359
Dangerous builds = 1

unfix		3
unfix		2
unfix		1

write_data	data.final.${pid}
write_data	data.final.0
System init for write_data ...
PPPM initialization ...
  extracting TIP4P info from pair style
  using 12-bit tables for long-range coulomb (../kspace.cpp:340)
  G vector (1/distance) = 0.37442072
  grid = 30 30 30
  stencil order = 5
  estimated absolute RMS force accuracy = 0.0032726909
  estimated relative force accuracy = 9.8556113e-06
  using double precision FFTW3
  3d grid and FFT values/proc = 5400 960
Last active /omp style is kspace_style pppm/tip4p/omp
WARNING: Not all mixed pair coeffs generated from mixing. Use write_data with 'pair ij' option to store all pair coeffs. (../write_data.cpp:312)

write_restart   restart.lmp.${pid}
write_restart   restart.lmp.0
System init for write_restart ...
PPPM initialization ...
  extracting TIP4P info from pair style
  using 12-bit tables for long-range coulomb (../kspace.cpp:340)
  G vector (1/distance) = 0.37442072
  grid = 30 30 30
  stencil order = 5
  estimated absolute RMS force accuracy = 0.0032726909
  estimated relative force accuracy = 9.8556113e-06
  using double precision FFTW3
  3d grid and FFT values/proc = 5400 960
Last active /omp style is kspace_style pppm/tip4p/omp
Total wall time: 0:09:31
