LAMMPS (30 Jul 2021)
  using 1 OpenMP thread(s) per MPI task
package omp 0
using multi-threaded neighbor list subroutines
echo both

include		in.partitions
variable        pid world 0
include		in.temp
variable        temperature equal 247.40
variable	tempDamp equal 100.0
include		in.pressure
variable        pressure equal 3875.0
variable        pressureDamp equal 1000.0 # This is 1 ps
include		in.seed
variable        seed world 745823

units		real
atom_style	full
read_restart	restart.lmp.${pid}
read_restart	restart.lmp.0
Reading restart file ...
  restart file = 30 Jul 2021, LAMMPS = 30 Jul 2021
  restoring atom style full from restart
  orthogonal box = (0.39545185 1.5573213 0.48245034) to (17.812121 22.071856 21.730745)
  4 by 4 by 4 MPI processor grid
  restoring pair style lj/cut/tip4p/long/omp from restart
  restoring bond style harmonic/omp from restart
  restoring angle style harmonic/omp from restart
  864 atoms
  576 bonds
  288 angles
Finding 1-2 1-3 1-4 neighbors ...
  special bond factors lj:    0        0        0       
  special bond factors coul:  0        0        0       
     2 = max # of 1-2 neighbors
     1 = max # of 1-3 neighbors
     1 = max # of 1-4 neighbors
     2 = max # of special neighbors
  special bonds CPU = 1.434 seconds
  read_restart CPU = 1.632 seconds
include 	in.setup
variable	out_freq equal 1000
variable	out_freq2 equal 10000
variable	out_freq3 equal 1000

timestep	2.0

neigh_modify    delay 7 every 1

include		in.tip4p
# This is TIP4P/Ice

# create groups ###
group ox type 2
288 atoms in group ox
group hy type 1
576 atoms in group hy

# set charges - beside manually ###
set group ox charge -1.1794
Setting atom values ...
  288 settings made for charge
set group hy charge 0.5897
Setting atom values ...
  576 settings made for charge

# ### TIP3P Potential Parameters ###
pair_style lj/cut/tip4p/long/omp 2 1 1 1 0.1577 8.5
pair_coeff 1 1*2 0.000 0.000
pair_coeff 2 2 0.21084 3.1668
bond_style  harmonic
bond_coeff  1 450 0.9572
angle_style harmonic
angle_coeff 1 55 104.52
kspace_style pppm/tip4p/omp 1.0e-5
pair_modify tail yes

thermo          ${out_freq}
thermo          1000
thermo_style    custom step temp pe etotal epair emol press lx ly lz vol pxx pyy pzz pxy pxz pyz enthalpy

restart 	${out_freq3} restart.lmp.${pid} restart2.lmp.${pid}
restart 	1000 restart.lmp.${pid} restart2.lmp.${pid}
restart 	1000 restart.lmp.0 restart2.lmp.${pid}
restart 	1000 restart.lmp.0 restart2.lmp.0


include         in.dump
dump            myDump all atom ${out_freq2} dump.water.${pid}
dump            myDump all atom 10000 dump.water.${pid}
dump            myDump all atom 10000 dump.water.0
dump            myDump2 all dcd ${out_freq2} dump.dcd
dump            myDump2 all dcd 10000 dump.dcd
dump_modify     myDump append yes
dump_modify     myDump2 append yes


variable natoms 	equal  "count(all)"                        # NUMBER ATOMS
variable H      	equal  "enthalpy/v_natoms"                 # ENTHALPY-per-atom
variable Vol      	equal  "vol/v_natoms"                 # volume-per-atom
fix AVG all 		ave/time ${out_freq} 1 ${out_freq} v_Vol v_H file vol_enthalpy.dat
fix AVG all 		ave/time 1000 1 ${out_freq} v_Vol v_H file vol_enthalpy.dat
fix AVG all 		ave/time 1000 1 1000 v_Vol v_H file vol_enthalpy.dat


timer           timeout 23:50:00 every 1000
New timer settings: style=normal  mode=nosync  timeout=23:50:00

fix 		1 all shake 1e-6 200 0 b 1 a 1
       0 = # of size 2 clusters
       0 = # of size 3 clusters
       0 = # of size 4 clusters
     288 = # of frozen angles
  find clusters CPU = 1.772 seconds
fix             2 all nph iso ${pressure} ${pressure} ${pressureDamp}
fix             2 all nph iso 3875 ${pressure} ${pressureDamp}
fix             2 all nph iso 3875 3875 ${pressureDamp}
fix             2 all nph iso 3875 3875 1000
fix             3 all temp/csvr ${temperature} ${temperature} ${tempDamp} ${seed}
fix             3 all temp/csvr 247.4 ${temperature} ${tempDamp} ${seed}
fix             3 all temp/csvr 247.4 247.4 ${tempDamp} ${seed}
fix             3 all temp/csvr 247.4 247.4 100 ${seed}
fix             3 all temp/csvr 247.4 247.4 100 745823

run             250000
PPPM initialization ...
  extracting TIP4P info from pair style
  using 12-bit tables for long-range coulomb (../kspace.cpp:340)
  G vector (1/distance) = 0.37370585
  grid = 24 24 25
  stencil order = 5
  estimated absolute RMS force accuracy = 0.0031340782
  estimated relative force accuracy = 9.4381835e-06
  using double precision FFTW3
  3d grid and FFT values/proc = 2730 288
Last active /omp style is kspace_style pppm/tip4p/omp
Neighbor list info ...
  update every 1 steps, delay 7 steps, check yes
  max neighbors/atom: 2000, page size: 100000
  master list distance cutoff = 10.8154
  ghost atom cutoff = 10.8154
  binsize = 5.4077, bins = 4 4 4
  1 neighbor lists, perpetual/occasional/extra = 1 0 0
  (1) pair lj/cut/tip4p/long/omp, perpetual
      attributes: half, newton on, omp
      pair build: half/bin/newton/omp
      stencil: half/bin/3d
      bin: standard
Per MPI rank memory allocation (min/avg/max) = 9.236 | 9.242 | 9.250 Mbytes
Step Temp PotEng TotEng E_pair E_mol Press Lx Ly Lz Volume Pxx Pyy Pzz Pxy Pxz Pyz Enthalpy 
11500000    258.87911   -3899.8422   -3456.1323   -3899.8422            0    3287.7315    17.416669    20.514535    21.248295    7591.9067    3674.8183    2283.7334    3904.6428    1407.7458    609.47292   -251.54609   -3092.1141 
11501000    250.93152   -3900.5694   -3470.4814   -3900.5694            0    4468.1864    17.369875    20.459419    21.191207    7530.8793    5670.1342    3335.8538    4398.5713   -779.90501   -23.027762   -127.83134   -2979.7398 
11502000    247.39066   -3907.0763   -3483.0571   -3907.0763            0    3638.8167    17.411822    20.508826    21.242382    7585.5702    2110.5352    3163.9243    5641.9905   -340.75516    522.10989    269.80001    -3080.503 
11503000    249.13733   -3911.8136   -3484.8007   -3911.8136            0    4384.7422    17.409745     20.50638    21.239848    7582.8559    4141.2895    3588.4548    5424.4823   -410.18898    618.89945    126.18474   -2999.9001 
11504000    243.89869   -3938.2326   -3520.1986   -3938.2326            0    4516.5683     17.30797    20.386503    21.115683    7450.6471    4543.2798    3231.9228    5774.5024      267.635   -412.31466   -43.720368   -3029.4281 
11505000    257.30066   -3913.9911   -3472.9866   -3913.9911            0    1670.8459    17.535227    20.654181    21.392935    7748.0021   -66.186967    3725.2362    1353.4885    1180.8516    881.79136   -69.018364   -3284.1866 
11506000     258.0058   -3913.9054   -3471.6923   -3913.9054            0    4068.0761    17.413215    20.510467    21.244081    7587.3909    5025.0572    2795.1176    4384.0535   -136.28775   -16.901342   -1072.7495   -3021.5422 
11507000    252.16714   -3905.7869   -3473.5811   -3905.7869            0    5112.2354    17.368686    20.458018    21.189756    7529.3324    4022.0005    5367.1393    5947.5663   -593.30182   -461.34369   -499.74103   -2912.2188 
11508000    248.45033   -3900.9901   -3475.1548   -3900.9901            0    4181.3326    17.361055    20.449029    21.180446    7519.4123    5335.6874    2344.1568    4864.1535   -338.08478    810.31092    1017.6235   -3016.6177 
11509000    256.43249   -3890.1702   -3450.6537   -3890.1702            0    4041.3394    17.373233    20.463374    21.195304    7535.2477    2977.6496    4418.6625    4727.7063    1570.9744   -543.99017   -1101.6326   -3006.5353 
11510000    253.38739   -3911.2856   -3476.9883   -3911.2856            0    4127.5289    17.417379    20.515372    21.249161    7592.8353    4280.7725    4345.5714     3756.243    495.16928   -561.67204    332.74032   -3019.9317 
11511000    250.97039   -3913.7444   -3483.5897   -3913.7444            0     4042.693    17.352871     20.43939    21.170462    7508.7837    3606.5384    4521.3618    4000.1788    94.883697    736.31944    423.42201   -3040.8829 
11512000    256.01628   -3880.6059   -3441.8027   -3880.6059            0    3483.8644    17.396794    20.491126    21.224048    7565.9465    4289.9637    4209.5136    1952.1157    948.46363    373.61075   -775.92939   -3057.3877 
11513000    248.00981   -3896.7836   -3471.7033   -3896.7836            0     4121.075    17.397811    20.492323    21.225289    7567.2731    4329.3231    4941.6842    3092.2176     262.4041   -645.47118   -182.04173   -3016.8977 
11514000    245.02735   -3920.3329   -3500.3644   -3920.3329            0    5352.0447    17.367024     20.45606    21.187728    7527.1708    2861.2442    6697.1179    6497.7721     93.56998    288.71918    121.01912    -2912.838 
11515000    249.15757   -3912.5172   -3485.4696   -3912.5172            0    5739.6876    17.325697    20.407383     21.13731    7473.5642    5641.4068    5847.9879     5729.668     310.3543    1184.0419   -2380.9322   -2859.8766 
11516000     257.9001   -3932.7565   -3490.7246   -3932.7565            0     3069.165    17.461979    20.567905    21.303573    7651.3129    2447.6886    4862.3422    1897.4641    1542.8952    1712.0088    1121.3276   -3148.2471 
11517000    257.64736   -3945.0729   -3503.4742   -3945.0729            0    4695.3152    17.413633     20.51096    21.244592    7587.9379     2986.911    4994.7948    6104.2397   -215.52801    10.017782    1920.4742   -2983.8798 
11518000    247.65928   -3964.9047   -3540.4252   -3964.9047            0    4520.6995    17.439455    20.541375    21.276094    7621.7434    3385.2252    5911.0479    4265.8254    1046.5489    2434.7622    1249.1524   -3037.9255 
11519000    249.65334   -3928.6813    -3500.784   -3928.6813            0     3118.319    17.370209    20.459812    21.191615    7531.3136    2829.7929    3180.0919    3345.0722    731.23808    433.97618    221.55475   -3158.2788 
11520000    242.87216   -3939.0819   -3522.8073   -3939.0819            0    3871.8853    17.319882    20.400533    21.130215    7466.0408    5266.8737    2468.0474    3880.7348    -911.1802   -1382.5122   -728.98434   -3101.2188 
11521000    240.50417   -3938.3785   -3526.1626   -3938.3785            0    4336.2731    17.372865    20.462941    21.194855    7534.7692    4560.3428    3367.7522    5080.7243    221.38433   -148.94424    -106.9617    -3049.663 
11522000    253.09081   -3923.2511   -3489.4621   -3923.2511            0    3950.8919    17.371969    20.461885    21.193762    7533.6031    4699.3872    3208.6434    3944.6452    261.59957   -1404.7995   -1779.7684   -3055.3782 
11523000    228.48341   -3912.1698    -3520.557   -3912.1698            0    4019.8906    17.360693    20.448603    21.180004    7518.9419    2850.5126    3740.0201    5469.1391    865.45068   -1368.4162   -598.39699   -3079.7517 
11524000    253.67294   -3869.0033   -3434.2165   -3869.0033            0    3474.8662    17.361618    20.449693    21.181134    7520.1447     1655.194    4413.8131    4355.5916   -211.02839   -554.66026    1891.7976   -3053.1155 
11525000     255.2818   -3926.6109   -3489.0666   -3926.6109            0    3018.1802    17.394826    20.488807    21.221647    7563.3783    4005.6084    1224.3311    3824.6013    198.57322    199.55316   -733.09352   -3156.1489 
11526000    254.78668   -3904.1814   -3467.4858   -3904.1814            0    3434.6643    17.417142    20.515093    21.248872    7592.5255    2845.2376    1766.3435    5692.4117    552.63299   -439.87714   -823.69526   -3087.1682 
11527000     247.3189   -3898.8092   -3474.9131   -3898.8092            0    5138.7026    17.351956    20.438312    21.169346    7507.5959    5041.0577    4971.3501       5403.7    728.22298    44.804655    187.29341   -2912.2735 
11528000     257.1434   -3956.7909   -3516.0559   -3956.7909            0    3459.5824    17.419095    20.517393    21.251255    7595.0797    3755.0698     3242.292    3381.3852   -715.93227    -433.8947   -171.41363   -3132.8502 
11529000     245.6134   -3962.1438   -3541.1708   -3962.1438            0    4075.4344    17.380771    20.472252      21.2045      7545.06    3945.2593    3586.9833    4694.0607    -918.9889    2067.2955    250.75663   -3092.7224 
11530000    257.57688   -3935.8681   -3494.3901   -3935.8681            0    5556.8282    17.318208    20.398562    21.128174    7463.8769    5991.3972    5089.0252    5590.0622    412.29074   -284.90272    -1586.898   -2889.5127 
11531000    252.89413   -3921.8371   -3488.3852   -3921.8371            0     3080.728    17.500849    20.613688    21.350995    7702.5216    2139.3907    3688.4239    3414.3695   -269.16339   -313.99073    809.11558   -3142.3166 
11532000    249.60852   -3931.0821   -3503.2617   -3931.0821            0    4787.5868    17.406454    20.502504    21.235833     7578.557    4585.9926    5771.7407    4005.0273    643.95044   -800.39887    927.18095   -2974.1113 
11533000    266.16594   -3971.1953    -3514.996   -3971.1953            0    4335.7314    17.419295    20.517628    21.251499    7595.3413    4639.2669    4806.9118    3561.0156    645.32431    -1339.264   -343.96585   -3034.7259 
11534000      242.182   -3966.1893   -3551.0977   -3966.1893            0    4399.6675    17.405505    20.501386    21.234676    7577.3176    4792.9125    4331.6271    4074.4629    319.86321    -2009.234   -959.37838   -3064.9018 
11535000    246.13823   -3982.8054   -3560.9329   -3982.8054            0    5250.7489    17.383146     20.47505    21.207397    7548.1534    4841.1945    6362.3848    4548.6674    1597.3027   -1843.8221   -216.99905   -2982.9196 
11536000    244.96044    -3968.937   -3549.0832    -3968.937            0    4659.1452     17.34345    20.428293    21.158968    7496.5602    5901.9888    5185.9577    2889.4892   -1429.1342   -863.24395    1326.2252   -3039.7005 
11537000    254.87638   -3946.3314    -3509.482   -3946.3314            0     3823.638    17.304914    20.382903    21.111955    7446.7017    4219.2636    4391.1584    2860.4919    420.42299    199.87542    698.72625   -3094.2253 
11538000    251.73446   -3947.2372   -3515.7729   -3947.2372            0    3806.9285    17.332962     20.41594    21.146174    7482.9694    3059.4703    4799.0016    3562.3137    984.57031   -135.02684    527.95617   -3100.3173 
11539000    254.33467    -3935.588   -3499.6671    -3935.588            0    3548.8499    17.319924    20.400583    21.130267    7466.0953    917.07229    4578.4544     5151.023   -1811.4699   -818.23097    1192.6654   -3113.2493 
11540000    238.53012   -3917.8553   -3509.0228   -3917.8553            0    3782.5539    17.399858    20.494734    21.227786    7569.9447    3747.5782    3708.7942    3891.2893   -461.87984    488.04386   -130.20904   -3091.4293 
11541000    228.54408   -3910.2332   -3518.5164   -3910.2332            0    2338.5756    17.492258    20.603569    21.340514    7691.1838    601.02158    2519.3808    3895.3245   -1573.1298   -615.36826   -1396.1602    -3256.203 
11542000    244.04406   -3920.5745   -3502.2914   -3920.5745            0    2467.4264    17.440228    20.542285    21.277038     7622.757    1268.1915    1576.6454    4557.4422   -28.618697    1.7687199   -1786.4986   -3227.9874 
11543000    242.57737   -3915.6132   -3499.8439   -3915.6132            0    2653.8718    17.424912    20.524245    21.258352    7602.6917    1334.5306    3053.6871    3573.3977   -510.12086   -829.33081   -14.997321   -3205.5893 
11544000    253.17564   -3940.2097   -3506.2753   -3940.2097            0     4692.305    17.291394    20.366978     21.09546    7429.2605     4744.606    3839.4162    5492.8928   -562.09855    496.22875    565.22714   -2997.8728 
11545000    229.33402   -3969.6887   -3576.6181   -3969.6887            0    3634.8536    17.371788    20.461671     21.19354    7533.3669    3690.5939    3289.7328    3924.2343    375.75436   -1447.9218    1693.5554   -3177.2697 
11546000    271.63833   -3959.1585   -3493.5797   -3959.1585            0    4740.5153    17.334389    20.417621    21.147915    7484.8178    5629.5582     4560.217    4031.7707   -381.95342   -236.02144   -955.48544   -2976.1127 
11547000    245.93276   -3965.5079   -3543.9876   -3965.5079            0     3297.947    17.337319    20.421072    21.151489    7488.6135    2774.1984    3514.6882    3604.9545    721.02648   -676.53388   -2023.2625   -3183.8064 
11548000     251.6265   -3933.0563    -3501.777   -3933.0563            0    4813.4842    17.374502    20.464868    21.196851    7536.8984    3233.5539    5603.9935    5602.9054     -700.522     928.0872   -393.38872   -2972.6888 
11549000    242.91938   -3910.3656   -3494.0101   -3910.3656            0    3121.0953    17.388123    20.480912     21.21347    7554.6388    2533.5267     3710.971     3118.788    346.28595   -790.63119    659.82353   -3150.1382 
11550000    242.88196   -3920.9139   -3504.6226   -3920.9139            0    5085.0409    17.379572     20.47084    21.203037    7543.4988     3690.723    5997.2634    5567.1362   -478.38507   -252.02028    914.80603   -2945.1959 
11551000    249.53051   -3889.7179   -3462.0311   -3889.7179            0    4956.3185     17.37722     20.46807    21.200168    7540.4371    4112.1718    4629.9013    6126.8823    2398.3153    903.59203   -271.03005   -2916.9871 
11552000    239.93841   -3922.2547   -3511.0085   -3922.2547            0     2935.791    17.419979    20.518434    21.252333    7596.2362    1802.3465    3881.6807    3123.3459   -858.49847   -486.92152   -694.84214   -3185.7718 
11553000    243.00536   -3955.0724   -3538.5695   -3955.0724            0    3979.0478    17.403478    20.498998    21.232202    7574.6703    2495.8633    4803.5841     4637.696   -69.744815    237.42762    553.94178   -3099.0089 
11554000     255.9895   -3937.8643   -3499.1071   -3937.8643            0    3378.5972    17.403746    20.499314     21.23253    7575.0209    4421.4744    1876.3924    3837.9248   -1192.2862    408.10658    1557.7472   -3125.8602 
11555000    230.72616   -3917.2517    -3521.795   -3917.2517            0    4587.9033    17.444792     20.54766    21.282605    7628.7426    3800.7604    6704.1673    3258.7823    15.916515    1644.2942    81.570783   -3011.3569 
11556000    254.81137   -3903.0323   -3466.2943   -3903.0323            0     4368.483    17.355074    20.441985     21.17315    7511.6443    4260.9602    4679.7662    4164.7224    1148.7265    706.26153    570.49143   -2987.7287 
11557000    242.98193   -3930.4031   -3513.9404   -3930.4031            0    5165.2833    17.331471    20.414184    21.144355    7481.0384    4366.1327     5381.246     5748.471   -79.693114   -58.817685   -547.02717   -2950.3911 
11558000    246.00094   -3915.4966   -3493.8594   -3915.4966            0    4342.6421    17.437888    20.539529    21.274182    7619.6887    4543.0683    5599.5365    2885.3217    84.376221   -227.98887     175.2272   -3011.2818 
11559000    246.53496   -3941.0456   -3518.4931   -3941.0456            0     3446.191    17.423858    20.523003    21.257066    7601.3118    4425.9034    2634.8908    3277.7789    240.32867   -81.281386   -520.83749   -3136.4576 
11560000    236.55478   -3967.4417   -3561.9949   -3967.4417            0    1695.9115     17.45657    20.561534    21.296975     7644.205     1283.784    1186.4335    2617.5169   -1165.7916   -457.78777   -1558.9703   -3372.9298 
11561000    252.28842   -3959.2475   -3526.8338   -3959.2475            0    5675.4512    17.325693    20.407378    21.137305    7473.5581    4564.6487    6041.8213    6419.8836   -142.51602    1591.9347   -195.05125   -2908.2426 
11562000    251.06696    -3927.467   -3497.1469    -3927.467            0    2214.9989    17.411676    20.508655    21.242204    7585.3799    2041.5873     1565.769    3037.6405   -1212.6172   -660.43939    125.11775   -3252.1126 
11563000    264.58007   -3936.4749   -3482.9937   -3936.4749            0    5385.9786     17.35306    20.439612    21.170693    7509.0292    4430.3912    5206.5625    6520.9821   -2447.7148   -362.38926   -1148.0618   -2893.1672 
11564000    252.16535   -3966.7377   -3534.5349   -3966.7377            0    6575.8961    17.342443    20.427107     21.15774    7495.2551    5768.1287    6892.4828    7067.0767    814.83103    1459.5926   -427.79935   -2815.7197 
11565000    238.95253   -3968.1717   -3558.6152   -3968.1717            0    4592.2318    17.349274    20.435154    21.166074    7504.1161    5433.1232    5309.7103    3033.8619    1143.4868    1991.9721    70.084499   -3056.0421 
11566000    265.95183   -3947.3594   -3491.5271   -3947.3594            0    4541.6625     17.38916    20.482134    21.214735    7555.9904    5065.4116    4780.4555    3779.1204    938.26054   -700.44401   -442.91642   -2991.0524 
11567000    240.97393   -3980.7738   -3567.7528   -3980.7738            0    4475.4798    17.340839    20.425217    21.155783    7493.1751    5598.0344    3767.6449      4060.76   -331.22534    -908.0095   -189.98571   -3078.6711 
11568000    246.71362   -3947.1296   -3524.2709   -3947.1296            0    3935.6085    17.383018    20.474899    21.207241    7547.9862    1747.4362    5247.1126    4812.2769   -1033.2859    445.30261   -1598.0744   -3091.0406 
11569000    241.49749   -3965.9735    -3552.055   -3965.9735            0    5952.0605    17.318323    20.398697    21.128313    7464.0248    4614.7076    7686.0513    5555.4226    131.28372    256.53165    2022.5644   -2904.1426 
11570000    243.89537   -3908.5999   -3490.5715   -3908.5999            0    4597.4762    17.333518    20.416594    21.146851    7483.6887    4011.3589    4653.5817    5127.4881   -1315.9535    674.66568   -515.02862   -2988.7941 
11571000    242.18654   -3916.8398   -3501.7403   -3916.8398            0    4376.8668    17.345512    20.430722    21.161484    7499.2345    4869.9233    5812.2244    2448.4527   -537.43555    384.25597   -511.48337   -3023.0484 
11572000    264.49215   -3891.1718   -3437.8413   -3891.1718            0    4289.9645    17.340747     20.42511    21.155671    7493.0565    5357.8037    4047.9417    3464.1481   -1564.6717   -300.54109    823.48446   -2969.0403 
11573000    234.44376   -3920.2236    -3518.395   -3920.2236            0    2426.6613    17.368216    20.457464    21.189183    7528.7209    2763.3776    2714.6467    1801.9596    97.658046   -204.76632   -564.67294   -3251.9508 
11574000    239.37847   -3913.8248   -3503.5383   -3913.8248            0    4422.4715    17.333253    20.416282    21.146528    7483.3452     4149.851    3467.5836    5649.9798    539.27705     44.13808    497.83964   -3020.8834 
11575000    247.86529   -3930.1072   -3505.2746   -3930.1072            0    3573.3292    17.416555    20.514401    21.248156    7591.7576     2701.104    1651.4743    6367.4093   -287.04413   -1204.2431   -1106.5851   -3109.6427 
11576000    239.89777   -3906.8356    -3495.659   -3906.8356            0    3057.8856    17.409445    20.506027    21.239483    7582.4645    2955.7652    3331.3715      2886.52   -1049.7671   -2071.6217    334.18025   -3157.5105 
11577000    249.47175   -3936.1406   -3508.5545   -3936.1406            0    5746.0285    17.330543    20.413091    21.143222    7479.8368    3918.0439    6234.5935     7085.448   -101.92659   -751.69114   -1355.4329   -2881.7447 
11578000    267.38125   -3899.2941   -3441.0118   -3899.2941            0    3958.0057    17.357478    20.444816    21.176082    7514.7656    4753.5476      3091.24    4029.2296    -625.6602   -377.39869   -676.82787   -3007.2336 
11579000    252.16061   -3931.7957    -3499.601   -3931.7957            0    3518.5235      17.3231    20.404323    21.134141    7470.2032    2419.0726    3301.0125    4835.4854     -322.943     219.7255   -1041.7721   -3116.2746 
11580000    260.27154    -3894.763   -3448.6665    -3894.763            0    3042.0411    17.316047    20.396016    21.125537    7461.0827    3547.2903    1626.1726    3952.6604   -1298.1352    841.13475    124.75647   -3117.6552 
11581000    252.12038    -3891.033   -3458.9072    -3891.033            0    3812.4905     17.29346    20.369412    21.097981    7431.9242    2039.9954     4580.952    4816.5241   -952.70762   -1358.8299   -875.26957   -3045.6829 
11582000    235.29234   -3885.6407   -3482.3576   -3885.6407            0    3311.6307    17.275664     20.34845     21.07627    7409.0042    3906.2697    2478.1487    3550.4736   -454.88882    166.28827   -1360.6837   -3124.5269 
11583000      242.321   -3913.0079    -3497.678   -3913.0079            0    3199.2685    17.388501    20.481357    21.213931    7555.1314    3176.8752    2617.0938    3803.8366   -108.30979   -1628.5872     1128.758   -3145.1703 
11584000     254.4577   -3881.1396   -3445.0078   -3881.1396            0    4869.1878    17.324708    20.406217    21.136103    7472.2833    3557.9903    5072.8215    5976.7516    413.81258    627.12038   -877.47023   -2914.3852 
11585000    257.09114   -3930.9699   -3490.3245   -3930.9699            0    2642.4114    17.379366    20.470597    21.202785      7543.23    2953.6523    2474.0462    2499.5357    647.02663   -774.41528    132.08786   -3199.6321 
11586000    256.58552   -3921.1678    -3481.389   -3921.1678            0    3553.6435    17.273682    20.346116    21.073852    7406.4544    3025.1984    5755.8466    1879.8855    1163.3874    1140.2288   -1895.6588   -3097.5403 
11587000    237.96858   -3911.9994   -3504.1294   -3911.9994            0    4083.7776    17.231177     20.29605    21.021995    7351.9135    4126.7121    3763.5498     4361.071   -1701.4144    848.55713   -871.75531   -3066.2663 
11588000    258.08511   -3876.7906   -3434.4415   -3876.7906            0    4022.4364     17.25054    20.318857    21.045618    7376.7261    3783.1456    4546.1338    3738.0297   -150.25967   -130.07088   -1094.3788   -3001.6998 
11589000    243.21749   -3940.2506   -3523.3842   -3940.2506            0    2970.1855    17.284759    20.359163    21.087365    7420.7116    2074.1931     3023.139    3813.2243   -371.95821    -1591.526    837.15516   -3201.9404 
11590000    245.61369   -3912.1553   -3491.1818   -3912.1553            0     4988.083    17.230803     20.29561     21.02154    7351.4359    4777.7334    4587.9088    5598.6069    433.88256   -1529.3167   -1100.6417   -2956.3937 
11591000    239.23382   -3937.4783   -3527.4397   -3937.4783            0    2113.7221    17.318289    20.398657    21.128272    7463.9813      258.665    3763.8603     2318.641    997.60685    -1154.635    163.65849   -3297.3515 
11592000    251.84223   -3908.9634   -3477.3144   -3908.9634            0    3353.6053    17.347026    20.432506    21.163331    7501.1991    3009.7774    2508.1654    4542.8733   -701.20325   -1294.1731    2108.1865    -3110.439 
11593000    241.65401   -3943.5831   -3529.3964   -3943.5831            0    2807.6107    17.274438    20.347006    21.074773    7407.4263    3862.1356    2268.3567    2292.3399   -1351.4976    2981.5298    86.447266   -3226.0911 
11594000    248.25279   -3935.6811   -3510.1844   -3935.6811            0    4266.1355     17.28106    20.354806    21.082853    7415.9487    5412.4309    4086.4557    3299.5199   -941.50693   -1991.3372    487.73884   -3048.7847 
11595000    232.01747     -3929.49     -3531.82     -3929.49            0    4613.7805    17.302224    20.379734    21.108672    7443.2284     3729.247    4998.4153    5113.6791    828.22807      -589.03    286.23522   -3030.9856 
11596000    250.71444   -3905.6432   -3475.9272   -3905.6432            0    4505.3475    17.356579    20.443758    21.174986     7513.599    3595.7066    5503.7798    4416.5561   -619.90842   -153.60616    722.05499   -2982.2396 
11597000    248.40159   -3890.2452   -3464.4934   -3890.2452            0    4695.5916    17.360072    20.447872    21.179248    7518.1362    4783.2753      3552.73    5750.7696   -62.192225    508.07223    448.52708   -2949.6485 
11598000    245.66536   -3937.5324   -3516.4703   -3937.5324            0    5609.2364     17.33765    20.421462    21.151893    7489.0427      4237.75    6012.3842     6577.575   -435.27507    652.73404    809.89364   -2903.8295 
11599000    257.66651   -3937.6459   -3496.0143   -3937.6459            0     3008.677     17.43507    20.536209    21.270744     7615.995    3459.8436    2990.0887    2576.0986     271.0614    550.16071   -1101.7732   -3161.8361 
11600000    241.64178   -3923.2916   -3509.1259   -3923.2916            0    4990.5298    17.370137    20.459727    21.191527    7531.2202    5472.4544    3017.7418    6481.3932   -760.69034    415.23167   -617.46696   -2960.9904 
11601000    239.45186   -3924.5776   -3514.1653   -3924.5776            0    3465.4341    17.423133     20.52215    21.256182    7600.3637    5372.8557    2072.0997     2951.347    19.660761    876.95141   -1205.9013   -3130.0444 
11602000    251.96647   -3907.8179    -3475.956   -3907.8179            0    3930.2664     17.38437    20.476492    21.208891     7549.748    4169.3093    2807.4811    4814.0087    722.62781   -660.92484    958.96016   -3043.2128 
11603000    247.56831   -3899.0855   -3474.7618   -3899.0855            0    2961.1902    17.435646    20.536888    21.271448    7616.7506    2882.6715    3196.0435    2804.8557    1602.6614    1626.2765    550.25482   -3145.8254 
11604000    246.49275   -3900.2256   -3477.7455   -3900.2256            0    4820.4683    17.313539    20.393062    21.122477     7457.841    5058.8872    5209.4731    4193.0445    201.69594    362.02417    330.39104   -2953.4474 
11605000    263.58925   -3919.3897   -3467.6067   -3919.3897            0    2907.6175    17.444741    20.547601    21.282543    7628.6761    3507.7863    3239.7405    1975.3257     715.8714    1118.1325     175.2585   -3144.1156 
11606000    242.54341   -3925.5394   -3509.8283   -3925.5394            0    3535.1048     17.34296    20.427715     21.15837    7495.9248    4615.7323    1870.6995    4118.8826   -748.77154   -226.41107   -57.781416   -3123.3693 
11607000    241.42398   -3953.9333   -3540.1409   -3953.9333            0    2515.4837    17.434637    20.535699    21.270216    7615.4281    2957.5897    2792.2475     1796.614    571.36884    823.35937   -533.05595   -3260.7632 
11608000    242.72077    -3922.448   -3506.4329    -3922.448            0     3075.512    17.421268    20.519952    21.253906    7597.9226    4644.6639    3474.6781    1107.1939   -351.50532    691.96696   -1499.8415   -3165.6419 
11609000    247.56539   -3935.3464   -3511.0278   -3935.3464            0     4626.722     17.33136    20.414053    21.144219    7480.8945    3860.1245    5850.8971    4169.1445   -246.23509   -574.55564    486.68084    -3006.247 
11610000    245.93824   -3921.8898     -3500.36   -3921.8898            0    3057.6127     17.33479    20.418092    21.148403    7485.3361    2178.8446    4212.0991    2781.8945    125.42221   -106.55873    232.18379   -3166.5728 
11611000     238.2386   -3893.7086   -3485.3758   -3893.7086            0    3548.5812    17.403072     20.49852    21.231707    7574.1397    5168.3137    3174.7931    2302.6369    249.19044    228.48494    661.52982   -3093.3958 
11612000    253.51359   -3923.6087   -3489.0951   -3923.6087            0    3126.2858     17.38146    20.473064    21.205341    7545.9576    3241.7915    2502.9371    3634.1289    436.04167    1155.5899   -308.45316   -3145.0472 
11613000     249.3879    -3914.685   -3487.2427    -3914.685            0    6083.9477    17.255429    20.324616    21.051583    7383.0002    7234.0028    4986.9754    6030.8651   -319.17096   -522.33992    -288.1823   -2832.1629 
11614000    258.82113   -3899.8769   -3456.2663   -3899.8769            0    5277.8847    17.352665    20.439147    21.170211    7508.5166    4803.3109    7027.4396    4002.9036   -81.662151    694.47075   -999.63053   -2878.3168 
11615000    250.07449    -3913.152   -3484.5329    -3913.152            0    1677.0324    17.395634    20.489759    21.222633    7564.4326    2751.9872    1141.2894    1137.8207    895.26431    416.57946   -290.68254   -3299.5235 
11616000    244.73437   -3941.6393   -3522.1729   -3941.6393            0    3643.0055    17.381007    20.472531    21.204788    7545.3678    3488.7641    2767.2766    4672.9758    1509.0181    -246.9451    -98.39857   -3121.2913 
11617000    240.12825   -3959.3018   -3547.7302   -3959.3018            0    2505.4489    17.426127    20.525676    21.259834    7604.2819    2887.7306    2447.2751    2181.3409    1192.4655   -854.17949    1805.5196   -3269.8743 
11618000    247.90452   -3966.4707   -3541.5709   -3966.4707            0    2645.4008    17.360804    20.448734     21.18014    7519.0866    2591.4066    2089.4025    3255.3933    586.90562   -345.85066   -289.85105   -3251.4811 
11619000    247.55524   -3939.4869   -3515.1857   -3939.4869            0    2742.4147    17.391699    20.485124    21.217832    7559.3002     3514.617    1122.7263    3589.9008    108.74991    175.06402   -82.979724   -3212.8492 
11620000    247.23564   -3963.1095   -3539.3561   -3963.1095            0    3615.1819    17.434746    20.535828     21.27035    7615.5714    2405.7206    2395.8557    6043.9695    21.404737   -251.32183    1597.7593   -3137.8348 
11621000    239.59178   -3934.9878   -3524.3357   -3934.9878            0    4997.6901    17.392466    20.486027    21.218767    7560.3002    3731.9165     5906.348    5354.8058   -351.79265   -1623.8982    1672.7541   -2973.2943 
11622000    254.74883   -3912.0502   -3475.4194   -3912.0502            0    3677.8841    17.402352    20.497672    21.230829    7573.2003    5417.1176    3541.9776     2074.557    181.10687    144.98568    1313.3709   -3069.2068 
11623000    230.62728   -3927.5526   -3532.2654   -3927.5526            0    2911.8316    17.469129    20.576327    21.312297    7660.7161    3713.0889    1780.8831    3241.5228    530.51072    699.40187   -19.406327   -3206.9448 
11624000    243.65193   -3888.1586   -3470.5475   -3888.1586            0    2429.6924    17.420107    20.518585    21.252489    7596.4032    2655.9928    2246.6803    2386.4039    654.77681   -629.86733    1.2276149   -3201.3722 
11625000    265.42535   -3892.9066   -3437.9766   -3892.9066            0    3246.1209    17.412996     20.51021    21.243815    7587.1055    3838.2623    1990.5767    3909.5237   -739.77585    540.01693    26.094376   -3078.7929 
11626000    243.58317   -3897.6408   -3480.1476   -3897.6408            0    2224.6153    17.413474    20.510772    21.244398      7587.73    1969.2503    1200.2697     3504.326    667.12903    40.027574    130.77633   -3233.9733 
11627000    257.41417   -3930.8706   -3489.6715   -3930.8706            0    3251.7991    17.422795    20.521751    21.255769    7599.9203    3167.4508    4706.3617     1881.585      74.2604    263.97529    806.03056   -3129.2517 
11628000     257.8136   -3931.9668   -3490.0831   -3931.9668            0    3956.8606    17.383748    20.475759    21.208132    7548.9376    5061.7053     3529.085    3279.7916    451.14346    1881.7023   -185.12586   -3054.4584 
11629000    262.19852   -3923.4967   -3474.0975   -3923.4967            0    2492.4766    17.481513    20.590913    21.327405    7677.0198    1844.6383    2290.7727    3342.0188   -118.78939   -793.82278    520.33573   -3195.0361 
11630000    246.47107   -3963.2367   -3540.7937   -3963.2367            0     3316.831     17.42092    20.519543    21.253482    7597.4677    1309.7082    3413.8152    5226.9697   -473.06046   -782.96911    324.48393   -3173.2846 
11631000    241.92636   -3942.0302   -3527.3767   -3942.0302            0    3697.2324    17.430399    20.530708    21.265047    7609.8765    3267.8544    3832.0482    3991.7947    2054.8109   -563.19042    -261.1654   -3117.0495 
11632000    254.74678   -3906.1573     -3469.53   -3906.1573            0    4191.8321     17.39033    20.483512    21.216162    7557.5157     3970.678    3431.9063    5172.9119   -261.09376    607.78279    1779.1239   -3007.5121 
11633000    243.87514   -3929.4849   -3511.4913   -3929.4849            0    4581.3718     17.38354    20.475514    21.207879    7548.6672     3740.179    4301.1746    5702.7619    1370.9478   -944.88078    866.65775     -3007.13 
11634000    237.45734   -3939.9078   -3532.9141   -3939.9078            0      5422.92    17.379544    20.470807    21.203003     7543.462     5017.949    5300.4606    5950.3503   -48.134238   -596.61317     374.4264   -2936.3188 
11635000    229.95844   -3918.9974   -3524.8565   -3918.9974            0    3951.8003    17.450302     20.55415    21.289327    7635.9734    3043.2156    4291.4877    4520.6977   -106.06706     261.1586    -1035.512   -3084.7728 
11636000    246.60832   -3900.0432    -3477.365   -3900.0432            0    4974.8245    17.429405    20.529537    21.263833    7608.5738    5172.1734    4990.8989    4761.4012     707.5817   -1727.4675   -2.7157587   -2925.3423 
11637000    240.89725   -3926.5829   -3513.6933   -3926.5829            0    2678.9696    17.458571     20.56389    21.299416    7646.8339    2068.4576    3201.9782     2766.473   -420.81608    71.720458   -248.66617   -3214.9313 
11638000    251.01432   -3918.0619   -3487.8319   -3918.0619            0    5144.2037    17.458891    20.564268    21.299806    7647.2549    5506.1036    3835.3594    6091.1481    1788.5909    1723.6188    1650.4676   -2914.1124 
11639000    226.98464   -3940.8833   -3551.8394   -3940.8833            0    3892.9665    17.529109    20.646975    21.385472     7739.896    4752.8291    3042.5566    3883.5137    91.403177   -277.85057    1279.5791   -3112.4074 
11640000    252.65188   -3916.2933   -3483.2567   -3916.2933            0    4108.8671    17.491076    20.602177    21.339072     7689.625    6107.4984    3334.5204    2884.5824   -537.02442    339.52321    59.556632   -3022.4666 
11641000    240.83544    -3914.904   -3502.1203    -3914.904            0     3479.125    17.453696    20.558148    21.293468    7640.4296    4450.7907    2309.5432    3677.0411    36.870711    1059.0467   -1118.4109    -3114.449 
11642000    244.28538   -3927.2412   -3508.5444   -3927.2412            0    2170.5698    17.507453    20.621467    21.359052    7711.2449    916.31057    2243.0597    3352.3391   -394.74953    856.37848    1206.1993   -3264.4409 
11643000    232.73807   -3902.2051      -3503.3   -3902.2051            0    3722.8713     17.53223    20.650652     21.38928    7744.0313     3954.818    2770.0377    4443.7582   -718.56223     1240.845   -1106.3279   -3082.8436 
11644000    244.23399   -3909.0411   -3490.4324   -3909.0411            0    3590.9465    17.394332    20.488226    21.221045    7562.7348    4807.2178    3256.4116    2709.2102    414.88296    102.29551   -1308.8017   -3094.3699 
11645000    250.80711    -3908.357   -3478.4822    -3908.357            0    2778.6429     17.50928    20.623619    21.361281    7713.6597    1853.4834    3134.4122    3348.0331    935.20006   -1147.4078    1292.6103   -3165.8965 
11646000    243.57137   -3934.3768   -3516.9038   -3934.3768            0    4796.1311    17.410008    20.506689    21.240169    7583.1992    3594.5481     6393.188    4400.6573    1304.8083    2512.1982     -410.091   -2986.4844 
11647000    241.36791   -3944.1783   -3530.4819   -3944.1783            0    4676.3253     17.29895    20.375878    21.104679    7439.0048    2925.0138    4798.0673    6305.8947    2.0706204    419.56346    1025.2231   -3023.1462 
11648000     241.9137   -3950.0293   -3535.3975   -3950.0293            0    4161.9731    17.288187    20.363201    21.091548    7425.1282      3531.61    4946.4632    4007.8461    114.22293    165.44799    389.32475   -3084.7062 
11649000    258.43643   -3905.5615   -3462.6103   -3905.5615            0    3777.9171    17.469845    20.577169     21.31317    7661.6571    3222.8578    4973.8019    3137.0917    628.55413    26.524136   -299.12549   -3040.4756 
11650000    242.24479   -3925.7165   -3510.5173   -3925.7165            0    2775.4048    17.388034    20.480807    21.213361    7554.5224    2473.7383    4078.0749    1774.4013    578.89766   -1904.8451    124.26472   -3204.7371 
11651000    251.03637   -3906.7384   -3476.4707   -3906.7384            0    3753.1194    17.434105    20.535073    21.269567    7614.7309    2409.0149    5513.5599    3336.7834   -6.2947174   -37.901122    248.55497   -3059.6754 
11652000    225.76951   -3910.8578   -3523.8966   -3910.8578            0    4188.2274    17.372555    20.462575    21.194477    7534.3655    3748.9123    5145.0494    3670.7205    526.30746   -426.08188    -1373.726   -3063.6901 
11653000    252.07755   -3923.5787   -3491.5264   -3923.5787            0    4895.6358    17.311814     20.39103    21.120372    7455.6121    4063.8827    5943.8159    4679.2089   -1363.4777   -1501.7578   -160.73894   -2959.2119 
11654000    235.08769   -3919.1321   -3516.1999   -3919.1321            0    4105.2261    17.360345    20.448193     21.17958    7518.4897    4244.5879    5340.9394     2730.151    -657.6526   -992.46307     460.0905    -3066.064 
11655000    258.68822   -3975.3526   -3531.9699   -3975.3526            0    3561.5124    17.438107    20.539786    21.274449    7619.9754    4207.3849    2264.2721    4212.8801   -1549.7135   -162.91965    231.48448   -3136.1807 
11656000     238.8621   -3974.4705   -3565.0691   -3974.4705            0    3108.3012    17.425608    20.525064    21.259201    7603.6025    857.17258    4166.7559    4300.9751    2117.4202   -246.71076     628.5334   -3220.3873 
11657000     242.2359   -3959.2261   -3544.0421   -3959.2261            0     3717.655    17.381605    20.473235    21.205518    7546.1467    2663.6458    4178.2685    4311.0508   -845.05337     196.9061    806.91882   -3134.9037 
11658000    246.84064   -3962.3661   -3539.2897   -3962.3661            0    3449.0096    17.374231    20.464549    21.196521    7536.5462     3530.044    4141.9411    2675.0436    372.04994   -586.05801    869.51611   -3160.1994 
11659000    245.52994   -3933.6621   -3512.8322   -3933.6621            0    3145.1669    17.378826    20.469962    21.202128     7542.528    2679.2036     2491.865    4264.4323    62.350196    907.05739    2007.0702   -3166.8637 
11660000    257.64831   -3929.4381   -3487.8377   -3929.4381            0    3686.6358    17.419291    20.517624    21.251494     7595.336     3464.038    4786.3811    2809.4882     614.3996   -2362.8538    987.84049   -3079.4683 
11661000    238.75349   -3938.7953     -3529.58   -3938.7953            0    3026.3771     17.38266    20.474477    21.206804    7547.5202    4157.4928    4454.6208    467.01772   -333.13585   -377.03579    388.73717   -3196.4581 
11662000    241.73898   -3947.9446   -3533.6123   -3947.9446            0    2752.1884    17.394022     20.48786    21.220666    7562.3299    2772.6519    2858.7075    2625.2058    606.18592   -100.53231    171.83687   -3230.0767 
11663000    245.76845   -3917.9878   -3496.7491   -3917.9878            0    3189.6826    17.367994    20.457202    21.188912    7528.4323     3183.161    2998.8666    3387.0201   -727.87595      -271.57   -1387.7003   -3146.5397 
11664000    257.69083   -3937.1623    -3495.489   -3937.1623            0    3453.1399    17.289907    20.365227    21.093646    7427.3443    2847.4274    2672.9016    4839.0908    58.602099   -874.71404   -600.70717   -3121.4442 
11665000    252.23056   -3925.9354   -3493.6209   -3925.9354            0    2584.7427    17.409745     20.50638    21.239848    7582.8559    2771.3612    2328.8029    2654.0641    -1254.619    -2.794588   -391.95533   -3207.7789 
11666000    247.34327   -3922.0713   -3498.1334   -3922.0713            0    5050.0918     17.41182    20.508824     21.24238    7585.5682    4848.7567    4836.2886    5465.2302   -184.03712   -541.86896   -432.35167   -2939.4532 
11667000     236.8998   -3938.7695   -3532.7314   -3938.7695            0    3526.2542    17.377775    20.468723    21.200844    7541.1586    3870.9569    4293.2059    2414.5999   -62.056405   -264.30865   -36.155768   -3144.9137 
11668000    264.70015   -3900.4785   -3446.7915   -3900.4785            0    3696.5574    17.387223    20.479851    21.212371    7553.4651    2610.6531    3583.5132    4895.5058    686.63331   -1092.7466    920.88322   -3039.5804 
11669000     260.2958   -3899.4439   -3453.3058   -3899.4439            0    2927.2416    17.394288    20.488174    21.220991    7562.6775    2851.6302    3005.8461    2924.2486   -1108.2567    667.23881   -9.0144909   -3130.4489 
11670000    253.90961   -3925.7294   -3490.5371   -3925.7294            0    3199.8936    17.421084    20.519736    21.253682    7597.6826    3826.8656    3126.9631    2645.8522   -1029.9086    219.66169    194.92946   -3135.9747 
11671000    243.43524   -3932.9624   -3515.7228   -3932.9624            0    3600.8984    17.410759    20.507574    21.241085     7584.181    4333.4015    3856.3416    2612.9521   -627.99448   -100.96588   -621.40985   -3117.4364 
11672000    251.60338   -3941.2327   -3509.9931   -3941.2327            0    3714.5617    17.410054    20.506744    21.240225    7583.2595    5223.0581    2040.3518    3880.2751   -125.26605   -745.62157    990.88801   -3099.1847 
11673000    240.69165   -3926.7711   -3514.2338   -3926.7711            0    3251.5495    17.406263    20.502279    21.235601    7578.3078    4239.7522    2623.6529    2891.2435   -1058.6483    781.88266      1277.14   -3154.8666 
11674000    250.16544   -3943.1755   -3514.4005   -3943.1755            0    4004.1918    17.376358    20.467055    21.199117    7539.3148     3662.345    5364.5614    2985.6692   -273.98952    1200.9749    593.30879   -3074.1269 
11675000    247.46778   -3889.6834   -3465.5321   -3889.6834            0    4288.8797     17.31686    20.396973    21.126529    7462.1335    5404.2482    2619.7379    4842.6529   -668.61136   -319.67038     819.5954   -2998.7838 
11676000    247.04397    -3910.672   -3487.2471    -3910.672            0     6598.229    17.249407    20.317523    21.044236    7375.2728    7640.8089    5935.2769    6218.6011    -1207.498   -1064.6031    775.98494   -2777.5364 
11677000      246.316   -3890.8689   -3468.6917   -3890.8689            0    3570.9456    17.350161    20.436198    21.167156    7505.2661    3946.6992     3922.067    2844.0706     1416.437   -1280.2863   -296.82896   -3077.8281 
11678000    250.13902   -3895.1941   -3466.4644   -3895.1941            0    3215.6273    17.294039    20.370093    21.098687    7432.6703     3489.774    3369.3296    2787.7783    56.631934   -1156.7396   -557.67794   -3117.8973 
11679000    243.07604   -3932.8612   -3516.2372   -3932.8612            0     3438.348    17.329539    20.411908    21.141997    7478.5362    2440.5033    3195.2433    4679.2973   -196.57249   -99.160645    68.061648   -3141.2276 
11680000    252.35053   -3954.2393   -3521.7191   -3954.2393            0    5190.4675    17.313182    20.392641    21.122041    7457.3795    3947.6988    4148.7647    7474.9389   -186.31537    154.62827    339.67533    -2957.213 
11681000    242.63735   -3896.2012   -3480.3291   -3896.2012            0    4331.9097    17.337966    20.421834    21.152278    7489.4516    4757.1801    3347.2596    4891.2893    518.06499    155.69985   -380.22724   -3007.1721 
11682000    255.32949   -3903.0155   -3465.3895   -3903.0155            0    5099.8517    17.327951    20.410038     21.14006    7476.4811    4706.1576    5006.7515    5586.6458    85.228526   -2044.6048    918.59776    -2909.318 
11683000    249.08458   -3911.4042   -3484.4818   -3911.4042            0    4316.4124    17.399372    20.494162    21.227193    7569.3099    5270.0025    3862.9271    3816.3076   -1120.3062   -284.57224    284.68189   -3007.9903 
11684000    239.19429   -3905.7818    -3495.811   -3905.7818            0    3422.0072    17.441003    20.543198    21.277983    7623.7732    3285.7094    4443.4255    2536.8868   -516.64454   -191.81234   -484.00732   -3115.3354 
11685000    240.18686    -3878.449   -3466.7769    -3878.449            0    4885.4764    17.383075    20.474967    21.207311    7548.0616     4589.972    5484.0193    4582.4379   -22.163317     1516.894    816.42976   -2928.9801 
11686000    243.57145   -3864.5684   -3447.0953   -3864.5684            0    4232.8614    17.401225    20.496344    21.229453    7571.7283    3463.3231    2249.8509    6985.4102   -678.72894    551.67642    142.89281   -2979.6778 
11687000    251.42598   -3922.8956   -3491.9601   -3922.8956            0    3028.3274    17.429032    20.529097    21.263378     7608.085    4260.8274    2022.6835    2801.4714   -1054.6639    19.918898    571.96584   -3155.9486 
11688000    264.97194   -3907.9914   -3453.8386   -3907.9914            0    3137.6542    17.403849    20.499435    21.232655    7575.1542    3023.1055    2395.7246    3994.1323   -1057.4025   -110.75934    1420.7625   -3107.2036 
11689000    238.23215   -3915.9193   -3507.5975   -3915.9193            0    3895.1861    17.394882    20.488874    21.221716    7563.4525    5987.4049    4628.8353    1069.3182    1785.3876   -379.31874    1058.7713   -3077.9383 
11690000    262.67412   -3888.7212   -3438.5068   -3888.7212            0    4986.3717    17.406824    20.502939    21.236284    7579.0398     4337.666    5129.7139    5491.7351   -516.52074   -1021.9071   -197.52235   -2887.3505 
11691000    241.57073   -3900.8724   -3486.8285   -3900.8724            0    3350.7862    17.401888    20.497126    21.230263    7572.5951    3971.7509    3063.4381    3017.1695    -580.4769    1485.6124    1076.4691   -3116.7725 
11692000      237.764   -3879.9216   -3472.4022   -3879.9216            0    3220.6979    17.421091    20.519744     21.25369     7597.691    3656.7109    3459.8169    2545.5658    -1493.418   -12.033232    312.39699   -3115.5343 
11693000    249.93171    -3914.766   -3486.3916    -3914.766            0    3737.7116    17.391545    20.484942    21.217644    7559.0993    3386.2476    4592.2254    3234.6619   -515.27244   -823.78626    514.04203   -3074.3399 
11694000    255.89678   -3924.6304    -3486.032   -3924.6304            0     5120.427    17.391118    20.484439    21.217123    7558.5426    6431.5941     3020.739     5908.948   -472.50948    -550.0438    -139.1317    -2921.589 
11695000     240.8605   -3914.5091   -3501.6824   -3914.5091            0    4656.3588    17.335803    20.419286    21.149639    7486.6488    3241.0208    3763.7227    6964.3328    1129.4826   -168.85795    671.58084   -2993.2774 
11696000    252.64105   -3920.0433   -3487.0252   -3920.0433            0    3388.7963    17.498232    20.610606    21.347802    7699.0668     1564.572    4583.5926    4018.2243   -1738.0079   -1163.1221   -535.16977    -3106.521 
11697000    257.35609    -3931.945   -3490.8455    -3931.945            0    4634.2175    17.409173    20.505707    21.239151    7582.1092    4412.3043    5644.1702    3846.1781    414.35231   -1456.0951    669.63986   -2978.4063 
11698000    254.84718   -3938.9072   -3502.1079   -3938.9072            0    4371.3488    17.410338    20.507078    21.240571    7583.6305    5019.4949    2968.4333    5126.1182    -528.8837   -1155.6143    81.839698    -3018.639 
11699000    250.33506   -3928.4671   -3499.4014   -3928.4671            0    2673.6763    17.461481    20.567318    21.302966    7650.6581    3140.1278    3116.1357    1764.7655   -1182.4551   -413.14862   -243.95538   -3201.0806 
11700000    246.91197   -3955.5745   -3532.3758   -3955.5745            0    4433.6265    17.447852    20.551265    21.286339    7632.7578    4644.8627    6562.1656    2093.8512   -843.34768   -641.74876    6.4231679   -3038.8425 
11701000    241.61611    -3936.773   -3522.6513    -3936.773            0    1655.3914    17.492622    20.603999    21.340959    7691.6649   -462.23511    2329.4443    3098.9649   -11.032664   -81.120873   -1209.6672   -3336.9577 
11702000    256.93956   -3962.5832   -3522.1976   -3962.5832            0    3225.2088    17.455796    20.560622     21.29603    7643.1883    3390.0926      4474.91    1810.6237   -2205.4201   -896.29627   -396.48466   -3162.6898 
11703000    236.45571   -3961.7796   -3556.5026   -3961.7796            0    3545.8134    17.457272    20.562361    21.297831    7645.1277    4572.6964    3257.3284    2807.4154   -658.85488   -200.58739    99.983069   -3161.1574 
11704000    249.05419   -3974.1082   -3547.2379   -3974.1082            0    3491.1599    17.397699    20.492192    21.225152    7567.1274    2652.1885    4417.2643    3404.0269   -1287.1457   -508.41672   -1454.7102   -3161.9577 
11705000    238.38604   -3961.9494   -3553.3639   -3961.9494            0    4028.9314    17.418193     20.51633    21.250154    7593.8999    5562.5953    3792.5628    2731.6361    1611.4564    325.43777   -245.71013   -3107.1628 
11706000    238.52125   -3954.3355   -3545.5183   -3954.3355            0    4757.2904    17.368461    20.457753    21.189482    7529.0399    4164.4852    4635.4533    5471.9328    833.14586   -842.42525    -1240.818    -3023.152 
11707000    239.15305   -3942.3448   -3532.4447   -3942.3448            0    2998.6928    17.417285    20.515261    21.249047    7592.7126    1860.1785    3634.5321    3501.3679   -713.45226    600.02041     169.4398   -3200.3937 
11708000    253.80949   -3935.1487   -3500.1279   -3935.1487            0    3570.4562    17.377251    20.468106    21.200205    7540.4764    3577.2202    3492.0854    3642.0629   -191.46614   -1174.1551   -857.05537   -3107.4844 
11709000    240.02741   -3930.3516   -3518.9529   -3930.3516            0    5325.6924    17.365862    20.454691    21.186311    7525.6602    5141.8053    5071.5963    5763.6754   -818.37403   -131.53007    -692.8129   -2934.4367 
11710000    255.51982   -3933.0954   -3495.1432   -3933.0954            0    5034.7913    17.375668    20.466242    21.198274    7538.4164    4889.8057    5458.6505    4755.9177   -1077.5074    25.827891   -197.36328   -2941.6179 
11711000    240.54596   -3958.3511   -3546.0635   -3958.3511            0    4216.9346    17.333566    20.416652    21.146911    7483.7518    4228.5746    5611.5827    2810.6466   -204.59687   -207.28038    -1038.003   -3085.8153 
11712000    246.71294   -3933.3051   -3510.4475   -3933.3051            0    5100.9284      17.3997    20.494548    21.227593    7569.7383    4596.5832    4598.6144    6107.5875    1830.9764    1498.4007    -360.1377    -2947.321 
11713000    255.33146   -3935.1841   -3497.5547   -3935.1841            0    4326.8045    17.482524    20.592104    21.328639    7678.3516    2942.6775    5523.0729    4514.6632   -1210.7524   -161.04454   -587.32139   -3013.0353 
11714000    244.23662   -3933.3453   -3514.7321   -3933.3453            0     2994.781    17.422375    20.521257    21.255257    7599.3716    1623.0494    2480.6604    4880.6331    402.25612   -1550.7361    367.04225   -3182.8234 
11715000    238.62508   -3955.5684   -3546.5732   -3955.5684            0    4605.7536    17.417634    20.515672    21.249472    7593.1686    4714.1631    3923.5462    5179.5516   -1619.0798   -632.82054   -102.30134   -3036.5386 
11716000    242.12005   -3914.5564   -3499.5709   -3914.5564            0    4379.2227    17.467281     20.57415    21.310042    7658.2851    5332.8162    2288.5948    5516.2569    1601.8075   -1328.1883   -943.98196   -3010.4633 
11717000    244.53999   -3923.5913   -3504.4581   -3923.5913            0    4312.6048    17.426576    20.526205    21.260383    7604.8704    4555.9212    5609.0285    2772.8647   -710.94899   -276.93405   -719.99419   -3026.1504 
11718000    247.29302   -3897.7794   -3473.9276   -3897.7794            0    6995.4873    17.334006    20.417169    21.147447    7484.3212    8054.5868    5576.9174    7354.9577   -587.00942   -1294.8891    186.92735   -2710.3621 
11719000     245.8321   -3913.6738    -3492.326   -3913.6738            0    3776.3364    17.455229    20.559955    21.295339    7642.4441    3640.4642    4352.9675    3335.5775   -52.892404   -238.39074   -252.49136   -3071.4261 
11720000    244.42056   -3934.0242   -3515.0958   -3934.0242            0    4569.5383      17.3747    20.465102    21.197094    7537.1571    5318.6723    3731.0356    4658.9068   -469.47347   -459.80951    118.20699   -3012.8043 
11721000     250.6003   -3934.5837   -3505.0633   -3934.5837            0     4563.191    17.368165    20.457404     21.18912    7528.6545    3754.8465    4762.2792    5172.4473   -1237.0103    45.696735    28.695173   -3004.0354 
11722000    245.07524    -3935.215   -3515.1645    -3935.215            0    2947.6804    17.463324    20.569488    21.305214    7653.0807    3550.6057    3571.3965    1721.0388    455.04837    197.95704    724.98778    -3186.167 
11723000    228.88908   -3907.6684   -3515.3604   -3907.6684            0    3202.6857    17.406375     20.50241    21.235736    7578.4532    2598.1232    4488.4177    2521.5162    194.68334   -159.20764    1001.3419   -3161.3868 
11724000    240.09261   -3901.5745    -3490.064   -3901.5745            0    2493.9753    17.377128    20.467962    21.200056     7540.317    1730.7283    4461.3386     1289.859   -823.05091    790.04496   -1394.9569    -3215.807 
11725000    244.79376    -3937.792   -3518.2239    -3937.792            0    4073.9366    17.289973    20.365305    21.093727    7427.4297    4894.1143    4220.7701    3106.9253    2006.5996    1082.5055   -49.826631   -3076.9292 
11726000    239.51858   -3921.8073   -3511.2807   -3921.8073            0    3488.2163    17.457217    20.562295    21.297764    7645.0548    3505.0645    4356.9626    2602.6217   -544.62964    992.43942    175.72495    -3122.361 
11727000    255.78067   -3887.2828   -3448.8835   -3887.2828            0    3183.1257    17.415621    20.513301    21.247017    7590.5368     4038.333    3838.4559    1672.5881   -1196.0086    374.49445   -77.554868   -3096.5109 
11728000    258.31541   -3927.7854   -3485.0416   -3927.7854            0    4605.6135     17.38745    20.480119    21.212648    7553.7611    4718.9821    5953.1191    3144.7392   -63.252133   -754.71617    272.80382   -2977.6694 
11729000     239.8359   -3915.0582   -3503.9877   -3915.0582            0    1913.8818    17.436114    20.537439    21.272018    7617.3633    3753.9093     894.9543    1092.7819   -374.29366   -636.63141    204.84388   -3291.3718 
11730000    259.43395   -3899.2867   -3454.6258   -3899.2867            0     1492.625    17.434044    20.535001    21.269493    7614.6516    1272.5073    1772.8506    1432.5173   -599.15925    733.58049   -872.79719    -3288.867 
11731000    251.46081    -3912.917   -3481.9218    -3912.917            0     4889.004     17.42744    20.527223    21.261436    7606.0014    4812.6003    3638.9605    6215.4512   -2210.6829   -325.42771   -1947.7921   -2939.6055 
11732000    241.83524   -3916.7813    -3502.284   -3916.7813            0    3850.1192     17.35967    20.447398    21.178757    7517.6134      4266.98    3638.4209    3644.9569   -134.42534   -112.37975    265.53012   -3080.1697 
11733000    245.13944   -3947.5541   -3527.3934   -3947.5541            0    4629.9275    17.345926     20.43121     21.16199    7499.7725    4301.4079    5236.6096     4351.765    377.48551   -623.37725    32.739816   -3020.9882 
11734000    249.44628   -3915.7618   -3488.2194   -3915.7618            0    3662.6893    17.433869    20.534795    21.269279    7614.4217    3044.2391     4719.122    3224.7067     2122.373    201.33388   -1274.0983   -3081.4831 
11735000    257.76045   -3968.1825   -3526.3899   -3968.1825            0    3803.1624    17.384248    20.476348    21.208742     7549.589    4943.2954    4060.4536    2405.7381   -217.94254    668.17935   -159.28826   -3107.6503 
11736000    242.45865   -3930.2494   -3514.6836   -3930.2494            0     4042.617    17.367787    20.456959    21.188659    7528.1633    2782.2636    4803.5479    4542.0395   -406.43717   -695.41252   -462.17838   -3070.8425 
11737000    244.72138   -3917.2552   -3497.8111   -3917.2552            0    3464.5588    17.461041    20.566799    21.302429    7650.0797    2479.6504    4719.9935    3194.0326   -380.81025   -77.466091     306.7828   -3111.2752 
11738000    245.32031   -3907.9665   -3487.4959   -3907.9665            0    4073.3868    17.406609    20.502686    21.236022    7578.7593    2728.6612    5158.2553    4333.2438    116.60105    336.60199   -1545.1161   -3037.2709 
11739000    242.74371   -3910.7412   -3494.6867   -3910.7412            0    3341.7126    17.404218    20.499869    21.233105    7575.6361    4131.7206    4141.4478    1751.9695   -1093.8552   -739.08658   -72.143038   -3125.4847 
11740000    252.80595   -3904.2836   -3470.9828   -3904.2836            0    2481.6961    17.404946    20.500727    21.233993    7576.5872    1362.9063    4777.2136    1304.9685   -415.94365    1405.8028    411.07742   -3196.7634 
11741000    239.56351   -3926.1806    -3515.577   -3926.1806            0    3891.5555    17.391726    20.485156    21.217865    7559.3361    5120.6859    3683.8208    2870.1597   -952.18538    237.34278   -379.61814   -3086.5518 
11742000    244.63289   -3902.5324     -3483.24   -3902.5324            0    2977.5571    17.439353    20.541254     21.27597    7621.6093     3342.414    3166.1865    2424.0708   -490.42265   -1030.6148   -623.10398   -3152.2745 
11743000     245.2722   -3886.7927   -3466.4046   -3886.7927            0    2582.8037    17.432381    20.533042    21.267464    7612.4721    2109.7772    3041.4338    2597.1999   -1118.2806    622.44417    -793.1283   -3179.6614 
11744000    246.25231   -3919.3147   -3497.2466   -3919.3147            0    3359.0588    17.405124    20.500936     21.23421    7576.8191    3888.2897    4237.9188    1950.9679   -367.67289   -107.07811   -581.02243   -3126.0702 
11745000    256.86661   -3906.4993   -3466.2387   -3906.4993            0    3033.3113    17.420597    20.519162    21.253087    7597.0446    2923.7239    2946.4593    3229.7507   -253.12247   -1007.8214   -22.689042   -3130.1627 
11746000    245.70209   -3904.0195   -3482.8945   -3904.0195            0    3785.3126    17.409561    20.506163    21.239624    7582.6157    4190.6645    3340.4252    3824.8482   -219.50325    -1723.385    718.69704    -3064.297 
11747000    240.06867   -3914.9886   -3503.5191   -3914.9886            0    3096.4309    17.407436    20.503661    21.237032    7579.8402    2327.5084     3012.413    3949.3715    767.40636   -191.73154   -218.22388   -3161.2267 
11748000    264.34376   -3924.8588   -3471.7826   -3924.8588            0    3062.3409    17.432875    20.533624    21.268067    7613.1196     2896.354    3106.7384    3183.9302    41.945505     539.2225   -1329.2562   -3131.7723 
11749000    238.54105    -3950.923   -3542.0718    -3950.923            0    4133.2113    17.398002    20.492549    21.225522    7567.5228    3572.7065    3346.8774      5480.05   -492.44551    577.35791    122.79321   -3085.9117 
11750000    255.19888    -3927.402   -3489.9998    -3927.402            0    3173.6132     17.39049      20.4837    21.216357    7557.7243    3035.1066    2238.2245    4247.5083    981.69057    1064.5218    1429.2655   -3140.1989 
Loop time of 478.217 on 64 procs for 250000 steps with 864 atoms

Performance: 90.335 ns/day, 0.266 hours/ns, 522.775 timesteps/s
99.0% CPU use with 64 MPI tasks x 1 OpenMP threads

MPI task timing breakdown:
Section |  min time  |  avg time  |  max time  |%varavg| %total
---------------------------------------------------------------
Pair    | 19.302     | 24.93      | 29.383     |  50.8 |  5.21
Bond    | 0.27018    | 0.28168    | 0.29871    |   1.0 |  0.06
Kspace  | 212.81     | 221.49     | 232.19     |  27.8 | 46.31
Neigh   | 4.9195     | 5.4479     | 6.4756     |  15.4 |  1.14
Comm    | 94.615     | 107.36     | 116.25     |  40.9 | 22.45
Output  | 1.2642     | 1.2657     | 1.2709     |   0.1 |  0.26
Modify  | 105.87     | 110.43     | 116.43     |  24.5 | 23.09
Other   |            | 7.024      |            |       |  1.47

Nlocal:        13.5000 ave          19 max           9 min
Histogram: 4 3 5 12 8 10 10 6 1 5
Nghost:        2125.44 ave        2148 max        2098 min
Histogram: 3 2 6 5 10 14 6 5 7 6
Neighs:        4086.69 ave        5636 max        2117 min
Histogram: 1 5 5 8 4 12 12 5 4 8

Total # of neighbors = 261548
Ave neighs/atom = 302.71759
Ave special neighs/atom = 2.0000000
Neighbor list builds = 12358
Dangerous builds = 0

unfix		3
unfix		2
unfix		1

write_data	data.final.${pid}
write_data	data.final.0
System init for write_data ...
PPPM initialization ...
  extracting TIP4P info from pair style
  using 12-bit tables for long-range coulomb (../kspace.cpp:340)
  G vector (1/distance) = 0.37382991
  grid = 24 24 25
  stencil order = 5
  estimated absolute RMS force accuracy = 0.003120096
  estimated relative force accuracy = 9.3960764e-06
  using double precision FFTW3
  3d grid and FFT values/proc = 2730 288
Last active /omp style is kspace_style pppm/tip4p/omp
WARNING: Not all mixed pair coeffs generated from mixing. Use write_data with 'pair ij' option to store all pair coeffs. (../write_data.cpp:312)

write_restart   restart.lmp.${pid}
write_restart   restart.lmp.0
System init for write_restart ...
PPPM initialization ...
  extracting TIP4P info from pair style
  using 12-bit tables for long-range coulomb (../kspace.cpp:340)
  G vector (1/distance) = 0.37382991
  grid = 24 24 25
  stencil order = 5
  estimated absolute RMS force accuracy = 0.003120096
  estimated relative force accuracy = 9.3960764e-06
  using double precision FFTW3
  3d grid and FFT values/proc = 2730 288
Last active /omp style is kspace_style pppm/tip4p/omp
Total wall time: 0:08:03
