LAMMPS (30 Jul 2021)
  using 1 OpenMP thread(s) per MPI task
package omp 0
using multi-threaded neighbor list subroutines
echo both

include		in.partitions
variable        pid world 0
include		in.temp
variable	temperature equal 255
variable	melttemp equal 450.0
variable	tempDamp equal 100.0
include		in.pressure
variable        pressure equal 6000
variable        pressureDamp equal 1000.0 # This is 1 ps
include		in.seed
variable        seed world 745823

units		real
atom_style	full



include 	in.box

read_data       ice.data
Reading data file ...
  triclinic box = (-3.3947780 0.0048050000 -0.13785900) to (15.004777 45.145583 19.367857) with tilt (0.0000000 -6.7926110 0.0000000)
  2 by 7 by 3 MPI processor grid
  reading atoms ...
  2016 atoms
  scanning bonds ...
  2 = max bonds/atom
  scanning angles ...
  1 = max angles/atom
  reading bonds ...
  1344 bonds
  reading angles ...
  672 angles
Finding 1-2 1-3 1-4 neighbors ...
  special bond factors lj:    0        0        0       
  special bond factors coul:  0        0        0       
     2 = max # of 1-2 neighbors
     1 = max # of 1-3 neighbors
     1 = max # of 1-4 neighbors
     2 = max # of special neighbors
  special bonds CPU = 0.254 seconds
  read_data CPU = 0.586 seconds
include 	in.setup
variable	out_freq equal 500
variable	out_freq2 equal 500

timestep	1.0

neigh_modify    delay 5 every 1

include		in.tip4p
# This is TIP4P/Ice

# create groups ###
group ox type 2
672 atoms in group ox
group hy type 1
1344 atoms in group hy

# set charges - beside manually ###
set group ox charge -1.1794
Setting atom values ...
  672 settings made for charge
set group hy charge 0.5897
Setting atom values ...
  1344 settings made for charge

# ### TIP3P Potential Parameters ###
pair_style lj/cut/tip4p/long 2 1 1 1 0.1577 8.5
pair_coeff 1 1*2 0.000 0.000
pair_coeff 2 2 0.21084 3.1668
bond_style  harmonic
bond_coeff  1 450 0.9572
angle_style harmonic
angle_coeff 1 55 104.52
kspace_style pppm/tip4p 1.0e-5
pair_modify tail yes

thermo          ${out_freq}
thermo          500
thermo_style 	custom step temp pe etotal epair emol press lx ly lz xy xz yz vol pxx pyy pzz pxy pxz pyz cella cellb cellc cellalpha cellbeta cellgamma

restart 	${out_freq} restart.lmp.${pid} restart2.lmp.${pid}
restart 	500 restart.lmp.${pid} restart2.lmp.${pid}
restart 	500 restart.lmp.0 restart2.lmp.${pid}
restart 	500 restart.lmp.0 restart2.lmp.0

include         in.dump
dump            myDump all atom ${out_freq2} dump.water.${pid}
dump            myDump all atom 500 dump.water.${pid}
dump            myDump all atom 500 dump.water.0
dump_modify     myDump append yes


timer           timeout 23:50:00 every 1000
New timer settings: style=normal  mode=nosync  timeout=23:50:00


fix 		0 all shake 1e-6 200 0 b 1 a 1
       0 = # of size 2 clusters
       0 = # of size 3 clusters
       0 = # of size 4 clusters
     672 = # of frozen angles
  find clusters CPU = 0.078 seconds
fix             1 all nph tri ${pressure} ${pressure} ${pressureDamp}
fix             1 all nph tri 6000 ${pressure} ${pressureDamp}
fix             1 all nph tri 6000 6000 ${pressureDamp}
fix             1 all nph tri 6000 6000 1000
fix             2 all temp/csvr ${temperature} ${temperature} ${tempDamp} ${seed}
fix             2 all temp/csvr 255 ${temperature} ${tempDamp} ${seed}
fix             2 all temp/csvr 255 255 ${tempDamp} ${seed}
fix             2 all temp/csvr 255 255 100 ${seed}
fix             2 all temp/csvr 255 255 100 745823
velocity        all create ${temperature} ${seed}
velocity        all create 255 ${seed}
velocity        all create 255 745823

run             500000
PPPM initialization ...
  extracting TIP4P info from pair style
  using 12-bit tables for long-range coulomb (../kspace.cpp:340)
  G vector (1/distance) = 0.37789371
  grid = 25 48 36
  stencil order = 5
  estimated absolute RMS force accuracy = 0.0026123984
  estimated relative force accuracy = 7.8671602e-06
  using double precision FFTW3
  3d grid and FFT values/proc = 6615 1092
Last active /omp style is kspace_style pppm/tip4p/omp
Neighbor list info ...
  update every 1 steps, delay 5 steps, check yes
  max neighbors/atom: 2000, page size: 100000
  master list distance cutoff = 10.8154
  ghost atom cutoff = 10.8154
  binsize = 5.4077, bins = 5 9 4
  1 neighbor lists, perpetual/occasional/extra = 1 0 0
  (1) pair lj/cut/tip4p/long/omp, perpetual
      attributes: half, newton on, omp
      pair build: half/bin/newton/tri/omp
      stencil: half/bin/3d/tri
      bin: standard
Per MPI rank memory allocation (min/avg/max) = 9.641 | 9.653 | 9.672 Mbytes
Step Temp PotEng TotEng E_pair E_mol Press Lx Ly Lz Xy Xz Yz Volume Pxx Pyy Pzz Pxy Pxz Pyz Cella Cellb Cellc CellAlpha CellBeta CellGamma 
       0          255   -10133.557   -9112.7334   -10133.557            0   -3267.9366    18.399555    45.140778    19.505716            0    -6.792611            0    16200.867    -7058.937   -3364.4926     619.6198    353.42225   -4949.7895   -3681.5922    18.399555    45.140778      20.6546           90    109.20001           90 
     500    255.19352    -9749.693   -8728.0952    -9749.693            0    3756.0855    18.131845    45.674878    19.457456  -0.18164676   -6.7096394  0.071099325    16114.077    4334.1004    4172.7307    2761.4255    577.21114    1096.5308   -518.93866    18.131845    45.675239    20.581956    89.727793    109.02594    90.227861 
    1000     253.6604   -9681.3114    -8665.851   -9681.3114            0    6107.3295    17.997178    46.060306    19.373193  -0.45168398    -6.548079   0.14763913    16059.515    6989.8737      5720.07     5612.045    126.27569    64.235887    684.60392    17.997178     46.06252    20.450422    89.406474    108.67459    90.561845 
    1500    254.51292   -9680.9641   -8662.0908   -9680.9641            0    5189.8743    18.094779       45.967    19.304227  -0.21096222   -6.4516462   0.15375604    16056.536    4154.1354     5072.857    6342.6306   -229.67096   -745.11722   -626.29481    18.094779    45.967484    20.354374    89.483841    108.47955    90.262953 
    2000    256.22576   -9671.5871    -8645.857   -9671.5871            0    6629.5767    18.029782    45.567849    19.518027  0.017868809   -6.4463191  0.012742521    16035.589     6089.824    7373.5975    6425.3085    -967.7284   -394.45209   -1330.2603    18.029782    45.567852    20.555013    89.971527     108.2771    89.977532 
    2500    264.08625   -9677.0687   -8619.8712   -9677.0687            0     6376.469    18.131514    45.619165    19.372575  -0.37445263    -6.663157  0.070380076     16023.92    4781.9877    7135.9204    7211.4989    81.243527     742.4478   -81.221676    18.131514    45.620702    20.486564    89.650212    108.98043    90.470286 
    3000    253.36903   -9663.8539   -8649.5599   -9663.8539            0    6069.4109    17.992533    46.161083    19.288052  -0.51476275   -6.6826641   0.18569382    16019.785    5122.2422    6671.3181    6414.6725    1201.8587    661.24468   -859.64122    17.992533    46.163953    20.413756    89.269673    109.10867    90.638904 
    3500    248.00951   -9674.8413   -8682.0027   -9674.8413            0    7331.5157    17.888536    46.044474    19.396839 -0.076654312   -6.4927121  0.029430347     15976.56    6944.4585    7255.3153    7794.7734    489.49116    236.69621    211.87423    17.888536    46.044538    20.454671    89.887285    108.50694    90.095385 
    4000    244.89803   -9656.3039   -8675.9213   -9656.3039            0    6487.9386    18.165296    45.642469     19.31672   0.17274948   -6.2919701 -0.015698576    16015.665    5158.3439    6912.7498    7392.7221    -783.3484   -468.03938    62.846434    18.165296    45.642796    20.315629    90.111436     108.0418    89.783146 
    4500    250.25322   -9649.7035   -8647.8828   -9649.7035            0    6978.3625    18.009462    45.620989    19.498131  -0.71354439    -6.330326   0.04021785    16019.849    8607.0018    7161.3588    5166.7269    505.39361   -443.73407    671.85811    18.009462    45.626569    20.500042    89.610913    107.98667    90.896073 
    5000    251.42722   -9623.7365    -8617.216   -9623.7365            0    6710.0951    18.002978     46.11675    19.293534  -0.57384416   -6.5247441   0.26510987    16018.241    7405.4201    6057.1063     6667.759   -28.262038    859.61012   -990.75488    18.002978     46.12032    20.368678    89.025911    108.68302    90.712911 
    5500    251.30652   -9701.6982    -8695.661   -9701.6982            0     6438.834    18.058378    46.019409    19.327599  0.084556951   -6.6105285   0.14770703    16061.929    6310.0324    6469.3452    6537.1245   -1014.2674    818.35122   -572.29736    18.058378    46.019487    20.427359     89.61977    108.88147    89.894724 
    6000    258.34591   -9660.0613   -8625.8438   -9660.0613            0    5572.8798     18.06547    45.748466    19.464783  -0.16749533   -6.5529202  -0.10962111    16087.011    5236.1953    6011.4116    5471.0325    319.39386    133.62711    1176.2941     18.06547    45.748773    20.538514    90.238877     108.6058    90.209772 
    6500     250.3496   -9667.6198   -8665.4132   -9667.6198            0    6414.0303    18.055588    45.835339    19.301362   -0.5585845   -6.3063505   0.24674846    15973.499    5834.2861    6526.0439     6881.761   -545.91525    -296.4485   -666.10505    18.055588    45.838743    20.306982    89.086991    108.09243    90.698216 
    7000     254.9553   -9642.0894   -8621.4452   -9642.0894            0    6794.9953    17.934084    46.347573    19.274055  -0.56465605   -6.1865847   0.36979143    16020.619    7898.3369    5738.8179     6747.831   -595.22765   -420.83648   -1292.3538    17.934084    46.351012    20.245982    88.740188    107.79252    90.698004 
    7500    256.99972   -9671.8811   -8643.0527   -9671.8811            0    5428.1598    17.958674    46.005508    19.418511  -0.16056793   -6.4634617  -0.12874563    16043.533    4898.0223    5920.6612    5465.7959    55.160028     357.1415    1252.7984    17.958674    46.005789     20.46635    90.297271    108.40967    90.199972 
    8000    244.54725   -9650.2475   -8671.2691   -9650.2475            0    5604.1644    18.162296    45.662069    19.368788 -0.027925019   -6.6861637  0.087372601    16063.079      4771.81    6446.4662     5594.217   -777.78771    365.95807   -962.64121    18.162296    45.662078    20.490543    89.744254    109.04465     90.03504 
    8500    254.33538   -9700.9292   -8682.7667   -9700.9292            0    5974.4348    18.025043    45.801147    19.378463  -0.58563732   -6.5530683   0.17812396    15998.232    5420.9682     6450.162    6052.1741    17.649485    344.55682   -873.81418    18.025043    45.804891    20.457254     89.26648    108.68287    90.732574 
    9000    262.93886   -9656.7529   -8604.1487   -9656.7529            0    6861.8958    17.997463     45.99541    19.384424  -0.45180914   -6.3677422  0.089558649    16046.439     6699.269    6619.1652     7267.253    793.15155   -95.538843   -318.54763    17.997463    45.997629    20.403726     89.57288    108.18506    90.562794 
    9500    265.50598   -9688.3229   -8625.4419   -9688.3229            0    5289.5476     18.09872    45.867423    19.374047   0.68941847   -6.3238442  0.031046023    16083.203    4816.4381    5049.7032    6002.5015    -665.1171   -656.92749    -206.7551     18.09872    45.872604    20.380031    90.179923    108.07708     89.13887 
   10000    256.25021   -9639.3468   -8613.5188   -9639.3468            0    5199.6432      18.1325    45.711692    19.482516  -0.22185948   -6.5758413 -0.040728329    16148.419    5245.8638    5884.9725    4468.0932    566.97725    145.71585     1337.873      18.1325    45.712231    20.562388    90.024556     108.6508     90.27808 
   10500    263.44169   -9642.0723   -8587.4552   -9642.0723            0    5921.9869    18.040822    46.052314    19.350963  -0.79624246   -6.6936311   0.25526443    16077.198    5030.1666    5907.7857    6828.0084    1337.2525    711.42963   -359.42512    18.040822    46.059197     20.47754    88.962056    109.07931    90.990543 
   11000    257.09744   -9687.9209   -8658.7012   -9687.9209            0    5693.7377    17.935075     46.17796    19.428215  -0.21069292   -6.5258769   0.14677036    16090.548    6633.4356    5599.5451    4848.2324   -751.07203    180.04062   -648.63784    17.935075    46.178441    20.495467     89.50646    108.56655    90.261418 
   11500    252.63737   -9669.3977   -8658.0327   -9669.3977            0    5845.1978    18.191309    45.663785    19.349071   0.15998492   -6.3350923  -0.16255592    16072.964    5800.1942    5551.7458    6183.6534   -783.47271   -1231.9288    275.22018    18.191309    45.664066    20.360412    90.519908     108.1284    89.799263 
   12000    258.05656   -9631.0401   -8597.9809   -9631.0401            0     6716.745    18.044022    45.564787    19.494284  -0.10252216   -6.3583068   0.12634353    16027.655    7176.7576    7469.8255     5503.652   -45.007553    332.22324   -23.911456    18.044022    45.564902    20.505393    89.606997    108.06404    90.128917 
   12500    259.32133   -9664.6636   -8626.5412   -9664.6636            0    7048.2515      17.9559    46.164451    19.300343  -0.62309072   -6.5725004   0.34010498    15998.523    7617.7904    6070.4118    7456.5522    152.83435   -193.26903    279.80283      17.9559    46.168656    20.391584    88.795146    108.80295    90.773285 
   13000      269.442   -9684.5404   -8605.9026   -9684.5404            0    5795.3084    18.066468    46.045256    19.252312  -0.39024858   -6.6832773  0.040988836     16015.52    5862.1375    5594.2247    5929.5629    231.79607    114.16952    -138.8021    18.066468    46.046909    20.379386    89.725521    109.14397    90.485589 
   13500    258.95653   -9704.9994   -8668.3374   -9704.9994            0    5980.7536    18.040476    45.555775    19.514952  0.023428338   -6.5619663  0.094556712    16038.321    5991.1854    6460.3456    5490.7297     -1444.58    486.16208    125.56362    18.040476    45.555781    20.588873    89.746253    108.58518    89.970534 
   14000    253.97169   -9713.2212   -8696.5146   -9713.2212            0    5233.9083    18.087416    45.873717    19.359016  -0.45004425    -6.321292  0.054094454    16062.892    4108.4416    5897.3489    5695.9343    88.785217    161.81001    241.47443    18.087416    45.875924    20.364998    89.673346    108.08333    90.562082 
   14500    248.65869   -9715.6562   -8720.2188   -9715.6562            0    4736.8061    17.895193     46.60333    19.318901  -0.42586309   -6.2266904   0.16683454    16111.492    4514.3652       4650.2    5045.8531    979.27213   -787.21266    70.922586    17.895193    46.605276    20.298262     89.36848    107.86407    90.523557 
   15000    261.58601   -9695.8618   -8648.6734   -9695.8618            0    4900.5174     18.03159    46.106438    19.396217   0.01178513   -6.5107334   0.22211144    16125.479    4889.0301    4973.8536    4838.6685   -459.27376   -77.530434   -1808.6309     18.03159    46.106439    20.460992    89.382682    108.55424    89.985355 
   15500    256.70497     -9679.41   -8651.7615     -9679.41            0    4547.4582    18.193678    45.555205    19.465342  -0.25128552   -6.7266681  0.038392159    16133.201    4516.8048    5270.0778    3855.4921    792.60304    460.20184    411.80471    18.193678    45.555898     20.59488    89.789967    109.06366    90.316044 
   16000    251.43978   -9648.6395   -8642.0687   -9648.6395            0    5377.3804    18.035621    45.923676    19.466198  -0.28613246   -6.6397188   0.15015033    16123.113    6768.5871    3944.5394    5419.0147    336.46673    144.13507    47.378468    18.035621    45.924567    20.567967     89.46649    108.83346    90.356983 
   16500    259.02251   -9675.0496   -8638.1235   -9675.0496            0    5762.6524    18.039607    46.192544    19.281672  -0.41862646   -6.3401839   0.12026797    16067.328     4932.759    5181.7142    7173.4841    296.18794   -325.16134   -322.12098    18.039607    46.194441    20.297667    89.498331    108.20153    90.519237 
   17000    259.77095   -9683.4519   -8643.5296   -9683.4519            0    6249.2249    18.031458    45.464435    19.556547  -0.17906817   -6.1740843  0.038415678    16032.262    5938.9977     7061.414     5747.263    664.25122    546.01359    163.05966    18.031458    45.464787    20.508031    89.824736    107.52109    90.225666 
   17500    258.24947   -9676.9261   -8643.0946   -9676.9261            0    6758.6353    18.121034    45.349931    19.450557   0.23839526   -6.5616665   0.22646694    15984.228    6204.9257    6932.0411     7138.939   -753.71751     509.3954   -750.80104    18.121034    45.350558    20.528782    89.464202     108.6407    89.698811 
   18000    253.20832   -9690.3925   -8676.7418   -9690.3925            0    6443.6794    18.058257    45.970368    19.272909  -0.49156713    -6.842639  0.084961315    15999.304    6547.3744    6704.6714    6078.9924    230.27897    587.01125     208.6991    18.058257    45.972996    20.451747    89.557017    109.54668    90.612648 
   18500    252.51789   -9668.9663   -8658.0796   -9668.9663            0    6465.8958    17.959945       46.038    19.369349  -0.34415471   -6.6269544   0.11404177    16015.352    6703.2256     6493.928    6200.5338    217.97686   -260.43549   -706.82377    17.959945    46.039287    20.471962    89.542186    108.88737    90.428304 
   19000    256.89624   -9686.5077   -8658.0935   -9686.5077            0     6467.759     18.15631    45.626611    19.374803 -0.013127694   -6.3763457  0.065588703    16050.298    6698.8752    6891.3792    5813.0226    494.14751   -181.90346    1513.5589     18.15631    45.626612    20.397184    89.810607    108.21654    90.016485 
   19500    257.71921   -9670.6635   -8638.9548   -9670.6635            0    6284.3448    18.151581     45.55835    19.403547  -0.30321073   -6.3895845  -0.03621343    16045.882     6174.062    6165.3285     6513.644   -283.20825   -1320.6097   -244.74999    18.151581    45.559359    20.428552    89.982297    108.22667    90.381323 
   20000    252.84563   -9708.1224   -8695.9237   -9708.1224            0    5144.6759    17.869559    46.240648    19.450197   -0.4038862    -6.606527   0.18201085    16071.698    6127.9901    5168.2059    4137.8316    279.40974    395.31392   -216.10343    17.869559    46.242412    20.542383    89.331409       108.76    90.500434 
   20500    252.80939    -9684.403   -8672.3494    -9684.403            0    5457.9222    18.128758    46.142656    19.242927  -0.30655956   -6.7397966   0.19131943    16096.883    4618.5184    5499.7951     6255.453     13.68231    319.30442    282.82734    18.128758    46.143674    20.389991    89.336569    109.30182    90.380652 
   21000    250.64989   -9678.7116    -8675.303   -9678.7116            0    5687.8692    18.040371    45.482884    19.603225  -0.27123518   -6.4935484  0.070610472    16084.997    5641.6544    6163.7809    5258.1724    186.54379   -170.72897   -832.27165    18.040371    45.483692     20.65085    89.696656    108.32729    90.341677 
   21500    245.49935   -9702.8756   -8720.0857   -9702.8756            0     6094.113    18.147658      45.7449    19.315109  -0.22161022    -6.355372  0.070854575    16034.685     5905.239    6577.4729    5799.6269    98.529361   -912.39877    87.536267    18.147658    45.745437    20.333943    89.713598    108.21297    90.277566 
   22000    260.27815   -9691.8174   -8649.8646   -9691.8174            0    6313.4676    17.945064    46.390254     19.26755  -0.18886778   -6.4111233   0.10158803    16039.774     7293.015    4428.7715    7218.6162   -373.72175    78.367396    -1061.181    17.945064    46.390639    20.306435    89.639717    108.40421    90.233266 
   22500    249.51884   -9652.7133   -8653.8326   -9652.7133            0     6085.514    17.998663    45.866088    19.421397  -0.20940665   -6.6217345   0.10613725    16032.912    7514.9905    5820.0178    4921.5336   -103.47057    510.88558   -439.47259    17.998663    45.866566    20.519486    89.619222    108.82657    90.261588 
   23000    250.41167   -9724.3475   -8721.8925   -9724.3475            0     6331.735    18.270497    45.248686    19.343741  -0.30864126   -6.7099916   0.12789749     15991.78     5124.475    7474.0769    6396.6531   -7.1288324      189.991   -653.72387    18.270497    45.249739    20.474879    89.514027    109.13034    90.390808 
   23500    250.49562   -9666.9783   -8664.1873   -9666.9783            0    7167.7843    17.907674    45.949503    19.455214  -0.23488151   -6.4962828    0.1791349    16008.698      8620.35    7512.0383    5370.9646     -354.456    509.39598    1253.0025    17.907674    45.950104    20.511926    89.406864    108.46393    90.292878 
   24000    259.92481   -9627.7458   -8587.2076   -9627.7458            0    6094.8229    18.003065    46.431576    19.236856  -0.30476099   -6.3793635  0.033076323    16080.294    6405.1187      5735.88    6143.4699    887.36904   -396.94106    211.53164    18.003065    46.432576    20.267067    89.788122    108.34663    90.376065 
   24500    253.36429   -9659.6839   -8645.4089   -9659.6839            0    5824.5205    18.180396    45.478643    19.425189  -0.25065417    -6.555344 -0.0017621325     16061.13    5728.3992    5594.8907    6150.2716   -64.583807   -499.55691    1361.1872    18.180396    45.479334    20.501476    89.903954     108.6478    90.315781 
   25000    263.55424   -9667.2361   -8612.1685   -9667.2361            0    6453.1921    18.107396    45.330788     19.55618 -0.0059596354   -6.6202993    0.1348206    16052.153    6251.7367    7159.8105    5948.0293   -150.67753    417.86815    -155.5063    18.107396    45.330789    20.646809    89.623449    108.70195    90.007533 
   25500    258.99128   -9677.8432   -8641.0421   -9677.8432            0    5825.8124    18.047751    46.205081     19.21892  -0.28354965   -6.4100153  0.082656251    16026.615    5277.2576    5570.7034    6629.4763   -249.24929    32.274105   -237.33805    18.047751    46.205951    20.259862    89.655003    108.44474    90.351606 
   26000    266.45964   -9669.0309   -8602.3322   -9669.0309            0    5706.6105    17.942795    46.003546    19.434394  -0.56124401   -6.3027994   0.12806396    16041.775    6715.3047    6162.3476    4242.1793    321.45994   -259.59488    263.30657    17.942795    46.006969    20.431284    89.425265    107.96812    90.698975 
   26500    245.37475   -9681.5464   -8699.2554   -9681.5464            0    6553.4415    18.085401    45.582026    19.464385  -0.10972534    -6.552448   0.17828359     16045.84     6472.452    6893.5174    6294.3552   -330.52541     821.1214   -795.28531    18.085401    45.582158    20.538468    89.458637    108.60445    90.137922 
   27000    249.62716   -9642.0927   -8642.7783   -9642.0927            0    5915.5632    18.175787    45.892138    19.283803   -0.2204209   -6.7346316  -0.08892197    16085.116    4497.0469    6254.0068    6995.6359   -348.82264    278.15762    1160.2799    18.175787    45.892668    20.426166    90.158693    109.25094    90.275191 
   27500    250.30646   -9645.2091   -8643.1753   -9645.2091            0    5932.7589    17.897043    46.172933    19.434126   -0.1858898   -6.6033233   0.13843974    16059.565    5385.0383     5638.349    6774.8894    597.15159   -49.865843   -930.41678    17.897043    46.173307    20.525796    89.539349    108.76628    90.230669 
   28000    254.98052   -9686.1277   -8665.3826   -9686.1277            0    5619.2972    18.107435    45.920957    19.319126  -0.47352123   -6.3863351   0.24662771    16064.061    5289.3138    5063.9452    6504.6327    -31.29747   -176.47506   -180.05809    18.107435    45.923398    20.348827    89.120165    108.29098    90.590794 
   28500    263.84383    -9695.967     -8639.74    -9695.967            0    5669.4239    18.055533    45.542191    19.548776  -0.41799765   -6.3150904  -0.08469316    16074.734    5351.1656    6351.0709    5306.0353    600.97631    446.24454    1307.0094    18.055533     45.54411    20.543665    90.074551    107.90252     90.52586 
   29000    246.37089   -9662.8956   -8676.6167   -9662.8956            0    5328.1898    18.042875    46.083546    19.361914   0.39497166   -6.5404006  0.042341025    16099.038    5539.8481    5671.5717    4773.1494   -578.50468    302.69867    435.92606    18.042875    46.085239    20.436789     90.03845    108.66478    89.508943 
   29500    262.10275   -9675.6536   -8626.3965   -9675.6536            0    4250.5881    18.090702    46.258057    19.348558  -0.14754963   -6.6714011   0.11173194    16191.662    4046.2771    3817.1089    4888.3784   -318.34431    41.000074   -290.26964    18.090702    46.258293    20.466723    89.627638    109.02395    90.182756 
   30000    267.24906   -9678.0879    -8608.229   -9678.0879            0    4795.8271    18.076267    45.808523    19.512049  -0.60555063   -6.5919769  0.073352223    16156.895    5058.5075    4121.8036    5207.1703    251.61406    120.44638     1110.036    18.076267    45.812525    20.595621    89.553553    108.66697    90.757359 
   30500    251.28871   -9670.2964   -8664.3304   -9670.2964            0    5466.3769    18.220556    45.574276    19.407677  -0.20399353   -6.5268378   0.17071075    16115.915    4563.9617    6660.8738    5174.2953   -1238.4544   -84.578535   -739.67713    18.220556    45.574733    20.476491    89.440581    108.58722    90.256458 
   31000    260.24306   -9652.7298   -8610.9175   -9652.7298            0    5767.5653    17.988603    46.094279    19.418646  -0.23006433   -6.3770746 -0.019443676    16101.392    7294.5799    5335.8166    4672.2993    51.369111    270.22783   -284.89097    17.988603    46.094853    20.438964    89.965281    108.18015    90.285971 
   31500    253.64136   -9661.8926   -8646.5084   -9661.8926            0     5595.233    17.932324    46.410299    19.306149  -0.47538221   -6.4774592 0.0038461313    16067.436    5678.5071    5492.0774    5615.1146    1042.9126   -75.375809    1329.9246    17.932324    46.412733    20.363813    89.802509    108.54726    90.586862 
   32000    258.36146   -9664.4629   -8630.1831   -9664.4629            0    6426.6078    18.239701    45.544327    19.279014  -0.23988743   -6.7550996   0.33235402    16015.364    5966.1264    6778.8961    6534.8008   -711.47627    511.58586    395.07346    18.239701    45.544959    20.430913    88.968137     109.3071    90.301781 
   32500    262.19903   -9675.9195    -8626.277   -9675.9195            0    6050.9475    18.026963    45.503724    19.542614  -0.36628218   -6.6454446  0.044608411    16030.688    6255.0147    6466.0231    5431.8048   -141.59185    30.585109     755.9433    18.026963    45.505198    20.641649    89.727706     108.7805    90.461192 
   33000    261.03856    -9667.078   -8622.0811    -9667.078            0    6135.8647    18.020308    46.120268    19.307712 -0.057477572   -6.4246827  0.033118838    16046.667    5583.4141     6364.927    6459.2529    183.88993    946.81285    371.83237    18.020308    46.120304    20.348596    89.884202    108.40495    90.071405 
   33500    252.31414   -9686.7945   -8676.7235   -9686.7945            0    6142.9782    17.926443    46.231869    19.324803 -0.073645904   -6.2301268   0.18470122    16015.874    7634.1731     5142.995    5651.7664    65.974757   -927.36817    1348.8452    17.926443    46.231928    20.305088    89.450808    107.86805     90.09127 
   34000    259.91727   -9744.7609   -8704.2529   -9744.7609            0    5597.5033     18.09958    45.494052     19.46376  -0.73921256   -6.4213732   0.16012841    16026.912    5426.4393    6122.1393    5243.9312    535.17926   -856.72669   -1172.8818     18.09958    45.500057    20.496283    89.260782    108.25789    90.930892 
   34500    252.40176    -9715.857   -8705.4352    -9715.857            0    4647.8369    18.227313    45.539442    19.421724  -0.25892501   -6.8349176  0.023575753    16121.228    4785.9917     4751.048    4406.4708   -497.65185    552.59759    905.22294    18.227313    45.540178    20.589318    89.826253    109.38804    90.325765 
   35000    244.99861   -9716.8143   -8736.0291   -9716.8143            0    4841.6271    18.058873    46.212584    19.322054   0.16192691   -6.7940645  0.064528274    16125.166    5020.5701    4585.5674    4918.7439   -547.37331    709.89824    807.70194    18.058873    46.212868    20.481828    89.886085    109.37271    89.799239 
   35500    263.12495   -9695.6518   -8642.3027   -9695.6518            0    5577.2398    17.992123    46.008453    19.376748  -0.38151725   -6.4406611  0.086016309    16039.873    6384.1682    6068.1423     4279.409   -298.29691   -719.50561    -899.0851    17.992123    46.010035    20.419301    89.608791    108.38619    90.475105 
   36000    257.66235   -9699.9184   -8668.4373   -9699.9184            0    7157.5067    18.109326    45.459019    19.425077   -0.5670851   -6.2992381   0.18192025    15991.349    6173.8114     7495.934    7802.7746    31.030529   -687.81232    85.189842    18.109326    45.462556    20.421731    89.269168     107.9663    90.714707 
   36500    257.55443   -9667.4758   -8636.4267   -9667.4758            0    7049.9385    17.976956    45.829446    19.412497 -0.072087079   -6.6315352   0.18717316     15993.45    6776.5269    7201.2041    7172.0845   -176.55952    417.96309    470.98584    17.976956    45.829503    20.514807    89.448104    108.85995    90.090123 
   37000    254.08652    -9669.888   -8652.7218    -9669.888            0    6922.3924    17.988075    46.322115    19.206477  0.065138655   -6.9246549 -0.028452462    16003.714    7417.3213    6044.8973    7304.9585   -654.22808    535.42397    974.05123    17.988075    46.322161     20.41667    90.107173    109.82611     89.91943 
   37500    255.89982   -9693.4345   -8669.0092   -9693.4345            0    4560.6881      18.0236    45.730601    19.511767  -0.39252775   -6.5922348  0.050465522    16082.185    5783.1965    4054.8231    3844.0447    56.234103    -533.7232   -47.088489      18.0236    45.732286    20.595367      89.7022    108.66797    90.491785 
   38000    258.20854   -9653.1023   -8619.4347   -9653.1023            0    6164.9666    18.122561    45.547596    19.474286  -0.47592388   -6.3434883    0.2100725    16074.837    6314.3447    6146.1298    6034.4254    612.58876   -815.50111   -741.77891    18.122561    45.550082    20.482475    89.226968    108.04135    90.598658 
   38500    254.48885   -9663.3884   -8644.6115   -9663.3884            0    6221.1634    18.042804    46.140867    19.275093  -0.22507589    -6.457138   0.14137526     16046.72     5399.831    6211.7396    7051.9197    343.05097    402.85085   -479.11127    18.042804    46.141416      20.3284    89.512755    108.52034    90.279488 
   39000    265.15504    -9740.404    -8678.928    -9740.404            0    6658.6201    17.926551    46.019035    19.392236  -0.42597072   -6.7333726  0.031596457    15997.869    7906.3121    6151.2322    5918.3159    437.70691    352.15317   -292.38779    17.926551    46.021007    20.527984    89.737861      109.148    90.530338 
   39500    263.82376   -9681.0863   -8624.9396   -9681.0863            0    6826.2342    18.175385    45.486165    19.397942  -0.19012298   -6.7664399   0.27927904    16036.832    6743.1746    6711.0466    7024.4814   -654.73981    328.18947    208.37261    18.175385    45.486563    20.546115    89.142297    109.22808    90.239483 
   40000    255.24258   -9693.6052    -8671.811   -9693.6052            0    7002.3924    18.083792    45.532358    19.390409  -0.27021635   -6.4148268  0.075776612    15966.018    6686.1234    7362.4628     6958.591    1252.5003   -764.10561    62.165989    18.083792     45.53316    20.424096    89.680631    108.30536    90.340024 
   40500     248.7529   -9677.3615   -8681.5469   -9677.3615            0    6508.3089    17.896108    46.132875    19.351846  -0.10727746   -6.1997708 -0.031538962    15976.863    6510.2319    6688.7745    6325.9205    232.53901   -258.93773    529.62297    17.896108       46.133    20.320731    90.048277    107.76393    90.133235 
   41000    254.14833   -9708.8596   -8691.4459   -9708.8596            0    6161.1357    18.092818    46.037314    19.270948  -0.36261914   -6.4403937   0.26300311    16051.635    6066.8642    5250.5362    7166.0067   -441.22953   -1056.8707   -1283.5187    18.092818    46.038742    20.320366    89.115387    108.47814    90.451289 
   41500    254.50936   -9643.7696   -8624.9106   -9643.7696            0    5873.9949    18.113048    45.471413    19.540963  -0.80366635   -6.7993078   0.12702177    16094.443    5827.7256    5628.2441     6166.015    1028.2901    991.74254     1695.592    18.113048    45.478514     20.69048    89.315566    109.18504    91.012546 
   42000    253.67637   -9671.1192   -8655.5949   -9671.1192            0    5544.1384    18.177614     45.73796    19.353364  0.013267905   -6.7608295   0.12296995    16090.522    4337.6979    5464.8547    6829.8627   -327.43355    697.06238   -99.259411    18.177614    45.737961     20.50065      89.6618    109.25579    89.983379 
   42500    259.39827   -9692.6157   -8654.1854   -9692.6157            0    6181.0885    17.931415    46.110832    19.369892 -0.058160145   -6.3259051 0.00099060863    16015.655    6655.6554    5572.9171    6314.6931   -311.04064    254.08099    861.34165    17.931415    46.110869    20.376697    89.974779    108.08623    90.072268 
   43000    255.16824   -9650.7976    -8629.301   -9650.7976            0     5107.999    18.017181    45.873308    19.440124  -0.52264874   -6.2698035   0.12099961    16067.412    5390.1788    4927.5421    5006.2761   -413.29581   -644.62979   -56.203204    18.017181    45.876285    20.426539    89.460258    107.87516     90.65276 
   43500     259.1288    -9673.476   -8636.1243    -9673.476            0     7375.337    18.156419    45.378219    19.428715   -0.3863688   -6.6272707   0.27112629    16007.435    7435.1174    7509.5014    7181.3922    570.06002   -46.981929    653.87712    18.156419    45.379864    20.529715    89.085835    108.83316    90.487828 
   44000    258.16204   -9693.7537   -8660.2722   -9693.7537            0    6936.0719    18.003932    45.801712    19.354982  0.054624039   -6.8433591   0.06499815     15960.33    8002.3873    7454.4273     5351.401     -1744.59    766.32446   -57.101486    18.003932    45.801744    20.529275    89.841373    109.47201    89.931668 
   44500    257.96743   -9694.8853   -8662.1829   -9694.8853            0    6332.5081    18.016836    46.305295    19.208893 -0.087625765   -6.7044679 -0.043833019    16025.497    6005.4596     6313.167    6678.8977   -115.25673    465.93959    622.25507    18.016836    46.305378    20.345352    90.087712    109.24044    90.108423 
   45000    250.90391   -9724.6544   -8720.2289   -9724.6544            0    5746.3335    18.109947     45.52134     19.47509  -0.45192968   -6.4113687    0.2146369    16055.051    5883.2113     6505.382    4850.4071   -519.33069    740.99123   -1139.9802    18.109947    45.523583     20.50441     89.22239    108.22096    90.568806 
   45500    259.37271   -9714.4651    -8676.137   -9714.4651            0    6787.3313    18.096087    45.597265    19.424551  -0.44399483   -6.3847146   0.12002806    16027.821    6595.1059    7263.2109    6503.6769    1052.0743   -484.26041    548.85323    18.096087    45.599427    20.447303    89.489477    108.19501    90.557889 
   46000     260.3754   -9664.3048   -8621.9627   -9664.3048            0    6279.9436    17.956617    46.170506    19.345025 -0.042131552    -6.538637  -0.02426711    16038.304    6597.2247    6643.2948    5599.3113   -134.03788     505.1669   -4.8211799    17.956617    46.170525    20.420195    90.051348    108.67529    90.052284 
   46500    256.32926   -9693.3458   -8667.2014   -9693.3458            0    7634.9683    18.005425    45.749324    19.346536  0.047881552   -6.7431452  0.068697389    15936.439    7050.9001    7889.8919    7964.1129   -685.31098    470.05151   -205.62994    18.005425    45.749349    20.488123    89.827621    109.21565    89.940034 
   47000    247.95434    -9659.014   -8666.3962    -9659.014            0    7309.3018    18.210415    45.171638    19.407605  -0.65805517   -6.7407251   0.27045823    15964.585    6633.1915    7660.8565    7633.8575   -864.99178   -562.86813    316.33663    18.210415    45.176431     20.54667    88.972031    109.15161    90.834619 
   47500     270.4328   -9699.1135   -8616.5094   -9699.1135            0    6251.9815     18.04545    45.636561    19.483861  -0.62819213   -6.4491398   0.12497316    16045.589    5229.6719    6708.4894    6817.7833    762.29096   -126.15018    772.22509     18.04545    45.640884    20.523836    89.403337    108.31414    90.788633 
   48000    257.25233   -9677.0783   -8647.2387   -9677.0783            0    6740.8392    17.941664    46.166873    19.342351  0.083746519    -6.325465  0.049223357    16021.473    6999.1287    6339.8119    6883.5771   -903.24323   -358.58549   -151.43477    17.941664    46.166949    20.350441    89.893719    108.10907    89.896066 
   48500    255.46663    -9680.148   -8657.4569    -9680.148            0    4651.3418    18.038326    46.057764    19.369923  -0.21842701   -6.4824468 -0.0015468422    16092.628    4805.9002     4037.229    5110.8961   -69.645677   -66.029946    764.77332    18.038326    46.058282    20.425866    89.918105    108.50362    90.271721 
   49000    249.06988   -9613.2363   -8616.1529   -9613.2363            0    4917.0902    18.196157     45.57421    19.491907  -0.60644214   -6.7591305   0.19618677     16164.16    4160.4227    6060.7126    4530.1353    655.11143    434.13507    592.30135    18.196157    45.578244    20.631499    89.205437    109.12391    90.762372 
   49500    264.80397   -9603.1387    -8543.068   -9603.1387            0    5501.4494     18.24427    45.772637    19.409736  -0.20827841   -6.8364467   0.36197667    16208.844     5067.506    5487.5527    5949.2895   -184.18929    1394.6426   -1819.2404     18.24427    45.773111    20.581688    88.905667    109.40003     90.26071 
   50000    260.24245   -9661.6436   -8619.8337   -9661.6436            0     4971.337    17.938012    46.343201    19.437657  -0.05934002   -6.4554094  -0.12851888    16158.619    5346.4354    4952.6625    4614.9129   -232.89148    -178.3772    788.22588    17.938012    46.343239    20.481975    90.336395    108.37139    90.073364 
   50500    251.12564   -9679.4611   -8674.1479   -9679.4611            0      4929.42    18.036141    46.167823    19.333405 -0.048130529    -6.404111  0.063052149    16098.721    4108.1507    5456.1547    5223.9545   -381.01398   -350.18594    248.15136    18.036141    46.167848     20.36657    89.803838    108.32715    90.059732 
   51000    256.02841   -9660.7356   -8635.7955   -9660.7356            0    5168.1441    18.083054    45.721871    19.508205    -0.372087   -6.4860361   0.23074759    16129.209     6121.367    5009.9264    4373.1389   -60.946699    60.782951   -630.66185    18.083054    45.723385    20.559474    89.209847     108.3896    90.466266 
   51500    252.42639   -9662.0333   -8651.5129   -9662.0333            0    6566.7811    18.083152    45.701128    19.374197   -0.4786119   -6.6194647    0.1132728    16011.233    6215.3987    7443.6151    6041.3296    1324.5851   -125.71003    253.74493    18.083152    45.703634    20.474122    89.489035    108.86315    90.600017 
   52000    249.78056   -9677.7155    -8677.787   -9677.7155            0    6955.6308    17.996961    46.158298    19.207306  -0.16341353   -6.5931781  0.034044585    15955.684    7124.1012    5970.5469    7772.2443   -112.48192    -1145.129   -147.61389    17.996961    46.158587    20.307432     89.83809    108.94548    90.202843 
   52500    258.76252   -9642.1526   -8606.2673   -9642.1526            0    6962.5622    17.922359    45.856166    19.459521  -0.21757075   -6.3971446  0.036125206     15992.82     8495.363    6811.1225     5581.201    258.55105   -255.60116    -274.9696    17.922359    45.856682    20.484084    89.814059    108.19779    90.271845 
   53000     259.2169   -9698.7246   -8661.0203   -9698.7246            0    8035.2701    18.224584    45.078257    19.415839  -0.37444714   -6.3559944   0.18269556    15950.743    6586.1825    8717.7281    8801.8996    117.00971   -408.64813    386.53217    18.224584    45.079812    20.430537    89.339589    108.12569    90.475922 
   53500     263.0099   -9699.0565   -8646.1679   -9699.0565            0    6828.0352    18.034208    45.632208    19.441952  -0.26963245   -6.5584958   0.16417925    15999.575    6629.5076    7363.8522    6490.7458   -6.1384173   -190.50428   -989.13565    18.034208    45.633005    20.519024    89.433348    108.64055    90.338546 
   54000    256.00802   -9658.2376   -8633.3791   -9658.2376            0    5766.3948    18.022306     46.30405    19.303877   -0.1655511     -6.71804  0.051969473    16109.197    6630.0586    5037.5881    5631.5378    96.897442    553.92868   -113.70217    18.022306    46.304346    20.439531    89.786991     109.1886    90.204849 
   54500    253.60137    -9729.095    -8713.871    -9729.095            0    6268.8332    18.062919    45.902411    19.325904  -0.24836089   -6.6465742   0.15765024    16023.717    6420.7654    5382.3274    7003.4067   -1022.5357   -136.50824   -754.57664    18.062919    45.903083    20.437524    89.457215    108.97856    90.310003 
   55000    255.22604   -9662.1329   -8640.4049   -9662.1329            0     7192.994    18.032652    45.419268     19.53284  -0.59985753     -6.40932   0.15619856     15997.98    7460.1261    7671.2821    6447.5737    935.29987    197.95575    602.31198    18.032652    45.423229    20.558104    89.328798     108.1657    90.756668 
   55500    254.30473   -9714.9443   -8696.9044   -9714.9443            0    7032.2476    18.132828    45.756487    19.233027 -0.032503362   -6.2497044 -0.012586677    15957.537    7584.0304    6626.9012    6885.8111   -188.74835     19.89434    686.61464    18.132828    45.756498    20.222965    90.023083    108.00138      90.0407 
   56000    259.68174   -9641.2374   -8601.6722   -9641.2374            0    6544.5701     17.78988    46.397291    19.375332   0.37109005    -6.235937  0.074535329    15992.442    7535.4426    6247.6222    5850.6455   -773.22331   -115.62026   -363.89927     17.78988    46.398775    20.354261    89.930587    107.84061    89.541753 
   56500    252.20269   -9661.9178   -8652.2929   -9661.9178            0    6104.0728    18.034614    45.913505    19.322761  -0.46575908   -6.6816994  0.084981312    15999.871    5974.2719    6091.3665      6246.58    1353.2188    852.00451    353.98523    18.034614    45.915868    20.445572    89.571924    109.07492    90.581204 
   57000    251.62933    -9657.348   -8650.0185    -9657.348            0    6779.8751    18.132789    45.525791    19.421133  -0.31301525    -6.730115   0.17454859    16032.331    5401.2453    7798.2446    7140.1354   -291.34095    946.20927    683.99331    18.132789    45.526867    20.554934    89.384473    109.11231    90.393934 
   57500    259.03541   -9696.4338    -8659.456   -9696.4338            0    5536.2749    18.040667    45.791243    19.462004  -0.23636311   -6.5691459   0.10354133     16077.65    5529.0057    4934.9973    6144.8215    186.32061   -300.34327   -509.23676    18.040667    45.791853    20.541032    89.616609    108.65119    90.295744 
   58000    254.04945   -9664.6591   -8647.6412   -9664.6591            0    5494.3845    18.020801    46.372423    19.276181  -0.34189299   -6.2956293  0.026662138    16108.492    5243.0073    4504.1535    6735.9925   -109.83436   -374.29234    1315.9746    18.020801    46.373683    20.278235    89.793524     108.0871    90.422421 
   58500    253.23578   -9656.7825    -8643.022   -9656.7825            0    5368.5438    17.993588     46.06559    19.495418  -0.21875308   -6.2629827   0.20159563    16159.464    5904.0243    5333.0959    4868.5113   -112.19409   -289.31328   -915.08315    17.993588    46.066109    20.477718    89.352723    107.80894     90.27208 
   59000    256.90551   -9667.6822   -8639.2309   -9667.6822            0    5473.9895    18.195742     45.27457    19.547673  -0.44043771    -6.659327   0.16291823    16103.459    5278.7507    6513.4922    4629.7256   -117.44428    398.82928   -336.95832    18.195742    45.276713    20.651506     89.36828    108.81189    90.557364 
   59500    260.89973   -9681.6036   -8637.1625   -9681.6036            0    6825.9422     18.08003    45.929942    19.274475  -0.21409438   -6.7489106  0.014126797    16005.808    6811.4797    6828.9711    6837.3759   -271.92865    1047.5072   -663.53817     18.08003    45.930441    20.421885    89.872106    109.29757    90.267072 
   60000     251.0688   -9699.9063   -8694.8206   -9699.9063            0    6563.3953    17.864302     46.33043    19.326301  -0.13260325   -6.5006271   0.00460812    15995.622    7000.1347    5993.5183    6696.5328    260.68429   -123.81475   -307.26486    17.864302     46.33062    20.390294    89.934771    108.59097    90.163987 
   60500    245.60323   -9685.3932   -8702.1875   -9685.3932            0    6357.9891    18.124445     45.62259    19.384672  -0.23377693    -6.411271   0.25541911    16028.878    6545.8812    6478.9481    6049.1379    382.55203     44.75711   -680.35139    18.124445    45.623189     20.41899    89.191093    108.29959     90.29359 
   61000    241.30438   -9638.2828   -8672.2864   -9638.2828            0    5999.8673    18.125209    45.538255    19.447235  -0.40643108   -6.3764216   0.10099748     16051.56    4952.3184    6551.1413    6496.1421    261.79686   -361.19928   -162.12367    18.125209    45.540069    20.466164    89.557946    108.15322    90.511354 
   61500    257.50685   -9636.8634   -8606.0048   -9636.8634            0    6331.3404    17.941374    46.076096    19.364683 -0.066042045   -6.5799841 0.0063382187    16008.173    4867.9278    7243.4668    6882.6266    -635.6621    1207.5662     1298.784    17.941374    46.076143     20.45207    89.955822     108.7674    90.082123 
   62000    261.80342   -9686.0215   -8637.9627   -9686.0215            0    6568.8617    18.024559    46.369484    19.164794  0.072805291   -6.8337116    0.2035496    16017.734    6816.3213    5301.2912    7588.9725   -766.40949    598.57249    48.358971    18.024559    46.369541    20.347736    89.457044    109.62401    89.910039 
   62500    254.62773   -9720.9317   -8701.5989   -9720.9317            0    5775.2891    18.076177    45.478087    19.531504  -0.99314475   -6.6619469   0.17156344    16056.263    6239.0925    5907.3885    5179.3862   -297.21094    123.58003   -191.96728    18.076177     45.48893    20.637118    89.119945    108.83318    91.251019 
   63000    265.54337   -9665.0311   -8602.0004   -9665.0311            0    5648.2913    18.152813    45.634225    19.460731  -0.32107101   -6.5216304   0.18965011    16121.067    5291.2969    6041.8601    5611.7169   -223.20728   -65.255651   -31.437372    18.152813    45.635355    20.525294    89.342513    108.52608    90.403112 
   63500    248.38992    -9689.828   -8695.4665    -9689.828            0    5966.4009    18.022901    45.994309    19.360018 -0.0093193687   -6.4828282  -0.03848322    16048.504    6477.0366    5546.1784    5875.9878   -82.604778   -273.26914    144.84629    18.022901     45.99431    20.416632     90.10431    108.51342    90.011609 
   64000    259.43258   -9678.4284   -8639.8606   -9678.4284            0    6079.7967    18.037309    45.928779    19.368184  -0.16368442   -6.5340587  0.025454837    16045.216    6993.9203    5767.9348     5477.535    823.59174   -190.92983    970.20713    18.037309    45.929071    20.440674    89.863377    108.64234    90.204194 
   64500    256.89977   -9701.4524   -8673.0241   -9701.4524            0    6323.2074    18.089003    45.537766    19.405892  -0.62622965   -6.4883136    0.4050115    15985.269    5659.4501    7305.0276    6005.1445    293.97018   -61.919984   -501.17721    18.089003    45.542071    20.465847    88.616337    108.48348    90.787875 
   65000    246.18482   -9702.4974   -8716.9634   -9702.4974            0    7261.9694    18.088233    45.616397     19.34366  -0.86999328    -6.557552   0.15986835    15960.841    6769.1871    7777.3589    7239.3621    358.43516    173.82822   -175.34569    18.088233    45.624693    20.425578    89.200852     108.7262    91.092609 
   65500    249.46658   -9665.1172   -8666.4456   -9665.1172            0    6438.8657    17.920681    46.076895    19.401395  0.026348844   -6.6146877 -0.065462663    16020.301    6033.3571    6120.0885    7163.1514    -675.0997   -119.71966   -88.318594    17.920681    46.076903    20.498109    90.193553    108.82613    89.967236 
   66000    270.44829     -9658.43   -8575.7639     -9658.43            0    5386.8686    18.158743    46.000772    19.329061  0.079406929   -6.5546351 0.0048907861    16145.878    3829.0294    6845.4404    5486.1359   -379.06526    377.25084   -118.01141    18.158743    46.000841     20.41019    90.018033     108.7322    89.901096 
   66500    257.89239   -9632.9011   -8600.4991   -9632.9011            0     5398.547     18.07479    45.760991    19.479638  -0.55631505   -6.4298419   0.16487134    16112.004    4540.2563    5603.4936     6051.891    587.19089    -243.6566    755.99064     18.07479    45.764372    20.514052    89.321227    108.26642    90.696509 
   67000     250.3667   -9691.8289   -8689.5539   -9691.8289            0    6041.2484    17.990448    45.925532     19.38317  -0.55114326   -6.3680109    0.1882889     16014.78    6699.0189    5590.4864    5834.2398    508.08155   -431.77636    44.847165    17.990448    45.928839    20.403292    89.256683    108.18626    90.687562 
   67500    256.32537   -9675.2596   -8649.1307   -9675.2596            0    7175.9615    18.068749    45.965745     19.22266   0.16551116   -6.4443501  0.038568597    15965.255    6360.8385    7089.2535    8077.7924   -453.47066    191.97198   -611.56457    18.068749    45.966043    20.274165    89.956581    108.53357    89.793693 
   68000     255.6349   -9695.5635   -8672.1987   -9695.5635            0    5825.0382    17.964349    45.722497    19.570379  0.094397232   -6.6428043 -0.043753239    16074.617    8088.1498    5660.0467     3726.918     119.0606    401.14749    1596.2017    17.964349    45.722595    20.667087    90.159319    108.74879    89.881709 
   68500    255.09445   -9647.8118   -8626.6106   -9647.8118            0    6487.8941    18.208188    45.651819    19.352612  -0.61589931   -6.7523114      0.14052    16086.605    5131.1244    7337.8398    6994.7181    120.46369    722.58795   -569.23448    18.208188    45.655974    20.497245    89.352608     109.2339    90.772944 
   69000     254.4721   -9715.2177   -8696.5079   -9715.2177            0    5354.7633    18.053171     45.92758    19.408595  -0.33928855   -6.5070738   0.21998814    16092.412    4074.1771    5437.3875    6552.7252   -503.43812    223.49033   -556.84491    18.053171    45.928833     20.47154    89.249755    108.53353    90.423263 
   69500    248.80065   -9681.1885   -8685.1828   -9681.1885            0     5152.767    17.997464    46.032239    19.464991  -0.12868437   -6.3211668  0.045638552    16126.036     4583.195    5447.0821    5428.0239    314.65207   -152.55833    609.07003    17.997464    46.032419    20.465706    89.822759    107.99092    90.160171 
   70000    254.41372   -9700.3705   -8681.8944   -9700.3705            0    4826.3023    18.170793    45.957975    19.363264  -0.17887562    -6.476854 -0.067912884    16170.123    4457.2893    5458.1534    4563.4642   -64.957636    307.77604    1204.9093    18.170793    45.958323     20.41789    90.119833    108.49456    90.223003 
   70500    252.10516   -9716.0424    -8706.808   -9716.0424            0     4292.497    18.069153     45.89396    19.508691   -0.2736658   -6.7113324   0.21528566    16177.874    5746.3321    3766.2201    3364.9387   -964.67981    149.98717   -512.34448    18.069153    45.894776     20.63195    89.291001    108.98304    90.341651 
   71000    246.47064   -9666.1674   -8679.4893   -9666.1674            0    4775.5759    18.107391    45.946066    19.355722  -0.66192303   -6.6398601   0.11353283    16103.252    5885.5861    3483.2863    4957.8553    601.58521   -475.94578    432.25397    18.107391    45.950834     20.46325    89.414332    108.93391    90.825376 
   71500    251.56578   -9676.3175   -8669.2423   -9676.3175            0    5333.7382    18.065727    45.827441    19.470787  -0.16050449   -6.4039812  0.056635596    16119.982    6357.8097    4823.4689    4819.9359   -684.93021   -450.47521   -1006.0523    18.065727    45.827722    20.496968    89.778989    108.20607     90.20067 
   72000    254.36687   -9625.1107   -8606.8222   -9625.1107            0    4716.8128    18.068856    46.063966    19.451551  0.057518562   -6.3485477  0.060858316    16189.977    5597.5867    3513.1843    5039.6674   -289.37887   -441.27489   -413.37567    18.068856    46.064002    20.461442    89.851783    108.07543    89.928457 
   72500    245.74519   -9673.8046   -8690.0306   -9673.8046            0    5384.9429    18.105559    46.275169    19.167348  -0.94219253   -6.6243785  0.069502412    16059.129    4659.9261    5795.0792    5699.8233    1299.2831    317.48944   -339.43552    18.105559     46.28476    20.279903    89.422688    109.06541    91.166418 
   73000    257.71715   -9741.6434    -8709.943   -9741.6434            0    5909.3433    17.984837    45.785769    19.448322  -0.34800448    -6.790343   0.28025499    16014.713    6514.8714    5654.1017    5559.0567   -243.14745     184.5885   -324.32298    17.984837    45.787092    20.601566    89.077021     109.2447     90.43548 
   73500    263.15748   -9671.1054   -8617.6261   -9671.1054            0    5946.9493    18.158046    45.673148    19.373493  -0.18831135   -6.6635975  0.051197775    16067.118    5441.6515     5993.404    6405.7926    430.53755   -154.77516    641.68011    18.158046    45.673536    20.487518    89.779986    108.98082     90.23623 
   74000    254.88313   -9663.3329   -8642.9777   -9663.3329            0    6781.5243    18.016789    45.778525    19.388331  -0.22704892   -6.3733015  0.057271363    15991.147    6830.1368    7724.3812    5790.0549    235.05928   -320.81739    700.02468    18.016789    45.779088    20.409057     89.75048    108.19657    90.284169 
   74500    249.25458     -9640.74   -8642.9171     -9640.74            0    6675.7391    17.964239    45.921471    19.328491  -0.53242647   -6.2880569   0.29853744    15944.927    5919.0618    6690.6022    7417.5531    16.628431   -262.73569   -1247.5972    17.964239    45.924557    20.327797    88.953066    108.01903    90.664274 
   75000    263.51871   -9655.2159   -8600.2905   -9655.2159            0    6601.5963    18.184142    45.743047    19.282458  -0.29111351   -6.5981895   0.22277899    16039.111    6121.4402    6763.5011    6919.8477   -427.53575    223.12118    147.79119    18.184142    45.743973    20.381337    89.255674    108.88906    90.364631 
   75500    260.78941   -9722.5971   -8678.5977   -9722.5971            0    4595.5713    18.031383    45.680536    19.542178  -0.10374881   -6.7524572 -0.071197052    16096.564    6396.8222    4352.2891    3037.6027    58.625151    697.74331    -186.1473    18.031383    45.680653    20.676011    90.154797    109.06158    90.130129 
   76000    253.82678   -9676.9686   -8660.8421   -9676.9686            0    5433.4527    18.107306    46.150585    19.289167  -0.30665161   -6.5963254   0.17087763    16119.239    3960.7726    5721.2401    6618.3452   -370.32288     485.2865    -1117.112    18.107306    46.151604    20.386581    89.396574    108.87848    90.380701 
   76500    247.02467   -9728.8735   -8739.9775   -9728.8735            0    5831.4998     18.00275    46.053852    19.360392  -0.73093532   -6.3715096   0.17181572    16051.623    6666.3036    5511.4451    5316.7505    766.99116   -302.92796    1115.3235     18.00275    46.059652    20.382601    89.232836    108.21572    90.909283 
   77000    242.45932   -9706.9315   -8736.3116   -9706.9315            0     5499.976    18.079751    45.662528    19.505496 -0.056176789   -6.3788854  0.090364985    16103.097    4786.4459    5949.4923    5763.9898    1119.4688   -778.52424    63.724308    18.079751    45.662563     20.52225    89.725801    108.10912    90.070489 
   77500    250.24944   -9686.7462   -8684.9407   -9686.7462            0    5824.0207    18.174343    45.490598    19.440576   0.30923874   -6.5882163 -0.0085642988    16072.724    6348.4833     6589.875    4533.7037   -538.47613   -277.11258       829.98    18.174343    45.491649    20.526584    90.148913      108.721    89.610517 
   78000    260.18744   -9634.2521   -8592.6625   -9634.2521            0    6387.3497    17.974115    46.158661    19.367867  -0.58835169   -6.7262379  0.014725111    16068.766    6588.2379    6719.4009    5854.4102    387.80007    844.25411    1690.3021    17.974115    46.162411    20.502604    89.719281    109.15152    90.730269 
   78500    250.92123   -9720.1023   -8715.6074   -9720.1023            0    6600.6138    17.960305    46.197768    19.270611  -0.39373851    -6.723049   0.34521774    15989.327    6824.5713    6034.2652    6943.0049    561.14677   -106.58705   -1419.5168    17.960305    46.199446    20.412619    88.870149    109.22978    90.488314 
   79000    250.70213   -9682.3561   -8678.7383   -9682.3561            0     7153.642    18.039159    45.749157    19.355103  -0.21442852   -6.5090572  0.020320764    15973.309    6742.0048    7462.5705    7256.3507    460.67402   -231.24617    140.92094    18.039159     45.74966    20.420291    89.857384    108.58761    90.268546 
   79500     262.5425    -9684.226   -8633.2086    -9684.226            0    6008.4501    18.089102    45.709434     19.42654  -0.13245823   -6.4904826 -0.029471346    16062.691    5603.4078    6331.5993     6090.343   -393.91558   -286.97054    57.390717    18.089102    45.709626    20.482131    90.029828    108.47465    90.166033 
   80000    264.00839   -9689.7595   -8632.8738   -9689.7595            0    6186.3753    18.054703    45.838218    19.372181   -0.2898842    -6.537383   0.25657065    16032.328    6177.7749    6408.4052     5972.946    135.58341   -701.34093   -185.21066    18.054703    45.839135    20.447117     89.16519    108.64608    90.362338 
   80500    254.63007   -9670.2619   -8650.9197   -9670.2619            0    5734.5296    17.898945    46.504981    19.309281   -1.1922649    -6.572437   0.19748241    16072.855    6659.9583    5011.4488    5532.1817    687.03055    377.13381    -429.7883    17.898945    46.520262    20.398144    88.972285    108.79648    91.468591 
   81000    254.68237   -9679.3989   -8659.8473   -9679.3989            0    5239.8153    18.123046    45.966349    19.376122  -0.19420438   -6.7110669   0.18182589    16141.283    5277.2286    5598.2091    4844.0083   -1210.7196    379.82608   -662.69663    18.123046     45.96676    20.506233    89.412739    109.10314    90.242069 
   81500    250.90654   -9688.0593   -8683.6232   -9688.0593            0    5624.3179    18.218671    45.454567    19.470175   0.23294615   -6.6928368 0.0064978003    16123.676    5308.8491    6039.5342    5524.5703   -786.98494    280.12112   -169.36383    18.218671    45.455164     20.58839    90.077369    108.97031    89.706372 
   82000    255.28562   -9696.8803   -8674.9138   -9696.8803            0    5887.6797    17.965437    46.040215     19.39145  -0.48183125   -6.5221546  0.017305967      16039.3    5121.8928    6578.4762    5962.6702    644.91921    270.89909   -222.51066    17.965437    46.042736    20.458913     89.76039    108.58994    90.599604 
   82500    265.53552   -9644.5044   -8581.5051   -9644.5044            0    7113.2691      18.0057    46.041726    19.279248  -0.53870718   -6.4227617   0.21405925    15982.756    8376.4231    6091.9514    6871.4327    1143.2863   -836.04948    323.68774      18.0057    46.044877    20.322084    89.184639    108.42412    90.670354 
   83000    251.29515   -9685.5994   -8679.6077   -9685.5994            0    6214.2052    18.115806    45.388759    19.443232 -0.083635324    -6.498157 -0.012255569    15987.274     5719.251    7179.9011    5743.4635   -397.12621   -162.68775    386.01056    18.115806    45.388836    20.500377    90.000788    108.48023    90.105576 
   83500    253.80164   -9658.8109   -8642.7851   -9658.8109            0    7145.6862    18.065215    45.529983    19.422407  -0.10032373   -6.6903189  0.056079898    15975.103    6616.0558    7273.1969    7547.8059   -456.35704    686.54319    207.07673    18.065215    45.530093    20.542478    89.802468    109.00691    90.126249 
   84000    265.96192   -9655.3915   -8590.6853   -9655.3915            0    6953.5538    17.983681    46.195626    19.218168  -0.65290316   -6.6852784    0.2130826    15965.828    7734.8845    6147.0318    6978.7452    1267.0017    -70.27366    1051.0564    17.983681     46.20024    20.348866    89.134041    109.17977    90.809733 
   84500    249.47487   -9659.5777   -8660.8729   -9659.5777            0    7201.9693    18.025825    45.765869    19.371726  -0.33303778   -6.5623045  0.072588577    15981.046      7844.54    7040.0478      6721.32   -494.85273    444.04629   -627.16169    18.025825    45.767081    20.453188     89.66289    108.71404    90.416933 
   85000       250.62   -9660.9669   -8657.6779   -9660.9669            0    6665.5061    18.099683    45.459195    19.476604 -0.013011212   -6.3328867  0.021142194    16025.291    7124.0336    7323.5807    5548.9041   -1112.2496   -950.22919   -128.75617    18.099683    45.459197    20.480332    89.935782    108.01211    90.016399 
   85500    266.49373   -9668.2395   -8601.4043   -9668.2395            0    5587.6877    18.020094    46.201862    19.311259  -0.66847185   -6.3868287   0.25532042    16077.818    5451.0937    4662.1117    6649.8577    1166.2874   -565.68441    1437.0252    18.020094    46.206698    20.341619    89.020616    108.29915    90.828926 
   86000    256.15308   -9666.7743   -8641.3351   -9666.7743            0    6222.1556    17.832084    46.277174    19.400345  -0.75253273   -6.6313047   0.30706672    16009.523    7303.3955    5370.9072     5992.164   -573.95033    549.76966   -1006.2004    17.832084    46.283292    20.504679    88.840725    108.86894    90.931629 
   86500    250.34802   -9704.1299   -8701.9297   -9704.1299            0    5886.1123    18.115433    45.682892    19.360123 -0.086283189   -6.7491717 -0.00066965344    16021.767    5448.2823    6363.8071    5846.2473   -588.88919   -3.3810423    498.96958    18.115433    45.682973    20.502822    89.966248    109.21917    90.108217 
   87000    263.51883   -9734.6971   -8679.7712   -9734.6971            0     5784.024    18.121227    45.576472     19.38035   0.02769794   -6.4666844 -0.035916218    16006.262    5638.3406    5972.0694     5741.662   -265.17734   -212.11782    332.83744    18.121227     45.57648    20.430792    90.111744    108.45239     89.96518 
   87500    257.04387   -9689.2026   -8660.1974   -9689.2026            0    7043.5223     17.95685    45.819043    19.459498  -0.61414018    -6.246272   0.13482425    16010.607    8528.1356     6911.774    5690.6574   -447.72293   -212.25114   -1128.3195     17.95685    45.823159     20.43786    89.387366    107.79562    90.767924 
   88000    258.58776   -9663.8119   -8628.6261   -9663.8119            0    5607.8172    18.080976    46.144679    19.278157  -0.61207497    -6.442785   0.22993649    16084.554    5432.9921    5550.5485    5839.9111   -617.63718   -400.13271   -466.07993    18.080976    46.148738     20.32756    89.111061    108.47847    90.759941 
   88500    260.90258   -9718.9153   -8674.4628   -9718.9153            0    5608.2301    18.095545    45.878395    19.336546   0.17418497   -6.8690574  -0.02446768    16053.096    4676.6589    5525.6337    6622.3977    -898.3464    -85.26529    817.35025    18.095545    45.878726    20.520394    90.141134    109.55691    89.782468 
   89000    240.87575   -9686.6101   -8722.3296   -9686.6101            0    6695.2977    18.044325    45.595764    19.458836 -0.031980692   -6.7519211 -0.047619409    16009.656    7031.5999    7303.6182    5750.6749   -127.81508   -249.22889    182.75253    18.044325    45.595775    20.597014    90.119292    109.13595    90.040187 
   89500    244.66809   -9690.3314   -8710.8693   -9690.3314            0    7366.2299    18.058384    45.734471    19.282471   -0.4473465   -6.4319121   0.25131397    15925.212    6753.6157    7585.6581    7759.4159   -511.62915    -255.1325   -551.28485    18.058384    45.736659    20.328461    89.114358    108.44531    90.560414 
   90000    249.74978   -9681.3906   -8681.5853   -9681.3906            0    6162.3461    17.962186    45.950857    19.409618  -0.38581642   -6.3728526   0.15362592    16020.269    5983.5847    6038.2106    6465.2431    32.205999   -299.79134   -502.45728    17.962186    45.952476    20.429639    89.419094    108.17627     90.48106 
   90500    257.16056    -9654.501   -8625.0286    -9654.501            0    6151.8182    18.142219    45.730783      19.3733  0.063650286   -6.6469096 -0.013492663     16073.21    5437.1013    6684.3947    6333.9586    212.22586    -212.1933    411.75176    18.142219    45.730827    20.481854    90.063624    108.93691    89.920253 
   91000    256.95765   -9684.6432   -8655.9832   -9684.6432            0    6696.7591    18.131835    45.572095     19.35169 -0.073512049   -6.8242816 -0.037614254    15990.412    5828.4201    7294.0221     6967.835    248.25022    1218.2835    1817.7676    18.131835    45.572155     20.51975     90.07429    109.42492    90.092423 
   91500    254.65274    -9709.512   -8690.0791    -9709.512            0    6529.6882    17.903841    45.847868    19.476467  -0.79722161   -6.6424861   0.32060519    15987.315    8618.6684    6077.1527    4893.2435    899.06147   -1.0264445   -328.46395    17.903841    45.854798    20.580529    88.785978    108.82967    90.996182 
   92000     260.2886   -9685.9296    -8643.935   -9685.9296            0    6630.5882    18.086472    46.026926    19.275965  -0.42138151   -6.4723887   0.26211028     16046.56    7650.1981    6289.0688    5952.4975   -519.24587    -361.3955   -113.78382    18.086472    46.028855    20.335273    89.094534    108.55917    90.524534 
   92500    258.29469   -9703.6192   -8669.6067   -9703.6192            0    5826.9496    18.076923    45.659227    19.464059 -0.095110773   -6.4313036 0.0021223156    16065.212    6029.1485    5606.6856    5845.0148   -1349.4985   -747.98392   -292.80074    18.076923    45.659326    20.499055    89.956624    108.28456     90.11935 
   93000    252.80855   -9640.2315   -8628.1813   -9640.2315            0    5931.7207     18.10612    45.697364    19.444689  -0.28462366   -6.5333741   0.03400888    16088.574    6016.2478    6212.3361    5566.5781    14.369737   -263.08471    917.10224     18.10612     45.69825    20.512973    89.791351    108.57221    90.356859 
   93500     248.0238   -9684.9264   -8692.0306   -9684.9264            0    4929.1814    18.028454    46.398574    19.298725   -0.4896443   -6.5430466   0.25592523    16143.278    3724.7773     5028.511    6034.2559    501.97878  0.049949884   -1073.5632    18.028454    46.401157    20.379346     89.08636     108.7272     90.60462 
   94000    249.84664    -9693.168   -8692.9749    -9693.168            0    4989.9766    17.975529    46.144486    19.478082  -0.23439572    -6.622234  0.093357658    16156.514    5329.7965    5103.4591    4536.6743   -506.22531    430.87997   -211.67108    17.975529    46.145082    20.573244    89.646323    108.77701    90.291037 
   94500    249.71285   -9716.2084    -8716.551   -9716.2084            0    5501.4762    18.204659    45.450628    19.422343 -0.029392695   -6.6231344  0.017126244    16070.303    4678.8489     5616.755    6208.8247    139.37195    454.54312    191.06408    18.204659    45.450637    20.520566    89.940223    108.82967    90.037053 
   95000    246.26517   -9716.7342   -8730.8786   -9716.7342            0     5738.144    18.082128    45.739779    19.392517  -0.30407255   -6.4507132   0.12762924    16039.018    6989.4509    5141.9097    5083.0715   -397.57718   -401.43233   -422.09631    18.082128     45.74079    20.437654    89.521982    108.39878     90.38089 
   95500    254.31528   -9682.5091   -8664.4271   -9682.5091            0    5487.4217    17.951621    46.147674    19.374323  -0.68800062   -6.3593747   0.14189127    16050.184    4964.8605    5515.0912    5982.3133    1467.5027   -492.13932   -510.14977    17.951621    46.152802    20.391816    89.334989    108.17131    90.854141 
   96000     252.0399   -9671.0885   -8662.1154   -9671.0885            0    5290.1632    18.159647    46.019747    19.291211   0.17081427   -6.6517764  0.086874903    16121.711    5716.1629    5010.9301    5143.3967   -333.29677    493.80917   -22.664035    18.159647    46.020064    20.405992    89.825398    109.02446    89.787333 
   96500    251.60221   -9659.3578   -8652.1368   -9659.3578            0    5755.6825    18.149574    45.613719    19.456168   0.42166196   -6.8479141  -0.13507662    16107.169    5536.7853    5167.9479    6562.3145   -708.34082   -28.828632    1143.1416    18.149574    45.615668    20.626552    90.551039    109.38991    89.470362 
   97000    255.83777   -9674.3947   -8650.2178   -9674.3947            0    5017.4689    18.108067    45.628513    19.476731  -0.60519142   -6.7041569  0.056479609    16092.535    4365.7932    5162.2614    5524.3521    6.0335899   -400.38352    -414.8581    18.108067    45.632527    20.598348    89.595592    108.99409    90.759895 
   97500    255.67968   -9671.2722   -8647.7281   -9671.2722            0    5520.5372    18.058458    45.972803    19.368245  -0.57281099   -6.4937559   0.27749548    16079.477    6378.1339    5712.9222    4470.5556    182.42884   -117.71586   -86.120017    18.058458    45.976372    20.429753    88.994867    108.53342    90.713856 
   98000    244.90943   -9689.7487   -8709.3205   -9689.7487            0     6542.751    18.003618    45.993687    19.311832   0.16299925   -6.3994219  0.029534082    15991.216    5781.4114     6540.571    7306.2707   -1183.4204    76.236218     759.1077    18.003618    45.993976     20.34454    89.980695    108.33379    89.796948 
   98500    251.29456   -9690.3777   -8684.3883   -9690.3777            0    6340.9613    17.982564    45.797452    19.452839  0.033570777   -6.4271128  -0.10535421    16020.495    8067.6387    5833.7936    5121.4517   -118.78441   -315.37032    1230.5926    17.982564    45.797464    20.487358    90.307815    108.28302    89.958001 
   99000    253.64977    -9662.534   -8647.1162    -9662.534            0    6336.8655    18.177124     45.58624    19.395896  -0.59405533   -6.7296808   0.42251179    16071.958    5698.9603    6664.2927    6647.3434    464.54631    49.852544   -1352.7918    18.177124    45.590111    20.534553    88.576382    109.13073    90.746605 
   99500    263.78085     -9640.83   -8584.8552     -9640.83            0    6079.0803    18.005771    45.969559    19.394134  -0.74034756   -6.6687295   0.22619623    16052.861    7340.5861    5538.8992    5357.7557    1188.2131   -308.62197    203.16207    18.005771     45.97552    20.509889    89.068153    108.97448    90.922678 
  100000    250.32163   -9676.8426   -8674.7481   -9676.8426            0    5805.3113    17.987122     46.02221    19.389421  0.059897706   -6.5014344 -0.021741647    16050.701     5992.024    5590.0102    5833.8997   -653.16262    795.99225   -8.6185807    17.987122    46.022249    20.450398     90.08462    108.53672     89.92543 
  100500    249.18995   -9657.9046   -8660.3404   -9657.9046            0    6020.6354    18.132352    45.705452    19.393063   0.22362079   -6.4924421   0.12151116    16071.949    5098.9714     6261.689    6701.2458   -841.67304   -202.88058     775.6098    18.132352    45.705999    20.451344    89.748573    108.50926    89.719674 
  101000    247.58269   -9670.7667   -8679.6367   -9670.7667            0    6370.1151    18.139788     45.68662    19.386206   -1.0143313   -6.5646864   0.29676014    16066.232    6476.4116    5924.2603    6709.6736    811.47605   -144.18743    183.60977    18.139788    45.697879    20.469689    88.761602    108.70543    91.271868 
  101500    255.26999   -9673.4962   -8651.5922   -9673.4962            0    6167.9558    17.986724    45.925962    19.424543  -0.69541566   -6.6408964   0.11695741    16045.791    6551.3147    6741.0814    5211.4712    414.31242    715.24986   -1207.5313    17.986724    45.931226    20.528713    89.392974     108.8743    90.867512 
  102000     252.7328   -9647.5964   -8635.8494   -9647.5964            0    6122.8085    18.057038    46.037942    19.306279   0.44316926   -6.5687241  0.041806727    16049.481    4861.3285    6748.1835    6758.9135   -519.22213    206.57286    508.02823    18.057038    46.040075    20.393192    90.060192     108.7902    89.448478 
  102500    248.51982   -9671.6468   -8676.7654   -9671.6468            0    6673.9167    18.036003    45.687472    19.408308  -0.31726571   -6.4019048 0.0059634891    15992.822    6022.6762    6304.8143    7694.2595    768.57583   -763.54983    599.57583    18.036003    45.688573    20.436899    89.858649    108.25534     90.39787 
  103000    251.07321   -9653.3776   -8648.2744   -9653.3776            0    5914.4819    18.092536    45.600015    19.455087  -0.79548479   -6.3830349    0.2079221    16050.835    5163.5949    5416.2504    7163.6003    715.50173   -184.58602   -375.88131    18.092536    45.606953    20.476494    89.106734    108.16322    90.999414 
  103500    249.48757   -9688.8624   -8690.1068   -9688.8624            0    5638.7661    18.016549    45.966903    19.366765   0.11610891   -6.5912034   0.20184674    16038.876    5630.9118    5760.5094    5524.8771   -865.40256    67.616912   -532.50855    18.016549     45.96705    20.458648    89.481336    108.79433    89.855276 
  104000    260.87134   -9696.5449   -8652.2175   -9696.5449            0    6734.6351    17.986731    45.942746    19.357425  0.045089436   -6.7715324  -0.12349924    15996.197    7203.9511    7012.8814    5987.0728    736.65303     556.0052    384.65451    17.986731    45.942768    20.508018    90.363604    109.28028    89.943768 
  104500    247.74576   -9657.7414   -8665.9586   -9657.7414            0     5892.467    18.192789    45.641733    19.336284  -0.40880931   -6.6001517  0.093525153    16055.891    4509.5891    6392.0863    6775.7257    662.76797    159.19383   -497.75923    18.192789    45.643564    20.431902    89.571969    108.84637     90.51318 
  105000    264.51434   -9687.0202    -8628.109   -9687.0202            0    5130.8141    18.082271    45.708564      19.5137  -0.50619913   -6.3490319   0.29713317    16128.359     4587.917    5399.5193     5405.006   -472.54711   -274.26848    482.54596    18.082271    45.711367    20.522743    88.974167    108.02101    90.634496 
  105500    261.25193   -9653.5688   -8607.7177   -9653.5688            0    5581.8835    18.087494    45.987946    19.402878  -0.44484074    -6.465055 0.0094329438    16139.444    5900.5974    5492.3362     5352.717   -49.567206    671.22467   -29.284535    18.087494    45.990098    20.451619    89.798385    108.42811    90.554204 
  106000     258.4138   -9723.8233    -8689.334   -9723.8233            0    5709.4869    18.087683    45.858437    19.405949  -0.07342115   -6.6813127  0.069356225    16096.708    5043.0415    6267.4005    5818.0186   -35.154962    998.12965   -1219.4552    18.087683    45.858496    20.524025    89.776519    108.99806    90.091733 
  106500    256.94332   -9682.4278   -8653.8251   -9682.4278            0     5540.805    18.061511    45.854146    19.430597  -0.16499178   -6.6781858   0.26302252    16092.327    6161.5699    5112.5443    5348.3007    527.00139   -194.04519   -1714.8806    18.061511    45.854443    20.547882    89.199563    108.96594     90.20616 
  107000    253.72178   -9691.7017   -8675.9956   -9691.7017            0    5770.2652    18.148361    45.843796    19.295953   -1.0004337   -6.5001946  0.080857929    16054.035     4746.266    6443.9775    6120.5521    1213.3343    35.099406   -5.0179667    18.148361    45.854711    20.361554     89.37345    108.61689    91.250148 
  107500    261.85856   -9709.6963   -8661.4168   -9709.6963            0    5453.2507    17.978192    45.729849    19.528801  -0.16194395   -6.4616145   0.17532849    16055.408    6263.7695    5608.4839    4487.4986   -188.09008    56.549363   -99.723711    17.978192    45.730136    20.570787    89.447918    108.30746    90.202902 
  108000    259.73463   -9675.6483   -8635.8714   -9675.6483            0    6898.0967    18.080532    45.790176    19.304959   0.34587286   -6.5228728    0.1170723    15982.782    5539.7266    7996.4053    7158.1582    107.86356   -222.93449   -106.82908    18.080532    45.791482    20.377512    89.809364    108.66906    89.567229 
  108500    257.95426   -9632.4762   -8599.8265   -9632.4762            0    6992.7908    18.014725    45.875772     19.35325  -0.43807331   -6.5461817 0.0050215876    15994.288    6825.3031    7214.7751    6938.2942    159.97316    431.10331    869.13635    18.014725    45.877863    20.430389    89.810619    108.68796    90.547108 
  109000    251.48054   -9666.4607   -8659.7268   -9666.4607            0    6696.6188    18.021351    45.826518    19.376921   -0.4265565   -6.5653773   0.17219088    16002.543    6309.1429    6315.5624    7465.1512    542.48248   -393.38008    101.96162    18.021351    45.828503     20.45969     89.34667    108.71696    90.533298 
  109500    257.38993   -9686.2303   -8655.8397   -9686.2303            0    5971.8793    18.165878    45.610805     19.38236  -0.10240542   -6.6599445   0.12491905    16059.454    5572.4568    6327.6432     6015.538   -364.11753    -247.6015    724.68127    18.165878     45.61092    20.495032    89.608973    108.96279     90.12864 
  110000    246.17481   -9668.2448   -8682.7509   -9668.2448            0    4862.7088    18.017806    45.916179    19.480809  -0.28105105   -6.6029465  -0.12472945    16116.645    5064.9418    4816.5425    4706.6422    530.44746   -109.64448    1214.1054    18.017806    45.917039    20.569793    90.234845    108.72354    90.350701 
  110500    244.34508   -9675.9701   -8697.8011   -9675.9701            0    4804.9432    17.941167    46.462499    19.321047  -0.32115568   -6.4083091   0.36798412     16105.86     4799.793    4538.7623    5076.2743   -686.55543    213.08385   -1276.7076    17.941167    46.463609    20.359389    88.839704    108.34629    90.396031 
  111000    261.05715   -9701.4469   -8656.3756   -9701.4469            0    5424.4067     18.07833    45.976294    19.356444  -0.69494439   -6.4360789   0.15926249    16088.585    5527.2022    5661.6856    5084.3324   -75.020536   -622.54957    16.614505     18.07833    45.981546     20.39903    89.279491    108.39155    90.865976 
  111500    266.13299   -9697.4175   -8632.0264   -9697.4175            0    6195.4804    18.134126    45.419834    19.497621  -0.24997421   -6.6104655  -0.11999139    16059.196    6134.8184    7137.4653    5314.1575     271.9777    42.095755    935.40388    18.134126    45.420521      20.5881     90.23268    108.72836    90.315332 
  112000    260.14961   -9686.1032    -8644.665   -9686.1032            0    6116.8897    18.131275    45.678895    19.344034   0.29588067   -6.7355722   0.15099503     16021.05    7202.5245    5820.0012    5328.1433   -1172.8254    370.31215   -573.51612    18.131275    45.679854     20.48371    89.699687    109.19752    89.628877 
  112500    256.06141   -9716.9216   -8691.8494   -9716.9216            0    6306.2078    17.954274    46.046149    19.319541  -0.60431996   -6.5918449  0.085884103    15971.951    5932.8904    5901.6467    7084.0861    363.67096     459.8043   -1034.9279    17.954274    46.050114     20.41334    89.516155    108.83951    90.751919 
  113000    251.19734   -9654.8173   -8649.2172   -9654.8173            0    6480.2303    18.042187    45.639013    19.407455  -0.50154668   -6.4296689   0.11058035    15980.634    6334.2566    6508.6595    6597.7748    78.475951   -516.60251    369.50961    18.042187    45.641769    20.445101    89.492117     108.3297    90.629623 
  113500    256.49121   -9673.7494   -8646.9566   -9673.7494            0    6366.7466    18.105358     45.65384    19.385657  -0.10349094   -6.3267934  0.072797781    16023.779    5300.3874    6225.8248    7574.0275   -604.43245   -116.73645    84.022791    18.105358    45.653957     20.39209    89.755163    108.07473    90.129881 
  114000    256.50315   -9669.4933   -8642.6528   -9669.4933            0     6073.315    17.978724     45.88283    19.411835  -0.23425555   -6.5248356 -0.0061025801    16013.109    6833.9809    5915.6002    5470.3637    141.02176   -95.504973    600.28617    17.978724    45.883428    20.479083    89.923873    108.57887    90.292522 
  114500    257.08175    -9678.294   -8649.1371    -9678.294            0    5984.4441    18.107546    46.043188    19.311947   -0.4247971   -6.9926185   0.13127607    16100.933    5600.1505    5512.0868    6841.0949    966.96653    743.52673   -124.54344    18.107546    46.045147    20.539358    89.453846    109.90428    90.528599 
  115000    265.07471   -9692.8958   -8631.7413   -9692.8958            0    5957.1154    18.174565    45.548541    19.421823  -0.31872648   -6.9812758   0.32584928    16077.869    5953.5978    5993.9769    5923.7715    969.94392    585.03164   -1731.6615    18.174565    45.549656    20.641017    88.959866    109.76867    90.400921 
  115500    254.27962   -9665.9806   -8648.0414   -9665.9806            0    6303.9838    18.078512    45.553799    19.485895   -0.3116695    -6.335863 -0.055958301     16047.51    6200.9064    6929.2044    5781.8405    1075.1488   -147.91898     643.2113    18.078512    45.554865    20.490154    90.035259    108.01193       90.392 
  116000    252.68367   -9704.6667   -8693.1164   -9704.6667            0    6014.7117    17.992235    46.071146    19.314273 -0.024174506   -6.1843439   0.10511095    16010.043    7791.0886    4920.6682    5332.3783    404.14637   -888.71404   -227.85864    17.992235    46.071152    20.280491    89.693875    107.75459    90.030064 
  116500    262.15087   -9661.0063   -8611.5566   -9661.0063            0    6407.2584    18.031773    45.953273    19.379071  -0.23076235   -6.5709896   0.15427524    16057.866    7676.5339     4887.688    6657.5532    158.63915    -483.4373   -140.19459    18.031773    45.953852    20.463384    89.475652    108.73004    90.287718 
  117000    250.38576   -9740.2708   -8737.9195   -9740.2708            0     5951.064    18.155075    45.428206    19.468086  -0.57782706   -6.9471107  0.051362709    16056.352    5974.4832    6499.2673    5379.4416    760.91672    129.25465    708.93723    18.155075     45.43188    20.670543    89.612725    109.63868    90.728738 
  117500    246.61856   -9689.6924   -8702.4221   -9689.6924            0    4767.7238    18.101363    45.965579    19.362599 -0.0095754141   -6.6307741   0.24010229    16110.449    4841.6207    4473.3835    4988.1672   -813.29432   -245.98453   -1177.7918    18.101363     45.96558    20.467903       89.324    108.90256    90.011936 
  118000    252.21893   -9709.1649   -8699.4751   -9709.1649            0    5187.2686    17.938569    46.224389    19.369044 -0.096950256   -6.2081566  0.087258966    16060.799    6853.3431    5059.2848    3649.1781    90.498828   -14.138425   -639.84645    17.938569    46.224491     20.33983    89.717519     107.7715    90.120171 
  118500    258.15472   -9682.2267   -8648.7745   -9682.2267            0    5198.0446    18.062204     45.80114    19.457703   -0.3602495   -6.3452695  0.002495762    16096.765    5855.6817    5246.5378    4491.9141   -418.49172   -649.74312    250.44189    18.062204    45.802557    20.466184    89.853296    108.06145    90.450651 
  119000    248.91886   -9669.4138   -8672.9349   -9669.4138            0    6036.6416    18.128749    45.637915    19.384557  -0.17794126   -6.7477533  0.095024951    16037.974     6240.008     6121.853    5748.0638   -402.31171   -7.3466681    498.72558    18.128749    45.638262    20.525649    89.661305    109.19276    90.223394 
  119500    253.38456   -9663.3297   -8648.9736   -9663.3297            0    6526.4117    18.002786    46.224993    19.246382   -0.3184128   -6.9207599   0.15554023    16016.429    6082.6742     7112.863     6383.698   -382.73165    633.26825   -631.11431    18.002786     46.22609    20.453468     89.43075    109.77736    90.394666 
  120000    258.09258   -9697.2328   -8664.0294   -9697.2328            0    6095.8716    17.795885      46.3426    19.387287  -0.67986274   -6.4160312   0.16424556    15988.843    7478.3706    5418.8516    5390.3926    1072.2183     130.0195    571.51339    17.795885    46.347587     20.42203    89.275176    108.31084     90.84049 
  120500    249.24871   -9643.7274    -8645.928   -9643.7274            0     6722.124    18.061225    45.704264    19.436155  -0.25249059   -6.0191219   0.13626312     16044.06    7009.2907    6594.6056    6562.4758   -277.81574   -1017.0689   -863.78296    18.061225    45.704961    20.347298    89.522665    107.20667    90.316524 
  121000    251.14106   -9681.1469    -8675.772   -9681.1469            0    6385.6966    18.097877    45.670537    19.404339 -0.041378879   -6.2958642  0.021854518    16038.458    5811.0425    5881.9443     7464.103   -972.72427   -830.37293   -1315.8438    18.097877    45.670556    20.400166    89.922599    107.97598    90.051912 
  121500    259.22246   -9704.3779   -8666.6513   -9704.3779            0    5776.5318    17.990754     46.05372    19.379826  -0.23456962   -6.7828514  0.068810071    16056.983    8164.4702    4439.6058    4725.5193    295.13464    326.82281    227.36742    17.990754    46.054317    20.532644    89.711585     109.2897    90.291827 
  122000    263.83587   -9686.2435   -8630.0483   -9686.2435            0    7261.5945    18.045524    45.844983    19.339823  -0.23553615   -6.8319148   0.17876502    15999.772    6956.2967    7032.1747    7796.3122    609.84552   -122.22479   -1434.4099    18.045524    45.845588    20.511845    89.402607    109.45532    90.294364 
  122500    265.25283   -9642.5107   -8580.6432   -9642.5107            0    6162.7679    18.107122    45.451215    19.482476  -0.05484685   -6.3128858  0.033121512    16033.896    6139.8083    6315.9215    6032.5739   -575.38701    347.62236   -1471.6594    18.107122    45.451248    20.479758    89.886024     107.9538     90.06914 
  123000    252.78949   -9676.9627   -8664.9887   -9676.9627            0    5963.3851    18.044863    45.720267    19.388735 -0.0067535038   -5.9922786  0.038531954    15996.016    6028.2838    5797.3039    6064.5676   -166.72904   -925.92078    147.41583    18.044863    45.720268    20.293642    89.888712    107.17425    90.008463 
  123500    261.33694   -9684.4096   -8638.2182   -9684.4096            0    5334.9094    17.901708     46.37242    19.317749  -0.33339627   -6.4070543  0.075159823    16036.543    5632.5848    4970.4153    5401.7281   -726.94433    422.33393    1254.6933    17.901708    46.373618    20.352676    89.658745    108.34883    90.411923 
  124000    256.09349   -9658.9917   -8633.7912   -9658.9917            0    5624.8557     18.10883    46.006787    19.326633  -0.49645988   -6.8099325   0.19787587    16101.581    5408.1974    5021.0242    6445.3454    456.42988   -13.542513   -129.49183     18.10883    46.009466    20.492269    89.241302    109.40948    90.618256 
  124500    255.27682   -9653.8741   -8631.9428   -9653.8741            0     6371.946    18.120741    45.580112    19.439608  -0.32044482   -6.6742107   0.11068377    16056.054    5588.5694    6586.5817     6940.687    271.21949   -787.74415    68.182955    18.120741    45.581239    20.553727    89.560663    108.94863    90.402804 
  125000    263.86081    -9677.627    -8621.332    -9677.627            0    4443.2454    18.034321    45.973605    19.494228 -0.081515918   -6.3306837 -0.026783505    16162.718      3807.69    4115.4885    5406.5576   -327.74689   -388.89839    96.108843    18.034321    45.973677    20.496419    90.043492    107.99101    90.101591 
  125500    257.77588   -9684.0166    -8652.081   -9684.0166            0    5001.5809    17.963524     46.52767    19.314768  -0.15002498   -6.0112756   0.15846934      16143.3    4806.8199    4173.2287     6024.694   -370.12752   -1120.4106    -429.2195    17.963524    46.527911    20.229207     89.49626      107.287    90.184745 
  126000    261.17173   -9720.0264   -8674.4965   -9720.0264            0    4735.6345    18.096208    45.869872    19.433909  -0.67756543   -6.3954218   0.13692905    16131.519    4332.9624    4868.7225    5005.2185     769.9166   -1047.7667    900.39838    18.096208    45.874876    20.459643    89.352041    108.21521    90.846281 
  126500    258.43258   -9758.6407   -8724.0762   -9758.6407            0    5303.2014    18.136181    45.508607    19.462814  -0.40078248    -6.714817   0.17256428    16063.679    4733.5018    5130.3778    6045.7245   -886.93718    504.73676   -375.40962    18.136181    45.510372    20.589309    89.355239    109.03412    90.504576 
  127000    259.72922   -9673.2904   -8633.5351   -9673.2904            0    6070.9518    18.115422    45.939243      19.2916    -0.211504    -6.654164  0.095377844    16054.638    4753.4814    6025.8826    7433.4915    446.12896    588.55994    59.788919    18.115422     45.93973    20.407176    89.646202     109.0304    90.263788 
  127500    255.07481   -9688.7191   -8667.5965   -9688.7191            0    5712.3652    17.971382    46.040559    19.440053  -0.10349716   -6.4800894  0.069064083    16084.942    7066.0216    5669.9939    4401.0801   -345.28107    360.26322     433.3817    17.971382    46.040675    20.491754    89.766164    108.43503    90.128798 
  128000    249.90195   -9662.3212   -8661.9068   -9662.3212            0    4791.9253    18.227243    45.480414    19.470702    -0.422809   -6.4500508   0.20994433    16140.872    4568.8757    5149.5639    4657.3363   -365.14088     35.32651   -53.484879    18.227243    45.482379    20.512324    89.246096    108.32747    90.532635 
  128500    249.96866   -9672.0309   -8671.3494   -9672.0309            0    4712.6294     18.12557    45.736078    19.475505  -0.42320493   -6.5983334  0.081334346    16145.047    5123.8428    4863.4883    4150.5572    339.96135     68.19707   -465.09283     18.12557    45.738036    20.563071    89.603266    108.71631    90.530154 
  129000    255.19713   -9636.7045   -8615.0922   -9636.7045            0    5101.1373    17.894149    46.507139    19.347278   0.12499581   -6.6763565   0.06279487    16100.914    5882.1667    4656.6986    4764.5465   -969.29911    624.63661    152.06876    17.894149    46.507307    20.466921    89.874443    109.03843    89.846008 
  129500    259.38212   -9661.1185   -8622.7527   -9661.1185            0    6551.2588    18.142086    46.006735    19.266792  -0.28130447   -6.5620096  0.069561666    16081.185     6360.729     5529.257    7763.7905   -11.201643    147.99392   -129.43839    18.142086    46.007595    20.353724    89.691242    108.80804    90.350326 
  130000    246.31665   -9697.7682   -8711.7065   -9697.7682            0    6008.2597    18.050219    45.443616    19.572378   -0.4503728   -6.4405229   0.14721492     16054.58    7396.3975    5868.4291    4759.9524   -287.06081   -31.557247    131.91574    18.050219    45.445847    20.605339    89.413183    108.21392    90.567816 
  130500    256.76298    -9668.309   -8640.4283    -9668.309            0     6107.098    18.052005    46.078837    19.266883 -0.082486486   -6.4438663   0.15284827     16026.49    4703.4389    5912.4843    7705.3708    237.17619    953.33062    174.63644    18.052005    46.078911    20.316485    89.536407    108.49212    90.102566 
  131000    249.85884   -9699.4529   -8699.2111   -9699.4529            0    6402.6898    17.981379    46.194456    19.302035  -0.26777858   -6.4772007 0.0054043499    16033.043    5976.3911    6211.5245    7020.1539    92.303849    514.88877    166.44893    17.981379    46.195232    20.359831    89.879131    108.55025    90.332127 
  131500    246.26388   -9697.6951   -8711.8447   -9697.6951            0    6122.0529    18.068583    45.445978    19.513262  -0.34405894   -6.6368933   0.11582518    16023.207    6644.9359     6983.163    4738.0598   -1055.8925     965.9067   -1211.0583    18.068583    45.447281    20.611384    89.538361      108.784    90.433762 
  132000    246.90822   -9650.7132   -8662.2833   -9650.7132            0    6126.4177    18.193897    45.674773    19.313469  -0.13728587   -6.7077129   0.17268975    16049.534      7207.21    5537.7989    5634.2443   -884.30652   -555.75677   -1518.4373    18.193897    45.674979    20.445863    89.459564    109.15179    90.172215 
  132500    259.19972    -9637.435   -8599.7994    -9637.435            0     6707.947    17.837415    46.319259    19.419315   -0.2286939   -6.4269123 -0.040912128    16044.546    7032.5407    6365.4055    6725.8947    490.25004    481.13914    133.19621    17.837415    46.319823    20.455235    90.025714    108.31216    90.282886 
  133000    257.77047   -9647.6981   -8615.7842   -9647.6981            0     6091.284    18.054153    45.974305     19.26927   -0.1392508    -6.293454   0.13300363    15994.017    5052.1497    5900.0971    7321.6052    69.922946    280.13506    147.28341    18.054153    45.974516    20.271409    89.570194    108.08693    90.173542 
  133500    257.26944   -9661.0124   -8631.1042   -9661.0124            0    6399.8326    18.126838    45.476734    19.469969  -0.40346303   -6.4756439   0.13742601    16050.057    5188.3665      6802.68    7208.4513    403.78753    486.88335    850.09864    18.126838    45.478524    20.519078    89.455855    108.39652    90.508307 
  134000    248.69222   -9718.2922   -8722.7206   -9718.2922            0     5866.898    18.006315    45.860399    19.404257  -0.27310271   -6.5841983  0.070674293    16023.585    6942.6674    4807.1877     5850.839    442.76031   -902.81154   -350.88059    18.006315    45.861212    20.491019    89.692753    108.74284    90.341197 
  134500     258.8758   -9709.7078    -8673.369   -9709.7078            0    5272.7331    18.056371    46.170757    19.318145 -0.078226553   -6.6845911   0.12241673     16105.08     4176.801    5333.3619    6308.0363   -247.73224     -16.0509    1164.7977    18.056371    46.170823    20.442345    89.625145    109.08662    90.097075 
  135000    245.07435   -9702.8661   -8721.7776   -9702.8661            0    5304.2665    18.186494    45.641706    19.394496   -0.6280767   -6.5267852  0.080710234    16098.646    3995.0166    6374.5314    5543.2515    151.22945   -287.52647    20.438268    18.186494    45.646027    20.463429    89.522583    108.59936    90.788399 
  135500    254.16308   -9682.3263   -8664.8536   -9682.3263            0    6292.8177    18.115445    45.342308    19.520329  -0.44757152   -6.2473947   0.20173834    16033.922    5332.3459    7685.8482    5860.2591   -80.585934    373.99733   -1325.6484    18.115445    45.344517     20.49668    89.263699    107.74615    90.565545 
  136000     258.6307   -9679.0783   -8643.7206   -9679.0783            0    6792.9438    17.931774    46.192092    19.304938   0.40360566   -6.2311689  0.059452812    15990.399    7006.9315    6136.3393    7235.5606   -1192.6248    -487.4654   -361.15486    17.931774    46.193855    20.285749    89.985857    107.88875    89.499388 
  136500    262.79732   -9671.1873   -8619.1497   -9671.1873            0    6158.4536    17.999687    46.150284    19.263913  0.047426301   -6.5320696  -0.16091111    16002.352     5805.181     5968.075     6702.105    425.25499    215.39219    2002.8708    17.999687    46.150309    20.341882    90.472141    108.73033     89.94112 
  137000    247.96646   -9662.9582   -8670.2919   -9662.9582            0     5996.638    18.093943    45.591683    19.464338  -0.23982484   -6.6695025   0.24056048     16056.78    5556.8949    6904.0658    5528.9533    570.71268    542.20232    844.79769    18.093943    45.592314      20.5767    89.232458    108.91281    90.301389 
  137500    265.74364   -9657.6936   -8593.8613   -9657.6936            0    6192.8757    18.104528    45.740077    19.397832  -0.63803274   -6.5763225    0.1678034    16063.393    4378.1434    6912.7962    7287.6874    694.83951    145.06718    499.67187    18.104528    45.744526     20.48297    89.274064    108.72722    90.799173 
  138000    256.82741   -9690.0824   -8661.9437   -9690.0824            0     5713.197     17.90136    46.331641    19.367196  -0.14533564   -6.2436191 0.0076124799    16063.141    6132.0288    5373.7608    5633.8014   -61.216492   -210.04627    63.087887     17.90136    46.331869    20.348738     89.92342    107.86834    90.179728 
  138500    259.58017   -9689.8632   -8650.7047   -9689.8632            0     5429.136    18.042658    46.026503    19.369439   0.18020499   -6.3228336   0.11115982    16085.166    4413.6524    5445.6447    6428.1111    57.667103    -1158.687    452.53602    18.042658    46.026856    20.375617    89.757034    108.07814    89.775674 
  139000    245.16194   -9717.2533   -8735.8142   -9717.2533            0    6246.8276    18.115976    45.377181    19.521079  -0.54780319   -6.6631804  0.094530323    16047.341    5757.9882     6730.108    6252.3865   -35.444129    432.86013    265.09055    18.115976    45.380487    20.627153    89.514019    108.84624    90.691654 
  139500    249.19423   -9647.9219   -8650.3406   -9647.9219            0     5954.111    18.109841    45.852574    19.365268  -0.53529114   -6.7971372   0.19241397    16080.586    7022.6994    5483.7896    5355.8442    1082.8748   -11.838667    43.576273    18.109841    45.855699    20.524417    89.241373       109.34    90.668851 
  140000    258.28797   -9675.1356     -8641.15   -9675.1356            0    5915.0093    17.942754    46.227299    19.347025  0.075534624   -6.5704216  0.092056573    16047.294    4904.2287    6653.2321    6187.5671   -1191.5621    692.95769   -830.60938    17.942754    46.227361    20.432481    89.771964    108.75775     89.90638 
  140500    258.65356   -9638.1927   -8602.7436   -9638.1927            0    6872.1207    18.058101    45.772682    19.380413  -0.24864974   -6.2665065  -0.08663362    16019.224    6552.4724    6400.2654    7663.6242   -14.312428   -403.40512    1182.9178    18.058101    45.773358     20.36853    90.147938    107.91804    90.311243 
  141000    247.18419   -9679.8256    -8690.291   -9679.8256            0    7111.7738    18.059501    45.540759    19.444768  -0.22158866   -6.1905298   0.21396052    15992.222      7544.56    7335.0108    6455.7506    49.144803   -255.30577    614.75566    18.059501    45.541298    20.407534    89.314712    107.65864    90.278783 
  141500    254.77424   -9688.6491   -8668.7298   -9688.6491            0    6079.2224    18.017846    45.923295    19.364747  -0.28422732   -6.5694297  0.095306218    16023.144    4847.7425    6583.0988    6806.8259    1014.3149    862.41642    995.35954    18.017846    45.924174    20.448959    89.619044    108.73913    90.354609 
  142000    251.92546   -9692.5273   -8684.0123   -9692.5273            0    6277.0928    18.103596    46.183047    19.235455 -0.062079986   -6.8842402  0.028043331    16082.364    5474.8735    5697.6437    7658.7613    456.59427    1060.1471    724.28031    18.103596    46.183089    20.430279    89.895402    109.69193    90.077018 
  142500    250.07256   -9644.3148   -8643.2174   -9644.3148            0    6032.2793    18.055687    45.530048    19.547278  -0.04070047   -6.6863477   0.13978814    16069.354    6874.5675    6054.3996    5167.8709   -725.63358   -293.06797    -763.8313    18.055687    45.530067    20.659692    89.595744    108.88333    90.051218 
  143000    257.93228   -9668.6217     -8636.06   -9668.6217            0    6303.7492    18.125583    45.602061    19.437589  -0.70713338   -6.3326486  0.045921003     16066.41    7336.1272    5746.7972    5828.3233    369.46643   -337.13448    727.59935    18.125583    45.607543      20.4432    89.596126    108.04525    90.888392 
  143500    255.63784   -9663.8569   -8640.4804   -9663.8569            0    5492.3722    18.054133    46.079966    19.357399  -0.31619615   -6.3018998   0.23277756    16104.075    5808.4451    5127.0749    5541.5966   -188.47647   -564.27619   -1761.2897    18.054133    46.081051    20.358709    89.223186     108.0317    90.393152 
  144000    260.23596   -9702.4987   -8660.7149   -9702.4987            0    5089.2668    17.983505    46.099607    19.456246  -0.12517165   -6.4728475  0.091393998    16129.861    6144.3906    4489.4005    4634.0091   -346.06707    44.139594    1578.4329    17.983505    46.099777    20.504917    89.695513    108.40144    90.155572 
  144500    252.84555   -9698.7476   -8686.5493   -9698.7476            0    5156.5435    18.206715    45.717022    19.405146  -0.32450105   -6.6869704 -0.075234116    16152.005    5226.2629    4999.8901    5243.4774     869.8252    242.99497    1214.4093    18.206715    45.718173    20.525129    90.077517    109.01371    90.406681 
  145000    258.00971   -9655.4718   -8622.6001   -9655.4718            0    4404.3163    18.084247    46.045475    19.405337  -0.30364246   -6.6458724   0.28135216    16158.781    4540.2275    4148.7386    4523.9828   -582.79659    282.93251    1019.5368    18.084247    46.046477    20.513749    89.091746    108.90328    90.377826 
  145500    255.28493   -9665.4578    -8643.494   -9665.4578            0    5720.0713    18.029035    46.210334    19.375185   -0.5603418   -6.4680134   0.17648968    16142.004    5698.8178    5212.1152    6249.2808    916.30126    462.34839    -433.4696    18.029035    46.213731    20.427044    89.285009    108.45983    90.694729 
  146000    252.06861   -9702.3024   -8693.2144   -9702.3024            0    4728.8642    18.107614    45.949476    19.336989  -0.20742211   -6.3832414 -0.064007553    16089.059    5154.1432    4110.5122    4921.9374    274.80657    33.307003    1224.1667    18.107614    45.949944    20.363423     90.09902    108.26823    90.258639 
  146500    251.83959   -9668.3884   -8660.2171   -9668.3884            0    6052.8625    18.023812    45.716267    19.499755   0.27947944   -6.3606063   0.16816014    16067.435    6308.9754    5766.4327    6083.1795    -1149.072   -452.53536   -495.30021    18.023812    45.717121    20.511608    89.638895    108.06513    89.649735 
  147000    251.52763   -9671.1647   -8664.2423   -9671.1647            0    6220.5265    18.048394    46.093715    19.294176  -0.60099733    -6.554642  0.005705142    16051.164    5472.4748    6757.8716    6431.2331     792.3792    876.83137    929.54151    18.048394    46.097633    20.377159    89.743677    108.76372    90.747014 
  147500    252.04355   -9663.7112   -8654.7234   -9663.7112            0    6382.2382    18.016118    45.924105    19.403477   -0.3459632    -6.652503   0.19124518    16053.934    7946.9322    5227.0111    5972.7712    122.77489   -76.914968   -1132.5615    18.016118    45.925408      20.5131    89.325851    108.92348    90.431622 
  148000    254.72385   -9713.3808   -8693.6631   -9713.3808            0    5122.5709    18.128207    45.576213    19.449148 -0.040649086   -6.5918299 -0.028217879    16069.178    5398.3583    5598.2597    4371.0948   -473.59228   -433.40784    831.53183    18.128207    45.576231     20.53588    90.062326    108.72286    90.051102 
  148500    248.84104   -9681.4692   -8685.3018   -9681.4692            0    5524.4754    18.161688     45.90922    19.316512   0.27046057   -6.2868451 -0.068667083    16105.893    5653.0403    5850.0418     5070.344   -192.79788    313.69643   -13.503649    18.161688    45.910016    20.313955    90.298136    108.02814    89.662463 
  149000     258.7103   -9667.0619   -8631.3856   -9667.0619            0    5939.5186     17.85673    46.235357    19.450464   -0.1844108   -6.0585039   0.23814474    16058.542    7755.3377    5294.6039    4768.6142   -467.98003   -1396.9817   -568.21974     17.85673    46.235725    20.373579    89.262304    107.29974    90.228524 
  149500    261.97895   -9694.8642   -8646.1027   -9694.8642            0     5505.465    18.091585     45.89492    19.402905  -0.76215106   -6.5411885   0.12420703    16110.462    5374.8681    5803.5068    5338.0201     2239.225    286.59961    -1105.921    18.091585    45.901248    20.476213    89.348572    108.62985    90.951391 
  150000    248.09218   -9694.6439   -8701.4744   -9694.6439            0    6304.7228    18.155173    45.660474    19.388158  -0.13950206    -6.771893   0.14654547    16072.275    6012.6645     7689.885    5211.6188   -461.92624     893.7683   -1709.2984    18.155173    45.660687      20.5373    89.533438    109.25277     90.17505 
  150500     255.1521   -9700.7979   -8679.3658   -9700.7979            0    5727.3806    18.063854     45.64522    19.459417  0.081689793   -6.6328806  0.077678651    16044.845    5978.1379    5950.8023    5253.2016   -1028.4835   -224.65318    323.15068    18.063854    45.645293     20.55894    89.816599     108.8219     89.89746 
  151000    258.62025   -9673.3527   -8638.0369   -9673.3527            0    5772.8122    17.961284    46.181736    19.370882  -0.45160187   -6.3369201 -0.014504204    16067.823    5750.4645    5450.7045    6117.2675   -82.191034   -477.01139   -645.75337    17.961284    46.183944    20.381066    89.866576     108.1148    90.560266 
  151500    248.12981   -9663.2561   -8669.9359   -9663.2561            0    7086.5533    17.975962    46.046146    19.332948  -0.49752497   -6.3029488   0.17217129    16002.341    8827.0861    6558.7179    5873.8559   -117.26418   -59.548128   -430.94512    17.975962    46.048834    20.335184    89.323035    108.05639    90.619052 
  152000    245.08453   -9660.4868   -8679.3576   -9660.4868            0    6270.9047    18.106129     45.63305    19.415387 -0.087036988   -6.5459633   0.17750078    16041.728    5626.0744    6849.3528    6337.2867    164.40321    -337.2411    411.19673    18.106129    45.633133    20.489958    89.468738    108.63098    90.109281 
  152500    249.90344   -9694.6582   -8694.2378   -9694.6582            0    6501.5939    18.074578    45.711521    19.406736  -0.26529461   -6.7442187   -0.1129506    16034.164      6664.29    6413.8396     6426.652   -90.083245   -189.38829    1553.3735    18.074578    45.712291    20.545526    90.205831    109.16303    90.332522 
  153000    251.09625    -9656.313   -8651.1175    -9656.313            0     6793.215    17.936118    46.057687    19.297095  -0.18323404   -6.6323393  0.081352805    15941.254    6695.0732    6885.1482    6799.4237    95.786378    170.64494    266.16561    17.936118    46.058051    20.405205    89.697482     108.9675    90.227942 
  153500    260.43075   -9667.3957    -8624.832   -9667.3957            0    8446.9695    17.992883    45.642342    19.370913  -0.30379348   -6.3846417   0.30179869    15908.117     7539.601    8880.5313    8920.7763   -587.61929   -409.53445   -813.79518    17.992883    45.643353    20.398211    89.032899    108.24012    90.381353 
  154000    249.89058   -9665.1477   -8664.7787   -9665.1477            0    5904.9191    18.014182    45.638491    19.439521  -0.56108592   -6.3039934   0.04727271     15982.01    5777.1738    6604.4813     5333.102    918.26346   -525.71626    1409.7926    18.014182     45.64194    20.436182      89.6502    107.96718    90.704367 
  154500    253.83526   -9704.9497   -8688.7894   -9704.9497            0    6014.6917    18.050604     46.11675    19.253421   0.12260354   -6.4564859  0.046773686    16027.225    6282.4701    5485.9773    6275.6277   -1015.0954   -31.923469     -101.091    18.050604    46.116913    20.307206     89.91646    108.53843    89.847677 
  155000    245.06943   -9653.6595   -8672.5908   -9653.6595            0    6070.4463    17.945088    46.166284    19.385645 -0.090663651   -6.6531539  0.091344877    16060.193     6052.613    5826.6273    6332.0985   -584.06178     718.8463   -510.60452    17.945088    46.166374    20.495756     89.70812    108.94203     90.11252 
  155500    257.03028   -9688.1234   -8659.1726   -9688.1234            0    6241.7125    18.073521    45.760808    19.409419   -0.7130152   -6.6681708  0.055072566    16052.733    6752.5302     5967.651    6004.9564    490.25594    624.99256    46.845021    18.073521    45.766363    20.522989    89.556235    108.96026    90.892673 
  156000    243.70763   -9684.9657   -8709.3485   -9684.9657            0    5759.4088    18.164808    45.662853    19.359389  -0.15988164   -6.3984536   0.21334687    16057.779      5428.76    5570.2292    6279.2371    5.5051001   -1079.9562    515.43207    18.164808    45.663133     20.39048    89.337549    108.28815    90.200612 
  156500    245.79543   -9653.8016   -8669.8265   -9653.8016            0    5807.5016    17.948175    46.084376    19.438849   0.12652161   -6.1456542 0.0027649761    16078.463    5490.3056    6189.8818    5742.3174   -145.13602    699.69286    336.60728    17.948175     46.08455      20.3872    90.039647    107.54452    89.842699 
  157000    248.22252   -9692.1783    -8698.487   -9692.1783            0     5502.772    18.015356    46.045404    19.393024  -0.18400083   -6.4988549  0.030699494    16086.986    5876.8472    5165.3223    5466.1466    490.05115    281.38508    978.03999    18.015356    46.045772    20.453006    89.841251    108.52665    90.228957 
  157500    241.60188   -9685.2197   -8718.0323   -9685.2197            0     5829.293    18.129251    45.747789    19.377858  -0.40766793   -6.9490183   0.18677209    16071.475    6818.8292     5727.959    4941.0908    754.93766    1041.4468   -117.93188    18.129251    45.749605    20.587013    89.307863     109.7273    90.510561 
  158000    260.21835   -9734.7859   -8693.0725   -9734.7859            0    4504.9237    18.072349    45.943312    19.421569  -0.32753642   -6.6794374 -0.020909796    16125.797    5339.3587    3531.8591    4643.5535    715.73673   -262.10911    1177.3385    18.072349    45.944479    20.538078    89.925491    108.97903    90.408463 
  158500     246.0658    -9658.443   -8673.3855    -9658.443            0    5831.0631    17.979831    46.143921    19.381846 -0.0050541182   -6.1651668   0.11350728    16080.341    6288.2076    4909.4431    6295.5384    922.65573   -231.38845   -479.19257    17.979831    46.143921    20.339079    89.678343    107.64505    90.006276 
  159000    258.03074   -9691.2189   -8658.2631   -9691.2189            0    5701.9367    18.048058    45.858824    19.399475  -0.24809478   -6.2501017    0.1325889    16056.222    4652.6373    6575.5571    5877.6156   -479.34089   -302.99564   -566.68748    18.048058    45.859495    20.381879    89.532227    107.85746    90.309965 
  159500    260.32855   -9673.5604   -8631.4059   -9673.5604            0     6075.637    18.131251    45.650326    19.460418  -0.75116427   -6.8123771  0.092722449    16107.339     5362.273    6660.1119    6204.5261    568.59144    145.76285    2141.9748    18.131251    45.656505    20.618558    89.430909    109.29307    90.942702 
  160000    256.10952   -9715.2229   -8689.9581   -9715.2229            0    4883.4858    18.114314    45.943232    19.371937  -0.27440541   -7.0288771    0.2254347    16121.909    5512.8614    4368.2087    4769.3873   -510.64603    1179.7719     55.08222    18.114314    45.944051    20.608927    89.256537    109.94146    90.342207 
  160500    258.62657   -9674.7026   -8639.3615   -9674.7026            0    6578.5424    18.063026    45.756016    19.434014 -0.080342855    -6.492023 0.0079158456    16062.059    6615.8402    6531.7831    6588.0037    186.45171    80.435043   -12.955136    18.063026    45.756087    20.489688    89.945989    108.47214    90.100605 
  161000    246.47534   -9682.5261   -8695.8291   -9682.5261            0    5356.5565    18.049307    45.706538    19.450214  -0.21327679   -6.1396443 -0.0088152842    16045.869    5156.0195    5881.7612    5031.8889    -542.9896   -171.45647   -116.08871    18.049307    45.707036    20.396228    89.944285    107.51879    90.267353 
  161500    251.75459   -9651.9483   -8644.1173   -9651.9483            0    6159.4047    18.018281    45.880736    19.354022  -0.22652944   -6.3592845   0.18649775    15999.815    5045.6666    7062.1256    6370.4219   -35.987607    740.62442    423.46612    18.018281    45.881295     20.37286    89.387195    108.18854    90.282887 
  162000    255.47828   -9673.5559   -8650.8181   -9673.5559            0    5925.8111    18.038574    45.933431    19.357416   -0.3229455   -6.7748567  0.067798212    16039.043     5009.428    6452.7394    6315.2659    593.09735    52.761945    832.10173    18.038574    45.934567    20.508847    89.677527    109.28931    90.402824 
  162500    251.29402   -9672.1489   -8666.1616   -9672.1489            0     6278.758    18.119302    45.854639    19.334197  -0.28053826   -6.8512384 -0.0095023945    16063.896    7005.9642    5139.8057    6690.5042    551.71428   -415.61088     1299.184    18.119302    45.855497    20.512209    89.909463    109.51222    90.350531 
  163000    252.24444   -9660.0449   -8650.2529   -9660.0449            0    5949.0599    18.009861    45.730023    19.547172 0.00041462884   -6.3504918   0.29047927    16098.882    5990.7814    6167.5843     5688.814   -274.39535    313.36079   -2.1902375    18.009861    45.730023    20.554928    89.190438     107.9961    89.999481 
  163500     260.6538   -9705.3386    -8661.882   -9705.3386            0    4719.9888    18.083592    46.070116    19.372535  -0.32410986   -5.9350684   0.11068703    16139.515    4001.2694    5281.3742    4877.3227    137.17246   -725.51931    -125.9554    18.083592    46.071256      20.2616    89.568933    107.03297    90.403077 
  164000    253.11418   -9682.3136   -8669.0399   -9682.3136            0    4959.1808    18.030809    46.010398    19.424105  -0.28646632   -6.2841916 0.0048258483    16114.329    4267.9689    5091.9904    5517.5831    419.75232   -692.75451    25.147571    18.030809     46.01129    20.415361    89.876651    107.92771    90.356726 
  164500    255.35829   -9681.6758   -8659.4184   -9681.6758            0    5773.2705    18.082008    45.847705    19.395208   -0.2093955   -6.6840591  0.092792659    16078.987    5627.9881    5751.9775    5939.8459   -442.68862   -259.00565    243.73777    18.082008    45.848183    20.514857    89.655582    109.01499    90.261679 
  165000    253.15312   -9673.5306   -8660.1009   -9673.5306            0    6159.9278    18.152712    45.794741    19.301515  -0.28654037   -6.7357403    0.1135607    16045.325    5458.0919     6632.884    6388.8075   -441.59366    189.17579    110.05505    18.152712    45.795637    20.443375    89.563612    109.23739    90.358498 
  165500    250.89231   -9652.2204   -8647.8413   -9652.2204            0    6092.4193    17.999433     45.93072    19.420878  -0.28749119   -6.2790033  0.063039789    16055.763    7179.8615    5936.2865      5161.11   -685.08471    36.148411    1279.7278    17.999433     45.93162     20.41079    89.712718    107.91656    90.358623 
  166000    260.44359   -9653.1058   -8610.4908   -9653.1058            0    6040.5376    17.924155    45.976637    19.480089 -0.013489781   -6.0458029   0.12806478    16053.392    7135.7966    5738.3545    5247.4618   -922.93164      167.704   -1366.9073    17.924155    45.976639    20.397107    89.635279     107.2418    90.016811 
  166500    248.07343   -9678.7019   -8685.6074   -9678.7019            0    6230.2252    18.211829    45.633189    19.260534  -0.50833233   -6.4506923  0.019413964    16006.733    4466.8064    6753.7127    7470.1564    842.83515   -445.05234   -457.81648    18.211829     45.63602    20.312064    89.742558     108.5166    90.638222 
  167000    249.17415   -9687.3481   -8689.8472   -9687.3481            0    7122.6865    17.987742    45.667819    19.477639  -0.35513978   -6.7385343   0.13527888    16000.119    7552.4322    7318.2532     6497.374    521.85331    380.34332    1155.2906    17.987742      45.6692    20.610787    89.478274    109.08328    90.445557 
  167500    255.02352   -9690.2224   -8669.3051   -9690.2224            0    6572.7557    18.069982    45.899388    19.288337 -0.082116784   -6.7167843   0.19831633    15997.768     5814.774     6637.715    7265.7781    662.00282    441.97277   -630.43292    18.069982    45.899462    20.425338    89.409978    109.19873    90.102506 
  168000    259.73452   -9676.3228   -8636.5463   -9676.3228            0    6438.3394    18.064455    45.954271    19.299827  -0.32620648   -6.4039142  0.030528481    16021.536    8105.6137    6084.8566    5124.5478   -149.41477   -961.02813    58.483521    18.064455    45.955429    20.334561    89.785901    108.35644    90.406707 
  168500    256.77511   -9695.5048   -8667.5756   -9695.5048            0    6204.3419    17.952636    45.703195    19.550957  -0.25654713   -6.1715555   0.08336122     16041.42      7044.92    6409.8841    5158.2216    196.82354   -349.43179    -864.2903    17.952636    45.703915    20.502072    89.670225    107.51894    90.321617 
  169000    253.48775   -9649.4709   -8634.7017   -9649.4709            0      6007.97    18.254647    45.734819    19.258376  -0.10577083   -6.4256985   0.12132702    16078.297    4423.3828    6408.4514    7192.0758   -132.84021   -281.48479    26.128738    18.254647    45.734941    20.302447    89.615661    108.45131    90.132508 
  169500    248.76605   -9689.0721    -8693.205   -9689.0721            0    5112.3983    17.995144    45.982321    19.467348  -0.39266685   -6.7576231  0.020862977    16108.422    5419.2891    5100.4006    4817.5051    158.75344    214.05052   -304.70431    17.995144    45.983998    20.606881     89.78155    109.14321    90.489266 
  170000    256.63446   -9649.7271   -8622.3609   -9649.7271            0     5869.644    18.095498    45.790511    19.409659  -0.21605844   -6.7304842  0.086876812    16082.884    6110.3216      5594.85    5903.7603     -623.934   -310.85469    1038.6571    18.095498    45.791021    20.543657    89.669134     109.1243    90.270343 
  170500    251.72743    -9737.861   -8730.1387    -9737.861            0    7439.3105    18.070309    45.617571    19.346981  -0.38054149   -6.4881307   0.11002344    15948.173    6228.7413    7578.0481     8511.142   -418.99145    1050.0642    925.93313    18.070309    45.619158    20.406215    89.539124    108.53892     90.47795 
  171000    253.72506   -9681.7264   -8666.0071   -9681.7264            0    5410.1582    17.949748    45.949997    19.444143  -0.42929587   -6.2443842   0.17857801    16037.351    6148.8987    5037.7322    5043.8437    336.40364   -835.27028    -296.4083    17.949748    45.952002    20.422999    89.335354    107.80344     90.53528 
  171500    250.27628   -9677.2938   -8675.3808   -9677.2938            0    6146.9094    18.116365    46.109243    19.189618 -0.038600138   -6.3985724 0.0092035919      16029.7    5422.6811    6422.8279    6595.2192   -56.195481    36.823461    -426.8165    18.116365    46.109259    20.228278    89.958759    108.44041    90.047965 
  172000     254.8803   -9705.0301   -8684.6861   -9705.0301            0    4193.0507      18.0947    45.751313    19.507613 0.0091295168   -6.8179697 -0.019231845      16149.5    4526.5344    4117.0631    3935.5546    234.78621    475.65612   -668.40484      18.0947    45.751313    20.664753    90.057095    109.26467    89.988567 
  172500    253.38078   -9649.7939   -8635.4529   -9649.7939            0    5510.5682    18.087139    45.833128     19.46267  -0.36409021   -6.8030126   0.14068924    16134.362    6220.0218    6435.2626    3876.4202   -367.24517    370.63494   -471.32281    18.087139    45.834574    20.617864    89.458863    109.26618    90.455138 
  173000    255.32178   -9693.5977   -8671.4864   -9693.5977            0    4727.3936    18.063055    46.162077    19.361357  -0.65661378     -6.43232   0.20022399    16144.044    5599.3334    4248.7552    4334.0921    553.48761   -502.19378    530.71695    18.063055    46.166747    20.402867    89.180846    108.37684    90.814926 
  173500    262.33845   -9696.8583   -8646.6577   -9696.8583            0     4939.216    17.938697    45.952745    19.552207  -0.27439767   -6.1922079 -0.018753895    16117.517    5407.4214     5368.093    4042.1336    177.32095   -350.28201    528.02631    17.938697    45.953565    20.509329    89.949096    107.57305    90.342126 
  174000    251.38852   -9688.8364   -8682.4708   -9688.8364            0     4024.601     18.23398      45.6639    19.406494   0.10721073   -6.4488469   0.10895002    16158.519    3671.9661    4389.2868    4012.5501   -491.15884   -273.31649   -913.59982     18.23398    45.664026    20.450221    89.737173    108.38156     89.86548 
  174500    259.24347   -9658.5427    -8620.732   -9658.5427            0    5449.1373    18.111673    45.891381    19.379608  -0.32762817   -6.7319261  0.090157443    16107.743    5506.2345    5439.3767    5401.8007    400.76543   -460.55841    172.17481    18.111673    45.892551    20.515754    89.613996    109.15558     90.40904 
  175000    255.27061   -9680.6584    -8658.752   -9680.6584            0    6341.7928    18.019883    45.988529    19.374522  -0.55279968    -6.683733  0.020920862    16055.819     6807.782    6394.3288    5823.2677    245.45937    186.55918   -405.26173    18.019883    45.991852    20.494995    89.716932    109.03316    90.688684 
  175500    250.47132   -9728.7292   -8726.0354   -9728.7292            0    6597.4067    18.030592    45.745352    19.392399  -0.21288249   -6.3689259   0.16362434    15995.157    6788.5728    6504.6709    6498.9764   -660.18514     600.6564   -1740.3397    18.030592    45.745848    20.412132    89.457519    108.18081    90.266632 
  176000    252.71038    -9722.726   -8711.0687    -9722.726            0    6361.1107    17.989422    45.608684    19.497036 -0.084577643   -6.2327701 -0.057762568    15996.808    7556.1331    5877.3402    5649.8587    121.70883   -348.16093    539.04108    17.989422    45.608762    20.469127    90.129332    107.72785     90.10625 
  176500    251.72254   -9627.9878   -8620.2851   -9627.9878            0    7060.2913    18.175112    45.783291    19.234791   -0.2569266   -6.6709976  -0.18821557    16005.586    6399.2677    6862.6007    7919.0056    197.01975     231.5334    69.148778    18.175112    45.784011    20.359637    90.424318    109.12669    90.321529 
  177000    256.73412   -9667.4341    -8639.669   -9667.4341            0    5706.5987    18.068234    45.839786    19.381613  -0.10416415   -6.9185025   0.27628032    16052.704    5874.1718    5703.6152    5542.0091   -511.99087    -44.75765   -486.98337    18.068234    45.839904    20.581276    89.187078     109.6428    90.130196 
  177500    264.65532   -9718.1167   -8658.6411   -9718.1167            0    6769.9615    18.042934    45.746724    19.413878  -0.62176748   -6.5923978  0.077455426    16024.314    7085.2831    7509.6002    5715.0011    786.00299    649.85357    1515.4731    18.042934    45.750949    20.502789    89.533194    108.75588    90.778689 
  178000    256.66655   -9687.2556   -8659.7609   -9687.2556            0    7079.3756    18.097758    45.701326    19.334485  -0.24903514    -6.329007  0.075478894    15991.389    6422.0738    7343.4455    7472.6076   -791.25711   -886.46145    457.85428    18.097758    45.702005    20.344148      89.6903    108.12536    90.312212 
  178500      245.476   -9705.2033   -8722.5069   -9705.2033            0    5281.0976     17.95241    45.922045     19.43897    0.1130314   -6.4048648  0.063224472    16025.708    6439.0767     5071.947    4332.2693    -842.5125    137.56761   -1218.1267     17.95241    45.922184    20.467043    89.867141    108.23623    89.858974 
  179000    252.57416   -9677.0931   -8665.9812   -9677.0931            0    5404.0807    18.117296    46.034562    19.324399  -0.52100801   -6.8056854  0.089411396     16116.97     5248.441    5532.3404    5431.4607    1352.0224    592.69664   -235.51355    18.117296    46.037511     20.48799    89.534576     109.4011    90.648432 
  179500    244.85018   -9672.2255   -8692.0344   -9672.2255            0    5168.4005    18.105569     45.89482    19.427633  -0.54048961   -6.9704708   0.39145611    16143.427    5196.0955    5722.8035    4586.3024    316.55259    1065.2393   -957.60051    18.105569    45.898002    20.643973    88.685687    109.73386    90.674724 
  180000    245.32665   -9661.7628   -8679.6643   -9661.7628            0    5151.8648    18.085037    45.812576    19.441692  -0.21390148   -6.5177115 -0.0054897761    16107.872    5059.9867    5198.9141    5196.6935    414.92321    -340.5525    222.01099    18.085037    45.813076    20.505121    89.930308    108.53342    90.267515 
  180500    262.77248   -9686.9041    -8634.966   -9686.9041            0    5802.3425    18.141074    45.747233    19.392457  0.024278189   -6.3293449 -0.058459621    16093.877    6390.1204    6151.7696    4865.1374    -100.9442   -186.72304    1041.9679    18.141074    45.747239      20.3993    90.173631    108.07566    89.969593 
  181000    250.18097   -9694.7836   -8693.2522   -9694.7836            0    5404.1822    17.995008    45.874464     19.42115  -0.17978015   -6.4343116   0.14396665     16032.38    6377.4665    5601.0125    4234.0676    343.37285   -862.35638    -53.13693    17.995008    45.874817    20.459769    89.526218    108.32979    90.224539 
  181500    251.64164   -9665.8592   -8658.4803   -9665.8592            0    6762.4384    18.052158     45.86283    19.271369  -0.55360871    -6.722623   0.15564493    15955.211    6795.4486    7077.1827    6414.6839   -61.954745    152.38316   -425.15954    18.052158    45.866171    20.410869    89.335326    109.23023    90.691582 
  182000    260.83408   -9668.0426   -8623.8643   -9668.0426            0    7726.3862    18.098308    45.566017    19.343359  -0.33798372   -6.8898833   0.13724198    15951.846    6617.3249    8621.1588     7940.675   -553.67866    924.58734   -352.60836    18.098308    45.567271    20.534237     89.47447    109.60486    90.424981 
  182500    257.15779   -9672.6026   -8643.1413   -9672.6026            0    7128.9998    18.046433    45.539837    19.392049 -0.092829033   -6.5314638   0.12512513    15936.999    6765.4271    7291.7786    7329.7937   -6.5197793    352.06081   -698.52419    18.046433    45.539932    20.462826     89.61237    108.61375    90.116792 
  183000    258.95727   -9699.0981   -8662.4332   -9699.0981            0    6327.9468    17.970991    45.863194    19.412111  -0.46581124   -6.1787952 -0.0056822879    15999.599    6408.4144    6469.9458    6105.4801    742.89345    435.19064    1426.8404    17.970991     45.86556    20.371735     89.83949    107.65606    90.581907 
  183500    263.55066   -9705.4332   -8650.3798   -9705.4332            0    6334.4027     18.00988    45.927876     19.32349 -0.050530118   -6.3787097   0.19219011    15983.532     6397.234    6192.1401    6413.8339   -376.29833   -231.52882   -814.43699     18.00988    45.927903    20.349992    89.439118    108.26728    90.063037 
  184000    255.48251   -9698.1931   -8675.4384   -9698.1931            0    6277.2119    18.038378    45.848963    19.424351  -0.50947564   -6.8121403   0.05502683    16064.733    6056.4616    6386.0274    6389.1468     419.8975    823.30662    268.39829    18.038378    45.851794    20.584307    89.636155    109.32575    90.636647 
  184500    256.71233   -9671.4472   -8643.7692   -9671.4472            0    6199.5523    18.172995     45.57702      19.3942  -0.52128568   -6.8726959   0.22244711    16063.653    7848.7707     5973.396    4776.4904   -378.47142    543.33729   -780.32305    18.172995    45.580001    20.577133     89.16176    109.51154     90.65529 
  185000    256.23814   -9664.1438   -8638.3641   -9664.1438            0    6192.3992    18.126808    45.739703    19.331854 -0.010809275   -6.4042857   0.23039859    16028.327    5999.1726    6261.7789    6316.2462    227.73587   -748.75805   -590.55596    18.126808    45.739704    20.366358    89.347558    108.32786     90.01354 
  185500    252.30516   -9660.3901    -8650.355   -9660.3901            0    6526.6255    17.932098    45.999696    19.414842  -0.25132338   -6.2673707 -0.039709952    16014.741    6108.4447    6050.5732    7420.8584    1446.2601    132.36557    1004.0256    17.932098    46.000382    20.401411    90.015355    107.89074    90.313037 
  186000    265.02287   -9663.9187   -8602.9718   -9663.9187            0    6176.1169    18.102309    45.805511    19.384479 -0.072039361   -6.5291033    0.1674165    16073.329    4178.2233      6518.28    7831.8474   -172.64112    188.03122   -450.60949    18.102309    45.805568    20.455201    89.502292    108.61397     90.09011 
  186500    252.19746    -9696.972    -8687.368    -9696.972            0    6746.6891    18.098122    45.717348    19.373924   -0.4263596   -6.7127452   0.12021322    16029.949    8229.8442    5846.3389    6163.8841    136.47217   -282.42108   -42.708282    18.098122    45.719337    20.504252    89.489165    109.11002    90.534324 
  187000     243.9831   -9683.0681   -8706.3481   -9683.0681            0    5372.9499    17.918604    46.308052    19.347885  -0.73304149   -6.5831273  0.079146332    16054.403    5568.3017    4708.4747    5842.0733    712.67111    266.40838   -12.502014    17.918604    46.313854     20.43733    89.486024    108.79075    90.906898 
  187500    253.63328   -9677.8298    -8662.478   -9677.8298            0    5852.2642    18.083559     46.04799    19.272119  0.048217469   -6.2964435  0.094693089    16048.116    5969.0054    5232.9384    6354.8487   -567.21296   -371.38771   -540.48789    18.083559    46.048015     20.27483    89.751033    108.09266    89.940005 
  188000    251.93405    -9637.935   -8629.3856    -9637.935            0    7758.9603    18.081407    45.345507    19.529296   0.15058955   -6.2525346   0.08210125    16012.277    7601.9189    8227.2907    7447.6713     -323.617    225.09551   -485.99114    18.081407    45.345757    20.505958    89.828619    107.75293    89.809725 
  188500    270.45739   -9694.2712   -8611.5687   -9694.2712            0    5907.5421    17.998482    45.803916    19.441889  -0.53048367   -6.5152445  0.089365302    16027.911    7308.3076    6293.3486    4120.9702     604.5542    241.50592   -474.10287    17.998482    45.806988    20.504718    89.539467    108.52653    90.663548 
  189000    251.11189   -9723.4174   -8718.1593   -9723.4174            0    6078.8232     18.03021    46.127301    19.225211   -0.1659672   -6.6512334   0.14984083    15989.318    5797.5802    5523.7678    6915.1216    -73.96857    369.38954   -836.33362     18.03021    46.127599    20.343797     89.51059    109.08325    90.206151 
  189500    246.90989   -9626.7444   -8638.3079   -9626.7444            0    6647.5985    18.036802    45.729117     19.48233  -0.17196949   -6.5670468  0.039771491    16069.162    6730.9622    7685.6458    5526.1874    63.810885    182.94527    457.02986    18.036802     45.72944    20.559398     89.82034    108.62775    90.215466 
  190000    264.46312   -9668.5044   -8609.7983   -9668.5044            0    5463.4209    18.180918    45.485364    19.484334  -0.56093865   -6.4428493  0.033301188    16112.876    4340.6601    6617.0984    5432.5043    1071.5127     794.6251    875.94074    18.180918    45.488823    20.521956    89.685215    108.29738    90.706552 
  190500    258.41875   -9658.5411    -8624.032   -9658.5411            0     4842.503    18.004411    46.361925    19.301562 -0.0061962792   -6.3380481   0.29220939    16111.383    5112.4163    4372.1719    5042.9208   -383.59011   -123.39651   -386.39177    18.004411    46.361925    20.317641    89.173552    108.17667    90.007658 
  191000    260.88787    -9665.184   -8620.7904    -9665.184            0    5465.2081     17.96217    46.353825    19.346411  -0.23844233   -6.4227794  0.047054677    16108.117    7029.2362     4113.861     5252.527    906.04338   -265.97742    407.59936     17.96217    46.354438    20.384747    89.774883    108.36551    90.294725 
  191500    259.20379   -9680.6054   -8642.9536   -9680.6054            0    4799.1642    18.208013    45.558746    19.468253  -0.32727624   -6.5549849  0.045986746    16149.582     3406.858    5881.6623    5108.9722    497.14549    142.39609     169.5952    18.208013    45.559922     20.54222    89.740403    108.60839    90.411583 
  192000    258.92309   -9683.8094   -8647.2813   -9683.8094            0    5974.2344    18.074787    45.859439    19.454276  -0.30018855   -6.5196815   0.17049533    16125.642     6420.789    6038.1597    5463.7544    191.01535     149.3428   -1111.7834    18.074787    45.860422    20.518387    89.404738     108.5268    90.375044 
  192500    257.16144   -9647.4232   -8617.9474   -9647.4232            0    4911.9634    18.059443    46.233581    19.368639  -0.34571731   -6.5132113  0.048510755    16171.899    5647.5449    3769.8157    5318.5296     1321.989   -565.04202    723.22564    18.059443    46.234874    20.434492     89.72743    108.58651    90.428428 
  193000    249.92725   -9668.1325   -8667.6167   -9668.1325            0    5976.8425    18.074946    45.931643    19.379866 -0.017875743   -6.5430315  0.051135679    16089.397    5860.7059    6089.8722    5979.9493    245.22217    259.79548    498.32016    18.074946    45.931647    20.454659     89.84963    108.65565    90.022298 
  193500    251.97467   -9655.4651   -8646.7531   -9655.4651            0    5258.9597    18.058638    45.830027     19.44932  -0.17747788   -6.4623326   0.07545005    16096.799     6409.274     4775.695      4591.91   -398.64391   -482.41867   -292.07034    18.058638     45.83037    20.494962    89.719111    108.37972    90.221878 
  194000    248.10415   -9650.9027   -8657.6852   -9650.9027            0    7739.0341    18.039046    45.882262    19.263268  -0.67772491   -6.4259447   0.14869082    15943.673    6592.9921    8375.5482    8248.5622   -1001.5724    1015.5603   -909.38623    18.039046    45.887268    20.307348    89.312735    108.44743    90.846252 
  194500    263.27321   -9688.5431   -8634.6004   -9688.5431            0    7619.6303    17.896335    45.942785      19.3496  -0.42769627   -6.5067463   0.20058852    15909.386    6778.2746    7937.4325    8143.1839   -256.16549    142.75268    143.18366    17.896335    45.944776    20.415313    89.267058    108.58547     90.53337 
  195000     253.0928   -9661.6185   -8648.4303   -9661.6185            0    7697.3442    18.080822    45.648525    19.318421 -0.098267038   -6.5909442 -0.00077474523    15944.708    8136.4427    7182.2285    7773.3614    497.94407   -734.01604    447.68712    18.080822    45.648631    20.411809    89.962348    108.83831     90.12334 
  195500    259.33567   -9650.3719   -8612.1921   -9650.3719            0    7003.6935    18.063803    45.706271    19.374498  0.093378991   -6.5355751  0.020363442    15996.149    6732.9018    6739.8706    7538.3082   -1130.7732      471.423     281.0316    18.063803    45.706366    20.447135    89.980354    108.64072    89.882944 
  196000    259.50585   -9680.5982   -8641.7372   -9680.5982            0    7283.6882    18.031585    45.763789    19.333069  -0.39994376   -6.4828853  0.072473676    15953.526    7476.9129    7759.3403    6614.8114    639.59996   -407.05946    1454.6428    18.031585    45.765537    20.391189    89.637179    108.53753    90.500713 
  196500    268.71889   -9655.6231   -8579.8802   -9655.6231            0    7386.5027    18.015287    45.656156    19.399902   -0.7751642   -6.5200106   0.24407938    15956.589     6909.442    7386.0285    7864.0374    1236.3718    716.77655    644.55999    18.015287    45.662736    20.467689    89.006953    108.57534    90.972692 
  197000    252.58704    -9653.959   -8642.7956    -9653.959            0    7419.0132    17.950114    45.915311    19.376916  -0.16673696   -6.3681049   0.17780527    15970.165    7760.5735    7564.4019    6932.0641   -336.49696   -643.16016   -670.34933    17.950114    45.915614    20.397285    89.435583    108.19208    90.208063 
  197500    258.82006   -9668.5785   -8632.4628   -9668.5785            0    6295.0535    18.042101    46.164713    19.275141  -0.09296481   -6.4139888 -0.059965146    16054.427    6504.6971     5312.557    7067.9063   -613.82001   -188.13069    743.36255    18.042101    46.164807    20.314377    90.132699    108.40528     90.11538 
  198000    256.05836   -9652.4046   -8627.3446   -9652.4046            0    5348.1068    18.044978    45.788927    19.500361  -0.25161955   -6.5328559   0.13015304    16112.372    6893.7413    5376.3476    3774.2314   -83.434488   -454.69932    606.32436    18.044978    45.789618    20.565972    89.537388    108.52109    90.314849 
  198500    247.76299   -9670.2206   -8678.3689   -9670.2206            0    5387.9433    18.201551    45.582785    19.417551  -0.55538669   -6.6430452   0.22571204    16110.303    6466.4322    4916.2082    4781.1893    718.10908    49.554138   -495.54625    18.201551    45.586169    20.523701    89.143955    108.88543    90.698065 
  199000    255.62443   -9658.7861   -8635.4633   -9658.7861            0    4677.9925    18.018869    46.143914    19.469665 -0.091415253    -6.547533  0.058103767     16188.27    4677.1433    4730.9203     4625.914   -169.57766   -198.04753    74.426467    18.018869    46.144005    20.541212     89.80175    108.58741    90.113508 
  199500    257.68694   -9633.9696   -8602.3901   -9633.9696            0    5188.1637    18.075565    46.188877    19.366458   0.21946917   -6.4352713 -0.039616613    16168.863    5792.3591    4796.2485    4975.8834   -434.79821    113.02641    -391.9259    18.075565    46.189399    20.407694    90.197072    108.38107    89.727758 
  200000    255.28647   -9668.4202   -8646.4503   -9668.4202            0    6226.8856    18.182115     45.63719    19.389585  -0.38581872   -6.3771629   0.16263636    16089.103    6888.4317    5460.2173    6332.0078    262.40654   -731.84369      -176.57    18.182115    45.638821    20.412023    89.392165    108.20525    90.484369 
  200500    253.36446   -9726.3921   -8712.1165   -9726.3921            0    6611.4991     17.97028    45.729379    19.473034  -0.63384364   -6.4961011   0.17648614     16002.35    7230.2485    6088.5229    6515.7259   -40.072654    545.96046   -115.24478     17.97028    45.733771    20.528749    89.256173    108.44772    90.794112 
  201000    249.31447   -9669.3693   -8671.3066   -9669.3693            0    7239.9856    18.058529    46.155593    19.198863 -0.041289101   -6.6501618  0.039759993    16002.293    6777.5971     6675.672    8266.6878   -658.63395   -123.15975    707.49996    18.058529    46.155611    20.318036    89.871103    109.10518    90.051255 
  201500    254.32205    -9643.495   -8625.3858    -9643.495            0    7869.7773    17.997988    45.642526    19.388084  0.023940452   -6.5380934  0.010451156      15926.8    8678.0108    8090.8129    6840.5082   -953.77519    372.90347    816.39594    17.997988    45.642533    20.460806    89.980337    108.63525    89.969947 
  202000    256.73023   -9670.0258   -8642.2762   -9670.0258            0    6351.2273    18.095628    45.591905    19.414539  -0.40274935   -6.4430517   0.14322741     16017.27      6173.37    6632.7318    6247.5801   -114.66271   -267.55038    1008.6373    18.095628    45.593684     20.45624    89.439431    108.35885    90.506126 
  202500    252.66558   -9663.8497   -8652.3717   -9663.8497            0    5973.9319    18.041502    46.001147    19.344609  -0.38798187   -6.4649886   0.29555663    16054.668    6383.2481    5295.2289    6243.3187   -461.81951   -43.185681   -321.86081    18.041502    46.002783    20.398464    89.016662    108.47767    90.483231 
  203000    239.87743   -9707.6158   -8747.3318   -9707.6158            0    5902.6991     17.96795    46.022815    19.417985  -0.30927541   -6.5901956  0.017620384    16057.424     6328.993    6232.7834    5146.3209    684.51578    442.30768   -580.01503     17.96795    46.023854    20.505831    89.827029     108.7465    90.385024 
  203500    264.93099   -9715.5617   -8654.9826   -9715.5617            0    5197.3064    18.210878    45.576463    19.404887  0.045528516   -6.6867063 -0.051094446    16105.812     4949.411     5634.902    5007.6062   -616.42904    66.876158    229.04134    18.210878    45.576485    20.524724    90.161279    109.01332    89.942765 
  204000    247.14056   -9658.9519   -8669.5919   -9658.9519            0    6187.0413    18.050064    45.383221    19.598799  -0.42630658   -6.4465251   0.27161098    16054.749    7729.2035    6376.7282    4455.1922    354.92484   -239.69879   -1138.7053    18.050064    45.385224    20.633574    89.077634    108.20567    90.538191 
  204500      255.515    -9695.209   -8672.3242    -9695.209            0    6210.7654    17.993012    46.166651    19.248322  -0.82771902   -6.2539889   0.20799361     15989.14    6318.3183    5955.3046    6358.6733    13.991347   -178.12327   -3.8310426    17.993012    46.174071      20.2399    89.093899    107.99856    91.027142 
  205000    255.17574   -9705.3424   -8683.8158   -9705.3424            0    7327.1022    17.921688    46.172294    19.266508 -0.032845509   -6.4413865  0.095861954    15942.755    7255.9842    7321.5999    7403.7225   -147.73859    467.28557   -381.47379    17.921688    46.172306    20.314994    89.716709    108.48615    90.040758 
  205500    259.55289   -9671.2651   -8632.2157   -9671.2651            0    6020.9717     18.06951    45.738112    19.430194   0.10235357   -6.6774617 -0.053128374    16058.381    6002.0133    5606.9009    6454.0009    -356.8889    123.29723   -77.603155     18.06951    45.738226    20.545651    90.189831    108.96594    89.871783 
  206000    246.07558    -9687.174   -8702.0774    -9687.174            0    5784.7452    18.159465    45.631541    19.395158  -0.48779562   -6.6196266   0.10640786    16071.688    5261.4525     5550.641    6542.1421    208.76287   -509.51208    1423.6654    18.159465    45.634148    20.493973    89.504699    108.84467    90.612462 
  206500    258.21134   -9672.1817   -8638.5028   -9672.1817            0     5908.643    17.946578     46.07782    19.396512  -0.43496465   -6.3757578   0.33364457    16039.736    6574.1482     5521.799    5629.9818     1405.466   -735.04126      159.259    17.946578    46.079873    20.420242    88.894959    108.19351    90.540844 
  207000    258.53539   -9680.2834   -8645.3073   -9680.2834            0    6045.7709    17.876129     46.58071    19.294161  0.022260451   -6.3364083  -0.20026783    16065.916    6083.3105    6066.8019    5987.2005   -397.61322    18.668337   -19.195084    17.876129    46.580715    20.308984    90.573549    108.17982    89.972619 
  207500    248.22643    -9694.189    -8700.482    -9694.189            0    6022.7158    18.101802    45.811429    19.384992    0.5519226   -6.5140298  -0.16730501    16075.381    5842.9296    6007.6511    6217.5667    12.236106    228.39311    16.596061    18.101802    45.814754     20.45088    90.688563    108.57349    89.309751 
  208000     250.3064   -9669.9191   -8667.8856   -9669.9191            0    5262.6574    18.112232    45.659974    19.466386  -0.10317311   -6.5939633   0.18314628    16098.781    6491.0149    4645.6881    4651.2691    119.27021    717.89959   -406.42756    18.112232    45.660091    20.553688    89.447917    108.71231    90.129465 
  208500    242.13608   -9690.3992   -8721.0733   -9690.3992            0    4917.0249    18.071474    45.922725    19.399705  -0.89960492   -6.5567737  0.043807499    16099.646    4758.0402    5257.2395     4735.795    1705.1769    45.740405   -209.23252    18.071474    45.931536    20.477835    89.518137    108.67434    91.122254 
  209000    251.41822   -9658.3512   -8651.8668   -9658.3512            0    6596.6762    18.010076    45.863742    19.414764   0.10703629   -6.4968685   0.17447903    16036.778    6124.9173    6547.2879    7117.8232   -1252.9568    247.84311   -622.43649    18.010076    45.863867     20.47371    89.554148    108.50137    89.866284 
  209500    252.82786   -9699.8716    -8687.744   -9699.8716            0    5978.4699    18.115683    45.707597    19.382409   0.18055273   -6.5327278 -0.0099561278    16049.106    4179.3954    7162.4056    6593.6086   -501.43462    568.37662    92.561534    18.115683    45.707953    20.453714    90.100176    108.62609    89.773673 
  210000    251.71991   -9663.2321   -8655.5399   -9663.2321            0    5894.5776    18.064885    45.656042    19.442776  -0.60334135   -6.5459451 -0.0026292041     16035.84    5755.2958    6355.6746    5572.7624     759.3626   -634.85687    429.65424    18.064885    45.660028     20.51514    89.765769    108.60722    90.757116 
  210500    263.42616    -9654.676    -8600.121    -9654.676            0    7214.9608    18.011113    45.825901    19.333423  -0.25361343    -6.528429   0.36535168    15957.334    6737.2083    7877.5999    7030.0741   -325.18315   -1.2376232   -303.13709    18.011113    45.826603    20.409192    88.872844    108.65548    90.317088 
  211000    254.16314   -9687.1818   -8669.7088   -9687.1818            0    7310.7193    17.951457    46.004654    19.306644  -0.25974181    -6.465442 -0.059238997    15944.403    7156.8064    7854.4681    6920.8836    16.491787    159.64888   -372.57726    17.951457    46.005387    20.360549    90.063977    108.51467    90.323488 
  211500    251.52881   -9660.5438   -8653.6167   -9660.5438            0    6797.4619    18.067902      45.7022    19.361568  -0.12963903   -6.4405033  -0.02954209    15987.676    5393.4764    7739.5845    7259.3247    782.07032    77.097248    783.79083    18.067902    45.702383    20.404688    90.031654    108.39936    90.162525 
  212000    251.77477   -9716.2499   -8708.3381   -9716.2499            0    6539.6852    18.025754     45.71512    19.418835   -0.1495692   -6.4053016   0.27265478    16002.082    6934.0157    6216.3051    6468.7347   -304.80775   -473.72658   -292.56879    18.025754    45.715364    20.449777    89.177341    108.25346    90.187458 
  212500    261.19565   -9661.4612   -8615.8355   -9661.4612            0    6465.2043    18.035089    45.948526    19.362729  -0.67655873   -6.5477309   0.10559525    16045.618    6152.9503    5719.7984    7522.8642    11.674589    26.192016    643.75242    18.035089    45.953507    20.440137    89.433809     108.6833    90.843578 
  213000    257.53551   -9686.6748   -8655.7015   -9686.6748            0    5686.9972    18.085326    45.997909    19.353028  -0.16363624   -6.6591664 -0.091794894    16099.536    6764.4428    5522.2698    4774.2788    208.61167    356.60293    969.28152    18.085326      45.9982    20.466866    90.190655    108.98758    90.203827 
  213500     253.4055   -9655.1631   -8640.7232   -9655.1631            0    5230.5193    18.093794    45.797248    19.431219   0.79760076   -6.5376178  0.097094636    16101.602    5258.9986    5833.2498    4599.3095    -2227.015    423.01023    313.90748    18.093794    45.804193     20.50176    90.046843    108.59525    89.002243 
  214000    250.72484   -9656.3604   -8652.6517   -9656.3604            0    6474.1059    18.085111    45.722151    19.411433  -0.66675334    -6.414922 -0.024828276    16051.124    6994.1747    6671.8062    5756.3367    813.13281   -172.32107    1023.0173    18.085111    45.727013    20.443962    89.807431    108.28723    90.835469 
  214500    250.44319   -9660.8267   -8658.2455   -9660.8267            0    5977.3761     17.98597    46.024247     19.37307  -0.56552399   -6.4800162   0.23413966    16036.848    6257.8332    5628.7843    6045.5106    243.42387   -849.60602    92.023258     17.98597    46.027722    20.429422    89.120061     108.4931    90.703988 
  215000    245.85994   -9694.5089   -8710.2755   -9694.5089            0    6154.8343     18.03854    45.981849    19.316765   0.03349078   -6.6151002   0.16712063    16022.202    6892.3071    5718.3218    5853.8742   -1690.9355    63.496778   -25.022792     18.03854    45.981861    20.418738    89.544568    108.90331    89.958269 
  215500    255.05552   -9650.8277   -8629.7823   -9650.8277            0    6335.3911     18.12166     45.63248    19.444444  -0.44314032   -6.6981515 -0.082325382    16079.316    5988.3527     6577.982    6439.8385    329.11857    492.37959    410.54971     18.12166    45.634632    20.565953    90.048137    109.00746    90.556386 
  216000    254.13477   -9697.1948   -8679.8354   -9697.1948            0    6744.4105    18.010489    45.705003    19.437704  -0.19541515   -6.3716804   0.36817371    16000.525    8332.7879    5278.3401    6622.1035   -1039.3055   -963.85976   -1502.0716    18.010489    45.705421    20.458695    88.892555    108.14611    90.244971 
  216500    246.59741   -9657.9809   -8670.7953   -9657.9809            0    7042.6915     18.07759    46.022993    19.232928  -0.47025123   -6.3288365   0.18719659    16001.504    7077.7049    6415.1141    7635.2555   -543.48688   -762.72342   -1398.7873     18.07759    46.025395    20.248327    89.287333    108.21363    90.585413 
  217000    255.50788   -9672.0885   -8649.2322   -9672.0885            0    6424.0179    17.978684    46.027812    19.387452  -0.22424028   -6.5193589 -0.092616618    16043.495    7719.8079    5421.0583    6131.1875    242.74571   -279.69082    484.87966    17.978684    46.028358    20.454435    90.170463    108.58589    90.279134 
  217500    265.18915   -9684.1512   -8622.5385   -9684.1512            0    6533.8327    18.116548    45.806605    19.362331  0.084952316   -6.6834339   0.14482464    16067.976    6272.3808    6547.8726    6781.2448    172.11834    170.42253   -569.25835    18.116548    45.806684    20.483875    89.629577    109.04301     89.89374 
  218000    261.12618   -9684.2419   -8638.8943   -9684.2419            0    5144.3555    18.094409    45.676638    19.484177  -0.68849738   -6.5764811   0.12057837    16103.512    5951.9666    4953.2228     4527.877    730.10705    -672.2512    790.99525    18.094409    45.681827    20.564479    89.387919    108.65072    90.863571 
  218500    274.43982   -9691.5511   -8592.9059   -9691.5511            0    5102.2236    18.025337    46.165648    19.352333  -0.63345278   -6.2748394   0.25128435     16104.07    5608.3619     4946.188     4752.121    125.06829   -438.82439    39.361292    18.025337    46.169994     20.34575    89.049939    107.96346    90.786123 
  219000    245.80764    -9655.034     -8671.01    -9655.034            0    5747.8003    17.998441    46.291598    19.315554  0.083520809   -6.1718701  0.097937158    16093.267    5532.5194    4998.6805     6712.201   -85.062141    -416.3045    -705.6968    17.998441    46.291673    20.277875    89.754739    107.71995    89.896625 
  219500    249.63638   -9652.4427   -8653.0914   -9652.4427            0    5230.5399    18.057842    45.829171    19.485321  0.037640647   -6.4905488  -0.17743642    16125.583    4632.7895     5333.672    5725.1584   -187.47084   -539.73981    1729.1239    18.057842    45.829187    20.538658    90.509864    108.42217    89.952942 
  220000    251.24576        -9700   -8694.2059        -9700            0     6025.006    18.174936    45.635176    19.358923  -0.46812376   -6.7833284    0.2498395    16056.608     5237.461    5916.4964    6921.0606    589.84564    134.41317   -985.88124    18.174936    45.637577    20.514479    89.107882    109.30887    90.587717 
  220500    247.54573   -9721.9317   -8730.9497   -9721.9317            0     5619.589    17.968578    45.996077    19.411457  -0.55250569    -6.643879   0.20716338     16043.26    5303.6844    5281.0299    6274.0528    752.18283    150.53784    157.49821    17.968578    45.999395    20.518009    89.198679    108.89333    90.688205 
  221000    253.81956    -9687.461   -8671.3635    -9687.461            0    5778.1044    17.963067    46.190002    19.364049    0.1207929   -6.3071564  -0.06094155    16066.625     6259.905    5539.8767    5534.5314    241.56918   -378.43357    246.55608    17.963067     46.19016     20.36542    90.217856    108.04111    89.850164 
  221500    245.72765     -9716.85   -8733.1463     -9716.85            0    5758.8274    18.142841    45.718112    19.373485   0.12009477   -6.2548033 -0.0029339893    16069.461    6042.3941    5874.1761    5359.9119   -63.693054   -706.80693    425.56363    18.142841     45.71827    20.358155    90.054499    107.89287    89.849493 
  222000     239.8315   -9658.2624   -8698.1622   -9658.2624            0     5986.508    18.048642    45.592249      19.5381  -0.59588423   -6.4959677   0.13170563    16077.477    7122.8734    6123.0451    4713.6056    -28.39317    99.609168    873.71793    18.048642    45.596143    20.590102    89.397291    108.39039    90.748805 
  222500    254.69803   -9646.1738   -8626.5595   -9646.1738            0    5204.6203    18.040058     46.18247    19.277553  -0.57188661   -6.7071328   0.16493126    16060.793    5614.5321    4795.1864    5204.1425    98.446601    70.047922    1381.8552    18.040058     46.18601    20.411685    89.303935    109.18339    90.709469 
  223000    261.19492   -9719.5836   -8673.9608   -9719.5836            0    6242.7802    18.021846    45.984334    19.323504 -0.044982711    -6.601127   0.14282305    16013.824    6374.8664     5511.983    6841.4913   -1441.1501   -378.94086   -519.49192    18.021846    45.984356    20.420408    89.581144    108.86027    90.056048 
  223500    261.94888    -9674.608   -8625.9669    -9674.608            0    5878.0282     18.11551    45.300812    19.547966  -0.29480007   -6.4095187 -0.087462515    16041.986    6016.0374    6345.4642    5272.5829    652.97428   -460.45583   -138.37929     18.11551    45.301771    20.572131    90.127422    108.15346    90.372853 
  224000    265.57822   -9667.4711    -8604.301   -9667.4711            0    5796.9092    18.116568    45.925558    19.330389  -0.34777042   -6.3332522   0.16826797    16083.145    5299.9524    5950.5462    6140.2289   -773.15533   -468.86919    255.31518    18.116568    45.926875    20.342132    89.390981     108.1398    90.433863 
  224500    245.27251   -9680.4061   -8698.5243   -9680.4061            0    6727.4059    17.886875    46.300808    19.325956  -0.36478123   -6.5044524    0.3019965    16005.308    6650.9675    5790.6386    7740.6116    43.971905   -248.59709   -872.31936    17.886875    46.302245    20.393423     89.00754    108.59935    90.451396 
  225000    256.16192    -9701.444   -8675.9695    -9701.444            0    6016.4059    18.092847    45.746923    19.404122  -0.43759859   -6.7498113 0.0055769575    16060.639    7106.5025    5932.8716    5009.8436    710.77175    143.01309    1000.6403    18.092847    45.749016    20.544584     89.80439    109.18046    90.548054 
  225500     263.4525    -9655.387   -8600.7266    -9655.387            0    5379.5699     18.19662    45.518049    19.447109  0.012155392   -6.6664621   0.12607054    16107.547     4545.025    5824.7692    5768.9157   -335.54317   -731.58864   -160.24416     18.19662    45.518051    20.558396    89.653604    108.92133    89.984699 
  226000    259.78728   -9706.3144   -8666.3267   -9706.3144            0    6229.6127     17.94922    46.180444    19.344035  -0.55008565    -6.312064   0.10329961    16034.328    7332.7912    5087.2073    6268.8396    529.89193   -412.96603   -872.64585     17.94922     46.18372    20.348084    89.497449    108.07155    90.682455 
  226500    254.51092    -9681.416   -8662.5508    -9681.416            0    6324.6918    17.980567    46.284551    19.221244  -0.74275893   -6.2679761    0.1480533    15996.352    6934.4266     5750.413    6289.2356    962.81355    -769.4423    1309.8392    17.980567     46.29051    20.217954    89.295452    108.06045    90.919385 
  227000      252.026   -9630.3315    -8621.414   -9630.3315            0    6964.1941    18.068007    45.293813    19.604263   0.20411898   -6.5084316   0.27243074     16043.52    7882.3067    7624.2941    5385.9815   -928.64388   -218.30434   -1031.7853    18.068007    45.294273    20.658195     89.32575    108.36403    89.741795 
  227500    252.74802   -9689.5455   -8677.7376   -9689.5455            0    6018.6713    18.115128    45.688663    19.403874  -0.24254854   -6.6434687 -0.057013809    16059.732     5503.782     5826.693    6725.5388    736.29287   -84.488187    1204.3163    18.115128    45.689307    20.509735    90.060747    108.90002    90.304165 
  228000    263.30179   -9681.0064   -8626.9493   -9681.0064            0    5745.8275    18.032245    46.080916    19.335672  -0.43498616    -6.560438   0.21378233    16066.829    6022.5869    5558.8798    5656.0157    580.25207   -89.858119   -805.27929    18.032245    46.082969    20.419433    89.226383     108.7406    90.540834 
  228500    251.17465   -9630.3488   -8624.8394   -9630.3488            0    6218.9129    18.043298    45.817098     19.44331  -0.22492561   -6.4586978   0.29573811    16073.621    5911.9325    6494.4995    6250.3067   -365.66045   -42.096288   -265.87966    18.043298     45.81765    20.490109    89.084348    108.37352    90.281275 
  229000    244.03701   -9638.5832   -8661.6474   -9638.5832            0    5689.4456    18.181457    45.454643    19.473905  -0.12553438   -6.3771019  -0.18702075    16093.851    5655.6008    5519.7816    5892.9545    72.994463   -793.74098    562.20047    18.181457    45.454817    20.492325    90.473664    108.13124    90.158236 
  229500    259.27699   -9673.7072   -8635.7623   -9673.7072            0    5138.0142    18.065309    45.910192    19.401297   0.21308705   -6.5662471  0.067808887    16091.082    4664.4354    5456.7153    5292.8919   -1084.0985    146.10897   -1164.5267    18.065309    45.910686    20.482444    89.895571    108.69796     89.73407 
  230000    255.72076    -9647.202   -8623.4935    -9647.202            0    6283.9383    17.968049    46.278031    19.335454  -0.43927814   -6.6986125   0.28149162    16077.932    6796.2182    6123.2583    5932.3385    439.41937    195.55844    486.32666    17.968049    46.280116    20.464858    89.033883    109.10635    90.543844 
  230500     255.2756   -9663.3473   -8641.4209   -9663.3473            0    7030.4031    18.116521    45.734762    19.323708  -0.77302106    -6.612898   0.17455148    16010.751    6927.4231    7431.1122    6732.6742    163.92424    199.01798   -805.37777    18.116521    45.741295    20.424656    89.196884    108.89109    90.968336 
  231000    257.64417   -9648.0007   -8616.5924   -9648.0007            0    7156.1518    18.056745    45.383111    19.501858  0.086949766   -6.3651852  0.098252484    15981.212    6612.4077    7434.5943    7421.4536   -876.34407   -592.26533   -1090.6496    18.056745    45.383194    20.514573    89.759647    108.07588    89.890227 
  231500    258.89609   -9699.3596   -8662.9395   -9699.3596            0    7590.1647    18.019597      45.6891    19.353983   0.20711972   -6.3990908 -0.0036893237    15934.118    8813.3987     6921.497    7035.5984   -1010.8923     249.0061    365.86335    18.019597     45.68957    20.384431    90.091905    108.29566    89.740266 
  232000    253.70145   -9665.0616   -8649.4369   -9665.0616            0    7104.0829    18.025277    46.206712    19.250926  -0.46259324   -6.5534874  0.076826058     16033.88    6687.5019     6115.605    8509.1419    264.30997    107.53495   -461.96053    18.025277    46.209027    20.335984    89.598711    108.79969    90.573591 
  232500    256.05494   -9679.6289   -8654.5826   -9679.6289            0    6434.8134    17.983556    45.851963    19.419271  -0.57298101   -6.5501951  0.086306889    16012.768    6787.2381    5632.9519    6884.2501   -294.18532   -450.92483    522.63773    17.983556    45.855543    20.494404    89.529909    108.63928    90.715949 
  233000    251.94049   -9647.5825   -8639.0073   -9647.5825            0    6808.4135    18.239674    45.511638    19.328306   0.11149724   -6.5234514  0.084842683    16044.764    6248.0487    6897.0891    7280.1026    -742.4505    171.12308   -742.81342    18.239674    45.511775    20.399658    89.806592    108.64977    89.859634 
  233500    255.09613   -9670.0596   -8648.8517   -9670.0596            0    6442.6271    17.907106    45.850858    19.535657   0.33101402   -6.4159369  -0.13514825    16039.872     6521.572    7033.6086    5772.7009   -272.19101    405.75971   -239.07825    17.907106    45.852053    20.562694    90.505633     108.1809    89.586368 
  234000    256.92355   -9669.4638   -8640.9403   -9669.4638            0    5745.4959    17.979888    46.305917    19.288907   -0.5167019   -6.5003819    0.1288216    16059.465    5897.1804    4939.4904    6399.8169    450.90082    644.46621    348.34065    17.979888    46.308799    20.355183     89.43325    108.62348    90.639305 
  234500    258.29689   -9686.6499   -8652.6286   -9686.6499            0    6461.2117    18.079885    45.878822     19.36216  -0.54290766   -6.6193242   0.31020787    16060.599    6142.4264    6360.9011    6880.3077    -235.8062    607.39103   -1244.1362    18.079885    45.882035    20.464724    88.912209    108.87172    90.677979 
  235000    251.65637   -9687.0235   -8679.5857   -9687.0235            0    6253.2409    18.044726    45.771324    19.489467  -0.22066824   -6.5500677 -0.036488414    16096.955    6076.1837    6080.5552    6602.9839  -0.49068234      503.598   -270.31842    18.044726    45.771855    20.560741    90.013682    108.57656    90.276227 
  235500    255.18574   -9678.1358   -8656.5691   -9678.1358            0     6732.365    18.033442    45.962244     19.33851 -0.015725267    -6.395791  0.062125346    16028.868    6643.9375    7005.0273    6548.1303   -223.09042     323.9273    371.36432    18.033442    45.962246    20.368799    89.819091    108.30042    90.019603 
  236000    255.65245   -9661.9541   -8638.5191   -9661.9541            0    7103.2758    17.953342    46.034061    19.299315  -0.36208721   -6.2200798   0.29400844    15950.213    6724.2376    7342.9206    7242.6692   -660.78718   -787.70654   -575.28093    17.953342    46.035485    20.279038     89.03107    107.86195    90.450659 
  236500     257.3232   -9700.1294   -8670.0059   -9700.1294            0     6772.768    18.092124    45.387184    19.483236  -0.88139938   -6.6135159  0.048830521    15998.671      6785.24    8517.6622    5015.4018    734.32115    564.83969   -390.62826    18.092124    45.395741    20.575167    89.506464    108.74955    91.112519 
  237000     247.7142   -9688.7111   -8697.0547   -9688.7111            0    5668.4226    18.145362    45.624108    19.412307   0.11222277   -6.8241848   0.09816176    16070.787    4729.3671    5665.3984    6610.5024   -1028.7826    225.67816    -1066.338    18.145362    45.624246    20.577094    89.773413    109.36834    89.859068 
  237500    245.64854   -9681.6127   -8698.2256   -9681.6127            0    5788.5382    17.968755    46.190561    19.301853  -0.13462228    -6.466733  0.044999378    16020.285    7035.6119    4841.8742    5488.1285    90.879699   -325.01078    998.82102    17.968755    46.190758     20.35638    89.820295    108.52244    90.166988 
  238000    259.82269   -9633.0782   -8592.9487   -9633.0782            0    6172.5789    17.996688    46.015759    19.382289  -0.39640826   -6.2160056   0.19873444     16051.08    5053.7768    6029.5393    7434.4205    197.91351   -199.49823   -573.83116    17.996688    46.017467    20.355622    89.289897    107.78045    90.493569 
  238500     255.6713   -9648.9623   -8625.4519   -9648.9623            0    6474.5568    18.146594    45.229036       19.528 -0.065882758   -6.4970159   0.11905256    16027.664    6547.8399    6995.0678    5880.7628    -193.8807    124.07442    45.760126    18.146594    45.229084    20.580771    89.642215     108.4021     90.08346 
  239000    259.49853    -9710.869   -8672.0372    -9710.869            0     5427.605    18.164846     45.59414    19.394983 -0.077729842   -6.8754446   0.01692906    16063.129    5116.5711    5181.1114    5985.1327   -571.56356    318.86963   -571.77582    18.164846    45.594206    20.577594    89.920226    109.51921    90.097679 
  239500    250.98534   -9631.3947   -8626.6432   -9631.3947            0    5555.9504    17.928502    46.424454    19.323144   -0.3177301   -6.6767425   0.12492778    16083.057    6310.3189    4817.8725    5539.6597    102.04341    415.15475    160.49721    17.928502    46.425541     20.44452    89.521833    109.06124    90.392128 
  240000    258.65838   -9664.4073   -8628.9388   -9664.4073            0    6326.0988    17.936515    46.250294    19.308999  -0.47574706   -6.2396253   0.21870274    16018.149    6698.4164     6238.494     6041.386   -23.171684   -608.06285    -179.5596    17.936515    46.252741    20.293304    89.201321    107.90695    90.589344 
  240500    257.55505   -9624.1853   -8593.1337   -9624.1853            0    7463.6195    18.138039    45.435837    19.400596  -0.25399821   -6.2285232   0.16687228    15988.361    6923.0122     7808.312    7659.5345    797.30491   -865.04755   -459.56526    18.138039    45.436547    20.376591    89.432875    107.79851    90.320295 
  241000    258.55513   -9685.0099   -8649.9548   -9685.0099            0    7041.5689    18.010184    45.534755    19.512165 -0.066256584   -6.4786667 -0.093436486    16001.718    6000.8647    7811.0326    7312.8094   -677.62661   -1170.3314    108.61336    18.010184    45.534803    20.559826    90.234117    108.36763     90.08337 
  241500    261.82397   -9663.0669   -8614.9258   -9663.0669            0    6559.8655    18.018275    46.211122    19.249829  -0.22261694   -6.7228845  0.095813103    16028.269    7234.4111    5342.1319    7103.0533   -158.79303    580.42989   -512.53201    18.018275    46.211658     20.39025    89.639765    109.25122    90.276014 
  242000    262.19619    -9669.072   -8619.4409    -9669.072            0     5267.102     18.01347    45.994538    19.418411  -0.62129616   -6.6220516   0.16251543    16088.566    5155.3604    5089.1745    5556.7711   -234.15279     272.6119    -272.5341     18.01347    45.998734    20.517131     89.29641    108.82975    90.773907 
  242500     267.0265   -9650.7465   -8581.7785   -9650.7465            0    5574.8439    18.178434    45.462524    19.451876  -0.34890193   -6.3611826   0.06441584     16075.76    5006.3103    5409.9364     6308.285   -414.36037   -962.87422    164.68672    18.178434    45.463862    20.465686    89.682996    108.10877    90.439708 
  243000    256.51981   -9666.2382   -8639.3309   -9666.2382            0    4846.6769    18.090605    45.778784    19.450567     0.378009   -6.3725502   0.11364484    16108.296    4750.0585    4908.6521      4881.32   -557.29406   -1226.6309   -805.85438    18.090605    45.780345    20.468191    89.829181    108.13996    89.526903 
  243500    252.36599   -9669.1288   -8658.8502   -9669.1288            0    5224.7293    17.868451    46.681491    19.296613  -0.21482807    -6.575462 -0.010908072    16095.806    7268.5607    4062.9383    4342.6889     481.0805    243.51424    455.58917    17.868451    46.681985    20.386174    89.945611    108.81692    90.263673 
  244000    251.27277   -9710.9472   -8705.0451   -9710.9472            0    5779.4163    18.064049    46.068554    19.304868  -0.38361123   -6.6678463    0.1397585    16065.214    5161.3211    6326.6512    5850.2765    628.07807    363.52737     -600.329    18.064049    46.070151    20.424437    89.452196     109.0543    90.477089 
  244500    249.59167   -9600.3566   -8601.1842   -9600.3566            0    6201.7132    18.124082    45.655731    19.462424  -0.44080669   -6.6135659   0.16561692    16104.538     5844.369    6945.6348    5815.1358    635.21643    413.56192    1404.6204    18.124082    45.657859    20.556085    89.360414    108.76775    90.553174 
  245000    260.23835   -9690.5709   -8648.7775   -9690.5709            0    6564.3778    18.054156    45.748583    19.379839   -0.2059803   -6.3891328  0.048435196    16006.817    5850.2441    7761.9725    6080.9167    120.93581    542.08375    1078.7051    18.054156    45.749047    20.405919    89.783234    108.24627    90.257969 
  245500    253.14971   -9665.9346   -8652.5186   -9665.9346            0    7362.3555    17.858721    46.221025    19.279231   0.11399339    -6.176056   0.13253898    15914.009    9628.9329    6469.1995     5988.934    59.146807   -1496.8279    276.55635    17.858721    46.221165    20.244752    89.668002    107.76234    89.858694 
  246000    253.02751   -9663.3156   -8650.3888   -9663.3156            0     7502.914    18.059698    45.870548    19.248531  -0.36240235   -6.4236741   0.10591891    15945.642    7243.1932    8225.4819     7040.067   -166.03291    85.059892    318.76464    18.059698     45.87198    20.292382    89.557651    108.45477    90.452658 
  246500    255.61413   -9667.1968   -8643.9152   -9667.1968            0    6435.1229    18.079279    45.596075    19.453343  -0.53829867   -6.7144371   0.12501191     16036.25    5841.9509     6660.576    6802.8419    908.50974    763.92885    142.14281    18.079279    45.599252     20.57989    89.431298    109.04205    90.676392 
  247000    258.84768   -9666.6296   -8630.4033   -9666.6296            0    6152.3417    18.111892    45.796503    19.357316  -0.17538708   -6.6845129  0.079348436    16056.145     5883.543    5928.9568    6644.5254   -174.96219    194.58407    -273.0643    18.111892    45.796839    20.479128    89.706381    109.05079    90.219425 
  247500    255.38066   -9668.6293   -8646.2823   -9668.6293            0    6641.2035    17.987937    46.007749    19.358859  -0.17794076   -6.4909375  0.048377484    16021.091    6855.4375    5714.9648    7353.2083   -23.465088    278.06602   -454.25081    17.987937    46.008093     20.41813    89.793802    108.53601    90.221598 
  248000    255.68878   -9685.6625    -8662.082   -9685.6625            0    5567.9246    18.058237    45.932269    19.404315  -0.46440389   -6.2277655  0.025827298    16095.022    4130.2777    6590.4983    5982.9978    142.67323    507.37095    755.83096    18.058237    45.934617    20.379234     89.75037    107.79389    90.579276 
  248500     249.3606   -9698.3957   -8700.1484   -9698.3957            0    5932.4842     18.19437    45.463587    19.422536  -0.35195932   -6.1203528   0.18578674    16065.959    5237.2949    6684.3538    5875.8039    201.94018    -507.3664    -1426.058     18.19437    45.464949    20.364875    89.343997    107.48972     90.44355 
  249000    243.52419   -9678.0955   -8703.2127   -9678.0955            0     5161.924    17.982555    45.855677    19.500918   0.10170812    -6.539039 -0.025261382      16080.5    5829.2127    4667.7275    4988.8318    710.39655   0.60083653     711.7954    17.982555     45.85579    20.568069    90.110772    108.53729    89.872918 
  249500    253.13275   -9690.6677   -8677.3196   -9690.6677            0      5238.22    18.049925    46.179852    19.271374  -0.19408601   -6.7971691  0.063728883    16063.517    4840.5715    4559.4439    6314.6445   -637.68287    278.83562   -200.63243    18.049925     46.18026    20.435054    89.741221    109.42806    90.240803 
  250000    255.64297   -9661.7521    -8638.355   -9661.7521            0    5348.8858    18.055567    45.733709    19.488608   -0.5448915   -6.6367664   0.21783874     16092.68     5669.828    6054.3758    4322.4537   -629.64726    4.0489376   -499.18839    18.055567    45.736955    20.588831    89.173766    108.80498    90.682615 
  250500    259.01332   -9678.3464    -8641.457   -9678.3464            0    5305.8894    18.198729    45.464079    19.484379  -0.62387523   -6.3747095   0.11457748     16121.15    5308.7184     5377.177    5231.7727    336.13959   -826.81006   -550.87591    18.198729    45.468359    20.501001    89.435349    108.11627    90.786185 
  251000    259.88733   -9679.3975   -8639.0093   -9679.3975            0    4944.8595    18.048311    46.095324     19.42494   0.24460323   -6.2143325 0.0060518587    16160.437    4807.3513    4857.8823    5169.3449   -59.016935   -1155.2531   -388.90468    18.048311    46.095973     20.39476    90.075638    107.74026    89.695965 
  251500    254.32801   -9714.2683   -8696.1353   -9714.2683            0    5722.8302    17.933639    46.344778    19.371654  0.061264719    -6.468589  0.019831773    16100.373    5673.6201    5017.2747    6477.5956    250.16653    3.6042739   -127.06985    17.933639    46.344819    20.423124    89.968353     108.4652    89.924259 
  252000    250.11841   -9698.6928   -8697.4119   -9698.6928            0    5469.4653    18.211195    45.737963    19.309995  -0.41446973   -6.7512529   0.14579379    16084.125    5442.1164     5212.719    5753.5605   -766.18455   -215.66274    431.10198    18.211195    45.739841      20.4567    89.420319    109.27038    90.519191 
  252500    252.73366   -9659.3781   -8647.6276   -9659.3781            0    6396.6605     18.09856    45.523552    19.517551  -0.52825114   -6.6949209   0.21034178     16080.72    6707.2391    7375.8356    5106.9068    481.07892    1174.9303    171.34331     18.09856    45.526617    20.634947    89.200275      108.932    90.664825 
  253000    252.29514   -9685.3887   -8675.3938   -9685.3887            0    4996.2017    18.066158     46.08784    19.334999 -0.044770969   -6.4610629   0.16210927    16098.904    5438.9221     4203.594    5346.0892   -646.56688    157.85175   -230.18822    18.066158    46.087861    20.386608    89.526753    108.47717    90.055659 
  253500    257.41217   -9632.1364   -8601.6569   -9632.1364            0    4959.6224    17.992988    46.473819    19.331727  0.031896745   -6.2777229  -0.04445989    16165.245    5807.4058     4305.044    4766.4174   -917.03778   -1181.8164    620.63636    17.992988     46.47383    20.325537    90.137474    107.99048    89.960676 
  254000    247.45012   -9696.5466   -8705.9474   -9696.5466            0     4368.807    18.100628    45.569349     19.58414  -0.36496926   -6.4155045   0.13769278    16153.661     3965.096    5314.9692     3826.356    380.71078   -10.415043     1151.994    18.100628    45.570811    20.608644    89.474346    108.13769    90.458878 
  254500    267.38514   -9674.5803   -8604.1767   -9674.5803            0     5206.384    18.252878    45.448278    19.451367  -0.35689038   -6.6726379   0.27066559    16136.112    4086.7218    6135.5293    5396.9009   -151.35812    543.64141    800.08677    18.252878     45.44968    20.565822    89.099945    108.93242    90.449916 
  255000    249.93614   -9665.4241   -8664.8728   -9665.4241            0    7739.8023    17.969911    46.065917    19.331758  -0.35009522   -6.5879309  0.048019017    16002.837    7406.0389    7588.1077    8225.2603    998.01894   -67.256802    809.97721    17.969911    46.067247    20.423516    89.724837    108.81817    90.435432 
  255500    252.94932     -9696.92   -8684.3062     -9696.92            0    6551.3868    17.991111    45.989913    19.303172 -0.042767096    -6.465708  0.089244297    15971.631    5827.3689    7439.4288    6387.3626   -746.93706    573.32397   -252.86201    17.991111    45.989933     20.35745      89.7319    108.51838    90.053281 
  256000    258.83496   -9649.0824    -8612.907   -9649.0824            0    6169.0934    18.139405    45.547748    19.403045  -0.26851217   -6.4657919   0.10369021    16030.972    5830.7354    6909.6054    5766.9393    73.328838   -3.9435433    957.91914    18.139405     45.54854    20.452271     89.60274    108.42968    90.337765 
  256500    264.28912   -9668.8148   -8610.8052   -9668.8148            0    6864.6655    18.048225    45.573975    19.462614  -0.56195327   -6.4939562   0.18964238    16008.571    6922.3325    6858.0895    6813.5747    223.06286    27.101636    825.05015    18.048225     45.57744    20.518303    89.246873    108.45114    90.706454 
  257000    256.63488   -9645.4318   -8618.0639   -9645.4318            0    7012.4677    18.011905    46.249385    19.220475   -0.3507816   -6.6776072   0.14219522    16011.416    7228.3652    6951.3509     6857.687   -139.43246    346.62232    569.31735    18.011905    46.250715    20.347907    89.457002    109.15784    90.434555 
  257500    257.17243    -9689.559   -8660.0391    -9689.559            0       6497.5    17.988917    46.008919    19.340643  0.013672043   -6.7328595 0.0051930094    16007.295    5689.0078    6346.8126    7456.6796    -896.0387    34.888308    207.47284    17.988917    46.008921     20.47906    89.991069    109.19401    89.982974 
  258000    258.03227   -9694.3884   -8661.4264   -9694.3884            0    6078.2176    18.194386    45.222308    19.455334  -0.23342786   -6.5110745 -0.0085210781    16007.695    5524.8437    6896.9085    5812.9006     923.5951    -157.5997    363.59015    18.194386     45.22291    20.515949    89.929937    108.50374    90.295746 
  258500    260.26763   -9697.3223   -8655.4116   -9697.3223            0     6658.838    18.044846    45.818071    19.364538  -0.34860011   -6.2459538   0.26998027    16010.213    6597.0521    8371.2977    5008.1642    580.20756    798.77425    -643.5304    18.044846    45.819397    20.348714    89.106002    107.87527    90.435918 
  259000    247.77644   -9707.1224   -8715.2168   -9707.1224            0    5971.2324    17.915717    46.418813    19.288624  -0.26673568   -6.3684043   0.11056941    16040.927    6596.5858    5559.9071    5757.2043    110.96126    172.03478   -140.16829    17.915717    46.419579    20.313045    89.584906    108.27107    90.329234 
  259500    252.08054   -9692.2052   -8683.0693   -9692.2052            0    5355.8004    18.094844    45.799808    19.442151    -0.112795   -6.6740665  0.013462986    16112.496    4758.5925    5860.3395    5448.4694    292.39402    411.29396    540.29276    18.094844    45.799947    20.555792     89.91666    108.94622    90.141107 
  260000    248.23007    -9715.119   -8721.3975    -9715.119            0    4946.0248    18.295261    45.379876    19.435672  -0.25878134   -6.7490329   0.14853156    16136.208    3991.3571    5199.0612    5647.6561    799.65679   -465.06253    807.66938    18.295261    45.380614    20.574665    89.479198    109.14903    90.326729 
  260500    247.01226   -9662.5533   -8673.7069   -9662.5533            0    4268.1543    18.035179    46.107547    19.450471   -0.6895801   -6.4404526   0.14718083    16174.192     5302.027      4272.69    3229.7461    552.06706   -67.464075    -955.9821    18.035179    46.112704    20.489556    89.319141    108.32028    90.856846 
  261000    251.80138   -9674.5275   -8666.5091   -9674.5275            0    4864.3793    17.946931    46.526309    19.353994  -0.32199439   -6.2955486   0.10411255    16160.671     5622.221    4000.5825    4970.3345    14.416503   -604.03611   -662.25269    17.946931    46.527423    20.352441    89.584255    108.01865     90.39652 
  261500    256.51265   -9687.7926    -8660.914   -9687.7926            0    5553.1645    18.101144    45.859992    19.415864  -0.16436848   -6.4525629    0.1239428    16117.464     6457.497    5167.8038    5034.1928    908.73003    326.21664    -374.8063    18.101144    45.860286    20.460369    89.588156    108.38308    90.205355 
  262000    257.79915   -9718.0512   -8686.0225   -9718.0512            0    6412.4663    18.131479    45.617469    19.443359  -0.29974529   -6.5837224   0.14843383    16081.839    5791.8225    6988.8215    6456.7547   -195.48239    700.20694    487.62457    18.131479    45.618453    20.528313    89.464973    108.70612    90.376476 
  262500    256.01858   -9684.3739   -8659.4732   -9684.3739            0    5224.0054    18.036739    46.164339      19.3456  -0.48311856   -6.6270612  0.038440208    16108.194    5494.1995    5288.6628    4889.1538    465.95547    259.73343    1264.5074    18.036739    46.166867    20.449245    89.697993    108.90946    90.599589 
  263000    262.14548   -9677.4978   -8628.0697   -9677.4978            0    5704.3955    17.996271    46.393676    19.222725   0.18001034   -6.5332263   0.13159875    16049.306    5077.3858    5334.8311    6700.9694   -1237.5055    90.713238   -1131.3191    17.996271    46.394025    20.303042    89.700162    108.77094     89.77769 
  263500    263.50162   -9643.8821   -8589.0251   -9643.8821            0    5198.0941    18.053304    45.413015    19.591895    0.1970579   -6.3688656  0.065538583    16062.513    5363.5765    5763.9005    4466.8052   -818.70932    81.475842   -143.11585    18.053304    45.413442    20.601191    89.894587    108.00803    89.751382 
  264000     247.8471   -9669.8308   -8677.6424   -9669.8308            0    6084.3678    18.224957     45.55305    19.389584   -0.5998064   -6.3688333  0.065411421    16097.278    5615.0092    6393.8279    6244.2662    105.07142   -341.72167     1617.034    18.224957    45.556999    20.408877    89.580969    108.18353    90.754382 
  264500    251.84246   -9725.1624   -8716.9797   -9725.1624            0    5652.0401    18.011159    46.153066    19.359203  -0.40859192   -6.6068029   0.17234594    16092.729    6087.5591    4964.8955    5903.6656     566.0876    576.18381    1260.3876    18.011159    46.154875    20.456253    89.353465    108.84277    90.507225 
  265000    249.01432   -9668.3053   -8671.4443   -9668.3053            0    4951.7769    18.071376    46.177862     19.32932  -0.10658616   -6.7799063   0.11047956    16130.269    4488.7067    4869.2867    5497.3373    439.21216    167.57597    -203.4415    18.071376    46.177985    20.484188    89.647207    109.32842    90.132248 
  265500    252.47973   -9716.1601   -8705.4262   -9716.1601            0    6025.7625    18.155354    45.697682    19.349576  -0.44500647   -6.6914471 -0.023780541    16053.523    5557.8717    5235.1862    7284.2294    613.09932   -699.97535    316.73842    18.155354    45.699849    20.473937    89.884201    109.07633    90.557932 
  266000    251.08578   -9694.3441   -8689.1905   -9694.3441            0    6682.9356    18.036017    45.153107    19.658273  -0.40549203   -6.3086729   0.15385627    16009.348    9339.4779    6548.2147    4161.1141    395.55776   -913.99771   -252.33051    18.036017    45.154928    20.646324    89.415824    107.79181    90.514524 
  266500     259.2269   -9647.5433   -8609.7989   -9647.5433            0    6207.3405    18.094489      46.0533    19.292628 -0.021495378   -6.2747396   0.23413299    16076.757    5754.2721    6375.7207    6492.0287   -633.61113   -652.87771   -246.72089    18.094489    46.053305    20.288732    89.330518    108.01537    90.026743 
  267000    251.06661   -9683.9215   -8678.8446   -9683.9215            0    5434.5461    17.944793    46.149283    19.418658  -0.18797952   -6.5142468  0.017930668    16081.355    5395.2213    5715.3998    5193.0172    139.69759     377.0165    585.33556    17.944793    46.149666    20.482188    89.875617     108.5447    90.233381 
  267500    257.55384   -9676.9777   -8645.9309   -9676.9777            0    5805.3949     18.12697    45.708995    19.378116  -0.34132854    -6.725491   0.11008651     16056.04    5209.8947    6139.5387    6066.7514    126.97765    931.06328   -375.73307     18.12697     45.71027    20.512331    89.552228    109.13988    90.427844 
  268000    244.78402    -9635.504   -8655.5778    -9635.504            0    6087.2111    18.138244    45.537386     19.41884   -0.3933398   -6.6081772   0.22539051    16039.345    5629.2591     6848.881    5783.4933   -948.23906    809.53282   -1777.2633    18.138244    45.539085    20.513658     89.21105    108.79212    90.494893 
  268500    251.40305   -9682.3325   -8675.9088   -9682.3325            0    5669.6076     17.96755    46.158162    19.405692  -0.38133618   -6.3924354 -0.024327026    16094.094    5451.4335     5887.168    5670.2212   -90.548743   -181.61766    1452.0123     17.96755    46.159738    20.431464    89.920125     108.2324    90.473339 
  269000    258.10681   -9721.5841   -8688.3238   -9721.5841            0     4104.097    18.090671    46.316281    19.298198   0.21470718   -6.4351364  0.068547622    16169.818    4257.0309     3240.652     4814.608   -1515.9577   -987.81293    -325.2851    18.090671    46.316779    20.342963    89.890957    108.44126    89.734397 
  269500    260.27909   -9672.1089   -8630.1524   -9672.1089            0    4717.1355    18.064033    45.846856    19.545488  -0.14408776   -6.5832012  0.073657236    16187.165    4887.1979    4786.7645     4477.444   -478.61258    415.82508   -3.8939319    18.064033    45.847083    20.624502      89.7379    108.61414    90.180069 
  270000    251.32924   -9661.5908   -8655.4626   -9661.5908            0    6248.2844    18.152241    45.675016    19.391778  -0.53887425   -6.6599794  0.032150689    16077.799    5919.2407    6263.8133    6561.7993    285.46079    98.528014    229.98032    18.152241    45.678195    20.503595    89.690607    108.95467    90.675945 
  270500    257.59903   -9678.9155   -8647.6878   -9678.9155            0    6929.3014    18.006598    45.981151    19.344271  0.015394068   -6.5640106   0.30026263    16016.362    6305.9522    7392.9258    7089.0262    -642.3004    21.626833   -1885.1567    18.006598    45.981154    20.429812    89.164042     108.7413    89.980818 
  271000    252.66581   -9724.7657   -8713.2868   -9724.7657            0     6798.874    17.933391    46.052487    19.363346  -0.47771253   -6.4268162 -0.044526365    15991.747    7033.6061    7026.1898    6336.8262   -721.20619   -166.60307    123.03726    17.933391    46.054965    20.402086    89.937826    108.36128     90.59432 
  271500    265.13006   -9680.7483   -8619.3722   -9680.7483            0    6827.9201    18.127686    45.794289    19.298366  -0.18441065   -6.4162729  0.056363308    16020.432    5735.5808    6686.9813    8061.1982   -651.53649   -446.67504   -387.19994    18.127686     45.79466    20.337125    89.768416    108.39073    90.230725 
  272000    262.99746   -9663.1057   -8610.2669   -9663.1057            0    5949.9333    18.004103    45.666185    19.512759 -0.027696502   -6.4838398   0.19982548    16042.974    6363.7629    6817.9413    4668.0956   -1036.2587   -308.85902    33.110307    18.004103    45.666193    20.562778    89.432243    108.38009     90.03475 
  272500    253.18086   -9626.1009   -8612.5602   -9626.1009            0    6169.0204    18.090067    45.865957     19.32605  -0.58279449   -6.6022496 0.0097770325    16035.176    5800.7628    6417.6199    6288.6784    856.86894    131.82405    170.79814    18.090067     45.86966    20.422683    89.737234    108.86142    90.727988 
  273000    260.48575   -9683.9211   -8641.1373   -9683.9211            0     5913.819     18.00334    45.987426    19.387153  0.015925662   -6.6213739   0.18254722    16051.152    5723.4757    5327.5629    6690.4183   -557.99508    -722.7395   -247.87999     18.00334    45.987429    20.487499    89.495891    108.85601    89.980158 
  273500    256.54427   -9670.5934   -8643.5882   -9670.5934            0    6655.9908    18.092485    45.563723    19.453769   0.32217987   -6.4431325  0.075428642    16036.928    6522.5341    6772.1828    6673.2555    -995.1595    147.74603   -832.48109    18.092485    45.564862    20.493139    89.916492    108.32486     89.59487 
  274000    262.71476    -9612.541    -8560.834    -9612.541            0    6195.5844    18.108117    45.828283    19.381257   -0.4593876   -6.3532575 -0.055605118    16083.806      5730.44    6999.8525    5856.4607    554.16432    772.31763    1061.2064    18.108117    45.830586     20.39608    89.977301    108.14929     90.57432 
  274500     256.4141   -9655.8364   -8629.3523   -9655.8364            0    6001.5588    17.945174    46.229868    19.392457  -0.33261585   -6.4663738   0.33433435    16088.041    5810.1285    5063.3936    7131.1544     633.3307   -421.89288   -621.36742    17.945174    46.231064    20.444881    88.932628     108.4383    90.412226 
  275000    255.95794   -9665.9939   -8641.3359   -9665.9939            0    6131.5772    18.107425    45.886623    19.345514  -0.39841236   -6.7447814    0.0159779    16073.966    6496.6732    5745.4453    6152.6132    756.04587   -282.34767    312.48003    18.107425    45.888353    20.487587    89.791549    109.22102     90.49746 
  275500    250.99839   -9709.0923   -8704.2885   -9709.0923            0    6585.6841    18.078866    45.437858    19.471179 0.0039660211   -6.6331572 0.0054337835    15994.891    7409.2555    7053.2932    5294.5036    395.33206    232.36207    281.48809    18.078866    45.437858    20.570017    89.986477     108.8122    89.994999 
  276000    261.09832    -9654.701   -8609.4649    -9654.701            0    6296.8207    17.995953    46.037764    19.364285  -0.21590489   -6.2257957   0.15427263    16043.183    5128.3215    7358.0732    6404.0675    1081.5172   -13.313534   -35.126535    17.995953     46.03827    20.341088    89.483209    107.82255      90.2687 
  276500    249.10948   -9639.5342   -8642.2922   -9639.5342            0    5442.5634    17.957595    46.340856     19.29786  -0.59774558   -6.0972438  0.076223913    16059.107    6513.9112    4193.6941    5620.0848    1182.8723   -1650.3551     668.0285    17.957595    46.344711     20.23832    89.561582    107.53403    90.739011 
  277000    257.60399   -9683.7546   -8652.5071   -9683.7546            0    6026.8154    18.061638    45.690753    19.473377 -0.040570207   -6.6316642  0.094683643    16070.402    7667.0142    6409.1184    4004.3137   -1377.3823    145.48256   -612.65181    18.061638    45.690771    20.571834     89.71989    108.80608    90.050875 
  277500    247.34119   -9666.8268   -8676.6636   -9666.8268            0    5032.0882    18.151114    45.707724    19.407292  -0.19089853   -6.8141776  0.037863746    16101.185    5168.5989    5211.5413    4716.1244     538.0413    151.70758    -643.7433    18.151114    45.708123    20.568846    89.815254    109.34687    90.239295 
  278000    252.40231   -9684.0163   -8673.5923   -9684.0163            0    5042.9088    17.946898    46.331651    19.387394  -0.44278373   -6.4197706  0.087500494    16120.801    6904.5138    4375.0479    3849.1648     89.66043   -101.43107   -85.938569    17.946898    46.333767    20.422834    89.582411    108.32114    90.547549 
  278500    252.81784   -9666.4331   -8654.3457   -9666.4331            0    5155.2191    18.013209    46.171915    19.316024  -0.22986475   -6.1338879   0.15452465    16065.221    5192.2353    5011.7517    5261.6703   -1407.1876   -425.03322   -1933.1629    18.013209    46.172487    20.267147    89.476824    107.61694    90.285242 
  279000    249.32293    -9674.232   -8676.1355    -9674.232            0    6041.1071    18.163914    45.237154    19.568475  -0.15580327   -6.3982616  -0.01232813    16079.098    6519.8514    6541.4693    5062.0005    1064.1376    104.33081    436.09975    18.163914    45.237422    20.587936    89.972982    108.10608    90.197334 
  279500    256.32037   -9669.9448   -8643.8359   -9669.9448            0    6657.6149    18.214553    45.352507    19.332092  -0.28945495   -6.8552915  0.069043405    15969.771    7070.0695    7006.8374    5895.9378   -91.387027    869.68167   -143.81935    18.214553    45.353431    20.511694    89.684929    109.52474    90.365676 
  280000    260.40301   -9652.2432   -8609.7906   -9652.2432            0    6738.7619    17.980694    45.957912    19.317705  -0.37352148   -6.7745571   0.18990654    15963.285    6608.8974    6969.6786    6637.7096   -618.75096   -354.80035    -225.0802    17.980694     45.95943     20.47204     89.31441    109.32448    90.465659 
  280500    264.92439   -9686.5418   -8625.9891   -9686.5418            0    6868.2103    17.981909    46.001143    19.367711  -0.35614425   -6.4336612  0.016092927    16020.745    8008.5678     5665.892    6930.1711    779.19549   -244.33128    275.26561    17.981909    46.002522    20.408344    89.814985     108.3757    90.443579 
  281000    246.89954   -9623.4983   -8635.1032   -9623.4983            0    5526.9693    18.092202    45.823372    19.421717 -0.00037989856   -6.2801174  0.077222368    16101.491    6449.9032    4840.9148    5290.0899    689.01607   -619.01626   -503.95423    18.092202    45.823372     20.41198    89.783093    107.91876    90.000475 
  281500    253.06798   -9630.9279   -8617.8391   -9630.9279            0    5533.1014    18.050946    45.848227    19.467181  -0.24329094   -6.4250454   0.27877815    16111.114    5631.1635    5165.4198    5802.7208   -531.50938   -160.24541   -1475.5927    18.050946    45.848872    20.501953     89.12561    108.26347    90.304034 
  282000    256.41023   -9671.5704   -8645.1018   -9671.5704            0    5847.1139    18.096269    45.940724    19.323979  -0.91721143   -6.8805469 -0.004867797      16065.1     6459.509    5207.1874    5874.6452    1586.6801    830.89902   -205.49552    18.096269     45.94988    20.512389     89.62996    109.59891    91.143764 
  282500    259.73016   -9674.9912   -8635.2322   -9674.9912            0      5657.79    18.065224    45.853927    19.332756  0.055624192   -6.8767542   0.15365718     16014.51     5502.138    5476.1555    5995.0767   -931.81547     869.6832   -1089.0465    18.065224    45.853961    20.519962    89.594248    109.58015    89.930496 
  283000    258.56677   -9676.1173   -8641.0156   -9676.1173            0    6506.3803    17.985769    45.828745    19.418042  -0.17964602   -6.4432564  0.060606732    16005.617    6515.8004     6515.848    6487.4925   -211.17142    34.130672    866.63617    17.985769    45.829097    20.459218     89.75954    108.35669    90.224595 
  283500    248.98092   -9692.0788   -8695.3514   -9692.0788            0    6340.4288    18.077229    45.784429    19.334652  -0.53579459   -6.3039539  0.058525628    16002.433    5287.8343    6557.0868    7176.3654    345.44343   -192.34712    1507.4445    18.077229    45.787564    20.336471    89.627288    108.05819    90.670476 
  284000    255.59627   -9674.9306   -8651.7205   -9674.9306            0    6447.0234    17.981101    45.796704    19.497249  -0.16214617    -6.517004   0.21092191      16055.5    7406.4304    6342.6902    5591.9497    153.12433   -313.75811   -79.980778    17.981101    45.796991    20.558661    89.347858    108.48133    90.202859 
  284500    272.81399   -9622.7776    -8530.641   -9622.7776            0    6985.1639    18.125009    45.918578    19.261509  -0.40938648   -6.8547057 -0.025501539    16030.866    5263.1117    7271.9384    8420.4417    996.40166    78.192267    289.68374    18.125009    45.920403    20.444887    89.900204     109.5894    90.510806 
  285000      256.871   -9684.3239   -8656.0107   -9684.3239            0    7962.5304    18.000649     45.76356    19.360248  -0.18764158   -6.6667042  0.079230316    15948.465    9559.3265    6828.5648    7499.6999    13.714167    -333.8918    77.516025    18.000649    45.763945    20.476094    89.701812    109.00101    90.234925 
  285500    250.70057    -9672.135   -8668.5235    -9672.135            0    5652.9927    17.999624    45.710325    19.475044  -0.22399118   -6.2979959   0.21621258    16023.456    6198.8815    5013.6771    5746.4194   -272.50302   -657.24035    303.69781    17.999624    45.710874    20.469217    89.308401    107.91955     90.28076 
  286000    244.32577   -9662.9791   -8684.8873   -9662.9791            0    6658.4187     18.10468    45.881607    19.263686  -0.41320396   -6.3462678  0.036850932    16001.802    5127.3613    7167.0122    7680.8827    199.56261    649.54722    1122.2405     18.10468    45.883468    20.282162    89.734453    108.23402    90.515985 
  286500    262.87122   -9664.4687   -8612.1353   -9664.4687            0     5790.488    18.017859    45.927077    19.481044  0.089790849   -6.5873486   0.13018535    16120.712    5945.5703     5738.562    5687.3318   -663.06627    611.41321     269.8173    18.017859    45.927165    20.565048    89.673174    108.68214    89.887983 
  287000    253.21097   -9705.8493   -8692.1881   -9705.8493            0    5178.8719     18.21372    45.664735    19.410419  -0.44174424   -6.7377688 -0.035595907    16144.125    4985.3139    5434.6228    5116.6789    120.80409   -146.30385    129.31114     18.21372    45.666871     20.54661     89.91751    109.14294    90.554241 
  287500    262.81359   -9665.8256   -8613.7229   -9665.8256            0    5503.4214    18.137541    45.710875    19.449894   -0.3916044   -6.5386343   0.14221079    16125.574    5976.1693    5529.0429    5005.0519    257.73154    403.34651    322.98117    18.137541    45.712552    20.520047    89.446525    108.58107     90.49084 
  288000    248.17209   -9721.2883   -8727.7989   -9721.2883            0    6119.8255    17.920122    45.947402     19.47341  -0.25947139   -6.3609757   0.16412032    16034.075    6479.4615    5781.9068    6098.1083    316.52293   -200.62209    225.84029    17.920122    45.948134    20.486646    89.440536    108.08899    90.323554 
  288500    248.39901   -9727.3243   -8732.9265   -9727.3243            0    6479.0748    18.124151    45.878582    19.272878  -0.34293607   -6.5366952 -0.097783735    16025.598    5533.2714    6313.2524    7590.7008    389.06479    605.81969    54.556429    18.124151    45.879864    20.351456     90.13773    108.73494     90.42827 
  289000    267.64741   -9660.3921   -8588.9386   -9660.3921            0    5403.8612    18.068502     45.75684    19.462273  0.075931503   -6.5752498   0.21243604    16090.581    5729.0802    5417.5407    5064.9628   -377.55302   -38.028844   -965.90961    18.068502    45.756903    20.544077    89.437956     108.6663     89.90492 
  289500    253.94717   -9689.7634    -8673.155   -9689.7634            0    7653.3993    18.073369    45.710665    19.315856  -0.51591578   -6.5922244     0.100823    15957.712    8247.1166    7943.3806    6769.7008    563.34007    460.36853   -433.29145    18.073369    45.713576    20.410044    89.508123     108.8438    90.646644 
  290000    251.68864   -9621.3363   -8613.7693   -9621.3363            0    6844.5115    17.987048     46.13317    19.320965  -0.72861417   -6.5114291 -0.040380258    16032.528    6752.3055    6380.2415    7400.9875   -26.163686   -407.48281    1126.6212    17.987048    46.138923    20.388723      89.8245    108.62448    90.904838 
  290500    258.57173   -9676.0552   -8640.9336   -9676.0552            0    6839.0562    18.042664    45.900446    19.339594   0.27095533   -6.5537607   0.28640101    16016.401    7223.5594    6117.2674    7176.3418   -401.19669   -328.25205   -1521.5122    18.042664    45.901246    20.421893    89.305009    108.71847    89.661781 
  291000     259.3849   -9656.6779   -8618.3011   -9656.6779            0    4892.6584    18.226067    45.655427    19.379634  -0.28802086   -6.6533621 0.0082641822    16126.159    3943.5631    5541.2631    5193.1491    448.43775   -375.59894   -153.74127    18.226067    45.656336    20.489937    89.859524    108.94823     90.36145 
  291500    260.71386   -9660.4799   -8616.7829   -9660.4799            0    6523.1032    18.081703    45.729982    19.417324  -0.49470797   -6.6016605  0.062332572    16055.718    6853.5866    7052.3932    5663.3296    717.04505    43.767693    385.59024    18.081703    45.732658     20.50898    89.626364    108.77734    90.619803 
  292000    259.96204   -9710.3782    -8669.691   -9710.3782            0    6986.7717    18.001218    46.109424     19.26881   -0.2814447   -6.5083615   0.26320324     15993.61    7068.2884    7093.5044    6798.5224    -511.0686    97.243341   -408.01646    18.001218    46.110283    20.339987    89.146662    108.66163     90.34972 
  292500    253.00477   -9686.7546   -8673.9189   -9686.7546            0    6045.9931     17.99451    45.877358    19.446623  -0.25664978   -6.4332312 -0.012700667    16053.976    6273.8237    6030.0615    5834.0941   -629.27351    163.76922   -444.93327     17.99451    45.878076    20.483109    89.934858    108.30498    90.320524 
  293000    243.47326   -9702.0688   -8727.3899   -9702.0688            0    5878.6823    18.156163    45.501598    19.455895  0.047846886    -6.413081 -0.084624056    16073.185    6373.5489    6128.1129    5134.3851      -886.26   -409.13638    365.58368    18.156163    45.501623    20.485766    90.255543    108.24317    89.939751 
  293500    257.33814   -9675.1886   -8645.0054   -9675.1886            0    5517.2518    18.102446     46.08859    19.330484   0.10265452   -6.5234682   0.27253836    16127.737    5544.0827     5948.536    5059.1368   -937.56434    338.10413   -676.65618    18.102446    46.088705    20.403371    89.275455     108.6463    89.872384 
  294000    257.99125   -9654.4016   -8621.6039   -9654.4016            0    5648.5767    17.997197    46.143265    19.399201  -0.69879368    -6.584123  0.060242853    16110.055    6211.8217    5384.4753    5349.4332    741.32495    1166.3014    1304.5776    17.997197    46.148556    20.486173     89.55269    108.74722    90.867621 
  294500    266.58729   -9695.9137   -8628.7041   -9695.9137            0    5410.7127    18.093636    45.808121    19.394758  0.059850818   -6.5446795   0.17153885    16075.064    3900.8541    5958.0811    6373.2028   -890.72272   -152.84147   -1962.5906    18.093636     45.80816    20.469951    89.543789    108.64607     89.92514 
  295000    260.74851   -9662.8498   -8619.0141   -9662.8498            0    6970.3246    18.072702    45.588578    19.424928 -0.061673439   -6.5340292  -0.10883225    16004.369     6475.531    7584.9984    6850.4442    437.61808   -506.63935    1560.4472    18.072702     45.58862    20.494711    90.279545     108.5913    90.077511 
  295500    258.35876   -9678.4256   -8644.1566   -9678.4256            0     7026.837     17.96141    46.011403     19.32737  -0.37356154   -6.4894363  0.082178733    15972.712    7569.8893    6131.1609    7379.4606     62.38536    142.25962    260.78738     17.96141    46.012919    20.387908    89.620999    108.56004    90.465168 
  296000    250.70596   -9657.2537   -8653.6207   -9657.2537            0    6521.1144    17.981094    46.066341    19.310021  -0.45953016   -6.4228968   0.38099102    15994.939    6542.3651    6290.1753    6730.8028   -568.53144   -528.75186   -1262.9438    17.981094    46.068633    20.353763    88.747114    108.39481    90.571529 
  296500    247.58079   -9696.9939   -8705.8716   -9696.9939            0    5361.7935    18.123141    45.571735    19.477908  -0.54544419   -6.5525828 -0.026709845    16086.862    5709.0686    5107.7235    5268.5884    1122.1455   -451.40431    669.55307    18.123141    45.574999     20.55057     89.85582    108.59349    90.685736 
  297000     250.6676   -9694.7135    -8691.234   -9694.7135            0    5765.4011    18.141318    45.556159    19.481317   0.10053123   -6.5909677  0.015813442    16100.311    5032.4461    5952.7053    6311.0521   -356.25402    627.23614    533.12243    18.141318     45.55627     20.56606    89.996465    108.69183    89.873563 
  297500    256.05017   -9626.7159   -8601.6887   -9626.7159            0    6680.5011    18.053052    46.087141    19.287498  -0.25410059   -6.5024179   0.19155663    16047.459     6886.566    6545.7052    6609.2322   -19.003844    477.23961    -1216.698    18.053052    46.087842    20.354992    89.359883    108.62971    90.315896 
  298000    245.65344     -9641.57   -8658.1633     -9641.57            0    7253.9138    18.004132    45.875597    19.371143  -0.71861358    -6.482416   0.15073037    15999.601    7335.9894    7307.9619      7117.79    682.94462   -397.55414    929.82535    18.004132    45.881225     20.42757    89.292486    108.50193     90.89743 
  298500    258.37836   -9693.8093   -8659.4618   -9693.8093            0    7180.4503    18.100697      45.2266    19.479608   0.26029103   -6.6311199   0.17183877    15946.649    6688.8352    7671.3866     7181.129   -2241.6438   -604.34782   -2086.4963    18.100697    45.227349    20.578056    89.627811    108.79858    89.670251 
  299000    261.09086   -9678.3594   -8633.1532   -9678.3594            0    6921.7947    18.178929    45.627933    19.266798 -0.024178614   -6.7362879 -0.095559939    15981.172    5540.7565    7315.7774    7908.8501    448.08055    497.53616    1283.1523    18.178929     45.62794    20.410689    90.258231    109.27104    90.030361 
  299500     258.3892   -9657.0104   -8622.6195   -9657.0104            0     7349.481    17.912915    46.196485    19.336016  -0.46894338   -6.4901641  0.092438247    16000.818    7502.8592    6837.6176    7707.9662    170.75741    67.373376   -196.57411    17.912915    46.198865    20.396379    89.555278    108.55421    90.581593 
  300000    250.81354   -9715.8646   -8711.8009   -9715.8646            0    6104.0739    18.031727    45.919862    19.388602  -0.21066926   -6.4512678   0.21358636    16054.042    7249.8582    5760.6969    5301.6665    27.681531    364.06806    -1387.569    18.031727    45.920346    20.434832    89.318147    108.40305    90.262857 
  300500    259.97877   -9672.7841   -8632.0298   -9672.7841            0    5355.3628     18.12706    45.698095    19.437976  -0.19703939   -6.4838508 -0.077326746    16101.878    5753.3261     5927.154    4385.6084   -274.36338   -494.01925    702.91582     18.12706     45.69852    20.491003    90.138044    108.44682    90.247044 
  301000    250.09818   -9688.6384   -8687.4384   -9688.6384            0    5408.1565    17.990247    46.078055    19.419726   0.43844941   -6.4726411  0.084923581    16098.091    6508.6227    4577.9761    5137.8707   -671.00142    374.59203    258.83675    17.990247    46.080141    20.470175    89.934691    108.43319    89.454826 
  301500    250.22029   -9670.5148    -8668.826   -9670.5148            0    6334.7144    18.038432    46.312419    19.262828  -0.22158859   -6.5039826   0.35756574    16092.233    6496.7784    5244.5341    7262.8305   -832.41413    -442.0842   -1112.0854    18.038432    46.312949     20.33436    88.904755    108.65397    90.274138 
  302000    255.64017   -9684.5918   -8661.2059   -9684.5918            0    5795.4501    18.110254    45.813832    19.366087   -1.0333464   -6.5613147  0.069657398    16068.044    5206.2246    5457.2257       6722.9    513.61601   -412.64954    126.97319    18.110254    45.825485    20.447519    89.390269    108.71649    91.292107 
  302500    243.47453   -9706.2396   -8731.5556   -9706.2396            0    5412.4669    18.053996    45.736484    19.452597   0.18388367   -6.5355963   0.16392876    16062.522     6197.023    5859.5011    4180.8766   -142.36665   -351.62251    408.86912    18.053996    45.736854    20.521804    89.615682    108.57047    89.769643 
  303000    255.92454   -9658.5409   -8634.0167   -9658.5409            0    5746.6225    18.078131    46.022228    19.313657  -0.11419691   -6.4259125 -0.068896054    16068.882    6019.2219    5222.0238    5998.6218    793.39605   -334.01843    818.16025    18.078131     46.02237    20.354715     90.14905    108.40287     90.14217 
  303500      250.359   -9677.4526   -8675.2085   -9677.4526            0    6059.2309    18.044173    45.855879    19.407878  -0.55965328   -6.4546972   0.20636029    16058.688    5967.9953    6100.5981    6109.0993    603.11552   -61.444586   -546.90734    18.044173    45.859294     20.45413    89.201311    108.39519    90.699238 
  304000    249.20678   -9710.0584   -8712.4269   -9710.0584            0    5238.7611    18.141946    45.604145    19.380213  -0.40553213   -6.6764336   0.27693812     16034.18    5035.8922    5173.8574    5506.5336    1194.6385   -716.63643   -670.16501    18.141946    45.605948    20.499856    89.060036     109.0069    90.509486 
  304500    266.51355   -9687.8245   -8620.9101   -9687.8245            0    5354.3606     18.04078     45.91561    19.399175  -0.17805413   -6.7196141   -0.1645366    16069.373    6237.7389    4708.1613    5117.1817    660.29928       863.57    1090.5334     18.04078    45.915956    20.530667    90.386459    109.10476    90.222184 
  305000    250.33628   -9671.1742    -8669.021   -9671.1742            0    6442.7376    18.017613    46.116132    19.321018   0.31924924   -6.5426451   0.16699846    16053.884    5509.1286    6408.1903     7410.894   -855.95902    751.66829   -1185.0068    18.017613    46.117237    20.399407    89.658172    108.70691    89.603363 
  305500    250.38889   -9653.3835   -8651.0197   -9653.3835            0    6362.2151     18.12396    45.726989    19.372713  -0.53953894    -6.486277  0.081121354    16055.216    6514.0854    6048.9621     6523.598    204.72069   -972.67501   -1105.4362     18.12396    45.730172     20.42989    89.557885    108.51117    90.676009 
  306000    257.48977   -9674.4629   -8643.6726   -9674.4629            0    6933.7171    18.083799    45.666304    19.405178  -0.44851823   -6.4986896   0.10291335    16025.189    6089.2896    7407.1844    7304.6772   -293.10338    65.345779    149.00198    18.083799    45.668506    20.464713    89.533186    108.51518    90.562721 
  306500    259.42215   -9644.6649    -8606.139   -9644.6649            0    6086.8164    18.037616    45.893315    19.421512  0.013129017   -6.6014229   0.10519412    16077.245    6400.3017    5686.5597    6173.5877   -612.97248   -810.35151   -413.17338    18.037616    45.893317    20.513045    89.711452    108.77278    89.983609 
  307000    261.42132   -9676.5576   -8630.0285   -9676.5576            0    5346.4259    18.034723    46.059644    19.345835  -0.31976071   -6.6987979 -0.069166838    16070.061    5636.9452    4717.2044    5685.1281    448.81502     674.6572    198.41885    18.034723    46.060754    20.472909     90.06342     109.0991    90.397759 
  307500    251.79445   -9673.7042   -8665.7136   -9673.7042            0    6336.6113    18.133622    45.465417    19.425486  -0.48122836   -6.6162391    0.3184058    16015.394    6345.1175     7397.423    5267.2933    -98.09046    914.93989   -1237.8311    18.133622    45.467964    20.523779     88.91561    108.80628    90.606424 
  308000    255.99945   -9695.2663   -8670.4422   -9695.2663            0    5922.1496    18.022305    45.539459     19.51218  -0.41394028   -6.2662762   0.23302266    16014.154    5244.9509    7120.0197    5401.4783   -163.80783    301.17126   -529.51291    18.022305     45.54134    20.495016    89.189336    107.80307    90.520787 
  308500    254.92597   -9677.9048   -8657.3781   -9677.9048            0     6569.397     18.01311    46.130759    19.298842  -0.19846428    -6.309439 -0.055888197    16036.536    6203.8535    6175.9026    7328.4351    411.99609    148.13232    657.75696     18.01311    46.131186    20.304124     90.08111    108.10423    90.246497 
  309000    260.62544   -9671.9667   -8628.6237   -9671.9667            0    6768.8761    18.030808    45.948123    19.324326  -0.03536148   -6.5426538   0.14746036    16009.852    6843.9493    6427.2138    7035.4653    -549.4123   -31.893651   -908.18179    18.030808    45.948136    20.402393    89.571745     108.7041    90.044095 
  309500    263.60612   -9628.7826   -8573.5072   -9628.7826            0    7380.7756    18.027734    45.628448    19.463936  -0.58000609   -6.6379415  0.049744995    16010.596    8689.1756    7299.3075    6153.8437   -565.92147    304.84005   -340.03162    18.027734    45.632134    20.564764    89.626345    108.83127    90.728276 
  310000    258.19438   -9680.6002   -8646.9892   -9680.6002            0    6361.1303    18.232571    45.618592    19.294469  -0.22908078   -6.7208099  0.086065396    16048.063      5982.16    6514.8184    6586.4124     253.5486   -265.63738    494.05999    18.232571    45.619168    20.431672     89.66401     109.2045    90.287717 
  310500    258.20649   -9608.3846   -8574.7252   -9608.3846            0    5715.8301    17.883479    46.045547    19.487217   0.13472352    -6.486168   0.18863338    16046.838    6293.1528    5378.1819    5476.1555   -1483.0792     356.6598   -243.31103    17.883479    46.045744    20.539172    89.526728    108.40881     89.83236 
  311000    251.89133   -9646.7456   -8638.3672   -9646.7456            0     4992.428    18.018271    46.188009    19.344566  -0.56569694   -6.3609213 -0.092181913    16099.091    4656.1212    5300.2451    5020.9179    1161.6596   -264.49237    504.88783    18.018271    46.191473    20.363743    90.040162    108.20182    90.701707 
  311500    250.99153    -9674.955   -8670.1787    -9674.955            0    6521.5671    18.180656    45.586881    19.348453  -0.20662482   -6.4308096   0.21498126    16035.987    5093.0675    7235.1684    7236.4655   -337.82729    252.82255   -1434.5376    18.180656    45.587349    20.390296    89.313999     108.3841    90.259694 
  312000    254.29278   -9689.1985   -8671.2065   -9689.1985            0    5601.1864    18.040816     45.74141    19.479555  -0.18807289   -6.5931336   0.14620525     16074.77    5069.3692    6252.3864    5481.8037    -270.7292    277.14108    424.91935    18.040816    45.741797    20.565599    89.517146    108.69863    90.235579 
  312500    248.42306   -9675.1106   -8680.6165   -9675.1106            0    4824.0464    18.090281    46.167214    19.287482   -0.3884314   -6.7141602   0.12355113    16108.478    3579.1863    4618.0897    6274.8631   -324.87446    668.74801   -343.22796    18.090281    46.168848     20.42308    89.494916    109.19314    90.482051 
  313000     260.5142   -9701.6366   -8658.7389   -9701.6366            0    5192.6299    18.078171    45.830285    19.448935 -0.058391631   -6.5669099  0.093522044    16113.982     5355.913    5138.6608    5083.3158    24.326095   -314.65754    10.689791    18.078171    45.830323    20.527887    89.715615    108.65699       90.073 
  313500    251.48214   -9681.5897   -8674.8494   -9681.5897            0    6203.5691     18.07897     45.37933    19.551944   0.24884228   -6.1816837 -0.0016366915    16040.641    6201.5267    6356.6794    6052.5012   -405.37348   -481.66184    238.21292     18.07897    45.380012    20.505895    90.099286    107.54525    89.685816 
  314000    255.01948   -9656.5821    -8635.681   -9656.5821            0     6762.474      18.0768    45.871025    19.298086  -0.37421754   -6.1457598  0.049415922    16001.999    5634.8664    7265.3623    7387.1933   -253.23735    231.55539    396.06291      18.0768    45.872551    20.253122    89.718374    107.66479    90.467411 
  314500    255.33413   -9672.3706   -8650.2099   -9672.3706            0    5685.3427    17.937599    46.213873    19.335367  -0.63341914   -6.4888014   0.18575414     16028.36    6584.8376    5392.4991    5078.6915    187.17533   -398.04851    1023.5081    17.937599    46.218214    20.395967    89.228394    108.55056    90.785261 
  315000    254.02745   -9675.2762   -8658.3465   -9675.2762            0     7047.814    18.095175    45.682664    19.356299   -0.2801023   -6.7232136   0.13180139     16000.61    6255.3552    7719.1558    7168.9308    837.11908    457.43549    259.74785    18.095175    45.683523    20.491103    89.516204    109.15374    90.351303 
  315500    262.63439   -9641.2711   -8589.8858   -9641.2711            0    6298.8756     18.07962    45.559812    19.502337  0.013667985   -6.5847996 -0.058918058    16064.155    6819.1568    6594.9846    5482.4855   -151.65791    -164.7002     762.2865     18.07962    45.559814    20.584077    90.169497    108.65674    89.982811 
  316000    259.07557   -9662.6831   -8625.5446   -9662.6831            0    6163.0501    17.965327    46.093942     19.31073 0.0084868324   -6.2571261    0.1133808    15991.075    5880.1485    6147.8219    6461.1799    171.47038   -625.92811   -988.72723    17.965327    46.093943    20.299477     89.68323    107.95324    89.989451 
  316500    262.74831   -9658.1566   -8606.3152   -9658.1566            0    7653.9735    17.928871    46.017376    19.291619  -0.48798192   -6.2743791   0.13495777    15916.349    7924.0835    7823.9235    7213.9136    192.97779    225.10291    1493.9458    17.928871    46.019963    20.286759    89.430947    108.01611    90.607559 
  317000    248.15567   -9685.3527    -8691.929   -9685.3527            0    7778.9853    18.082505    45.536223    19.345963  -0.36743701   -6.6494326  0.095752377    15929.639    7819.3368    7922.2717    7595.3474    649.70059    317.84759     908.9149    18.082505    45.537705    20.457038    89.581552    108.96823    90.462316 
  317500    246.56085    -9697.036   -8709.9967    -9697.036            0    7025.1681    18.039922       45.709    19.396542   0.12513076    -6.721244   0.13364943    15994.133    8511.1359    5757.9424     6806.426   -1343.6714   -388.47871   -772.18081    18.039922    45.709171    20.528488    89.678333    109.11168     89.84315 
  318000    259.93531   -9695.2415   -8654.6612   -9695.2415            0    7063.9174    17.957766    46.088003    19.332443  -0.59756874   -6.4282931 0.0070617449    16000.256    6971.7658    6984.1869    7235.7996     1128.675   -174.60403    484.37659    17.957766    46.091877    20.373177     89.74576    108.39265    90.742845 
  318500    251.32353   -9677.2101   -8671.1047   -9677.2101            0    5638.8094    17.988076    45.996966    19.375981   -0.3343345   -6.1769885   0.20587251    16031.626     6847.654    5492.0853    4576.6889   -181.01338   -813.01947   -1090.7315    17.988076    45.998181    20.337802    89.293528    107.68115    90.416454 
  319000    256.87319   -9637.6991   -8609.3772   -9637.6991            0    5566.4223     18.11497    45.745093     19.45066   0.16589395     -6.38606   0.09079781    16118.198    4569.2366    5718.8726    6411.1576    562.80482   -583.95348    1226.0298     18.11497    45.745394    20.472376    89.810701    108.17591    89.792219 
  319500    258.46736   -9683.2615   -8648.5578   -9683.2615            0    5792.9327    18.074933    45.816567    19.419106  -0.30256377   -6.8177145  -0.13701568    16081.571    7406.2153    4663.2147    5309.3681    751.04694    23.336473    1745.6034    18.074933    45.817566    20.581586    90.256088    109.34485    90.378365 
  320000    256.62854   -9696.8808   -8669.5383   -9696.8808            0    6173.7952     18.10172     45.83619    19.289359  -0.23192883   -6.7420491   0.26576912    16004.648    6445.0539     5719.245    6357.0866   -1013.4379   -51.004851   -883.71861     18.10172    45.836776    20.435392    89.159181    109.26393    90.289911 
  320500    251.31007    -9711.383   -8705.3315    -9711.383            0    6225.8542    17.964595    45.763088    19.465106  -0.62939707   -6.3284531   0.17661928    16002.562    7425.3232    5890.9717    5361.2678    39.558958    385.49265    499.48491    17.964595    45.767416    20.468778    89.262026    108.00957    90.787961 
  321000    255.45188   -9695.3434   -8672.7113   -9695.3434            0    4691.9686    18.077407    45.942507    19.412836   -0.3093171   -6.2803623 0.0077988366    16122.775    4253.3413    4762.2987    5060.2657    -232.9802   -572.43857    1424.4794    18.077407    45.943548     20.40346    89.859364    107.92722    90.385749 
  321500    251.68939   -9677.2591   -8669.6892   -9677.2591            0    4353.0351    18.140928    45.966118    19.405184  0.048639233   -6.6958046   0.13975936    16181.363    4676.7191    3891.5884    4490.7978   -546.95707   -229.06231   -51.409569    18.140928    45.966144    20.528383    89.629697    109.03666    89.939372 
  322000    258.50826   -9689.5702   -8654.7027   -9689.5702            0    5867.0118    18.142626    45.699645    19.460017  -0.46555656   -6.9086979  0.090723992    16134.525    7191.2629    5470.8826      4938.89    149.08268     508.2062    945.18146    18.142626    45.702016    20.650196    89.553019    109.54569     90.58367 
  322500     254.0175   -9690.5309    -8673.641   -9690.5309            0     6018.313    18.080152    45.849139    19.382668  -0.42715296   -6.5898189   0.15781868    16067.445    6841.8744     5903.069    5309.9955    998.95624    67.462111   -375.33432    18.080152    45.851129    20.472871    89.386522    108.77669     90.53378 
  323000     261.3743   -9660.9394   -8614.5985   -9660.9394            0    5826.9748    17.945378    46.242103    19.368371  -0.24945794   -6.1182278  0.056327698    16072.494    7574.0066    4613.5285    5293.3893   -343.28868   -981.19284   -1526.0644    17.945378    46.242776    20.311812    89.748011    107.53061    90.309085 
  323500    263.33406   -9677.0332   -8622.8469   -9677.0332            0    6756.7787    18.001747    45.901101    19.367176  -0.10707633   -6.2419154   0.15516661    16003.098    7028.8221    6016.7735    7224.7405   -322.43471   -1031.3691    533.97102    18.001747    45.901226    20.348786    89.522096    107.86326    90.133657 
  324000    255.18757   -9702.0649    -8680.491   -9702.0649            0    6971.1312    18.158883    45.225553    19.440174  -0.41377326   -6.8596644   0.10014555    15965.155     6104.968    8041.0676    6767.3579    434.11704    1114.5008    154.48403    18.158883    45.227445    20.615174    89.547251    109.43567     90.52419 
  324500    255.01402   -9659.2231   -8638.3439   -9659.2231            0    5625.4077    18.136097    45.819953    19.377272  -0.35977904   -6.8578133   0.10938049    16102.418    5583.0557    5876.1418    5417.0257    586.09106    186.69004   -420.38126    18.136097    45.821366    20.555297    89.545028     109.4891    90.449878 
  325000    259.12321   -9658.1527   -8620.8234   -9658.1527            0    5386.4804    18.014021    46.363614    19.298207  -0.16538233   -6.4255848   0.17268301    16117.768    4459.8466    5059.2064    6640.3884   -124.41641     270.9112   -903.98931    18.014021    46.363909    20.340569    89.449015    108.41515    90.204377 
  325500    262.05973   -9667.0326   -8617.9478   -9667.0326            0    6424.9134    17.968617     45.90028    19.480581  -0.26322589   -6.1763789 -0.0087965998    16066.893    7492.1478    5790.8338    5991.7584    1107.4039    122.93778   -14.902291    17.968617    45.901034    20.436261    89.925359    107.59138    90.328572 
  326000    253.37634   -9687.1358   -8672.8126   -9687.1358            0    4679.2179    18.240628    45.403909    19.477205  -0.13939419    -6.475743  0.078423295    16130.939    4783.0738    5085.5933    4168.9865    165.05545   -663.52563   -739.33639    18.240628    45.404122    20.525665    89.725591    108.39069    90.175903 
  326500    250.17731   -9653.5773   -8652.0605   -9653.5773            0    5672.2556    18.186281    45.782054    19.322872  -0.27902576   -6.8937608   0.22710834    16088.326    5316.1425    6596.7561     5103.868    410.13723    735.97892   -581.87312    18.186281    45.782904    20.517039     89.24844    109.63346    90.349194 
  327000    253.33842   -9616.5106   -8602.3392   -9616.5106            0     5743.993    17.961537    46.042318    19.411879   -0.3765553   -6.8317415  0.099570426    16053.445    7390.5253    4654.6565    5186.7973   -73.898158   -193.29647    -309.4155    17.961537    46.043857    20.579205    89.567231    109.38858    90.468581 
  327500    251.59106   -9680.6118   -8673.4354   -9680.6118            0    6450.3005    18.091916    45.808131    19.303847  -0.17052378   -6.5131922  0.075800307    15998.196    6369.6627    6437.5923    6543.6466    1388.8406   -330.54488   -1.1820138    18.091916    45.808448    20.373167     89.71864    108.64446    90.213286 
  328000    250.35933   -9676.7357   -8674.4902   -9676.7357            0    5704.9257    18.027652     45.55918    19.491872  -0.16245759   -6.2971851   0.13243773    16009.162     6120.944    6208.1688    4785.6643    241.64949     -124.013   -719.02455    18.027652    45.559469    20.484266    89.566754    107.90356    90.204308 
  328500    258.81628   -9626.9437   -8590.8432   -9626.9437            0    7316.3191    18.037724    45.932501    19.310548  -0.50466165   -6.3929317  0.011069434    15999.132      7018.52    7374.2001    7556.2373   -107.86331    259.13859   -120.25633    18.037724    45.935274    20.341262    89.770989    108.31759    90.629485 
  329000    253.94954   -9674.2468   -8657.6289   -9674.2468            0    6732.6639     18.01767    46.175765    19.253586  -0.41958496   -6.7275789   0.14295117    16018.593    4482.5318    6201.8815    9513.5783    766.28705    45.783427   -414.96985     18.01767    46.177672    20.395621    89.426701    109.25992    90.520615 
  329500    255.32075   -9679.3414   -8657.2342   -9679.3414            0    6221.1795    18.014156    45.572209    19.521184 -0.039415921   -6.8048366   0.10158096    16025.816    6344.5773    6611.0748    5707.8863   -101.10893    396.02729    369.79882    18.014156    45.572226    20.673479    89.702159    109.21766    90.049556 
  330000    262.66829   -9649.9789   -8598.4579   -9649.9789            0    5290.6977    18.247725     45.63735    19.331311  -0.23538273    -6.637783 -0.019002495    16098.687    4478.8746    5062.5398    6330.6788   -532.04139   -119.97037    752.67361    18.247725    45.637957    20.439181    89.957299     108.9509    90.295511 
  330500    260.07062   -9681.2458   -8640.1239   -9681.2458            0    5162.4941    17.960116    46.000327    19.442922  -0.31806021   -6.3167738   0.18816958    16063.183    6143.4325    5076.4059    4267.6439   -434.22616   -379.35549   -722.09959    17.960116    46.001427    20.444174    89.350243    107.99757    90.396154 
  331000    256.03226   -9725.7159   -8700.7604   -9725.7159            0    6262.5873    18.036671    45.949702    19.319893  -0.32816974   -6.4203865   0.16352455    16011.934    6529.2768    6267.7734    5990.7116    152.20161   -6.6310505   -239.63968    18.036671    45.950874    20.359429    89.410769    108.38206    90.409196 
  331500     261.7012   -9688.9222   -8641.2726   -9688.9222            0    6121.8859    18.135309    45.626918     19.36049  -0.11271103    -6.721505   0.10486591    16019.997    4650.4118    7148.7486    6566.4972    -85.06955   -67.450857   -184.47387    18.135309    45.627057    20.494345    89.660407    109.14553    90.141536 
  332000    252.93637   -9639.5487   -8626.9867   -9639.5487            0    5405.4907    18.066108    45.684706    19.555628  -0.15217763   -6.9746361 -0.040727925    16140.136    5713.4892    5459.6172    5043.3657   -1211.6555    460.01551    195.14892    18.066108     45.68496     20.76222     90.04828    109.62905    90.190854 
  332500    262.70349   -9646.4378   -8594.7759   -9646.4378            0    5778.7357    18.123363    46.315181    19.188218 -0.055281744   -6.6667828   0.14387092    16106.338    4866.3429    5323.9206    7145.9435    493.77459    408.95132    -435.7625    18.123363    46.315214    20.313897    89.571761    109.15885    90.068388 
  333000    249.85802   -9699.1579   -8698.9193   -9699.1579            0    5554.4723    17.934546    46.249912    19.324906  -0.52382974   -6.2001497   0.15148528    16029.452    6475.3074    5422.8858    4765.2237    1130.8619   -389.38203    219.24221    17.934546    46.252878    20.295733    89.374134    107.78766    90.648908 
  333500     263.6856   -9661.8661   -8606.2726   -9661.8661            0    6856.8601    18.004442    45.723058     19.43571  -0.42173039   -6.2934136  0.098633831    15999.829    6158.0932    7291.5426    7120.9446   -85.040031   -335.19665   -398.54913    18.004442    45.725003    20.429479    89.560591    107.94209    90.528457 
  334000    247.87842   -9673.9489   -8681.6351   -9673.9489            0    6893.1518    18.143888    45.638797    19.304483   0.10441025   -6.6063041   0.10900103    15985.372    6245.5089    7012.6942    7421.2523    -329.7713   -71.491309   -233.80993    18.143888    45.638917    20.403877    89.736356    108.89149    89.868922 
  334500     252.8132   -9642.5281   -8630.4592   -9642.5281            0    6160.7388    17.921905    45.925339    19.459726  -0.42563144    -6.643579  0.030227064    16016.708    7514.9685    5490.6557    5476.5921     -118.616   -111.70439   -503.76513    17.921905    45.927311    20.562562     89.74422    108.84996    90.530996 
  335000    262.53231   -9728.8736   -8677.8969   -9728.8736            0    6577.7242    18.124018    45.822115    19.186614  -0.72518032   -6.5359423   0.23098952    15934.115    6352.6894    6290.9495    7089.5336    146.71019   -726.27605   -181.51975    18.124018    45.827853    20.270621    89.054802     108.8102    90.906687 
  335500    258.64795   -9632.9068   -8597.4801   -9632.9068            0    6996.5095    18.052094    45.647173    19.460306  -0.21491517     -6.46491   0.23603649    16035.819    7598.3233    6556.9938    6834.2115   -166.41889   -132.51272   -425.77175    18.052094    45.647679     20.50742    89.255483    108.37575    90.269757 
  336000     266.2668   -9662.5241   -8596.5974   -9662.5241            0    6236.4789    18.010559    45.793027    19.470744 -0.051109713    -6.489308  -0.02224508    16058.652    6019.5385    6629.5275    6060.3709    543.40024    213.46583    739.44292    18.010559    45.793056    20.523681    90.041882    108.43245    90.063948 
  336500    260.12651   -9680.6594   -8639.3136   -9680.6594            0    6169.9847    18.136031    45.914862    19.270451  -0.21504021   -6.6132968   0.11157707    16046.762    7361.1196    5371.9013    5776.9331   -779.72912    22.755097   -1731.6824    18.136031    45.915365    20.373964    89.599121    108.94107     90.26834 
  337000    253.88358   -9667.0639   -8650.7101   -9667.0639            0    5806.1015    18.113287    45.687194    19.418199  -0.51312279   -6.6229645   0.21260572    16069.439    6142.7268    5752.0766    5523.5012    479.19716    293.21593   -1020.4902    18.113287    45.690075    20.517683    89.198604    108.83192    90.643474 
  337500    257.49537   -9675.4546    -8644.642   -9675.4546            0    5798.3072    18.123859    45.841707    19.354446  -0.48867641   -6.4454335   0.24119747    16080.228    5397.6846    5534.7814    6462.4557    660.04795   -187.72588   -967.22305    18.123859    45.844311    20.400892    89.129646     108.4175    90.610755 
  338000    256.77267   -9700.6268   -8672.7073   -9700.6268            0    5498.4521    18.082536    46.217666    19.229614  -0.22249036   -6.2861597  -0.11375472    16070.816    5506.3556    4151.1113    6837.8894     588.2553   -724.87033   -423.73267    18.082536    46.218201    20.231332    90.236454    108.10227    90.275818 
  338500    252.37331   -9650.0275   -8639.7196   -9650.0275            0    6520.7405    17.920646    45.752899    19.581147    0.2697316   -6.4127666  0.014102825    16055.003     6943.367    7367.6224    5251.2323    -982.2377    67.402551    907.02755    17.920646    45.753694    20.604492    90.065911    108.13346    89.662222 
  339000    258.54386    -9671.797    -8636.787    -9671.797            0    6333.9263     18.14762    45.669326    19.317547   -0.4030457   -6.5869407   0.23982092    16010.182    5589.0795    6785.6078    6627.0917    95.985747   -258.04796   -433.64427     18.14762    45.671104    20.411098    89.163623    108.82712     90.50564 
  339500    253.03113   -9633.5856   -8620.6443   -9633.5856            0    6979.0723    17.977952    45.821485    19.402765  -0.60014693   -6.4800749  0.087149982    15983.541    6373.5397    8075.7165    6487.9608    -416.8627    1061.9282    861.78056    17.977952    45.825415    20.456448    89.518223    108.46795    90.750389 
  340000    257.28823   -9659.7921   -8629.8087   -9659.7921            0    6752.4396    18.057588    45.705483      19.3604 -0.047167833   -6.3898836   0.14458182    15978.734    6901.6645    6915.0989    6440.5556   -417.76295    196.18158    921.05363    18.057588    45.705508    20.388149    89.575154    108.26495    90.059129 
  340500     262.7911   -9601.3773   -8549.3646   -9601.3773            0    6468.0515    18.048332    45.952281    19.386222  -0.19844466   -6.3986731 0.0087055611    16078.197    7255.5231     5513.993    6634.6385   -181.29942   -1251.8943    74.288149    18.048332     45.95271    20.414914    89.898015    108.26614     90.24743 
  341000    257.82299   -9673.7413   -8641.6172   -9673.7413            0    6263.5081    17.975498    45.842058    19.503471  -0.41300893   -6.6545752   0.17659442    16071.521    7003.6035    6851.3841    4935.5367    264.12374    517.85331    1244.4187    17.975498    45.843919     20.60825    89.342353     108.8389    90.516186 
  341500    244.51774   -9715.7724   -8736.9122   -9715.7724            0     6466.654    18.184192    45.814675     19.23376  -0.51924876   -6.8595701   0.30935437      16023.7    5868.0895    6540.7196    6991.1528    949.59254    1151.8867    213.55055    18.184192    45.817618    20.422706    88.914002    109.62603    90.649344 
  342000    254.12068   -9664.2374   -8646.9344   -9664.2374            0    6093.8698    18.025854    45.760438    19.526354  -0.34885286   -6.6537674  -0.17753118    16106.723    6503.7458    6244.7415    5533.1223    1217.9088    276.08492    1298.1395    18.025854    45.761768    20.629655    90.352178    108.81625    90.436784 
  342500     252.9827   -9651.8982   -8639.1508   -9651.8982            0    5690.0161    18.062578    45.779203    19.450757   0.47058223   -6.3611062  0.019378233    16083.645    3742.4112    6795.6427    6531.9945   -527.26503   -609.69592     249.7083    18.062578    45.781622    20.464506    90.128811    108.10962    89.411055 
  343000     257.5449   -9686.8017   -8655.7908   -9686.8017            0    5442.3202    18.084205    46.034037    19.318942  -0.27707597   -6.4290562   0.18328314    16082.806    3488.0439    6397.4663    6441.4504    181.90935      565.083    -418.7332    18.084205     46.03487    20.361431    89.375363     108.4059    90.344856 
  343500    256.14112   -9726.0878   -8700.6965   -9726.0878            0    6308.9721    18.003155     45.93086    19.413114  -0.61963914   -6.5682336   0.14461449    16052.712    5386.8955     6409.555    7130.4658    516.28996   -324.19348    663.16474    18.003155    45.935039    20.494673    89.348033    108.69225    90.772913 
  344000     257.6554   -9703.0623    -8671.609   -9703.0623            0    5747.4034    18.153254    45.727314    19.377475   0.14556993   -6.7155085  0.058065546    16085.233    6363.1324    5415.0018     5464.076   -1169.4916   -453.09914   -323.43534    18.153254    45.727546    20.508241    89.897504    109.11432    89.817603 
  344500    243.04682   -9704.8698    -8731.898   -9704.8698            0    5805.0565    18.130901    45.751169    19.377924  0.073412168   -6.6381199 -0.080299342    16074.181    5522.4452    6030.8404    5861.8839   -932.45464   -828.42318   -333.05451    18.130901    45.751228    20.483531    90.254405    108.90931    89.908063 
  345000    254.57879   -9710.6422   -8691.5053   -9710.6422            0    5953.1053    17.945835    45.961428    19.449912  -0.79931939   -6.3309696   0.11842759    16042.602    6702.0523    5823.8627     5333.401    1575.9225   -568.35012    1347.1985    17.945835    45.968378    20.454689    89.359946    108.02982    90.996336 
  345500    255.25534   -9682.1526   -8660.3073   -9682.1526            0    6633.5923    18.108342    45.957909    19.248872  -0.34719735   -6.3256422   0.43312052    16019.326    5851.4032    6421.3991    7627.9744   -589.14438   -116.22382   -1731.4693    18.108342    45.959221    20.266238    88.640308    108.18747    90.432843 
  346000    254.82568    -9681.407   -8661.2817    -9681.407            0    6578.3773    18.008699    45.641568    19.437629  0.064876595   -6.4912607  0.022320931    15976.667    6792.4103    6725.6405     6217.081    238.68439   -177.10216   -936.60811    18.008699    45.641614    20.492886    89.963391     108.4669    89.918558 
  346500    243.14881   -9709.3621    -8735.982   -9709.3621            0    6064.4311    18.074451    45.696422    19.370934 0.0070545256   -6.6834454 -0.027173185    15999.185    6785.6664    6032.5768    5375.0499    246.57918    322.76541    232.88358    18.074451    45.696422    20.491517    90.078863    109.03567    89.991155 
  347000    254.32641   -9682.5222   -8664.3957   -9682.5222            0    8004.1647    18.035725    45.870005    19.287497  -0.71377208   -6.6390951    0.2240446    15956.524    9004.8108    7193.7307    7813.9525    41.948509    316.70857   -531.11583    18.035725    45.875559    20.399395    89.080633    108.99317    90.891494 
  347500    258.09134   -9634.0901   -8600.8916   -9634.0901            0     6900.509    18.003822    45.801056    19.420754     -0.68157   -6.4863382   0.30242282    16014.238    8652.9942    6077.9463    5970.5863    493.51551    112.20655   -489.05483    18.003822    45.806127    20.477542    88.883808    108.46672    90.852561 
  348000    245.71462   -9678.6118   -8694.9602   -9678.6118            0    6790.9353    18.070899    45.551768      19.4476   0.54106369   -6.2433506   -0.1034273    16008.513    6809.7383    7122.7549    6440.3127   -310.17563    -761.1875    20.183879    18.070899    45.554981    20.425456     90.49812    107.79819    89.319473 
  348500    253.01297   -9665.3792   -8652.5107   -9665.3792            0    5904.0351    18.031797    45.832976    19.413024   0.30353518   -6.2539507  -0.21769708    16043.911    7754.5924    4536.4781    5421.0347   -270.71295   -1225.6206    692.43566    18.031797    45.833981    20.396686    90.727876    107.85541    89.620556 
  349000    241.14196   -9683.4431   -8718.0968   -9683.4431            0    6369.1018     18.01912    45.928673    19.351843  -0.39383937   -6.4961091   0.17275611    16015.474      7043.04    5973.7739    6090.4914     523.7435   -198.42612     860.6756     18.01912    45.930362    20.413797    89.358786     108.5554    90.491301 
  349500    256.26595     -9647.42    -8621.529     -9647.42            0    7070.5222    18.036195    45.872168    19.344389    -0.477278   -6.6194938   0.17209775    16004.761    5540.6155    7829.9696    7840.9815    636.53596    574.16621    1226.8647    18.036195    45.874651    20.446337    89.324761    108.88984    90.596114 
  350000    262.44391   -9679.8654   -8629.2426   -9679.8654            0     7710.959    18.050576     45.74895    19.293634  -0.25092423   -6.6357152  0.040092149    15932.585    7700.8164    7708.1565     7723.904   -24.817642    646.02191     1.881674    18.050576    45.749638    20.402908    89.785209    108.97974    90.314253 
  350500    266.05089   -9662.7968   -8597.7345   -9662.7968            0    6392.5346    17.959349    46.016315     19.42113 -0.041507466   -6.4180747 0.0044392309     16050.07    7478.4192    6312.4149    5386.7696    -172.5741   -121.31132    816.75128    17.959349    46.016334    20.454143    89.971348     108.2871    90.051682 
  351000    251.10376    -9653.168   -8647.9424    -9653.168            0    7056.1812     18.04313    45.875335     19.32983  -0.42090397   -6.1860463    0.3007632     15999.97    7272.8143    6329.0135    7566.7159   -376.48269   -140.48754   -1374.2308     18.04313    45.877266    20.297782    88.990797    107.74401    90.525671 
  351500    247.23149   -9661.8549   -8672.1309   -9661.8549            0    6256.3887    18.117938    45.679249    19.399978  -0.82142542   -6.4874402   0.16427413    16055.689    6451.6693    6438.3294    5879.1675   -126.33917    114.43028   -182.62269    18.117938    45.686634    20.456612    89.213249    108.48955    91.030208 
  352000     254.7918   -9670.9807    -8650.991   -9670.9807            0    5993.1497    18.034652    45.771515    19.450924  -0.13565514   -6.8888376 -0.014778751    16056.219    6274.1481    6183.8196    5521.4814   -982.41078   -120.04651   -314.02936    18.034652    45.771716    20.634795    89.984345    109.50236     90.16981 
  352500    247.86285   -9690.9423   -8698.6909   -9690.9423            0    5644.9197    18.080043    46.056244    19.229225 -0.0064762489   -6.7693147   0.11638034    16012.154    5238.8117    5374.6784    6321.2691   -423.85654    882.07728   -80.236384    18.080043    46.056245    20.386276    89.670235     109.3934    90.008057 
  353000    255.14193   -9684.0986   -8662.7073   -9684.0986            0     6332.276    17.939366    45.842491    19.455475  -0.54304974   -6.2678023   0.19577279    15999.896    6398.6144    6530.3647     6067.849   -55.791788    217.70151    313.26617    17.939366    45.845708    20.441115    89.243171    107.85609    90.678694 
  353500     234.2831   -9684.2264   -8746.3377   -9684.2264            0    5751.3101    18.093935    45.696023    19.431695  -0.24375336   -6.2829664   0.11507234    16066.531    5150.6464    5668.7062    6434.5779    -942.3434   -1379.9275   -661.03372    18.093935    45.696673    20.422529    89.583138    107.91759    90.305626 
  354000    253.13206   -9681.7009   -8668.3555   -9681.7009            0    6198.1764    18.111566    45.839414    19.328264 -0.0095317217   -6.6797539 -0.006748278     16046.78    7255.2774    5812.4097     5526.842    726.06657   -116.15525    75.172592    18.111566    45.839415    20.449962    90.015015     109.0649    90.011914 
  354500    261.04672   -9668.3896   -8623.3601   -9668.3896            0    7279.3805    17.956041    46.020054    19.368267  -0.31471865   -6.8988757 0.00088434382    16004.735     8405.524    7132.4034    6300.2142    570.03339    664.44044    1102.3219    17.956041     46.02113    20.560259    89.866062    109.60563    90.391824 
  355000    263.93716   -9676.7222   -8620.1216   -9676.7222            0    6284.7331    18.060297    45.909566    19.317107  -0.37842691   -6.6921816   0.26254701    16016.594    5620.9319    6094.8048    7138.4624   -1082.9446   0.44323344   -295.58164    18.060297    45.911125    20.445167    89.109641     109.1064    90.472271 
  355500    248.66197   -9680.0923   -8684.6418   -9680.0923            0    7169.2358    17.961391    45.679495    19.461778  -0.56213189   -6.2999463   0.07606875    15967.752    6981.6368     7715.951    6810.1197     527.5649    582.82843    1648.2499    17.961391    45.682954    20.456195    89.569822    107.93709    90.705046 
  356000    254.59641   -9692.3231   -8673.1157   -9692.3231            0    6440.0532    18.037582    45.937919    19.318375   -0.1023249   -6.3731961  0.074718266    16007.379    7505.2061    6284.7939    5530.1596     140.8294    173.99167    78.207854    18.037582    45.938033    20.342635    89.749569    108.25777    90.127624 
  356500    247.52166   -9676.1047   -8685.2191   -9676.1047            0    5639.7857    18.024468    45.992745    19.384328 -0.055630006   -6.5977617  0.092178889    16069.506    6119.0349     5407.324    5392.9982    47.670701   -54.891958    636.90881    18.024468    45.992778      20.4766    89.719743    108.79662    90.069301 
  357000     255.1078   -9653.4603   -8632.2056   -9653.4603            0     5294.918    18.023705    45.736129    19.578764  -0.66523267    -6.805596  0.062127318     16139.45    6281.0438    5263.5065    4340.2036    574.40092    366.19761    790.46988    18.023705    45.740966    20.727952    89.554692    109.16741    90.833309 
  357500    271.39757   -9663.3573    -8576.891   -9663.3573            0     5772.189    18.222688    45.929692     19.28316  -0.42053813   -6.6111902   0.17263583    16139.281    5938.1064    4904.1144    6474.3462     675.3359   -1193.4788   -658.14968    18.222688    45.931617    20.385728    89.344673    108.92346    90.524593 
  358000    248.92618   -9654.8821   -8658.3738   -9654.8821            0    6189.5326    17.986607    45.989967    19.438646   0.22050108   -6.2836423  0.073261165    16079.715    7758.4398    5738.7555    5071.4026   -642.98538    5.0913132    377.26865    17.986607    45.990496    20.429157    89.879027    107.91357    89.725295 
  358500    254.22451   -9660.0001   -8642.2814   -9660.0001            0    5725.0293     18.13236    45.932383    19.279396 -0.086418601   -6.3201098  0.048395037    16057.086    3682.9078    6091.7913    7400.3887    -395.7271   -146.78388    -400.1944     18.13236    45.932464    20.288944    89.829753    108.14996    90.107798 
  359000    249.78659   -9695.2563   -8695.3037   -9695.2563            0      6004.14    18.063741    45.666587    19.461577  -0.67310378   -6.6810247   0.20932592    16054.038    6139.9059    6219.9103    5652.6038   -256.26589     132.9125    57.721973    18.063741    45.671547    20.577485    89.143022    108.94597    90.844451 
  359500    259.53885   -9672.0793   -8633.0862   -9672.0793            0    5910.6949    18.103169    45.859226    19.343893  -0.35260763   -6.8024114   0.11716635    16059.248    6214.5005    5428.7907    6088.7936    760.11949   -1286.6984    205.29311    18.103169    45.860581    20.505432    89.526481    109.37424    90.440534 
  360000    256.04927   -9622.4311   -8597.4075   -9622.4311            0    6636.3632    17.984902    46.423977    19.212779   0.42463302   -6.4816974  -0.18424849    16041.339    7380.5211    6554.9668    5973.6018    38.836014   -34.211339    127.59799    17.984902    46.425919    20.277506    90.688118    108.64174    89.475939 
  360500    259.46029    -9702.595   -8663.9164    -9702.595            0    5955.2592    17.964637    46.012141    19.416237 -0.047573931   -6.3140158 -0.00014160906    16049.295    7282.5677    5485.1032    5098.1066    8.3739797   -271.99238    554.13939    17.964637    46.012165    20.417078    89.982077    108.01414    90.059241 
  361000    260.12215    -9682.977   -8641.6488    -9682.977            0    6557.1119    18.146511    45.566602    19.343764  -0.44276938   -6.4123634   0.19681754    15994.872    5500.0945    7044.4805    7126.7607    928.38685    272.99172   -375.77976    18.146511    45.568753    20.379852    89.271509    108.33922    90.556724 
  361500    258.20727   -9687.3451   -8653.6826   -9687.3451            0    7313.4956    18.063581    45.573791      19.3882  -0.49216072     -6.62274   0.11468501    15960.868    8393.5085    7581.4637    5965.5144   -474.78696    307.57795    105.84127    18.063581    45.576448     20.48844    89.479301    108.85915    90.618725 
  362000    254.72049   -9670.9608   -8651.2566   -9670.9608            0    6555.6874    18.046309    46.157211    19.239984   0.07021348   -6.7911925   0.12353869    16026.277    5329.5163    7247.6848    7089.8611   -226.52125    806.14166    252.96434    18.046309    46.157265    20.403738    89.682099    109.44128    89.912843 
  362500    259.36073   -9666.7774   -8628.4973   -9666.7774            0     6737.723    18.010294    45.991642    19.312349   -0.2451684   -6.4384464   0.01126383    15996.863    6843.6131    6795.3986    6574.1571   -280.88933   -14.623668   -1403.5188    18.010294    45.992295    20.357322    89.871701    108.43761    90.305425 
  363000    253.14969   -9725.5917   -8712.1758   -9725.5917            0    6005.9776    18.017646    45.568953    19.479418  -0.57192638    -6.136832  0.030852452    15993.483    5960.2198    6567.8479    5489.8652    606.88825   -624.72115    1030.2939    18.017646    45.572542    20.423256    89.697389    107.48659     90.71907 
  363500    255.48956   -9615.7127   -8592.9298   -9615.7127            0    6749.9433     18.05226    45.824969    19.360718 -0.034720823   -6.3901425   0.19369644    16016.044    6296.3188    6785.2551     7168.256    131.90187   -534.67297   -967.25111     18.05226    45.824983     20.38894    89.442071    108.26499    90.043412 
  364000    253.80522   -9656.3314   -8640.2912   -9656.3314            0    5886.6252    18.001345    46.202785    19.337435  -0.11570129   -6.7431219  0.053777647    16083.183    5621.2656    6006.1754    6032.4346   -203.39925    879.40494    -257.8175    18.001345     46.20293    20.479477    89.802303    109.22401     90.14348 
  364500    253.49087   -9635.6415   -8620.8598   -9635.6415            0    6141.9329    18.101041     45.95611    19.340437  -0.30033405   -6.7896082 -0.040887313    16088.409    6477.7036    6132.1489    5815.9464   -209.66624    932.66326    551.55035    18.101041    45.957091    20.497633    89.990261    109.34397    90.374436 
  365000    260.70031   -9690.4021   -8646.7593   -9690.4021            0    5324.9353    18.170774    45.427748    19.535412  -0.24267666   -6.3867144    0.2451124     16125.65    6105.0077    5317.9455    4551.8526    25.634117    -699.6152   -103.86662    18.170774    45.428397     20.55438    89.221626    108.10279    90.306073 
  365500    258.14587   -9690.8923   -8657.4756   -9690.8923            0    4930.6299    18.097464    45.762938    19.445382  -0.60332132   -6.1684941  0.035749035    16104.531     5464.281    5248.7696    4078.8391    1080.6606   -952.56785    812.80604    18.097464    45.766915    20.400354    89.671222    107.60012    90.755322 
  366000    257.22512   -9663.1045   -8633.3737   -9663.1045            0    6293.5778    17.898395     46.36267    19.297403  -0.05279043   -6.4377685  0.081657446    16013.321    7461.4095    4851.8094    6567.5144    -203.0671    47.706253   -1080.2259    17.898395      46.3627    20.343089    89.749368    108.44896    90.065239 
  366500    257.27012   -9682.6462   -8652.7353   -9682.6462            0    6692.2833    18.051864    45.898826    19.346606  -0.23704881   -6.7675331   0.13959535    16029.811    5790.1804    7280.5622    7006.1074    59.858221    521.02438    719.06457    18.051864    45.899438    20.496589    89.512075    109.27961    90.295907 
  367000    249.81173   -9664.9771   -8664.9238   -9664.9771            0    5377.0095    18.130438    45.489063    19.492629   -0.5172893   -6.6979784   0.11912418    16076.285    5529.8661    5734.3447    4866.8177    1351.4668    474.98658    262.81799    18.130438    45.492004    20.611639    89.457159    108.96321    90.651524 
  367500    248.16282   -9643.3488   -8649.8965   -9643.3488            0    5776.2163    18.038269    45.974203    19.380049  0.015413385   -6.3317834   0.22097848    16071.779    5293.1289    5842.8051    6192.7149   -552.01533    -8.778635   -227.63479    18.038269    45.974206    20.389375    89.384986    108.09197    89.980791 
  368000    249.61161   -9627.2969   -8628.0447   -9627.2969            0    5926.8606    17.982792    46.152313    19.331901  -0.21283922    -6.240525 -0.063015185    16044.462     5201.844    6018.3693    6560.3686    411.85289   -273.07017    175.03888    17.982792    46.152804    20.314293     90.09656    107.89049    90.264227 
  368500    254.00129   -9674.8733   -8658.0483   -9674.8733            0    6619.6765     18.02319    45.556656    19.462061  -0.23637187   -6.6879656   0.22496959    15979.836    5145.8364    8586.0313    6127.1617   -285.19222    951.44776   -837.34081     18.02319    45.557269    20.580362    89.277068    108.96366    90.297278 
  369000     248.5813   -9648.3407   -8653.2132   -9648.3407            0    7373.1142    18.201619    45.486551    19.367166   -0.4938475   -6.9541398   0.24400187    16034.636    7477.2668    8058.0737    6584.0023   -171.15274     837.8183   -68.208031    18.201619    45.489232    20.579279    89.110473    109.75017    90.622036 
  369500    256.71612   -9686.8735   -8659.1804   -9686.8735            0    5317.8645    18.053854    45.938946    19.397741  -0.38001318   -6.5146674  0.082812286    16088.002     5663.118    5200.3587    5090.1169     657.1299    345.99592    159.60082    18.053854    45.940517    20.462652    89.617241     108.5643    90.473948 
  370000    252.73184   -9609.6659   -8597.9228   -9609.6659            0    7024.8323    18.024421     45.96352    19.369777 -0.0026079101   -6.1965999  0.049779475    16047.199    7914.5104    5511.3206    7648.6659   -78.780227   -579.17872   -746.66307    18.024421     45.96352    20.336877    89.858764    107.73998    90.003251 
  370500    254.36535   -9692.1466   -8673.8641   -9692.1466            0    6168.1854    18.024653    45.784393    19.416214  -0.37468402   -6.3823818  0.056548745    16023.187    6706.6168    6128.2393    5669.7001    663.48952    -13.00596    803.77905    18.024653    45.785926    20.438379    89.695061    108.19635    90.468879 
  371000    252.02026   -9662.2132   -8653.3186   -9662.2132            0    5506.3663    18.210076    45.869777    19.255386  -0.63408054   -6.9490294   0.13131864    16083.872     5527.426    4854.9266    6136.7465    730.51582   -47.310056   -504.03368    18.210076    45.874159    20.471349    89.363654    109.84346    90.791977 
  371500    247.58775   -9646.8359   -8655.6857   -9646.8359            0    7082.2111    17.974946    45.964459    19.399457  -0.17679594   -7.1406769   0.19620319    16027.999    7722.2503    6723.8654    6800.5177    -1122.185    1644.9228   -15.956899    17.974946    45.964799    20.672849    89.380084    110.20703    90.220379 
  372000    252.99372   -9647.6861   -8634.8946   -9647.6861            0     6764.741    18.046685    45.849899    19.397346   -0.2568614   -6.4931093  -0.11449509    16050.115    6218.9463    7087.5227    6987.7541   -218.45134    551.26848    652.83307    18.046685    45.850618    20.455577    90.218808    108.50726     90.32098 
  372500    251.83057   -9698.2818   -8690.1466   -9698.2818            0    6517.9874     18.04563    45.849287    19.365607 -0.072551433   -6.2512645    0.1081998    16022.702    5949.0298    6629.0194    6975.9131   -314.46831   -613.03534   -324.08006     18.04563    45.849345    20.349859    89.667507    107.88994    90.090664 
  373000    244.25205   -9715.2972   -8737.5006   -9715.2972            0    6379.3851    17.933777     45.94653    19.395451  -0.29757248    -6.367984   0.24396085    15981.751    6898.1748    6370.3614    5869.6191   -471.65494   -1035.2268    10.208961    17.933777    45.947493     20.41554    89.199574    108.17488    90.371071 
  373500    252.59229   -9677.0914   -8665.9069   -9677.0914            0    6927.0111    18.085937    45.840907    19.291746   -0.8890636   -6.8388066  0.076033756    15994.319    7604.3512    6810.6005    6366.0816    1020.7401    406.78333   -529.91603    18.085937    45.849527    20.468183     89.41598    109.51897    91.111086 
  374000    256.17882   -9632.6923   -8607.1501   -9632.6923            0     7047.487    18.081293    45.672952    19.383622 0.0097549999   -6.8575841   0.14529479      16007.5    7744.2907    6926.4125    6471.7579    92.627849    1486.5625    732.69178    18.081293    45.672953    20.561429    89.599205    109.48238    89.987763 
  374500    265.84633   -9665.1595    -8600.916   -9665.1595            0     6357.827    18.069587    45.640001    19.446246  0.012881237   -6.4015516  0.043824847    16037.241    5950.6835    6797.8518    6324.9457   -392.61903   -92.978989    327.19721    18.069587    45.640002    20.472867    89.882407     108.2211    89.983829 
  375000    268.54892   -9689.8049   -8614.7424   -9689.8049            0    6905.8056    18.047325      45.8626    19.338169  -0.29232724   -6.2098394  0.073499785     16006.15    7287.6755    6607.1016    6822.6398   -208.16893   -445.57344   -727.78185    18.047325    45.863531    20.310891     89.68101    107.80265    90.365197 
  375500    249.83829   -9669.0357   -8668.8761   -9669.0357            0     7112.739    18.023056    45.780199     19.35203  -0.32233044   -6.4653919   0.19648985    15967.342    6447.2593    7722.8229    7168.1348   -65.308307   -414.15724   -592.06686    18.023056    45.781334    20.404435    89.320431    108.47326    90.403403 
  376000     260.7689   -9659.9095   -8615.9922   -9659.9095            0    6788.4032    18.081524    45.728823    19.397817  -0.13282345   -7.0028654  0.094917557    16039.023    6091.6314    7583.1335    6690.4448    254.34987    1031.1071     76.41959    18.081524    45.729016    20.623396    89.679791    109.85003     90.16642 
  376500    255.20666   -9628.0945   -8606.4441   -9628.0945            0     6099.812    18.238432    45.789736    19.266161  -0.26594661   -6.9530569 -0.039807374    16089.806    5247.0186    5904.7589    7147.6584    1171.7288    587.28705   -632.83153    18.238432    45.790509    20.482469    89.998389    109.84421     90.33277 
  377000    245.02781   -9697.9308   -8717.0286   -9697.9308            0    5146.3698    17.980396    45.738117    19.535652  -0.35785326   -6.2642376  0.074666974    16065.914    5931.6831    6061.7888    3445.6373    13.153091   -443.75429     223.3759    17.980396    45.739517    20.515553    89.654601    107.77867    90.448271 
  377500    249.92975   -9670.9195   -8670.3938   -9670.9195            0    5566.4917    18.086994     45.99537     19.37759  -0.25790256   -6.2773847   0.18965316    16120.565    4961.1427    5391.8747    6346.4576   -185.88102   -165.02033   -653.80778    18.086994    45.996094    20.369892    89.367542    107.94897    90.321262 
  378000    253.22029   -9670.1711   -8656.4726   -9670.1711            0    4616.6515    18.030346    46.130522    19.443351  -0.19386135   -6.5044738  0.063617605    16171.992    4672.0664    5195.3198    3982.5684   -472.15587   -50.041439     876.2895    18.030346    46.130929    20.502588    89.745829    108.49678    90.240781 
  378500    245.09061   -9695.9247   -8714.7712   -9695.9247            0    4953.9734    18.117447    46.003535     19.33186  -0.32804375   -6.8474743  0.015274619     16112.46    5496.5057    4740.1976    4625.2171   -434.80145    218.81135    1209.6767    18.117447    46.004705    20.508753    89.820919    109.50448     90.40856 
  379000     251.5508   -9669.6509   -8662.6357   -9669.6509            0    4380.5056    18.172807    45.846116    19.399059  -0.17328086   -6.8374732   0.29469544    16162.376    4794.8235    4156.9683     4189.725   -368.01897   -200.41405    52.698512    18.172807    45.846443    20.570886    89.107179    109.41366    90.216555 
  379500    249.17277   -9654.0051   -8656.5097   -9654.0051            0    5353.6285    18.005286    45.880527    19.495946  -0.60194507   -6.2812469   0.11770513    16105.445    5389.1183    5942.4904    4729.2768    979.90585     114.1702   -245.42967    18.005286    45.884476     20.48316    89.440277    107.85771    90.751668 
  380000    250.27772   -9684.0175   -8682.0987   -9684.0175            0    5990.8962    18.016551    46.053676    19.336199  -0.17214289   -6.0977121 -0.040671376    16043.793    5158.4803    6291.8217    6522.3865   -807.71171   -192.99323   -19.487443    18.016551    46.053998    20.274919    90.050524    107.50275    90.214163 
  380500    244.74004    -9637.555   -8657.8048    -9637.555            0    6348.6059    18.122652    45.847666    19.336969   0.03419823   -6.6098022   0.10766644    16066.726    5452.5467    6623.4561    6969.8148   -984.51975    292.34481   -476.72173    18.122652    45.847679     20.43574    89.711957    108.87129    89.957263 
  381000    250.35507   -9701.7869   -8699.5585   -9701.7869            0    5897.6197    18.069011    45.729578    19.433022   -0.5072879   -6.8619888  0.088315272    16057.277    4091.5673    6434.7311    7166.5606    56.486098    1333.4084   -37.189988    18.069011    45.732392    20.609149     89.54287    109.44844    90.635568 
  381500    265.44889   -9665.0735   -8602.4211   -9665.0735            0    6132.5552    18.073721    45.971275    19.339759  -0.31368489   -6.6449583   0.16894141    16068.864    5376.3199    6386.2801    6635.0657   -479.22067    464.85259    356.85454    18.073721    45.972345    20.450191    89.399641    108.96156    90.390952 
  382000    248.03649   -9673.3097   -8680.3632   -9673.3097            0    6559.5264    18.024211    45.913483    19.360774 -0.090143523   -6.3785692  0.070578723    16022.091    6902.6727    6339.2195    6436.6871   -380.33837   -484.32302     951.4295    18.024211    45.913571     20.38457    89.766422    108.23479    90.112491 
  382500    267.31186   -9652.3518   -8582.2415   -9652.3518            0    6342.4808    18.042692    45.679207     19.46684  -0.21902838   -6.4283349 0.0048854279      16044.1    6754.2105    6454.9207    5818.3111    -288.3071    325.15858    139.48734    18.042692    45.679732    20.500765    89.900202    108.27424    90.274727 
  383000    263.10343   -9684.0238   -8630.7608   -9684.0238            0    6096.4336    18.087656    46.020401    19.248939  -0.40262185   -6.6213784   0.22298391     16022.84    5869.4059    5988.9363    6430.9586    811.01287    282.10812    1464.9467    18.087656    46.022162    20.357162    89.209368    108.98135    90.501255 
  383500    261.11885   -9651.7945   -8606.4763   -9651.7945            0    7036.3635    17.891513    46.289611    19.367884  -0.85731858   -6.8996719   0.23821809    16040.311    8305.3484     6713.236    6090.5062    533.92965    570.10408   -172.73373    17.891513    46.297549    20.561546    88.980229    109.60671     91.06104 
  384000    251.24776    -9692.422     -8686.62    -9692.422            0    6330.2274    18.154949    45.547178    19.348318 -0.068137738   -6.8452389   0.09739055    15999.253    5748.1655    6199.5851    7042.9316    1114.7241    640.31731    1072.4683    18.154949    45.547229    20.523747    89.699528    109.48304    90.085713 
  384500    248.65807   -9660.6302   -8665.1953   -9660.6302            0    6098.3651    18.125236    45.489142    19.482399  0.085360569   -6.4819717 -0.00049815396    16063.265    4977.7251    6676.3264    6641.0439   -49.928093   -1120.0492    244.96157    18.125236    45.489222    20.532409    90.035332    108.40275    89.892484 
  385000    247.61829   -9697.9942   -8706.7218   -9697.9942            0    6022.9614    17.948061    46.074126    19.417993  -0.40442109   -6.3412781   0.12104432    16057.539    6245.6134    5767.8202    6055.4506    327.04308   -454.37317    1146.9409    17.948061    46.075901    20.427552    89.504384    108.08501    90.502908 
  385500    247.87411   -9702.7794   -8710.4829   -9702.7794            0    5822.3195    18.072624    46.079452    19.269702  -0.35303557   -6.5624592   0.19544769    16047.357    4893.6359    5904.0753    6669.2473    -1235.008   -197.03968   -1077.1599    18.072624    46.080805    20.357443    89.308412    108.80581     90.43896 
  386000    252.01894   -9686.4007   -8677.5114   -9686.4007            0    6316.0754    17.957595    45.641704    19.583398  0.066017522   -6.6941037  0.023191308    16050.852    6678.4758    6598.3197    5671.4307   -733.06329    313.78092   -96.460173    17.957595    45.641752    20.695918    89.962602    108.87172    89.917126 
  386500    260.26463    -9681.421   -8639.5224    -9681.421            0    5408.9642    18.139134    45.903985    19.304267   -0.4754474    -6.576571 -0.082808397    16073.862    4291.3173    5271.2839    6664.2913   -478.80222   -890.87926    143.01825    18.139134    45.906447    20.393942    90.041274    108.81277    90.593416 
  387000    256.74754   -9677.4334   -8649.6145   -9677.4334            0    6158.8739    18.056553    46.026344    19.329826  -0.48587093   -6.4440546   0.25338626    16064.576    6486.9737    5069.6612    6919.9868   -521.09467   -229.37978    502.26905    18.056553    46.028909    20.377247    89.096282    108.43555    90.604813 
  387500    253.75972   -9677.4429   -8661.5849   -9677.4429            0    5796.4137    18.024978    45.746433    19.519723  -0.36526118   -6.4740496   0.20763397    16095.543    5928.1387    5972.0455    5489.0568   -850.07849   -175.07732    -482.2022    18.024978    45.747891     20.56638    89.277549    108.34802    90.457467 
  388000     246.1632   -9701.9828   -8716.5354   -9701.9828            0    5419.5217     18.16596    45.751648    19.363386  -0.21324524   -6.5909622 -0.020142154    16093.348    4709.5566    6382.8913    5166.1172   -115.70818   -73.564171   -427.44979     18.16596    45.752145    20.454386     89.97037    108.79768     90.26705 
  388500    247.97237   -9710.8234   -8718.1335   -9710.8234            0    4690.0827    17.986853    46.214331    19.375824 -0.012621579    -6.669941   0.11072693    16106.162    5390.7233     3989.964    4689.5608    448.71234    76.788751    163.19814    17.986853    46.214333    20.492021    89.685312    108.99524    90.015648 
  389000    247.41895   -9673.4446   -8682.9701   -9673.4446            0    5434.9041    18.016297    46.397904    19.265464  -0.63703676   -6.6008111   0.15612302    16104.356    6193.8727    4591.9221    5518.9175   -157.05033    422.32178    93.626352    18.016297    46.402277     20.36549    89.305844    108.91212    90.786614 
  389500    249.57779    -9700.479   -8701.3623    -9700.479            0    4922.9882    18.171112    45.605486    19.430809  -0.64119095    -6.441737   0.22698628    16102.358     3581.951    5582.2016    5604.8122   -152.57073   -359.89357   -173.61577    18.171112    45.609993    20.472025    89.111303    108.34032    90.805498 
  390000    251.05426   -9703.0659   -8698.0384   -9703.0659            0    6080.4917    18.038251    45.616635    19.491665 -0.037099844   -6.3718314   0.12172007    16038.605    7082.8356    6063.5757    5095.0637   -763.16931   -482.08224    287.32741    18.038251     45.61665    20.507073    89.645439    108.10226    90.046598 
  390500    259.13766   -9647.4805   -8610.0934   -9647.4805            0    5861.9854     17.97092    46.457348    19.246108  -0.20108744   -6.4718056 -0.016945084    16068.216    5616.9145    5375.3871    6593.6546    147.05163    306.05466   -428.84887     17.97092    46.457784    20.305103     89.96877    108.58602    90.247999 
  391000    258.89591   -9658.1501   -8621.7307   -9658.1501            0      6298.73    18.010603     46.07505    19.398575  -0.23131975   -6.6991638   0.19827823    16097.702    6514.2804    5871.1759    6510.7336    221.15824   -312.76259   -273.05332    18.010603    46.075631    20.523714     89.35257    109.05108    90.287651 
  391500    261.11266   -9613.4839   -8568.1905   -9613.4839            0    6355.2335    18.198016    45.528126     19.47281  -0.57347227   -6.7484436   0.15892748    16133.643    6674.2746    6571.2526    5820.1732    69.424438   -1118.5205    500.47442    18.198016    45.531738    20.609636    89.321898    109.11354    90.721659 
  392000    244.70157   -9730.8143   -8751.2182   -9730.8143            0    5142.9832    18.055932    45.873402     19.35755  -0.26597811     -6.52086  0.067922346    16033.607    4933.3328    5325.7811    5169.8356    -47.91458     1.267013      851.468    18.055932    45.874173    20.426477    89.703431    108.61671    90.332202 
  392500    253.53622   -9709.5635   -8694.6003   -9709.5635            0       6062.2    17.867146    46.364698    19.364814   0.30814974    -6.343796  0.097250462    16041.905    5757.8166    5844.3965    6584.3868   -310.65716    2.5274749    447.66278    17.867146    46.365722    20.377665    89.845112    108.13827    89.619206 
  393000     257.1747   -9695.2721   -8665.7432   -9695.2721            0    4467.8451    18.192317    45.859315    19.360511  -0.62344355   -6.4671487  -0.10616554    16152.226    3877.7653    4704.8319    4820.9381      -553.32   -369.52902    583.53775    18.192317    45.863553    20.412365    90.051212    108.47103    90.778871 
  393500    258.67977   -9631.7262   -8596.1721   -9631.7262            0       4807.7    18.161714    45.597003    19.516959  -0.42147234   -6.5460155    0.2423185    16162.379    5440.8296     4962.634    4019.6364    -552.3738   -507.97142   -302.81874    18.161714    45.598951    20.586907    89.157205    108.54019    90.529594 
  394000    247.54425   -9685.1748   -8694.1988   -9685.1748            0    5564.2115    18.099809    45.962454     19.40522  -0.17544658   -6.5327925  0.087870003    16143.428    5819.5151    5012.7726    5860.3467    655.90609   -136.92616    539.82696    18.099809    45.962789    20.475538    89.684339     108.6057    90.218707 
  394500    251.70227   -9685.5838   -8677.9622   -9685.5838            0    4824.4886     18.01363    46.222798    19.364215  -0.11690971   -6.5160807 -0.063138212    16123.427    5559.3084    4427.5259    4486.6314   -346.30982    170.99559    105.16196     18.01363    46.222946    20.431253    90.130842    108.59805    90.144916 
  395000    252.09591   -9661.5913    -8652.394   -9661.5913            0    5458.7157    18.106421    45.672755     19.46908  -0.31663976   -6.4970488   0.11322649    16100.347    6067.1904    5250.7358    5058.2211    140.51203   -73.018032   -805.70533    18.106421    45.673852    20.524852    89.558193    108.45414    90.397213 
  395500    243.75356   -9676.4646   -8700.6636   -9676.4646            0    5462.3377    18.225074    45.249153     19.47756  -0.71571621   -6.4377781   0.12524794    16062.543    5492.8128    5536.6329    5357.5676    1018.4724   -419.29558   -105.41954    18.225074    45.254813    20.514288    89.365851    108.28955    90.906185 
  396000    245.95661    -9692.176   -8707.5556    -9692.176            0    5450.1386    17.948356    46.012476     19.42695 -0.0027936971   -6.6111964   0.10766942    16043.713    5470.7431    5679.4749    5200.1979    92.246261    590.10209   -44.874342    17.948356    46.012476    20.521352    89.698264    108.79371    90.003479 
  396500    255.91437   -9717.9935     -8693.51   -9717.9935            0    6559.8999    18.046488    46.104936    19.199225 -0.065095856   -6.6763288  0.020779557    15974.373    6329.0374    6911.3387    6439.3237    388.31619    881.37448   -846.36797    18.046488    46.104982    20.326929    89.914858    109.17457    90.080896 
  397000    258.92965   -9686.0945   -8649.5401   -9686.0945            0    5982.3501    18.024152    45.595953    19.484201  -0.44875491   -6.4289272  0.082127701    16012.669    5445.7198    7386.6362    5114.6943    1597.1809    389.42786    475.64937    18.024152    45.598161      20.5176    89.593981    108.26046    90.563886 
  397500    255.41534   -9659.6902   -8637.2043   -9659.6902            0    5985.6756    18.064197     45.78011    19.411824  -0.16797203   -6.4142168   0.16562403    16053.208    6006.8216    6566.0059    5384.1992    547.85532   -261.52005   -470.53268    18.064197    45.780418    20.444767    89.469886     108.2844    90.210223 
  398000    258.37471   -9702.1711   -8667.8383   -9702.1711            0    6642.2082    18.103406    46.169199    19.183878  -0.23979769     -6.60178 -0.041900422    16034.264    6136.1707    6411.5481    7378.9059    36.570255   -1014.5185    -552.1653    18.103406    46.169821    20.288086    90.021495    108.98992    90.297585 
  398500    264.65001   -9680.4452   -8620.9909   -9680.4452            0     5536.758    17.994645    45.684415    19.544109  -0.20208065   -6.7480737   0.13974995     16066.72    5547.4395    6341.4976     4721.337    841.07694    1079.3363    719.99568    17.994645    45.684862    20.676755    89.530035    109.04801    90.253441 
  399000    243.58341   -9730.7312   -8755.6113   -9730.7312            0     5955.249    18.263723    45.583579    19.274159  -0.40453619   -6.6065572   0.19270166    16046.235     6050.231    5282.6526    6532.8634   -554.14139   -781.99394    573.23724    18.263723    45.585374    20.375891    89.293279    108.91918    90.508464 
  399500    255.02323   -9678.8327   -8657.9166   -9678.8327            0    5145.2146    17.945595    45.834865    19.551786  -0.35598592   -6.2732039 0.0093206245    16082.007    6142.4818    4928.8564    4364.3056    598.13154     53.51036    181.59925    17.945595    45.836248    20.533522    89.838045    107.78887    90.444991 
  400000    243.66824   -9688.7144   -8713.2549   -9688.7144            0     5461.592    18.034514    45.994799    19.380817 -0.058551745   -6.4256411 0.0029396728    16076.269    5524.9995    6001.9363    4857.8403   -599.69097    550.71451    2036.2918    18.034514    45.994836    20.418251    89.968797    108.34276    90.072938 
  400500    256.05076   -9695.5929   -8670.5634   -9695.5929            0    6641.0869    18.065326    45.863917    19.364037  -0.23005393   -6.6207103  0.094902924    16044.007    6730.1862    6540.9772    6652.0973   -1380.8482   -203.13712    197.21761    18.065326    45.864494    20.464817    89.641323    108.87573    90.287394 
  401000    248.95013   -9687.7302   -8691.1261   -9687.7302            0    6602.6878    18.032766    45.695355    19.400799  -0.46506162   -6.7602204   0.20244175    15986.524    6567.8422    6408.2156    6832.0057     696.2236    598.58022   -358.98562    18.032766    45.697722    20.545865    89.243607    109.20995    90.583104 
  401500    255.46701   -9642.8272   -8620.1346   -9642.8272            0    7551.7092    18.074845    45.990149    19.241297  -0.23326017   -6.5942771  0.042748348    15994.613    7675.9703    6775.6915     8203.466   -63.567246    224.90794    -251.3473    18.074845     45.99074    20.339957     89.78537     108.9173    90.290599 
  402000    254.12228   -9625.0626   -8607.7532   -9625.0626            0    6199.6267     17.93033    46.141535    19.434591   0.20167047   -6.2663535 -0.092399188    16078.877    7651.5052    5272.3978    5674.9772   -159.20776   -701.54576    446.86052     17.93033    46.141975    20.420065    90.336105    107.87084    89.749579 
  402500     247.7526   -9646.8273   -8655.0172   -9646.8273            0     6653.574    18.068723    45.762067     19.40596 -0.085934422   -6.3217159   0.14822594    16046.053    5800.3324    5923.6207     8236.769   -101.70882   -957.54855   -937.45737    18.068723    45.762147    20.410226     89.55057    108.04313    90.107593 
  403000    256.09635   -9699.7604   -8674.5483   -9699.7604            0    5413.8397    18.101678    45.925229    19.390939  -0.67632291   -6.5978461   0.18892382    16120.147     5047.869    5503.3559    5690.2942   -971.21374    -122.5224   -1332.8662    18.101678    45.930209    20.483549    89.199827    108.79025    90.843712 
  403500    253.34032   -9651.2247   -8637.0456   -9651.2247            0    4044.0607    18.036495    46.158443    19.471842  -0.57105175   -6.7259295   0.15418151     16211.02    5248.0144    3063.4862    3820.6816   -211.08802    -395.0221   -236.14042    18.036495    46.161975    20.601324    89.339809    109.05529    90.708802 
  404000    253.66455   -9734.8093   -8719.3323   -9734.8093            0    4836.8957    18.226692    45.755796    19.347143   0.16995871   -6.7070355  0.044881915    16135.069    3360.3913    5500.2141    5650.0817    90.004935    65.173791   -470.71107    18.226692    45.756112    20.476774    89.944126    109.11975    89.787177 
  404500    251.70624   -9716.3877   -8708.7503   -9716.3877            0    6332.7824    18.104055    45.479288    19.483566  -0.21436717   -6.4861702  0.049254741     16041.98    5526.1018    6978.4832    6493.7622   -85.401858   -212.86329   -581.69649    18.104055    45.479793    20.534901     89.77727    108.41279    90.270062 
  405000    257.80304   -9668.6086   -8636.5643   -9668.6086            0    6938.6994    17.951334    45.913154    19.369774  -0.55796995    -6.378409   0.16075088    15964.613    6813.9076    6716.6453    7285.5453   -42.719838    724.88775    1016.3069    17.951334    45.916545    20.393579    89.330626    108.22597    90.696266 
  405500    265.64469    -9713.759   -8650.3228    -9713.759            0     6052.955    18.058896    45.970329    19.291583  -0.35975938   -6.4699008   0.22809375    16015.359     6334.246    5965.8545    5858.7643   -120.43906   -431.92106   -1345.9161    18.058896    45.971736    20.348878    89.215197    108.53892    90.448382 
  406000    258.12841   -9671.6013   -8638.2545   -9671.6013            0    6753.4539    18.021742    45.720481    19.415495  -0.24528539   -6.5769846 -0.048257032    15997.644    7075.3055    7095.5723    6089.4839    770.78415   -187.47993    860.31647    18.021742    45.721139    20.499281    90.036257    108.71372    90.307383 
  406500    257.38802   -9668.0888   -8637.7059   -9668.0888            0    7610.3236    18.116659    45.678246    19.280986 -0.045112923     -6.75188  0.046227815    15955.733    6458.1174    8094.6646    8278.1889   -1691.9249    117.46714   -710.59353    18.116659    45.678268    20.429059    89.851646    109.29935    90.056587 
  407000    254.58018    -9704.783   -8685.6405    -9704.783            0     5870.253     17.95281    46.030048    19.400038  -0.66417922   -6.7202259   0.27881809    16031.584    6798.3528    5316.9718    5495.4343    336.91971    466.51693    320.81663     17.95281     46.03484    20.532916    88.951444    109.10439    90.826678 
  407500    259.51413   -9669.7317   -8630.8375   -9669.7317            0    5618.0897    18.059365    45.925734    19.361909  -0.73093934   -6.5052051   0.10741944    16058.566    5162.1806    5186.6181    6505.4704   -768.27747   -161.90851   -404.31315    18.059365     45.93155    20.425787    89.408323    108.57103    90.911824 
  408000      259.006   -9667.1702   -8630.3101   -9667.1702            0    5162.9607    18.065954    45.777576    19.445963  0.095388971   -6.3613942  0.095674421    16082.115    4524.0764    5403.0123    5561.7934   -987.16093   -443.78304    186.19674    18.065954    45.777676    20.460254    89.769199    108.11436     89.88061 
  408500    250.79507   -9668.8419   -8664.8521   -9668.8419            0    5304.1163    18.066142    45.882857    19.417689 -0.039192417   -6.6070747 -0.042268258    16095.831    5613.4662     5264.681    5034.2018    278.09744    934.91443     1553.593    18.066142    45.882874    20.511018    90.102308    108.79138    90.048941 
  409000    262.08765   -9670.9605   -8621.7639   -9670.9605            0    4343.7358    18.096033    46.213527     19.34188  -0.52777887   -6.7872322  0.052743326    16175.256    5605.1351    3857.8345    3568.2377    449.81483    269.23364    763.29935    18.096033    46.216541    20.498234    89.635934    109.33635    90.654315 
  409500    257.80317   -9669.1188    -8637.074   -9669.1188            0    5445.9162    18.075486    45.885258    19.430435   -0.4984167   -6.5379311   0.34312002    16115.571    4930.5208    5471.2907    5935.9373   -396.31798    760.58277   -1383.4082    18.075486    45.887965    20.503758    88.842725     108.5943    90.622336 
  410000    256.40924   -9653.5897   -8627.1251   -9653.5897            0    5843.4911     18.11519     45.58435       19.459  -0.54146196   -6.2990683  0.026468376    16068.642    5213.0565    6466.5408    5850.8762    114.97618    -567.4454   -243.88186     18.11519    45.587565    20.453157    89.716273    107.93726    90.680541 
  410500    256.65962   -9676.4862   -8649.0193   -9676.4862            0    6527.2238    18.072055    45.712368    19.381559   0.13015738   -6.4680702  0.037612255    16011.424    6396.3892    6927.2902    6257.9921    29.390733    55.596933   -1502.9802    18.072055    45.712553     20.43238    89.946172      108.455    89.836861 
  411000    263.63405   -9672.6707   -8617.2835   -9672.6707            0    6898.2933    17.967557    46.071163    19.297343   -0.1033893   -6.6710454   0.19481894    15974.075    7545.1872    6747.4348     6402.258    737.53152    514.69276    561.77324    17.967557    46.071279    20.418821    89.411316    109.06924    90.128578 
  411500    261.46871   -9658.7222   -8612.0034   -9658.7222            0    6703.3812    17.982689    46.011175    19.318392   -1.0061381   -6.6363576    0.1324426    15984.128    5931.8459    6896.4082    7281.8894    1382.0128    374.80873    918.66324    17.982689    46.022175     20.42692    89.221626    108.95848    91.252702 
  412000    262.20961   -9682.0467   -8632.3619   -9682.0467            0    6522.3767    18.089242    45.616275    19.424958   -0.1434825   -6.4557632   0.22581683    16028.772    6370.8632    7047.5048    6148.7621   -930.06239   -177.24755   -178.67355    18.089242    45.616501    20.470878    89.311115    108.38275    90.180219 
  412500     261.3948   -9662.1222   -8615.6993   -9662.1222            0    5301.6667    18.089388    45.845233    19.477774 -0.0063432901   -6.3382569  -0.10934637    16153.155     4825.959    5666.5584    5412.4826    478.75982   -137.16293    1755.5277    18.089388    45.845234    20.483386     90.30341    108.02513    90.007928 
  413000    248.52983   -9708.3729   -8713.4514   -9708.3729            0    5386.9032    17.960925    46.220248    19.354849  -0.32994518   -6.5372473 -0.051104611    16067.591    6415.0601    5308.4226     4437.227    159.14665    340.84474    493.92696    17.960925    46.221425    20.429107    90.012447    108.66273    90.409001 
  413500    251.01502   -9652.4194   -8647.5491   -9652.4194            0    5530.8542    18.065617    46.047431     19.31117  -0.38562184   -6.7250803   0.37157054    16064.484    5192.8619    4810.2912    6589.4094    413.25564   -363.66026   -558.98149    18.065617    46.049045    20.452043    88.801235    109.19729    90.479809 
  414000    251.61519   -9677.6648   -8670.3919   -9677.6648            0    5885.9772    18.060764    45.495417    19.491149  -0.51553846   -6.6570365  0.092406413    16015.526    4833.5832    7444.3692    5379.9792    1251.0315    705.25922   -959.47758    18.060764    45.498338    20.596834    89.533127    108.85697    90.649228 
  414500    259.26065   -9723.7133   -8685.8338   -9723.7133            0    6182.0536    18.138635    45.819757    19.284828  0.045940076   -6.5040239 -0.048922231    16027.772    5665.4889    6056.4823    6824.1897   -561.41871   -607.44065   -102.54491    18.138635     45.81978    20.352133    90.156085     108.6372    89.942554 
  415000    252.44262   -9680.2768   -8669.6914   -9680.2768            0    6463.1421    17.955877    46.048496    19.368486 -0.043531618   -6.3368411   0.15923397    16014.661    7031.2156    5703.3204    6654.8904    661.59615    24.871237   -262.83918    17.955877    46.048516     20.37938    89.535473    108.11611    90.054164 
  415500    262.66488   -9701.8948   -8650.3874   -9701.8948            0    6227.5949    18.038929    45.800939    19.426899  -0.91163644   -6.3768598   0.21762375    16050.502    5987.8799    6593.8767     6101.028    897.73829    325.82477   -103.58836    18.038929     45.81001    20.447888    89.034701     108.1713    91.140283 
  416000    259.80838   -9679.2919   -8639.2197   -9679.2919            0    5365.0609    18.282067    45.558586    19.390193  -0.41963663   -6.6820209  0.089838223    16150.191    3953.2946    5807.4806    6334.4075    121.52065    37.232567    441.93307    18.282067    45.560519    20.509439    89.577098    109.01419    90.527732 
  416500    251.50706   -9664.1524   -8657.3123   -9664.1524            0    5861.1885    18.134691     45.80006    19.439613   0.37892883   -6.8044559   0.00176562    16145.958    6645.7524    4663.5852    6274.2279    -753.6653   -171.44503    180.22554    18.134691    45.801627    20.596096    90.151694     109.2916    89.525972 
  417000    248.93435   -9649.5268   -8652.9859   -9649.5268            0    5589.5716     17.95227    46.170537    19.397377  -0.38931171   -6.5151393 -0.089866351    16077.825    7071.7458     5120.081     4576.888   -132.71116   -12.782134    1105.0873     17.95227    46.172178    20.462486    90.097803    108.56585    90.483109 
  417500     264.4303   -9667.5455   -8608.9707   -9667.5455            0    5191.0565    18.065903    46.181434    19.330335  -0.38221458   -6.3474874   0.20301526    16127.478    4308.2115    4664.0329    6600.9252    415.28713    118.01362   -1266.2642    18.065903    46.183016    20.346834     89.28039    108.17765     90.47419 
  418000    248.92891   -9672.0231    -8675.504   -9672.0231            0    5609.0876    18.098148    45.556529    19.483749  -0.22782242   -6.3834255   0.14286542    16064.133    5344.5586    5792.0904    5690.6137    260.13192    -297.9977    79.135492    18.098148    45.557099    20.503293    89.511561     108.1398    90.286527 
  418500    263.62266   -9660.5411   -8605.1995   -9660.5411            0    6953.1093    18.147258    45.642778    19.369049  -0.22497353   -6.7289359  -0.10023658    16043.214    4969.6045    7891.4726    7998.2507   -111.89186    676.78694    736.31631    18.147258    45.643333    20.504845    90.187408    109.15733    90.282409 
  419000    257.89141   -9654.7554   -8622.3574   -9654.7554            0    5504.8922    18.010414    46.334046    19.273383  0.067962938   -6.8237151   0.20254308    16083.548    4760.5651    4930.7613    6823.3502   -250.77642     1237.608    543.33015    18.010414    46.334096    20.446697    89.460473    109.49544    89.915958 
  419500    264.59276   -9688.8059   -8629.5808   -9688.8059            0    6209.3179     18.01623     45.96249    19.387024  -0.53741831   -6.4734962    0.2001022    16053.828    5488.5415    7012.9599    6126.4523    726.12864    554.41265     21.35973     18.01623    45.965632    20.440227    89.226955     108.4637    90.669903 
  420000    252.53479   -9679.0823    -8668.128   -9679.0823            0    6317.4561    18.122417    45.526398    19.425846  -0.37807246   -6.2329388  0.066280186    16027.263     7446.672    6599.6468    4906.0494     80.72931   -200.16707    850.49504    18.122417    45.527967    20.401407    89.668499    107.78916      90.4758 
  420500    250.50162   -9670.2917   -8667.4767   -9670.2917            0    5719.5024    18.060948    45.792151    19.381816  0.084541721   -6.3992764   0.13347223    16029.724    5182.3618    6426.6232    5549.5221   -335.34599    801.38319    898.59317    18.060948    45.792229    20.411353    89.658498    108.27122     89.89422 
  421000    258.08765    -9608.693   -8575.5093    -9608.693            0    6335.5114    17.892342    46.308008    19.395221    -0.298931     -6.68637  0.051292304    16070.079     7561.973    5572.5357    5872.0255    1002.0564   -553.47454    865.25514    17.892342    46.308972    20.515476    89.736211    109.02122    90.369855 
  421500    262.33047   -9704.5055   -8654.3368   -9704.5055            0    6038.8228    18.077603    46.037414    19.264589  -0.54371563   -6.7370644   0.13532696    16032.879    5261.7876    5371.5329    7483.1478    753.48173   -35.992296    1601.2871    18.077603    46.040624    20.409084    89.396746    109.27492    90.676649 
  422000    252.81153    -9626.873   -8614.8108    -9626.873            0    6781.0879    18.132591    45.202916    19.607594  -0.44213485   -6.4331426   0.26884277    16071.285    5938.0651    7900.6151    6504.5835   -899.73419     241.8334   -1630.9902    18.132591    45.205078    20.637716    89.078934    108.16278    90.560399 
  422500    248.54257   -9669.2163   -8674.2438   -9669.2163            0    7052.1819    18.061091    45.771113    19.341742  -0.28558782   -6.3689946 -0.002426571    15989.358    8231.5652     6531.588    6393.3926   -265.99274   -391.07983     802.9624    18.061091    45.772004    20.363376    89.895017    108.22607    90.357491 
  423000    257.09578   -9672.2503   -8643.0373   -9672.2503            0    6794.1269     17.95965    46.292547    19.275259   -0.1439823   -6.5155334  0.060088361    16025.411    6549.4746    6792.6145    7040.2916   -52.804625   -590.23605   -617.37967     17.95965    46.292771    20.346779    89.773728    108.67649    90.178205 
  423500    253.85533   -9642.0206   -8625.7799   -9642.0206            0    6242.1146      17.9676     45.89301    19.452562  -0.56664314    -6.761722   0.18437411    16040.335    6997.7491    6676.7094    5051.8853    1477.6858   -229.10903    1108.9751      17.9676    45.896508    20.595074    89.254842    109.16668    90.707398 
  424000    248.32196   -9680.8826   -8686.7932   -9680.8826            0    6700.9968    18.262087    45.398514     19.36246  -0.42497094   -6.7281357   0.19368407    16052.866    5720.4425    7372.8627     7009.685    -191.3997    336.20615    340.62539    18.262087    45.400503    20.499029     89.28262    109.16061    90.536324 
  424500    249.74152    -9631.863   -8632.0908    -9631.863            0    5870.0185    18.025799    45.886432    19.454991  0.040321746   -6.2574428  -0.16151971    16091.993    5057.5286    6321.3227    6231.2043    59.619127   -296.58956   -255.55548    18.025799    45.886449    20.437181    90.468242    107.82913    89.949653 
  425000    261.15578   -9653.1808   -8607.7147   -9653.1808            0    6540.8574    17.897636    46.164882    19.390097   0.14464103   -6.1928873 -0.021294187    16020.918    7165.5452    6149.8748    6307.1522   -1038.7947   -1336.7402   -123.01466    17.897636    46.165109    20.355053    90.114555    107.71264    89.820485 
  425500    254.99062   -9648.0478   -8627.2623   -9648.0478            0    6172.6496    18.131296    45.928423    19.312502  -0.34412752   -6.5508174   0.11673849    16082.328    5330.6507    6924.4862    6262.8121    -373.6051   -45.251925   -122.06434    18.131296    45.929712    20.393616    89.534132    108.73666    90.429292 
  426000    261.30192   -9719.0105   -8672.9594   -9719.0105            0    6593.8032    18.022643    45.667916    19.443681  -0.44410476   -6.6158787   0.15876556    16003.249    7161.7972    6355.9252    6263.6871   -2.0410814   -51.675523   -22.181601    18.022643    45.670075    20.539031    89.377649    108.79073    90.557164 
  426500     255.9486   -9679.4077   -8654.7871   -9679.4077            0    6760.5181    18.089971    45.696126    19.385685  -0.26198093    -6.489007   0.12771205    16025.014     6187.204    6611.5554    7482.7949   -615.11273   -829.89988   -91.067011    18.089971    45.696877    20.443295    89.537803    108.50666    90.328479 
  427000    260.20759   -9704.9893    -8663.319   -9704.9893            0    5438.0564    18.057253    46.096476    19.325701  -0.27524478   -6.1500754   0.07930581    16086.244    4809.4672    5262.5327    6242.1693   -863.74119   -912.27589    389.48248    18.057253    46.097298    20.280839     89.67221    107.65265    90.342112 
  427500    256.78893    -9671.875   -8643.8904    -9671.875            0    4616.0936    17.962031      45.8443    19.567317  -0.42384402   -6.2737312  0.044460767    16112.839    5452.4354    5155.7198    3240.1255     331.5825   -166.21705     -666.383    17.962031     45.84626    20.548518    89.714311      107.777    90.529701 
  428000    257.92901   -9669.4247   -8636.8761   -9669.4247            0    5798.1284    18.185721    45.700374    19.372564  -0.29355049   -6.8347509   0.21442715    16100.426    4223.4999    6430.2032     6740.682   -1133.8067    925.90932   -339.33805    18.185721    45.701317    20.544002    89.279534    109.43203    90.368027 
  428500    259.37028   -9664.9829   -8626.6645   -9664.9829            0    5742.8952    18.032633    46.004298     19.37245  -0.35774141   -6.8773107   0.19108884    16070.971    6068.7061    5287.5899    5872.3897     124.4464    581.26385   -181.08595    18.032633    46.005689    20.557863     89.31838    109.54422    90.445538 
  429000    257.13766   -9693.7525   -8664.3719   -9693.7525            0    6376.7167    17.901553    46.109758    19.387693  -0.12072061   -6.2846879  0.061659074    16003.306    8166.2683    4917.9853    6045.8965    549.50072   -351.65842     184.7506    17.901553    46.109916    20.380965    89.780406    107.96046    90.150007 
  429500    249.76127   -9617.2206   -8617.3693   -9617.2206            0     6814.968    18.145491     45.79328    19.318906 -0.046458599   -6.0350764  0.057954805    16052.881    4994.6039    7685.6509    7764.6492   -7.6176455    169.50429   -561.87588    18.145491    45.793303    20.239704    89.818605    107.34833    90.058128 
  430000    248.34093   -9672.2192   -8678.0539   -9672.2192            0    5482.1915    18.012105    45.704005    19.593819  -0.31715717    -6.335085  0.070261625    16130.128    5718.1971    6303.5275      4424.85    -278.1419   -258.70138    125.55322    18.012105    45.705106     20.59262    89.682198    107.91698     90.39759 
  430500     252.4527   -9691.7564   -8681.1308   -9691.7564            0    5262.5241    18.077263    45.851425    19.392466  -0.36319589   -6.7460413   0.14373664    16073.799    5376.8806    5127.9991    5282.6926    10.394265    398.36142     1405.352    18.077263    45.852863    20.532838    89.449808    109.18072    90.453839 
  431000    252.14156   -9615.7576   -8606.3775   -9615.7576            0    7452.9967      18.0247    45.935568    19.359291  -0.33733944     -6.61227   0.10553579    16029.005    8524.4134    6924.8921    6909.6846    840.76685   -288.26507    1099.9676      18.0247    45.936807    20.457649    89.568434    108.85762    90.420758 
  431500    259.44081   -9651.8764   -8613.2757   -9651.8764            0    7734.8854    17.914785    45.866067    19.440402  -0.34239172   -6.1750431  0.018577944    15973.804    8376.2455    7516.6935    7311.7172    215.49372   -511.63158   -21.236187    17.914785    45.867345    20.397567    89.818336    107.62191    90.427707 
  432000    250.69193   -9650.6023   -8647.0254   -9650.6023            0    7152.6082    18.096728     45.79403    19.278345  -0.21005494   -6.0644618  0.083597206    15976.391    7070.2804    7142.8787    7244.6655    -36.47916   -58.904161    11.239944    18.096728    45.794512    20.209881    89.684137    107.46205    90.262811 
  432500    260.37336   -9719.8641   -8677.5302   -9719.8641            0    6684.3761    18.004652     45.74266    19.384635  -0.17899429   -6.4455675   0.17192736    15964.811    7348.6688    6910.0075     5794.452    384.37228   -155.58424   -66.159507    18.004652     45.74301    20.428876    89.447061    108.39176    90.224201 
  433000    254.45465    -9654.276    -8635.636    -9654.276            0    7400.6947    18.060876    45.715794    19.362086  -0.38231194   -6.8666954   0.07701983    15986.641    7544.4824    7257.4944    7400.1072    1319.5455    509.53456     668.4585    18.060876    45.717393    20.543802     89.62505    109.52673    90.479142 
  433500     252.6992    -9705.987   -8694.3745    -9705.987            0    6074.9383    18.121684    45.845683    19.267561 -0.057952031   -6.7536216   0.12497679    16007.509     6039.068     5091.075    7094.6718     51.68053    374.84145   -827.91478    18.121684     45.84572    20.417295    89.625326    109.31609    90.072426 
  434000    257.27454   -9678.0228   -8648.0942   -9678.0228            0    5064.6112    17.962723    46.001382    19.528611 -0.041375399   -6.2224927   0.14627742    16136.688    4830.0878    6205.3432    4158.4027    71.033124   -91.971045    958.22301    17.962723    46.001401    20.496523    89.575449    107.67322    90.051534 
  434500    267.50653   -9656.2735   -8585.3839   -9656.2735            0    5568.5129    18.163475    45.956011    19.308976  -0.43464043   -6.1338716   0.14275441    16117.604    5352.8699    5633.5586    5719.1103   -209.63561   -1084.3653    968.84176    18.163475    45.958066    20.260338    89.432251    107.62301    90.541873 
  435000    246.39644   -9663.6185   -8677.2374   -9663.6185            0    6000.0442    17.969627    45.945458    19.451048  -0.17560452    -6.455867    0.1285075    16059.228    7108.9815    6296.4945    4594.6568   -630.73191   -151.65227   -45.745153    17.969627    45.945794    20.494828     89.57176     108.3608    90.218985 
  435500    245.67974   -9694.7807   -8711.2687   -9694.7807            0     6933.377    18.015804    45.842211    19.333589   -0.2987005   -6.6051976  0.025334089    15967.308    6945.7799    6964.3059    6890.0451    354.58833    840.85224    305.64592    18.015804    45.843185    20.430785    89.808261    108.86239    90.373325 
  436000     254.9075   -9714.6024   -8694.1495   -9714.6024            0    7441.8144    18.057668     45.69489     19.29671  -0.25527626   -6.5438478   0.15856383    15922.548    7541.8589    6840.3978    7943.1865   -495.34665    -319.9985   -966.13664    18.057668    45.695603    20.376705    89.451353     108.7321    90.320082 
  436500    256.22925   -9651.4867   -8625.7426   -9651.4867            0    8209.5354    17.979762    45.743458     19.37784  -0.23633984   -6.4708164  0.047413634     15937.43    7759.1381    8312.0095    8557.4585    87.512548     92.28959    409.31459    17.979762    45.744069    20.429743    89.773268    108.46559    90.296024 
  437000    250.51484   -9679.6173   -8676.7493   -9679.6173            0    6321.3348    18.042702    45.997621    19.305629 -0.066528952   -6.5268198   0.03128855    16022.154    7260.2721    5863.9054    5839.8269   -742.70352    43.589147   -151.97219    18.042702    45.997669    20.379099    89.885492    108.67927     90.08287 
  437500    248.58423   -9622.1206   -8626.9813   -9622.1206            0    5176.2003    18.063245      46.3374    19.285739  -0.66026659   -6.7349481   0.35951234    16142.236    5411.2931    5508.4916    4608.8161    673.07209    389.96593   -1326.8806    18.063245    46.342104    20.431067    88.722702    109.24708    90.816358 
  438000    244.01795   -9704.0023   -8727.1428   -9704.0023            0    5381.8363    17.957249    45.853307    19.538174  -0.93790301   -6.6908277   0.24994358    16087.718    5711.3044    5822.2584    4611.9462    1046.9641    1449.6489    205.87205    17.957249    45.862898    20.653569    88.927125    108.90228    91.171789 
  438500    255.80064   -9673.3625   -8649.3342   -9673.3625            0    6062.0373    18.185994    45.646902    19.397101   0.10921753    -6.463277 -0.055707577    16102.199    6292.4925    5428.9612    6464.6581   -735.74258   -34.215972   -288.51678    18.185994    45.647032     20.44565    90.199448    108.42844    89.862911 
  439000    259.10954   -9671.6541   -8634.3795   -9671.6541            0    5158.6384    18.010906    45.947202     19.44495   -0.1409632   -6.3438023  0.032462462    16091.682     5625.618    5100.0172    4750.2801    313.84671     151.4295    1169.3435    18.010906    45.947418     20.45363    89.854546    108.06859    90.175779 
  439500    260.87659    -9699.709   -8655.3605    -9699.709            0    5166.8151    18.039692    46.174044    19.340319  -0.60149959   -6.5277558   0.21902197    16109.819    6212.4673    4731.3024    4556.6755   -81.785735    5.0979887    -90.85695    18.039692    46.177962    20.413415    89.146621    108.64948    90.746338 
  440000    253.98844   -9682.7103   -8665.9367   -9682.7103            0    6104.5261    18.079328    45.875504     19.37444  -0.37198047   -6.6666912  0.093909672    16069.127    6382.1116    6677.9305    5253.5363   -897.13505    308.48328    30.321477    18.079328    45.877012    20.489571    89.586246    108.98799    90.464571 
  440500    242.31835   -9707.3174   -8737.2619   -9707.3174            0    6860.8858    18.000589    45.798887    19.403768  0.059098962   -6.5956609 -0.058962847    15996.601    7611.2878    5933.9647     7037.405   -1064.3311   -572.97769    753.81249    18.000589    45.798926    20.494204    90.188637    108.77366    89.926065 
  441000     252.5077   -9710.6844   -8699.8385   -9710.6844            0    6263.0731    18.134165    45.923476    19.241376 -0.091505121   -6.4302789    0.1660181    16023.908    4989.1946    6519.4443    7280.5804   -668.59328   -144.06653    -357.7201    18.134165    45.923568     20.28809    89.494957    108.47848    90.114165 
  441500    241.96741   -9718.8953   -8750.2446   -9718.8953            0    5105.0542    17.984515    45.826602    19.489746  -0.61292028   -6.4311564   0.22832037    16062.849    5326.8179    5929.9653    4058.3795    713.13899    41.703496    -461.8238    17.984515    45.830701    20.524671    89.122559     108.2605    90.766272 
  442000    251.52708   -9667.2926   -8660.3724   -9667.2926            0    5744.6896    18.153012    46.066389    19.257181  -0.35960178   -6.5677143  0.011085041    16103.697    5547.1221    5820.9674    5865.9793   -591.44196    297.04766   -865.55054    18.153012    46.067793    20.346351    89.824416    108.83208    90.447251 
  442500    258.24071   -9649.7348   -8615.9384   -9649.7348            0    5120.1458    17.970781    46.008211    19.538568   0.39823502   -6.5717875 -0.078493156    16154.557    5618.2594    5188.4458    4553.7323   -601.99434   -208.94793    -54.28051    17.970781    46.009935     20.61432    90.376257     108.5902    89.504075 
  443000    258.57342    -9685.302   -8650.1737    -9685.302            0    4964.8498    18.127992    45.880099    19.421058  -0.24488857   -6.5178837  0.035480604    16152.767    4886.6222    5128.8218    4879.1055   -824.78986   -71.281746    96.120652    18.127992    45.880753    20.485643    89.803465    108.55219    90.305818 
  443500    262.91839   -9675.7761   -8623.2538   -9675.7761            0     5848.617    18.118068    45.887753    19.325351  -0.62518556   -6.4596056   0.20877296    16067.047     5303.079    5820.9541     6421.818    1248.8562   -337.33899    353.57198    18.118068    45.892012    20.377421    89.165583    108.48148    90.780563 
  444000    251.78593   -9683.5925    -8675.636   -9683.5925            0    6976.3273    17.916461    45.790063    19.467879   -0.2367434   -6.4372626    0.1490921    15971.368    7126.5589    6520.5584    7281.8645   -12.440361   -236.85156    295.44297    17.916461    45.790675    20.505095    89.490407    108.29652    90.296228 
  444500    249.89169   -9706.1895   -8705.8161   -9706.1895            0    7630.4665    18.035507    45.849136     19.27815  0.014210703   -6.5945921 -0.092283382    15941.342    6690.8255    7700.5677    8500.0064    316.20669   -28.455378    1934.8906    18.035507    45.849138    20.375088    90.265254    108.88438    89.982241 
  445000      250.325   -9701.1453   -8699.0372   -9701.1453            0    6467.4893    17.981769    45.860427    19.373111 -0.022277631   -6.6171749   0.16920102    15976.067    7931.4377     5987.898    5483.1324   -410.80765    341.92295   -703.25733    17.981769    45.860432    20.472739    89.517466     108.8577    90.027833 
  445500    256.45358   -9662.7455   -8636.1034   -9662.7455            0    6257.5442    18.049196    45.704375    19.454019  -0.73151876    -6.516093   0.33486637     16048.15    6644.4542     6521.658    5606.5204   -348.11764   -20.070191   -1227.2867    18.049196    45.710229    20.519027    88.773788    108.51564    90.916966 
  446000    267.35245   -9696.5325   -8626.2597   -9696.5325            0    6215.6011    18.141225    45.761905    19.303128  -0.48979425   -6.4707927  0.090057424    16025.014    6705.4185    6119.2419    5822.1429    468.12687   -529.10683   -195.69673    18.141225    45.764526    20.359028    89.551666    108.53199    90.613219 
  446500    256.82111   -9678.9645    -8650.851   -9678.9645            0    6183.8008    17.987673    45.876276    19.444012   0.26212227   -6.5008323 -0.029838463    16045.344    6744.8693    5830.8967    5975.6365   -1496.4197   -169.68385    569.09851    17.987673    45.877024    20.501983    90.187189    108.48661    89.672634 
  447000    263.83673     -9676.79   -8620.5914     -9676.79            0    5626.2256    18.170034    45.798405    19.356311  -0.34446034   -6.6481812  0.032267508     16107.52    5290.1366    5784.6029    5803.9374   -127.76348    977.21269    1080.2875    18.170034      45.7997    20.466219    89.769689    108.95569    90.430927 
  447500    257.96292   -9664.0875   -8631.4031   -9664.0875            0    5546.9769    18.060292    45.757116    19.496624  -0.85025986   -6.5988105   0.22177934    16111.754    4777.5683    6139.2237    5724.1388    688.34561    254.43867    830.86391    18.060292    45.765015    20.584262    89.041496    108.69773    91.064549 
  448000    257.13988   -9679.3196     -8649.93   -9679.3196            0    5699.1292    17.907879     46.25631    19.411442 -0.0080354015   -6.2656746   0.26507022    16079.514    5297.5316    5262.1621    6537.6938   -291.86377   -130.55768   -334.51067    17.907879     46.25631    20.399338    89.252417    107.88761    90.009953 
  448500    254.66447   -9729.1234   -8709.6435   -9729.1234            0    5650.1014    18.065017    46.155062    19.232296   0.25646155    -6.318932 -0.094051639    16035.735    5693.1507     4635.211    6621.9426    127.32599    77.260664   -22.551745    18.065017    46.155775    20.243986    90.365562    108.18817    89.681638 
  449000    253.55938   -9679.3254   -8664.2694   -9679.3254            0     6231.799    18.057827    45.626497    19.490727  -0.36975401   -6.4839385  0.018195197     16058.71    6655.9189    6654.9283    5384.5498    349.82704    99.893438   -96.507239    18.057827    45.627995    20.540941    89.802686    108.40062    90.464311 
  449500    253.78132   -9647.2471   -8631.3026   -9647.2471            0    7050.9151    18.148968    45.703076    19.334271  -0.58170529   -6.6262096    0.3248527    16037.076     6046.251    8192.9699    6913.5244   -921.70112     1023.928   -1879.8203    18.148968    45.706778    20.440798    88.853051    108.91505    90.729217 
  450000    258.82034   -9697.0624   -8660.9456   -9697.0624            0    6040.0106    18.004816    46.218846    19.298206   -0.3039353   -6.5673906  0.072191993     16059.23     5617.164    5637.9988    6864.8689     69.44821    453.68654   -6.7517928    18.004816    46.219845    20.385205    89.675714    108.79388    90.376772 
  450500    253.16676   -9677.7234   -8664.2392   -9677.7234            0    5163.0081    17.930972    46.177641    19.447162   0.30310527   -6.4106154  -0.12618482    16102.444    5268.2862    5560.6371     4660.101   -61.465718   -179.82202    676.45687    17.930972    46.178636    20.476914    90.470808    108.24407    89.623922 
  451000    253.42206   -9648.3563   -8633.8501   -9648.3563            0    5607.0642    18.243136    45.393625    19.427962  -0.26600674   -6.3777041  0.077433888    16088.725    4401.5985    5979.0218    6440.5721    677.44843   -735.15128   -248.77308    18.243136    45.394404     20.44815    89.678314    108.17355     90.33575 
  451500    263.65077   -9703.4929   -8648.0388   -9703.4929            0    7155.4807    18.099144    45.543965    19.438379  -0.86449049   -6.5154308   0.17718278    16023.187     6938.637     7205.195    7322.6102    214.27996   -743.58371   -518.47254    18.099144    45.552169    20.502019    89.159339     108.5296    91.087426 
  452000    254.43698   -9672.8739   -8654.3047   -9672.8739            0    6094.8646    17.986204    46.118716    19.316215  -0.35535619   -6.6606915    0.1383698    16022.813    6013.0741    5672.8863    6598.6334   -128.41687   -368.21612   -153.32875    17.986204    46.120085     20.43282    89.468092    109.02496     90.44147 
  452500    257.50452   -9668.2637   -8637.4144   -9668.2637            0    6830.5655    18.028658     46.02944    19.300818  -0.04957977   -6.5821955  0.073396803    16016.765    6733.5948    6526.3738    7231.7279   -889.38284    415.55846   -132.32514    18.028658    46.029467    20.392456     89.77386    108.83089    90.061715 
  453000    251.70966   -9701.1196   -8693.4685   -9701.1196            0    6724.3962    18.044458    45.580965    19.431484  -0.44735878   -6.3488885  0.090328759    15982.081    7072.0585    6667.1883    6433.9417    371.98591   -238.81221     705.1628    18.044458     45.58316    20.442581    89.572201    108.09369    90.562317 
  453500    257.49452   -9669.8918   -8639.0825   -9669.8918            0    7230.7329    17.953419    45.814865    19.478367  -0.46409711   -6.2169408   0.24155783    16021.609    7762.3746    6887.5468    7042.2774   -553.22609   -116.77443   -894.61899    17.953419    45.817215    20.447872    89.146694    107.70033    90.580377 
  454000    267.85159   -9657.9304   -8585.6595   -9657.9304            0    7293.3383    17.904662    46.454845    19.186133  -0.27065472       -6.494   0.12662099    15958.226    6731.6806    6562.0683    8586.2659    129.53354    143.85972     350.7112    17.904662    46.455633    20.255759    89.534819    108.69922    90.333812 
  454500    259.55209   -9668.0611   -8629.0149   -9668.0611            0    7261.1653    18.023353    45.889641    19.354122 -0.0023249016   -6.8259269 -0.038667133    16007.508    7653.9529    6463.7631    7665.7799    328.18655    374.47188   -129.22979    18.023353    45.889641    20.522593    90.106987    109.42699    90.002903 
  455000    246.73429   -9672.8003   -8685.0667   -9672.8003            0    5988.2888    18.223458    45.406228    19.449701  -0.22297415   -6.7558922  0.063399766     16093.82    5812.6549    6693.5465     5458.665   -796.02472    350.49762    280.84443    18.223458    45.406776    20.589729    89.731258    109.15468    90.281357 
  455500    244.99246   -9711.4379   -8730.6772   -9711.4379            0    4743.1517     18.06667    45.817308    19.439404  -0.48966122   -6.3931156   0.20746878    16091.281    5615.2533     4872.386    3741.8158    663.35502   -275.67783    164.37345     18.06667    45.819924    20.464736    89.227872    108.20373    90.612311 
  456000    254.41174   -9702.8948   -8684.4266   -9702.8948            0     4431.032    18.039833    46.196413    19.380638  -0.27229124   -6.3471024   0.04434183     16151.35    4381.8359    4897.0243    4014.2358   -106.11875    610.47026    322.47412    18.039833    46.197216    20.393548    89.770318    108.13343    90.337709 
  456500    260.30303   -9694.3368   -8652.2845   -9694.3368            0    5753.3589    18.055617    45.875414    19.417195  0.056145063   -6.5762711  -0.10552144    16083.435    5859.7864    5749.9634    5650.3269   -113.28559   -685.81644    660.32897    18.055617    45.875448    20.500876    90.317406     108.7101    89.929878 
  457000     250.9129   -9694.6546   -8690.1931   -9694.6546            0     5537.467    18.126849    45.577572    19.481356  -0.18639427   -6.8684577  0.048193423    16095.063    6564.4366    6083.9263    3964.0381   -286.97078    865.90993    133.03306    18.126849    45.577953    20.656749    89.788415    109.42085    90.234316 
  457500    253.62792   -9679.4238   -8664.0934   -9679.4238            0    6082.4691    18.167136    45.896951    19.268818  -0.95560709   -6.7575453   0.27108821    16066.652    5346.5348    5815.1176     7085.755    1363.6428     636.7117   -1097.3197    18.167136    45.906898    20.421196    88.844826    109.32392    91.192766 
  458000    246.23541   -9709.2327   -8723.4962   -9709.2327            0    6210.8971    17.928534    46.096565    19.418717  -0.48613661   -6.3133457  0.053196208    16048.479    5886.1506    6132.3663    6614.1745   -111.81895   -383.95613   -461.94905    17.928534    46.099129    20.419298    89.663927    108.01014    90.604222 
  458500    250.57864   -9657.3907   -8654.2673   -9657.3907            0    5981.2223    18.080699    45.965742    19.376715   0.38587046   -6.2776178  -0.02041865    16103.848    5872.8904     5354.696    6716.0804   -539.66888   -1060.3282   -575.32246    18.080699    45.967362     20.36826    90.205673    107.95114    89.519028 
  459000    258.33089   -9664.6158   -8630.4583   -9664.6158            0    5752.7272    18.102365    45.871528    19.413053  -0.34640816   -6.4822825   0.10753293    16120.273    6073.2148     5529.733    5655.2337    269.71864    163.61602    780.75562    18.102365    45.872836    20.467003     89.56194     108.4646    90.432672 
  459500    240.20975   -9704.8983    -8743.284   -9704.8983            0    5677.0095    17.996001    45.941828    19.433467   -0.7125182   -6.6587222   0.20278596    16066.992    6508.4707    5141.7633    5380.7945   -195.86683   -248.15852    -501.5062    17.996001    45.947353    20.543596    89.146483    108.91266    90.888537 
  460000    257.40713   -9652.2312   -8621.7717   -9652.2312            0    6383.2654     18.13908    45.782214    19.320847 0.0034380307    -6.709685  0.066901813    16044.944    6659.6136    5216.6922    7273.4903    353.48018     116.7352    577.81706     18.13908    45.782214     20.45286    89.813995    109.15083    89.995697 
  460500    256.27225   -9658.9534   -8633.0372   -9658.9534            0    7917.6226    18.038222    45.576897    19.375544   0.47077685   -6.4257301 -0.037071211    15929.143    7137.9022    8219.4099    8395.5557   -2141.8478   -330.04637   -298.50854    18.038222    45.579328    20.413307    90.290332    108.34762    89.408196 
  461000    258.20275   -9695.0038   -8661.3594   -9695.0038            0    5945.8777     17.97341    45.805164    19.426577  -0.23037204   -6.3335354 0.0080975758    15993.414    7033.8381    6570.0809     4233.714    974.31082    -283.0635   -318.81276     17.97341    45.805744    20.432954    89.887974    108.05722     90.28816 
  461500    256.21678   -9679.3002   -8653.6061   -9679.3002            0    6085.4868    18.119997    45.918814    19.278042  -0.40304548   -6.4951189   0.20905608    16040.271    5844.6051    6063.3517    6348.5035   -246.59147    264.37379    586.15413    18.119997    45.920583    20.343873    89.250668    108.61858    90.502892 
  462000    259.17275   -9642.9087   -8605.3811   -9642.9087            0    7234.9784    18.010176    45.833489     19.39285  -0.23884502   -6.5767575   0.11143867    16008.201    7732.1248    7135.4132    6837.3971    453.69767   -218.86204   -1005.8226    18.010176    45.834112    20.478007    89.592314    108.73321    90.298574 
  462500    268.39751   -9680.6602   -8606.2038   -9680.6602            0    6781.4723    18.045133    45.762861    19.371081   0.19208958    -6.569873 -0.067287991    15996.579    7440.9735    5803.8294    7099.6139   -473.93485    -387.8683    381.26344    18.045133    45.763264    20.454988    90.265722    108.73471    89.759502 
  463000    258.39035    -9687.653   -8653.2576    -9687.653            0    7182.5349    18.132372    45.624673    19.308374  0.051598706   -6.3475217   0.17072786      15973.5    5166.2437    8381.4498    7999.9113    677.40486    314.43034   -337.44066    18.132372    45.624703    20.325686    89.538969    108.19733    89.935202 
  463500    247.93628   -9610.6161   -8618.0707   -9610.6161            0    5800.1771     17.94213    45.883097    19.495535   -0.8110451   -6.2796694   0.17511789    16049.514    6228.0609    6509.2883    4663.1822    1904.8626   -71.948867    552.17125     17.94213    45.890265    20.482695    89.199744    107.85349    91.012674 
  464000    249.36343   -9638.9648   -8640.7062   -9638.9648            0    5740.7319    18.088178    46.007381    19.363869  -0.18006635   -6.4858945   0.12000926    16114.413    5176.4074    6148.1737    5897.6145   -660.01785   -9.4827768    -94.41178    18.088178    46.007734    20.421574    89.592075    108.51785    90.224246 
  464500    247.06199   -9697.5727   -8708.5272   -9697.5727            0    6009.9879    18.086985    45.790087    19.385191   0.11833101   -6.7111803  0.045502112    16054.905    6456.9971    5842.5058    5730.4608   -665.86303   -86.820067    868.66693    18.086985     45.79024    20.514084    89.921352    109.09588    89.851936 
  465000    259.18808   -9712.8192   -8675.2302   -9712.8192            0    5379.1503    18.013392    45.983718    19.441234  -0.66742596   -6.6809663 -0.001584059    16103.616     5373.583    5892.8334    4871.0345    454.30758    469.92302    871.59084    18.013392    45.988561    20.557162    89.734172    108.96525    90.831555 
  465500    254.28672   -9686.3885   -8668.4208   -9686.3885            0    4394.3991      18.0982    46.275662    19.286794  -0.37819294   -6.3126847   0.25548717    16152.809    4514.7863    3472.5206    5195.8904   -150.48468   -196.73311   -547.62292      18.0982    46.277207    20.295214    89.133078     108.1221    90.468246 
  466000    253.14901   -9702.9303   -8689.5171   -9702.9303            0    5239.6478    18.066389    45.614236    19.537096  -0.02754538   -6.2106993  0.085076778    16100.219    5127.4921    5473.2783     5118.173    283.48749   -389.18769   -1069.1442    18.066389    45.614244    20.500686    89.751743    107.63492      90.0346 
  466500    248.41247   -9665.6955   -8671.2437   -9665.6955            0    6245.7766    18.130909    45.577627    19.422407  -0.15321224   -6.5493701  -0.16465307    16049.974    6511.4441    5903.5386    6322.3472   -123.91957    314.99377   -668.44246    18.130909    45.577885    20.497592    90.398706    108.63384    90.192603 
  467000    273.76083   -9677.2299   -8581.3029   -9677.2299            0    5975.3187    18.072863    46.097269    19.293828  -0.16461547    -6.780468   0.20885438    16073.874    6223.7365     5852.356    5849.8636   -916.10403    472.76928   -13.246267    18.072863    46.097563    20.451655    89.347045    109.36206    90.204605 
  467500    251.28907   -9653.3938   -8647.4264   -9653.3938            0    6350.1589    18.056678    45.902115    19.397693  -0.59098366   -6.6543706   0.18783191    16077.578    5939.3434    6864.8418    6246.2914    636.24211    1141.1723   -668.88292    18.056678     45.90592    20.508203     89.23592    108.93369    90.737635 
  468000    248.71409   -9669.1134   -8673.4543   -9669.1134            0    6034.3641    18.124977    45.733809    19.374941  -0.38208352   -6.4431221   0.14124364    16060.358      4375.76    7083.8401    6643.4921   -356.62914   -501.00295    822.23084    18.124977    45.735405     20.41867    89.452627    108.39405    90.478667 
  468500    247.59769   -9694.4242   -8703.2342   -9694.4242            0    6388.2167    17.970417    45.899718    19.424996   0.19252696   -6.2956863   0.08264781    16022.456    6866.9852    6868.3949      5429.27   -637.25994    28.039851    526.58313    17.970417    45.900121    20.419915    89.842197    107.95748    89.759674 
  469000    263.98117   -9659.2622   -8602.4854   -9659.2622            0    6196.2297    18.006997     46.23606    19.277753  -0.43390578    -6.439211  -0.13590901    16050.128    5560.5657    6004.5325    7023.5908    1302.8772   -214.75331    1490.5792    18.006997    46.238096    20.325198    90.212765    108.47007    90.537681 
  469500    262.38583   -9684.9965   -8634.6062   -9684.9965            0    6217.1072    18.160936    45.705722    19.351569  -0.66409759   -6.8210692   0.29284224    16062.938    6484.1174    6203.7866    5963.4177    219.34495     965.6521   -1818.9912    18.160936    45.710546    20.520623    88.905679    109.41455    90.832441 
  470000    257.82188   -9678.6224   -8646.5026   -9678.6224            0    5662.9943    18.081779    45.701808    19.459547  -0.36499951   -6.7458149   0.22254527    16080.786    5910.0882    6556.1678    4522.7267   -501.49323    988.35817    380.50876    18.081779    45.703265    20.596832     89.23106    109.11814    90.457586 
  470500    250.36878    -9683.326   -8681.0427    -9683.326            0    4384.0127    18.056989    46.176406    19.326203 -0.060172531   -6.3059373 -0.031118775    16114.321    3749.5657    4466.3753    4936.0971   -75.208125   -348.98184    1020.3745    18.056989    46.176445    20.328992    90.064546    108.07094    90.074662 
  471000    273.58162   -9726.8499   -8631.6403   -9726.8499            0    5367.4822    17.953477    46.139341    19.418449 -0.064245894   -6.1647734   0.11568801    16085.497    4455.2641    5824.6171    5822.5653    262.17239   -616.64198     -621.951    17.953477    46.139386    20.373855    89.650518    107.61278     90.07978 
  471500     257.0605   -9646.6979   -8617.6262   -9646.6979            0    4737.1889    18.165449    45.807379     19.39775  -0.74858083   -6.4738838   0.23315843    16141.093    4191.0094    4784.2625    5236.2949    1087.2749   -728.57514    409.22567    18.165449    45.813496    20.450874    89.050459    108.45488     90.93624 
  472000    267.63932   -9623.5924   -8552.1712   -9623.5924            0    6154.4966    18.112995    45.587923    19.477286  -0.41226224   -6.8389636   0.17433551    16083.054    5566.4222    6847.5952    6049.4725    56.185136    742.43804   -110.04345    18.112995    45.589787      20.6438    89.344502    109.34674    90.518125 
  472500    256.91383   -9637.8835   -8609.3989   -9637.8835            0    5768.3064    18.006901    46.152099    19.351027   0.19323294   -6.7506191 -0.019261915    16081.793    5731.7596    5520.1386     6053.021   -915.00917    171.35887   -606.84529    18.006901    46.152504    20.494718    90.132864    109.23135    89.760111 
  473000    251.98813   -9656.5278   -8647.7619   -9656.5278            0    7287.8864    18.024475    46.108896     19.27897  -0.18602756   -6.3636968  0.064408339    16022.533    7748.5855    7325.7017     6789.372    630.60882    76.187191    393.77127    18.024475    46.109271    20.302204    89.745774    108.26718     90.23116 
  473500    260.15634   -9651.9217   -8610.4566   -9651.9217            0    5996.3617    17.980563    45.803636    19.470527  -0.61474425   -6.2460292   0.16090732    16035.442    5264.7547    7577.6431    5146.6872   -53.870845   -181.59333    173.40349    17.980563    45.807761    20.448476    89.314302    107.78536    90.768938 
  474000    247.46046   -9698.4498   -8707.8092   -9698.4498            0     6820.551    18.124368    45.789705    19.271256  -0.39032361   -6.4798751   0.13708506    15993.398    6176.8894    6631.1904    7653.5731     870.5415    83.005065     750.2726    18.124368    45.791369    20.331967    89.458048    108.58455    90.488393 
  474500    257.85122   -9682.8872     -8650.65   -9682.8872            0    6401.0839     17.97851    45.877982    19.414673   0.31473162   -6.7290012 -0.031348228    16013.567      6156.74    6638.8719    6407.6399   -1187.5583     578.4892   -778.02359     17.97851    45.879061    20.547748    90.216127    109.11597    89.606946 
  475000    256.05273   -9645.6516   -8620.6142   -9645.6516            0    7245.0759    18.081591    45.937182    19.280144  -0.38922322   -6.5770414 -0.070804315    16014.422    6209.5299    7546.3472    7979.3505    500.74055   -194.29056   -210.90148    18.081591    45.938831    20.371216    90.042405    108.83595    90.485452 
  475500    251.87937   -9747.4413   -8739.1108   -9747.4413            0    5727.0588    18.113136     45.73755    19.348156  -0.67526728    -6.275838   0.31048079    16028.989    4171.5465    6081.6967    6927.9331   -58.612381   -290.48102   -848.90374    18.113136    45.742534    20.342903    88.864614    107.96901    90.845851 
  476000    255.65949   -9656.6888   -8633.2256   -9656.6888            0    5953.3699    18.004091    45.795575    19.427693  -0.23190324   -6.3973652   0.20523149    16018.282    6157.0098    5912.0597    5791.0401   -536.81838   -432.60903   -497.98076    18.004091    45.796163    20.454917    89.334382     108.2253    90.290136 
  476500    243.89508   -9689.3214   -8712.9538   -9689.3214            0    6661.1517    18.011013    45.924561    19.329341 -0.038218324   -6.6806189 -0.040681694    15988.224    6851.0213    6835.0207    6297.4131   -774.79213    1144.0635    466.51899    18.011013    45.924577    20.451302    90.098397    109.06617    90.047681 
  477000    255.85738   -9625.6057   -8601.3503   -9625.6057            0    6251.1466    18.090175    45.506437    19.481398  -0.26074594   -6.6847302   0.12057187    16037.465    6472.8858    6383.5681    5896.9858   -514.22833    398.31654    913.01317    18.090175    45.507184    20.596724    89.558047     108.9385    90.328294 
  477500     249.6482   -9630.9924   -8631.5938   -9630.9924            0    4751.3657    18.153091    45.635494    19.461682  -0.68467445   -6.3785985   0.16626484    16122.549    3622.1162    4805.4951    5826.4857    348.53354   -369.10083    535.10643    18.153091     45.64063    20.480996    89.267217    108.14602    90.859551 
  478000    256.84076   -9652.9209   -8624.7288   -9652.9209            0    6115.4732    18.001837    46.172544    19.318447  -0.25620777   -6.2273497  0.075345022    16057.312    5282.9523    5324.1094     7739.358   -127.32396   -818.22295     1519.111    18.001837    46.173254    20.297487    89.689777    107.86673    90.317926 
  478500    251.25493   -9650.0824   -8644.2516   -9650.0824            0    5320.6566    17.991659    46.168098    19.442535   0.13966669   -6.5193545 -0.0092130879    16149.761    5132.7893    5506.5323    5322.6482    -473.0631   -716.55398    302.31481    17.991659    46.168309    20.506444    90.080846    108.53702    89.826671 
  479000    249.72699   -9690.5982   -8690.8841   -9690.5982            0    4392.4273     18.18805    45.864485    19.427202  -0.23224946   -6.8150002   0.06159079    16205.891    4837.8593    3587.8473    4751.5754   -227.30966   -406.71932   -44.174136     18.18805    45.865073    20.587962    89.732557    109.33062    90.290133 
  479500    235.18355   -9729.8571   -8788.3638   -9729.8571            0    4875.2142    18.146723    45.763897    19.412338  -0.39881664   -6.7750943   0.17966208    16121.263    4028.0128    5737.3641    4860.2656    -435.8968     527.9661   -192.63382    18.146723    45.765635    20.561445    89.334844    109.23872      90.4993 
  480000    252.83347   -9685.9476   -8673.7976   -9685.9476            0    5033.2064    17.942363    46.244813    19.387511  -0.44706128   -6.3986932   0.11342961    16086.618    4835.2946    5469.3893    4794.9352    401.79026    314.33484    -615.2167    17.942363    46.246974    20.416457    89.508098    108.26477    90.553877 
  480500    257.95338   -9633.0332   -8600.3871   -9633.0332            0    6736.9149    18.062234    46.135884    19.238568 -0.062438684   -6.2245839   0.10627491    16031.829    5799.7564    6392.3962     8018.592   -1293.8704   -1148.7356    16.509352    18.062234    46.135926    20.220763    89.674997    107.92858    90.077542 
  481000    254.92057   -9727.2257   -8706.7205   -9727.2257            0    6817.5005    18.090409    45.093608    19.563087  -0.20394507   -6.4787251 -0.041245849    15958.819    7138.1685    6423.9031    6890.4298    857.64336   -679.15301   -160.00779    18.090409     45.09407    20.608007    90.033209    108.32333     90.25913 
  481500    242.18107   -9668.1537   -8698.6477   -9668.1537            0    6252.3864    18.161713    45.522208    19.424167  -0.25244535   -6.7968467   0.10167274     16059.15     6480.167    6789.1096    5487.8826   -87.450667    531.54741     1240.877    18.161713    45.522908    20.579255     89.61199    109.28557    90.317733 
  482000    236.67765   -9661.3528   -8713.8782   -9661.3528            0     6543.533    18.033581    46.120676    19.264455  -0.24068402   -6.7153307   0.22044591     16022.65    7588.7872    5572.9395    6468.8722    -132.0698   -449.37778   -988.64035    18.033581    46.121304    20.402536    89.282506     109.2167    90.298999 
  482500    257.21339   -9647.1159   -8617.4321   -9647.1159            0     5406.441    17.993754    45.999573    19.467679  -0.37838272   -6.5089279   0.10584645    16113.496     6170.116    4756.8376    5292.3694    645.75259   -334.61281    313.23136    17.993754    46.001129    20.527247    89.555127    108.48686    90.471292 
  483000    250.06092   -9709.4048    -8708.354   -9709.4048            0    4998.4956    18.163059    45.604499    19.418733  -0.28189932   -6.3463503  0.032374351    16084.871    4923.1306    5524.5433     4547.813    250.70242   -500.34925    327.40246    18.163059    45.605371    20.429499    89.799187    108.09819    90.354163 
  483500    253.52455   -9653.8322   -8638.9156   -9653.8322            0    4396.0562    18.129191    45.853096     19.42175   0.18977848   -6.3154577   0.23693704    16144.904    4568.6306    4770.5872    3848.9507   -844.81231    -123.2423   -758.26511    18.129191    45.853489     20.42414    89.408642    108.01195    89.762863 
  484000     254.9772    -9668.187   -8647.4552    -9668.187            0    5561.5259    17.898234    46.533828    19.322482   -0.4255266   -6.7339006 -0.052140222     16093.18    6095.4595    4526.5019    6062.6161    336.48851    485.84986   -164.66746    17.898234    46.535774    20.462318    89.973575    109.21342    90.523924 
  484500    256.41993    -9659.186   -8632.6786    -9659.186            0    7167.2902    18.099927    45.938045    19.296541  -0.45740398    -6.792266   0.15056675    16044.597    7720.4125    6906.2498    6875.2081   -673.16363     44.51497    70.313618    18.099927    45.940322    20.457616    89.388912    109.39121    90.570474 
  485000    254.27512    -9681.352   -8663.4307    -9681.352            0    5915.9274    18.144407    45.317638    19.540393  -0.24701046   -6.5469142   0.15930518    16067.316    5983.2735    6458.1325    5306.3761   -269.41941    840.95446   -377.47052    18.144407    45.318311    20.608601    89.457891     108.5226    90.312296 
  485500    257.43559   -9619.4968   -8588.9234   -9619.4968            0    6293.5237    18.027718    45.951238    19.392223  -0.23828813   -6.3135059 -0.045007851     16064.44    5850.6194    6365.1066    6664.8452    237.38022   -604.44958    137.25554    18.027718    45.951856    20.394134    90.034466     108.0336    90.297115 
  486000    249.24118    -9663.901   -8666.1318    -9663.901            0    6636.2928     18.04657    46.153353    19.221053  -0.20767524   -6.5017583   0.12877436    16009.402    7206.9154    5348.4385    7353.5245    342.50003    -162.6848    769.05647     18.04657     46.15382    20.291336    89.553777    108.68835    90.257811 
  486500    249.07582   -9691.5832   -8694.4759   -9691.5832            0    6268.8789    18.103915    45.552542    19.439691  -0.58163089   -6.9377243   0.23338108    16031.511    6708.1698    5791.4522    6307.0148   -331.78675    176.17623   -459.45533    18.103915    45.556255    20.641901    89.106359    109.63939    90.731533 
  487000    247.30025   -9622.9234   -8632.9242   -9622.9234            0    6701.8912    18.131282    45.534268     19.49248  -0.41459151   -6.8141201  0.062190987    16092.887    7372.1223    7271.1633    5462.3881     59.23851    29.568557    937.25279    18.131282    45.536156    20.649282    89.655299    109.26836    90.521666 
  487500    250.76198   -9680.9824   -8677.1251   -9680.9824            0    6577.7816    18.094094    46.049185    19.252888   0.27070143   -6.4053609  0.091242461    16041.858    6400.4745    6182.0111    7150.8593    -506.5552   -360.14398   -575.02046    18.094094    46.049981    20.290655    89.848682    108.40189    89.663189 
  488000    264.33867   -9676.2508   -8618.0428   -9676.2508            0    5879.0706    17.970985    45.957575    19.467831   -0.1942991     -6.27176  0.057928704    16078.538    5832.8469    5238.2814    6566.0836   -184.66539   -148.62659    196.86566    17.970985    45.957986    20.453234    89.763447     107.8568    90.242233 
  488500     266.9401   -9676.4003   -8607.7782   -9676.4003            0    6233.0687    18.119355    45.583662    19.430255  -0.57173972   -6.4970393  0.066665669    16048.352    7041.8352    5934.5884    5722.7824   -312.16644   -763.10417    903.56405    18.119355    45.587248     20.48782      89.5857    108.48867    90.718603 
  489000    254.52554   -9692.4287   -8673.5049   -9692.4287            0     5114.452    18.098224    45.819901    19.392178  -0.11236641   -6.8842314   0.20958073    16081.135    5791.4076    4945.0391    4606.9093   -657.79892   -198.75676   -1046.4162    18.098224    45.820039    20.578949    89.369472    109.54383    90.140509 
  489500    255.43095    -9636.609   -8614.0607    -9636.609            0    6844.6887    17.944323    46.116954    19.350866  -0.12709031   -6.8743042 -0.045194635    16013.568    7277.3524    6803.4874    6453.2264   -663.04384    438.19231     1683.121    17.944323    46.117129    20.535679     90.07324    109.55729    90.157897 
  490000    254.21782   -9615.1861   -8597.4943   -9615.1861            0    7519.8633    18.114608    45.965636    19.221957  -0.49505481   -6.2952898  -0.10087373    16005.152     7265.843    7507.1416    7786.6053   -1077.0994   -462.29342    1475.3874    18.114608    45.968302    20.226826    90.093679    108.13365    90.617058 
  490500     255.0136   -9650.2166   -8629.3391   -9650.2166            0    7771.2115    17.971518    45.670552    19.434807  -0.12089701   -6.2389283    0.2477535     15951.49    7852.6839    8702.9529    6757.9977   -381.17746    966.38574   -94.274975    17.971518    45.670712    20.413165    89.258231    107.79623     90.15167 
  491000     265.6906   -9695.4204   -8631.8004   -9695.4204            0    6725.1684    18.078785    45.799215    19.309733   -0.4619502   -6.5637541  0.085979815    15988.346    7171.9489    7431.2165    5572.3397    366.73707     535.1494   -20.113718    18.078785    45.801544    20.395001    89.572485    108.77372     90.57789 
  491500    254.00546   -9675.6351   -8658.7933   -9675.6351            0    6349.6735     18.07268    45.849552    19.349789  -0.26208395   -6.7660557 -0.012371015    16033.704    7483.6722    5738.2683    5827.0799    872.65517    313.53561   -212.22942     18.07268    45.850301    20.498634    89.926476    109.27324    90.327509 
  492000    261.45538     -9645.68   -8599.0146     -9645.68            0     6310.686    18.029248    45.755816    19.470024  0.030749394   -6.5883656   0.14800285    16061.659    5922.1979    6664.9561    6344.9039    175.29907    530.07948      672.841    18.029248    45.755826    20.555056    89.599791    108.69455    89.961495 
  492500    242.89379   -9664.1633   -8691.8041   -9664.1633            0    5384.9919    18.110249    45.976406     19.33268  -0.63745374   -6.2793261  0.027184635    16097.243    5705.8948      5119.42    5329.6608    573.17352    86.028436    997.24129    18.110249    45.980825    20.326908    89.678002    107.99397    90.794344 
  493000    250.91517   -9695.3421   -8690.8715   -9695.3421            0    4319.8114    18.027924    46.082601    19.431846  -0.26904927   -6.2890276   0.17727297    16143.466    3680.7021    4682.5418    4596.1902   -677.30175   -480.10527   -831.72393    18.027924    46.083386    20.424983    89.399716    107.93324    90.334513 
  493500    254.18088    -9684.354     -8666.81    -9684.354            0    4864.3819    18.111561    45.772782    19.455142  0.079394307   -6.5718688   0.20842486    16128.634    5824.3581    4339.1118    4429.6758    -0.889276    -508.9758   -1106.0768    18.111561    45.772851    20.536198    89.450293    108.66377    89.900619 
  494000    248.96819   -9638.2445   -8641.5681   -9638.2445            0     6815.691    18.154631    45.688591    19.325425  -0.49045772   -6.8188481  -0.16872754    16029.658     6995.265     6898.926    6552.8821    44.589298    1005.7158    1365.9411    18.154631    45.691223    20.493834     90.26706    109.43437    90.615035 
  494500    261.62603   -9672.0821   -8624.7335   -9672.0821            0    6505.6859    17.965103    45.908205    19.379909 -0.063441924   -6.4974815   0.25313707    15983.495    6600.5139    6946.5083    5970.0356    463.31416    515.94935   -80.983787    17.965103    45.908249    20.441678    89.265298    108.53323    90.079179 
  495000    253.13176   -9667.7683   -8654.4241   -9667.7683            0    7010.8033    18.024394    45.903863    19.323752  -0.53593434   -6.3687435  0.077159036    15988.267    7830.0647    6973.6158    6228.7295    1265.6861   -203.95162    366.77845    18.024394    45.906991    20.346357    89.573355    108.24111    90.668906 
  495500    246.31497   -9695.5182   -8709.4633   -9695.5182            0     5362.809    18.091498    45.708401    19.406597  -0.16279954   -6.4816277    0.1274187    16047.964     4890.949    6055.0351    5142.4429    163.50562    584.85108   -469.90958    18.091498    45.708691    20.460785    89.578546    108.46848    90.204069 
  496000    254.62276   -9641.7825   -8622.4695   -9641.7825            0    6084.2046     17.99834    46.011856    19.419025 -0.059569107   -6.6110393   0.19444494    16081.613     6348.279    5721.0707    6183.2642   -569.14147   -307.62552   -285.66605     17.99834    46.011895    20.514438    89.433012    108.79982    90.074178 
  496500    263.52108   -9673.7012   -8618.7663   -9673.7012            0     6535.081    18.078594    46.063186    19.287384  -0.79503253    -6.735242 -0.035848068    16061.716    6793.1448    5736.3041    7075.7941    1718.5722    1138.4872    822.52493    18.078594    46.070047    20.429586    89.774548     109.2494    90.988805 
  497000    253.38218   -9663.8593   -8649.5127   -9663.8593            0    6245.0344    18.024059    45.657392    19.506542  0.099076271   -6.4989957   0.23754386    16052.548    6609.2116    6048.5975    6077.2942   -1073.3013    200.34592   -769.64761    18.024059    45.657499    20.562065    89.377375    108.42526    89.875669 
  497500    255.27222   -9706.9142   -8685.0013   -9706.9142            0    6443.0236    18.107338    45.571931    19.370277  -0.16745206   -6.3127853  0.006074233    15984.088    5990.3494    6750.0036     6588.718    160.82758   -490.41091    958.24191    18.107338    45.572239    20.372995    89.917683    108.05082     90.21053 
  498000    252.99826    -9700.662   -8687.8523    -9700.662            0    6590.9819    18.040314    45.856413    19.337928  -0.41907435   -6.3918239  0.031465388    15997.574    7232.2014    6358.6641    6182.0802   -121.03606   -337.55357    360.86938    18.040314    45.858328    20.366931    89.747164     108.2904    90.523602 
  498500    258.06947   -9660.1779    -8627.067   -9660.1779            0    7138.5006    17.988392    46.003252    19.315891 -0.059591704   -6.6147113   0.27355649    15984.373    7137.8896    6721.9808    7555.6313    458.77248   -21.516332    372.12617    17.988392     46.00329    20.418934    89.208329    108.90197     90.07422 
  499000    253.10567   -9673.6633   -8660.4236   -9673.6633            0    6932.3613     18.05352    45.836055     19.31374   -0.6402371   -6.6118503  -0.04527087    15982.161    7616.9869    5857.4698    7322.6272     619.7924    -698.6606   -331.00372     18.05352    45.840526    20.414191    89.867866    108.89804    90.800254 
  499500    257.73639   -9645.9432   -8614.1657   -9645.9432            0    7276.1414    17.992808    45.678972    19.473172 -0.056785302   -6.4396409   0.20998971    16004.864    7464.9588    7495.8792    6867.5862   -1213.7537    482.66631   -2356.4838    17.992808    45.679007      20.5114     89.39105    108.29769    90.071227 
  500000    248.12965   -9673.6928   -8680.3733   -9673.6928            0    7375.6545    18.046599    45.900381     19.30409   -0.1328924   -6.4049672   0.15528803    15990.461    7998.4523    6143.3625    7985.1487   -856.17904   -1237.9958   -1087.8524    18.046599    45.900573    20.339508    89.510317    108.35494    90.165884 
Loop time of 1120.91 on 42 procs for 500000 steps with 2016 atoms

Performance: 38.540 ns/day, 0.623 hours/ns, 446.065 timesteps/s
99.6% CPU use with 42 MPI tasks x 1 OpenMP threads

MPI task timing breakdown:
Section |  min time  |  avg time  |  max time  |%varavg| %total
---------------------------------------------------------------
Pair    | 186.47     | 204.39     | 231.49     |  79.6 | 18.23
Bond    | 0.55432    | 0.59152    | 0.62422    |   3.1 |  0.05
Kspace  | 489.66     | 522.82     | 542.32     |  54.4 | 46.64
Neigh   | 8.786      | 9.3397     | 9.8989     |  10.5 |  0.83
Comm    | 152.58     | 160.77     | 172.05     |  34.7 | 14.34
Output  | 3.4916     | 3.4933     | 3.506      |   0.1 |  0.31
Modify  | 193.13     | 209.35     | 217.2      |  40.6 | 18.68
Other   |            | 10.15      |            |       |  0.91

Nlocal:        48.0000 ave          53 max          42 min
Histogram: 2 3 3 7 3 4 5 6 5 4
Nghost:        3117.98 ave        3166 max        3053 min
Histogram: 3 3 4 4 0 3 6 9 5 5
Neighs:        15942.5 ave       17554 max       14103 min
Histogram: 3 1 6 6 2 5 5 6 5 3

Total # of neighbors = 669587
Ave neighs/atom = 332.13641
Ave special neighs/atom = 2.0000000
Neighbor list builds = 11926
Dangerous builds = 0


write_restart   restart.equil
System init for write_restart ...
PPPM initialization ...
  extracting TIP4P info from pair style
  using 12-bit tables for long-range coulomb (../kspace.cpp:340)
  G vector (1/distance) = 0.3780221
  grid = 25 48 36
  stencil order = 5
  estimated absolute RMS force accuracy = 0.0026111626
  estimated relative force accuracy = 7.8634385e-06
  using double precision FFTW3
  3d grid and FFT values/proc = 6615 1092
Last active /omp style is kspace_style pppm/tip4p/omp
write_data   	water.equil.data nocoeff
System init for write_data ...
PPPM initialization ...
  extracting TIP4P info from pair style
  using 12-bit tables for long-range coulomb (../kspace.cpp:340)
  G vector (1/distance) = 0.3780221
  grid = 25 48 36
  stencil order = 5
  estimated absolute RMS force accuracy = 0.0026111626
  estimated relative force accuracy = 7.8634385e-06
  using double precision FFTW3
  3d grid and FFT values/proc = 6615 1092
Last active /omp style is kspace_style pppm/tip4p/omp
Total wall time: 0:18:42
