LAMMPS (30 Jul 2021)
Processor partition = 0
  using 2 OpenMP thread(s) per MPI task
using multi-threaded neighbor list subroutines
variable        pid world 0 1
variable        phase world IceII IceVI

shell cd ${phase}
shell cd IceII
include Restart.lmp
echo both
log log.lammps
#include		in.partitions
include		in.temp
variable        temperature equal 62.99
variable	tempDamp equal 100.0
include		in.pressure
variable        pressure equal 8557.5
variable        pressureDamp equal 1000.0 # This is 1 ps
include		in.seed
variable        seed equal 745823

units		real
atom_style	full
box tilt large
read_restart	restart.lmp.${pid}
read_restart	restart.lmp.0
Reading restart file ...
  restart file = 30 Jul 2021, LAMMPS = 30 Jul 2021
  restoring atom style full from restart
  triclinic box = (-10.494412 -9.0976302 0.23248778) to (12.474412 12.087628 21.627511) with tilt (-9.1249258 1.8376683 2.6113646)
  2 by 4 by 4 MPI processor grid
  restoring pair style lj/cut/tip4p/long/omp from restart
  restoring bond style harmonic/omp from restart
  restoring angle style harmonic/omp from restart
  1296 atoms
  864 bonds
  432 angles
Finding 1-2 1-3 1-4 neighbors ...
  special bond factors lj:    0        0        0       
  special bond factors coul:  0        0        0       
     2 = max # of 1-2 neighbors
     1 = max # of 1-3 neighbors
     1 = max # of 1-4 neighbors
     2 = max # of special neighbors
  special bonds CPU = 0.002 seconds
  read_restart CPU = 0.012 seconds
include 	in.setup
variable	out_freq equal 1000
variable	out_freq2 equal 10000
variable	out_freq3 equal 1000

timestep	2.0

neigh_modify    delay 7 every 1

include		in.tip4p
# This is TIP4P/Ice

# create groups ###
group ox type 2
432 atoms in group ox
group hy type 1
864 atoms in group hy

# set charges - beside manually ###
set group ox charge -1.1794
Setting atom values ...
  432 settings made for charge
set group hy charge 0.5897
Setting atom values ...
  864 settings made for charge

# ### TIP3P Potential Parameters ###
pair_style lj/cut/tip4p/long/omp 2 1 1 1 0.1577 8.5
pair_coeff 1 1*2 0.000 0.000
pair_coeff 2 2 0.21084 3.1668
bond_style  harmonic
bond_coeff  1 450 0.9572
angle_style harmonic
angle_coeff 1 55 104.52
kspace_style pppm/tip4p/omp 1.0e-5
pair_modify tail yes

thermo          ${out_freq}
thermo          1000
thermo_style    custom step temp pe etotal epair emol press lx ly lz vol pxx pyy pzz pxy pxz pyz enthalpy

restart 	${out_freq3} restart.lmp.${pid} restart2.lmp.${pid}
restart 	1000 restart.lmp.${pid} restart2.lmp.${pid}
restart 	1000 restart.lmp.0 restart2.lmp.${pid}
restart 	1000 restart.lmp.0 restart2.lmp.0


include         in.dump
dump            myDump all atom ${out_freq2} dump.water.${pid}
dump            myDump all atom 10000 dump.water.${pid}
dump            myDump all atom 10000 dump.water.0
dump            myDump2 all dcd ${out_freq2} dump.dcd
dump            myDump2 all dcd 10000 dump.dcd
dump_modify     myDump append yes
dump_modify     myDump2 append yes


variable natoms 	equal  "count(all)"                        # NUMBER ATOMS
variable H      	equal  "enthalpy/v_natoms"                 # ENTHALPY-per-atom
variable Vol      	equal  "vol/v_natoms"                 # volume-per-atom
fix AVG all 		ave/time ${out_freq} 1 ${out_freq} v_Vol v_H file vol_enthalpy.dat
fix AVG all 		ave/time 1000 1 ${out_freq} v_Vol v_H file vol_enthalpy.dat
fix AVG all 		ave/time 1000 1 1000 v_Vol v_H file vol_enthalpy.dat


timer           timeout 10:00:00 every 1000
New timer settings: style=normal  mode=nosync  timeout=10:00:00

fix 		1 all shake 1e-6 200 0 b 1 a 1
Finding SHAKE clusters ...
       0 = # of size 2 clusters
       0 = # of size 3 clusters
       0 = # of size 4 clusters
     432 = # of frozen angles
  find clusters CPU = 0.001 seconds
fix             2 all nph tri ${pressure} ${pressure} ${pressureDamp}
fix             2 all nph tri 8557.5 ${pressure} ${pressureDamp}
fix             2 all nph tri 8557.5 8557.5 ${pressureDamp}
fix             2 all nph tri 8557.5 8557.5 1000
fix             3 all temp/csvr ${temperature} ${temperature} ${tempDamp} ${seed}
fix             3 all temp/csvr 62.99 ${temperature} ${tempDamp} ${seed}
fix             3 all temp/csvr 62.99 62.99 ${tempDamp} ${seed}
fix             3 all temp/csvr 62.99 62.99 100 ${seed}
fix             3 all temp/csvr 62.99 62.99 100 745823


run             250000
PPPM initialization ...
  extracting TIP4P info from pair style
  using 12-bit tables for long-range coulomb (../kspace.cpp:340)
  G vector (1/distance) = 0.37055889
  grid = 30 40 32
  stencil order = 5
  estimated absolute RMS force accuracy = 0.0038844234
  estimated relative force accuracy = 1.1697826e-05
  using double precision FFTW3
  3d grid and FFT values/proc = 7752 1200
Last active /omp style is kspace_style pppm/tip4p/omp
Neighbor list info ...
  update every 1 steps, delay 7 steps, check yes
  max neighbors/atom: 2000, page size: 100000
  master list distance cutoff = 10.8154
  ghost atom cutoff = 10.8154
  binsize = 5.4077, bins = 7 5 4
  1 neighbor lists, perpetual/occasional/extra = 1 0 0
  (1) pair lj/cut/tip4p/long/omp, perpetual
      attributes: half, newton on, omp
      pair build: half/bin/newton/tri/omp
      stencil: half/bin/3d/tri
      bin: standard
Setting up Verlet run ...
  Unit style    : real
  Current step  : 3500000
  Time step     : 2
  Walltime left : 9:59:59.95
Per MPI rank memory allocation (min/avg/max) = 10.66 | 10.66 | 10.66 Mbytes
Step Temp PotEng TotEng E_pair E_mol Press Lx Ly Lz Volume Pxx Pyy Pzz Pxy Pxz Pyz Enthalpy 
 3500000    69.559228   -6842.9272   -6663.9903   -6842.9272            0    8767.2726    22.968823    21.185258    21.395023    10410.828    8917.0666    8993.2236    8391.5277    178.20183    832.91408  -0.31270958   -5332.8443 
 3501000    63.579066   -6852.7782   -6689.2249   -6852.7782            0    8278.9566    23.075423    21.118039    21.387885     10422.48     8721.178    8035.7217    8079.9701   -974.47104   -769.31405    -153.7447   -5430.8137 
 3502000    63.080329   -6848.4748   -6686.2045   -6848.4748            0     8463.555    22.998797    21.278146    21.274429    10411.105    9034.4026    7704.2602    8652.0022   -469.74882   -357.46574   -594.34292   -5401.1382 
 3503000     63.42152   -6851.0541   -6687.9061   -6851.0541            0    8597.5336    23.022946    21.173783    21.325765    10395.945    8153.9944    9173.6886    8464.9177   -186.86392    459.80117    322.01838    -5384.398 
 3504000    63.524857   -6860.2336   -6696.8197   -6860.2336            0    8412.1966    23.075081    21.077188    21.412045    10413.916    8083.6118     8327.555    8825.4229    406.45695    98.944174    326.29575   -5419.2066 
 3505000     63.93899   -6857.4071   -6692.9279   -6857.4071            0    7803.4051    22.961969    21.247157    21.403374    10442.204    8592.5414    7214.8992    7602.7747   -458.54025    220.17305   -209.23689   -5504.5564 
 3506000    65.226858   -6852.1128   -6684.3207   -6852.1128            0    7920.0683    23.065215    21.205407    21.317192    10426.394    8072.5556    7370.4695    8317.1796     293.8365   -38.860574   -47.904141   -5480.0089 
 3507000    63.706752   -6853.2135   -6689.3318   -6853.2135            0    8578.2853    23.065778    21.094392    21.351359    10388.686     8146.867    8841.4073    8746.5817   -219.43256   -112.17242    293.46008   -5389.6501 
 3508000    63.431065   -6847.3517   -6684.1791   -6847.3517            0     8618.489    22.877456    21.228846    21.416299    10401.082    9804.8675    8451.0992    7599.5003    381.18835    305.18966    127.40788   -5376.8482 
 3509000    66.469672   -6847.7126   -6676.7235   -6847.7126            0    8485.8605    23.102764    21.095892    21.375235    10417.721    8452.2341    8914.8925     8090.455   -25.426749   -18.597362   -335.79692   -5387.4516 
 3510000    64.844691   -6851.8074   -6684.9984   -6851.8074            0    8418.2508    23.054162    21.166426    21.334796    10410.831    8216.4353    8081.1879    8957.1291    197.62572   -271.90334    671.02865   -5406.8445 
 3511000     62.96171    -6850.061   -6688.0959    -6850.061            0    8170.0814    23.043289     21.24923    21.273834    10416.779    8199.4737    7338.2874    8972.4833    246.49376    513.20302    351.33492   -5446.9132 
 3512000    62.652134   -6839.4762   -6678.3074   -6839.4762            0    8217.8556    23.125751    21.090341    21.397987     10436.44     8723.793    7934.4282    7995.3456   -399.46435   -286.50685   -197.94034   -5427.5106 
 3513000     65.64798   -6847.4727   -6678.5973   -6847.4727            0    9248.7193    22.949694     21.18287    21.352909    10380.511    9698.3025    9499.7072    8548.1482    543.78188   -684.48744   -251.22861   -5278.4419 
 3514000    62.432218   -6852.1178   -6691.5147   -6852.1178            0     9007.621    23.038529    21.140786    21.308418    10378.321    8740.1661    9270.5199     9012.177     439.0386   -342.09252   -22.306124   -5328.1467 
 3515000    65.083785    -6853.417    -6685.993    -6853.417            0     8517.066    23.097073    21.081595    21.376802    10408.859    8071.6786    8806.5757    8672.9437    56.276003   -251.52431   -73.932635   -5393.0807 
 3516000      62.7906   -6852.5716   -6691.0466   -6852.5716            0    7931.9073     22.95317    21.261728    21.371267    10429.693    8559.9729    7452.9408    7782.8081    -361.8299   -276.52688   -130.32858    -5484.553 
 3517000    65.911402   -6857.4449   -6687.8918   -6857.4449            0    8330.5958    23.057579    21.121934    21.366375    10405.866    8327.3559    8711.9253     7952.506   -239.94252    119.74699   -71.039497   -5423.6499 
 3518000    62.226552   -6853.1874   -6693.1134   -6853.1874            0    8615.9035    23.066465    21.133177    21.303676    10384.854    8949.0182    8133.6545    8765.0378    100.66236   -213.15419   -28.357977   -5388.2138 
 3519000    61.952699   -6847.6158   -6688.2463   -6847.6158            0    8622.3089    22.978761    21.231804    21.308844    10396.171    8557.0102    8332.1683    8977.7482    694.08264    141.78614    356.88952   -5380.9534 
 3520000    63.657424   -6853.6617   -6689.9068   -6853.6617            0    8626.9213    23.095877    21.033136    21.414934    10402.919    8214.5773    9747.5097    7918.6768    142.88147    566.00458   -519.32644   -5381.0656 
 3521000    61.643752     -6855.04   -6696.4652     -6855.04            0    8444.9181    23.018985    21.168362    21.365397    10410.807    8044.8533    8121.4986    9168.4024    603.97982    248.23441    640.29441   -5414.2654 
 3522000    63.273696   -6851.4013   -6688.6335   -6851.4013            0    7802.2231    23.043986    21.254297    21.297372    10431.106    7496.5427    7360.1055    8550.0212    494.32181   -354.17204    141.36388   -5501.7048 
 3523000    63.645135   -6856.2097   -6692.4865   -6856.2097            0    8170.1597     23.17358    21.088378    21.314905    10416.449     7438.421     8580.832     8491.226    -540.6312    46.374993   -129.57216   -5451.3312 
 3524000    69.808115   -6851.9432   -6672.3661   -6851.9432            0    8189.7484    22.943669    21.239589    21.371194    10414.484    7645.5014    8311.3793    8612.3643    315.74239    916.75796   -158.67763   -5428.4697 
 3525000    64.862497   -6842.1611   -6675.3063   -6842.1611            0    8831.5094    23.029634     21.09925    21.393532    10395.289    8912.2369    8862.3291    8719.9623   -462.01295    583.81253    697.48489   -5336.4087 
 3526000    65.052386   -6845.2429   -6677.8996   -6845.2429            0    8752.4667    23.147678    21.070578    21.336773     10406.69    8055.5732    9200.2919    9001.5351   -51.561907    175.85712    914.76093   -5349.5298 
 3527000    62.869965   -6841.3631   -6679.6339   -6841.3631            0    9167.5845    22.949248    21.279664    21.275893    10390.131    9308.3069     8717.575    9476.8716   -132.99421   -358.72292    106.61948   -5290.4753 
 3528000     62.10714   -6855.0352   -6695.2684   -6855.0352            0      8902.79    23.065237    21.084439    21.393938    10404.248    8721.0866      9395.27    8592.0134   -545.47762    166.77197    493.74912    -5344.401 
 3529000    62.202109   -6851.1055   -6691.0943   -6851.1055            0    8930.4255    22.863592    21.254157    21.406009    10402.173    9375.0791     8872.447    8543.7502   -501.79056    620.72891    -437.4263    -5336.304 
 3530000    62.679756   -6838.2727   -6677.0329   -6838.2727            0     8598.435    23.023497    21.183776    21.356599    10416.139    8841.5463     8110.348    8843.4108    159.97988    173.52725    220.83997   -5370.8558 
 3531000     63.60695   -6841.6948   -6678.0698   -6841.6948            0    8831.9576    23.086469    21.126961    21.325122    10401.263    8886.7668    8503.7515    9105.3544    15.344099     163.8994    439.77754   -5338.3347 
 3532000    64.596277   -6848.0449   -6681.8749   -6848.0449            0    8106.7957      22.8918    21.281696    21.375232    10413.507     9019.819    7979.1864    7321.3816     439.2138   -193.44967   -361.10209   -5450.6933 
 3533000     62.02295   -6849.2725   -6689.7223   -6849.2725            0    8298.5182    23.093806    21.126562      21.3751    10428.756    7961.2599    8420.2227    8514.0719   -198.64352   -5.1248732    38.178786   -5427.5781 
 3534000    62.731489   -6852.9162   -6691.5433   -6852.9162            0    8317.6912    23.049848    21.194677    21.302833     10407.16    8694.6215    8317.7502    7940.7018    261.11947   -494.65426   -235.07884   -5429.1029 
 3535000    62.381158    -6853.389   -6692.9172    -6853.389            0    8633.3951    23.019107    21.158595    21.336256    10391.865    8443.6286    8434.4714    9022.0854    380.34608    290.82094     822.7707   -5384.4856 
 3536000    63.790264   -6855.0893   -6690.9927   -6855.0893            0    8639.4724    23.050607    21.124914      21.3643    10403.177    8692.9448    7986.4298    9239.0428   -383.46578   -23.130259    7.9338866   -5380.2148 
 3537000    65.637577   -6854.1902   -6685.3415   -6854.1902            0    8150.0755    22.965443    21.226007    21.371714    10417.955    9256.9583     7724.777    7468.4912   -142.53001   -98.786581   -210.49376   -5447.0582 
 3538000    63.412102   -6848.1873   -6685.0635   -6848.1873            0    8747.5735     23.16329    21.029072     21.32886    10389.341    7516.2253    10219.052    8507.4431   -426.90992    752.10745   -379.35561   -5359.6497 
 3539000    62.999959   -6849.7489   -6687.6853   -6849.7489            0    8630.2479    23.010454    21.189863    21.348923    10409.486     9289.324    7886.2951    8715.1245   -200.04036    317.74736   -64.064479   -5377.5129 
 3540000    61.235496   -6851.2863   -6693.7617   -6851.2863            0    8242.4571    23.024057    21.222845     21.34243     10428.68    8908.2155    7211.4193    8607.7365   -422.24352   -710.72957    309.19398   -5440.1532 
 3541000    61.674858   -6850.9588    -6692.304   -6850.9588            0    8502.2697    23.088058    21.065568    21.382261    10399.542    8358.7684    8737.2331    8410.8075    166.62047   -410.23517    143.81486   -5402.7932 
 3542000    61.835935   -6845.5597   -6686.4905   -6845.5597            0    8837.3528     22.97434    21.213314    21.310839    10386.091    9439.4323    8430.7813    8641.8447    449.72071   -52.025635   -83.558533   -5347.8924 
 3543000    64.731127    -6849.819   -6683.3022    -6849.819            0    8669.7792    23.048019    21.201102    21.301413    10408.795    8283.2727    8248.3289    9477.7361    -629.1173    160.16951   -38.364906   -5367.2158 
 3544000    62.045481   -6845.9016   -6686.2934   -6845.9016            0    8438.1259    23.018801    21.154336    21.393895    10417.702    8491.7137    8350.6453    8472.0186   -90.934555   -54.578516   -121.74122   -5404.2763 
 3545000    59.533691   -6859.2378    -6706.091   -6859.2378            0    8068.1884    22.905174    21.259432    21.400155    10420.826    8730.9193    8691.4729     6782.173   -395.65366    109.89885   -493.69026   -5479.9114 
 3546000    63.415635    -6846.417   -6683.2842    -6846.417            0    8535.3219    23.151376    21.096038    21.300824    10403.371    7919.7809    8910.1277    8776.0571   -131.51562   -330.42961    59.216657   -5388.2838 
 3547000    61.516985   -6851.0641   -6692.8154   -6851.0641            0    8520.0287    23.047088    21.189405    21.291783    10397.929    8924.5276    8289.9644    8345.5942   -403.80642   -643.00502    375.25973   -5400.8116 
 3548000    64.737215   -6851.3639   -6684.8314   -6851.3639            0    8309.0907    22.929708    21.261822    21.384271    10425.417    8971.8066    7681.6185     8273.847    9.0278564   -728.06233    61.116045   -5421.4839 
 3549000    67.502451   -6854.9142   -6681.2683   -6854.9142            0     8619.809    23.061819    21.101009    21.373688    10401.027    8281.2075     8725.236    8852.9835    129.76248   -877.29521    215.39436    -5373.744 
 3550000     64.15363   -6843.2753    -6678.244   -6843.2753            0    9840.4982     23.04576    21.129376     21.25119    10348.108    9482.8725    9612.5422     10426.08    61.459422    244.67762    800.50326     -5193.15 
 3551000    67.302576   -6852.3544   -6679.2227   -6852.3544            0    8871.9282    23.060325    21.144587    21.314696    10393.069    8378.9723    9413.8489    8822.9635    648.03972   -28.258753   -765.22142   -5334.4846 
 3552000    63.159515   -6857.0505   -6694.5764   -6857.0505            0    8174.8802     23.07582    21.073572     21.44327    10427.647    8560.7036    8340.7505    7623.1864     53.78904    228.59879   -614.71725    -5451.369 
 3553000    60.903634   -6848.6193   -6691.9485   -6848.6193            0    8641.7888    23.016754    21.134523     21.40145    10410.695    8399.5579    8937.1366    8588.6719    190.10723    96.869475   -36.836042   -5379.8717 
 3554000    64.232856   -6842.9063   -6677.6712   -6842.9063            0    9195.9885    23.068205    21.179619    21.246729    10380.638    8463.3678    8664.6998    10459.898    822.00304    132.82745    371.61794   -5285.4817 
 3555000    62.438397    -6843.943    -6683.324    -6843.943            0    8758.9861    23.134777    21.049511    21.351293    10397.562    8256.4084    9579.8405    8440.7092    -24.40646   -475.68651   -222.20298   -5355.1308 
 3556000    63.712936    -6840.943   -6677.0453    -6840.943            0     8814.127    22.945894    21.178818    21.398899    10399.157    8832.2913    8884.0552    8726.0345    654.78993    75.868377   -161.55776   -5340.2857 
 3557000    63.107834   -6849.1175   -6686.7765   -6849.1175            0    8781.2789    23.051594    21.137048     21.34944    10402.358    8790.9659    8584.0485    8968.8224   -138.86487    579.35155    263.26939   -5354.5887 
 3558000    63.008202    -6849.703   -6687.6182    -6849.703            0     8952.758    23.143362    21.094441    21.289348    10393.381    8275.9892    9376.5762    9205.7086   -422.76908    149.90515    303.95298   -5330.5878 
 3559000    63.539964   -6848.2775   -6684.8248   -6848.2775            0    8877.3598      22.9269    21.245657    21.346107    10397.626    9102.8697    8796.0491    8733.1605   -295.07413    94.404316    126.06163   -5338.6734 
 3560000     62.00614   -6855.0119   -6695.5049   -6855.0119            0    9116.6737     23.00297    21.109966    21.401396    10392.345    9625.5504    9256.4914    8467.9793    119.43469   -815.38703   -216.91707   -5313.7664 
 3561000    62.362196   -6847.8701   -6687.4471   -6847.8701            0    8841.5804    23.010613    21.170275    21.342753     10396.93    9300.5898    8980.5735    8243.5779   -396.26634   -507.64293   -50.917717    -5346.811 
 3562000    61.123906   -6839.9508   -6682.7132   -6839.9508            0    8696.0496    22.952425    21.272465    21.291118    10395.488    8408.7896    8636.8232    9042.5359   -748.76961    -65.82287    579.06717   -5364.3267 
 3563000    65.109873   -6842.8293   -6675.3381   -6842.8293            0    8703.0111    23.085308    21.111887    21.343374    10402.214    8498.9196    8783.3132    8826.8006   -17.596946   -186.28921    -480.1611   -5355.0424 
 3564000    61.639591   -6846.2533   -6687.6892   -6846.2533            0    9037.3128    22.950174    21.193354    21.349117    10384.022     9536.349    8944.6591    8630.9304   -909.30976    530.15291   -482.18217   -5319.0757 
 3565000    59.602761   -6851.2798   -6697.9554   -6851.2798            0    8469.3668    22.991776    21.207652    21.331564    10401.304    8459.5568    7901.3987    9047.1449   -939.04252    704.57577   -24.187548   -5413.2172 
 3566000    65.961766   -6851.0359   -6681.3533   -6851.0359            0    8406.3607    23.119844    21.105702    21.353243     10419.54    8595.3941    8607.5317    8016.1563    91.987584   -463.33281   -463.58108    -5403.937 
 3567000    60.395007   -6852.4604    -6697.098   -6852.4604            0    8859.6887    23.023974    21.174066    21.329887    10398.558    9309.1173    8679.0347    8590.9142    287.68683    168.94485   -737.07795   -5353.5058 
 3568000    61.369755   -6852.3742   -6694.5042   -6852.3742            0    8543.7098    23.088976    21.069715    21.378375    10400.112    8601.3625    9145.4029    7884.3641   -226.91173   -224.89414   -52.889776   -5398.6373 
 3569000    60.382587   -6855.8757   -6700.5452   -6855.8757            0    8581.9079    23.091229    21.104818    21.359689    10409.349    8143.5247    8853.0021    8749.1968    592.09545   -143.55571    552.96712   -5397.7285 
 3570000      61.6959   -6848.6455   -6689.9366   -6848.6455            0    8722.7367    22.999386    21.160121    21.377766    10403.913    8812.3534    8075.3242    9280.5325    140.47438   -39.874359   -496.60666   -5366.4323 
 3571000    62.182474   -6849.5269   -6689.5663   -6849.5269            0    8137.5064    23.086652    21.132965    21.381491    10431.803    8262.8641    8549.3702    7600.2848   -1247.2662     568.1591   -814.62972   -5451.5493 
 3572000    66.961596   -6847.4806   -6675.2259   -6847.4806            0    8127.7896    23.093575     21.12399    21.377996    10428.794    7245.2121    8673.6587     8464.498    913.45574    95.785973    92.411899   -5439.0439 
 3573000    61.328758   -6851.1885    -6693.424   -6851.1885            0    8682.3713    22.980172    21.234614    21.303067    10395.366    9370.8747    7923.7307    8752.5085    53.186645    39.352832    411.17579   -5377.1266 
 3574000    64.176494   -6850.8473   -6685.7571   -6850.8473            0    8961.9848    23.057008    21.097026     21.35671    10388.637    9262.5043    9027.6126    8595.8374   -203.08793   -798.47503   -274.82753   -5327.9482 
 3575000    63.705106   -6850.0256   -6686.1481   -6850.0256            0    8576.0787     22.99167    21.202825    21.331676    10398.944    8969.2505     8770.545    7988.4405   -561.95657   -457.30589   -223.34899   -5385.5178 
 3576000    63.524608   -6849.3779   -6685.9647   -6849.3779            0    9253.2943    22.915823    21.259755    21.327226      10390.3    9707.6552    8847.0148    9205.2129   -420.79782   -487.79736   -172.18068   -5283.7958 
 3577000    61.646835   -6850.5137   -6691.9309   -6850.5137            0    9080.8529    23.123424    21.110239    21.297375    10396.122    8585.9916    9202.3443    9454.2229   -454.23194   -180.44795   -372.12395   -5315.1213 
 3578000    64.624206   -6843.1739   -6676.9321   -6843.1739            0      9044.84    22.898723    21.294139     21.33862    10404.894    9471.2921    7969.6407    9693.5873   -409.60894    874.20426    217.83487   -5304.4254 
 3579000    60.918581   -6849.8458   -6693.1364   -6849.8458            0    8667.6375    23.086223     21.10373    21.337393    10395.693    8419.7029     9364.619    8218.5904   -528.96895    505.79471    -465.2651   -5379.0314 
 3580000    65.277626   -6845.2511   -6677.3284   -6845.2511            0    8876.4682    23.040828    21.134323    21.337162     10390.18    9209.4691    8646.8333    8773.1023    424.12186    -461.3706   -271.86594   -5332.2761 
 3581000    60.828332   -6848.6974   -6692.2202   -6848.6974            0    8442.9783    22.991396    21.219077    21.321519    10401.836    8146.6417    8581.1562    8601.1371    75.060617    476.78216   -30.389965   -5411.4195 
 3582000    61.544879   -6850.3361   -6692.0157   -6850.3361            0    8391.7695    23.121882    21.035661    21.406478     10411.77    7981.3163    9109.8902    8084.1019    49.425809    76.112749     375.3184   -5417.7676 
 3583000    64.011952   -6855.0509    -6690.384   -6855.0509            0    8412.4328    22.946501     21.27779    21.321779    10410.377    8785.6689    7974.0946    8477.5349    445.30472    116.42319    -421.9789   -5413.1693 
 3584000    66.203459   -6844.7469   -6674.4425   -6844.7469            0     8685.992    23.061588     21.18546     21.30544    10409.206    8457.7098    8365.7215    9234.5449    44.525329   -18.988827   -15.999413   -5355.8429 
 3585000    62.534509   -6850.0125   -6689.1463   -6850.0125            0    8883.2728    23.092483    21.079282    21.346599    10390.947    8575.3336     8479.505    9594.9798    23.744558    10.376485    741.49645   -5342.9635 
 3586000    62.005402    -6846.891   -6687.3859    -6846.891            0    9271.3698    22.934816    21.240742    21.299198    10375.957    9846.4089     8762.839    9204.8614    23.910828    406.98219    410.16074   -5284.4172 
 3587000    61.523933   -6851.5651   -6693.2985   -6851.5651            0    9200.8416    23.124545    21.048529    21.339715    10386.843     8732.232    10004.894    8865.3983     499.9894   -629.90831   -1201.2196   -5299.5417 
 3588000    64.842976   -6852.0977   -6685.2931   -6852.0977            0     8281.327    23.046134    21.163767    21.339695    10408.287    7856.8384    8474.7267     8512.416    -142.0712    961.56799   -56.232644   -5428.2358 
 3589000    62.993484   -6860.0972   -6698.0503   -6860.0972            0    8656.2921    23.068639    21.125943    21.325277    10392.805    8899.7754    8206.9477    8862.1533   -98.915981   -316.19259   -345.52429   -5386.0299 
 3590000    64.153679   -6854.9009   -6689.8695   -6854.9009            0    9164.5422    23.078451    21.095859    21.344461    10391.759    9417.1844    8557.9796    9518.4627   -583.10076    314.29438    303.00753   -5300.9543 
 3591000    63.159873   -6856.8587   -6694.3837   -6856.8587            0    8639.7861    22.958926    21.184479    21.365704    10391.699    8332.6026    8625.0795    8961.6761    385.62746    583.13097    175.12016   -5385.0045 
 3592000    60.864284    -6840.979   -6684.4094    -6840.979            0    8706.7588    23.117563    21.055174    21.345885    10389.988    8303.2405     8738.403     9078.633    9.2158162   -299.93164    252.45014   -5365.0975 
 3593000    62.426877   -6851.4974   -6690.9081   -6851.4974            0    7854.7562    23.048186    21.229089    21.313052    10428.305    8342.7807    6667.3088    8554.1791   -341.77808    320.15884    705.76111   -5496.3086 
 3594000    62.072895     -6850.41   -6690.7312     -6850.41            0    7747.5575    23.031254    21.222683    21.379886    10450.168    7407.5771    8368.1049    7466.9906    569.13027   -170.92782   -48.879634   -5509.9649 
 3595000    61.447782   -6853.9276   -6695.8569   -6853.9276            0    8853.4857     23.12947    21.013456    21.379529    10391.095    8487.7789    9919.0038    8153.6743   -1257.0816    512.21026    610.08265   -5354.1691 
 3596000    63.090799   -6840.1282   -6677.8309   -6840.1282            0    9419.7643    22.967561    21.242671    21.270247    10377.591    9247.3248    9349.1651     9662.803   -184.39384    361.55504    174.03425   -5252.1824 
 3597000    63.638253   -6852.8773   -6689.1718   -6852.8773            0    8327.7935    23.030541    21.216342    21.314211    10414.631    7924.2012    8533.4518    8525.7273    369.23997   -16.985081   -147.24453   -5424.2906 
 3598000    62.809315    -6863.467   -6701.8939    -6863.467            0    8184.8544    23.128586     21.00737    21.446309    10420.134    8228.7885    8840.5206    7485.2542   -279.96924   -713.97092    218.56087   -5458.0663 
 3599000     64.31046   -6850.2717   -6684.8369   -6850.2717            0     8804.664    22.931796    21.248041    21.325155    10390.804    9383.1978    7953.0915    9077.7027   -311.32438     606.0406    577.17981    -5350.585 
 3600000    62.980877   -6857.1781   -6695.1636   -6857.1781            0    8212.2523    23.040075    21.185264    21.331418     10412.08    8534.5625    7556.1091    8546.0854    152.85262   -369.59639   -344.36555   -5448.1372 
 3601000    63.996822   -6861.3969   -6696.7689   -6861.3969            0    8276.1576    23.106472     21.05788    21.383944    10404.857    8036.5286    8755.5897    8036.3546   -271.12946    44.210604    153.18182   -5440.9103 
 3602000     62.82179   -6847.0797   -6685.4744   -6847.0797            0    8787.3205    22.923076    21.238697    21.333012    10386.111    9204.1096    7968.1226    9189.7292     395.4784     10.10361    334.50149   -5354.4522 
 3603000    63.374293   -6841.8322   -6678.8057   -6841.8322            0    8623.1914    23.108604    21.141892    21.290277    10401.569    7696.7738    9063.9146    9108.8859    318.19008    74.344627   -230.99935   -5370.7002 
 3604000     64.43374   -6856.4506   -6690.6987   -6856.4506            0    8134.2191    23.069618    21.113118    21.408683    10427.561    8473.9316    8128.8797     7799.846    -465.3337    150.71981    -107.4996   -5453.6851 
 3605000    65.408757   -6853.9669   -6685.7069   -6853.9669            0    8366.6866    22.922376    21.222364    21.393154    10407.063    9178.5018     8033.662    7887.8958   -8.2366018    49.058642    427.89495   -5415.8418 
 3606000    62.449661   -6850.0391   -6689.3912   -6850.0391            0    9542.4504    23.056161    21.118345     21.28928     10365.92    8590.8675    10445.089     9591.395     50.67633   -171.93105    272.92858   -5246.7987 
 3607000    61.705059   -6848.5855    -6689.853   -6848.5855            0    8926.9149    23.112365    21.112423    21.291887    10389.548    8289.2924    8827.4555    9663.9967   -788.37912   -356.18519    297.98644   -5337.2389 
 3608000    62.396113    -6851.137   -6690.6268    -6851.137            0    8619.3053    22.913168     21.23906    21.385502    10407.344    8985.5549     8464.252     8408.109   -118.62772    192.26057    145.81157   -5382.3849 
 3609000    61.976209   -6851.9712   -6692.5411   -6851.9712            0    8858.0491     23.07305    21.137726     21.33986    10407.702    8502.9534    8704.7436    9366.4503   -68.231377    514.88416   -129.23571   -5348.0163 
 3610000    61.213807   -6846.9751   -6689.5063   -6846.9751            0    9051.0203    23.193116    21.031666    21.299913    10389.882    8592.0934    9658.4848    8902.4826   -260.75955   -216.89351   -530.93275   -5318.0435 
 3611000    61.038413   -6843.5423   -6686.5247   -6843.5423            0     8910.352    22.904094     21.19523    21.421385    10399.173    9720.7403    8575.1573    8435.1585   -35.439417    454.66244    -132.6866   -5335.1694 
 3612000    63.353903   -6847.1603   -6684.1863   -6847.1603            0    9092.1586     23.01418    21.099488    21.392268    10387.817    9376.5402    9703.7113    8196.2243   -617.44723    -272.4303   -452.64593   -5306.7638 
 3613000    65.035051    -6853.051   -6685.7523    -6853.051            0    8749.5784    23.154508    21.126495     21.26487    10402.213    8236.9767    8564.6389    9447.1195   -638.06837   -372.36639    -48.81429   -5358.3922 
 3614000     62.73051   -6845.0394    -6683.669   -6845.0394            0    9006.2247    22.921505    21.271411     21.32183    10395.943    9612.9849    8357.0056    9048.6837    -142.6297    520.40425    702.01608   -5318.1977 
 3615000    63.483153   -6847.2763   -6683.9697   -6847.2763            0    8884.2409    23.072911    21.064801    21.395677    10398.861     9540.557    8275.7507     8836.415    480.63137   -878.31825    973.11528   -5336.6148 
 3616000    61.082219   -6855.5168   -6698.3865   -6855.5168            0    8730.2405    22.987648    21.212656    21.326559     10399.45    8891.4367     8512.408    8786.8766   -270.08874   -260.00358   -166.99334   -5374.3119 
 3617000    60.253956    -6857.148   -6702.1484    -6857.148            0    8879.2783    22.955463    21.204452    21.346014    10390.343    9223.4576    8915.5944    8498.7829     309.8837   -362.55837   -203.76544   -5356.6491 
 3618000    62.400371   -6854.9684   -6694.4473   -6854.9684            0    8461.7174    23.134717    21.068497    21.343031    10402.886     8260.856    8352.1086    8772.1876   -789.88027       159.27    384.02402   -5410.6742 
 3619000    64.292652   -6857.0035   -6691.6145   -6857.0035            0    8327.9012    22.959815    21.261188    21.320277    10407.556    8537.6687     8046.052     8399.983   -727.42811    706.70053    -300.8677   -5427.5763 
 3620000      61.7504   -6851.9258   -6693.0767   -6851.9258            0    8407.4364    23.020899    21.200355    21.331445    10410.838    7830.9794     8422.561    8968.7688     -373.366    56.317519    276.80601   -5416.5639 
 3621000    62.749207   -6856.2705    -6694.852   -6856.2705            0    8236.2585    23.083046    21.094808    21.412141    10426.266    7511.8393    8740.2308    8456.7054   -105.79817   -603.34018    196.44079   -5442.4763 
 3622000    65.825076   -6848.6673   -6679.3363   -6848.6673            0    8494.1705    22.949863    21.246492    21.346453    10408.617    9240.2772    8449.9011    7792.3333    297.20012    385.72736   -3.2102892   -5389.9296 
 3623000    63.382853   -6852.0901   -6689.0416   -6852.0901            0    8716.6436    23.041805    21.157308    21.300394    10383.996    8169.2519    9401.4054    8579.2734    42.543366    -270.2401   -606.75073   -5368.9936 
 3624000    62.284381   -6845.7073   -6685.4845   -6845.7073            0     8762.162    23.083336    21.123589    21.331933    10401.513    9121.1962    8464.1897       8701.1   -515.12295   -289.94441   -323.24347   -5356.3049 
 3625000    64.639584   -6848.4746   -6682.1932   -6848.4746            0    8676.9868    22.959997    21.274399    21.310834    10409.493    9229.8699    8160.8365     8640.254     508.0051   -226.00765   -9.7371265   -5364.9244 
 3626000     63.39034   -6855.3637   -6692.2959   -6855.3637            0    8292.4784    23.075545    21.090832    21.412326    10421.003    7903.6615    8688.1619    8285.6119    92.344242    390.34656    161.17115    -5432.008 
 3627000    62.898766   -6852.2555   -6690.4523   -6852.2555            0    8904.1619    23.084474    21.104296    21.349089    10400.883    8218.8275    9554.6733     8938.985    133.02599    535.46538    338.79933   -5339.8137 
 3628000    63.992415   -6851.9552   -6687.3386   -6851.9552            0    9013.2229    23.053047    21.170257    21.289103    10389.911    9052.4634    9255.5333    8731.6721    329.26811   -218.46494   -1009.6871   -5321.5992 
 3629000    64.922396    -6842.702   -6675.6931    -6842.702            0    8958.9135    23.063498    21.073591    21.371749    10387.326    9129.8785    8839.3694    8907.4926    -97.09847    432.36783   -143.61742   -5318.5207 
 3630000     60.50155   -6851.3416    -6695.705   -6851.3416            0    9447.0324    22.961131    21.158468    21.342304    10368.569    9874.9132    9122.2543    9343.9296   -834.46002    732.51693    236.56729   -5267.1726 
 3631000    59.667774   -6848.1058   -6694.6141   -6848.1058            0    8974.1952    22.995958    21.244776    21.258969    10385.941    9515.5006    8233.0121    9174.0729    475.33636   -671.36641   -152.90162    -5335.308 
 3632000    64.672008   -6848.9782   -6682.6134   -6848.9782            0    8274.4298    23.075272    21.157039    21.339862    10418.215    8735.6973    8728.2291    7359.3631    165.37291   -1061.7366   -948.22207    -5425.405 
 3633000    64.379554   -6849.8047   -6684.1922   -6849.8047            0    8523.6765    22.971058    21.073604     21.50194    10408.723    8627.9028    9399.4136    7543.7133    215.43788    337.20361    260.29774   -5390.2934 
 3634000     60.01963   -6851.2391   -6696.8423   -6851.2391            0    8465.4036    22.968686    21.192557    21.380749    10407.404    9024.1516    8029.7237    8342.3356    142.23671   -99.930617    160.21457   -5411.9522 
 3635000    60.467552   -6853.4166   -6697.8675   -6853.4166            0    8344.0709    23.127049    21.149125    21.276438    10406.664    7926.9084    8218.0735    8887.2308   -69.276215    275.20378   -280.00124   -5431.4835 
 3636000    66.508357   -6853.6903   -6682.6016   -6853.6903            0    8280.4733    22.976419    21.162332    21.402955    10406.857    8271.8588    8940.7212    7628.8401     178.2623    301.77826    225.32385   -5425.8464 
 3637000    62.646998   -6853.9254   -6692.7698   -6853.9254            0    8022.2204    22.975825    21.212126     21.37693    10418.391    8108.0317    8043.4015    7915.2279    447.84303   -375.23976    166.17461   -5473.8613 
 3638000    63.709409   -6860.2202   -6696.3316   -6860.2202            0     8225.053    23.120602    21.134478    21.310952    10413.423    7863.3741    8259.6446    8552.1401    -451.2898    54.060319   -9.1579949   -5447.2003 
 3639000    61.083251    -6851.102    -6693.969    -6851.102            0    7892.8284    23.022823    21.179071    21.371208    10420.644    7464.1525     8182.322    8032.0108   -35.915885    36.459508   -11.200307   -5494.4611 
 3640000    63.325663   -6853.7778   -6690.8764   -6853.7778            0    8031.0076    22.991806    21.164537    21.411438    10419.039    8190.3348    8162.8838    7739.8041   -460.19257    421.82986    375.25802   -5470.5568 
 3641000    63.687485   -6857.6554   -6693.8232   -6857.6554            0    8200.3642    23.074974    21.192486    21.293765    10412.993    8141.6845      7974.37    8485.0381    -399.8637   -413.94974   -551.28808   -5448.4928 
 3642000    62.262353   -6849.6424   -6689.4763   -6849.6424            0    8479.3748    23.016346    21.228307    21.312912    10413.447    8906.1101    8158.0603    8373.9541   -321.81864    767.14231    314.52257   -5401.7184 
 3643000    63.913113   -6855.2909   -6690.8783   -6855.2909            0    8087.6506    23.079236    21.114032    21.381709    10419.215    7178.1837    8122.8678    8961.9003    120.65393    108.21194    575.18482   -5461.9309 
 3644000    61.662058   -6853.1058   -6694.4839   -6853.1058            0    8320.3001    23.052441    21.213084    21.298332    10415.169    8503.3907    7858.7545    8598.7551   -153.45289     39.70414   -340.82414   -5430.6756 
 3645000    64.584007   -6847.0464   -6680.9079   -6847.0464            0    8196.5072    22.981186    21.202686     21.37311    10414.323    9175.8468     7446.896    7966.7787    1191.4016    -842.7162    103.30006   -5436.0042 
 3646000    61.679378   -6851.7787   -6693.1122   -6851.7787            0    8390.7057    23.041755    21.093646    21.423483    10412.554    9170.9675    7966.8832    8034.2663    -128.6891   -374.76537     543.9866   -5418.9297 
 3647000    61.668702   -6851.9912   -6693.3523   -6851.9912            0    8987.7868    22.973595    21.221938    21.301933    10385.634    8524.2689    8881.1405    9557.9512    269.09739    699.13024   -220.19361   -5332.0278 
 3648000    61.730458   -6856.4632   -6697.6653   -6856.4632            0    8219.4194    23.048856    21.202898    21.306979    10412.775     8128.655    9009.7215    7519.8817    420.90719   -221.09055   -762.20649   -5449.4673 
 3649000    64.125654    -6848.273   -6683.3136    -6848.273            0    8580.9797    23.041426    21.061544    21.478033    10423.032    8525.5645    9351.2939    7866.0805   -201.45171   -100.87816    269.58053   -5378.9256 
 3650000    62.647731   -6855.4464   -6694.2889   -6855.4464            0    8607.4712    22.913952    21.263776    21.362822    10408.761    9030.0851    8214.8277    8577.5008    374.49849    53.263663    405.08999   -5387.6653 
 3651000    65.184814   -6850.4044   -6682.7204   -6850.4044            0    8662.1599    23.095752    21.172105    21.264023    10397.802    8084.2586    8920.2387    8981.9822   -385.68999   -350.84204   -147.24055   -5369.1794 
 3652000    60.437548   -6849.6656   -6694.1937   -6849.6656            0    9261.3736    23.003979    21.137314    21.349755    10381.155     9217.163    9402.3258    9164.6319   -399.31501    399.61833    358.20543   -5292.0357 
 3653000    62.592319   -6839.0186   -6678.0037   -6839.0186            0    8898.5473    22.845647    21.264363     21.39391    10393.121    9547.4977    8934.0415    8214.1028   -133.74569    125.47568   -250.76173   -5329.2241 
 3654000    65.394393    -6854.119   -6685.8959    -6854.119            0    9001.1754    23.101696    21.123163    21.267054    10377.916    8268.3592    9617.1341    9118.0328   -559.04754    454.91827    6.2515941   -5323.5567 
 3655000    60.402167   -6850.7023   -6695.3214   -6850.7023            0    8509.3357    23.018942    21.184472    21.333829    10403.316    8618.6441    7958.1239     8951.239   -111.75425   -360.90298    705.55966   -5404.2706 
 3656000    60.062252   -6857.9129   -6703.4064   -6857.9129            0    8623.3193    22.874621    21.307861      21.3424    10402.483    9569.3358    7839.8878    8460.7344    56.902844   -1031.5013    768.40445   -5395.1666 
 3657000    61.601289   -6853.8114   -6695.3459   -6853.8114            0    8403.5161     23.12178     21.10548    21.338388    10413.054    8105.6899    8481.7408    8623.1174    72.849347   -455.26542    28.224991   -5419.1567 
 3658000    62.946456   -6856.0395   -6694.1136   -6856.0395            0    8814.6133    23.036124    21.203914    21.270836    10389.867    8543.5612    8816.4653    9083.8134    311.48853    150.42462   -184.78801   -5358.4744 
 3659000    63.700915    -6850.167   -6686.3003    -6850.167            0    8865.7359    22.955182    21.212907    21.333055    10388.049     9754.954    8219.4826    8622.7711   -183.95843   -276.70148   -518.35493   -5343.1498 
 3660000    61.107266   -6846.8679   -6689.6732   -6846.8679            0    9122.0702    23.112843    21.020641    21.380539    10387.666    9278.0891    9378.8175    8709.3041   -588.30938   -34.150941   -119.92816   -5307.7393 
 3661000    60.608165   -6850.4227   -6694.5119   -6850.4227            0    8806.0937    22.950392    21.246304    21.301497    10386.844    8882.9528    9475.1392    8060.1892    248.47976   -12.663087   -894.33374   -5360.5518 
 3662000     61.61501   -6846.7344   -6688.2335   -6846.7344            0    9071.2577    23.052066    21.169101    21.305563    10396.934    8768.9674    9236.9735    9207.8323    162.35871   -68.090638     782.3005   -5312.7713 
 3663000    63.300687   -6853.7424   -6690.9052   -6853.7424            0    8503.4647    23.085067    21.088659     21.38552    10411.179    8912.3933    8276.3507      8321.65   -236.14622   -687.10884    319.50958   -5399.7701 
 3664000    60.634323   -6850.6819   -6694.7038   -6850.6819            0    8675.3155    22.895922    21.269897    21.355871    10400.179    8666.5628     9102.735    8256.6488    623.88545    -97.03729   -357.56842   -5378.8672 
 3665000    63.251185   -6848.3748    -6685.665   -6848.3748            0    9443.8234    23.063746    21.122473    21.293006    10373.172    9758.3086    9593.9674    8979.1944    62.860035   -190.15232   -95.133329   -5256.9838 
 3666000    64.402899   -6845.3514   -6679.6788   -6845.3514            0    8813.8119    23.091341    21.176443    21.254049     10393.07    8464.7038    8666.9865    9309.7455   -22.367361    33.694162     224.4237   -5343.7494 
 3667000    63.179749     -6856.14   -6693.6139     -6856.14            0     8373.091    22.977503    21.215074      21.3805     10422.34    8415.0707    8274.0102    8430.1922   -370.90173    452.73963   -952.09894   -5420.9113 
 3668000    67.865349   -6856.6558   -6682.0763   -6856.6558            0     8513.213    23.027067    21.141003     21.38695    10411.494     8321.536    8993.7568    8224.3463    337.82697    219.21913   -451.83602   -5389.4218 
 3669000    67.356475    -6842.278   -6669.0075    -6842.278            0      9264.21    22.970018     21.20627    21.271738    10361.642     9290.152    8687.9355    9814.5426    696.68896    125.40035   -61.255017   -5269.0564 
 3670000    60.208148   -6841.0736   -6686.1918   -6841.0736            0    9238.3647    23.063373    21.144906    21.278117     10376.76    8738.0624    9094.5317    9882.4999    618.92915   -421.10277    125.51988   -5288.1094 
 3671000    60.896967   -6845.3944   -6688.7406   -6845.3944            0    8900.1872    23.021958     21.12503    21.395497    10405.477    9524.1099     8734.237    8442.2146   -723.22797    751.73114    -227.8156   -5338.1087 
 3672000    64.259265   -6852.6544   -6687.3514   -6852.6544            0    8478.1872    22.975436     21.18032    21.378385    10403.301    8274.7441    8573.2348    8586.5826    700.39794     29.91469     318.2016   -5401.0283 
 3673000    61.142389   -6850.8249   -6693.5398   -6850.8249            0     8249.992    23.116354     21.16246     21.27307    10406.762    7885.9147     8633.013    8231.0483   -79.631077   -579.42573    -315.3265   -5441.4224 
 3674000    65.183264   -6863.5304   -6695.8505   -6863.5304            0    8122.7956    22.995574     21.20121    21.351903    10409.779    8420.2168    7955.1203    7993.0499    455.35876   -792.42758   -370.00935   -5462.6806 
 3675000    62.323571   -6849.5717   -6689.2481   -6849.5717            0     8062.502    22.999196    21.148007    21.434748    10425.586    8256.0723     8181.403    7750.0306    958.96624   -345.41444    408.41728   -5463.3731 
 3676000    60.283414   -6849.6316   -6694.5562   -6849.6316            0    7961.7819    23.145758     21.11386    21.312105    10415.147    7275.4071    8082.2581    8527.6806     490.4844    301.95659    712.18392   -5485.2075 
 3677000    64.665847   -6844.9845   -6678.6356   -6844.9845            0    8162.5177    23.052787    21.220423    21.293141    10416.389    8485.0598    7863.9714    8138.5218   -367.32389    552.19717   -1049.6209   -5438.6483 
 3678000     62.39036   -6846.8603   -6686.3649   -6846.8603            0    8603.8015    23.046815     21.08727     21.41674    10408.416    8450.0021    8923.0479    8438.3546     -220.918    71.835776   -200.88717   -5380.3416 
 3679000    61.699238   -6849.6272   -6690.9097   -6849.6272            0    8404.6425    23.001579    21.154214    21.408802    10417.102    8546.1716    8109.4336    8558.3222    62.511279   -200.30469    585.56244   -5414.0533 
 3680000    61.910322   -6845.8903   -6686.6297   -6845.8903            0    8273.7787    23.094501    21.216036    21.224861    10399.625    8807.3806    7574.0894    8439.8659    488.64905   -393.27032   -201.76403   -5431.7634 
 3681000    64.092275   -6853.5382   -6688.6647   -6853.5382            0    8696.0284    23.034669    21.133242      21.3527    10394.435    9271.0954    8404.4377    8412.5521    137.01133   -746.01318    417.46218   -5370.4148 
 3682000     65.25043   -6848.9313   -6681.0785   -6848.9313            0    9319.0075    22.927773    21.147565    21.424893    10388.214     9574.657    9118.3983    9263.9674   -119.92822    9.2669401    493.38848   -5269.2354 
 3683000    62.086778   -6850.0409   -6690.3264   -6850.0409            0    9373.2314    23.022958    21.174481    21.288655    10378.202    8983.4678    9694.8451    9441.3814   -484.70926   -212.27367   -224.05149   -5271.6369 
 3684000    61.811039   -6850.3766   -6691.3715   -6850.3766            0    9350.5881    23.010913    21.206949    21.267029    10378.124    9409.0001    8863.6483    9779.1159    -210.3377   -144.20326    878.86086   -5276.1198 
 3685000    64.568344   -6847.5842   -6681.4861   -6847.5842            0    8913.9232    22.954925    21.168651    21.383156    10390.606    9107.4086    8996.4684    8637.8924    117.03648   -455.52708     248.5559   -5330.7029 
 3686000    65.667357   -6849.6897   -6680.7644   -6849.6897            0     9270.472    22.998438    21.157495    21.359198    10393.158    9455.3556    9250.4142    9105.6463   -255.83805    -4.974227   -268.10936   -5275.6061 
 3687000    63.239563   -6858.5133   -6695.8334   -6858.5133            0    9022.4785    22.991249      21.1608    21.350615    10387.356    8636.8409    9318.3718    9112.2229   -326.61551    427.03025    39.804386   -5329.0277 
 3688000    64.930158   -6849.2513   -6682.2224   -6849.2513            0     8612.469    23.105052    21.145156    21.295302    10404.031    7966.5629    8884.2679     8986.576    226.70064    699.76412    373.82683   -5375.4342 
 3689000    60.807254   -6857.3288   -6700.9058   -6857.3288            0    8681.3255    23.064377    21.153171    21.339174    10411.057    8916.4819    8468.6642    8658.8304     63.60664   -603.72232   -154.09974   -5382.7803 
 3690000    64.969953   -6844.1394   -6677.0081   -6844.1394            0    8595.0845    22.976941    21.191835    21.408085    10424.101    9165.0857    7804.7912    8815.3767    136.64165   -661.90002   -146.70817    -5370.342 
 3691000     63.14038   -6844.5698    -6682.145   -6844.5698            0    8533.9027    23.080931    21.147835    21.323568    10408.283    8949.4845    8492.7342    8159.4894   -547.75756     507.6175    280.75633   -5386.7486 
 3692000    65.901663   -6853.9864   -6684.4584   -6853.9864            0    8486.2552    23.143334    21.081831     21.29162    10388.264    8071.7252    8748.9274    8638.1132    255.83767    -650.8913   -458.61167   -5398.7723 
 3693000    62.184294     -6852.35   -6692.3847     -6852.35            0    8737.5938    22.991183    21.161551    21.379485    10401.741    8573.4823    8759.7955    8879.5037     391.4361    634.18409    115.33184   -5366.9029 
 3694000    62.790267   -6850.2537   -6688.7295   -6850.2537            0     8377.112    22.993915     21.08836    21.474836    10413.233    8496.9369    8581.7468    8052.6523   -190.51435    408.13066    205.42953   -5416.5283 
 3695000    64.058212   -6849.6939   -6684.9081   -6849.6939            0    8449.7921    23.064297    21.198374    21.291762    10410.087    8160.1654    7857.8347     9331.376    122.81883    234.96117    337.87278   -5402.0569 
 3696000     64.35456   -6860.8129   -6695.2647   -6860.8129            0    8092.8506    23.129552    21.145372     21.31202    10423.347    7568.3916    8551.0799    8159.0803    102.97004   -47.471813   -603.83406   -5465.0396 
 3697000    61.988635   -6849.3216   -6689.8596   -6849.3216            0    8321.0229    23.022155    21.072805      21.4689    10415.452    8342.3572    8832.2765    7788.4349    452.78105    226.12994    295.84659   -5425.9072 
 3698000     64.51218   -6852.2154   -6686.2618   -6852.2154            0    8133.5956    23.014362    21.226232    21.337636     10423.61    7744.6105    8044.7768    8611.3995    174.20921    287.39122   -85.574743   -5449.8116 
 3699000    64.136841   -6849.7818   -6684.7937   -6849.7818            0    8404.0135    23.169943    21.104653    21.298761    10414.958    8185.9782    8174.2687    8851.7937   -827.44451    229.27449    115.51754   -5408.2956 
 3700000    62.105326    -6856.853   -6697.0908    -6856.853            0    7900.4417    23.004229    21.221094    21.356463    10425.689    8882.7432    6855.7146    7962.8672    692.33567   -256.55122    599.96962   -5495.8446 
 3701000    63.701821   -6855.9017   -6692.0327   -6855.9017            0    8241.9603    22.999676    21.174457    21.401671    10422.735    8187.4297    8268.6481    8269.8031    275.74025   -355.98438    142.62007   -5439.2143 
 3702000     61.88522   -6850.2465   -6691.0505   -6850.2465            0    8402.8052    23.113363    21.037588    21.415848    10413.443    8584.2394    8590.3816    8033.7946   -569.80336   -704.56169   -730.94685   -5414.9216 
 3703000    60.759644   -6855.7329   -6699.4324   -6855.7329            0    8353.6775    22.933737    21.261739    21.325114    10398.363    8721.5089    8543.8873    7795.6364    -211.6371    511.44083   -166.28412   -5432.6017 
 3704000    59.985681   -6848.1938   -6693.8842   -6848.1938            0    8355.2185    23.083597    21.156924    21.339274     10421.63    8049.9249     8515.507    8500.2237    372.87357   -713.72565    -19.31034   -5423.9847 
 3705000    62.467203   -6855.7445   -6695.0515   -6855.7445            0    8260.6502    23.115119    21.107415    21.357752    10420.456    7524.7749    8974.6573    8282.5185   -387.20593   -181.52023   -359.90025   -5439.6667 
 3706000    63.493496   -6861.5537   -6698.2205   -6861.5537            0    8422.1635    22.902529    21.295047    21.349177    10412.217    8170.6374    8252.9826    8842.8704    13.011721    685.58065    186.41119   -5419.3024 
 3707000    61.158684   -6855.8418   -6698.5148   -6855.8418            0    8529.2624    23.128797    21.085883    21.346454    10410.476    8325.8846    8260.5858    9001.3168   -439.71915    25.925004    25.257756   -5403.5501 
 3708000    62.427834   -6853.8748    -6693.283   -6853.8748            0    7890.3038    23.093662    21.159776     21.34524    10430.495    7984.3412    7814.9216    7871.6486    130.73289    240.17746    211.82893   -5493.0252 
 3709000    63.426169   -6847.3248   -6684.1649   -6847.3248            0     8388.591    22.946419    21.247443    21.349987    10409.244    9181.6782    7693.5078     8290.587    210.69694   -266.41809   -366.04536   -5410.7084 
 3710000    62.025657   -6849.0348   -6689.4775   -6849.0348            0    8420.5059    23.140282    21.024563    21.391367    10407.207    7725.6358    9022.5805    8513.3013    608.90582   -118.74147     646.8545   -5411.4264 
 3711000    63.754039   -6849.0989   -6685.0955   -6849.0989            0    8387.8017    23.045269    21.206391    21.299901     10409.41    7810.5738    8454.0269    8898.8043    166.91374    728.11781     328.9698   -5411.7386 
 3712000    61.035311   -6852.5197   -6695.5101   -6852.5197            0    8226.9915    22.995992    21.231803    21.340542    10419.442    8078.8533    7922.1056    8680.0155   -191.46586   -29.073468    119.24547   -5445.3622 
 3713000    60.674023   -6849.0053   -6692.9251   -6849.0053            0    8129.0098     23.15366    21.076947    21.363905    10425.767      7496.97    8635.7775     8254.282   -67.524202   -454.41476    190.40223   -5456.9164 
 3714000    63.155224   -6853.3641   -6690.9011   -6853.3641            0    8338.0819    22.964585    21.214065     21.39152    10421.354    8764.5783     9005.911    7243.7565    17.687073   -637.13292   -673.83812   -5423.6398 
 3715000    60.315083    -6856.817   -6701.6601    -6856.817            0    7995.4339    22.979755    21.217538    21.385665    10427.091    8278.5795    8198.0403    7509.6821    430.01733    51.986446    236.24137   -5485.8071 
 3716000    63.166784   -6852.9132   -6690.4205   -6852.9132            0    8234.3076    23.186451    21.059196      21.3379    10419.041    7527.7621    8395.4242    8779.7364   -638.31651   -71.632094    1.0014879    -5439.209 
 3717000    63.984486   -6856.8056   -6692.2094   -6856.8056            0    8146.1135     23.00464    21.253881    21.310544    10419.532     8542.667    7094.4863    8801.1873    222.21787     61.60794    97.750086   -5454.3407 
 3718000    65.558468   -6852.3667   -6683.7216   -6852.3667            0    8425.3463     23.00664    21.167664    21.371341    10407.775    8388.1711    8820.5508     8067.317    128.63028    247.71279   -320.86492   -5404.8659 
 3719000     60.54161   -6847.5648   -6691.8252   -6847.5648            0    8612.4362    23.125562    21.004103    21.426495    10407.527    8844.9628    8584.9974    8407.3483   -979.71079    110.42501   -353.48883   -5384.6029 
 3720000    60.638275   -6853.4766   -6697.4883   -6853.4766            0    8773.9212    22.973105    21.257147    21.282898    10393.347    9248.0453    8059.3012    9014.4171   -607.33119    554.41515   -243.25423   -5367.5698 
 3721000    61.069923   -6850.1155   -6693.0169   -6850.1155            0    8471.4798    23.099277    21.144467    21.322389    10414.322    8698.3073    7651.5377    9064.5945    206.01603    -258.6525    261.64409   -5406.3499 
 3722000    62.569416   -6859.5325   -6698.5765   -6859.5325            0    8029.8326    23.093991    21.091096     21.42866     10437.42    8159.0002    8135.1293    7795.3684   -246.23104   -713.11718     303.9346   -5476.2829 
 3723000    61.005656   -6851.0848   -6694.1514   -6851.0848            0    8624.1767    22.953109    21.237576    21.349801    10407.353    8743.3865    8469.5638    8659.5799    899.11032   -2.1196527    26.307011    -5385.169 
 3724000    66.152231   -6850.4773   -6680.3047   -6850.4773            0     8699.481    23.143735    21.085321    21.303336    10395.881    8217.1635    8917.4191    8963.8605   -77.606502   -227.68026    376.40404   -5361.3481 
 3725000    63.245898   -6856.1859   -6693.4897   -6856.1859            0    8244.6863    23.064328    21.153937    21.336131    10409.927     8704.033    7536.4078     8493.618    431.09272   -161.32373   -106.89702    -5441.797 
 3726000    64.531954   -6855.5811   -6689.5766   -6855.5811            0    8793.4554    22.959949    21.175422    21.389179    10399.132    8935.8736    8077.4473    9367.0453   -196.75659    9.1390801    604.09442   -5355.9552 
 3727000    65.415682   -6844.3006   -6676.0228   -6844.3006            0    8524.2627    23.076925    21.095962    21.388422    10412.524    8248.2951    9852.4481    7472.0447   -660.40014   -9.3409673   -709.50116   -5381.5625 
 3728000    64.862646   -6841.0309   -6674.1757   -6841.0309            0    9339.1156    23.039856    21.180031    21.277017    10382.862    9240.6992    9550.1627    9226.4848    171.44331   -394.81288   -293.69307   -5260.0151 
 3729000    64.064606   -6849.1603    -6684.358   -6849.1603            0    8673.4784    22.994644     21.19023    21.345899    10401.041    9494.5927    8190.9574     8334.885   -800.05428   -41.379664    83.705496    -5368.691 
 3730000    64.267672   -6847.1714   -6681.8467   -6847.1714            0    8624.7156    23.080633    21.065112    21.429366    10418.874    8933.5051    9094.9677    7845.6739   -229.60903   -400.87366   -660.19867   -5371.3333 
 3731000    63.623804   -6844.7836   -6681.1153   -6844.7836            0    8722.1745      22.9752    21.218314    21.351341    10408.673    9583.4606    7976.7417    8606.3211    119.11368   -209.92823   -103.47684   -5357.0908 
 3732000    62.802574   -6845.2779   -6683.7221   -6845.2779            0    8683.3013     23.15997    21.042131    21.313311    10386.725    7831.9985    9673.4029    8544.5026    163.73645    348.39501    631.18902    -5368.378 
 3733000    61.251188   -6850.4299   -6692.8649   -6850.4299            0    8929.8643    23.031841    21.136989    21.353574    10395.427    8645.1946    8956.0598    9188.3384    280.28009   -599.03515     190.5285   -5339.0382 
 3734000     61.19659   -6842.5213   -6685.0968   -6842.5213            0    9206.6466    22.934774    21.199056    21.361513    10385.873    9154.2794     9392.163    9073.4975    -668.0078    287.95417   -321.40734   -5290.5909 
 3735000    63.955224   -6851.2611   -6686.7402   -6851.2611            0    8954.0025    23.118912    21.069787    21.302026    10376.442    8815.9541    9338.8603    8707.1931    967.67328   -906.83618    293.43696   -5331.7332 
 3736000    61.482465    -6848.503   -6690.3431    -6848.503            0    8597.4101    23.031717    21.180241    21.321711      10401.1    8895.1175    8320.5346    8576.5784     422.8141   -70.174486   -35.229853   -5386.2074 
 3737000    62.082636   -6851.9832   -6692.2794   -6851.9832            0     8926.279     22.93946    21.187248    21.405363    10403.521     9023.103    9369.9649     8385.769   -299.99925    113.46688   -559.53981   -5337.9426 
 3738000    63.494525   -6840.3014   -6676.9656   -6840.3014            0    9063.2245    23.124847    21.057659     21.32315    10383.417    8674.5481    9648.5651    8866.5603   -8.7855527    116.65253    61.797352   -5304.5079 
 3739000    63.607799    -6853.191   -6689.5638    -6853.191            0    8450.0583    22.996578    21.218288    21.312856    10399.566    8023.2158    8315.2839    9011.6753    462.68185   -283.03154    244.26186   -5407.9688 
 3740000    64.592427   -6856.2899   -6690.1298   -6856.2899            0    8051.7095    23.029396    21.215384    21.363766    10437.855    8616.3707    7350.7467    8188.0111   -544.34589   -888.83128    629.69691    -5464.455 
 3741000    63.485833   -6858.9924   -6695.6789   -6858.9924            0    7900.3104    23.055256    21.100974     21.44391    10432.213    7567.7186    8514.2993    7618.9134    157.63964    432.14585    266.19805    -5493.701 
 3742000     60.76816   -6850.7148   -6694.3924   -6850.7148            0    7995.3577    23.006837    21.240735     21.31198    10414.784    8113.0126    7646.8962    8226.1642    64.745449    82.715217   -145.03481    -5479.986 
 3743000    62.095606   -6847.8845   -6688.1474   -6847.8845            0    7977.7264    23.173271    21.134167    21.295805    10429.573    7042.3294     8240.637    8650.2127   -541.82024     546.7405   -475.16865   -5474.6983 
 3744000    62.415355   -6853.8928   -6693.3331   -6853.8928            0     8157.721     22.96417    21.175805    21.435568    10423.791    8515.0629    7913.8893    8044.2109   -196.91365    1058.6214    192.61127    -5453.194 
 3745000     65.80099    -6847.062    -6677.793    -6847.062            0    8877.0761    23.053175    21.117198    21.364855    10400.806     8738.775    8683.0662    9209.3871    81.105276   -38.924206   -81.116394    -5331.273 
 3746000    62.722039   -6852.9393   -6691.5907   -6852.9393            0     9099.706    23.089093    21.091875    21.321965    10383.632     9019.014    9546.2014    8733.9025   -41.135397   -38.158468   -403.65279   -5313.5801 
 3747000    63.873886   -6852.6494   -6688.3377   -6852.6494            0    8756.1576    23.002855    21.201775    21.317152    10396.404     8983.599    8444.1529    8840.7209    205.59051    11.457005   -397.27136   -5360.7213 
 3748000    62.727118   -6847.2413   -6685.8796   -6847.2413            0    8385.8845    23.089162    21.112661    21.353807    10409.418    8099.6966    8834.5939    8223.3629    235.41231    833.18709   -20.127555   -5412.8128 
 3749000     60.93848    -6850.153   -6693.3924    -6850.153            0     8312.432    23.045893    21.141012    21.381114    10417.167    8232.4687    8994.3679    7710.4595    437.74844   -116.79829   -332.70452    -5430.537 
 3750000    64.906797   -6844.9783   -6678.0095   -6844.9783            0    8064.3634    23.014844    21.243681    21.339135     10433.13    7999.4451    7531.9779    8661.6672    -137.3161    110.95587    168.02928   -5450.9643 
Loop time of 608.341 on 64 procs for 250000 steps with 1296 atoms

Performance: 71.013 ns/day, 0.338 hours/ns, 410.954 timesteps/s
196.0% CPU use with 32 MPI tasks x 2 OpenMP threads

MPI task timing breakdown:
Section |  min time  |  avg time  |  max time  |%varavg| %total
---------------------------------------------------------------
Pair    | 36.436     | 50.885     | 64.257     |  79.9 |  8.36
Bond    | 0.84705    | 1.1742     | 2.149      |  23.5 |  0.19
Kspace  | 317.48     | 331.79     | 348.79     |  34.8 | 54.54
Neigh   | 0.49294    | 0.51384    | 0.53923    |   2.1 |  0.08
Comm    | 85.445     | 88.454     | 93.09      |  20.0 | 14.54
Output  | 0.71398    | 0.71438    | 0.71651    |   0.0 |  0.12
Modify  | 113.32     | 116.55     | 121.2      |  16.0 | 19.16
Other   |            | 18.26      |            |       |  3.00

Nlocal:        40.5000 ave          51 max          29 min
Histogram: 2 1 4 1 2 11 5 1 2 3
Nghost:        3192.03 ave        3227 max        3163 min
Histogram: 3 2 5 6 2 4 5 1 2 2
Neighs:        13393.0 ave       16840 max        9574 min
Histogram: 2 1 4 1 7 6 5 1 2 3

Total # of neighbors = 428575
Ave neighs/atom = 330.69059
Ave special neighs/atom = 2.0000000
Neighbor list builds = 901
Dangerous builds = 0

unfix		3
unfix		2
unfix		1

write_data	data.final.${pid}
write_data	data.final.0
System init for write_data ...
PPPM initialization ...
  extracting TIP4P info from pair style
  using 12-bit tables for long-range coulomb (../kspace.cpp:340)
  G vector (1/distance) = 0.36976128
  grid = 30 40 32
  stencil order = 5
  estimated absolute RMS force accuracy = 0.0040494434
  estimated relative force accuracy = 1.2194779e-05
  using double precision FFTW3
  3d grid and FFT values/proc = 7752 1200
Last active /omp style is kspace_style pppm/tip4p/omp
WARNING: Not all mixed pair coeffs generated from mixing. Use write_data with 'pair ij' option to store all pair coeffs. (../write_data.cpp:312)

write_restart   restart.lmp.${pid}
write_restart   restart.lmp.0
System init for write_restart ...
PPPM initialization ...
  extracting TIP4P info from pair style
  using 12-bit tables for long-range coulomb (../kspace.cpp:340)
  G vector (1/distance) = 0.36976128
  grid = 30 40 32
  stencil order = 5
  estimated absolute RMS force accuracy = 0.0040494434
  estimated relative force accuracy = 1.2194779e-05
  using double precision FFTW3
  3d grid and FFT values/proc = 7752 1200
Last active /omp style is kspace_style pppm/tip4p/omp
Total wall time: 0:10:08
