#include		in.partitions
include		in.temp
variable        temperature equal 122.60
variable	tempDamp equal 100.0
include		in.pressure
variable        pressure equal 2057.9
variable        pressureDamp equal 1000.0 # This is 1 ps
include		in.seed
variable        seed equal 745823

units		real
atom_style	full
box tilt large
read_restart	restart.lmp.${pid}
read_restart	restart.lmp.0
Reading restart file ...
  restart file = 30 Jul 2021, LAMMPS = 30 Jul 2021
  restoring atom style full from restart
  triclinic box = (-10.712100 -9.1508525 0.056501498) to (12.692100 12.140850 21.803498) with tilt (-9.2781499 1.8108783 2.9685941)
  2 by 2 by 4 MPI processor grid
  restoring pair style lj/cut/tip4p/long/omp from restart
  restoring bond style harmonic/omp from restart
  restoring angle style harmonic/omp from restart
  1296 atoms
  864 bonds
  432 angles
Finding 1-2 1-3 1-4 neighbors ...
  special bond factors lj:    0        0        0       
  special bond factors coul:  0        0        0       
     2 = max # of 1-2 neighbors
     1 = max # of 1-3 neighbors
     1 = max # of 1-4 neighbors
     2 = max # of special neighbors
  special bonds CPU = 0.001 seconds
  read_restart CPU = 0.005 seconds
include 	in.setup
variable	out_freq equal 1000
variable	out_freq2 equal 10000
variable	out_freq3 equal 1000

timestep	2.0

neigh_modify    delay 7 every 1

include		in.tip4p
# This is TIP4P/Ice

# create groups ###
group ox type 2
432 atoms in group ox
group hy type 1
864 atoms in group hy

# set charges - beside manually ###
set group ox charge -1.1794
Setting atom values ...
  432 settings made for charge
set group hy charge 0.5897
Setting atom values ...
  864 settings made for charge

# ### TIP3P Potential Parameters ###
pair_style lj/cut/tip4p/long/omp 2 1 1 1 0.1577 8.5
pair_coeff 1 1*2 0.000 0.000
pair_coeff 2 2 0.21084 3.1668
bond_style  harmonic
bond_coeff  1 450 0.9572
angle_style harmonic
angle_coeff 1 55 104.52
kspace_style pppm/tip4p/omp 1.0e-5
pair_modify tail yes

thermo          ${out_freq}
thermo          1000
thermo_style    custom step temp pe etotal epair emol press lx ly lz vol pxx pyy pzz pxy pxz pyz enthalpy

restart 	${out_freq3} restart.lmp.${pid} restart2.lmp.${pid}
restart 	1000 restart.lmp.${pid} restart2.lmp.${pid}
restart 	1000 restart.lmp.0 restart2.lmp.${pid}
restart 	1000 restart.lmp.0 restart2.lmp.0


include         in.dump
dump            myDump all atom ${out_freq2} dump.water.${pid}
dump            myDump all atom 10000 dump.water.${pid}
dump            myDump all atom 10000 dump.water.0
dump            myDump2 all dcd ${out_freq2} dump.dcd
dump            myDump2 all dcd 10000 dump.dcd
dump_modify     myDump append yes
dump_modify     myDump2 append yes


variable natoms 	equal  "count(all)"                        # NUMBER ATOMS
variable H      	equal  "enthalpy/v_natoms"                 # ENTHALPY-per-atom
variable Vol      	equal  "vol/v_natoms"                 # volume-per-atom
fix AVG all 		ave/time ${out_freq} 1 ${out_freq} v_Vol v_H file vol_enthalpy.dat
fix AVG all 		ave/time 1000 1 ${out_freq} v_Vol v_H file vol_enthalpy.dat
fix AVG all 		ave/time 1000 1 1000 v_Vol v_H file vol_enthalpy.dat


timer           timeout 10:00:00 every 1000
New timer settings: style=normal  mode=nosync  timeout=10:00:00

fix 		1 all shake 1e-6 200 0 b 1 a 1
       0 = # of size 2 clusters
       0 = # of size 3 clusters
       0 = # of size 4 clusters
     432 = # of frozen angles
  find clusters CPU = 0.000 seconds
fix             2 all nph tri ${pressure} ${pressure} ${pressureDamp}
fix             2 all nph tri 2057.9 ${pressure} ${pressureDamp}
fix             2 all nph tri 2057.9 2057.9 ${pressureDamp}
fix             2 all nph tri 2057.9 2057.9 1000
fix             3 all temp/csvr ${temperature} ${temperature} ${tempDamp} ${seed}
fix             3 all temp/csvr 122.6 ${temperature} ${tempDamp} ${seed}
fix             3 all temp/csvr 122.6 122.6 ${tempDamp} ${seed}
fix             3 all temp/csvr 122.6 122.6 100 ${seed}
fix             3 all temp/csvr 122.6 122.6 100 745823


run             250000
PPPM initialization ...
  extracting TIP4P info from pair style
  using 12-bit tables for long-range coulomb (../kspace.cpp:340)
  G vector (1/distance) = 0.36688068
  grid = 27 40 32
  stencil order = 5
  estimated absolute RMS force accuracy = 0.0046313953
  estimated relative force accuracy = 1.3947309e-05
  using double precision FFTW3
  3d grid and FFT values/proc = 10353 2240
Last active /omp style is kspace_style pppm/tip4p/omp
Neighbor list info ...
  update every 1 steps, delay 7 steps, check yes
  max neighbors/atom: 2000, page size: 100000
  master list distance cutoff = 10.8154
  ghost atom cutoff = 10.8154
  binsize = 5.4077, bins = 7 5 5
  1 neighbor lists, perpetual/occasional/extra = 1 0 0
  (1) pair lj/cut/tip4p/long/omp, perpetual
      attributes: half, newton on, omp
      pair build: half/bin/newton/tri/omp
      stencil: half/bin/3d/tri
      bin: standard
Per MPI rank memory allocation (min/avg/max) = 12.66 | 12.67 | 12.68 Mbytes
Step Temp PotEng TotEng E_pair E_mol Press Lx Ly Lz Volume Pxx Pyy Pzz Pxy Pxz Pyz Enthalpy 
23750000    126.77387   -6682.9579   -6356.8399   -6682.9579            0    1949.8965      23.4042    21.291703    21.746996     10836.86    1229.5052    2155.0215    2465.1626    185.01378    439.77997   -819.57415   -6048.6695 
23751000    122.46817   -6695.5569    -6380.515   -6695.5569            0    1465.8627    23.420182    21.331547    21.698699    10840.425    354.51669      1974.18    2068.8915   -500.44112    198.15925    242.48971   -6148.7673 
23752000    125.36866   -6702.0216   -6379.5184   -6702.0216            0    2333.6095    23.275181    21.368153    21.698562    10791.728    2479.1339    1659.1963    2862.4984    207.07681   -297.54808    230.81193   -6012.2402 
23753000    118.40377   -6686.5304    -6381.944   -6686.5304            0    1770.7576    23.295084    21.374861    21.763298    10836.581    1797.6491    2334.6804    1179.9434     379.0115    1247.3268   -190.01403   -6102.0927 
23754000    120.81634   -6707.0359   -6396.2433   -6707.0359            0    1830.8004    23.354686    21.490835     21.51139    10796.819    1455.1834    590.20753    3447.0102   -953.99043   -737.16685    674.48138   -6107.9645 
23755000    122.69521   -6696.5169   -6380.8909   -6696.5169            0    1908.8883     23.16739      21.4453    21.792433     10827.17    1635.3819    2689.4181    1401.8648    1005.2596    781.99797   -471.26228   -6079.4714 
23756000    123.45866   -6687.3112   -6369.7213   -6687.3112            0    1896.1204    23.272225    21.536751    21.578042     10815.09    1761.0418    1369.8103    2557.5091   -54.605625    655.20741    488.13779    -6070.652 
23757000    119.78662    -6696.204   -6388.0603    -6696.204            0    2184.9669     23.17667    21.472955    21.741094    10819.924     2022.897    2749.7482    1782.2556   -44.554748    191.78594    16.909258    -6043.278 
23758000    128.67128   -6704.4093   -6373.4102   -6704.4093            0    2174.0269    23.325572    21.405843    21.606839    10788.371    2010.3433    2110.7501    2400.9872    613.17949    69.635657   -62.368121   -6031.3547 
23759000    128.85635   -6691.1147   -6359.6396   -6691.1147            0    2262.9227    23.248178    21.353962    21.753813    10799.479    2276.0277    2487.1315    2025.6088    213.85636   -200.01269    459.85591   -6003.2308 
23760000    124.48807   -6695.4355   -6375.1976   -6695.4355            0    2250.1438    23.352714    21.252351    21.772854    10805.869    2509.4243    2384.6314    1856.3756    510.40075   -568.24072    527.01153   -6020.5918 
23761000    125.97748   -6705.8728   -6381.8034   -6705.8728            0    1561.4285    23.433484    21.340495    21.656905    10830.232    469.53568    1892.4947     2322.255    308.88431    338.90643   -279.39843   -6135.1792 
23762000    123.09056   -6674.3889   -6357.7459   -6674.3889            0    1816.1652    23.322973    21.397592    21.751931     10855.42    1567.7911    1817.5522    2063.1522   -514.12405   -795.71337   -676.10674   -6070.2194 
23763000    126.24046   -6692.0525   -6367.3066   -6692.0525            0    1881.1573    23.364692     21.38064    21.674141    10827.362    1109.4442    2509.0076    2025.0201    48.245436    287.99237    223.76137   -6070.2607 
23764000    122.37883   -6710.7921     -6395.98   -6710.7921            0    2464.9396    23.218959    21.324469    21.770851    10779.444    3146.7187    1931.5813    2316.5189     27.24024   -692.37527    502.26095   -6008.4739 
23765000     124.0798   -6698.3153   -6379.1276   -6698.3153            0    1718.8462    23.299747    21.402197    21.723232    10832.632    1321.2129    1378.9823    2456.3435    487.65992   -613.71661     944.8723   -6107.5794 
23766000    122.02922   -6696.3547    -6382.442   -6696.3547            0    2501.3402    23.326039    21.368827    21.689929    10811.347    816.97548    3577.5213    3109.5238    613.19301     504.1062   -691.10609   -5988.0496 
23767000    122.58426   -6695.6689   -6380.3284   -6695.6689            0    1948.8725    23.265788    21.434135    21.694038    10818.427    2220.1229    2167.1941    1459.3005   -634.02264    -746.7439    -261.9897   -6072.8437 
23768000    117.15738   -6696.2423   -6394.8621   -6696.2423            0    2209.0677    23.167688    21.426208    21.754146    10798.664    3609.2872    697.46029    2320.4554   -29.217286    47.392027    1300.8787   -6046.9617 
23769000    117.66926   -6685.7456   -6383.0486   -6685.7456            0     2547.459    23.269145     21.41774    21.673627    10801.539     2057.118    2429.1104    3156.1484   -152.80436    394.08744    329.05462    -5981.749 
23770000    122.97595   -6706.6107   -6390.2626   -6706.6107            0    1313.5174    23.270523    21.448039    21.750176    10855.667    947.39082    1579.8702    1413.2912     172.8607   -552.36563   -1153.1579   -6182.3081 
23771000    118.83893   -6703.4144   -6397.7085   -6703.4144            0     2791.381    23.253124    21.365708    21.718843    10790.344    2832.2504     2541.973    2999.9196    -421.8327   -459.04319    385.49439   -5958.4398 
23772000    122.98597    -6694.961   -6378.5871    -6694.961            0    1651.7816    23.355695    21.335238    21.735787    10830.928    1006.1666    2037.9528    1911.2254    662.90461    81.400133    415.55904    -6117.675 
23773000    122.84196   -6705.8882   -6389.8848   -6705.8882            0    1085.6014     23.32928    21.355923    21.811681    10866.979     1064.818    742.31413    1449.6721   -132.15069    146.63648    151.70609   -6217.8346 
23774000    134.48775   -6688.9484   -6342.9869   -6688.9484            0    2413.3679    23.328282    21.415051    21.605971    10793.832     2291.724    1903.8336    3044.5462   -848.61517   -457.97522   -148.82563   -5963.0818 
23775000    123.42696   -6678.9551   -6361.4468   -6678.9551            0    2121.2203    23.255088    21.400041    21.748507    10823.359    1813.8888    2584.1613    1965.6108    43.932465    484.56213    59.460971   -6026.6173 
23776000    125.50488   -6684.0976    -6361.244   -6684.0976            0    2365.3235    23.215005    21.403975    21.726299    10795.654     3427.903    1688.8554    1979.2121   -413.17727   -413.18495    514.79488   -5988.8391 
23777000    123.32575   -6688.9744   -6371.7264   -6688.9744            0    1725.0241    23.206822    21.454748    21.730353    10819.467    1610.9853    1912.8702    1651.2167   -1046.5244    728.40745   -387.00524   -6099.5335 
23778000    119.73796   -6704.4598   -6396.4412   -6704.4598            0      2326.05    23.252617    21.476834    21.640647    10807.179    2602.4827    1324.0751    3051.5923    521.89942   -281.67262   -312.42122   -6029.8287 
23779000    122.00602   -6705.0121    -6391.159   -6705.0121            0    566.09428    23.228173    21.489445    21.797208    10880.306    524.33917    791.71093    382.23274    111.68839    430.87708    503.56723   -6301.3322 
23780000    128.71667   -6688.7732   -6357.6574   -6688.7732            0     3151.046    23.197757    21.379722    21.707587    10766.129    3216.3537    3225.5893    3011.1952    72.398563    314.06651    460.42116   -5862.9024 
23781000    125.66615   -6689.0008   -6365.7323   -6689.0008            0    2096.4588    23.255758    21.445357    21.660395    10802.646    2150.0796    2418.9607     1720.336    998.72072    308.87069   -576.79494   -6035.4446 
23782000    126.73348   -6693.2577   -6367.2436   -6693.2577            0    3523.3326    23.144754    21.425509    21.718177    10769.786    3654.9601    3385.0309    3530.0067   -707.65253    59.114728     31.81772   -5813.8468 
23783000    124.00761   -6699.0071   -6380.0051   -6699.0071            0    1302.9903     23.32926    21.444971    21.635524    10824.151    908.35572    1223.3237    1777.2916    624.76183    242.34463    151.83309   -6174.3162 
23784000    124.02095   -6707.9409   -6388.9046   -6707.9409            0    1726.3094    23.194358    21.362143    21.813929    10808.392     2517.684    1320.7303    1340.5138     85.86363     300.4219    1056.9445   -6116.7876 
23785000    124.28259   -6711.0065   -6391.2971   -6711.0065            0    1626.7175    23.399577    21.384924    21.616274    10816.745    975.96618     1566.099    2338.0874   -313.38528   -579.75108    195.87467   -6134.6806 
23786000    123.28819   -6708.6228   -6391.4714   -6708.6228            0    1911.2182    23.265064    21.341295    21.799735    10823.712    1370.7878     3371.461    991.40576    529.02697    95.350131   -982.90066   -6089.7804 
23787000    122.73868    -6690.527   -6374.7892    -6690.527            0    2544.8518    23.407044    21.359283    21.574167     10786.17    875.78147    2839.1052    3919.6688    313.47333     669.7771    616.12214   -5974.4707 
23788000    122.37284   -6695.5409   -6380.7442   -6695.5409            0    1482.3287    23.251373    21.309093    21.876337    10838.974    2233.8519    1564.3958    648.73835   -598.71522    116.17849    915.90521   -6146.4246 
23789000    118.99542   -6683.3958   -6377.2873   -6683.3958            0     2604.687    23.384602    21.385553    21.591648    10797.824    2693.6573    2622.0466    2498.3571    -660.6253   0.73676938   -1414.3248   -5967.1138 
23790000    123.85546   -6707.3651   -6388.7545   -6707.3651            0    2547.9183    23.229207    21.372313    21.732611    10789.413    3173.0723    1982.9814     2487.701   -758.05309   -470.11322    -162.9651   -5987.8331 
23791000    121.03579   -6703.5046   -6392.1475   -6703.5046            0     680.4238    23.322428    21.428128    21.717963    10853.682     1014.965     77.49358     948.8128    279.49019    42.101191    460.23353   -6284.4433 
23792000    122.29498   -6698.8702   -6384.2738   -6698.8702            0    2223.7383    23.199217    21.378381    21.790296    10807.152    2395.7331    2677.6799     1597.802    -169.0597    574.71707   -511.15167   -6033.7877 
23793000    125.94343   -6698.4289   -6374.4471   -6698.4289            0    1575.7185    23.221612    21.493556     21.70697    10834.275    2111.9211     397.0097    2218.2247   -291.36035   -624.41927   -687.50316   -6125.4729 
23794000    121.73436   -6687.1711   -6374.0169   -6687.1711            0    2155.0739    23.215675    21.489716    21.634764    10793.546    2649.2686    1061.0517    2754.9012    229.26099    427.62538   -112.00383   -6034.7807 
23795000    113.15113   -6703.0557   -6411.9813   -6703.0557            0    2017.9737    23.121616    21.337683    21.873139    10791.369    2212.1149    1848.9782     1992.828    821.37189   -279.02811    1239.9568   -6094.3904 
23796000    123.51053   -6692.3899   -6374.6666   -6692.3899            0    1516.7711    23.356654    21.409575    21.625246    10813.835    837.74317    1527.7809    2184.7894   -75.855841   -12.494263    290.94771   -6135.4586 
23797000    118.17864   -6697.7346   -6393.7273   -6697.7346            0    1200.1001    23.320157    21.386045    21.756513    10850.537    2244.7917    707.46919    648.03941    200.13062   -628.82249   -1010.6311   -6203.8187 
23798000    127.75343   -6697.5455   -6368.9076   -6697.5455            0    2030.6712    23.399761    21.376315    21.615028    10811.851    1496.3923    1662.0627    2933.5585   -48.952262    261.97949    1462.3861   -6048.7118 
23799000    124.95906   -6691.8733   -6370.4237   -6691.8733            0    1226.9662    23.266027    21.329316    21.855615    10845.815    650.23124    2168.2897    862.37766    49.507116    243.86384    245.08793   -6176.3483 
23800000    124.88482   -6697.0167   -6375.7581   -6697.0167            0    2808.9328    23.338999     21.30454    21.638289    10759.134     3105.208     3128.314    2193.2763    182.76324   -139.67923   -419.80344   -5935.0059 
23801000    126.24657   -6693.5188   -6368.7572   -6693.5188            0    1956.9587    23.394916    21.358117    21.627715    10806.749    1107.4736    2040.3889    2723.0137   -488.80078   -761.83711   -728.12457   -6060.3301 
23802000    122.22197   -6707.9879   -6393.5794   -6707.9879            0    2733.4988    23.209199    21.377418    21.707905    10770.437    3581.2098    1354.3869    3264.8997    145.16675   -184.62808    821.34858   -5964.2129 
23803000    121.48366   -6703.8486   -6391.3393   -6703.8486            0    2393.7244    23.204293    21.479301    21.653059    10792.145    2904.3618    1416.3716    2860.4397   -672.21272    501.66608    692.65036   -6014.5853 
23804000    120.90026   -6683.0222   -6372.0137   -6683.0222            0    1870.9164    23.204475    21.520343    21.706473    10839.524    2784.0566    1401.2608    1427.4318   -551.19748   -134.01582    -587.5255    -6076.253 
23805000    124.19058    -6693.356   -6373.8833    -6693.356            0    2783.1376    23.164029    21.499077    21.661157     10787.37    2584.3473    2391.4126     3373.653    571.77627      273.159    147.82998   -5936.0325 
23806000    122.63194   -6677.3481   -6361.8849   -6677.3481            0    1884.9987    23.230594    21.476955    21.709932    10831.572     2874.071    678.00632    2102.9188    123.58741    558.03625    657.58889   -6064.1166 
23807000    124.66594   -6697.7485   -6377.0529   -6697.7485            0    2680.3856    23.217195    21.369501    21.706028    10769.226    2861.5295    2364.9618    2814.6655   -1076.9305    592.70428    666.68695   -5956.0766 
23808000    120.82099   -6692.8751   -6382.0705   -6692.8751            0    2052.8285     23.30478    21.409988    21.671549    10813.129    2257.6275     2271.288      1629.57   -976.81132    -458.5898   -708.54693   -6058.3427 
23809000    124.60238   -6701.2738   -6380.7418   -6701.2738            0    1431.5107     23.35695    21.401893    21.676994    10835.959    1751.0781    805.87854    1737.5756   -549.16006     -751.987    7.3966635   -6154.5182 
23810000     117.1479   -6698.2829    -6396.927   -6698.2829            0    2022.9188    23.265384    21.311692    21.809824    10813.849    2269.2321    2419.2507    1380.2736    810.92878   -465.57385    492.68384   -6077.8947 
23811000    124.37312   -6702.2816   -6382.3393   -6702.2816            0     1825.279      23.3483    21.349109    21.683886    10808.666    1228.8347    2098.5577    2148.4447   -164.96234    184.58306    419.46899   -6094.6146 
23812000    122.54316   -6687.7475   -6372.5127   -6687.7475            0    1380.8766    23.344752    21.370487    21.752901    10852.277    1315.3679    1286.1497    1541.1123   -321.58087    438.12368   -367.51779   -6153.9623 
23813000    128.23648   -6687.2558   -6357.3753   -6687.2558            0    2556.8054    23.357292     21.32919    21.648613    10785.168    1985.9773    3171.1179    2513.3211   -108.37857    1.1142145   -619.22502   -5955.2138 
23814000    121.71151   -6701.6859   -6388.5905   -6701.6859            0    1698.7323    23.303103    21.407344    21.696843    10823.633    962.10518    2488.6127    1645.4789    285.66923   -166.44534      438.286   -6120.4429 
23815000    116.58422   -6703.8811   -6403.9753   -6703.8811            0    2362.8024    23.207767    21.429696    21.675892    10780.189    3165.3191    1107.3005    2815.7876   -515.65688    -40.23893    193.92804   -6032.5003 
23816000    127.84737   -6694.8277   -6365.9481   -6694.8277            0    1924.9964    23.206859    21.505555    21.684339    10822.142    2793.8455    1322.5464    1658.5974    200.50014   -458.68227   -254.70476   -6062.1262 
23817000    116.90365   -6700.5288   -6399.8013   -6700.5288            0     2295.409    23.093769    21.532013    21.717853    10799.319    3296.4152    1360.5111    2229.3007    363.45079   -93.376332    678.17298   -6038.2813 
23818000    123.45166   -6710.6358    -6393.064   -6710.6358            0    1623.4416    23.219329    21.457768    21.674777    10799.132    1481.6612     1527.802    1860.8616    756.34743   -271.41538    150.89279   -6137.3812 
23819000    119.85183   -6713.4375    -6405.126   -6713.4375            0    2987.1844    23.130848     21.41733     21.70315    10751.763    3094.3632     2913.707     2953.483    288.64615    418.25209   -304.21111   -5936.7252 
23820000    119.45645   -6697.4797   -6390.1853   -6697.4797            0    849.90413    23.330252     21.50732    21.675491    10876.137    1825.3966    705.80659    18.509165    -461.2061    -385.7067   -252.86556   -6255.3758 
23821000    122.69121   -6691.0713   -6375.4557   -6691.0713            0    1743.4571    23.343692    21.328094    21.761063    10834.321    1283.2697    2089.5417    1857.5601    349.06673    573.80449    -292.8216   -6099.9765 
23822000    128.41339   -6682.0842   -6351.7486   -6682.0842            0    2716.5477    23.370561    21.203763    21.711891    10759.194    1358.5166    4243.2016    2547.9247    703.23207    334.33475    1021.8563   -5925.4902 
23823000    115.95516    -6692.193   -6393.9054    -6692.193            0    2394.4432    23.347574    21.314956    21.704153    10801.126    2214.4163    3427.6745    1541.2388   -1023.8705   -330.12995   -843.46611   -6016.7247 
23824000    122.55641   -6699.6633   -6384.3944   -6699.6633            0    1907.6564    23.364304    21.354682    21.688334    10821.118    1827.6761    2188.3307    1706.9625   -739.55611    632.81319   -898.50315   -6083.3378 
23825000    123.19288   -6700.1545   -6383.2483   -6700.1545            0    2543.8378    23.308315    21.291666    21.747159    10792.524    1870.4493    3361.9981    2399.0661    98.656736    211.72956    700.18576   -5982.8536 
23826000    121.30015   -6694.8025   -6382.7653   -6694.8025            0    718.41013    23.304787    21.454599    21.761531    10880.653    490.93137    1254.3609    409.93817    1.2600069    646.72913    569.30095   -6268.7657 
23827000    123.78921   -6707.5035   -6389.0633   -6707.5035            0    2697.6661    23.291523    21.426365    21.593774    10776.431    2655.0896    2943.2186    2494.6901    788.33428    -806.0609   -482.06284   -5965.0895 
23828000    126.89832   -6690.3101   -6363.8719   -6690.3101            0    1872.7169    23.222475    21.430074    21.786026     10842.02    2244.0397    1977.5557    1396.5552   -325.49785   -129.70029   -629.32396   -6067.7584 
23829000     119.1736   -6701.0874   -6394.5206   -6701.0874            0    1407.2328    23.318959    21.470201    21.671604    10850.164    1618.5128    1106.6603    1496.5252   -627.74544    1075.9491     8.698838   -6171.8421 
23830000    126.18142   -6687.8163   -6363.2223   -6687.8163            0    2663.5237    23.171007    21.418034    21.766638    10802.291     2377.142    2113.0336    3500.3957   -1052.7436    786.84835    360.33899   -5943.6099 
23831000    119.15712   -6697.7579   -6391.2334   -6697.7579            0      1749.62    23.392687    21.462415    21.530899    10809.879    1955.1582    195.44816    3098.2538    -451.1137   -730.21534   -366.81723   -6115.4041 
23832000    116.70203   -6689.9685   -6389.7596   -6689.9685            0    2318.2272    23.205597    21.392214    21.734706    10789.523    2723.6811    1272.4379    2958.5626   -580.15688   -332.24766    235.67651    -6024.977 
23833000    124.40496   -6703.4788   -6383.4546   -6703.4788            0    2169.7489    23.264806    21.362024    21.719217     10794.09    2117.1114    1342.8747    3049.2607   -137.19857    36.825018    659.18191   -6041.8912 
23834000    129.99652   -6692.0495   -6357.6414   -6692.0495            0    1214.5548    23.375649    21.354494     21.70456    10834.377    692.72764    1421.0737     1529.863    132.11815    327.58564   -94.767046   -6165.7317 
23835000    120.79438   -6698.9026   -6388.1664   -6698.9026            0    2658.4537    23.412259     21.32488     21.60036    10784.274    2504.8793    3408.4731    2062.0086   -897.82036   -274.68649   -1019.8177   -5970.0513 
23836000    126.27598   -6715.3137   -6390.4764   -6715.3137            0    1396.8016    23.335336    21.317949    21.781873    10835.643    1099.7479    2050.6902    1039.9667    529.23716   -440.48958    324.93084   -6169.7444 
23837000    121.82543   -6710.7836   -6397.3951   -6710.7836            0    2220.4629    23.260545    21.361413    21.721813    10793.094    1300.0795     2969.043    2392.2663    697.34244    77.685513     441.8161   -6047.8804 
23838000    125.14499   -6698.6813   -6376.7535   -6698.6813            0    2914.4847    23.156787    21.436756    21.715894    10779.908    3471.5344    3080.6487    2191.2709   -422.35376   -271.42761    77.562672   -5918.5559 
23839000     117.9232   -6710.6222   -6407.2719   -6710.6222            0    1437.7536    23.203045    21.471541    21.714726    10818.388    1953.3419    1299.8472    1060.0716    415.61438    818.60345   -835.99548   -6180.4302 
23840000    120.57192   -6700.8451   -6390.6812   -6700.8451            0    1873.5661    23.211124    21.508927    21.687929    10827.619    2394.0079    664.28147    2562.4089   -93.040205   -271.04484    -115.9356   -6094.8269 
23841000    124.73919   -6717.8765   -6396.9925   -6717.8765            0    2597.2685     23.11332    21.465369    21.711053    10771.634    4008.9954    1587.8244    2194.9856    586.12775   -445.15514   -144.96087   -5988.9792 
23842000    126.42377   -6704.6489   -6379.4315   -6704.6489            0    1456.7042    23.248448    21.461992    21.707466    10831.114    2501.0023    1285.0414    584.06884   -540.48832   -833.71822   -551.24146   -6149.3295 
23843000    123.71694   -6696.4445   -6378.1902   -6696.4445            0    2323.0198    23.229136    21.417024     21.71193    10801.662    2642.3123     1301.193    3025.5541   -942.61524    100.99912    1057.5039   -6012.2422 
23844000    123.45644   -6694.9526   -6377.3685   -6694.9526            0     2562.645    23.272407    21.334573     21.70862    10778.479    2934.8242    2187.1644    2565.9464     222.3112    -687.5944   -176.97291   -5974.5385 
23845000    119.60984   -6707.5994   -6399.9103   -6707.5994            0    2233.5784    23.313682    21.352256    21.702802    10803.648    2142.6783    2551.2311    2006.8258   -946.53129    623.74649   -589.19523   -6047.9874 
23846000    127.29191   -6695.7223   -6368.2716   -6695.7223            0    2281.6917    23.344767    21.315616    21.696449    10796.329    2570.1701    2613.1208    1661.7841   -14.938492   -217.02024   -115.36233   -6009.0116 
23847000    122.28355   -6698.9958   -6384.4288   -6698.9958            0    923.06087    23.390371    21.293008    21.832344    10873.628    595.22168    1383.2163    790.74467    851.30283    302.05609    185.44987   -6238.0491 
23848000    119.81318   -6710.0198   -6401.8077   -6710.0198            0    1989.9489     23.41633    21.346291    21.623168    10808.379    2158.9183    1681.6929    2129.2354   -1086.6277   -336.35092    255.16652   -6088.1338 
23849000    123.71866    -6699.549   -6381.2903    -6699.549            0    1695.1097     23.25325    21.355366    21.796557    10823.771    2206.7189    1398.8931     1479.717   -317.12988   -1052.3229   -644.60544   -6113.7111 
23850000    124.60663   -6712.9261   -6392.3832   -6712.9261            0    2065.5342    23.278515    21.414098    21.671862    10803.172    1873.4977     2251.796    2071.3087    611.29219    187.11825   -93.822563   -6066.9517 
23851000     121.0597   -6709.0564   -6397.6377   -6709.0564            0    3540.7763    23.073721    21.452385    21.700002    10741.205     3331.118     3216.342    4074.8688   -203.14784    244.51789    81.564731    -5842.977 
23852000    121.71699   -6699.2828   -6386.1733   -6699.2828            0    1333.8331    23.294207    21.480408    21.681321    10848.662      1244.75    775.11668    1981.6325    518.09302    343.46908    96.988631   -6175.1387 
23853000    123.47858   -6684.2142    -6366.573   -6684.2142            0    2019.0235     23.10109    21.563792    21.705645    10812.604    2825.3952    1954.9352    1276.7402    -894.5058   -168.91708    94.534303   -6048.1917 
23854000    121.50051   -6691.8765   -6379.3239   -6691.8765            0    1421.7375    23.135221    21.575755    21.714787     10839.15    2083.0911    75.217822    2106.9034    525.87031   -287.64328   0.51990838   -6154.5786 
23855000    120.38563   -6682.2182   -6372.5335   -6682.2182            0    2346.7248    23.185753    21.499272    21.717291    10825.566    2148.4884    1761.2417    3130.4444    945.78907    359.54869     506.8613   -6002.0331 
23856000    118.45968   -6695.7717   -6391.0414   -6695.7717            0    2628.6726    23.215923    21.438785    21.664457    10782.859    2997.3299    2026.1511    2862.5368    408.25873   -326.76897    588.41598   -5977.6643 
23857000    121.58103   -6699.4905   -6386.7307   -6699.4905            0    1810.9284    23.313575    21.381964    21.664216    10799.396    2769.6318    701.84884    1961.3045   -433.04833   -534.27192   -534.34584   -6101.5129 
23858000    124.32258    -6707.432   -6387.6197    -6707.432            0    2442.7473    23.373503    21.187089    21.732152     10762.12    2647.5653    3207.4197     1473.257    545.12459   -360.52765   -277.65778   -6004.2196 
23859000    119.22523   -6699.2633   -6392.5637   -6699.2633            0    1175.9361    23.357147    21.315986    21.782003    10844.837    681.79244    1778.2691    1067.7467    202.47883   -458.92475    314.70212   -6206.5766 
23860000    121.20138   -6701.6829   -6389.8998   -6701.6829            0    2260.7216    23.431903    21.263799    21.651042    10787.659    1204.5357    3579.7539    1997.8753    528.31825    -96.04633   -835.45803   -6034.2273 
23861000    122.76656   -6695.9746   -6380.1651   -6695.9746            0     2198.421    23.271493    21.339731    21.792548    10822.341    3199.9245    1674.2133    1721.1252   -453.27742   -86.665705    328.30686   -6033.1823 
23862000    122.78053   -6693.5631   -6377.7177   -6693.5631            0    2070.9468    23.299618    21.397507    21.665506    10801.419    2621.5441    1684.4126    1906.8836   -158.68514    -94.57782    416.94512   -6051.4864 
23863000     122.5989   -6695.2483   -6379.8701   -6695.2483            0    1981.1703    23.220969    21.459768    21.721197    10824.033    2224.4811    1661.3237     2057.706    145.75557    859.64627   -191.43714   -6067.1277 
23864000    121.02301   -6682.2701   -6370.9458   -6682.2701            0    2477.4843    23.159844     21.50427    21.668125    10791.496    3698.5812    983.26037    2750.6114    239.14827   -605.05981    638.93548   -5981.0321 
23865000    122.34945    -6693.482   -6378.7455    -6693.482            0    2393.8258    23.203529    21.434786    21.711008    10798.245    2633.6208    3080.4883    1467.3683    444.78318    543.71616   -188.82411   -6001.7626 
23866000    121.00237   -6716.3385   -6405.0672   -6716.3385            0    1758.8203    23.242741    21.468917    21.703707    10830.073    1964.0869     1602.069    1710.3051    577.38621   -1051.8062   -1063.6545   -6127.2695 
23867000    118.41533   -6719.1422   -6414.5259   -6719.1422            0    2161.3353    23.249019    21.476673    21.615354    10792.797    3406.0891    629.92423    2447.9927   -1278.6751   -652.32056    -282.6833   -6074.3277 
23868000    119.48557   -6704.6063   -6397.2369   -6704.6063            0    1398.7745    23.378851    21.376604    21.681312    10835.462    515.88848    2374.9058    1305.5293    747.82621    81.965918   -533.54128   -6176.1968 
23869000    122.76511   -6704.4217    -6388.616   -6704.4217            0    2012.6595     23.28044    21.316442    21.772612    10804.792    1112.7414    2328.8418    2596.3955   -36.007186    803.59924    751.68915   -6071.4675 
23870000    119.88971   -6694.7458   -6386.3368   -6694.7458            0    2027.0895    23.379265      21.4092    21.595109    10809.029    1498.0289    1708.3318    2874.9079   -65.409163   -445.45257    132.01722   -6066.7893 
23871000    125.64428   -6709.7009   -6386.4887   -6709.7009            0    2086.2827    23.201013    21.370689    21.782571     10800.27    3349.2196    1493.7672    1415.8612   -942.46866    43.002132   -327.77673   -6057.8765 
23872000    124.52114   -6686.0824   -6365.7593   -6686.0824            0    1960.3272    23.307734    21.407213    21.668983    10811.818    2796.2341    1394.7963    1689.9511    351.83632   -438.98938   -50.982565   -6056.6564 
23873000    123.29709    -6706.571   -6389.3967    -6706.571            0    1523.3079    23.203243    21.468912     21.74734    10833.402    1549.7902    1550.5907     1469.543    111.85531    533.45679    491.25073   -6148.7231 
23874000    119.80218   -6683.8914   -6375.7076   -6683.8914            0    1908.7152    23.250148     21.51201    21.638874    10822.843    1893.6261     1236.698    2595.8215   -71.213674   -36.049862   -117.27709   -6074.4359 
23875000    124.83199   -6692.1065   -6370.9839   -6692.1065            0    2853.7886    23.134073    21.469835     21.69979    10777.954    3248.9212    2711.7826     2600.662   -117.43917    757.83918   -407.15127   -5922.4099 
23876000    125.80315   -6707.8598   -6384.2389   -6707.8598            0    2150.8762    23.217787    21.403368     21.72583    10796.409    2385.7374    2451.5958    1615.2953   -28.508931   -4.7253195    185.72424   -6045.5737 
23877000    123.78225   -6704.5936   -6386.1713   -6704.5936            0    2056.3436    23.285414    21.390934    21.717296    10817.315    1939.6341    2446.4392    1782.9574   -87.872943    279.65629   -966.74355   -6061.7637 
23878000    121.80505   -6694.2808   -6380.9447   -6694.2808            0    3151.9506    23.283942    21.394831    21.616419    10768.349    3610.6153    2846.6074    2998.6293   -405.37985   -1157.2902   -263.13575   -5885.9456 
23879000    128.83326   -6697.0134   -6365.5976   -6697.0134            0    1326.1273     23.39624    21.257518    21.807632    10845.938    1094.0292    2291.5311    592.82157   -936.63629   -392.67879   -53.315303   -6155.8349 
23880000     117.6464    -6709.678   -6407.0398    -6709.678            0    1609.7261    23.347408    21.350459    21.701287    10817.612    2421.9506    600.34044    1806.8872   -167.08324   -475.07915    980.38957   -6153.0834 
23881000    115.26219   -6699.0152   -6402.5103   -6699.0152            0    1712.4381    23.245771    21.354258     21.78673     10814.85     2834.755    2037.3225    265.23675   -355.83471   -924.36473   -1065.6917   -6132.4186 
23882000    130.39417   -6699.1925   -6363.7615   -6699.1925            0    1770.2454    23.349889    21.527984    21.504366     10809.73    705.72505    1683.2137    2921.7975    61.742593    224.41537   -345.59764   -6084.6844 
23883000     125.5036   -6697.8616   -6375.0112   -6697.8616            0    2151.6292    23.161207     21.42604    21.798564    10817.602    2490.2769    2379.1854    1585.4254    513.60078   -359.44966   -38.188057   -6035.5624 
23884000    119.77776   -6707.1095   -6398.9886   -6707.1095            0    2328.2749    23.248993     21.47388    21.597729    10782.582    1521.4289    2597.1912    2866.2046    1310.5417    64.254219    57.514297   -6032.8606 
23885000     118.7509   -6705.2217   -6399.7423   -6705.2217            0    1619.4925     23.10719    21.545905     21.74988    10828.511    2499.9316    1001.7004    1356.8455    77.993455   -552.92949   -115.47273   -6143.9876 
23886000    129.40617   -6701.8999   -6369.0104   -6701.8999            0    2503.3862    23.179628    21.545528    21.607008    10790.914    2646.4275    1496.8323    3366.8988   -14.499929    579.91571   -113.35724   -5975.0415 
23887000    125.71481   -6709.9071   -6386.5134   -6709.9071            0    2334.2859    23.170276    21.451465    21.711399    10791.355    3258.7635     1532.866    2211.2282   -299.44867    29.242466   -267.65139   -6019.1415 
23888000    118.40508   -6703.5734   -6398.9835   -6703.5734            0    1871.9148    23.262473    21.427068    21.695947    10814.271    2263.7297    1960.1721    1391.8427    251.42134   -311.70616    109.73827   -6103.7544 
23889000    121.28297   -6703.6293   -6391.6363   -6703.6293            0    1549.4414    23.308685    21.341349    21.792929    10840.648    2362.8203    829.07951    1456.4243    213.18727   -402.71217    33.401376     -6146.67 
23890000      122.795   -6701.4812   -6385.5985   -6701.4812            0    2315.0636    23.308512     21.31565    21.710928    10786.772    3011.1603    1885.6056    2048.4248   -403.09405   -304.17175   -280.84327   -6021.4066 
23891000    122.84495   -6709.2557   -6393.2445   -6709.2557            0    1729.3772    23.390949    21.335634    21.668373    10813.834    1824.1868    2049.4136    1314.5311   -898.40201   -716.61226   -527.39258   -6120.5067 
23892000    121.19502   -6696.0136   -6384.2468   -6696.0136            0    2445.3677    23.375517    21.223486    21.782411    10806.471    1496.8984    3480.3236    2358.8811   -381.81395    431.48882    206.20133   -5998.8537 
23893000    118.21594   -6686.3766   -6382.2733   -6686.3766            0    2556.3202    23.348653    21.381533    21.615697    10791.204    2113.0959    1885.7389    3670.1257    161.83929   -530.09798     380.8741   -5979.9631 
23894000    126.54721   -6714.5594   -6389.0244   -6714.5594            0    1777.9549    23.234359    21.431491    21.716332    10813.582    2465.3544    1936.4899    932.02028    86.312166   -743.51774   -99.091076   -6108.6321 
23895000    124.80832   -6686.7767   -6365.7149   -6686.7767            0     1538.405    23.214813    21.464979     21.75613    10841.199      2033.28    1687.2368     894.6982   -9.5058638    207.35063     169.2387   -6122.4811 
23896000    123.04056   -6703.6951   -6387.1808   -6703.6951            0    2442.0567    23.070004     21.63654    21.613293    10788.385    2903.9146    1731.3858    2690.8698    283.11285    219.01642   -344.16664   -6002.9536 
23897000    117.56237   -6701.3277   -6398.9057   -6701.3277            0    1269.2255    23.157782     21.51846     21.76723    10847.042    2123.6042    1077.3597    606.71247   -93.480147   -789.06927   -188.88909   -6198.1231 
23898000    125.41215   -6720.5239   -6397.9088   -6720.5239            0    1973.6767     23.26149    21.447784    21.647723    10800.209    1572.9307    2114.4383     2233.661    517.04486     280.5239   -293.79965   -6087.0351 
23899000    123.86777   -6683.9987   -6365.3564   -6683.9987            0    2988.9254    23.205051    21.320989    21.796571    10783.954    3488.3058    2976.5346    2501.9358    70.105865   -179.59094    524.29108   -5895.2794 
23900000    121.72516   -6706.3542   -6393.2237   -6706.3542            0    1793.1184    23.351961    21.324119    21.700144    10805.804    1539.1581     2056.036    1784.1612   -60.660372    442.91077    142.84291   -6110.6433 
23901000     125.1834   -6693.0999   -6371.0732   -6693.0999            0    1722.9091    23.350176    21.311364    21.785553    10841.016    2653.3357    1229.4199    1285.9716    -495.2201   -384.50798   -306.34421   -6098.6725 
23902000    118.53733   -6703.8805   -6398.9505   -6703.8805            0    1557.0313    23.392817    21.333751    21.663015    10811.069    1555.7145    1964.3001    1151.0791    234.88149    83.960281    895.43219   -6153.4559 
23903000    126.26081   -6692.1601   -6367.3618   -6692.1601            0     2754.935    23.286331    21.204752     21.83498    10781.695    2229.1713    3602.2497     2433.384   -14.611714    851.89018   -563.91113    -5934.176 
23904000     117.6941   -6685.0351   -6382.2742   -6685.0351            0    1396.0016    23.373187    21.407562    21.670421    10843.075    979.46479    1360.1685    1848.3714    45.722548   -873.26434      357.434   -6161.5173 
23905000    119.22383   -6707.4851   -6400.7891   -6707.4851            0    2458.5768    23.298072     21.41074    21.614558    10781.968    2795.5046     1948.038    2632.1878   -505.46057    68.305134   -767.56154   -6014.1928 
23906000    118.37076   -6715.0351   -6410.5335   -6715.0351            0    1622.6355    23.238891    21.483818    21.711435    10839.653    1131.3703    1152.4248    2584.1113   -520.02925    286.48685    225.12048   -6154.0188 
23907000    120.71126   -6702.6093    -6392.087   -6702.6093            0    1549.2729    23.185704    21.501444    21.708399    10822.204    2082.3221    474.02153    2091.4752    399.16377    426.93869   -100.27215   -6147.5641 
23908000    117.16741   -6693.6116   -6392.2056   -6693.6116            0    2682.9007    23.084256    21.571217    21.652207    10781.836    4269.4353    1185.4011    2593.8658    467.03132   -1041.7221   -439.06477   -5970.3409 
23909000    124.87581   -6703.3025   -6382.0671   -6703.3025            0    1632.3512    23.128258    21.543701    21.715678    10820.233    2715.4309    10.194728     2171.428    296.36682   -953.03081    362.99534   -6124.4788 
23910000    120.62046   -6699.9586   -6389.6698   -6699.9586            0      2877.69    23.202036     21.40298    21.715525    10783.771    3959.6604    2495.2627     2178.147   -117.98393   -440.00905   -189.78962   -5937.0948 
23911000    122.00144    -6715.122   -6401.2807    -6715.122            0    930.89662    23.326325    21.392015    21.731786    10844.099     969.4073    1602.3676      220.915   -637.37353    514.61666   -224.24409   -6254.0594 
23912000    121.91133   -6694.1041   -6380.4946   -6694.1041            0    2407.5047    23.316763    21.351624    21.664815    10785.845     1849.923    3102.0814    2270.5096   -147.66667   -247.42158    100.26707    -6001.793 
23913000    117.97894   -6691.2073   -6387.7136   -6691.2073            0    2433.6534    23.329052    21.235509    21.791509    10795.607    2973.6202    2875.2179    1452.1221   -738.15419    337.13584   -261.69256   -6004.5523 
23914000    115.54855   -6692.9255   -6395.6838   -6692.9255            0     2408.041    23.432878    21.242761    21.686577    10795.124     1567.076     4159.874    1497.1729   -163.75328   -927.25011   -333.06181    -6016.572 
23915000    118.06054   -6687.6266   -6383.9231   -6687.6266            0    1982.5583    23.378283    21.297515    21.749322    10828.973    1592.2621    2615.4757     1739.937   -232.95774    244.09062   -521.50067   -6070.8187 
23916000    125.97306   -6693.2692   -6369.2112   -6693.2692            0    1464.8737     23.40234    21.301752    21.789521    10862.313    368.86562    1853.2419    2172.5134    690.44926   -152.20332    915.55052   -6137.1522 
23917000      122.737   -6701.8571   -6386.1237   -6701.8571            0    2020.9709     23.37896    21.283567    21.709959    10802.608     2071.086    2050.6021    1941.2247   -163.50548    569.23472    690.94433   -6067.7299 
23918000    124.59076   -6689.0613   -6368.5592   -6689.0613            0     1892.594     23.26144    21.356243    21.757034    10808.394     2221.376    2169.4999     1286.906    -197.2338    469.24018   -700.45175   -6070.2309 
23919000    128.50275   -6688.5585    -6357.993   -6688.5585            0    2492.4845    23.234898    21.472063    21.663327     10807.86    3096.6308    2565.4854    1815.3372   -726.87472   -126.42175   -1063.2456   -5965.1237 
23920000    123.20917   -6704.5282   -6387.5801   -6704.5282            0    1503.1849    23.182726    21.576487    21.674976    10841.862    2395.5384    150.31015    1963.7062   -247.99377    605.11306    58.087249   -6149.9004 
23921000    122.28633   -6701.1783   -6386.6042   -6701.1783            0    1890.2671    23.099036    21.564558    21.686813    10802.646    2082.0168    1308.7254    2280.0591   -7.7152573    46.283292    188.20792   -6088.8011 
23922000    123.66389   -6702.2801   -6384.1623   -6702.2801            0    1742.5399    23.178651    21.505987    21.685357    10809.712    2083.4932    1406.6491    1737.4775    158.09122   -12.863606    198.62265   -6109.4534 
23923000    122.08632   -6705.4247   -6391.3651   -6705.4247            0    2125.5112    23.316082     21.36861    21.685157    10804.245    1677.9068    2700.9182    1997.7086   -85.407345   -454.21775   -260.98863   -6056.4508 
23924000    118.90006   -6702.8383   -6396.9752   -6702.8383            0    2032.5588    23.375373    21.320262    21.716548    10822.856     1918.498    2135.2673    2043.9109   -172.36977   -179.37353    298.73431   -6076.1556 
23925000    125.44669   -6699.5992   -6376.8953   -6699.5992            0    1706.8282    23.589778    21.086539    21.764465    10826.228    727.85989    3352.5439    1040.0807   -68.077094   -115.08114    200.21333   -6107.4052 
23926000    119.48432   -6701.6348   -6394.2687   -6701.6348            0    1839.7842    23.416948      21.2357      21.7729    10827.125    368.54213    3649.0148    1501.7957   -193.52006     347.9448   -824.74457   -6103.7621 
23927000    130.95428    -6701.269   -6364.3971    -6701.269            0    1426.4058    23.401674    21.354696    21.684644     10836.59     934.1397    1654.2581    1690.8197    143.82308    -630.6748    282.11589   -6138.9671 
23928000    120.90123   -6685.2408   -6374.2298   -6685.2408            0     1718.058    23.306441    21.383882    21.776145    10852.843    2469.7194    1379.4732    1304.9813    3.4701573    357.34372    -438.8686   -6102.2997 
23929000     122.8689   -6697.3848   -6381.3121   -6697.3848            0    2555.5037    23.158752    21.395223    21.789877    10796.593    2824.9948    2608.7118    2232.8046   -935.65143   -547.47964    144.09695   -5978.9295 
23930000     121.3852   -6689.4154   -6377.1594   -6689.4154            0    2654.0965    23.263736    21.496628    21.548736    10776.348    2328.8975    1733.5595    3899.8326    388.73705    813.13317    224.33834   -5960.0363 
23931000    121.10296   -6695.2258   -6383.6958   -6695.2258            0     2581.666    23.052185    21.414195    21.856681    10789.419    3283.4181    3288.2005    1173.3794    -492.8517    173.38881   -790.66918   -5977.4639 
23932000    125.76868   -6697.2961   -6373.7638   -6697.2961            0    2754.6136    23.236125    21.525488    21.540665    10773.971     2715.153    2581.1167    2967.5711    210.10971   -143.58089   -251.17633   -5940.9387 
23933000     119.0484   -6703.2215   -6396.9767   -6703.2215            0    1897.0097    23.213636    21.447573    21.743325    10825.483    1942.0846    1773.3188    1975.6255   -348.01498    642.61195   -19.115312   -6097.4796 
23934000    117.41387   -6693.6925   -6391.6524   -6693.6925            0    1899.3148    23.285972    21.443829    21.668746     10820.08    2147.1583    930.87494    2619.9111    317.19166   -33.836309    1229.0389    -6091.941 
23935000    122.68218   -6689.7665   -6374.1741   -6689.7665            0    1595.8743    23.271412    21.386615    21.783636    10841.644     2046.813    2098.1676    642.64253   -645.82109     416.1878    -1027.659   -6121.8436 
23936000    123.67491   -6686.7861   -6368.6399   -6686.7861            0    2118.6295    23.339543     21.38294    21.662956    10811.289    2182.3919    2772.3102    1401.1864   -311.21258   -40.076972   -750.44955   -6034.5923 
23937000    116.01423   -6700.3316   -6401.8921   -6700.3316            0    2276.5337    23.264989    21.402852    21.685996    10798.263    2100.4395    2124.4342    2604.7274   -428.41598    419.29788    679.01888   -6043.3799 
23938000    124.62111      -6687.3   -6366.7198      -6687.3            0    1763.2782    23.314118    21.287265    21.764298    10801.487    735.64375    2764.0102    1790.1808    723.38048    214.22442    23.647158    -6088.953 
23939000    116.97903   -6706.0402   -6405.1188   -6706.0402            0    3627.6293     23.33241    21.263015    21.628278    10730.165    2803.0103    4567.5289    3512.3488   -389.42198    398.84261   -78.256691   -5837.4367 
23940000    120.59191   -6666.6781   -6356.4628   -6666.6781            0     2197.643    23.333261    21.336095    21.716075    10811.146     2679.287    1618.6156    2295.0263   -290.78207   -1066.9695    26.527694   -6009.9616 
23941000    123.48722   -6687.3989   -6369.7356   -6687.3989            0    1811.0116    23.334691    21.327968    21.761154    10830.125    1415.3787    2104.3768    1913.2791    226.72406    236.11589    17.734122   -6083.6931 
23942000    124.93454   -6697.8969   -6376.5104   -6697.8969            0    2167.5987    23.314939    21.383995    21.689318    10813.568    1566.5995    2745.0997    2191.0969   -230.53574   -566.33535   -132.34348   -6034.6696 
23943000    117.08455   -6693.0363   -6391.8434   -6693.0363            0      1325.54    23.326661    21.390556    21.745972    10850.593    856.93843      1905.15    1214.5316    364.51302    340.42349    157.43686   -6182.0837 
23944000    122.06667   -6695.0227   -6381.0136   -6695.0227            0    1691.6128    23.270794    21.450117    21.694133    10828.871    2009.1512    1493.9176    1571.7695   -201.97497   -492.94251    181.56357   -6113.8606 
23945000    126.28609   -6694.9937   -6370.1305   -6694.9937            0    2896.3323     23.18596    21.408257    21.693737    10768.142    3515.5345    2697.1079    2476.3546   -7.8646267   -523.81552   -226.46523   -5915.2837 
23946000    122.66432   -6707.3713   -6391.8248   -6707.3713            0    916.87228    23.197043    21.469359    21.820364    10867.101    239.79817     1035.367    1475.4517    198.18672    777.09866   -253.62545   -6246.5138 
23947000    121.35563   -6693.6468   -6381.4668   -6693.6468            0    2518.0655    23.263584    21.430033    21.628065    10782.442    1968.0298    3111.8847    2474.2821   -453.58877   -62.426846    156.64977   -5985.4989 
23948000    124.36238   -6692.4592   -6372.5446   -6692.4592            0    2883.2693     23.26238    21.309496    21.757531    10785.417    3329.3039    3656.5287    1663.9752   -903.42327    1011.8709   -365.77326   -5919.0229 
23949000    124.18196   -6693.6292   -6374.1786   -6693.6292            0    1388.3065     23.43267    21.285451    21.738294    10842.516    1370.7167    1712.5645    1081.6382    252.53491     -273.675    683.30052   -6154.6499 
23950000    121.60814   -6705.1488   -6392.3193   -6705.1488            0    1742.2241    23.319019    21.335447     21.74835    10820.276    1151.4272    2632.8295    1442.4155   -573.60886    454.22049   -204.06639   -6117.3918 
23951000    126.15287   -6705.3464   -6380.8258   -6705.3464            0    2180.5421    23.321673    21.336548    21.716146    10806.041    2568.5107    1563.0586     2410.057    174.65207   -1037.1172   -113.95695   -6037.1833 
23952000    122.42453   -6696.7909   -6381.8612   -6696.7909            0    1573.6792    23.465343    21.280835    21.644675     10808.53    891.66894    1708.4055     2120.963   -1228.8485    982.04446    333.78628   -6133.8001 
23953000    116.81958   -6709.6304   -6409.1192   -6709.6304            0    1793.2401    23.238378    21.325782    21.804106    10805.604    2349.8705    2168.6856    861.16414   -297.62241   -774.29669   -125.73009   -6126.5249 
23954000    121.68418   -6698.3414   -6385.3162   -6698.3414            0    2643.9656    23.223694    21.410674    21.667547    10773.861    1837.7779    2842.3405    3251.7785    376.61034    786.17039    423.04253   -5969.8813 
23955000    120.21285   -6705.4767   -6396.2365   -6705.4767            0    1040.2216    23.156027    21.569376    21.709373    10842.986    1185.0476    676.11579    1259.5015    609.55428   -733.25514    959.72262   -6231.7422 
23956000    125.62663   -6723.2411   -6400.0743   -6723.2411            0    1988.5614    23.161719    21.531966     21.67094    10807.673    2053.3548     2351.378    1560.9514   -377.55363    436.28641    87.754957   -6086.6395 
23957000     119.0063   -6704.0877   -6397.9513   -6704.0877            0    2060.4078    23.181408    21.493642    21.674833    10799.548    1568.0869    1987.0791    2626.0574      840.839    3.6125158    537.61884   -6073.4363 
23958000     121.8242   -6693.7512   -6380.3659   -6693.7512            0    2611.3277    23.132317    21.503795    21.710758    10799.639    3151.8786    2026.1232    2655.9812   -402.15883    531.92578     332.7687   -5969.0774 
23959000    127.98873    -6703.622   -6374.3788    -6703.622            0    1928.3041    23.360481    21.368875    21.666687    10815.733    1122.6972    1721.7013    2940.5138    385.33085    678.64889    621.83582   -6070.2151 
23960000    122.46352   -6699.8973   -6384.8673   -6699.8973            0    2585.4649    23.282393    21.300379    21.743068    10782.905    2780.1363    2656.1558    2320.1024   -280.19615   -314.89302    7.6108996   -5978.2833 
23961000    121.95257   -6686.4716    -6372.756   -6686.4716            0    2975.1824    23.447996    21.250119    21.593988    10759.695    1955.9709    3628.4504     3341.126   -584.35052   -90.530705   -112.36708    -5905.893 
23962000    124.25517   -6712.9165   -6393.2777   -6712.9165            0    1977.5333    23.320011    21.166233      21.9075    10813.471    1856.6529    2351.6616    1724.2854   -194.05236    422.55261   -191.12202    -6081.414 
23963000    121.40091   -6699.8355   -6387.5391   -6699.8355            0    2132.3361     23.32115      21.4056    21.615329    10790.442     1683.082    2046.5523     2667.374    217.94689   -491.01332    1078.2582   -6051.9786 
23964000    122.80835   -6701.2991   -6385.3821   -6701.2991            0    2250.1874    23.196631    21.404223    21.774475    10811.154    2712.9842    2321.9596    1715.6183   -298.19783    104.51825   -931.97383    -6030.596 
23965000    116.93163   -6703.5553   -6402.7558   -6703.5553            0    1802.7562    23.229254    21.553477     21.60793    10818.468    1199.9423    1231.5891    2976.7372    390.65888   -287.93508    73.816226   -6118.3236 
23966000    119.26704   -6691.0891   -6384.2819   -6691.0891            0     2816.536    23.058803     21.53215    21.733548    10790.829    4245.0018    2058.8679    2145.7384    28.049429    -320.3116    519.07518   -5941.0348 
23967000     116.3217   -6684.4928   -6385.2623   -6684.4928            0    2632.1749    23.193958    21.519637    21.600965    10781.593    2215.8386    2915.7214    2764.9647    580.59265    458.47072   -41.602772   -5971.3831 
23968000    127.20002   -6701.5722   -6374.3579   -6701.5722            0    1972.6401    23.112144    21.518603    21.786407    10835.275    3030.2131    1805.9933     1081.714   -415.10547   -106.42092   -50.840737   -6062.6386 
23969000    120.51006   -6696.4641   -6386.4593   -6696.4641            0    1760.0245    23.311571    21.537482    21.539291    10814.287    1197.3622    1849.6485    2233.0627   -216.28977    748.72093   -775.55376   -6108.8766 
23970000    117.55206   -6708.3275    -6405.932   -6708.3275            0    2049.2289    23.203329    21.376291    21.802378    10814.004    2399.9713    2517.5732    1230.1422   -53.968601      335.388   -429.00819   -6082.7457 
23971000    122.15149   -6707.9402   -6393.7129   -6707.9402            0       1535.9    23.396952     21.37905    21.661852    10835.358     1926.217    361.19107    2320.2918   -129.16897   -828.72689    705.68588   -6151.0061 
23972000    121.09591   -6703.0921   -6391.5802   -6703.0921            0     1715.115    23.338606    21.223835    21.873391     10834.65    1596.5136    2607.0784    941.75305   -535.80573   -77.199496   -306.64018   -6120.5711 
23973000    118.98672    -6699.665   -6393.5789    -6699.665            0    2096.8133    23.408567    21.271113    21.690156    10800.099    954.77032      2329.07    3006.5996   -538.27894    272.69515    886.05727   -6063.3133 
23974000     121.3994   -6680.2953   -6368.0027   -6680.2953            0    2815.2535     23.40091    21.214045    21.721671    10783.245    1788.0643    3870.2968    2787.3992    400.53735   -382.56319   -159.58169   -5925.2687 
23975000    124.87478   -6710.9193   -6389.6865   -6710.9193            0    2522.1045    23.314097    21.263531    21.760752    10787.676    1876.5842    3820.5848    1869.1445   -371.00882   -1210.0062    187.38069   -5992.8909 
23976000    123.69845   -6702.1332   -6383.9265   -6702.1332            0    2454.6617    23.284053    21.345464    21.678442    10774.379    3022.4907     2694.261    1647.2334     243.9957     507.9808   -765.25347   -5998.2175 
23977000    126.13648   -6684.0204    -6359.542   -6684.0204            0    2410.2289    23.242549     21.41855      21.7194    10812.389    3629.7622    1960.5807    1640.3438   -96.444798   -500.61922    696.10117   -5979.4788 
23978000    126.46555   -6688.2806   -6362.9556   -6688.2806            0    1320.7136    23.240164    21.560591    21.680741    10863.605    2293.5366    370.55389    1298.0502   -391.85265   -968.49613    41.568578    -6153.709 
23979000    122.25991   -6688.5376   -6374.0314   -6688.5376            0    2699.1381    23.145092    21.486928    21.691222    10787.412    3588.5076     2292.575    2216.3315    1217.1079    32.886643    251.92071    -5949.394 
23980000    128.41107   -6696.3916   -6366.0619   -6696.3916            0    1883.0556    23.172685    21.451441    21.746891    10810.108    2297.9888    1344.8093    2006.3686    547.65038    548.14636   -231.66037   -6069.1901 
23981000    124.85552   -6690.3464   -6369.1632   -6690.3464            0    1708.1215    23.297964    21.447743    21.664656    10825.585    1937.8875    1070.6798    2115.7973   -26.447526   -141.08217    368.61048   -6099.4849 
23982000    121.66786   -6689.5898   -6376.6066   -6689.5898            0    1570.3287    23.338486    21.391446    21.687729    10827.468    1239.5691    1237.1412    2234.2758    13.739437     664.8596   -149.98054   -6128.6399 
23983000     116.5844   -6692.3982   -6392.4919   -6692.3982            0    2731.5284    23.293142    21.322715    21.687832    10771.761    2997.2853    3199.9655    1997.3344   -659.93588    474.39033   -124.83223   -5963.3822 
23984000    125.64374   -6703.3291   -6380.1183   -6703.3291            0    2290.2492    23.274437    21.278068    21.765374    10778.976    2021.9775    2422.5578    2426.2122   -109.65125    1326.1811    1061.1204   -6020.0904 
23985000    125.75566   -6708.7817    -6385.283   -6708.7817            0    3002.0268    23.251933    21.324071    21.677605    10748.318    3303.2526    3626.4431    2076.3846    976.58517   -255.47239   -708.52796   -5914.7057 
23986000    122.75153   -6709.9247   -6394.1538   -6709.9247            0    1562.8079    23.284335    21.434696    21.706173    10833.392    816.90837     2637.973    1233.5424   -893.61281    973.28251   -1062.6131   -6147.2397 
23987000     119.6207   -6703.0342   -6395.3172   -6703.0342            0    1470.2161     23.32206    21.411841    21.726069    10849.309    1343.9304    1118.8331    1947.8848    617.61676     7.642074    521.68784   -6162.6908 
23988000    122.70583   -6681.2765   -6365.6233   -6681.2765            0    2430.1094    23.225236    21.434563    21.680517    10793.055    2422.1172    1962.3169     2905.894   -364.18958    -11.67968    938.69793   -5983.1103 
23989000    120.36365   -6697.5051   -6387.8769   -6697.5051            0    2556.5943    23.314638     21.40464    21.601185    10779.886    2440.6759    1653.5087    3575.5981    281.64701   -662.27976       577.46   -5985.9456 
23990000    123.12451   -6695.4558   -6378.7255   -6695.4558            0    1733.3349    23.278593    21.385791    21.762555    10834.077    2103.4225     2128.431     968.1512   -588.87041    739.82885   -823.11326   -6104.8519 
23991000    115.85202   -6686.9203   -6388.8981   -6686.9203            0    2788.8609    23.350513    21.330015    21.627469    10771.924    2892.2313    3114.6981    2359.6532   -167.69928   -212.46816    178.76918   -5950.7751 
23992000    124.95185   -6713.4272   -6391.9962   -6713.4272            0     1257.579    23.305615    21.355895    21.768123    10834.262    908.61076    1188.8357    1675.2906   -232.18196    503.92886    247.47574   -6193.2904 
23993000    122.90725   -6693.2376   -6377.0662   -6693.2376            0     2824.581    23.329011     21.35094    21.643006    10780.301    1994.6783    3241.0386    3238.0259   -221.93757    245.51541    79.655583   -5932.9866 
23994000    123.00591   -6701.7368   -6385.3116   -6701.7368            0     968.1351     23.31097    21.448507    21.710486    10854.928    28.535531    1697.3336    1178.5362    168.46565   -435.19458   -796.02185   -6232.0481 
23995000    126.00158   -6684.1754   -6360.0441   -6684.1754            0    3320.7836    23.271809    21.369691    21.664266    10773.886     3070.587     3214.087    3677.6769    452.60461    156.48314   -268.40323   -5838.2624 
23996000    117.99055   -6698.2029   -6394.6794   -6698.2029            0     1803.779    23.162317    21.398503    21.832919    10821.244    1561.9711    2645.0765    1204.2894    326.91533   -487.06086    117.78382   -6110.0129 
23997000    122.70291   -6696.4863   -6380.8406   -6696.4863            0    1643.0031    23.233575    21.459601    21.677173    10807.876    1691.4667    1681.3365    1556.2061   -593.43106    490.68587   -402.05412   -6121.8675 
23998000    124.81118   -6696.7033   -6375.6342   -6696.7033            0     2637.644    23.183256    21.503241    21.620547     10778.17    2849.0848    1756.1526    3307.6946   -814.64557    82.636869   -501.54693   -5961.0267 
23999000     117.7425   -6691.4847   -6388.5993   -6691.4847            0    2514.1656    23.031641    21.572138     21.69353    10778.251    3082.9955    2660.6888    1798.8125    172.77112    534.11558   -674.82225   -5993.3983 
24000000    128.69081   -6685.0541   -6354.0048   -6685.0541            0    1850.5608    23.225789    21.533401    21.640879    10823.257    2141.9989     1789.345    1620.3386    403.88842     588.7833    277.77837    -6061.901 
Loop time of 501.086 on 64 procs for 250000 steps with 1296 atoms

Performance: 86.213 ns/day, 0.278 hours/ns, 498.916 timesteps/s
391.8% CPU use with 16 MPI tasks x 4 OpenMP threads

MPI task timing breakdown:
Section |  min time  |  avg time  |  max time  |%varavg| %total
---------------------------------------------------------------
Pair    | 38.568     | 49.581     | 60.568     |  86.1 |  9.89
Bond    | 1.4905     | 1.8103     | 3.1602     |  29.0 |  0.36
Kspace  | 247.05     | 260.59     | 272.1      |  41.9 | 52.00
Neigh   | 1.349      | 1.4721     | 1.5363     |   4.9 |  0.29
Comm    | 50.774     | 55.213     | 59.827     |  28.4 | 11.02
Output  | 0.46499    | 0.46533    | 0.46682    |   0.1 |  0.09
Modify  | 117.66     | 120.96     | 125.66     |  19.6 | 24.14
Other   |            | 10.99      |            |       |  2.19

Nlocal:        81.0000 ave          95 max          63 min
Histogram: 2 0 1 0 3 4 2 0 1 3
Nghost:        3660.69 ave        3692 max        3640 min
Histogram: 2 3 4 1 0 1 1 2 1 1
Neighs:        25806.7 ave       30303 max       20185 min
Histogram: 2 0 1 1 2 4 2 0 1 3

Total # of neighbors = 412907
Ave neighs/atom = 318.60108
Ave special neighs/atom = 2.0000000
Neighbor list builds = 3286
Dangerous builds = 0

unfix		3
unfix		2
unfix		1

write_data	data.final.${pid}
write_data	data.final.0
System init for write_data ...
PPPM initialization ...
  extracting TIP4P info from pair style
  using 12-bit tables for long-range coulomb (../kspace.cpp:340)
  G vector (1/distance) = 0.36921475
  grid = 27 40 32
  stencil order = 5
  estimated absolute RMS force accuracy = 0.0040935086
  estimated relative force accuracy = 1.2327479e-05
  using double precision FFTW3
  3d grid and FFT values/proc = 10353 2240
Last active /omp style is kspace_style pppm/tip4p/omp
WARNING: Not all mixed pair coeffs generated from mixing. Use write_data with 'pair ij' option to store all pair coeffs. (../write_data.cpp:312)

write_restart   restart.lmp.${pid}
write_restart   restart.lmp.0
System init for write_restart ...
PPPM initialization ...
  extracting TIP4P info from pair style
  using 12-bit tables for long-range coulomb (../kspace.cpp:340)
  G vector (1/distance) = 0.36921475
  grid = 27 40 32
  stencil order = 5
  estimated absolute RMS force accuracy = 0.0040935086
  estimated relative force accuracy = 1.2327479e-05
  using double precision FFTW3
  3d grid and FFT values/proc = 10353 2240
Last active /omp style is kspace_style pppm/tip4p/omp
Total wall time: 0:08:21
