LAMMPS (30 Jul 2021)
Processor partition = 1
  using 2 OpenMP thread(s) per MPI task
using multi-threaded neighbor list subroutines
variable        pid world 0 1
variable        phase world IceII IceIh

shell cd ${phase}
shell cd IceIh
include Restart.lmp
echo both
log log.lammps
#include		in.partitions
include		in.temp
variable        temperature equal 135.10
variable	tempDamp equal 100.0
include		in.pressure
variable        pressure equal 2049.2
variable        pressureDamp equal 1000.0 # This is 1 ps
include		in.seed
variable        seed equal 745823

units		real
atom_style	full
#include		in.box
read_restart	restart.lmp.${pid}
read_restart	restart.lmp.1
Reading restart file ...
  restart file = 30 Jul 2021, LAMMPS = 30 Jul 2021
  restoring atom style full from restart
  orthogonal box = (0.022784366 0.12650292 0.17873102) to (18.184788 23.502675 22.034465)
  2 by 4 by 4 MPI processor grid
  restoring pair style lj/cut/tip4p/long/omp from restart
  restoring bond style harmonic/omp from restart
  restoring angle style harmonic/omp from restart
  864 atoms
  576 bonds
  288 angles
Finding 1-2 1-3 1-4 neighbors ...
  special bond factors lj:    0        0        0       
  special bond factors coul:  0        0        0       
     2 = max # of 1-2 neighbors
     1 = max # of 1-3 neighbors
     1 = max # of 1-4 neighbors
     2 = max # of special neighbors
  special bonds CPU = 0.002 seconds
  read_restart CPU = 0.008 seconds
include 	in.setup
variable	out_freq equal 1000
variable	out_freq2 equal 10000
variable	out_freq3 equal 1000

timestep	2.0

neigh_modify    delay 7 every 1

include		in.tip4p
# This is TIP4P/Ice

# create groups ###
group ox type 2
288 atoms in group ox
group hy type 1
576 atoms in group hy

# set charges - beside manually ###
set group ox charge -1.1794
Setting atom values ...
  288 settings made for charge
set group hy charge 0.5897
Setting atom values ...
  576 settings made for charge

# ### TIP3P Potential Parameters ###
pair_style lj/cut/tip4p/long/omp 2 1 1 1 0.1577 8.5
pair_coeff 1 1*2 0.000 0.000
pair_coeff 2 2 0.21084 3.1668
bond_style  harmonic
bond_coeff  1 450 0.9572
angle_style harmonic
angle_coeff 1 55 104.52
kspace_style pppm/tip4p/omp 1.0e-5
pair_modify tail yes

thermo          ${out_freq}
thermo          1000
thermo_style    custom step temp pe etotal epair emol press lx ly lz vol pxx pyy pzz pxy pxz pyz enthalpy

restart 	${out_freq3} restart.lmp.${pid} restart2.lmp.${pid}
restart 	1000 restart.lmp.${pid} restart2.lmp.${pid}
restart 	1000 restart.lmp.1 restart2.lmp.${pid}
restart 	1000 restart.lmp.1 restart2.lmp.1


include         in.dump
dump            myDump all atom ${out_freq2} dump.water.${pid}
dump            myDump all atom 10000 dump.water.${pid}
dump            myDump all atom 10000 dump.water.1
dump            myDump2 all dcd ${out_freq2} dump.dcd
dump            myDump2 all dcd 10000 dump.dcd
dump_modify     myDump append yes
dump_modify     myDump2 append yes


variable natoms 	equal  "count(all)"                        # NUMBER ATOMS
variable H      	equal  "enthalpy/v_natoms"                 # ENTHALPY-per-atom
variable Vol      	equal  "vol/v_natoms"                 # volume-per-atom
fix AVG all 		ave/time ${out_freq} 1 ${out_freq} v_Vol v_H file vol_enthalpy.dat
fix AVG all 		ave/time 1000 1 ${out_freq} v_Vol v_H file vol_enthalpy.dat
fix AVG all 		ave/time 1000 1 1000 v_Vol v_H file vol_enthalpy.dat


timer           timeout 23:50:00 every 1000
New timer settings: style=normal  mode=nosync  timeout=23:50:00

fix 		1 all shake 1e-6 200 0 b 1 a 1
Finding SHAKE clusters ...
       0 = # of size 2 clusters
       0 = # of size 3 clusters
       0 = # of size 4 clusters
     288 = # of frozen angles
  find clusters CPU = 0.000 seconds
fix             2 all nph aniso ${pressure} ${pressure} ${pressureDamp}
fix             2 all nph aniso 2049.2 ${pressure} ${pressureDamp}
fix             2 all nph aniso 2049.2 2049.2 ${pressureDamp}
fix             2 all nph aniso 2049.2 2049.2 1000
fix             3 all temp/csvr ${temperature} ${temperature} ${tempDamp} ${seed}
fix             3 all temp/csvr 135.1 ${temperature} ${tempDamp} ${seed}
fix             3 all temp/csvr 135.1 135.1 ${tempDamp} ${seed}
fix             3 all temp/csvr 135.1 135.1 100 ${seed}
fix             3 all temp/csvr 135.1 135.1 100 745823


run             250000
PPPM initialization ...
  extracting TIP4P info from pair style
  using 12-bit tables for long-range coulomb (../kspace.cpp:340)
  G vector (1/distance) = 0.37186793
  grid = 24 27 25
  stencil order = 5
  estimated absolute RMS force accuracy = 0.0031298386
  estimated relative force accuracy = 9.4254159e-06
  using double precision FFTW3
  3d grid and FFT values/proc = 4410 672
Last active /omp style is kspace_style pppm/tip4p/omp
Neighbor list info ...
  update every 1 steps, delay 7 steps, check yes
  max neighbors/atom: 2000, page size: 100000
  master list distance cutoff = 10.8154
  ghost atom cutoff = 10.8154
  binsize = 5.4077, bins = 4 5 5
  1 neighbor lists, perpetual/occasional/extra = 1 0 0
  (1) pair lj/cut/tip4p/long/omp, perpetual
      attributes: half, newton on, omp
      pair build: half/bin/newton/omp
      stencil: half/bin/3d
      bin: standard
Setting up Verlet run ...
  Unit style    : real
  Current step  : 21000000
  Time step     : 2
  Walltime left : 23:49:59.93
Per MPI rank memory allocation (min/avg/max) = 10.20 | 10.22 | 10.23 Mbytes
Step Temp PotEng TotEng E_pair E_mol Press Lx Ly Lz Volume Pxx Pyy Pzz Pxy Pxz Pyz Enthalpy 
21000000    144.47226   -4482.0973   -4234.4768   -4482.0973            0    918.63397    18.162004    23.376172    21.855734    9279.0293    695.21052     967.5212    1093.1702    26.511538    -513.1158   -196.00054   -4110.1625 
21001000    134.01873   -4490.9668   -4261.2632   -4490.9668            0    2257.1512    18.024236    23.375159    21.850166    9205.8982    1895.1964     2154.888    2721.3692   -18.096351   -209.44074   -120.73089   -3958.2213 
21002000    137.63193   -4500.8248   -4264.9284   -4500.8248            0    1166.1009    17.990581    23.408788    22.006052    9267.5781    1117.0828    1586.3891    794.83082    -349.9946    307.62297    708.13645   -4107.3203 
21003000    145.83423   -4515.2256   -4265.2707   -4515.2256            0    2425.8381    18.031473    23.358326    21.799875    9181.7809    2241.9962    1481.6201    3553.8982   -230.52319    47.170034     7.308607   -3940.4344 
21004000    120.91591   -4491.9161   -4284.6704   -4491.9161            0    1494.9248    17.907938    23.493297    21.903983     9215.367    1556.4461    689.63523    2238.6931   -405.14953    129.56219   -117.44443   -4083.7575 
21005000    132.00829   -4481.0795   -4254.8218   -4481.0795            0    2019.3284    17.925851    23.137141    22.187534    9202.3452    2207.5958     3325.937    524.45229    676.83042   -63.190323    1073.5454   -3983.8142 
21006000       140.16   -4493.5755    -4253.346   -4493.5755            0    2382.3607    17.909806    23.343844    21.993745    9195.2264    1674.9149    1281.2361    4190.9312   -354.57527     309.4185   -625.75806   -3933.8644 
21007000    138.07671    -4499.339   -4262.6802    -4499.339            0    1762.2013    18.012704    23.457437    21.823258    9221.0221    2266.2635    1185.3536    1834.9868     487.5526    57.317223   -336.54126   -4025.7009 
21008000    137.53131   -4487.9582   -4252.2343   -4487.9582            0    2342.9308    18.094734    23.232513    21.921057    9215.3086    1691.1228    2592.7195      2744.95    564.81068   -117.85599   -233.41065   -3937.3542 
21009000    142.28813   -4488.9626   -4245.0856   -4488.9626            0    2271.0662    17.700053     23.56762    22.035708    9192.1539    3411.3177    1470.6932    1931.1877     -635.355    -638.7349    655.00937   -3940.6307 
21010000    138.44354    -4496.872   -4259.5845    -4496.872            0    1700.9078    18.049613    23.189678    22.084145    9243.6437    663.62008    2005.1387    2433.9645   -292.75433   -111.55889    673.56222   -4030.2867 
21011000    139.27071   -4504.1445   -4265.4392   -4504.1445            0    549.94932    17.960962    23.508348    22.010845    9293.6951    930.97341    355.33846    363.53608     58.41656    407.30653    546.08507   -4190.8997 
21012000    136.40628   -4476.1933   -4242.3976   -4476.1933            0    2080.5272    17.951251    23.458122    21.959776    9247.3193     2065.532    2657.2381    1518.8115    -577.7196    348.19349    650.10708   -3961.8122 
21013000    144.33106    -4495.383   -4248.0045    -4495.383            0    1769.4315    18.029022    23.185706    22.088616    9233.3859    2522.7801    1210.4709    1575.0435   -204.56845    198.28181    673.29971   -4009.7338 
21014000    132.10551   -4500.7613   -4274.3369   -4500.7613            0    1446.1565      17.7706     23.56259     22.11216    9258.8333    2591.1817    1105.2634    642.02438    202.39678   -258.50357    602.73387   -4079.0616 
21015000    137.17214   -4495.6306   -4260.5222   -4495.6306            0    1838.4121    18.056333     23.23409    21.948779    9208.0061    1227.1201    2246.7132    2041.4031    431.12649    300.02321    376.27761   -4013.6431 
21016000    132.90454    -4491.726   -4263.9322    -4491.726            0     1433.648    18.051654    23.393294    21.869372    9235.1657    708.91931    2369.7287     1222.296    1385.7043    -301.8459    72.676916   -4070.8407 
21017000    135.86267   -4494.1147   -4261.2507   -4494.1147            0    2632.7378    17.891159    23.496901    21.909541    9210.4819    3242.1815    1793.7443    2862.2876   -219.05469   -280.26591    104.24106   -3907.6071 
21018000     128.2253   -4497.3506   -4277.5768   -4497.3506            0    2231.2556    18.006289     23.22488    21.982164    9192.8065    3064.3032    1144.9452    2484.5185    171.80008   -291.53773    479.63586   -3978.4376 
21019000      133.283   -4493.3324   -4264.8899   -4493.3324            0    938.41634    17.889737    23.515849    22.085518    9291.2087    1941.4806     705.1359    168.63255   -140.13081   -171.60828   -232.86632   -4137.7319 
21020000    128.63795   -4490.2761    -4269.795   -4490.2761            0    1979.1387    18.012903     23.21286    22.015954    9205.5524    1648.9032    3108.4308    1180.0822   -197.10755    19.979006    221.37089   -4004.0886 
21021000    140.22772   -4514.2992   -4273.9537   -4514.2992            0    2057.3509    17.869996    23.446394    21.933632    9189.9061    1896.0605    2324.1065    1951.8857   -281.80613   -116.18483    -237.7649   -3998.2165 
21022000    141.40887   -4492.9997   -4250.6297   -4492.9997            0    2175.2687    17.972948    23.414636    21.852771    9196.3024    1461.9694    2690.3022    2373.5346    410.34459   -57.412288    365.37521   -3958.8856 
21023000    132.95121   -4503.2378   -4275.3639   -4503.2378            0    2992.7931    18.071267    23.107628    21.878672    9136.1861    2586.8159    3768.4043    2623.1592   -259.54155    129.88875    495.00573   -3876.5985 
21024000    140.58977   -4475.4852   -4234.5191   -4475.4852            0    2457.0269    17.861029    23.488959    21.894728    9185.6478    2716.1488    977.79317    3677.1388    160.38197    261.72285    10.831406   -3905.3678 
21025000    137.24368   -4493.3881   -4258.1571   -4493.3881            0     2123.155    18.074251    23.269221    21.863834    9195.3547    1426.3269    1936.6042    3006.5337    987.75053    461.97036    509.77762   -3973.4318 
21026000    143.94966   -4494.5229   -4247.7981   -4494.5229            0    974.04958    18.000098     23.30745    22.082431    9264.3833    1611.0072    1123.8981    187.24351   -579.43158   -1.2206035   -303.19325   -4116.1928 
21027000    133.07446   -4479.8969   -4251.8119   -4479.8969            0    2686.9719    17.790795    23.553189    21.942903    9194.7336    3331.5828    1890.2291    2839.1038    937.77672    339.36667    575.57267   -3891.5003 
21028000    130.79649   -4496.2082   -4272.0275   -4496.2082            0     1519.969    18.106732    23.214208    21.955169     9228.492    194.17354    1679.9266    2685.8068   -614.81993    26.002618    214.74575   -4067.4578 
21029000    132.36739   -4505.4733   -4278.6001   -4505.4733            0    2287.7815    17.949707     23.35353    21.895179    9178.2186    1905.9682    2740.5694    2216.8069    193.24938    323.16748   -188.00953   -3972.3694 
21030000    139.62135   -4491.2297   -4251.9235   -4491.2297            0    2748.6021    17.947264    23.374224    21.923934    9197.1644    2217.6678    4151.7778    1876.3608   -976.40162    148.96385    6.2869312   -3883.2502 
21031000    139.97168   -4484.9389   -4245.0322   -4484.9389            0     2760.115    17.909334     23.26505    21.991375    9162.9604    2253.6016    3993.9626    2032.7809    -244.4426    -324.4758   -315.99957   -3876.1915 
21032000    132.50852   -4479.2074   -4252.0924   -4479.2074            0     2158.267    17.905548    23.360367    22.044156    9220.6334    2697.6129    3102.3889    674.79919   -752.35525   -48.376548    273.72379   -3961.8627 
21033000    140.11428   -4499.4736   -4259.3226   -4499.4736            0     1901.679    18.102668    23.165742    22.022629    9235.4481    1577.3845    2222.3567    1905.2959   -393.49165    117.55718   -354.28519   -4003.1863 
21034000    130.90354    -4500.921   -4276.5568    -4500.921            0    1479.7783    17.913074    23.588362    21.818798    9219.3167    1421.5396   -392.13513    3409.9305    -544.7367    560.37137   -78.388576   -4077.5943 
21035000    129.47715   -4505.4208   -4283.5014   -4505.4208            0    2200.5939    18.012393    23.393239    21.878645    9218.9659    2177.6697    2353.5417    2070.5703    811.73677    -431.3892    302.76819   -3987.6334 
21036000    132.95177   -4503.1324   -4275.2576   -4503.1324            0    684.64292    18.145188    23.268535    21.967631    9274.9962    50.393721    742.87998    1260.6551   -266.08389    32.856312     413.5126   -4182.6485 
21037000    136.60889   -4490.8939   -4256.7509   -4490.8939            0    2342.9729    17.790661    23.565724     21.94648     9201.058    2490.5138    3425.9789     1112.426   -741.43219    89.879918    342.64971   -3942.3521 
21038000    136.00725   -4492.7891   -4259.6773   -4492.7891            0    2762.3203    17.932707    23.259038    22.046421     9195.507    2400.7472    3002.7677     2883.446    673.83155   -587.07309    805.44145   -3889.2307 
21039000    133.36211   -4487.7275   -4259.1494   -4487.7275            0    2082.5974    18.069035    23.240437    21.905288    9198.7371    1429.9077    3056.7504     1761.134    869.20939     56.15149   -161.53359   -3979.7603 
21040000    136.19784    -4499.385   -4265.9466    -4499.385            0     1769.155    17.862815     23.56534    21.888415    9213.7814    2656.6674    1099.0958    1551.7017   -1343.5406    62.776831    201.91658    -4028.219 
21041000    134.65163   -4495.7745   -4264.9862   -4495.7745            0      1819.57    18.052925    23.245048    21.930852    9203.0871    2594.9967    2129.9299     733.7833    528.38222   -350.72967   -128.02361   -4020.7679 
21042000    138.58111   -4505.2757   -4267.7524   -4505.2757            0    1837.0223     17.87211    23.360679    22.075116    9216.4634    1251.3525    2082.3128    2177.4015    809.08939   -107.42496   -959.57538   -4020.8334 
21043000    130.41083   -4475.9212   -4252.4015   -4475.9212            0    2748.7604    17.916196    23.331736    21.893358    9151.7732    2534.6735    2317.9797    3393.6281     195.8479   -205.85916    492.75371   -3885.5265 
21044000    138.93399   -4497.0132   -4258.8851   -4497.0132            0    2632.8022    18.052991    23.215333    21.909011    9182.2022    2616.1429    3455.3641    1826.8996    574.00022   -32.331403    90.756582   -3906.3187 
21045000    127.17777   -4506.1108   -4288.1324   -4506.1108            0    1783.0899    17.877317    23.492134    21.944339     9216.103    616.61615    1354.5464    3378.1073    -325.8171   -25.206215   -22.476366   -4048.4719 
21046000     140.3757     -4491.78   -4251.1809     -4491.78            0    3151.6571    17.963613    23.136136    22.054667    9166.1091    4979.7752    2969.2599    1505.9363   -536.59231   -153.84239    721.77416   -3829.8727 
21047000    130.94367   -4499.7419   -4275.3089   -4499.7419            0    829.97439    17.902556    23.505004    22.031999    9271.0573    1365.8741    578.11901    545.93003    194.34514    378.01064   -256.86181    -4163.089 
21048000     133.5091   -4485.0408   -4256.2107   -4485.0408            0    2393.2978    17.946849    23.491319    21.812308    9195.9638    2739.3789    2164.9083    2275.6061    109.08618    73.843784    478.31073   -3935.2367 
21049000    141.41679   -4494.5542   -4252.1707   -4494.5542            0    2241.2784    18.166115    23.257766    21.801164    9211.0622    1348.8242    2037.9434    3337.0678   -1043.0964    620.98059   -82.029991    -3951.091 
21050000    134.09603   -4499.9376   -4270.1016   -4499.9376            0     2309.294    17.836356    23.425521    21.960675    9175.7393    3245.5764    3573.7713    108.53436   -294.53466    -85.38363   -42.965469   -3961.0747 
21051000    136.96266   -4481.6787   -4246.9294   -4481.6787            0    2215.5059     18.02945    23.127603    22.046041     9192.713    2101.2958    3294.3186    1250.9032    559.43928    240.33239    404.42676   -3949.9047 
21052000    130.75126   -4490.5651   -4266.4619   -4490.5651            0    1844.6229    17.949617    23.324067    22.016074     9217.207    946.33276    3369.9603    1217.5757   -791.00767    601.62635   -301.69187   -4018.5013 
21053000    131.64217   -4498.7126   -4273.0824   -4498.7126            0    1818.7138    17.980897    23.378412    21.937402    9221.7122    1487.3849    2893.9436     1074.813   -35.463294   -742.86479   -100.24439    -4028.485 
21054000    133.98417   -4481.5439   -4251.8997   -4481.5439            0    2062.7121    18.180678    23.132782    21.890112    9206.3171    590.27206    3009.5918    2588.2725   -455.87104   -151.42047   -122.35398   -3974.9503 
21055000    133.23104   -4490.0118   -4261.6583   -4490.0118            0    1584.4657    17.832057      23.5437    21.933335    9208.3292    997.67891    1444.0713    2311.6471    114.68645   -175.53411   -532.84578    -4048.874 
21056000    141.29415   -4487.5844    -4245.411   -4487.5844            0    1574.7478    18.012823    23.232912    22.042435     9224.546    2147.3591    816.97307    1759.9112   -176.66962    288.35973   -472.78938   -4033.5593 
21057000    137.85879   -4495.8195   -4259.5342   -4495.8195            0    3210.6454    17.893971    23.270043    21.953943    9141.4788    3708.2464    3708.1881    2215.5017   -89.231396   -544.53834    -91.62932   -3831.4939 
21058000    136.33143   -4498.1477   -4264.4803   -4498.1477            0    1207.3319     17.82726    23.436619    22.196033    9273.7402    1717.3354    1529.0849    375.57525   -540.16657   -389.99338    78.899961   -4101.1911 
21059000    142.54564   -4502.7348   -4258.4165   -4502.7348            0    2049.3921    17.908737    23.259954    22.040726    9181.2053    2183.6285    2520.1253    1444.4225   -246.46134    -148.7133   -256.41775    -3984.006 
21060000    132.64752   -4509.5611   -4282.2077   -4509.5611            0    1881.3736     17.95422    23.648785    21.690605    9209.7331    1546.4162    128.74382    3968.9608   -558.16044   -284.60323   -173.63483    -4029.512 
21061000    133.67757   -4491.7334   -4262.6146   -4491.7334            0    2582.1153    18.073415    23.385086    21.771131    9201.5326    2091.3927    2024.0123    3630.9408   -801.60235    778.09858    62.421372   -3916.1079 
21062000    130.46073   -4472.6539   -4249.0487   -4472.6539            0    2665.2748    17.993784     23.36827    21.836141    9181.7388    1826.2709    2873.6112    3295.9424    543.78738   -85.246085   -247.31617   -3892.1517 
21063000    139.98377   -4480.5633   -4240.6359   -4480.5633            0    2255.8273    17.865398    23.297672    22.019731    9165.1008    2406.8593    2759.6521    1600.9704    147.76171   0.37514512    84.111985   -3939.1139 
21064000     132.0709   -4489.5261   -4263.1611   -4489.5261            0    2771.4421    17.949942    23.222033    22.009354    9174.2499    3018.4795    3216.8988    2078.9479    431.30503    68.766571   -349.28546   -3892.3504 
21065000    127.49256   -4498.7664   -4280.2485   -4498.7664            0     1060.366    17.836608    23.625028    21.961989    9254.5699    1350.6998     1252.444    577.95421    558.36631    56.569628    478.94198   -4137.1326 
21066000    143.61179   -4497.7265   -4251.5808   -4497.7265            0    2263.5879    18.099933    23.097781    22.033065     9211.326    2657.7341    2337.6108    1795.4189    388.70707   -286.58465    268.71756   -3947.4955 
21067000    135.06582    -4513.255   -4281.7568    -4513.255            0    2729.8521     17.84471    23.362803    22.006841    9174.7055     2764.598    3305.7281    2119.2302    -151.9491    248.23753   -179.00317   -3916.4925 
21068000    136.56109   -4496.7119   -4262.6508   -4496.7119            0     2335.716     17.93525    23.269971    22.006945     9184.659    2186.0873    2025.6347    2795.4262   -50.981697   -143.52463   -296.30434   -3949.7844 
21069000    126.56775   -4499.2319   -4282.2991   -4499.2319            0    2153.9493    17.976385    23.244981    21.935404     9165.944    1623.2527    2170.2633     2668.332   -534.40008   -113.59021    209.69013    -3994.368 
21070000       134.17   -4494.1042   -4264.1414   -4494.1042            0    2706.1722    17.810067    23.466686    21.998694    9194.2057    3095.2484    2167.2945    2855.9737     205.0914    251.69404    676.75777   -3901.2761 
21071000    132.60038    -4491.873   -4264.6005    -4491.873            0    1939.1975    18.030834    23.187245    21.994415     9195.543    1519.1844    2811.1341    1487.2739    183.52454   -62.485884    35.485233   -4004.5394 
21072000    142.63048   -4480.6412   -4236.1774   -4480.6412            0    2290.4355    17.949734    23.406621     21.96527    9228.5458    1769.6776     2653.518    2448.1109   -38.368761   -89.531621    296.17173   -3927.9103 
21073000     131.7467   -4506.7491   -4280.9398   -4506.7491            0    2107.6532     18.02587    23.338269    21.933498    9227.2608    3048.8802    1665.7558    1608.3237    32.036592   -370.57047    39.063725   -3997.3126 
21074000    137.58588   -4501.5278   -4265.7103   -4501.5278            0    2789.4471    18.006468    23.323481    21.822062    9164.6878    2553.9542    2101.5054    3712.8816   -89.409566    221.31399   -170.41107   -3892.8796 
21075000    133.10292   -4489.7659    -4261.632   -4489.7659            0    2495.2006    17.833136    23.564381    21.866479    9188.8805    3196.5343    2009.8474      2279.22    480.50118    686.00809    666.92453   -3927.2492 
21076000    133.91469   -4497.6539   -4268.1287   -4497.6539            0    1579.7318    18.065428    23.260148    21.974674    9233.8576    796.47221    1643.4745    2299.2486   -97.450215   -394.38665    49.561555    -4055.392 
21077000    134.28331   -4502.2099   -4272.0529   -4502.2099            0    1219.1813    17.959797    23.397989    22.036002    9260.0376    955.24017    157.55187    2544.7518    560.04729   -8.2457363    319.48942   -4107.4048 
21078000    141.11412   -4480.5328   -4238.6681   -4480.5328            0    777.07542    17.938969     23.38697    22.049689    9250.6858    973.05415      1529.47   -171.29789    37.313698   -171.34825   -10.145218   -4133.8314 
21079000    132.04312   -4492.2764    -4265.959   -4492.2764            0    1937.3111    18.103736    23.182303    21.943916    9209.5607    1831.9812    2274.3667    1705.5856    259.81117   -66.906108   -192.92858   -4005.7549 
21080000    137.23987    -4475.795   -4240.5705    -4475.795            0      2783.22    17.951028    23.340654    21.905088    9177.9855    2497.9686     2780.145    3071.5465   -1073.0003    185.92126   -226.73601   -3868.0323 
21081000    131.52464   -4487.9573   -4262.5286   -4487.9573            0    2227.2311    18.020383    23.392865    21.797912    9188.8747    2380.1879    1367.9662    2933.5392   -72.958894    185.84115    102.55202   -3964.0567 
21082000    134.94324   -4506.5573   -4275.2692   -4506.5573            0     1949.924    17.892325    23.256678    22.054687    9177.3088    2043.6835    2038.6146    1767.4738   -939.33848    55.522026    33.296387   -4014.2882 
21083000     133.6212   -4505.5121     -4276.49   -4505.5121            0    3010.9225    17.878453    23.283506    21.959674     9141.221    2776.4619    3706.9216     2549.384   -533.71265   -348.18539    12.391305   -3875.0878 
21084000    141.57554   -4481.9954   -4239.3398   -4481.9954            0    2144.9357    18.051529    23.166236    21.914459    9164.3191    2318.7894    2570.8919    1545.1257    299.62119   -532.34904    58.306729   -3952.6644 
21085000     133.7993   -4494.2893   -4264.9619   -4494.2893            0    1704.4155    17.868228    23.502091     21.94327    9214.8727    2405.2261    1329.5761    1378.4443    223.20093   -299.81419    788.09774   -4035.9064 
21086000    138.25466   -4501.7071   -4264.7433   -4501.7071            0    1312.7079     17.99007    23.236242    22.043858     9214.809    918.94785    831.61885     2187.557    617.88755     627.4223   -104.50772   -4088.3304 
21087000    135.94945   -4504.6304   -4271.6177   -4504.6304            0    1234.7681       17.876    23.420235    21.982831    9203.3346    1772.3891    1159.7187    772.19657    268.65521    523.98866     277.2642   -4105.8856 
21088000    139.05802   -4485.9478   -4247.6071   -4485.9478            0    1660.9833    17.909181    23.435739    21.935719    9206.7477    3228.7233    199.37919    1554.8474    178.41837   -519.94259   -98.428221   -4024.5853 
21089000    128.23307   -4501.6807   -4281.8936   -4501.6807            0    1434.1834    18.059202    23.282614    22.001134    9250.7166    561.60397    1941.7334    1799.2127   -738.13857   -599.01628    -426.2225   -4088.4047 
21090000     133.4434   -4490.7722   -4262.0548   -4490.7722            0    1667.6818    17.868212    23.474101    21.959694    9210.7786    1098.6888    2239.4772    1664.8795    182.16529    470.50766    627.82162   -4038.0355 
21091000      128.887   -4496.8943   -4275.9864   -4496.8943            0       3193.9    18.029116    23.161331    21.913929    9150.7816    4152.9823    3011.8012    2416.9166   -401.65306    1057.9506   -92.858506   -3849.7452 
21092000    142.67435   -4501.3394   -4256.8005   -4501.3394            0     1751.221    17.971425    23.430968    21.914384    9227.8815    2475.2446    468.86733     2309.551   -717.75373   -932.67113    661.18743   -4021.1226 
21093000    128.32406   -4497.6853   -4277.7422   -4497.6853            0    2383.8021    17.919239    23.358342    21.974005    9197.5212    2593.3326    2417.5509    2140.5229     235.9585   -112.02386    433.91118   -3957.9876 
21094000    129.57708   -4487.7093   -4265.6186   -4487.7093            0    2082.8105    17.977614    23.201999    22.056275    9200.0384    2921.9101    1707.8317    1618.6897   -111.19237    869.99928   -256.24369   -3986.1614 
21095000    125.56629   -4486.2877   -4271.0713   -4486.2877            0    2002.1313    17.801655    23.557328    21.954309    9206.7458    2061.5876    1644.9899    2299.8165    -1141.183   -170.68519   -372.50757   -4002.2433 
21096000    135.44961   -4486.1991   -4254.0431   -4486.1991            0    2551.8128    17.951024    23.405983    21.827889    9171.2356    2584.1671    2281.5672    2789.7041    445.17418    516.06107    989.54906   -3912.7303 
21097000    140.69837    -4502.424   -4261.2718    -4502.424            0     1812.136    18.124996    23.201232    21.898196    9208.6785    2069.6494    2447.7003    919.05842    238.64246   -230.91868   -300.02547   -4017.9035 
21098000    130.17003   -4505.1433   -4282.0364   -4505.1433            0    1036.0065     17.86329    23.486043    22.010633    9234.2964    1766.9529    1090.4308    250.63571    591.46816   -353.02018   -121.51077   -4142.5145 
21099000    132.19555   -4482.2368   -4255.6582   -4482.2368            0    2434.7108    18.092376    23.050373    21.981507    9167.0803    1483.2276    3292.0005    2528.9044   -865.51758   -23.786569    376.00686   -3930.1557 
21100000    132.36204   -4503.3195   -4276.4555   -4503.3195            0    2583.5551    17.890804    23.336618    21.961061    9168.9816    2659.9451    2494.8552    2595.8652   -532.08328    43.082646     405.6481    -3930.982 
21101000    136.64521   -4518.2146   -4284.0094   -4518.2146            0    1292.7779    17.964339     23.32574    22.056479    9242.3594     939.6971    1246.2604    1692.3762    102.09283   -160.78002   -342.33651   -4109.7554 
21102000    135.82715   -4482.9382   -4250.1351   -4482.9382            0    3883.9475    17.976133    23.106295    21.895032    9094.3609    2987.1878    5169.2631    3495.3917    1035.9392   -54.674742   -163.85441   -3734.9996 
21103000     136.6049   -4488.3457   -4254.2096   -4488.3457            0    1840.1761    17.805862    23.401519    22.097037    9207.4868    2216.3405    1416.3666    1887.8212   -306.51605   -10.588694    335.48309   -4007.1075 
21104000    133.54657   -4491.0872    -4262.193   -4491.0872            0    2263.6589     17.92133     23.25589    22.028534    9180.9748    2047.0795     2314.609    2429.2882    185.15803    258.00632    956.72726   -3959.1001 
21105000    136.95249   -4485.4382   -4250.7064   -4485.4382            0    2510.7734    18.030862     23.32643    21.821446    9178.0054    2712.6247    2281.1606    2538.5348    -578.4358   -208.09972    255.46056   -3914.6348 
21106000    134.66599   -4508.7627   -4277.9498   -4508.7627            0    2486.8216    17.856207    23.445449    21.862107    9152.5008    1931.5968    2148.1399    3380.7281   -1065.1062    6.5405464   -126.16121   -3946.0093 
21107000    129.27614   -4493.0202   -4271.4453   -4493.0202            0    2297.7968      17.9972    23.265682    21.925668    9180.6526    3021.7614    3638.3639    233.26504    362.30666   -173.35256    472.99153   -3963.7923 
21108000    137.26327   -4499.8784   -4264.6138   -4499.8784            0    1136.4374    18.055713    23.465441    21.845767    9255.7294    508.07831    969.21216    1932.0218   -147.40624   -218.14093     398.9088   -4111.2115 
21109000    133.88131   -4497.0663   -4267.5983   -4497.0663            0     1872.372    18.041419    23.358805    21.816653    9194.1044    2437.3951    2301.4047    878.31627    116.60386    19.674955    323.02903   -4016.5383 
21110000    133.76689   -4496.8195   -4267.5477   -4496.8195            0    1347.1895    17.913962    23.295693    22.080649    9214.6559    835.23429    934.90973    2271.4245   -128.43652    161.52307    107.73865   -4086.5039 
21111000    137.20631    -4491.683   -4256.5161    -4491.683            0    1869.9906    17.894513    23.322901    22.028657    9193.7029    3433.2678    1585.3692    591.33487    444.36464   -389.81488    7.1979453   -4005.7864 
21112000    139.55112   -4504.8668    -4265.681   -4504.8668            0    2376.4306    17.962364    23.417895    21.798741    9169.4387    2078.4466    2308.7516    2742.0937    84.198956   -134.58551   -449.86616   -3947.8884 
21113000    127.58346   -4483.4687   -4264.7951   -4483.4687            0    2119.6722    17.998224     23.28905    21.913338    9185.2286    1567.4665    1213.1662    3578.3839   -465.14864    1034.0121   -80.809318   -3980.8498 
21114000    144.57643   -4492.1526   -4244.3535   -4492.1526            0    2918.2771    17.818372    23.362937    21.979572    9149.8654    2654.2725    3180.9252    2919.6337    298.52372   -48.407091   -110.31646   -3854.9345 
21115000    142.56274   -4495.3476   -4250.9999   -4495.3476            0    1414.3563     17.98093    23.262535    22.013687    9207.9295    864.85793    1896.5591     1481.652    5.0637267   -108.63595    261.08554   -4061.0685 
21116000    127.51361    -4488.534   -4269.9801    -4488.534            0    2214.3349    17.898074    23.397577    21.965351    9198.4647    3050.1775    2234.1747    1358.6524    974.99915    20.789086    463.27466   -3972.9266 
21117000    125.27166   -4495.1974   -4280.4861   -4495.1974            0    2253.9241    17.889541    23.453484    21.894426    9186.2895    3058.2213    1020.9505    2682.6007    1539.9428   -537.29502    474.51078    -3978.522 
21118000    131.11419   -4499.0017   -4274.2764   -4499.0017            0    1627.0213    18.149308     23.02214    22.016868    9199.4382    2377.1492    1576.0765    927.83806    400.00375    -1214.233    72.260789   -4055.9882 
21119000    137.53437   -4490.3863   -4254.6571   -4490.3863            0    1844.8573    17.802277    23.535067    21.985453    9211.4158    1690.9991     378.8031    3464.7696    288.78211    251.18449   -278.44683   -4006.8207 
21120000    139.28223   -4507.8977   -4269.1727   -4507.8977            0     2457.128    18.054287    23.138113    21.974993    9179.8805    1917.6134     3277.394    2176.3766    137.73311   -30.265177    11.751389   -3940.2145 
21121000     132.4609   -4498.1252   -4271.0917   -4498.1252            0    2622.4981    17.922202    23.318747     21.95542    9175.6815    2885.6314    2695.9968     2285.866   -464.05999    127.18555    478.79758   -3920.1545 
21122000    142.66991   -4493.2773    -4248.746   -4493.2773            0    1549.4977    17.832654    23.478539    22.026663    9222.2257    1974.5317    1100.7594    1573.2019   -100.77956   -40.359563   -622.29167   -4040.3437 
21123000    130.24143   -4507.1111   -4283.8818   -4507.1111            0    1337.7591    18.118589    23.254957    21.963701    9254.3401   -28.351352    1280.7138    2760.9149    195.58556    262.21683   -61.036821    -4103.331 
21124000    137.89569   -4490.2554   -4253.9069   -4490.2554            0    2196.1942    17.858192    23.533164    21.922817    9213.2777    2248.1342    2401.0058    1939.4425   -144.42587   -580.54942    382.66407   -3958.8126 
21125000    141.73176   -4483.7706   -4240.8472   -4483.7706            0    2317.4431    17.963956     23.18734    22.068898    9192.4981    2496.1404    2503.7512    1952.4376   -202.20924   -7.6484673    607.44618   -3930.1635 
21126000    135.94137   -4494.6009   -4261.6021   -4494.6009            0     2353.688    17.970642     23.30606    21.986374    9208.4403    2608.6109     1722.465    2729.9882   -338.86467   -810.22024    793.76498    -3945.512 
21127000    129.19337   -4478.0962   -4256.6632   -4478.0962            0    1876.6336    17.849766    23.586084    21.941885    9237.6673    2734.6146    1731.4352    1163.8511   -514.62625   -213.89213   -5.8573876   -4003.8396 
21128000    136.97604   -4497.5292    -4262.757   -4497.5292            0    1696.5035    18.076713    23.301995    21.897596    9223.7813    1194.6345    2009.7015    1885.1745   -22.615314    77.767966   -400.96881   -4034.5444 
21129000    141.25054   -4493.4311   -4251.3325   -4493.4311            0    2148.7934    17.859354    23.607197    21.831905    9204.5341    2903.2449    1197.5789    2345.5565    629.35883   -338.89003    364.51648   -3962.8813 
21130000    131.57264   -4501.7008   -4276.1898   -4501.7008            0    1388.9625    17.988844    23.229329    22.061236    9218.7018    2291.2256    1030.9639    844.69789   -113.96274    82.376372   -90.072426   -4089.4504 
21131000    131.64599   -4503.4355   -4277.7988   -4503.4355            0    2461.6063    17.824614     23.19375    22.193164    9175.0899    3391.3418    3110.1523    883.32473    146.90429   -411.83715   -116.00726    -3948.413 
21132000    137.38871   -4481.2966    -4245.817   -4481.2966            0    2293.1604    17.849882    23.373933    21.992663    9175.8218    2586.3288    2823.4575     1469.695    366.20994    -16.80056    212.05482   -3938.9464 
21133000    131.90772   -4498.0083    -4271.923   -4498.0083            0    2105.2311    17.989186    23.319218    21.894953    9184.7959    2673.4956    1936.0881    1706.1096   -278.65478    -270.5242   -287.39049   -3989.9256 
21134000    132.55289   -4504.1271    -4276.936   -4504.1271            0    2251.2497     17.89797    23.460755    21.877818    9186.4933    2202.9025    2944.6646    1606.1818   -345.95415    124.24609   -91.324372   -3975.3235 
21135000    135.94346   -4517.3703   -4284.3678   -4517.3703            0    2334.5663    18.077046    23.092439    21.964641    9168.9874    2544.4456    2083.9531    2375.3003   -854.02243    160.81236    188.52242    -3972.189 
21136000    134.64596   -4494.6089   -4263.8304   -4494.6089            0    1396.8033    17.890913    23.382742    22.015742    9210.0346    1262.9049    1232.6933    1694.8117    454.04714   -311.90725   -244.04376   -4076.2133 
21137000    133.05872   -4505.1405   -4277.0824   -4505.1405            0     1501.786    17.902962     23.23654    22.177823     9226.038    1018.1839     3548.472   -61.297912    284.85004    406.71077   -18.335249   -4075.0136 
21138000    135.08132   -4494.0959   -4262.5712   -4494.0959            0    1516.0976    18.055307    23.234238    21.980251    9220.7434    657.79225    1913.1863    1977.3143    21.948804   -113.46791   -104.54867   -4058.6938 
21139000    128.18077    -4510.965   -4291.2676    -4510.965            0    836.33304    18.044899    23.548024    21.781039    9255.2365    27.206547    270.11083    2211.6817    156.54268    193.71776     686.3295   -4178.3809 
21140000    135.11047    -4498.956   -4267.3813    -4498.956            0    2481.7067    18.191635    23.237295    21.754746    9196.2621    1372.0482    3698.5616    2374.5102    149.19274   -173.17208    63.810964   -3934.5396 
21141000    136.71189   -4514.8003   -4280.4808   -4514.8003            0    939.28691    17.909461    23.472299    22.004036    9249.9739    1276.1744    1420.2263    121.46008   -395.81317   -193.51824   -362.71811   -4153.7697 
21142000    130.78265   -4492.8139   -4268.6569   -4492.8139            0    2695.6086    17.800156    23.057659    22.350594    9173.3523    1520.5437    4151.8301    2414.4519   -198.40592   -141.61829    24.992468   -3908.0278 
21143000    132.96926   -4500.4048   -4272.5001   -4500.4048            0    2266.8614    17.877392    23.377455    22.050326    9215.4466     2421.299     2636.663    1742.6221    115.78061    1057.2712    629.54366   -3967.8388 
21144000     129.5208   -4491.0072   -4269.0129   -4491.0072            0    1379.2158    18.179165     23.30872    21.880092    9271.3185    769.08308    1635.0897    1733.4747    -697.5187    21.747594    75.494465   -4082.5255 
21145000    143.77235   -4501.0685   -4254.6476   -4501.0685            0    1838.0597    17.939989    23.639719    21.796511    9243.8198    845.28969    625.47868    4043.4109    694.69694    381.21514   -265.46079   -4006.8558 
21146000     130.7552   -4495.3374   -4271.2275   -4495.3374            0    2462.7995    17.948053    23.319757    21.961752    9191.9647    2417.8064    3100.3324    1870.2597   -96.089864   -62.589269    637.39378    -3941.076 
21147000     128.3118   -4499.7038   -4279.7817   -4499.7038            0    1453.9561    17.901845    23.567963    21.925358    9250.5279    1983.0039    1077.9794    1300.8852   -151.14553    250.52903    274.00071   -4083.6293 
21148000    130.04383   -4510.4387    -4287.548   -4510.4387            0    1844.2048    18.084364    23.372655    21.785837    9208.4288    1486.8958    1537.0162    2508.7023   -974.18971    58.905192    285.51091   -4039.8797 
21149000    139.63406   -4479.1812   -4239.8532   -4479.1812            0    2256.5293    17.995306    23.153657    22.035034    9181.0543    2796.2727    2093.7751      1879.54   -313.06825   -27.049805   -112.12992   -3937.7123 
21150000    135.79443   -4503.5674   -4270.8204   -4503.5674            0    2641.3358    17.856417    23.390635    21.982827    9181.6317    2284.9011    3033.6169    2605.4894    147.66542   -272.24714    131.45706   -3917.1332 
21151000    142.05362   -4495.3602   -4251.8852   -4495.3602            0    2721.8819    18.056393    23.060266    22.026725    9171.6031    2472.9766    3070.4233    2622.2459    668.22079   -411.19002    338.63783   -3887.8106 
21152000    132.19081   -4508.3374   -4281.7669   -4508.3374            0    1123.8227    17.918398    23.528271    21.964382      9259.94    827.42943    678.56095    1865.4778   -385.03551   -473.24653    -110.3762   -4129.9983 
21153000    139.72468   -4501.0714   -4261.5881   -4501.0714            0    1573.3776    17.979483    23.403576    21.933974    9229.4696    1288.8888    1093.3684    2337.8755   -51.147571   -137.69728    272.83513   -4049.8078 
21154000    129.46497   -4498.1984   -4276.2999   -4498.1984            0    2325.4086    17.947097    23.118046    22.157256    9193.0852    2671.4129    3385.5994     919.2136   -587.30995   -669.21663    1405.4174   -3964.5284 
21155000    130.59929   -4491.1572   -4267.3145   -4491.1572            0    2159.5243    17.862288    23.501832    21.926067     9204.486    2005.5555    1615.9466    2857.0709    238.06204   -517.21483    917.61554   -3977.4243 
21156000    125.77818   -4505.9324   -4290.3529   -4505.9324            0    3438.4015    18.031133    23.177217    21.846154    9129.7587     3951.801    3995.8168    2367.5867    543.16662    319.64112    136.41468   -3832.5361 
21157000    129.27314   -4497.0311   -4275.4613   -4497.0311            0    2154.2402    17.897977    23.399386    21.973369    9202.4842    2057.2748    2475.6605    1929.7853    100.07569    155.14757    246.38121   -3986.3433 
21158000    132.11383   -4498.4164   -4271.9778   -4498.4164            0    2562.9939    18.044294    23.207318    21.875723    9160.6706     2286.156    3101.9613    2300.8645    124.28573   -392.88259   -678.14503   -3929.5645 
21159000    135.41867   -4498.4459   -4266.3429   -4498.4459            0    2388.7676    18.059208    23.278624    21.841033    9181.8284    1059.0262    3168.4714    2938.8052   -80.705056   -495.75706    452.35603   -3946.4689 
21160000    139.22128   -4487.5691   -4248.9486   -4487.5691            0    2119.5986    17.955499    23.302155    21.910539    9167.4096    1961.9341    3181.3445    1215.5172    310.90491    658.38679    163.36082   -3965.5641 
21161000    129.61743   -4504.8324   -4282.6725   -4504.8324            0    1948.6853    17.982207     23.43538    21.838256    9203.0745    2098.6903    1956.1435    1791.2221   -882.16006   -239.91322   -631.18784   -4021.1251 
21162000    130.71461   -4496.4015   -4272.3611   -4496.4015            0    1407.3346    18.099316    23.273931    21.886015    9219.3139    1603.7084    1183.0263    1435.2691   -174.76426   -289.75989   -273.26993    -4083.139 
21163000    136.92591   -4497.5646   -4262.8783   -4497.5646            0    1313.2906    17.854727    23.450121    22.042132    9228.9418    1815.6495    916.44164    1207.7806    409.43847    87.328752    1059.9784   -4086.1164 
21164000    133.76777   -4499.2116   -4269.9382   -4499.2116            0    2408.5382    17.832273     23.19366    22.110533     9144.821    3233.9927    2132.4083    1859.2137    263.67305    337.95564   -229.32311   -3948.7167 
21165000    132.17658   -4493.1051   -4266.5589   -4493.1051            0    2192.8363    17.964581    23.304819    22.005801    9212.9773    2523.4759    2428.9144    1626.1188    -572.6809    57.183249   -391.13129   -3971.9254 
21166000    139.28649   -4494.5202   -4255.7879   -4494.5202            0    2454.3627    18.014238    23.356585    21.762018    9156.3928    2818.4231    1958.2794    2586.3857   -185.44486   -82.274746    230.15076   -3928.0407 
21167000    137.76569   -4514.4261   -4278.3005   -4514.4261            0    2447.0877    17.901933    23.434799     21.85897     9170.455    2514.9309    2726.1061     2100.226    1726.8583   -316.71232    287.40039   -3951.0228 
21168000    138.27358   -4482.6781   -4245.6819   -4482.6781            0    394.27956    18.073123     23.23149    22.168766    9307.9018    670.28659    658.62002   -146.06794   -311.61238   -254.45594    150.11065     -4192.16 
21169000    133.75692   -4477.5763   -4248.3215   -4477.5763            0    1260.3762    17.974488    23.392929    22.012515    9255.7325    1336.6514    993.72883    1450.7484   -674.28092   -345.04077   -236.16062   -4078.1891 
21170000     140.8826   -4509.9556   -4268.4876   -4509.9556            0    831.54955    17.951256    23.546809    21.897715    9256.0502    1179.3995   -105.87872    1421.1279    81.579423   -645.34423   -173.97362   -4156.2368 
21171000    135.12662    -4496.699   -4265.0966    -4496.699            0    1982.4092    18.124838    23.248233    21.866749    9214.0019     2158.832    1785.9527    2002.4428   -1122.8103   -174.80039   -364.40762   -3998.7069 
21172000    136.67383    -4505.981   -4271.7267    -4505.981            0    1787.1306    17.981336    23.421096    21.953082     9245.378    2303.7059    1009.2344    2048.4514   -268.85949    150.23439   -140.13264   -4030.7601 
21173000     130.8534   -4496.6862    -4272.408   -4496.6862            0    1950.0185    17.939883    23.526839     21.82291    9210.7676    1970.9676    1630.1367    2248.9514    49.623504    456.16961    557.98744   -4010.4628 
21174000      132.351   -4503.0373   -4276.1922   -4503.0373            0    1132.0018    18.113679    23.238542    21.949557     9239.348     1325.781    1223.6739    846.55061      -345.13    229.78793    22.997532   -4123.6591 
21175000    140.09869   -4496.3123   -4256.1879   -4496.3123            0    2097.3811    17.890314    23.398632     21.98782    9204.2962    1835.1846    2860.3755    1596.5832   -377.68135    92.253914    -330.0081   -3974.6455 
21176000    127.88289   -4489.7346   -4270.5477   -4489.7346            0    2155.1288    18.030612    23.103761    22.113191    9211.8016    853.89581    3520.5587     2090.932    468.84318    29.079922    -86.98389   -3981.0176 
21177000    140.79783   -4493.0459   -4251.7233   -4493.0459            0    1673.7289    17.910741    23.456177    21.988247    9237.6476    2892.8514    1287.5754    840.75995   -508.04342   -32.827473   -369.82433   -4026.2358 
21178000    136.62495   -4488.9122   -4254.7417   -4488.9122            0    1849.7281    17.886091    23.503599     21.92016    9214.9617    990.31148    2542.6629    2016.2099   -997.99103    107.56949    305.53252   -4006.1554 
21179000    133.53852   -4496.0428   -4267.1624   -4496.0428            0    1751.9502    18.165702    23.289191    21.803095    9224.1155    1014.6227    2613.7654    1627.4627   -338.47638   -347.08998   -178.25038   -4031.4826 
21180000    137.18493   -4505.8623    -4270.732   -4505.8623            0    2694.5118    17.862835    23.388835    21.940342    9166.4752    2722.7571    3046.7497    2314.0285   -1551.6599   -559.63627   -108.52971   -3910.5199 
21181000    138.60696   -4495.4527   -4257.8851   -4495.4527            0    1405.4435    18.043879    23.165337    22.091838    9234.2232    942.89585    2644.9396    628.49513    819.68185    416.38572   -135.84621   -4068.6116 
21182000    142.76343   -4491.6707    -4246.979   -4491.6707            0    1333.7865    17.909284    23.302648    22.067115    9209.3513    1599.3891    2708.2057   -306.23525   -606.29642   -20.840383   -178.79519   -4067.8396 
21183000     129.0685   -4495.8645   -4274.6455   -4495.8645            0    1660.3613    17.857062    23.396231    22.089983    9228.9288    1353.9337    2001.2268    1625.9234    51.922733   -40.305127    358.37917   -4051.1701 
21184000    131.39449   -4497.8351   -4272.6295   -4497.8351            0    2720.0193    18.056228    23.083891     21.94122    9145.2759    2077.6419    3172.2601    2910.1558    -526.2353   -61.450536    361.17712   -3909.8483 
21185000    138.91225   -4493.9717   -4255.8809   -4493.9717            0      1096.05     17.88937    23.566258    21.966523    9260.7677    1433.8875    795.55202    1058.7105   -581.70881    677.30919  -0.87212583   -4107.8497 
21186000    136.15459   -4487.7782   -4254.4138   -4487.7782            0    2332.7798    17.974848    23.293996    21.961564    9195.4398    2210.3277    3457.1025    1330.9091   -379.14969   -210.17456     337.4437    -3941.574 
21187000    135.96139    -4504.393   -4271.3599    -4504.393            0    1668.1159    18.086467    23.270932    21.909822    9221.6019    731.58508    2157.0818    2115.6808   -370.58752    110.82747    495.33748   -4047.0189 
21188000    140.53905   -4485.4492   -4244.5701   -4485.4492            0    2305.9966    17.849876    23.379392     22.01326    9186.5569    2159.2125     2547.686    2211.0914   -984.17321    53.042798    112.52738   -3935.6207 
21189000    127.82787   -4498.0307   -4278.9382   -4498.0307            0    1846.6708    18.021322    23.134133    22.055358    9195.0482     1868.214    1517.5248    2154.2735   -333.70366    274.93281    486.79803    -4031.299 
21190000    139.63134     -4481.31   -4241.9866     -4481.31            0    1969.7378    17.985891    23.361656    21.956927     9225.866    1237.3233    1675.0396    2996.8506    243.09825    202.10895    313.64583   -3976.9588 
21191000     136.1461   -4490.3082   -4256.9584   -4490.3082            0     2786.981    18.070748    23.415854    21.668011    9168.6454    4074.1442    2372.1961    1914.6027   -459.29516    92.226923   -326.51489   -3884.2965 
21192000     134.9115   -4493.7843   -4262.5506   -4493.7843            0    1626.7406      17.9925     23.37236    21.992208    9248.3211    1493.2911    1116.3638     2270.567   -890.16167    -339.6593   -63.720885   -4043.1402 
21193000    132.66092   -4485.7702   -4258.3939   -4485.7702            0    1944.4451     17.82112    23.352693     22.06907      9184.51    2275.0216    2259.1489    1299.1647    -1508.498    431.97262    6.6918984    -3997.942 
21194000    143.28568   -4494.1675   -4248.5807   -4494.1675            0    1872.3897    18.001798    23.268383    22.021989    9224.4107    636.03045    3188.8924    1792.2462   -52.963973    17.974809    406.30424   -3996.6908 
21195000    130.19691   -4491.6102   -4268.4572   -4491.6102            0    1679.2456    18.022209    23.503324    21.816435    9241.0454    2882.5962    69.347002    2085.7937    1050.5221   -26.093586    485.13756   -4042.1433 
21196000    138.28527   -4498.4397   -4261.4234   -4498.4397            0    1871.0817    18.025472    23.405887    21.808137    9200.9004    676.47716    1710.8577    3225.9103    137.64835   -571.61541   -7.6053839    -4010.351 
21197000    131.84723   -4488.0673   -4262.0857   -4488.0673            0    1983.2051    18.079858    23.473319    21.684421    9202.7437    1107.5661    2263.8751    2578.1741   -1403.3301    243.79265   -288.72971   -3995.9146 
21198000    136.27819   -4491.9269   -4258.3507   -4491.9269            0     1789.547    18.041281    23.337007    21.839951    9195.2636     1395.281    1981.9947    1991.3655   -43.295495   -65.889429    495.83527   -4018.3662 
21199000    134.06732    -4480.257   -4250.4702    -4480.257            0    1595.2163    18.009322    23.342787    21.942378    9224.3068     1230.704    1146.7975    2408.1474    1104.2405   -199.95779    269.97393   -4035.8704 
21200000    131.70965   -4491.0346   -4265.2888   -4491.0346            0    2257.0337    17.813986    23.420632    22.041229    9195.9271    2566.8855     1487.853    2716.3626    14.462149    506.76146    417.35659   -3962.5908 
21201000    138.13096   -4502.5854   -4265.8336   -4502.5854            0     2069.566    17.887434    23.341609    22.031735     9198.723    2250.3308    1888.1262    2070.2411   -347.83529   -226.58886    355.00047   -3988.1932 
21202000    135.03489   -4490.0397   -4258.5945   -4490.0397            0    1616.0234    18.039867    23.301435    21.919149    9213.8194     1095.787     2555.656    1196.6272    50.114795   -167.64412   -208.79204   -4041.4428 
21203000    132.29337   -4503.8712   -4277.1249   -4503.8712            0    1542.6946    17.794446    23.509814     22.01139    9208.3355    1132.0968     1970.554    1525.4331    211.44535   -1208.9908    83.500687   -4069.9501 
21204000    131.14314   -4496.2445   -4271.4697   -4496.2445            0    2363.2394    17.997124    23.109058    21.994607    9147.4819    2297.5276    2659.7469    2132.4436    640.80445    73.897968    245.86171   -3956.1978 
21205000    130.12761    -4503.334   -4280.2998    -4503.334            0    1782.9755    17.906598    23.445614    21.987567    9231.0663    2354.3959    1119.9942    1874.5366    221.01185   -489.64447    642.88228   -4040.2656 
21206000    131.18638   -4497.6946   -4272.8456   -4497.6946            0    2533.4881     18.02477    23.271963     21.88394    9179.6955    2607.2262     1645.964    3347.2743   -184.93654    226.48261    562.70588   -3933.6712 
21207000    135.35244   -4504.4126   -4272.4231   -4504.4126            0    1496.1458    17.897153    23.462129    22.033696    9252.0664    2270.6811    1304.0463    913.71012    207.62152   -868.92784     131.8733   -4070.5453 
21208000     138.2355   -4492.8712   -4255.9403   -4492.8712            0    1880.5178    17.916026    23.427265    22.011016    9238.5407    1838.1572     1956.329    1847.0674    451.29742   -30.388044    -324.1283   -4002.5694 
21209000    130.37526   -4490.2338   -4266.7751   -4490.2338            0     1165.717    18.140511    23.177874    22.053346    9272.5163    1328.9082    1802.8047    365.43823   -222.08587   -361.69077   -86.081055    -4109.135 
21210000       137.91   -4486.6586   -4250.2856   -4486.6586            0    1519.6407     17.87105    23.405409    22.072393    9232.4236    2452.3674    1012.4377    1094.1168   -718.96913    320.37169    60.151232    -4045.673 
21211000     132.3054   -4497.1459    -4270.379   -4497.1459            0    1891.1519    17.942927    23.353878     22.00149    9219.4367    1255.1032    1712.0077    2706.3449    230.91308    73.055207    439.14211   -4016.1022 
21212000    134.80538    -4493.374   -4262.3222    -4493.374            0    2082.4582    18.121349    23.205191    21.884525    9202.6478    1435.9998    2739.0533    2072.3215    430.10033   -901.22275   -15.579061   -3982.8331 
21213000    136.79145   -4492.9341   -4258.4783   -4492.9341            0    2463.0334    17.953796    23.409922    21.882861    9197.3001    2843.2096    2398.0245    2147.8661   -324.82335   -723.49551    285.34088   -3928.1037 
21214000    136.04417   -4500.5496   -4267.3746   -4500.5496            0    3249.5414     17.83788    23.285942    21.970786    9126.0458    3154.6632    3186.8456    3407.1155   -98.786483    128.11921    731.94748   -3834.8801 
21215000    125.41688   -4508.7983    -4293.838   -4508.7983            0    912.94133    18.000548    23.187771    22.107075    9227.3293    978.22135    1859.7545   -99.151895   -288.18034    338.93641   -568.00554   -4170.9825 
21216000    132.46092    -4499.953   -4272.9195    -4499.953            0    2058.4729    17.881131    23.410341    22.014212    9215.2234    2362.2035    1831.6271    1981.5881   -522.12148   -197.04198    49.969734   -3996.2719 
21217000    129.26929   -4497.6064   -4276.0433   -4497.6064            0    2146.1257    18.108362    23.015136    21.996023    9167.2038    947.90714    3215.3465    2275.1236   -717.60719   -179.13631    155.53337   -3989.1186 
21218000    143.05318   -4509.6526   -4264.4643   -4509.6526            0    2396.0695     18.00449    23.368971    21.875388    9203.9909    2396.5242    2477.1727    2314.5117    89.428801    232.54959    540.58659   -3942.8381 
21219000    137.61766   -4494.1768   -4258.3048   -4494.1768            0    1634.0858    18.040311    23.331239     21.93245    9231.4297    1500.8787    2337.0426    1064.3361   -1011.7315   -161.88402   -260.01694   -4038.3063 
21220000     131.3432   -4500.9854   -4275.8677   -4500.9854            0    3062.1776    17.938689     23.18554    21.975479    9140.0015    3198.6915    4061.2935    1926.5479   -415.60799   -219.38939     167.7868   -3867.6869 
21221000     139.0557    -4506.965   -4268.6283    -4506.965            0    1378.9707    17.820563     23.52235    22.005754    9224.4056    2053.8005    1191.1542    891.95752   -429.97317   -112.20194    462.06152   -4083.1174 
21222000    134.74915   -4504.1736   -4273.2181   -4504.1736            0    2106.8312     18.11382      23.2255    21.828982    9183.5079    1129.1369    2048.3948    3142.9619   -434.33882   -10.564046    125.31908   -3991.0459 
21223000     130.4127   -4493.1316   -4269.6087   -4493.1316            0    2579.5632    17.997913    23.345157    21.843157    9177.7106    3630.7931    2662.8351    1445.0613   -71.753254   -62.323189    -297.6712   -3924.3407 
21224000    134.27394   -4494.8357   -4264.6947   -4494.8357            0    2414.6234    17.810599    23.415605    22.037138    9190.4989    3312.0088    1725.2358    2206.6255   -831.87873    531.59615    465.01627   -3941.0531 
21225000     128.6238    -4497.481   -4277.0242    -4497.481            0    1259.3521    18.028279    23.178777    22.133413    9248.9662    2227.3521    1216.1302    334.57399    215.09324    259.30848    310.65151   -4107.1544 
21226000    131.82372   -4491.5267   -4265.5853   -4491.5267            0    2263.4289    17.921113    23.585955    21.794574     9212.274    2547.1758    1576.1151     2666.996    417.11573    66.308013    180.14216   -3961.4901 
21227000    143.93319   -4483.6726    -4236.976   -4483.6726            0    2267.8918    18.070268    23.296247    21.919437    9227.4128    2201.6486    2723.1801    1878.8467    105.42268   -309.13136    495.35585   -3931.7805 
21228000    141.32116   -4491.2412   -4249.0216   -4491.2412            0    2785.9853    17.927382     23.37489    21.949901    9198.1188    3659.5506    1653.2579    3045.1474   -159.51281   -289.25299    184.58743   -3875.2952 
21229000    133.15145   -4486.3591   -4258.1421   -4486.3591            0    2377.6249    17.847025    23.461059    21.929652    9182.1669    3053.5812    1588.3234    2490.9701   -309.12245   -544.98939    65.950337   -3939.7484 
21230000    140.16618   -4485.7144   -4245.4744   -4485.7144            0    2841.3953    18.046004    23.101572    21.944673    9148.5379    2732.1046    3465.3208    2326.7606    633.02045    895.77954    720.99939   -3866.3696 
21231000    140.01617    -4493.273   -4253.2901    -4493.273            0    2562.3822    17.772582    23.513954    21.996709    9192.5055    2849.9258    1602.4666    3234.7542    807.84765    77.984246    887.95505   -3909.7688 
21232000    136.93719   -4494.1978   -4259.4922   -4494.1978            0     2731.772     17.85717    23.259113    22.027489    9148.9397    2784.4725    2221.4064    3189.4372   -725.28448     57.59054     47.72761   -3894.9976 
21233000    132.11484   -4497.5125   -4271.0722   -4497.5125            0    3041.3509    17.961919    23.308737    21.865268     9154.324    2677.1257    3462.0726    2984.8542    1085.2673   -293.26588    29.001031   -3865.0323 
21234000    138.58505   -4489.0253   -4251.4953   -4489.0253            0    2755.4165     17.94258    23.543609    21.736442    9182.1921    2058.5189     1556.633    4651.0975    128.78919    209.46613     109.1569   -3882.5096 
21235000    132.43566   -4503.7816   -4276.7914   -4503.7816            0    1788.7945    18.065172    23.268601    21.902654    9206.8086    1301.4024    2693.5814    1371.3998   -641.96231   -86.525485    420.69591   -4036.6066 
21236000    132.46114   -4492.4792   -4265.4454   -4492.4792            0    1759.1081     17.86989    23.565827     21.86151    9206.2915    1028.5853    1186.4459    3062.2931    -462.0585    210.91736   -278.38866   -4029.2599 
21237000    131.64837   -4494.8389   -4269.1981   -4494.8389            0    2316.6663    18.054444     23.29858    21.831668    9183.3363    1987.0012    1363.3445    3599.6533   -170.00797    527.45171    407.53768    -3958.928 
21238000    135.04669   -4486.5916   -4255.1262   -4486.5916            0     2397.484    17.994484    23.296127    21.947742    9200.5325    3148.3813    2611.9999    1432.0709    88.389394   -243.40962   -173.90515    -3933.431 
21239000    135.79172   -4493.2128   -4260.4705   -4493.2128            0    1137.1267    17.925405    23.387785    21.986905    9217.6914    906.60152    1538.3051    966.47357    65.018857   -309.00002    120.57818   -4107.6059 
21240000    132.37361   -4490.4971   -4263.6132   -4490.4971            0     1529.191    18.079864    23.282305    21.934735    9233.2271    1313.5117    2037.5015    1236.5599   -155.96553   -192.09435   -455.73291   -4057.6967 
21241000    131.48965   -4503.7997   -4278.4309   -4503.7997            0    1438.2472    17.901311    23.486306    21.958981    9232.3385    1668.8603    1203.1076    1442.7737    802.65507    532.57185    547.81112   -4084.7793 
21242000     132.3941   -4488.5629   -4261.6439   -4488.5629            0    2636.2785     17.91556    23.225316    21.952585    9134.3508    3225.9541    1770.7929    2912.0884   -739.81535    528.57934   -157.93519   -3910.4517 
21243000    141.81749   -4494.5288   -4251.4584   -4494.5288            0    1057.3948    17.988843    23.370112    21.989125    9244.2561    527.92812    1687.7555    956.50081    -113.8028    661.09463   -193.22557   -4108.9026 
21244000    135.73687   -4488.9134    -4256.265   -4488.9134            0    1937.3479    17.992554    23.396068    21.865833    9204.5323    2257.1065    2809.6563    745.28088   -438.73302   -38.017869    730.28923    -3996.198 
21245000    137.86956   -4488.0829   -4251.7792   -4488.0829            0    1022.9696    17.951501    23.492896    22.005386    9280.3917    1183.7452   -457.05699    2342.2206    681.33797     164.5652    231.22802   -4113.3254 
21246000    133.18638   -4492.8092   -4264.5323   -4492.8092            0    2168.6323    17.932804    23.348723    22.002089    9212.4527    1387.9067    2389.1469    2728.8433   -7.8686438    253.91294    482.96169   -3973.1675 
21247000    133.95485   -4497.0386   -4267.4446   -4497.0386            0    2652.5141    17.965908    23.463719    21.825126    9200.3164    2593.3742    2243.4725    3120.6955   -372.41519   -410.79624   -242.30083   -3911.5377 
21248000    137.96708   -4487.5035   -4251.0326   -4487.5035            0    2470.3182    17.888884    23.522365    21.831612    9186.4995    3117.7857    1537.0222    2756.1468     45.66842   -586.92757   -320.21005   -3920.0701 
21249000    131.38184   -4502.1432   -4276.9592   -4502.1432            0    2941.4514    18.093859    23.071928    21.958626    9166.8526    2164.4888    3102.9415     3556.924    588.30384   0.94143897    105.57797   -3883.7191 
21250000    135.65982    -4477.921   -4245.4047    -4477.921            0    1977.2285    17.873725    23.381648    21.998271    9193.4545    2171.5514    2419.8722    1340.2618   -888.01939    131.11606   -390.87891   -3980.3036 
Loop time of 360.706 on 64 procs for 250000 steps with 864 atoms

Performance: 119.765 ns/day, 0.200 hours/ns, 693.086 timesteps/s
195.1% CPU use with 32 MPI tasks x 2 OpenMP threads

MPI task timing breakdown:
Section |  min time  |  avg time  |  max time  |%varavg| %total
---------------------------------------------------------------
Pair    | 16.274     | 25.11      | 35.99      | 111.4 |  6.96
Bond    | 0.79466    | 1.0567     | 1.6216     |  15.2 |  0.29
Kspace  | 179.07     | 191.39     | 201.97     |  45.7 | 53.06
Neigh   | 0.77446    | 0.82859    | 0.90982    |   3.7 |  0.23
Comm    | 55.379     | 58.184     | 63.439     |  30.0 | 16.13
Output  | 0.62584    | 0.62627    | 0.62818    |   0.0 |  0.17
Modify  | 65.063     | 67.875     | 70.858     |  18.2 | 18.82
Other   |            | 15.63      |            |       |  4.33

Nlocal:        27.0000 ave          37 max          18 min
Histogram: 5 4 4 2 2 4 2 2 1 6
Nghost:        2143.31 ave        2247 max        2042 min
Histogram: 8 8 0 0 0 0 0 0 8 8
Neighs:        6605.12 ave        9118 max        4335 min
Histogram: 4 3 6 2 2 3 2 3 2 5

Total # of neighbors = 211364
Ave neighs/atom = 244.63426
Ave special neighs/atom = 2.0000000
Neighbor list builds = 2897
Dangerous builds = 0

unfix		3
unfix		2
unfix		1

write_data	data.final.${pid} nocoeff
write_data	data.final.1 nocoeff
System init for write_data ...
PPPM initialization ...
  extracting TIP4P info from pair style
  using 12-bit tables for long-range coulomb (../kspace.cpp:340)
  G vector (1/distance) = 0.37186418
  grid = 24 27 25
  stencil order = 5
  estimated absolute RMS force accuracy = 0.0031450991
  estimated relative force accuracy = 9.4713724e-06
  using double precision FFTW3
  3d grid and FFT values/proc = 4410 672
Last active /omp style is kspace_style pppm/tip4p/omp

write_restart   restart.lmp.${pid}
write_restart   restart.lmp.1
System init for write_restart ...
PPPM initialization ...
  extracting TIP4P info from pair style
  using 12-bit tables for long-range coulomb (../kspace.cpp:340)
  G vector (1/distance) = 0.37186418
  grid = 24 27 25
  stencil order = 5
  estimated absolute RMS force accuracy = 0.0031450991
  estimated relative force accuracy = 9.4713724e-06
  using double precision FFTW3
  3d grid and FFT values/proc = 4410 672
Last active /omp style is kspace_style pppm/tip4p/omp
Total wall time: 0:06:00
