#include		in.partitions
include		in.temp
variable        temperature equal 137.13
variable	tempDamp equal 100.0
include		in.pressure
variable        pressure equal 10793.8
variable        pressureDamp equal 1000.0 # This is 1 ps
include		in.seed
variable        seed equal 745823

units		real
atom_style	full

read_restart	restart.lmp.${pid}
read_restart	restart.lmp.1
Reading restart file ...
  restart file = 30 Jul 2021, LAMMPS = 30 Jul 2021
  restoring atom style full from restart
  orthogonal box = (0.18073195 0.19546045 0.12817893) to (19.819269 19.804541 20.571819)
  4 by 4 by 4 MPI processor grid
  restoring pair style lj/cut/tip4p/long/omp from restart
  restoring bond style harmonic/omp from restart
  restoring angle style harmonic/omp from restart
  972 atoms
  648 bonds
  324 angles
Finding 1-2 1-3 1-4 neighbors ...
  special bond factors lj:    0        0        0       
  special bond factors coul:  0        0        0       
     2 = max # of 1-2 neighbors
     1 = max # of 1-3 neighbors
     1 = max # of 1-4 neighbors
     2 = max # of special neighbors
  special bonds CPU = 0.008 seconds
  read_restart CPU = 0.018 seconds
include 	in.setup
variable	out_freq equal 1000
variable	out_freq2 equal 10000
variable	out_freq3 equal 1000

timestep	2.0

neigh_modify    delay 7 every 1

include		in.tip4p
# This is TIP4P/Ice

# create groups ###
group ox type 2
324 atoms in group ox
group hy type 1
648 atoms in group hy

# set charges - beside manually ###
set group ox charge -1.1794
Setting atom values ...
  324 settings made for charge
set group hy charge 0.5897
Setting atom values ...
  648 settings made for charge

# ### TIP3P Potential Parameters ###
pair_style lj/cut/tip4p/long/omp 2 1 1 1 0.1577 8.5
pair_coeff 1 1*2 0.000 0.000
pair_coeff 2 2 0.21084 3.1668
bond_style  harmonic
bond_coeff  1 450 0.9572
angle_style harmonic
angle_coeff 1 55 104.52
kspace_style pppm/tip4p/omp 1.0e-5
pair_modify tail yes

thermo          ${out_freq}
thermo          1000
thermo_style    custom step temp pe etotal epair emol press lx ly lz vol pxx pyy pzz pxy pxz pyz enthalpy

restart 	${out_freq3} restart.lmp.${pid} restart2.lmp.${pid}
restart 	1000 restart.lmp.${pid} restart2.lmp.${pid}
restart 	1000 restart.lmp.1 restart2.lmp.${pid}
restart 	1000 restart.lmp.1 restart2.lmp.1


include         in.dump
dump            myDump all atom ${out_freq2} dump.water.${pid}
dump            myDump all atom 10000 dump.water.${pid}
dump            myDump all atom 10000 dump.water.1
dump            myDump2 all dcd ${out_freq2} dump.dcd
dump            myDump2 all dcd 10000 dump.dcd
dump_modify     myDump append yes
dump_modify     myDump2 append yes


variable natoms 	equal  "count(all)"                        # NUMBER ATOMS
variable H      	equal  "enthalpy/v_natoms"                 # ENTHALPY-per-atom
variable Vol      	equal  "vol/v_natoms"                 # volume-per-atom
fix AVG all 		ave/time ${out_freq} 1 ${out_freq} v_Vol v_H file vol_enthalpy.dat
fix AVG all 		ave/time 1000 1 ${out_freq} v_Vol v_H file vol_enthalpy.dat
fix AVG all 		ave/time 1000 1 1000 v_Vol v_H file vol_enthalpy.dat


timer           timeout 02:55:00 every 1000
New timer settings: style=normal  mode=nosync  timeout=02:55:00

fix 		1 all shake 1e-6 200 0 b 1 a 1
       0 = # of size 2 clusters
       0 = # of size 3 clusters
       0 = # of size 4 clusters
     324 = # of frozen angles
  find clusters CPU = 0.001 seconds
fix             2 all nph aniso ${pressure} ${pressure} ${pressureDamp}
fix             2 all nph aniso 10793.8 ${pressure} ${pressureDamp}
fix             2 all nph aniso 10793.8 10793.8 ${pressureDamp}
fix             2 all nph aniso 10793.8 10793.8 1000
fix             3 all temp/csvr ${temperature} ${temperature} ${tempDamp} ${seed}
fix             3 all temp/csvr 137.13 ${temperature} ${tempDamp} ${seed}
fix             3 all temp/csvr 137.13 137.13 ${tempDamp} ${seed}
fix             3 all temp/csvr 137.13 137.13 100 ${seed}
fix             3 all temp/csvr 137.13 137.13 100 745823


run             250000
PPPM initialization ...
  extracting TIP4P info from pair style
  using 12-bit tables for long-range coulomb (../kspace.cpp:340)
  G vector (1/distance) = 0.37269938
  grid = 24 24 24
  stencil order = 5
  estimated absolute RMS force accuracy = 0.0034478352
  estimated relative force accuracy = 1.0383053e-05
  using double precision FFTW3
  3d grid and FFT values/proc = 2197 216
Last active /omp style is kspace_style pppm/tip4p/omp
Neighbor list info ...
  update every 1 steps, delay 7 steps, check yes
  max neighbors/atom: 2000, page size: 100000
  master list distance cutoff = 10.8154
  ghost atom cutoff = 10.8154
  binsize = 5.4077, bins = 4 4 4
  1 neighbor lists, perpetual/occasional/extra = 1 0 0
  (1) pair lj/cut/tip4p/long/omp, perpetual
      attributes: half, newton on, omp
      pair build: half/bin/newton/omp
      stencil: half/bin/3d
      bin: standard
Per MPI rank memory allocation (min/avg/max) = 9.226 | 9.230 | 9.232 Mbytes
Step Temp PotEng TotEng E_pair E_mol Press Lx Ly Lz Volume Pxx Pyy Pzz Pxy Pxz Pyz Enthalpy 
35250000    138.81076   -4935.7119   -4668.0036   -4935.7119            0    9738.0378    19.638537     19.60908     20.44364    7872.7159    10240.166    9538.0753    9435.8718   -927.97746    132.60505    754.58505   -3549.9261 
35251000    137.85835   -4949.6299   -4683.7585   -4949.6299            0    10407.874    19.630545    19.463809    20.452708    7814.6769    10632.959    10280.302    10310.363    810.42557   -754.55012    49.645999    -3497.583 
35252000    138.59042   -4940.7528   -4673.4695   -4940.7528            0    12378.197     19.63788     19.56808    20.241934    7778.4815    12947.194    12819.265    11368.133   -869.25541    102.30474    2011.6015   -3269.2723 
35253000     132.7395   -4942.6841   -4686.6848   -4942.6841            0    11155.379    19.684117    19.481586    20.406186    7825.3199    11806.327    10533.071    11126.741    589.59681   -387.89085    369.85271   -3413.5854 
35254000    130.66564     -4958.29   -4706.2904     -4958.29            0    10052.001    19.708017     19.35091    20.580581    7848.7765    10498.586     10630.42    9026.9972    236.26891    1075.1488   -1650.9658   -3555.6745 
35255000    134.69925   -4947.4343   -4687.6555   -4947.4343            0    10646.119     19.78364    19.418341     20.44895    7855.7808    10521.916    10596.262    10820.178    52.331234   -206.75641    201.46929   -3467.9456 
35256000    141.89775   -4944.4386   -4670.7769   -4944.4386            0    10371.762     19.66411    19.425621    20.426743    7802.7614     9059.899    12750.795    9304.5921   -552.49077   -376.99186   -213.79335   -3490.5194 
35257000    139.18728   -4958.0243   -4689.5899   -4958.0243            0    9185.2519    19.789906    19.367542    20.529153    7868.4516    8545.7419    10477.396    8532.6174    502.34771    738.42031    890.71857    -3635.552 
35258000    140.39113   -4944.4998   -4673.7437   -4944.4998            0    11534.376    19.774548    19.385014    20.276139    7772.4502    12203.124    10572.537    11827.467    472.24988    745.08146    -597.9484   -3366.2851 
35259000    137.95037   -4931.3291   -4665.2802   -4931.3291            0    10730.971    19.784359    19.518532    20.212725    7805.3793    10159.426    11125.517    10907.971    968.47224     121.0924    1225.9268   -3443.7367 
35260000    134.07489   -4930.5378   -4671.9631   -4930.5378            0    10922.179    19.680779    19.545774    20.288274    7804.4135    12706.677    8802.1251    11257.734   -545.38021     1088.387    523.28616   -3428.8076 
35261000    133.14788   -4931.4914   -4674.7045   -4931.4914            0    12297.232    19.645896    19.414616    20.321343    7750.9164     11275.08    12812.069    12804.546   -158.67903    1325.1564   -1438.5073   -3284.6357 
35262000    142.23993   -4929.4855   -4655.1639   -4929.4855            0    11201.347    19.544829    19.474675    20.452007    7784.6311     10662.67     12179.07    10762.301   -390.68912    527.79898   -131.04592   -3383.4653 
35263000    142.02263   -4929.1011   -4655.1985   -4929.1011            0      12740.4    19.578136    19.505085    20.336453    7765.9464    11206.753    14355.842    12658.604   -419.46199    601.31438    265.37932   -3212.2417 
35264000    134.22381   -4947.1359    -4688.274   -4947.1359            0    10109.919    19.688197     19.42817    20.399935      7803.09    9272.6509    9967.0648     11090.04   -381.70246   -1066.2981    153.01099   -3537.7646 
35265000    135.23133    -4941.262    -4680.457    -4941.262            0    10343.736    19.518474     19.49743    20.450857    7782.7794    10715.153    9142.0041     11174.05    25.975429    198.26893   -264.15998   -3506.4031 
35266000    133.49006   -4937.6901   -4680.2433   -4937.6901            0    11254.669    19.524015    19.478118     20.52539    7805.6227    12646.109    10656.652    10461.247      267.861   -258.25556   -568.47372   -3399.0455 
35267000    132.88768   -4943.1361    -4686.851   -4943.1361            0    10723.674    19.623985    19.521796    20.445862    7832.7161    12144.601    9656.3378    10370.083    123.84277    80.558526   -1026.8924   -3461.8629 
35268000    128.79279   -4944.5772   -4696.1895   -4944.5772            0    10971.973    19.650472    19.537994    20.337599    7808.2308    11884.962    10580.692    10450.264    341.45289   -61.308288    -177.0708   -3446.7557 
35269000    132.28244   -4937.1042   -4681.9863   -4937.1042            0    10501.039    19.593088    19.505169     20.39476    7794.1936    11805.207    9531.3972    10166.513   -115.06158    949.47263   -1187.3775   -3488.3299 
35270000    136.78497   -4936.1881   -4672.3868   -4936.1881            0    11701.936    19.601547    19.296546    20.399521    7715.9585    11105.401    11351.419    12648.987    105.69424    692.85333    185.14356   -3355.5757 
35271000    134.70887   -4948.8902   -4689.0928   -4948.8902            0    11603.774    19.755302    19.406924    20.275245    7773.3193    11429.273    10925.033    12457.014    210.12419   -759.69544    1101.5022   -3373.6207 
35272000     141.8742   -4948.7964     -4675.18   -4948.7964            0    11556.319    19.655714    19.462827    20.299078    7765.5293    12410.416    11039.239    11219.304   -234.06588   -452.47123    1290.4503   -3366.4005 
35273000    136.59301   -4955.6973   -4692.2662   -4955.6973            0    11473.624    19.612577    19.499175    20.368134    7789.3668    11685.811     10249.06        12486    227.35843   -556.38146   -40.678837   -3388.8634 
35274000    141.67389   -4934.3981   -4661.1681   -4934.3981            0    10452.224    19.722345    19.456389    20.344699    7806.7824    10079.141     10153.27     11124.26    -333.0427    231.44199    822.95221   -3471.1415 
35275000    140.50347   -4933.6181   -4662.6454   -4933.6181            0    11322.875    19.659856    19.542675     20.24407    7777.8968     11276.64    11101.564    11590.423    214.05215    316.52828    260.06818   -3378.2617 
35276000    139.79683   -4927.3214   -4657.7115   -4927.3214            0    12661.647    19.521219     19.53198      20.3719    7767.5622    13266.996     12510.87    12207.075    470.36685   -392.76086    15.251735   -3223.3757 
35277000    144.37883   -4939.1836   -4660.7369   -4939.1836            0    12184.064    19.668815    19.401253    20.389247    7780.5297    12118.963    12410.125    12023.105    661.12964   -408.23181    844.02993   -3278.1984 
35278000    131.61671    -4948.021   -4694.1872    -4948.021            0    11205.655    19.809737    19.296848    20.494097    7834.1861    10567.963    12789.595    10259.406    -14.10892    1278.6311   -36.587395   -3413.9011 
35279000    141.22325   -4948.3973   -4676.0364   -4948.3973            0    11800.335    19.667436    19.302732    20.499874    7782.4745    10620.592    14298.229    10482.184    122.43269   -775.29999    17.731516   -3336.7054 
35280000    137.86306   -4940.5468   -4674.6663   -4940.5468            0    10517.123     19.74361    19.471148    20.334508    7817.2103    8428.2158    11482.103    11641.049   -497.24998   -987.68398   -140.65961   -3475.6513 
35281000    142.98771    -4938.235   -4662.4712    -4938.235            0     11909.63    19.767703    19.380941    20.333243     7790.005    12532.974    11235.969    11959.947   -320.14922    592.75141      336.726   -3309.4272 
35282000    140.65579     -4948.73   -4677.4635     -4948.73            0    10951.995     19.88189    19.534249    20.158259    7829.0198    9892.8492     11025.99    11937.145    150.28846    256.76897   -615.41167   -3426.9842 
35283000    139.18488   -4951.4254   -4682.9956   -4951.4254            0    10226.935    19.814058    19.375268    20.396712    7830.3523    7868.6799    12821.542    9990.5831    81.889261   -47.963829   -65.507871   -3515.1036 
35284000    137.27218   -4958.9809     -4694.24   -4958.9809            0    10214.166    19.869766    19.254951    20.393229    7802.2733    10619.068    10772.637    9250.7946   -3.8542782    -950.4875   -963.46403   -3531.9888 
35285000    132.08655   -4960.1892   -4705.4491   -4960.1892            0    12087.343    19.632602    19.395644    20.446999    7785.9507    10548.926    13809.523    11903.581   -255.84569    781.48562   -108.53641     -3332.93 
35286000    129.74941   -4933.3811   -4683.1485   -4933.3811            0     12502.52    19.499275    19.385606    20.449362    7729.9665    11644.532     13587.05    12275.979    244.35785    682.06299   -88.438277    -3273.694 
35287000    135.31806    -4933.977   -4673.0047    -4933.977            0    12208.792    19.541261    19.434753     20.39255    7744.6741    12154.667    11653.012    12818.697   -385.25289    352.84739   -1094.1708   -3294.0445 
35288000      140.966   -4950.9727   -4679.1079   -4950.9727            0    9910.1561    19.617822     19.45284    20.527134    7833.6134    10306.512     9993.636    9430.3203    194.29042    655.14298    372.76123     -3546.92 
35289000    126.13149    -4939.984   -4696.7289    -4939.984            0     10358.14    19.761446     19.53533    20.325843    7846.7176    10584.651    10456.257    10033.511   -123.99264    115.78605   -676.47951   -3511.3814 
35290000     136.6998   -4947.4023   -4683.7653   -4947.4023            0    11154.566    19.608119    19.432825    20.451525    7792.8723    12308.026    10778.211    10377.461    48.704395   -466.25262   -437.65156   -3416.0371 
35291000    142.69999   -4947.4225   -4672.2135   -4947.4225            0    10654.519    19.656798     19.36519    20.401456    7765.9702    10653.128      11096.3    10214.131   -229.20965   -905.34483   -477.34409   -3465.4964 
35292000    135.65885   -4953.0277   -4691.3982   -4953.0277            0    10713.723    19.688258    19.348432     20.51061    7813.2489    11974.144    9757.8035    10409.222   -437.62998   -37.588578    254.41915   -3470.5885 
35293000    144.35046   -4950.5917   -4672.1997   -4950.5917            0    10776.766    19.898292    19.369638    20.253413    7806.1254    8361.4591    12539.897    11428.943   -20.848173    532.90446   -1099.3347    -3445.326 
35294000    136.71934   -4964.5872   -4700.9125   -4964.5872            0    9941.1111     19.76743    19.385652    20.353861    7799.6914    9656.0523    10315.459    9851.8224   -428.18627   -163.71253   -439.35261   -3570.1062 
35295000    135.86126   -4957.3163   -4695.2964   -4957.3163            0    11987.993    19.581508    19.469125    20.365612    7764.0806    12631.586    11370.092    11962.303   -515.11491    -490.9621   -489.65551   -3337.8821 
35296000    131.74797   -4949.6777   -4695.5906   -4949.6777            0    9745.3575    19.651158    19.494279    20.432827    7827.5126    9221.1069    9400.8889    10614.077   -406.31541    -98.14366   -1046.6017   -3583.0972 
35297000    137.56371   -4949.9075   -4684.6043   -4949.9075            0    10774.777    19.714219    19.464178    20.333129    7802.2497    11763.145    10058.452    10502.733     102.9485   -277.93006   -772.40054    -3458.566 
35298000    136.60704   -4973.6026   -4710.1444   -4973.6026            0    8580.8815    19.725771    19.489634    20.481649      7874.13     8995.572    8735.3103     8011.762    223.60105   -192.51962   -981.80638   -3724.7494 
35299000    134.51631   -4934.6153   -4675.1893   -4934.6153            0    10702.166    19.632254    19.430546    20.472145    7809.4154    10628.352    11293.476     10184.67    209.88834    504.97496   -730.67034   -3456.2949 
35300000    134.27614   -4955.4128     -4696.45   -4955.4128            0    11102.004    19.641895     19.58812    20.299042    7810.0114    12068.025    10038.966    11199.021    334.30518    1061.3876   -152.69369   -3431.9206 
35301000    143.33482   -4925.5602   -4649.1269   -4925.5602            0    10615.664    19.669927    19.518518      20.3804    7824.6028    12049.966    9391.8062    10405.218   -639.07132    100.52358    682.23165   -3437.7331 
35302000    132.12736   -4956.5358    -4701.717   -4956.5358            0    10354.234    19.758418    19.434609    20.487146    7867.0049    10859.481    11144.568    9058.6517    287.26667   -424.72774    917.53038    -3513.753 
35303000    128.37443   -4954.7774   -4707.1966   -4954.7774            0    8956.6039    19.712228    19.380252    20.577753    7861.2763    9979.6841     9463.044    7427.0835   -58.936832     1030.098     992.7541    -3680.334 
35304000    139.36229   -4936.3303   -4667.5584   -4936.3303            0    11175.597    19.629071    19.409595    20.474174    7800.5031    11175.895    11655.084    10695.812   -650.64663    229.26139   -507.06138   -3396.1964 
35305000    133.33965   -4942.5637    -4685.407   -4942.5637            0    11436.525    19.689948    19.487802    20.469189      7854.31    11317.889    12020.925    10970.761    229.61363   -233.38004    10.300052   -3375.3867 
35306000    145.28007   -4942.2752   -4662.0903   -4942.2752            0    10111.089    19.659347    19.536852    20.386282    7829.9992    10398.299    9860.5197    10074.448    458.94953   -671.53916    56.565643   -3507.4798 
35307000    132.91195   -4955.9529    -4699.621   -4955.9529            0    10382.823    19.565753     19.47505     20.47533     7802.002    10605.072    9781.1929    10762.203    7.4220214    1025.8568   -555.73659   -3518.2199 
35308000    144.42902   -4958.9752   -4680.4317   -4958.9752            0     10266.77    19.771382    19.404839    20.319049    7795.6165    8943.0117    10466.615    11390.684   -524.14947     495.6387    538.37145   -3513.1916 
35309000    136.65447   -4952.3386    -4688.789   -4952.3386            0    11388.949    19.755957    19.582262     20.20459    7816.4755    11082.125    11436.705    11648.018    318.33619    393.98021    -246.1191   -3390.5025 
35310000    138.58966   -4957.1465   -4689.8647   -4957.1465            0    10728.282    19.749252    19.692953     20.19072     7852.597    9739.8876    10628.148    11816.812    377.09743    512.21302   -904.77149   -3461.2396 
35311000     137.9024   -4942.5763   -4676.6199   -4942.5763            0    11381.025    19.822055    19.450655    20.265081    7813.2414    10901.902    11014.664    12226.507   -65.428159    760.32153   -966.69996   -3379.7737 
35312000     142.1604   -4937.8246   -4663.6563   -4937.8246            0    9833.1563    19.804415    19.541763    20.299939     7856.344     10895.99    8578.7668    10024.713    405.27277    264.33971   -1152.7899   -3537.0056 
35313000    138.19063   -4932.8221   -4666.3098   -4932.8221            0     11300.27    19.704686    19.314927    20.450311    7783.2774    10446.819    11449.881     12004.11     238.4826   -519.66957    40.380627   -3383.6036 
35314000    143.34526   -4965.6781   -4689.2247   -4965.6781            0    10445.718    19.649965    19.519029    20.447307    7842.5285    11446.019    9854.5012    10036.633   -50.399762    298.61844   -755.64958   -3494.4933 
35315000    137.38006   -4951.1747   -4686.2257   -4951.1747            0    11355.926    19.729505    19.522466     20.28193    7811.9624     10499.18    11605.026    11963.573    145.12683    417.64972    203.32362   -3392.4512 
35316000    144.21057    -4945.261   -4667.1388    -4945.261            0    10333.502    19.770635    19.441744    20.434395    7854.4835    9582.1343    11372.194    10046.177    682.58968    243.73454     -1017.44   -3483.4405 
35317000    133.58979   -4940.8023   -4683.1631   -4940.8023            0    12150.416    19.643068    19.460224    20.305867      7762.09    11824.631    12902.027    11724.589   -45.068346   -358.28584   -122.09497   -3307.7103 
35318000    140.72919   -4953.4866   -4682.0785   -4953.4866            0    9906.2154    19.686957    19.459913    20.386654    7810.2592    11498.903    8059.8977    10159.846    283.57097   -40.185107    -488.3607   -3553.7148 
35319000    127.76065   -4943.6809   -4697.2838   -4943.6809            0    10314.923    19.642152    19.642097    20.225676    7803.3299    11801.599    7207.3747    11935.795   -735.51636    368.34885    336.49031   -3523.4088 
35320000    141.99525   -4939.4087   -4665.5589   -4939.4087            0    12425.818    19.599362    19.353125    20.420595     7745.714    13534.744    11617.962    12124.747   -713.13206    -731.3574     224.2156   -3261.8976 
35321000    142.99634   -4952.2886   -4676.5081   -4952.2886            0    10011.465    19.711829    19.457526    20.345307    7803.3084    10357.266    9831.6494    9845.4804   -456.55938    107.20719    469.07971   -3537.1709 
35322000    145.83891   -4927.2589   -4645.9963   -4927.2589            0    11565.809    19.755857    19.372147    20.304457     7770.787    12057.504    11673.361    10966.561     57.62984   -18.480662    204.83889   -3335.2552 
35323000    130.83505   -4955.4822   -4703.1558   -4955.4822            0    9953.9762    19.728796    19.690841    20.147744    7826.9266    10244.269    8901.1569    10716.502    565.44002    513.55178    -174.6969   -3566.9324 
35324000    135.02937   -4959.2193   -4698.8038   -4959.2193            0    9493.7309     19.66011    19.691885    20.259001    7843.1631    8956.7371     8921.965    10602.491    508.26214    566.71206    571.15425   -3612.8682 
35325000    133.52485    -4946.672   -4689.1581    -4946.672            0    10664.136    19.561251    19.449345    20.432108    7773.4676    11155.811    9766.1841    11070.413    77.627432    443.31117    798.59269   -3480.1857 
35326000    137.69461   -4948.8365   -4683.2809   -4948.8365            0    10376.603    19.608874    19.515119    20.358978    7790.7598    10865.849    10225.103    10038.858    726.88757    1504.9728   -135.03799   -3504.2887 
35327000    135.64906   -4959.1813   -4697.5707   -4959.1813            0     11228.13    19.619413    19.432552    20.372772    7767.2265    10757.528    12012.254     10914.61      459.382    857.69149    184.84828   -3425.6814 
35328000    139.86177   -4938.6625   -4668.9273   -4938.6625            0    9572.5943    19.569648     19.55581    20.495586    7843.6672    10297.415    8547.3264    9873.0411    1095.5308   -101.68326   -475.63283   -3573.9006 
35329000    136.43631   -4962.1165   -4698.9876   -4962.1165            0    10536.941    19.576237    19.510992    20.441282    7807.5845    11034.973    10657.535    9918.3146  -0.62274775    1118.2988   -209.12533   -3499.1924 
35330000     136.1009   -4934.8305   -4672.3485   -4934.8305            0    9692.5427    19.750065    19.473003     20.33584     7821.023    9484.6926    9355.9277    10237.008   -182.57581    1251.7857    764.38934   -3566.8016 
35331000    132.68127   -4938.6061   -4682.7191   -4938.6061            0    9898.2181    19.773687    19.467868     20.36185    7838.3255    9054.8223    11423.406    9216.4258   -288.15478    737.68896   -363.07667   -3551.2149 
35332000    134.73021   -4952.6785   -4692.8399   -4952.6785            0    10237.416    19.652918    19.462279    20.353514    7785.0272    10110.335    10702.462    9899.4514   -316.31394    48.805234   -1569.3174   -3530.5181 
35333000    140.02636   -4948.0079   -4677.9553   -4948.0079            0    10549.757    19.567091    19.603109    20.357711    7808.7255    12102.368    8408.0957    11138.808   -839.15329     824.3423   -103.62551   -3476.5252 
35334000    144.45645   -4933.2442   -4654.6478   -4933.2442            0    11869.095     19.58957    19.491405    20.325385    7760.8062    10520.541    12620.114    12466.629    199.54281   -599.05285   -234.19019   -3311.2633 
35335000    132.72214   -4946.7299   -4690.7641   -4946.7299            0    9329.4863    19.727273    19.351261     20.42319    7796.5041    7210.0304    10569.387    10209.042    74.485823    32.130915   -38.908371    -3629.964 
35336000    130.61376    -4942.654   -4690.7544    -4942.654            0     10333.12    19.681911    19.468311    20.366137    7803.7651    10732.114    10176.477    10090.769   -225.45219    564.67305    113.56817   -3514.7429 
35337000    133.06421   -4943.5572   -4686.9317   -4943.5572            0    11645.571    19.714424    19.288142     20.50703    7797.8927    10851.278    13140.194     10945.24    455.47506    1028.2428    259.66227   -3362.5477 
35338000    137.29797   -4949.2337    -4684.443   -4949.2337            0    10866.777    19.746426    19.408881    20.417195    7825.0132     9208.282    12143.401    11248.647    -127.5767    339.02786    287.55501   -3444.3287 
35339000    130.66227    -4962.437   -4710.4438    -4962.437            0    10929.727    19.697151    19.465517    20.385525     7816.121    11163.442    10905.455    10720.282   -293.16816    374.92248   -272.57571   -3464.5631 
35340000    135.73254   -4942.9606    -4681.189   -4942.9606            0    11741.067    19.717657    19.377843    20.330799    7768.1069    12314.272    11378.892    11530.037    88.370767    782.10811    -28.12822   -3351.0451 
35341000    135.94275   -4953.5105   -4691.3335   -4953.5105            0    10049.014    19.687685    19.550825    20.301641    7814.3141    9912.6833      9813.42    10420.939    752.84137     168.8329    910.76139   -3546.1101 
35342000     136.9869   -4946.8041   -4682.6133   -4946.8041            0    11165.359    19.586584    19.433676    20.412649    7769.8571    12569.331     9863.476    11063.271   -119.77001    751.10471       496.04   -3417.4062 
35343000    142.77612   -4945.8666   -4670.5108   -4945.8666            0     9859.491    19.613352    19.439889    20.431202    7790.0371    10985.799    9192.9754    9399.6987    407.08673    578.27528   -741.30768    -3550.377 
35344000    135.03658   -4938.9575    -4678.528   -4938.9575            0    11210.629    19.560978    19.570122    20.315676    7777.0585    11067.667    10762.669    11801.551    285.90644    238.79447   -1672.7887   -3407.0138 
35345000    134.59042   -4957.0724   -4697.5034   -4957.0724            0    11735.861    19.650386    19.406195    20.372792    7768.9448    11653.568    13171.257    10382.758   -963.95143   -638.79853    215.83276   -3367.8058 
35346000    138.97611   -4942.5674   -4674.5403   -4942.5674            0    11351.112     19.69221    19.337298    20.438604    7782.9007    10176.345    12000.123    11876.869    216.43889      -534.94    202.59714   -3386.1252 
35347000    136.86139   -4950.0719   -4686.1232   -4950.0719            0    9435.3526    19.729728    19.463207    20.385832    7828.2364     9607.703    9870.5116    8827.8433    713.47856    1176.5739   -246.40785   -3608.9192 
35348000    137.04751   -4953.4624   -4689.1547   -4953.4624            0     9085.569    19.817145    19.409003    20.406556     7848.995    9167.9752     9134.917    8953.8148     512.9956   -428.06335   -651.01955   -3649.1338 
35349000    136.25279   -4943.3347   -4680.5598   -4943.3347            0    10456.001    19.656639    19.357264    20.410036    7765.9929     8431.283    11213.396    11723.323   -329.33794    984.13507    510.82895   -3496.3232 
35350000    139.18339   -4942.6912   -4674.2643   -4942.6912            0    11659.598    19.669095    19.320127    20.436244    7765.9653     13157.31    10764.666    11056.817    61.201121    -1055.116    857.21526   -3353.7142 
35351000     124.8475   -4943.7817   -4703.0028   -4943.7817            0    10561.857    19.737181    19.355295    20.406774    7795.7747    10130.909    11549.551    10005.111   -209.17166    931.06786   -832.27559   -3502.1896 
35352000    135.60876   -4939.8178   -4678.2849   -4939.8178            0    11191.645    19.785273    19.408633    20.264028    7781.4902    10147.155    12190.843    11236.938   -82.364584     498.1851    729.94944   -3408.2005 
35353000    143.06404   -4945.5671   -4669.6561   -4945.5671            0    10824.686    19.638212    19.580637    20.264077    7792.1193    11646.429    9364.6194     11463.01   -340.22867    863.02446   -573.70325    -3439.538 
35354000    141.43893   -4941.3215   -4668.5446   -4941.3215            0     11122.64    19.671169    19.574236    20.222053    7786.4632     10913.28    11050.005    11404.636    356.07995    308.55098   -709.96872   -3405.4845 
35355000    140.23681   -4927.8321   -4657.3736   -4927.8321            0     11910.78    19.690126    19.440887    20.380147    7801.3881    11905.163    12983.775    10843.403    -348.9919    1611.0607   -705.94297   -3302.2217 
35356000    135.02297   -4962.8662    -4702.463   -4962.8662            0    9651.4825    19.587284    19.583016    20.424748    7834.4855    10132.374    9645.9029    9176.1708   -55.460581   -178.34046    18.034139   -3599.7046 
35357000    144.80805   -4959.5572   -4680.2827   -4959.5572            0     11003.85      19.5898    19.600731    20.313393    7799.8224    10702.632    10472.637     11836.28    236.65065    566.06891   -41.773767   -3428.5683 
35358000    141.22275   -4950.2236   -4677.8636   -4950.2236            0     9720.845    19.809397     19.48237    20.322348    7843.0852    7849.1994    10815.596     10497.74   -1.9022927   -934.81928     1321.764   -3565.9608 
35359000    129.28048   -4930.8278   -4681.4995   -4930.8278            0     11903.09    19.883748    19.390245    20.240179    7803.6162    10986.648     12182.09    12540.531   -117.08787    613.30552    554.79314   -3326.8358 
35360000    143.85617    -4945.624   -4668.1853    -4945.624            0    10307.631    19.761718    19.385356    20.404616    7816.7623    11958.022    8830.3305    10134.542    597.06425   -69.613406    421.35121   -3493.1209 
35361000    140.44923   -4930.7117   -4659.8436   -4930.7117            0    12716.384     19.66131    19.323665     20.43722    7764.6836    13887.431    11408.612     12853.11    406.72086    751.93883   -231.82706   -3219.8409 
35362000    137.29876   -4934.4499   -4669.6577   -4934.4499            0    11878.444    19.819684     19.28671    20.319451    7767.2421    9928.7978    13015.831    12690.703    431.39928   -749.68279   -349.75098   -3324.1001 
35363000    130.44258   -4948.1777   -4696.6082   -4948.1777            0    11035.927    19.772114    19.469656    20.263684    7800.6322    11544.585    10599.328    10963.869    378.31415    1.4638022   -149.40538   -3441.1146 
35364000    140.84915   -4940.4318   -4668.7924   -4940.4318            0    12645.238    19.552883    19.482014    20.376204    7761.8975    14460.219    11523.077    11952.419   -181.18813   -1160.5948    225.86115   -3237.3601 
35365000    135.94988   -4942.5551   -4680.3643   -4942.5551            0    11130.164    19.620082    19.491937     20.34504    7780.6228    9963.3484     11294.49    12132.654    228.72433    47.944159   -797.14904   -3417.3978 
35366000    135.00398   -4947.3859   -4687.0193   -4947.3859            0    12037.468    19.583628    19.343345    20.407423    7730.5946    10979.566    13535.735    11597.104   -261.44841   -108.84973   -1251.9186   -3329.8815 
35367000    134.33023   -4960.0858   -4701.0186   -4960.0858            0    11094.317     19.84752    19.400197    20.297192    7815.3486    9753.5807    13056.002    10473.367   -437.86804   -198.45012    149.93249   -3436.5012 
35368000    134.19898   -4954.5205   -4695.7065   -4954.5205            0      10844.1    19.638767      19.5692    20.366257    7827.0574    10470.544    10548.899    11512.857    489.79141   -208.40855   -513.55308   -3457.8568 
35369000    136.07175   -4947.6893   -4685.2635   -4947.6893            0    12038.224    19.555375     19.55316    20.225557    7733.6337    12543.316    10575.382    12995.975    317.21142    459.44648    -756.2104   -3327.5069 
35370000    134.43178   -4937.4699   -4678.2069   -4937.4699            0     12189.64    19.538754    19.354331    20.557319    7773.9454    13255.163    12465.112    10848.646    160.30365    81.182813    -753.8708   -3296.2062 
35371000    136.17684   -4965.6776   -4703.0491   -4965.6776            0    11419.764    19.680846    19.303051    20.508378    7791.1404      11567.3    12410.423    10281.568   -630.81637    504.48354    263.51867   -3405.4694 
35372000    144.44548   -4945.3732    -4666.798   -4945.3732            0    11517.502     19.64236    19.401896     20.44125    7790.1406     11155.25    12795.246    10602.011    119.16133    519.34933    500.90229   -3358.2806 
35373000    141.83985   -4964.3034   -4690.7533   -4964.3034            0    10167.538    19.768188    19.441758    20.468646    7866.6804    10650.943    10279.157    9572.5148   -91.073804     1143.352    601.54728   -3524.2574 
35374000    134.37497   -4943.8882   -4684.7348   -4943.8882            0    10694.246    19.735175    19.455507    20.406479    7835.2277    11408.833    9821.1891    10852.715     47.18916   -650.51784     -743.731   -3462.7166 
35375000    136.71377   -4933.1571   -4669.4931   -4933.1571            0    11060.614    19.681679    19.530889    20.273103    7792.9948    11897.472    9361.2435    11923.126    438.69848    154.56176   -1009.3352   -3412.4229 
35376000    133.42864   -4954.9034   -4697.5751   -4954.9034            0    10839.247    19.744961    19.330825    20.353055    7768.4842    10819.309    11221.088    10477.344    123.48551   -367.23702    549.24645   -3469.5386 
35377000    134.23104   -4940.6953   -4681.8194   -4940.6953            0    12028.553    19.699822    19.395327    20.289814    7752.4231    11858.136    12047.916    12179.608    481.71307   -259.06366   -84.217782   -3321.8575 
35378000    135.27852   -4940.1719   -4679.2759   -4940.1719            0    11680.808    19.738081    19.245278    20.388711    7744.9548    11455.101    12386.599    11200.725   -353.62122   -32.080003   -137.60172   -3359.9026 
35379000    139.26564   -4923.7079   -4655.1224   -4923.7079            0    11703.425    19.801229    19.407218    20.245247    7779.9802    11660.642    12658.096    10791.538   -163.68133     774.4346    141.14493   -3327.2163 
35380000    131.68007   -4962.4688   -4708.5128   -4962.4688            0    9555.3793     19.74656    19.343029    20.475112    7820.6384    9053.7628    11113.754    8498.6215   -304.72319    1019.9664   -981.27236   -3618.6645 
35381000    136.24412   -4970.7161   -4707.9579   -4970.7161            0    10897.208    19.646157    19.513352    20.362617    7806.2613    10487.522    12316.306    9887.7962    798.65917   -271.30524     -164.805   -3467.3509 
35382000    142.62639   -4941.5847   -4666.5177   -4941.5847            0    10347.697    19.651679    19.468556    20.436251    7818.7015    10818.512    10735.144    9489.4358   -161.11013    683.72749   -596.65227   -3486.5932 
35383000    139.83115   -4947.0608   -4677.3846   -4947.0608            0    11068.596    19.740737    19.492383    20.403374    7851.0963    11434.504    11081.061    10690.224    246.37051    275.71966   -671.70645   -3410.0283 
35384000    137.00353   -4956.2628   -4692.0399   -4956.2628            0    11900.447    19.809034    19.373949    20.314485    7796.2768    11220.227    12682.475    11798.639   -530.53545   -433.30382   -436.14968   -3338.9508 
35385000    134.88542   -4952.5248   -4692.3869   -4952.5248            0    11081.495    19.773934    19.335684    20.512056    7842.6314    8796.2557    13127.481     11320.75   -541.76971    677.43614   -82.524901   -3424.9217 
35386000    140.47804   -4947.4297    -4676.506   -4947.4297            0    10674.143    19.707362    19.353999    20.406633    7783.4216    10810.957    11511.641    9699.8315    318.26849    1224.6583   -969.40516   -3464.8497 
35387000     133.8613   -4950.2809   -4692.1181   -4950.2809            0     10843.57    19.651144    19.362319    20.508851    7803.4482    12347.782    10763.069    9419.8581    473.36633   -331.09815   -400.89249   -3458.0626 
35388000    136.03264   -4949.8195   -4687.4691   -4949.8195            0    10173.157    19.585445    19.336549    20.567882    7789.3641    11208.515    10448.023    8862.9327    307.00968    417.42396   -767.26591   -3531.7997 
35389000    137.51213   -4963.7975   -4698.5938   -4963.7975            0    12903.378    19.561021    19.402285    20.431729    7754.4233     13999.03    11452.304      13258.8    540.02346    455.48805   -929.98851   -3239.3468 
35390000    140.28887   -4946.5084   -4675.9495   -4946.5084            0    10811.369    19.806711    19.238807    20.479564    7803.8915    9026.6777    13327.613    10079.816    832.53163   -903.97529   -875.83742   -3445.4887 
35391000    135.57446   -4954.6921   -4693.2254   -4954.6921            0    9734.2414    19.789081    19.504142    20.316279    7841.4547    9005.2587    9479.9435    10717.522   -501.00059    579.51875    -198.6632   -3580.0217 
35392000    135.78285   -4944.9246   -4683.0559   -4944.9246            0    10574.964    19.856207    19.336641    20.301636    7794.8607    9740.3965    11957.207    10027.288   -355.68703   -1465.6481    946.41793   -3480.8936 
35393000    132.93733   -4944.4376   -4688.0568   -4944.4376            0    11386.483    19.795292    19.394255    20.313249    7798.5597    11217.259    10964.687    11977.503   -219.44106   -245.24711    372.03939   -3393.0267 
35394000    139.27898   -4953.6343    -4685.023   -4953.6343            0    10456.359    19.683127    19.409151     20.47613    7822.5528    12545.181    9904.6273    8919.2697    365.77639   -12.949596    804.14378   -3492.1207 
35395000    139.62611   -4954.3204   -4685.0397   -4954.3204            0    10461.166    19.783243    19.381967    20.349297    7802.6971    8504.9689    12305.129    10573.399    491.40092   -340.85086    442.93281   -3494.6183 
35396000    131.47799   -4948.1507   -4694.5844   -4948.1507            0    11158.296    19.634003    19.476065    20.439513     7815.929    10999.205     11413.92    11061.762     399.7548    1957.7688   -650.39769   -3422.6803 
35397000      128.661   -4949.1504   -4701.0168   -4949.1504            0    11770.382    19.648097    19.475765    20.353844    7788.6372    11960.644    11195.483    12155.019   -368.00276     247.9146   -904.55851   -3364.0275 
35398000    130.39166   -4940.3421   -4688.8708   -4940.3421            0    11698.647    19.755423    19.449654    20.230108    7773.1391    10407.435    12286.317     12402.19    321.16889     1175.036    419.35429    -3362.674 
35399000    140.73052   -4950.9109   -4679.5003   -4950.9109            0    10190.085    19.719649    19.433643    20.432633    7830.2882    10482.901    10375.865    9711.4893   -650.26679   -36.457775    1280.6099   -3515.8259 
35400000    134.73328   -4943.5643   -4683.7198   -4943.5643            0    12128.366    19.652796    19.291628    20.497742    7771.3995    10694.218    14095.715    11595.166    381.11345   -409.87565   -1159.8237   -3309.1164 
35401000    146.77452   -4953.2282   -4670.1612   -4953.2282            0    10765.111     19.73086    19.391544    20.483948    7837.4009    11122.687    11058.432    10114.214   -410.21677    394.41591   -1233.3329   -3439.7041 
35402000    136.38669   -4934.3985   -4671.3653   -4934.3985            0    11316.518    19.651063    19.295138    20.582367    7804.2156    12032.679    11158.153    10758.721   -173.55012    734.89524     385.0805    -3383.359 
35403000    143.27266   -4965.9408   -4689.6274   -4965.9408            0    9759.8867    19.596706    19.536025    20.364638    7796.4332    10353.938    8612.7194    10313.003     479.1486    -18.97347   -1009.2876   -3579.8992 
35404000    137.54211    -4954.745   -4689.4834    -4954.745            0    9768.6925    19.646169    19.355959    20.597334    7832.5578    9686.2332    10014.803    9605.0417     141.8565   -346.44825   -200.91157   -3573.6074 
35405000    137.21314   -4948.5552   -4683.9281   -4948.5552            0     11813.71     19.63345    19.409687    20.441953    7790.0016    11163.621    13459.621    10817.888    565.15208    132.76942    1145.8123   -3341.7822 
35406000    133.24845   -4951.3703   -4694.3895   -4951.3703            0    10015.196    19.578689    19.452318    20.458683    7791.7075    10556.313    9747.6202    9741.6547    661.31446    123.85008   -654.59652   -3556.3221 
35407000    142.13821   -4959.2182   -4685.0928   -4959.2182            0    9804.4232    19.694171    19.594336    20.296296    7832.2226    9567.5671    9653.7075    10191.995   -1041.7874   -83.580429    366.54648   -3565.1832 
35408000    130.12305   -4941.2751   -4690.3218   -4941.2751            0    11346.253    19.590827    19.464141    20.256795    7724.2929    10857.281    10669.125    12512.352    154.15545   -273.61633   -1211.8528   -3412.1564 
35409000    133.67612   -4956.2763   -4698.4707   -4956.2763            0    9861.3622    19.785921    19.506516    20.277138    7826.0506    10358.086    8961.0414    10264.959   -262.24107    -24.33402   -340.97736   -3572.9449 
35410000    140.78969   -4951.8211   -4680.2963   -4951.8211            0    10910.428    19.703968     19.56013    20.212775    7790.2494     11391.33    9491.8541      11848.1   -296.66178   -811.04743    600.98732    -3440.732 
35411000    135.19446   -4954.8214   -4694.0875   -4954.8214            0     9551.043    19.680609    19.358914    20.484808    7804.6142    8893.8304    11127.202    8632.0961    20.545045    305.67152   -349.33817   -3606.9659 
35412000    138.41696   -4950.5831   -4683.6343   -4950.5831            0    10352.026    19.815232    19.432879    20.344002     7833.804    9966.8692    10125.088     10964.12   -176.19779    37.516796    317.99345   -3500.9361 
35413000    141.45791   -4953.0868   -4680.2733   -4953.0868            0    10688.921    19.663573    19.438383    20.424199    7806.7021     10308.72    10676.846    11081.199    805.12342      499.741   -210.14869   -3463.3103 
35414000    135.07339   -4953.9515   -4693.4511   -4953.9515            0    11643.337    19.738708    19.286239     20.50429    7805.6849    9908.9723    14023.747    10997.292   -79.755494    556.29654    -46.54419    -3367.998 
35415000    135.58577    -4949.785   -4688.2965    -4949.785            0    11752.379    19.722224    19.405079    20.402042    7808.0924    13524.032    9966.9669    11766.137    559.24197    174.07012     689.0739   -3350.0176 
35416000    135.15597   -4926.5288   -4665.8692   -4926.5288            0    11131.051    19.593901     19.36558    20.465267    7765.4891    11074.963    10716.094    11602.095    625.24475   -37.112209   -438.70056   -3405.2588 
35417000    137.22827   -4948.3316   -4683.6753   -4948.3316            0    9552.9601     19.66411    19.588417    20.265489    7806.0393    9829.5288    9736.6882    9092.6634    8.9373881   -438.11765   -435.57425    -3596.137 
35418000    136.00949   -4929.0576   -4666.7519   -4929.0576            0    9999.3268    19.803712    19.465527    20.284214    7819.3553    8062.5755    11688.273    10247.132   -87.377955   -400.57238   -995.73681   -3526.4559 
35419000    145.88004   -4949.7437   -4668.4018   -4949.7437            0    11716.929    19.878779    19.468292    20.224471    7826.9893    12082.836    10637.078    12430.872     194.2814   -4.2911044     465.1991   -3330.9307 
35420000    139.27487   -4948.8392   -4680.2359   -4948.8392            0    11648.931    19.665513    19.408301    20.430213    7797.6849    11014.608    11963.182    11969.003    361.89718    135.33395   -1021.7711   -3355.5051 
35421000    140.67474   -4945.2529   -4673.9499   -4945.2529            0    10714.971    19.660448    19.476369    20.366033    7798.4419     9747.142    11012.134    11385.639    212.97751   -178.53122    43.346657   -3455.3118 
35422000     140.2898   -4955.7692   -4685.2085   -4955.7692            0    11204.559    19.569606      19.3529    20.481701    7757.0064    11116.854    10644.103     11852.72   -541.47068   -620.60226    -1383.821   -3417.6594 
35423000    134.68962   -4958.6663    -4698.906   -4958.6663            0    10215.921    19.558348    19.679362    20.270579    7802.0611     11197.74    9239.1045    10210.919   -88.084021   -58.551954   -810.35198   -3536.4868 
35424000    141.75551   -4957.7619   -4684.3745   -4957.7619            0    9438.8072    19.650598     19.51825    20.326489    7796.1292    7707.1284    9931.0622    10678.231   -381.32198   -482.68197   -448.57418   -3611.1958 
35425000    134.68111   -4954.6565   -4694.9126   -4954.6565            0    9013.9688    19.562217    19.528591    20.503226    7832.6942    9477.9772    9210.7298    8353.1995    246.32009    454.03156    476.63023   -3665.2306 
35426000    134.42616   -4959.0914   -4699.8393   -4959.0914            0    9827.1974     19.51637    19.445525    20.584627    7811.9904    10986.989    9952.2363    8542.3666    106.18978   -215.55994   -181.83998    -3580.228 
35427000    136.97066   -4947.4487   -4683.2893   -4947.4487            0    10046.008    19.710634    19.445399    20.374036    7808.9837    10704.109    9096.6254    10337.289   -622.53435    264.55873    111.06417   -3539.1894 
35428000    129.45287    -4928.749   -4679.0883    -4928.749            0    12280.696    19.624033    19.351434    20.452188    7766.7837    13184.663    11676.117    11981.308   -214.94862   -613.44178   -490.44532   -3288.0468 
35429000    142.14989   -4951.3318   -4677.1838   -4951.3318            0    9751.9476    19.740989    19.577349    20.335902    7859.3427    9123.8379    10010.924     10121.08   -283.47776   -852.42784    -965.9127   -3559.4111 
35430000    140.82288   -4946.8574   -4675.2686   -4946.8574            0    11247.086    19.735001    19.335854    20.465037    7809.3168    10752.115    11621.028    11368.114    96.599812    177.59073    970.79905   -3394.3282 
35431000    131.37099   -4947.5521   -4694.1921   -4947.5521            0    10640.977    19.637098    19.555142    20.441687    7849.7351    12598.871    9357.5416     9966.517   -82.263452     430.8552   -18.812051   -3476.0096 
35432000    132.02724   -4936.5305   -4681.9049   -4936.5305            0    10207.163    19.686505    19.350055    20.416333    7777.2946    9873.9199    10612.859    10134.711   -389.80202    891.22524   -105.96075    -3524.169 
35433000    132.72828   -4951.9062   -4695.9286   -4951.9062            0    11627.056    19.594036    19.453506    20.364897    7762.5427    10624.433    13158.026     11098.71   -900.04816   -263.89315    70.703159   -3379.6444 
35434000    137.13387    -4970.605   -4706.1308    -4970.605            0    9732.1086    19.696241    19.435512    20.517238    7854.1327    8413.3027    11728.884    9054.1387   -254.47072   -756.32261    862.56646   -3591.3716 
35435000    139.12719   -4934.9303   -4666.6118   -4934.9303            0    11429.105    19.810159     19.47119    20.182856    7785.0802    11264.162    10808.405    12214.748    831.82511    672.66087   -1088.9703   -3368.9809 
35436000    137.55964   -4939.6956   -4674.4002   -4939.6956            0      10970.8    19.690924    19.482502    20.381884     7819.071    10486.011     11802.14    10624.248   -743.75212     202.2693    689.20722   -3423.3656 
35437000    135.23263   -4955.0634   -4694.2559   -4955.0634            0     10428.94    19.686034    19.414962     20.40828    7800.1181    11238.306    10157.003    9891.5116    620.60357    915.44192   -870.40616   -3507.8938 
35438000    138.96551   -4951.9738   -4683.9672   -4951.9738            0    9695.6859    19.799745    19.593233    20.204234    7838.0511    9387.5079    8958.8771    10740.673    43.299386    -901.1166    341.26048   -3575.6539 
35439000    133.23106   -4953.6658   -4696.7185   -4953.6658            0    9948.1985    19.782083    19.424026    20.300856    7800.5568     9864.065    9780.5551    10199.975     408.0107    1023.4232   -713.53034   -3564.9804 
35440000    147.15541   -4955.9113   -4672.1098   -4955.9113            0    10181.812    19.672797    19.464158    20.497778    7848.8949    12000.871    8408.8308    10135.734    325.53022    291.25366   -131.78187   -3506.6173 
35441000    134.66752   -4938.3049   -4678.5873   -4938.3049            0    11845.242    19.525426    19.492421    20.456792    7785.8104    11931.938     12532.68    11071.107   -390.90877    321.27679   -58.697034   -3333.5831 
35442000    142.05839    -4949.274   -4675.3025    -4949.274            0    11021.113    19.589067    19.543623     20.35828    7793.9914    11735.976    10399.061    10928.302   -31.154352    272.17954   -1195.8299   -3422.5616 
35443000    138.37785   -4953.0414   -4686.1681   -4953.0414            0    10659.399    19.849609    19.586126    20.176171    7844.0298    10840.049    9430.2879    11707.859   -236.11746    212.98185   -947.83909   -3466.7635 
35444000    152.03922   -4960.5829   -4667.3625   -4960.5829            0    11872.494    19.713273       19.358    20.419587     7792.309    10609.837    12565.573    12442.071    163.21025    1328.1656   -874.73203   -3318.1387 
35445000    136.31615   -4946.1542    -4683.257   -4946.1542            0    9807.9826    19.662513    19.398427    20.479655    7811.3874    9429.2893    9806.8857    10187.773   -46.496097   -272.49682   -1199.7987   -3565.9211 
35446000    137.13019    -4944.322   -4679.8549    -4944.322            0    11345.868    19.578622    19.484232    20.356525    7765.4937    12003.563    9960.0686    12073.971    276.29636   -247.26316   -911.30137   -3394.9154 
35447000    132.64367   -4942.3013   -4686.4868   -4942.3013            0    10809.448    19.731762    19.542705    20.281983    7820.9758    9664.0661    12259.573    10504.704    114.37332    605.82893    357.94929   -3453.5514 
35448000    133.34698   -4934.7393   -4677.5684   -4934.7393            0    10518.286    19.621335    19.364141    20.511322    7793.2826    10299.698    10749.763    10505.397   -23.398252    1246.0071    243.59694   -3482.0912 
35449000    146.42111   -4947.3055   -4664.9201   -4947.3055            0    11055.326     19.64795    19.472596    20.329338    7777.9356     11427.76     11061.01    10677.209    374.36837   -430.77176    540.64041   -3410.8789 
35450000    132.61433   -4951.0175   -4695.2596   -4951.0175            0    9216.2049    19.605724    19.597772    20.385118    7832.5436    10755.384    7333.1103    9560.1201   -522.87615     567.0825   -101.75034   -3642.4961 
35451000    136.59711    -4950.611    -4687.172    -4950.611            0    11217.973    19.756743    19.317528    20.438073      7800.22    10560.987    12964.307    10128.624    486.70866    708.54224    1053.3576   -3411.0355 
35452000    130.62001   -4934.4909   -4682.5793   -4934.4909            0    11155.383    19.707473    19.474768    20.295821    7789.5045    11518.323    10273.485    11674.341   -374.76432    1838.0804   -916.05468   -3415.3062 
35453000    131.21787   -4940.5576   -4687.4929   -4940.5576            0    11890.133    19.754521    19.272331    20.368028    7754.4274    11147.525    12475.691    12047.182   -658.66119   -500.33188   -118.29832   -3342.8334 
35454000    133.46393   -4955.0395   -4697.6431   -4955.0395            0    10674.204    19.757657    19.453809    20.320256    7810.3274    10866.166    11021.896     10134.55   -148.41952    -501.1743   -166.56196   -3481.7913 
35455000    129.54928    -4947.593   -4697.7463    -4947.593            0    10376.176    19.576126    19.560467    20.327904    7783.9239    10602.434    9958.5391    10567.554    515.90966   -447.00588   -406.26115   -3519.8372 
35456000    140.75221   -4967.2592   -4695.8067   -4967.2592            0    10108.573    19.597425    19.560695    20.315471    7787.7174    10221.643    9442.2553    10661.821   -397.02218    141.13467   -1176.3688   -3547.7167 
35457000    142.56436    -4961.056   -4686.1087    -4961.056            0    11453.844    19.751286    19.363032    20.476922    7831.2918    10206.296    12503.924    11651.312    166.44823    381.03883    593.18383   -3377.9496 
35458000    138.38176   -4946.4002   -4679.5193   -4946.4002            0    9486.2639    19.941445    19.290817     20.41557    7853.5996    7552.7971    11764.208    9141.7864    -630.8508    225.82188    1187.4108    -3592.994 
35459000    134.51731   -4951.5455   -4692.1175   -4951.5455            0    10192.899    19.627018    19.418529    20.611182    7855.4948    10980.638    10335.873    9262.1849    348.30138    173.35851     257.2204   -3524.3749 
35460000    140.03885   -4943.1085   -4673.0319   -4943.1085            0    9397.9902    19.745354    19.344769    20.585789    7863.1396    8578.1724    10778.577    8837.2208   -25.744406   -693.99031   -172.06306   -3595.3096 
35461000    134.51178   -4936.6232    -4677.206   -4936.6232            0    12168.875    19.711794    19.390498    20.364787    7783.8595    12780.482    11582.665    12143.477   -968.42687   -1289.6149    444.86377   -3295.8001 
35462000     135.5728   -4940.0812   -4678.6177   -4940.0812            0    11016.791    19.664199    19.387403    20.393026    7774.5912    11362.951    11486.018    10201.404   -107.11944    281.71593   -514.11709   -3429.4851 
35463000    146.50313   -4950.9752   -4668.4316   -4950.9752            0    11759.841    19.706971     19.52267     20.22475    7781.1229    10941.878    11791.085     12546.56   -442.10998   -28.363667    762.57812   -3333.9284 
35464000    142.65259   -4953.2197   -4678.1022   -4953.2197            0     10546.11    19.811474    19.326709    20.414606    7816.5606    10139.286    10349.973    11149.072    290.34571     1125.469   -254.00372   -3475.8823 
35465000    127.93535   -4954.2515   -4707.5174   -4954.2515            0    11604.447    19.624115    19.439177    20.433926    7795.0654    11275.673    12032.066    11505.601    224.28797    1022.5843   -1475.0722   -3388.2887 
35466000    127.51621    -4933.217   -4687.2913    -4933.217            0    11597.703    19.632147    19.286638     20.51562    7767.9957    11122.745    12541.907    11128.458    6.0134244   -358.34871      54.2724   -3373.4078 
35467000    129.96449   -4961.6678   -4711.0204   -4961.6678            0    10203.831    19.604501     19.51879    20.443546    7822.8483    10658.251    10278.718    9674.5247   -107.88116   -1971.6786   -40.578593   -3546.8835 
35468000    142.59161   -4943.8833   -4668.8833   -4943.8833            0    11562.119    19.667609    19.503525    20.268586    7774.7807    10873.949    11745.937    12066.473    377.29696    692.53153   -635.47823    -3357.887 
35469000    134.30564   -4945.1498   -4686.1301   -4945.1498            0    9528.1125    19.849827    19.555034    20.227174    7851.4617    9173.2509    9193.6138    10217.473   -138.08202    44.109236     266.7959   -3595.1086 
35470000    129.14637    -4944.136   -4695.0664    -4944.136            0    11995.218    19.748099    19.312776    20.372641     7769.934    11353.347    12059.532    12572.775    37.907319     1109.261   -1150.6816     -3335.81 
35471000     137.5026   -4959.0509   -4693.8655   -4959.0509            0    10842.116    19.704886    19.483715    20.395962    7830.5074     9942.994    11320.625     11262.73   -263.10838    537.51216   0.12975064   -3455.6967 
35472000    132.57636   -4945.5666   -4689.8819   -4945.5666            0    11062.104    19.659521    19.369841    20.391964    7765.2963    10949.352    10900.447    11336.512   -447.59945   -250.67717   -580.20836   -3437.1111 
35473000    136.91619   -4961.1164    -4697.062   -4961.1164            0    11318.413     19.73954    19.427876     20.37013    7811.8905    10910.939    11347.602    11696.698   -618.81711     241.5453    479.76065   -3407.5732 
35474000    135.91182   -4937.0804    -4674.963   -4937.0804            0    12523.902    19.626676    19.354723    20.391733    7746.1847     12581.04    13154.018    11836.646   -33.238877    564.64147    55.325274   -3260.1359 
35475000    131.98875   -4957.3273   -4702.7759   -4957.3273            0    8827.7508    19.726079    19.334911    20.589569    7852.9024    8123.3866    9542.0319    8817.8338   -522.74541    162.98472   -438.89452   -3691.7643 
35476000     133.9271   -4936.6645   -4678.3748   -4936.6645            0    11289.111    19.596992    19.400637    20.409889    7759.7199    11228.815    10914.557    11723.961    312.71464    228.31396     886.6282   -3400.8137 
35477000    148.06701   -4928.8102   -4643.2505   -4928.8102            0    11939.669    19.682958    19.565871    20.110488    7744.8353     12561.04     10493.54    12764.426   -872.31341    499.57327   -202.47443   -3294.6592 
35478000    144.29532   -4948.3058   -4670.0202   -4948.3058            0     9972.065    19.674888    19.391949    20.482704    7814.8565     9862.713    10393.822    9659.6601   -594.29653    61.859486    398.09121   -3533.4873 
35479000    146.09376   -4957.6463   -4675.8922   -4957.6463            0    10293.438    19.622972    19.444901    20.407265    7786.7337    11379.897    9109.9547    10390.463    72.560704   -69.611697   -1260.4519   -3506.9536 
35480000    138.65675   -4930.1135   -4662.7023   -4930.1135            0    11153.959    19.647013    19.444503    20.389578    7789.3569    10504.751    10705.756    12251.369   -411.59404   -1487.6955    662.15651    -3395.615 
35481000    138.14496   -4940.0266   -4673.6024   -4940.0266            0    11085.487    19.593939    19.623877    20.291004    7802.0745    12277.459    10080.706    10898.297   -378.92727   -589.15572   -144.43821   -3412.2375 
35482000    137.31686   -4945.5337   -4680.7066   -4945.5337            0    10583.522    19.601873    19.464948     20.46627     7808.894    10768.371    11083.871    9898.3236    177.98388     353.4798    -604.2401   -3475.4053 
35483000    139.17095   -4968.0942   -4699.6914   -4968.0942            0    8610.5699     19.81968    19.488617    20.370261    7868.1797    7967.4861    8954.5847     8909.639    308.38569    667.92957    -784.8523   -3711.6342 
35484000    139.98951   -4939.1161   -4669.1345   -4939.1161            0    12206.054    19.634318    19.463362    20.331946      7769.85    11093.273    12911.622    12613.268    233.72099   -311.18617    1133.3036   -3286.0019 
35485000    132.56599   -4956.9407    -4701.276   -4956.9407            0    9195.8044    19.770986    19.566627    20.211984    7819.0369    9669.0961    8476.5203    9441.7967    52.936496   -634.51167   -79.472446   -3652.6543 
35486000    135.99804   -4955.2787   -4692.9951   -4955.2787            0    10458.447    19.810317    19.486116    20.246147     7815.542    9704.1593    10321.218    11349.963    30.743905   -375.45852    102.13254   -3500.9239 
35487000    142.15603   -4954.3839   -4680.2241   -4954.3839            0    11724.919    19.825768    19.310868    20.278881    7763.8261    9822.5269    13359.537    11992.692   -787.20561   -903.27176   -281.87883   -3352.6416 
35488000     138.0097   -4943.5148   -4677.3515   -4943.5148            0    9414.2726    19.687655    19.600889    20.253457    7815.7188    10399.062    8360.8489    9482.9065    491.81446    852.72131    -493.0889   -3604.2728 
35489000    133.46808   -4942.9631   -4685.5587   -4942.9631            0    11239.047     19.66913    19.518154    20.322319     7801.842    11242.366    10778.095     11696.68    559.61618    330.27535     770.1473    -3406.759 
35490000    140.62229   -4953.3798   -4682.1779   -4953.3798            0    11562.779    19.697013    19.516399    20.318172    7810.6053    11046.732    12551.416    11090.191    82.306657    939.89125    1307.7693   -3365.0655 
35491000    134.04168    -4960.533   -4702.0223    -4960.533            0     9889.925    19.791884    19.483089    20.342063    7844.0425    9823.1817    10220.179    9626.4147    534.44763    589.97808   -400.01527   -3570.6415 
35492000    136.67564   -4949.0529   -4685.4624   -4949.0529            0    10244.546    19.760843    19.400165    20.346186    7799.9873    8670.3568    11760.047    10303.235   -240.88968    356.99913   -834.67285    -3520.096 
35493000    136.67208   -4940.8412   -4677.2576   -4940.8412            0     10894.56    19.807928    19.476637    20.268855    7819.5583    10355.746    11194.702    11133.232    540.57585    348.93935   -686.99886   -3434.8394 
35494000     140.7247   -4950.6026   -4679.2032   -4950.6026            0    10802.395    19.751263    19.493052    20.279863    7807.9986    11523.604    9487.4457    11396.137    349.05909   -559.89954   -679.86434   -3449.1166 
35495000    142.88595   -4945.9109   -4670.3433   -4945.9109            0    9711.4906    19.920018    19.366714    20.337538    7845.9235    7569.8235    11286.234    10278.414   -378.37279      17.1131   -702.68354   -3559.1085 
35496000    134.12381   -4931.3835   -4672.7145   -4931.3835            0     11584.25    19.760691    19.447953    20.248472    7781.5889    10448.643    12642.572    11661.537   -67.164919    89.762487    556.77244   -3358.0586 
35497000    140.54818   -4956.2848   -4685.2258   -4956.2848            0    10314.374     19.65473    19.512638    20.336531    7799.3773    9056.6933    11042.609    10843.819    443.32246    668.14417   -866.77733   -3512.0079 
35498000    135.59239   -4928.9277   -4667.4264   -4928.9277            0    10529.723    19.652437    19.477609    20.352346    7790.5217    11850.421    8960.5699    10778.178   -184.42281    395.04746   -981.62599   -3471.0733 
35499000    129.55267   -4942.4515   -4692.5982   -4942.4515            0    11255.036    19.609305    19.407059     20.38048    7755.9737    12339.499    10326.852    11098.756   -496.91061   -259.12993    379.86622   -3419.5082 
35500000    140.67528   -4932.5114   -4661.2073   -4932.5114            0    11544.463    19.603636    19.394185    20.515656    7799.9814    14313.398    9284.5056    11035.485   -130.45136    878.92182   -901.30252   -3347.9701 
Loop time of 356.294 on 64 procs for 250000 steps with 972 atoms

Performance: 121.248 ns/day, 0.198 hours/ns, 701.668 timesteps/s
99.1% CPU use with 64 MPI tasks x 1 OpenMP threads

MPI task timing breakdown:
Section |  min time  |  avg time  |  max time  |%varavg| %total
---------------------------------------------------------------
Pair    | 19.744     | 29.173     | 38.258     |  83.9 |  8.19
Bond    | 0.26136    | 0.27506    | 0.28565    |   0.9 |  0.08
Kspace  | 137.31     | 146.66     | 156        |  37.9 | 41.16
Neigh   | 1.0035     | 1.0224     | 1.0448     |   0.8 |  0.29
Comm    | 85.083     | 86.19      | 87.452     |   6.9 | 24.19
Output  | 0.54718    | 0.5481     | 0.54957    |   0.1 |  0.15
Modify  | 85.901     | 87.28      | 88.146     |   6.1 | 24.50
Other   |            | 5.144      |            |       |  1.44

Nlocal:        15.1875 ave          20 max          10 min
Histogram: 1 1 4 12 7 9 12 5 11 2
Nghost:        2394.83 ave        2414 max        2376 min
Histogram: 3 4 8 8 5 12 11 9 3 1
Neighs:        5014.34 ave        7238 max        2866 min
Histogram: 1 2 10 8 8 16 10 7 1 1

Total # of neighbors = 320918
Ave neighs/atom = 330.16255
Ave special neighs/atom = 2.0000000
Neighbor list builds = 2871
Dangerous builds = 0

unfix		3
unfix		2
unfix		1

write_data	data.final.${pid}
write_data	data.final.1
System init for write_data ...
PPPM initialization ...
  extracting TIP4P info from pair style
  using 12-bit tables for long-range coulomb (../kspace.cpp:340)
  G vector (1/distance) = 0.37289089
  grid = 24 24 24
  stencil order = 5
  estimated absolute RMS force accuracy = 0.0034282721
  estimated relative force accuracy = 1.0324139e-05
  using double precision FFTW3
  3d grid and FFT values/proc = 2197 216
Last active /omp style is kspace_style pppm/tip4p/omp
WARNING: Not all mixed pair coeffs generated from mixing. Use write_data with 'pair ij' option to store all pair coeffs. (../write_data.cpp:312)

write_restart   restart.lmp.${pid}
write_restart   restart.lmp.1
System init for write_restart ...
PPPM initialization ...
  extracting TIP4P info from pair style
  using 12-bit tables for long-range coulomb (../kspace.cpp:340)
  G vector (1/distance) = 0.37289089
  grid = 24 24 24
  stencil order = 5
  estimated absolute RMS force accuracy = 0.0034282721
  estimated relative force accuracy = 1.0324139e-05
  using double precision FFTW3
  3d grid and FFT values/proc = 2197 216
Last active /omp style is kspace_style pppm/tip4p/omp
Total wall time: 0:05:56
