LAMMPS (30 Jul 2021)
  using 1 OpenMP thread(s) per MPI task
package omp 0
using multi-threaded neighbor list subroutines
echo both

include		in.partitions
variable        pid world 0
include		in.temp
variable        temperature equal 263.84
variable	tempDamp equal 100.0
include		in.pressure
variable        pressure equal 5375.0
variable        pressureDamp equal 1000.0 # This is 1 ps
include		in.seed
variable        seed world 745823

units		real
atom_style	full

read_restart	restart.lmp.${pid}
read_restart	restart.lmp.0
Reading restart file ...
  restart file = 30 Jul 2021, LAMMPS = 30 Jul 2021
  restoring atom style full from restart
  orthogonal box = (-0.0015315006 -0.029962513 0.011946837) to (20.001533 20.029964 20.688051)
  4 by 4 by 4 MPI processor grid
  restoring pair style lj/cut/tip4p/long/omp from restart
  restoring bond style harmonic/omp from restart
  restoring angle style harmonic/omp from restart
  972 atoms
  648 bonds
  324 angles
Finding 1-2 1-3 1-4 neighbors ...
  special bond factors lj:    0        0        0       
  special bond factors coul:  0        0        0       
     2 = max # of 1-2 neighbors
     1 = max # of 1-3 neighbors
     1 = max # of 1-4 neighbors
     2 = max # of special neighbors
  special bonds CPU = 1.918 seconds
  read_restart CPU = 2.373 seconds
include 	in.setup
variable	out_freq equal 1000
variable	out_freq2 equal 10000
variable	out_freq3 equal 1000

timestep	2.0

neigh_modify    delay 7 every 1

include		in.tip4p
# This is TIP4P/Ice

# create groups ###
group ox type 2
324 atoms in group ox
group hy type 1
648 atoms in group hy

# set charges - beside manually ###
set group ox charge -1.1794
Setting atom values ...
  324 settings made for charge
set group hy charge 0.5897
Setting atom values ...
  648 settings made for charge

# ### TIP3P Potential Parameters ###
pair_style lj/cut/tip4p/long/omp 2 1 1 1 0.1577 8.5
pair_coeff 1 1*2 0.000 0.000
pair_coeff 2 2 0.21084 3.1668
bond_style  harmonic
bond_coeff  1 450 0.9572
angle_style harmonic
angle_coeff 1 55 104.52
kspace_style pppm/tip4p/omp 1.0e-5
pair_modify tail yes

thermo          ${out_freq}
thermo          1000
thermo_style    custom step temp pe etotal epair emol press lx ly lz vol pxx pyy pzz pxy pxz pyz enthalpy

restart 	${out_freq3} restart.lmp.${pid} restart2.lmp.${pid}
restart 	1000 restart.lmp.${pid} restart2.lmp.${pid}
restart 	1000 restart.lmp.0 restart2.lmp.${pid}
restart 	1000 restart.lmp.0 restart2.lmp.0


include         in.dump
dump            myDump all atom ${out_freq2} dump.water.${pid}
dump            myDump all atom 10000 dump.water.${pid}
dump            myDump all atom 10000 dump.water.0
dump            myDump2 all dcd ${out_freq2} dump.dcd
dump            myDump2 all dcd 10000 dump.dcd
dump_modify     myDump append yes
dump_modify     myDump2 append yes


variable natoms 	equal  "count(all)"                        # NUMBER ATOMS
variable H      	equal  "enthalpy/v_natoms"                 # ENTHALPY-per-atom
variable Vol      	equal  "vol/v_natoms"                 # volume-per-atom
fix AVG all 		ave/time ${out_freq} 1 ${out_freq} v_Vol v_H file vol_enthalpy.dat
fix AVG all 		ave/time 1000 1 ${out_freq} v_Vol v_H file vol_enthalpy.dat
fix AVG all 		ave/time 1000 1 1000 v_Vol v_H file vol_enthalpy.dat


timer           timeout 02:55:00 every 1000
New timer settings: style=normal  mode=nosync  timeout=02:55:00

fix 		1 all shake 1e-6 200 0 b 1 a 1
       0 = # of size 2 clusters
       0 = # of size 3 clusters
       0 = # of size 4 clusters
     324 = # of frozen angles
  find clusters CPU = 0.189 seconds
fix             2 all nph aniso ${pressure} ${pressure} ${pressureDamp}
fix             2 all nph aniso 5375 ${pressure} ${pressureDamp}
fix             2 all nph aniso 5375 5375 ${pressureDamp}
fix             2 all nph aniso 5375 5375 1000
fix             3 all temp/csvr ${temperature} ${temperature} ${tempDamp} ${seed}
fix             3 all temp/csvr 263.84 ${temperature} ${tempDamp} ${seed}
fix             3 all temp/csvr 263.84 263.84 ${tempDamp} ${seed}
fix             3 all temp/csvr 263.84 263.84 100 ${seed}
fix             3 all temp/csvr 263.84 263.84 100 745823


run             250000
PPPM initialization ...
  extracting TIP4P info from pair style
  using 12-bit tables for long-range coulomb (../kspace.cpp:340)
  G vector (1/distance) = 0.37129313
  grid = 24 24 24
  stencil order = 5
  estimated absolute RMS force accuracy = 0.00362269
  estimated relative force accuracy = 1.0909623e-05
  using double precision FFTW3
  3d grid and FFT values/proc = 2197 216
Last active /omp style is kspace_style pppm/tip4p/omp
Neighbor list info ...
  update every 1 steps, delay 7 steps, check yes
  max neighbors/atom: 2000, page size: 100000
  master list distance cutoff = 10.8154
  ghost atom cutoff = 10.8154
  binsize = 5.4077, bins = 4 4 4
  1 neighbor lists, perpetual/occasional/extra = 1 0 0
  (1) pair lj/cut/tip4p/long/omp, perpetual
      attributes: half, newton on, omp
      pair build: half/bin/newton/omp
      stencil: half/bin/3d
      bin: standard
Per MPI rank memory allocation (min/avg/max) = 9.221 | 9.224 | 9.226 Mbytes
Step Temp PotEng TotEng E_pair E_mol Press Lx Ly Lz Volume Pxx Pyy Pzz Pxy Pxz Pyz Enthalpy 
 5500000    274.44009   -4659.8649   -4130.5841   -4659.8649            0    4459.9968    20.003064    20.059926    20.676104    8296.4933    3699.2056    5539.3843    4141.4006   -766.16123    -810.1194   -1196.0494   -3590.9431 
 5501000    269.43377   -4695.0891   -4175.4634   -4695.0891            0    5687.4892    19.944267    20.029823    20.633668    8242.7407    4952.7329     6277.394    5832.3408   -613.97532   -717.99188    349.81828   -3491.7594 
 5502000    261.22653   -4672.2962   -4168.4988   -4672.2962            0    6613.6614    19.899207    19.785223    20.877404    8219.6478    5027.1133    9426.6262    5387.2449    373.97479    63.999398    1489.3898   -3375.6853 
 5503000    264.59157   -4691.2791    -4180.992   -4691.2791            0    4305.7336    19.985303     19.91012    20.969821    8344.0965    3993.3368    5055.6508    3868.2131   -510.29678    916.40577    915.33768   -3657.0269 
 5504000    253.00332   -4711.5952   -4223.6571   -4711.5952            0    5499.6327      20.0891    19.966044    20.581877    8255.3878     6140.193    4780.3333    5578.3717    748.75621   -507.16778   -360.63218   -3561.5213 
 5505000      251.136    -4649.883   -4165.5461    -4649.883            0    5191.9856     20.32273    20.018145    20.352002    8279.6698    6564.8877    4078.3057    4932.7634   -46.102777    391.46075   -493.40029   -3538.6113 
 5506000    272.94999   -4688.5816   -4162.1746   -4688.5816            0     4323.919    20.006438    20.173697    20.819591    8402.8661    5725.8841    3124.1244    4121.7485   -492.65067    748.34566   -1022.6207   -3632.2905 
 5507000    265.59086   -4686.6993    -4174.485   -4686.6993            0     3026.014    19.793302    20.154683    20.784623    8291.5628    3481.3876    2755.2705    2841.3839     97.03109    985.48946    301.98073   -3808.5675 
 5508000    266.76783    -4690.998   -4176.5138    -4690.998            0     5522.009    20.002907    19.924582    20.947414    8348.5827    6409.3667    5426.4726    4730.1876    277.60059    64.598264    1471.1804   -3504.1788 
 5509000     278.4771   -4685.0771   -4148.0106   -4685.0771            0    6662.3363    19.723684    20.138635    20.774598    8251.8383    8329.7286    5360.9598    6296.3204   -126.62357    -820.2893    1267.9587   -3346.2344 
 5510000    264.80469   -4664.2406   -4153.5425   -4664.2406            0    4292.1838    20.308591    20.047374    20.541645    8363.2003    3132.7234     4217.016    5526.8121      236.253   -100.33012     837.8597   -3630.0304 
 5511000    259.27921   -4676.6772   -4176.6355   -4676.6772            0    5085.2289    19.830989    20.002404    20.747821    8229.9853    4774.5696     6026.408     4454.709    61.412748   -265.47185    542.44384   -3566.2763 
 5512000    266.88645   -4653.6378   -4138.9248   -4653.6378            0    4577.2617    19.965224    20.054777    20.876152    8358.7718    4683.1871    3733.5261     5315.072   -473.88739     -12.5142   -238.22864   -3580.9378 
 5513000    290.11101   -4696.8756   -4137.3721   -4696.8756            0     4111.936     19.90059     20.12132    20.739156    8304.5002    4418.1178     3171.299    4746.3914    9.2021393    1313.6493   -66.125245   -3639.3648 
 5514000    259.63431    -4696.155   -4195.4284    -4696.155            0    5059.1874    20.137617    20.154106    20.502759    8321.1607    2944.0547    6591.5212    5641.9863    129.34299    1098.0186   -658.09488   -3581.4677 
 5515000    259.85058   -4675.1478   -4174.0041   -4675.1478            0    6072.4534    19.762284    20.238848     20.59889    8238.8527    7455.6326    3981.4927    6780.2349    618.32273    690.91674    1095.2414   -3444.3671 
 5516000    265.84443   -4689.2453   -4176.5419   -4689.2453            0    4418.3973    20.058523    19.952147    20.769699    8312.2535    1442.3468    7603.7692    4209.0759    123.07933   -436.13678    1378.8097   -3640.9186 
 5517000     264.5573   -4685.8653   -4175.6443   -4685.8653            0    4430.4778    19.912919    20.093198    20.724254     8292.069    4393.5942    4327.3731     4570.466   -824.60491     1092.194   -215.05267   -3639.8608 
 5518000    248.64978   -4677.9081   -4198.3661   -4677.9081            0    5463.4417     19.87133    20.231248    20.734557    8335.7438    7332.9569    4060.0632    4997.3048     116.6896   -591.78659    529.40826   -3534.1849 
 5519000    263.81705   -4689.8808   -4181.0874   -4689.8808            0    5316.1342    20.023692    19.944963    20.674395    8256.7704    5490.6444    5597.2743    4860.4838   -286.02224    881.70549   -499.15601    -3540.937 
 5520000    257.72108    -4691.026   -4193.9892    -4691.026            0     4233.588    19.829692    20.079527    20.932488     8334.706    4116.5226    3936.2133     4648.028   -163.85679    561.71029     558.6682   -3679.3833 
 5521000    265.34246   -4717.3575   -4205.6223   -4717.3575            0    4901.3998     20.18067    19.823678    20.771528    8309.7558    4649.5872    4498.1079    5556.5044     -101.134   -12.684771   -305.73029   -3611.6252 
 5522000    268.48199   -4694.4272   -4176.6371   -4694.4272            0    3700.3335    20.275432    20.091409     20.51475    8356.9296    1073.0573    5321.2481     4706.695    215.08596    444.84186   -735.74341   -3725.6507 
 5523000    266.92852   -4717.2572   -4202.4631   -4717.2572            0    4413.2871    20.011011    20.064757    20.640368    8287.4393    4834.1572    5130.3428    3275.3612    463.84695    1169.1933    337.92395   -3669.0564 
 5524000    278.29768    -4661.321   -4124.6005    -4661.321            0    3957.0839    19.912845    19.851381    20.983815    8294.8491    3296.0217    5163.8869     3411.343   -736.76294    48.196172   -1457.4213   -3645.9047 
 5525000    274.56987    -4671.789   -4142.2579    -4671.789            0    7442.1701    19.770272    20.016211    20.755361    8213.4351    9294.9569    6439.3963    6592.1572   -148.28302    269.91079   -452.12927   -3250.8011 
 5526000    277.72985   -4672.3523    -4136.727   -4672.3523            0    6679.8528    20.038377    19.861903    20.657371    8221.6399    5311.8564    7987.3867    6740.3154    540.75415    377.44508    -808.5329   -3335.7847 
 5527000    280.93328   -4686.4061   -4144.6027   -4686.4061            0    5828.5737    19.996285    20.132479    20.686146    8327.7206    5540.7245    5586.8695     6358.127    -300.5808   -3.4419503     1095.443    -3436.715 
 5528000    242.49829   -4645.5982   -4177.9199   -4645.5982            0    5577.2787    19.596976    20.051314    20.896172    8211.0489      8304.86    5519.7126    2907.2634   -275.36234     379.1164      3.94795   -3510.0423 
 5529000    273.49168   -4687.0673   -4159.6156   -4687.0673            0    6186.6126    19.950041    19.866909    20.839181    8259.5189    6210.5434    6676.1125     5673.182   -666.63252    1059.3246   -4.2551207   -3414.3972 
 5530000    268.72537   -4679.7973   -4161.5378   -4679.7973            0     4944.441    20.078334    20.165558    20.706882    8384.0263    4925.3655    4691.2201    5216.7375     612.6278    335.20862   -109.94712    -3556.969 
 5531000     263.3661   -4653.6904   -4145.7667   -4653.6904            0     5568.911    19.930779    20.078907    20.614893    8249.8383    5389.8787    5292.7076    6024.1468    94.536053    528.94356   -1167.3104   -3475.7408 
 5532000    259.53049   -4652.2181   -4151.6917   -4652.2181            0    7146.9983    20.104248     20.07412      20.4322    8245.9267    6036.3371    6575.3645    8829.2935    618.96237    117.89613    115.70581   -3292.2052 
 5533000    253.14862   -4660.8023   -4172.5839   -4660.8023            0     7376.026    19.855166    19.983316    20.784111    8246.5543    7466.5977     8167.744    6493.7365    578.59852   -592.23093    235.48244   -3285.4874 
 5534000    270.91769   -4713.0359   -4190.5483   -4713.0359            0    5459.9765    20.032436    19.756732    20.859059    8255.5039    5416.9099    5639.4616    5323.5579    492.89715   -288.13474   -268.29379   -3533.1778 
 5535000    255.90506   -4711.3185   -4217.7841   -4711.3185            0    6193.6315    19.950092    20.097352    20.530747      8231.68    7023.2337    4990.7794    6566.8816    254.92329    -134.4771   -967.79038   -3474.2349 
 5536000    254.97789   -4701.1239   -4209.3776   -4701.1239            0    6698.6248    20.160831    19.823623    20.657234     8255.885    7530.8421    6989.1865    5575.8459   -914.61295    204.96109    1099.3622    -3402.839 
 5537000    261.41933   -4687.3457   -4183.1765   -4687.3457            0     4722.634    19.610761    20.184697    21.118688    8359.5636    4413.2977     6505.393    3249.2114    -424.0607   -992.30999    288.43356   -3607.4135 
 5538000    277.23012   -4695.1615   -4160.4999   -4695.1615            0    6428.6927    19.973223     19.95572    20.871431    8318.9357    6326.2215    6696.3193    6263.5372   -645.26206   -236.38914    1219.0693   -3380.5507 
 5539000    258.74278   -4702.3586   -4203.3514   -4702.3586            0    4732.4775    20.191345    19.988118    20.617507    8320.9572     5758.178    3938.3215    4500.9331   -619.09364   -942.14261    393.27932   -3629.0529 
 5540000    266.09358   -4696.3299   -4183.1461   -4696.3299            0     4305.189    19.790418    20.119874     20.93242    8334.8861    5173.2712    4596.1844    3146.1113    4.0845654   -305.46502    75.857592   -3659.8255 
 5541000    271.06644   -4689.2233   -4166.4489   -4689.2233            0    5233.0261    19.917429    19.973315    20.821471    8283.1366    3982.1044    6172.3293    5544.6447   -924.55755    1244.6194   -1015.7521   -3534.2939 
 5542000    265.41311    -4697.753   -4185.8815    -4697.753            0    5560.7622    19.919078    20.151595     20.63213    8281.7612    6735.1041    5322.7891    4624.3935   -550.15075   -40.946073     2.384583   -3514.2471 
 5543000    271.34493   -4680.7635    -4157.452   -4680.7635            0    4247.7212    20.030114    19.940145    20.739341    8283.3627    5206.8256    4112.4261     3423.912    52.565487    527.54122   -141.78879   -3644.3088 
 5544000    255.14924    -4693.408   -4201.3312    -4693.408            0    6706.8538    19.774697    20.023712     20.69589    8194.8031    7297.8411    6142.4437    6680.2766   -123.31171    481.48473   -280.58355   -3399.7763 
 5545000    262.21063   -4722.2525   -4216.5573   -4722.2525            0    4600.0147    20.035333    19.830609    20.859178    8287.6192    4275.8659    4886.5586    4637.6196    324.61893    901.03658    117.20544   -3660.5699 
 5546000    260.11145   -4695.3271   -4193.6803   -4695.3271            0    4277.3479    19.811958    20.249319     20.66487    8290.3049    5908.6807    2762.8326    4160.5304   -137.84372    135.84026    454.15075    -3676.525 
 5547000     266.7068   -4700.6424   -4186.2759   -4700.6424            0    3966.6003    20.022252    20.085083    20.687771     8319.558     3641.564    3694.1406    4564.0961    37.483899    1130.1289    124.06969   -3704.9995 
 5548000    250.85822   -4693.2837   -4209.4826   -4693.2837            0    4772.9669    19.969682    20.017597    20.860786    8338.9957    4334.2577     5353.314    4631.3288   -298.58201    1853.4695   -983.27446   -3629.0149 
 5549000    271.19527   -4688.5484   -4165.5255   -4688.5484            0    3619.3092    19.935682    19.993523     20.83326     8303.815    3494.7882    3084.1786    4278.9609    1052.0987   -61.476022    401.82131   -3727.2176 
 5550000    259.89793     -4707.56    -4206.325     -4707.56            0    3975.0812    20.061071    20.012381    20.665661    8296.6389    2688.6494    5782.0984    3454.4959   -852.41247   -156.94615    705.06371   -3725.3482 
 5551000    293.94133   -4680.7711   -4113.8805   -4680.7711            0    4947.4731    20.021784    19.997703    20.669377    8275.8052    4857.0199    4535.0318    5450.3675   -75.556956   -426.07816    426.78925   -3516.7496 
 5552000    251.49492   -4694.4976   -4209.4685   -4694.4976            0    6193.2954    19.912394    20.136046    20.626097    8270.1757    6658.8891    4686.5421    7234.4551    340.28758    177.75343   -2104.4469   -3462.4826 
 5553000     250.0584   -4692.2923   -4210.0337   -4692.2923            0     6155.501    20.052662    20.025127    20.645803    8290.4689    6821.6824    5232.8885     6411.932   -513.67477    2545.2532    49.896818   -3465.7845 
 5554000      276.075   -4680.0541   -4147.6203   -4680.0541            0    6806.4613    19.857104    20.173775    20.645537    8270.4523    6641.0122    5950.8211    7827.5504   -672.97794    220.31782    516.85661   -3326.6517 
 5555000    267.37777   -4681.5971   -4165.9366   -4681.5971            0    7031.5584    19.951572    19.770373    20.868379    8231.5327     7047.249    7433.8267    6613.5994    408.00256    410.57566    1.8394602   -3321.8089 
 5556000    281.82506   -4673.3328   -4129.8095   -4673.3328            0    6224.7071    19.844404    20.160289    20.770074    8309.4609    8282.1913    3377.1648    7014.7651   -226.35685    80.504685    348.18575   -3375.4686 
 5557000    259.37469   -4724.6704   -4224.4445   -4724.6704            0     4438.219    20.058846    20.018371    20.631568    8284.5119    5267.4886    3623.7021    4423.4662   -189.63561   -1868.2975   -250.00346    -3688.214 
 5558000    264.27711     -4677.81   -4168.1294     -4677.81            0    6130.1671    19.842782    20.008773    20.704198    8220.1818      7914.19    4412.8468    6063.4645    846.37047    591.99943   -662.15272    -3433.227 
 5559000    265.05072   -4698.5926     -4187.42   -4698.5926            0    5108.3235    19.970083    20.031372    20.871251    8349.0882     2729.271    7795.9143    4799.7852    600.79947   -17.033053    400.11754   -3565.4157 
 5560000    264.19982   -4694.7915   -4185.2599   -4694.7915            0    4942.4466      19.9298    19.984796    20.845319    8302.5443    5002.2854    5977.5543    3847.5001   -337.65914    864.58169   -900.18848   -3586.8083 
 5561000    277.55407   -4700.9559   -4165.6696   -4700.9559            0    5658.0471    19.884558    20.002551    20.883044    8306.0616    4501.8934    6597.0525    5875.1954   -90.910371   -11.558973    1548.5155   -3480.2798 
 5562000    274.75324   -4668.7554   -4138.8706   -4668.7554            0    5839.1166    20.041807    20.235491     20.59932    8354.1743    5040.8756    6572.4716    5904.0026    581.41707   -505.17514   -709.53348   -3427.4498 
 5563000    269.36906    -4678.155   -4158.6542    -4678.155            0    6090.2811    20.063458    19.923314    20.745043    8292.4276     6662.386    5746.0796    5862.3776   -602.61628   -495.30379    742.36388   -3422.1166 
 5564000    275.22074   -4702.0207   -4171.2344   -4702.0207            0    6275.7656    20.058406    20.097628    20.486668     8258.716    7164.4005     4510.579    7152.3172   -328.81944    271.76004     395.9411   -3415.3504 
 5565000    253.70171   -4672.3811    -4183.096   -4672.3811            0    6166.7632    20.075745    20.037614    20.475115    8236.5251    6767.2374      4609.44    7123.6121   -305.30659    1370.8575   -1265.4566   -3442.3366 
 5566000    274.39603    -4659.517   -4130.3212    -4659.517            0     5475.372     19.95989    19.790723    20.959933    8279.6061    5460.6091    7237.0387     3728.468    478.69351    180.75926   -662.20518   -3469.1724 
 5567000    272.21374   -4720.6633   -4195.6762   -4720.6633            0    3854.8043    19.943154    20.065441    20.762391    8308.4479    4385.3245    3004.8011    4174.2874    465.52723    1026.4188   -136.52935   -3728.5888 
 5568000    268.90385    -4688.781   -4170.1773    -4688.781            0    5060.3333    19.991961    19.990421    20.576344     8223.289    3828.6492    5872.8535    5479.4972   -596.70553    1034.3387    29.151739   -3563.3005 
 5569000    250.85168   -4695.5808   -4211.7922   -4695.5808            0    5918.8522    19.963861    20.157196    20.569969    8277.6737    7641.8757    3514.6341    6600.0469     28.95369    1863.6481   -939.26566   -3497.2602 
 5570000    271.37504   -4687.4406    -4164.071   -4687.4406            0    4808.3149    20.005849    19.833606    20.884359    8286.6656    6650.9571    3116.9935     4656.994    169.92794    176.06212   -2381.8883    -3582.974 
 5571000    262.90433     -4667.14   -4160.1069     -4667.14            0    7408.4639    19.878576    19.937132    20.785026    8237.5587    6904.5104    9610.8348    5710.0463    248.24474   -26.126846   -5.5551032   -3270.0811 
 5572000    274.47224   -4646.5322   -4117.1894   -4646.5322            0    3353.7625    20.151344    20.088399    20.755923    8402.1685    3685.9543    2995.2878    3380.0456    107.54586   -406.33951   -1226.9413   -3706.2294 
 5573000    248.67934   -4694.3168   -4214.7178   -4694.3168            0    5346.4758    19.937551    20.050628    20.701982    8275.8328    5347.8674    4691.0447    6000.5152    301.39536    39.887115    472.23629   -3569.4274 
 5574000    254.88021   -4708.2536   -4216.6956   -4708.2536            0    3783.9435    20.072905    20.218142    20.587592    8355.2036    3138.7127     3723.667    4489.4509    157.03749   -166.66027    581.66692   -3755.6143 
 5575000    259.99662   -4685.2567   -4183.8313   -4685.2567            0    4814.4029    19.887343     19.94994    20.867631    8279.2597    5654.4399    4464.1336    4324.6351    326.12466   -12.431653    753.89447   -3602.5186 
 5576000    265.03228   -4687.7856   -4176.6486   -4687.7856            0    6394.2444    19.777632    19.907815    20.923997    8238.3935    6853.1671    6047.5926    6281.9735   -185.89959    107.36921   -191.78602   -3408.3896 
 5577000    246.22063   -4701.0257   -4226.1685   -4701.0257            0    4114.7771     20.31194    19.872018    20.708252    8358.6631    3815.9417    4102.9535    4425.4362   -342.99148    184.15845    300.78679   -3724.5668 
 5578000    268.58977    -4660.657    -4142.659    -4660.657            0    4554.0541     19.92581    20.244546    20.748223    8369.6041    5416.1287    3127.6723    5118.3613     -700.748    1315.9905   -650.33971   -3586.7816 
 5579000    257.46728   -4695.3532   -4198.8059   -4695.3532            0    5389.8065    19.978184    19.893091    20.741648    8243.3081    4677.4694    5813.3825    5678.5676    895.35373    2235.1049    120.88725   -3550.8423 
 5580000     270.4848   -4675.7447   -4154.0921   -4675.7447            0    3935.3318    19.880148    19.945765    21.008201    8330.2719    6566.7579    2725.2049    2514.0327    415.31077    661.52054    1334.7229   -3675.9946 
 5581000    260.84019   -4677.4381   -4174.3858   -4677.4381            0    4942.0054    20.081563    19.919623    20.783177    8313.6273    4067.3215    6643.2669    4115.4279    142.38282   -1085.7407    205.09723   -3575.1888 
 5582000    256.07125   -4703.8935   -4210.0386   -4703.8935            0    5526.3971    19.999235    20.177409    20.519075     8280.119    4169.4067    6158.6354    6251.1492    -719.4045    9.8988882    1586.4842   -3542.6872 
 5583000    268.75865   -4694.2814   -4175.9577   -4694.2814            0    3183.6039    19.997789    20.153492    20.665242    8328.6148    1582.2544    3794.1108    4174.4466    607.34894   -168.11365    1683.6185   -3789.2635 
 5584000    274.92843   -4659.9546    -4129.732   -4659.9546            0    5849.4059    20.050625    19.924541    20.659532    8253.4729    5440.2003    5856.2215    6251.7958    890.05119   -1946.3583   -963.58821   -3425.6482 
 5585000    258.85395   -4702.6114   -4203.3898   -4702.6114            0    6410.5209    19.927487    20.082126    20.712283    8288.7719    6904.5449    6755.5295    5571.4882     495.5522    88.364818   -14.409826   -3428.4653 
 5586000    260.87909   -4693.5663   -4190.4391   -4693.5663            0    4452.4097    20.045156    19.846913    20.885089    8308.8081    3821.2465    6624.6005    2911.3822    80.602299   -604.47451    305.69964   -3650.9163 
 5587000     257.3608   -4684.6539    -4188.312   -4684.6539            0    7111.6725    19.815484    20.081349    20.651431     8217.651    6776.8771    7557.5129    7000.6276    13.740764   -320.49549    1759.2383   -3336.0064 
 5588000    261.65548   -4685.8084   -4181.1838   -4685.8084            0    4785.5853    20.138955    20.125911    20.755865    8412.6597    2763.2855    6947.9296    4645.5409   -917.39833   -122.41289    1434.1923   -3594.0403 
 5589000    253.86646   -4721.3741   -4231.7712   -4721.3741            0    5358.5595    20.099096    19.860567    20.715279     8269.113    5052.6519    5482.8283    5540.1984   -114.31895   -426.30848   -121.74968   -3585.5475 
 5590000    267.84743   -4707.8635   -4191.2972   -4707.8635            0    5301.8392    19.809927    20.349244    20.592574     8301.217    5733.7341    3839.9131    6331.8704    328.54468    219.30687   -124.24719   -3549.4314 
 5591000    259.14281   -4691.6685   -4191.8898   -4691.6685            0    5140.0238    19.850538    20.186105    20.599237    8254.2182    3786.2616    6169.4623    5464.3475    38.877487    693.03674   -479.56793   -3573.1373 
 5592000    267.79388   -4706.5999   -4190.1369   -4706.5999            0    6081.8939    19.932896     19.93609    21.025428    8355.1687    6589.6264     6546.921    5109.1344   -195.43444    1448.8718    24.593378   -3449.0486 
 5593000    271.58786   -4686.5369   -4162.7569   -4686.5369            0    4330.8491    20.050931    20.142022    20.743994    8377.8005    4026.8325    4030.5449    4935.1701    26.708961   -953.79938    -57.25089   -3633.6067 
 5594000     266.5007   -4696.4906   -4182.5216   -4696.4906            0    3907.9283    20.055169    20.055518    20.647842    8304.9088    3261.4044    4523.5817    3938.7989    -106.2187    703.35684    989.24532   -3709.1989 
 5595000    258.53396   -4720.7193   -4222.1148   -4720.7193            0    4948.1681    20.014809    19.861274    20.803522    8269.8076     4663.333    6815.1495    3366.0219   -227.03745   -1245.2193   -952.00081   -3625.3328 
 5596000    275.26973   -4692.9517   -4162.0709   -4692.9517            0     7076.693    20.154061    19.810291    20.616141    8231.1552    5705.5204    8789.1783    6735.3803    738.18756    210.53937    -1155.772   -3312.5637 
 5597000    262.45692   -4675.9586   -4169.7883   -4675.9586            0    6923.4555    19.916788    19.997034    20.712562    8249.3308    8801.5971    5226.9004     6741.869   -182.95435     563.4925    292.03012    -3336.841 
 5598000     258.4972   -4679.5764   -4181.0428   -4679.5764            0    6110.0323    19.980929    19.876113    20.817094    8267.3676    6294.5447    6422.3745    5613.1777     38.28886     1791.955   -188.61835   -3444.3496 
 5599000    261.57567   -4682.8324   -4178.3618   -4682.8324            0    6768.4547    19.898298    20.081651    20.462581    8176.6565    6534.7395    6246.3456    7524.2789    30.829865   -406.56031   -438.25912   -3371.2361 
 5600000    269.46206   -4712.4042    -4192.724   -4712.4042            0    6040.0401    19.771418    20.053707    20.880071    8278.7436    5371.7609    8038.0609    4710.2986   -154.42331   -1583.8678    947.64624   -3463.4678 
 5601000      258.901   -4721.7437   -4222.4313   -4721.7437            0    4490.4456    19.998228    19.929495    20.820299    8298.0259    4215.4749    4728.7161    4527.1459    125.45887    168.16995   -486.48566   -3679.0057 
 5602000    247.90403   -4654.4465   -4176.3428   -4654.4465            0    4322.3829    20.139466    20.135246    20.578289    8344.7657    3648.9246    3327.8689    5990.3551   -105.04533    1358.0151     846.7163   -3650.3094 
 5603000    269.34713   -4680.4265   -4160.9679   -4680.4265            0     5863.736    19.990343    20.008536    20.648065    8258.7614    4088.4137    7315.8842      6186.91   -430.99682   -1630.8818   -32.149017   -3454.7069 
 5604000    253.84807   -4651.8484    -4162.281   -4651.8484            0    5683.6818    20.020405    19.906397    20.806968    8292.2867    5715.9297    4480.0905    6855.0252    199.04641   -191.23272   -538.27054   -3474.9278 
 5605000    276.23025   -4668.5062   -4135.7729   -4668.5062            0    4314.0123    20.166784    19.994895     20.81343    8392.6563    4825.7089    4792.3191    3324.0089   -158.93472    296.87061    116.87754   -3607.7452 
 5606000    266.07004   -4716.9361   -4203.7976   -4716.9361            0    4706.9095     20.22218    20.032828     20.55812    8328.2476    5492.1124    3414.6226    5213.9934   -26.861623    433.74726      560.772   -3632.1014 
 5607000     261.9725   -4680.9958   -4175.7598   -4680.9958            0    4601.5779    20.113465    19.932355    20.759327    8322.5951    4180.5997    5521.4161     4102.718   -32.771682   -840.94134    1513.5711   -3617.2363 
 5608000    272.62976   -4681.3631   -4155.5737   -4681.3631            0    4912.4648    19.875475    19.930672    21.053543     8339.973    6851.9964    4318.4926    3566.9054   -704.30184    479.04102   -511.91758   -3558.0708 
 5609000    249.93928   -4663.0244   -4180.9955   -4663.0244            0    5984.5143    19.971953    19.972573    20.710152    8261.0994    8197.1247    5261.5709    4494.8472    837.64997   -434.98624   -55.703862   -3459.9833 
 5610000    260.04951   -4651.5796   -4150.0523   -4651.5796            0    5872.6251    20.200463    20.242392    20.372741    8330.5298    4362.9262    6043.2148    7211.7344    44.963955    373.89155   -550.45749   -3436.5739 
 5611000    274.32352   -4677.6154   -4148.5594   -4677.6154            0    7990.1304    19.934473    19.939844    20.672927    8217.2874    8029.2723    8533.4986    7407.6203   -72.319001   -205.26137    323.74839   -3191.0166 
 5612000    267.29814   -4674.1892   -4158.6823   -4674.1892            0    7119.9742    19.684065    19.937833    20.964196    8227.5579    8493.8311    7018.2645    5847.8269    599.35032   -1349.0691    162.05945   -3304.3531 
 5613000    246.96953   -4684.4962   -4208.1947   -4684.4962            0    5535.3655    20.059442    20.133265    20.624206    8329.3342    4766.9672    5497.7214     6341.408    557.25193   -285.03253    747.16893   -3535.7873 
 5614000    271.70852   -4696.2189   -4172.2061   -4696.2189            0    5177.2064    20.050894    20.091307    20.472221    8247.2072    4777.0608    4616.3876    6138.1709   -628.41183    1057.3754   -1165.7995    -3549.507 
 5615000    258.34992   -4677.3949   -4179.1453   -4677.3949            0    7083.6474    20.038572    19.862114    20.591793    8195.7067    7344.1476    7466.2543    6440.5404   -525.40679    1381.4209    362.80815   -3332.4655 
 5616000    247.85786   -4686.1497   -4208.1349   -4686.1497            0    5816.2454    19.910325    20.072992      20.7479    8292.1017    5009.6741    6052.1473    6386.9147    532.77736    9.1305628    890.55718   -3504.7659 
 5617000    261.77996   -4715.4628   -4210.5982   -4715.4628            0    4466.1562    20.039269    19.906893    20.849603    8317.3151    3878.8907    5031.6539    4487.9241   -263.18352    627.65644    -258.3916   -3668.8556 
 5618000    254.09228    -4686.947   -4196.9087    -4686.947            0    3637.6811    19.909749    20.158154    20.652398    8288.7117    3806.6954    4213.2764    2893.0716    44.444129   -274.38822   -353.01715   -3757.1772 
 5619000    269.26799   -4733.9751   -4214.6691   -4733.9751            0    3615.6056    20.180279    20.131222    20.585553    8362.9564    3574.9992    2692.0699    4579.7477      657.538     363.1553    38.267816   -3773.6913 
 5620000    264.13651   -4684.0217   -4174.6123   -4684.0217            0     7358.527     19.84379    19.920798    20.743973    8200.1782         7863    7885.1516    6327.4293     144.2192     897.9829    1317.2719   -3294.5973 
 5621000    252.33459   -4709.2674   -4222.6189   -4709.2674            0    4003.4326    20.030475     19.91411    20.886594    8331.4346     4641.117    3987.2657     3381.915    -12.37702    1004.1536   -822.04497   -3736.1801 
 5622000    267.86144   -4658.5008   -4141.9075   -4658.5008            0    6163.6425    19.894982    20.157183    20.644857    8279.1409    6810.7125     5151.417    6528.7981    92.984743   -67.510309    1044.4392   -3397.6922 
 5623000    266.66949   -4696.0861   -4181.7916   -4696.0861            0     4401.156    20.036929    20.161254    20.613749    8327.3277    2816.0489    5630.7669    4756.6523   -348.62058   -64.578942    496.75957   -3647.2908 
 5624000    259.07959   -4667.0646   -4167.4079   -4667.0646            0    3181.8471    19.962709    20.043804    20.872921    8351.8529    4241.9421    2396.2435    2907.3558    364.47642   -42.990354   -1799.6856   -3779.8487 
 5625000    258.91615   -4645.4915     -4146.15   -4645.4915            0    6754.2061    19.992071    19.782618     20.93454    8279.5165    5196.2456    8278.3059    6788.0668    498.50192    893.50499     426.7235   -3330.5914 
 5626000    257.30963   -4715.1808   -4218.9376   -4715.1808            0     4247.304    20.082166    20.097901    20.533886    8287.6692    5265.0751    2763.3497    4713.4873    749.98264   -61.905861    315.21136    -3705.578 
 5627000    245.38203   -4655.3892   -4182.1493   -4655.3892            0    4677.9208    20.093553    20.225085    20.446343    8309.2675    4182.2802    3725.4959    6125.9865    267.79243   -924.68138    894.46415   -3615.2689 
 5628000    259.44758   -4696.4188   -4196.0523   -4696.4188            0    6127.1501    19.896451    20.007788    20.837905     8295.236    5080.0221    7465.3835    5836.0448    35.307083   -440.67542    838.27732   -3454.8049 
 5629000    270.83845   -4660.1483   -4137.8135   -4660.1483            0    3701.5381    19.993854    20.048939    20.797382    8336.7458    4204.4102    2936.4285    3963.7757    393.91385   -177.36195    417.75685   -3687.7699 
 5630000    243.36249   -4706.5393   -4237.1943   -4706.5393            0    4890.1997     20.19384    19.956579    20.826254    8392.9796    4017.0437    5335.3538    5318.2017   -56.801941    718.16689    241.54728   -3638.6192 
 5631000    249.94023   -4704.4759   -4222.4451   -4704.4759            0    5769.3976    19.968325    19.903614    20.921272    8314.9888    6158.4574    7420.9766    3728.7589    133.21081    -1052.677    233.18349   -3522.8157 
 5632000    272.60401   -4677.4026   -4151.6628   -4677.4026            0    3616.5952    20.062442    20.133856    20.736799    8376.3045    4299.8593    2274.6043    4275.3219    122.53641    490.99905    205.90691   -3709.8602 
 5633000    279.30384   -4688.3184   -4149.6575   -4688.3184            0    5301.0542    20.190589    20.091463    20.664865    8382.8775    3758.6733    6899.0069    5245.4824    174.89346    634.80065   -665.98555   -3501.5736 
 5634000    250.13724   -4680.7644   -4198.3537   -4680.7644            0    5321.0178    19.838407    20.179482    20.761697    8311.5047    6638.2075    4482.3526    4842.4934    484.22643    524.20657   -584.08785   -3553.3678 
 5635000    268.14423   -4713.9455   -4196.8068   -4713.9455            0    3625.6081    19.740283    20.221497    20.796686    8301.5812     5024.611    1840.4359    4011.7774     181.8374   -1215.3807    1424.6418   -3757.8542 
 5636000    266.25924   -4684.7202   -4171.2168   -4684.7202            0    4117.0665    20.101537    19.938667    20.765158     8322.631    3306.1746    4501.5884    4543.4366   -36.255834   -1192.6401    732.16771   -3671.4995 
 5637000     256.4452   -4688.1483   -4193.5722   -4688.1483            0    4713.3118    20.020056    20.000856    20.527197    8219.4646    4707.3157    4633.2817     4799.338    96.230523     -1183.13    1241.9028   -3628.5759 
 5638000    255.57197   -4685.4648   -4192.5727   -4685.4648            0    5084.7247    20.061395    19.950588    20.748907    8304.4725    4137.2473    4951.6545    6165.2723    2.2872519   -240.59062    33.238992   -3576.7505 
 5639000    253.42827   -4716.4891   -4227.7314   -4716.4891            0    4243.7933    20.052639    20.104028    20.821845     8394.094    2156.4226    6433.0913    4141.8661    6.2107724    -861.9428   -530.04676   -3708.2094 
 5640000    263.01598   -4675.1314    -4167.883   -4675.1314            0    5306.9755    20.103028    20.112265    20.575142    8318.8881    4973.2363    4770.0514    6177.6387    216.50108    625.53137    1279.5654   -3524.0277 
 5641000    264.74077   -4691.6897   -4181.1149   -4691.6897            0     6663.326    19.990399    20.003038    20.478548    8188.7308    4752.3938    8072.6794    7164.9047    598.77754    620.13435    257.57289   -3385.3523 
 5642000    260.38501    -4669.158   -4166.9836    -4669.158            0     5850.515     20.26791    19.750067    20.620722    8254.3223    3980.1565    6961.7914    6609.5972    -340.8685   -34.799277   -2478.3295   -3462.6938 
 5643000     266.7493   -4705.8601   -4191.4116   -4705.8601            0    4927.9214     19.85292    20.143752    20.790206     8314.259    4620.6533    5248.4681    4914.6429   -427.62762    848.91464     1101.344   -3593.8768 
 5644000    260.23999   -4683.3892   -4181.4945   -4683.3892            0    4646.0806    20.127295    20.134341     20.53625    8322.3116    6112.2532    2061.0557    5764.9329    1497.1054    1795.4917     1997.206   -3617.5886 
 5645000    263.36108   -4692.0712   -4184.1572   -4692.0712            0     6240.921    19.911254    19.972699    20.808201    8275.0365    6926.3187    5406.2125    6390.2317    255.06046    -576.1495   -33.698821   -3430.9846 
 5646000    260.96563   -4701.2803   -4197.9861   -4701.2803            0    4920.1047    19.919758    19.826445    20.995451    8291.9009    4702.1513    6797.7942    3260.3685   -146.04428    596.34045    365.89191   -3603.0034 
 5647000    256.45639   -4690.8603   -4196.2626   -4690.8603            0    5784.6537     19.84716    20.000985    20.742283    8233.9137    7126.2852    4337.5613    5890.1147   -152.81308     614.9332   -564.59438    -3501.623 
 5648000    255.84687   -4682.8767   -4189.4545   -4682.8767            0    6204.8986    19.724089    20.164614    20.635644    8207.3866    6149.0317    5747.4231    6718.2412     -951.699   -299.65491    238.00601    -3446.751 
 5649000    265.05649   -4672.5885   -4161.4047   -4672.5885            0    4099.9088    19.995192    19.719796    21.308299    8401.8862    4727.9825    5603.0298    1968.7142     180.4773   -1205.6142    317.59355    -3659.031 
 5650000    250.44578   -4667.5893   -4184.5835   -4667.5893            0    5466.4258    20.060067    19.820317    20.733881    8243.7264    5657.0132    6872.2481    3870.0162     37.04857   -247.98475    1245.3071   -3527.3754 
 5651000    278.03172    -4673.948   -4137.7404    -4673.948            0    5965.0672    20.079371     20.13703    20.416167    8255.0504    4148.7154    6620.3413     7126.145   -289.43788    320.89701    1009.7429   -3419.5974 
 5652000    267.36178   -4671.0375   -4155.4079   -4671.0375            0    6258.2683    19.979756    19.871491    20.776868    8248.9889    7229.1677    6714.4039    4831.2334   -501.52834   -554.19003   -102.63256   -3402.5192 
 5653000    255.74383   -4684.2206   -4190.9971   -4684.2206            0    4998.1466    20.020936    20.060313    20.698041    8312.8765    6675.4497    3067.4392    5251.5511    727.70367   -1905.6497   -36.188379   -3585.0479 
 5654000    267.23285   -4704.1069   -4188.7259   -4704.1069            0    5441.8064    20.158986    20.124752    20.384943    8270.0611    6704.7578    2535.5141    7085.1473    142.83494    1681.4522     372.4099   -3532.3877 
 5655000     264.9575   -4688.1338    -4177.141   -4688.1338            0    6938.6247    19.774076    20.027366    20.666699    8184.4811    7497.1102    6790.2519    6528.5121    471.26497    380.54368   -618.41511    -3348.931 
 5656000    268.65525   -4718.1727   -4200.0484   -4718.1727            0    4322.7698    20.200219    19.893207    20.829535    8370.2886    3776.1772    4707.1642     4484.968   -110.77786   -749.53932   -905.38911   -3672.3589 
 5657000    272.14636   -4699.3578   -4174.5007   -4699.3578            0    5263.0506    19.906847     20.03641    20.822677    8305.3694    5602.9814    5859.9456    4326.2246    215.52087     654.2458    11.973546   -3537.0121 
 5658000    250.99339   -4704.5511   -4220.4893   -4704.5511            0    4577.7838     20.06808    20.069197    20.605911    8299.0357    1083.9542    6875.7783    5773.6187   -79.294954   -299.80255   -268.79365   -3666.4267 
 5659000     249.5052   -4689.8983   -4208.7066   -4689.8983            0    5508.2622    19.979796    20.106977    20.635156    8289.8294    5865.3074    5173.8872    5485.5921    450.71423    1074.6418    346.61253   -3542.7651 
 5660000    270.56164   -4695.5418   -4173.7409   -4695.5418            0    5145.8814    19.815893    20.110719    20.809367    8292.7796    6602.8079    3822.5601    5012.2761    54.416675   -1144.9501   -929.05472   -3551.3894 
 5661000    254.63377   -4689.3681   -4198.2855   -4689.3681            0    5026.6777    20.069461    20.022371    20.684617     8311.869    5636.8375     5220.635    4222.5604     107.5817    1278.9623    333.50342   -3588.9512 
 5662000    264.73048   -4685.9696   -4175.4146   -4685.9696            0    4378.0541    20.020196    20.154997    20.672519    8341.5062     2345.388    4517.8061    6270.9681   -989.22686     753.2529    811.66368   -3642.8142 
 5663000     262.5024   -4672.2098   -4165.9518   -4672.2098            0    7443.8144    19.879929    20.051836    20.594389    8209.5223    10211.454    4188.0668    7931.9228    545.79831   -781.40708    2341.4162   -3274.7228 
 5664000    260.10618   -4700.2442   -4198.6075   -4700.2442            0    4976.6105    20.004309    20.058903    20.723695    8315.6828    4840.8508    4234.7401    5854.2405     -304.059    1310.4041    -1092.922   -3595.0656 
 5665000    265.31711   -4702.5526   -4190.8662   -4702.5526            0    4805.1945    20.092458    20.032294    20.698213    8330.9895    6311.9974    4334.3634    3769.2226   -313.90197    98.832274   -1028.1323   -3607.0402 
 5666000    263.62147   -4658.2122    -4149.796   -4658.2122            0    4428.7195    20.084565    20.247283    20.415095    8301.9591    4240.2518    3589.0465    5456.8602    244.35444   -496.32541   -714.29459   -3613.5863 
 5667000    259.73316   -4688.2438   -4187.3266   -4688.2438            0    4003.4236     20.05705    19.966306    20.876582    8360.3446    5674.9712    3934.7531    2400.5465    476.06384    1498.6999    305.71215   -3699.2009 
 5668000     280.9766   -4680.6824   -4138.7954   -4680.6824            0    6195.8291    19.904133    19.785672    20.957277    8253.3248    6716.7685    6845.3966    5025.3223   -1101.6301   -148.71301   -1115.3724   -3393.0265 
 5669000    270.26543   -4667.2656   -4146.0359   -4667.2656            0    5401.3249    19.979924    20.072514    20.761507     8326.346    6347.8096    5053.1687    4802.9964    181.44529   -166.30917   -946.09575   -3490.1465 
 5670000    265.96375      -4673.6   -4160.6666      -4673.6            0    5283.7813    19.832635    20.219572    20.616992    8267.5658    5685.2499    5288.2516    4877.8426   -679.42377    345.18362    495.04687   -3523.5801 
 5671000     273.4374   -4690.9483   -4163.6013   -4690.9483            0     4756.389    19.965045    20.088284    20.766641    8328.7412    4114.7786    6040.7125     4113.676    69.700071   -1332.6787    82.541215   -3585.8611 
 5672000     253.9338   -4687.8598   -4198.1271   -4687.8598            0    5739.5534    19.861439    19.996675    20.876147    8291.2277    7092.1557    4768.7289    5357.7755   -806.02905   -928.73343    1020.0644   -3504.1058 
 5673000    256.38578     -4707.06   -4212.5985     -4707.06            0    4394.2432      20.0983    20.034918    20.699709    8335.1061    4760.1456    3223.6959    5198.8881   -199.70334   -318.93251    197.58862   -3678.4388 
 5674000    268.34664   -4700.5869   -4183.0578   -4700.5869            0    6472.8993    20.041482    19.921298    20.691715    8261.2157    7282.1638    5876.4004    6260.1337    497.38571    1390.1814   -827.39877   -3403.1941 
 5675000    261.18455   -4691.0559   -4187.3395   -4691.0559            0    5058.6749    19.930612    20.184555    20.690278    8323.5028    5103.5492    4858.5348    5213.9407   -335.97682   -1480.6056    119.12341   -3573.2682 
 5676000     257.4379   -4702.6525   -4206.1619   -4702.6525            0    6299.8466    19.906792    19.641459    21.083977     8243.802    5344.3511    8704.5568     4850.632    -743.1438    285.23462   -62.176608   -3448.7477 
 5677000    251.59093   -4658.4539   -4173.2396   -4658.4539            0    5522.6902    19.918554    19.986546    20.807734    8283.6233     6569.921    4462.7661    5535.3833     208.2461   -931.05941    1264.7119   -3506.0537 
 5678000    260.25466   -4677.2851   -4175.3621   -4677.2851            0    6110.2008    19.956526    20.170309    20.531205    8264.4114    5220.6458    6489.4954     6620.461    -237.5812   -773.60908    1977.2882   -3438.9121 
 5679000    262.98744   -4651.7598   -4144.5664   -4651.7598            0    4572.3797    19.794051    20.179235    20.634639    8242.0692    4495.0603    4535.4821    4686.5968   -122.11006    -555.6984   -324.46612   -3594.9567 
 5680000     270.1796   -4678.6324   -4157.5684   -4678.6324            0    4416.1938    19.949029    20.022679    20.791215    8304.6977    5376.3195     4027.518     3844.744   -109.29541   -567.95296    1104.7717   -3622.6988 
 5681000    262.96867   -4690.1354   -4182.9782   -4690.1354            0    4466.9034    19.976823    19.801957    20.961853    8292.0938     4084.915    4380.2604    4935.5348    295.40584    549.82221    845.53502    -3642.788 
 5682000    270.18752   -4705.2847   -4184.2053   -4705.2847            0    5363.4883    19.918074    20.047619     20.78551    8299.8611    6069.3336    4736.4042    5284.7271   -136.12813     246.0471    985.69844   -3534.9821 
 5683000    245.13046   -4677.2435   -4204.4888   -4677.2435            0    5386.3922    20.117618    20.038726     20.47537    8254.2655    5309.5124    4372.5733    6477.0909    84.128379    1033.7313   -558.47259   -3556.0749 
 5684000    253.69181    -4700.046     -4210.78    -4700.046            0    4627.8504    19.984599    19.973762    20.686812    8257.5056    3735.5727    4710.4075    5437.5709   -314.10847   -361.76528    657.56698   -3653.4607 
 5685000    270.55522   -4674.3283   -4152.5398   -4674.3283            0    4935.8502    20.079742    20.134461    20.512804      8293.22    5611.1276    3468.3599     5728.063    150.59188   -660.59925   -1471.0108    -3555.558 
 5686000    264.91988   -4659.2772    -4148.357   -4659.2772            0    6056.6127    19.952025    20.001236    20.798042    8299.7738    5779.4597    6290.9118    6099.4668   -50.384237   -2196.2083   -719.98162   -3415.2422 
 5687000    256.58712   -4684.7107   -4189.8609   -4684.7107            0     6242.221     19.86241    19.848058    20.889349    8235.2137    7613.0079    5887.9761    5225.6791   -52.381755    -283.2545    708.81548   -3440.1568 
 5688000    265.67312   -4674.4633   -4162.0903   -4674.4633            0    6750.0444    20.128766    19.858068    20.797646    8313.2018    6846.0214    6976.4775    6427.6343   -630.91509   -1646.0504    455.16921   -3343.7182 
 5689000    248.92647   -4683.2916    -4203.216   -4683.2916            0    6659.3173    19.830911    20.147937    20.470039    8178.8442    7178.8749    5203.0405    7596.0365   -589.38591   -1139.7135    -53.67149   -3408.8923 
 5690000    270.70915   -4667.9991   -4145.9137   -4667.9991            0    5640.8902    19.893502    20.168498    20.639834    8281.1568    5320.3068      6275.19    5327.1736   -763.00117    68.515821    655.76653   -3464.6511 
 5691000    268.31808   -4697.6877   -4180.2138   -4697.6877            0    5072.3184    19.997625     20.07048    20.713601    8313.6509    5198.9168    5332.8004    4685.2379   -698.13796    1336.5169   -1612.4796   -3565.2151 
 5692000      269.114   -4685.8305   -4166.8216   -4685.8305            0    4510.3006    19.959697    19.980699    20.721979    8264.1056    2421.5556    6194.6511    4914.6951   -281.15147    581.23074    538.91295   -3623.2243 
 5693000    265.66452   -4680.3854    -4168.029   -4680.3854            0    5795.4988    20.006386    19.709127    21.030592    8292.5394     5273.463    7575.1977    4537.8358    20.481971     803.7696   -426.66348   -3467.1319 
 5694000     272.6969   -4689.0642   -4163.1453   -4689.0642            0    5752.1797    19.944097    20.062922    20.743567    8300.2657    6276.2582    5600.9264    5379.3544    177.03912     1634.114    1663.9816    -3466.839 
 5695000    275.06185   -4713.2979   -4182.8179   -4713.2979            0    4480.1187    20.124017    20.115439    20.576058    8329.2586    3044.1021    5074.8779    5321.3761    249.60272    129.49757    1188.4367   -3638.6014 
 5696000    258.49738   -4679.0265   -4180.4926   -4679.0265            0    5298.3527    19.838106    19.977258    20.876445    8273.5639    5634.5141    5601.3282    4659.2159   -288.94645   -1054.0281    122.11656   -3541.1857 
 5697000    262.93794    -4682.046   -4174.9481    -4682.046            0    4975.7943    20.099981    19.836285     20.82114    8301.5752    3134.1077    7461.3062     4331.969    499.68264    1537.9301    533.72149   -3572.5289 
 5698000    271.97584   -4697.4822   -4172.9539   -4697.4822            0    3847.3716     19.95438    20.152519    20.773066    8353.4946    3227.0317    4791.7712    3523.3119   -217.10569    73.220032   -152.62922   -3704.2396 
 5699000    271.90318   -4684.7414   -4160.3532   -4684.7414            0    2907.8342    20.224227    19.994385    20.718846    8378.1004    2998.0158    2187.8938     3537.593    727.99613    752.19591    1446.4363   -3805.0566 
 5700000    251.26582   -4673.0689   -4188.4817   -4673.0689            0    3835.8456    20.085293    20.080371    20.698729    8348.2139    3186.3456    5415.5022    2905.6891   -501.82474   -86.509484     420.2189   -3721.4669 
 5701000    257.01421   -4685.1572   -4189.4837   -4685.1572            0    5231.4484    20.105085    20.137327    20.510531    8303.9483    4505.1023    4650.3401    6538.9029   -103.02215   -83.287104     1680.479   -3555.9314 
 5702000    270.66832   -4692.9739   -4170.9673   -4692.9739            0    3982.0286    20.112722    19.878458    20.816084    8322.4763    3160.8867    5550.4573    3234.7419   -834.42713   -105.35224    1783.4931   -3687.6494 
 5703000    260.59802   -4708.7142    -4206.129   -4708.7142            0    5028.0111    19.931512    20.137474    20.695379     8306.511    6087.6438     3356.316    5640.0735    336.05868   -923.84114   -1370.7608    -3597.026 
 5704000    265.41644   -4728.3842   -4216.5063   -4728.3842            0    6169.6396     20.14352    19.901241    20.670824    8286.5414    7029.1719    5347.2696    6132.4771    218.46034   -260.98321    37.759119    -3470.901 
 5705000    248.68521   -4700.5328   -4220.9225   -4700.5328            0    6438.2962    19.944579    20.041332    20.597336    8233.0833     5558.515    7436.1785     6320.195   -73.349775    -828.8754   -1100.9761   -3447.8693 
 5706000    265.17226   -4725.9237   -4214.5167   -4725.9237            0    5886.2085    20.079099    19.848512    20.758163    8272.9634    6410.8883    5694.1907    5553.5464   -136.49701   -368.38442    413.54901   -3504.3298 
 5707000    261.83387   -4691.1092   -4186.1406   -4691.1092            0    3791.5294    20.076435    20.051778    20.741423    8349.8376    2502.2895    5329.5601    3542.7387   -303.89022   -974.93848   -1295.3207   -3724.4316 
 5708000    268.65759   -4676.5279   -4158.3992   -4676.5279            0    6564.7661    19.918426    19.910457    20.807027    8251.7544    7497.9496    5934.7917     6261.557    346.89457    746.65765   -725.26797   -3368.3731 
 5709000    254.58711   -4664.9482   -4173.9556   -4664.9482            0     7416.294    19.720086    19.785126    21.043407    8210.3882    7820.9325    8426.5064    6001.4431    146.11207     999.2308    342.36816   -3285.9279 
 5710000    277.10426   -4683.0917   -4148.6729   -4683.0917            0    7148.4427    19.768809    20.059001    20.706244    8210.9071    8336.0405    7191.9922    5917.2954    1003.0875    321.24135   -172.96215   -3292.6636 
 5711000    251.18597   -4665.6924   -4181.2592   -4665.6924            0    5333.3342    20.157985    20.060902    20.678332    8362.0559    6585.1654    3484.8528    5929.9843   -754.92524    299.91977   -111.62987   -3530.8484 
 5712000     262.7597   -4684.5754   -4177.8212   -4684.5754            0    5817.8905    19.963399    20.044765    20.746003    8301.7548    8606.3981    3566.4357    5280.8377    1159.1364    296.66775    466.74695   -3473.4342 
 5713000    272.90904    -4678.756    -4152.428    -4678.756            0    3492.0115    20.060026    19.865852    20.982151    8361.5869    3812.7632    4878.7193    1784.5518    124.28914    456.67804   -1634.0856   -3726.5941 
 5714000    270.93335   -4700.9519   -4178.4341   -4700.9519            0     3545.937    20.039382    20.194116    20.757157    8399.9564    5329.9519    1757.7182     3550.141   -508.04013     745.3984   -1826.8887     -3744.04 
 5715000    259.82235   -4731.4468   -4230.3575   -4731.4468            0    5452.2296    20.300775    20.015936    20.464217    8315.4097    3759.0002    6151.2779    6446.4106   -461.64681    1053.9368   -465.52369   -3569.1563 
 5716000    256.59025   -4684.0046   -4189.1488   -4684.0046            0    6478.1378    20.110033    19.881597    20.542556    8213.3162    5084.9072    7117.7958    7231.7103    624.73406    852.13181    98.652414   -3413.1793 
 5717000    262.71571   -4728.4204   -4221.7511   -4728.4204            0    7057.9082    19.933577    19.789794    20.902052    8245.4705    6385.6955    7963.5218    6824.5074   -625.92947     1544.598    671.68418   -3373.0254 
 5718000    271.09589    -4678.319   -4155.4878    -4678.319            0    6037.0192    20.034011     19.88533    20.769536    8274.2285     5508.549    5663.9389    6938.5697   -99.509193   -834.51064   -416.59675   -3426.9938 
 5719000    263.91523   -4676.5569   -4167.5742   -4676.5569            0    5000.1167    19.928378    20.145519    20.627286    8281.1853    4154.5019    5463.3705    5382.4776   -186.76276   -499.55527    671.37828   -3563.6971 
 5720000     251.1396   -4693.7659    -4209.422   -4693.7659            0    6546.3604    20.039197    20.015691    20.666828    8289.4314    5717.0075    6407.8912    7514.1824    221.12928   -656.94392    86.242158   -3418.0138 
 5721000    258.59593   -4683.9041   -4185.1801   -4683.9041            0    7046.0592    20.115338    19.910658    20.697615    8289.5934    7264.9565    5939.5741    7933.6469   -111.44314    345.38239    133.13812   -3333.3452 
 5722000    266.68202   -4715.1714   -4200.8527   -4715.1714            0    6317.6137    19.762052    20.062559    20.807742    8249.7977    8709.2578     4031.361    6212.2224    401.10878   -1600.5667    300.46669     -3440.75 
 5723000    250.12336   -4677.1316   -4194.7477   -4677.1316            0    7214.9078     19.95033    19.909636    20.714812    8228.0023    7155.4451    7188.6704    7300.6079    98.838745    389.78573    2070.1027   -3328.9806 
 5724000    261.27449   -4681.5093   -4177.6195   -4681.5093            0    4443.9632    19.925559    20.082225    20.718313     8290.424    3954.9017    4331.6471    5045.3407   -101.22515    1249.8585    138.11112   -3640.3118 
 5725000    264.79495   -4713.7539   -4203.0746   -4713.7539            0    7497.5739    19.839191     19.83068    20.816599    8189.7628    7704.2916    9319.7865    5468.6435   -361.59767   -484.68537   -203.84429   -3307.5697 
 5726000    258.87347   -4682.5287   -4183.2694   -4682.5287            0    6249.3612    19.964505     20.00693    20.844889    8326.0415    6081.9468    6446.6086    6219.5282    585.37491   -5.2377556   -1842.4198   -3424.4297 
 5727000    270.52391   -4641.4746   -4119.7465   -4641.4746            0    5662.1296    20.055162    20.066866    20.733312    8344.0025    6309.9786    6229.9469    4446.4634   -577.90704    69.258388    386.22432   -3430.7292 
 5728000    272.99417   -4673.5466   -4147.0544   -4673.5466            0    7432.5894    20.023974    20.056548    20.528303    8244.4086    7112.3058    7092.7373    8092.7251   -210.04739    1463.3023    1006.0971   -3253.3877 
 5729000    270.25575   -4688.2931   -4167.0822   -4688.2931            0    5278.5935    19.937676    19.917726    20.920395    8307.7642    5978.1443    5164.1172    4693.5191   -299.62171    1021.3034   -203.97905   -3527.5266 
 5730000    278.23273   -4679.8936   -4143.2984   -4679.8936            0    4841.1579    19.832809    19.913456    21.007212    8296.5834    5255.4564    6723.2499    2544.7675    730.83459   -396.71342    1088.0934   -3557.5321 
 5731000    269.07874   -4673.7308   -4154.7898   -4673.7308            0    6758.2747    19.911459    19.908303    20.775527    8235.4884    7784.6099    6143.9158    6346.2985    527.44169    813.92011    1462.7538   -3343.0794 
 5732000    256.47418   -4664.9309   -4170.2989   -4664.9309            0    5749.4079    20.127202    20.040249     20.57862    8300.4714     5673.339    5952.0004    5622.8844    311.30405    946.55986    807.52037   -3474.3109 
 5733000    262.68073   -4691.8823   -4185.2804   -4691.8823            0    7266.9832     20.01321    19.950579    20.558509    8208.5009    6981.0725    7220.2563    7599.6206     -52.7789    1075.0438    7.8525594   -3315.3312 
 5734000    278.49514   -4700.6397   -4163.5384   -4700.6397            0    6777.0189    20.008564    19.976439    20.827319    8324.6764    7858.7442    6723.2832    5749.0292   -260.44262    -31.61963    465.48997   -3340.7618 
 5735000    250.83117    -4696.029     -4212.28    -4696.029            0    4520.4082    19.966343    19.895401    20.984667    8335.9155    5101.4057    5215.3899    3244.4289    194.62016    -696.1235    1085.4845   -3662.7305 
 5736000    258.44717   -4697.0204   -4198.5833   -4697.0204            0    3999.0779    19.864736    20.013517    20.770248    8257.4872    4343.7733     4137.927    3515.5334   -1039.7432    427.58907   -254.33759   -3716.9864 
 5737000    260.50004   -4681.7997   -4179.4035   -4681.7997            0    6491.2175    19.971464      20.1179    20.530335     8248.758    7751.0548    5696.6631    6025.9344   -138.96668    437.65493    1248.7371   -3398.5121 
 5738000    272.75255   -4703.0301   -4177.0039   -4703.0301            0    4575.3193    20.134957    20.093537    20.570184    8322.3368    3350.4234     5341.323    5034.2113   -907.70324   -911.86284    -418.2099   -3621.6848 
 5739000    271.09084   -4719.5399   -4196.7184   -4719.5399            0    6769.2015    20.004878    19.887546    20.831805    8287.8903    5993.7989    8412.4245     5901.381    291.38003    75.822267     1007.786   -3378.5224 
 5740000    264.87709   -4675.2004   -4164.3626   -4675.2004            0    4813.6104    19.777826    20.249109    20.798651    8329.5132    6247.9005    2326.6607    5866.2701    553.99776   -151.89479    534.67293   -3579.6177 
 5741000    260.98986   -4710.2152   -4206.8743   -4710.2152            0    5130.0891    20.055566    20.009012    20.660642    8290.9514     6683.005    3205.7247    5501.5375   -1526.0028   -1376.8584    312.23791   -3586.5695 
 5742000    262.50715   -4688.4778   -4182.2107   -4688.4778            0    4654.3946    20.028089    20.059761    20.674718    8306.2475    3301.5828    4616.2057    6045.3953   -405.44301   -170.01457    496.18135   -3618.3862 
 5743000    276.86377   -4691.9413   -4157.9863   -4691.9413            0     4624.461    19.901531    20.035361    20.742629     8270.799    4816.3273    4005.8557    5051.1999   -123.17921   -9.6056044   -365.50253   -3600.1786 
 5744000    282.89613   -4714.5816   -4168.9927   -4714.5816            0    3285.4849    19.937061    19.925858    21.060061     8366.384     3866.034    3228.8046    2761.6162   -243.88677    1203.8112    182.06223   -3768.1138 
 5745000    275.39733   -4674.9752   -4143.8483   -4674.9752            0    3656.8293    19.951188    20.167865    20.917854    8416.7765     3345.236    4545.3007    3079.9511   -607.73106    724.06934    368.24613   -3694.9723 
 5746000    273.67244   -4691.6543    -4163.854   -4691.6543            0    4386.1841    20.052642    20.030453    20.712914    8319.6214    4299.2903    4197.1995    4662.0624   -164.74971    464.12556    592.45393   -3631.6645 
 5747000    256.26547   -4671.4597   -4177.2302   -4671.4597            0    6994.2492    19.890021    20.024357    20.581773    8197.4087    4816.2997    8538.3543    7628.0936   -960.32277   -371.17357    1548.8904   -3341.0621 
 5748000    267.01848   -4670.8409   -4155.8733   -4670.8409            0    5375.7924    19.856196    20.021909    20.792989    8266.4389    3871.2292    6172.5908    6083.5571   -35.274387   -382.49428   -34.749959    -3507.781 
 5749000    254.96041   -4691.1865   -4199.4739   -4691.1865            0    5395.2148     19.85388    19.891168    20.990904    8289.6619    4967.0285    5470.2518    5748.3641   -668.70451   -374.92804   -873.60774   -3547.2129 
 5750000    275.50483    -4661.244   -4129.9097    -4661.244            0    5450.4788    19.819604    20.060658    20.741583     8246.735    4387.1687    6778.9409    5185.3269    194.87751    1373.6527    403.61351   -3474.3797 
Loop time of 453.32 on 64 procs for 250000 steps with 972 atoms

Performance: 95.297 ns/day, 0.252 hours/ns, 551.487 timesteps/s
99.0% CPU use with 64 MPI tasks x 1 OpenMP threads

MPI task timing breakdown:
Section |  min time  |  avg time  |  max time  |%varavg| %total
---------------------------------------------------------------
Pair    | 20.287     | 28.13      | 36.689     |  77.8 |  6.21
Bond    | 0.26123    | 0.27706    | 0.28745    |   0.8 |  0.06
Kspace  | 186.82     | 200.5      | 211.13     |  44.1 | 44.23
Neigh   | 3.2709     | 3.9744     | 4.4717     |  17.9 |  0.88
Comm    | 91.995     | 100.64     | 111.65     |  53.4 | 22.20
Output  | 1.0612     | 1.0683     | 1.0812     |   0.6 |  0.24
Modify  | 110.33     | 112.49     | 115.31     |  12.8 | 24.82
Other   |            | 6.242      |            |       |  1.38

Nlocal:        15.1875 ave          20 max          11 min
Histogram: 2 4 7 11 14 7 11 5 2 1
Nghost:        2255.53 ave        2289 max        2216 min
Histogram: 3 1 4 10 9 9 12 9 5 2
Neighs:        4769.89 ave        7154 max        3264 min
Histogram: 5 6 9 13 16 6 6 2 0 1

Total # of neighbors = 305273
Ave neighs/atom = 314.06687
Ave special neighs/atom = 2.0000000
Neighbor list builds = 8346
Dangerous builds = 0

unfix		3
unfix		2
unfix		1

write_data	data.final.${pid}
write_data	data.final.0
System init for write_data ...
PPPM initialization ...
  extracting TIP4P info from pair style
  using 12-bit tables for long-range coulomb (../kspace.cpp:340)
  G vector (1/distance) = 0.37263076
  grid = 24 24 25
  stencil order = 5
  estimated absolute RMS force accuracy = 0.00338101
  estimated relative force accuracy = 1.0181811e-05
  using double precision FFTW3
  3d grid and FFT values/proc = 2366 288
Last active /omp style is kspace_style pppm/tip4p/omp
WARNING: Not all mixed pair coeffs generated from mixing. Use write_data with 'pair ij' option to store all pair coeffs. (../write_data.cpp:312)

write_restart   restart.lmp.${pid}
write_restart   restart.lmp.0
System init for write_restart ...
PPPM initialization ...
  extracting TIP4P info from pair style
  using 12-bit tables for long-range coulomb (../kspace.cpp:340)
  G vector (1/distance) = 0.37263076
  grid = 24 24 25
  stencil order = 5
  estimated absolute RMS force accuracy = 0.00338101
  estimated relative force accuracy = 1.0181811e-05
  using double precision FFTW3
  3d grid and FFT values/proc = 2366 288
Last active /omp style is kspace_style pppm/tip4p/omp
Total wall time: 0:07:37
