LAMMPS (30 Jul 2021)
Processor partition = 1
  using 2 OpenMP thread(s) per MPI task
using multi-threaded neighbor list subroutines
variable        pid world 0 1
variable        phase world IceV IceIII

shell cd ${phase}
shell cd IceIII
include Restart.lmp
echo both
log log.lammps
#include		in.partitions
include		in.temp
variable        temperature equal 138.97
variable	tempDamp equal 100.0
include		in.pressure
variable        pressure equal 7188.4
variable        pressureDamp equal 1000.0 # This is 1 ps
include		in.seed
variable        seed equal 745823

units		real
atom_style	full

read_restart	restart.lmp.${pid}
read_restart	restart.lmp.1
Reading restart file ...
  restart file = 30 Jul 2021, LAMMPS = 30 Jul 2021
  restoring atom style full from restart
  orthogonal box = (0.11772061 0.081714110 0.088378107) to (19.882280 19.918287 20.611620)
  2 by 4 by 4 MPI processor grid
  restoring pair style lj/cut/tip4p/long/omp from restart
  restoring bond style harmonic/omp from restart
  restoring angle style harmonic/omp from restart
  972 atoms
  648 bonds
  324 angles
Finding 1-2 1-3 1-4 neighbors ...
  special bond factors lj:    0        0        0       
  special bond factors coul:  0        0        0       
     2 = max # of 1-2 neighbors
     1 = max # of 1-3 neighbors
     1 = max # of 1-4 neighbors
     2 = max # of special neighbors
  special bonds CPU = 0.002 seconds
  read_restart CPU = 0.008 seconds
include 	in.setup
variable	out_freq equal 1000
variable	out_freq2 equal 10000
variable	out_freq3 equal 1000

timestep	2.0

neigh_modify    delay 7 every 1

include		in.tip4p
# This is TIP4P/Ice

# create groups ###
group ox type 2
324 atoms in group ox
group hy type 1
648 atoms in group hy

# set charges - beside manually ###
set group ox charge -1.1794
Setting atom values ...
  324 settings made for charge
set group hy charge 0.5897
Setting atom values ...
  648 settings made for charge

# ### TIP3P Potential Parameters ###
pair_style lj/cut/tip4p/long/omp 2 1 1 1 0.1577 8.5
pair_coeff 1 1*2 0.000 0.000
pair_coeff 2 2 0.21084 3.1668
bond_style  harmonic
bond_coeff  1 450 0.9572
angle_style harmonic
angle_coeff 1 55 104.52
kspace_style pppm/tip4p/omp 1.0e-5
pair_modify tail yes

thermo          ${out_freq}
thermo          1000
thermo_style    custom step temp pe etotal epair emol press lx ly lz vol pxx pyy pzz pxy pxz pyz enthalpy

restart 	${out_freq3} restart.lmp.${pid} restart2.lmp.${pid}
restart 	1000 restart.lmp.${pid} restart2.lmp.${pid}
restart 	1000 restart.lmp.1 restart2.lmp.${pid}
restart 	1000 restart.lmp.1 restart2.lmp.1


include         in.dump
dump            myDump all atom ${out_freq2} dump.water.${pid}
dump            myDump all atom 10000 dump.water.${pid}
dump            myDump all atom 10000 dump.water.1
dump            myDump2 all dcd ${out_freq2} dump.dcd
dump            myDump2 all dcd 10000 dump.dcd
dump_modify     myDump append yes
dump_modify     myDump2 append yes


variable natoms 	equal  "count(all)"                        # NUMBER ATOMS
variable H      	equal  "enthalpy/v_natoms"                 # ENTHALPY-per-atom
variable Vol      	equal  "vol/v_natoms"                 # volume-per-atom
fix AVG all 		ave/time ${out_freq} 1 ${out_freq} v_Vol v_H file vol_enthalpy.dat
fix AVG all 		ave/time 1000 1 ${out_freq} v_Vol v_H file vol_enthalpy.dat
fix AVG all 		ave/time 1000 1 1000 v_Vol v_H file vol_enthalpy.dat


timer           timeout 02:55:00 every 1000
New timer settings: style=normal  mode=nosync  timeout=02:55:00

fix 		1 all shake 1e-6 200 0 b 1 a 1
Finding SHAKE clusters ...
       0 = # of size 2 clusters
       0 = # of size 3 clusters
       0 = # of size 4 clusters
     324 = # of frozen angles
  find clusters CPU = 0.000 seconds
fix             2 all nph aniso ${pressure} ${pressure} ${pressureDamp}
fix             2 all nph aniso 7188.4 ${pressure} ${pressureDamp}
fix             2 all nph aniso 7188.4 7188.4 ${pressureDamp}
fix             2 all nph aniso 7188.4 7188.4 1000
fix             3 all temp/csvr ${temperature} ${temperature} ${tempDamp} ${seed}
fix             3 all temp/csvr 138.97 ${temperature} ${tempDamp} ${seed}
fix             3 all temp/csvr 138.97 138.97 ${tempDamp} ${seed}
fix             3 all temp/csvr 138.97 138.97 100 ${seed}
fix             3 all temp/csvr 138.97 138.97 100 745823


run             250000
PPPM initialization ...
  extracting TIP4P info from pair style
  using 12-bit tables for long-range coulomb (../kspace.cpp:340)
  G vector (1/distance) = 0.37212205
  grid = 24 24 24
  stencil order = 5
  estimated absolute RMS force accuracy = 0.0035182056
  estimated relative force accuracy = 1.0594972e-05
  using double precision FFTW3
  3d grid and FFT values/proc = 3211 432
Last active /omp style is kspace_style pppm/tip4p/omp
Neighbor list info ...
  update every 1 steps, delay 7 steps, check yes
  max neighbors/atom: 2000, page size: 100000
  master list distance cutoff = 10.8154
  ghost atom cutoff = 10.8154
  binsize = 5.4077, bins = 4 4 4
  1 neighbor lists, perpetual/occasional/extra = 1 0 0
  (1) pair lj/cut/tip4p/long/omp, perpetual
      attributes: half, newton on, omp
      pair build: half/bin/newton/omp
      stencil: half/bin/3d
      bin: standard
Setting up Verlet run ...
  Unit style    : real
  Current step  : 24750000
  Time step     : 2
  Walltime left : 2:54:59.94
Per MPI rank memory allocation (min/avg/max) = 10.18 | 10.19 | 10.19 Mbytes
Step Temp PotEng TotEng E_pair E_mol Press Lx Ly Lz Volume Pxx Pyy Pzz Pxy Pxz Pyz Enthalpy 
24750000    139.90056   -4944.2599   -4674.4499   -4944.2599            0    6657.1722     19.76456    19.836573    20.523242    8046.3653    7410.6301     5184.628    7376.2585   -58.059871   -295.25505   -383.61546   -3893.2442 
24751000    133.22147   -4953.5758    -4696.647   -4953.5758            0    8140.1682    19.909572    19.743887    20.391759    8015.8439    7367.7657    9460.0967     7592.642   -88.940835    675.81967    271.94658    -3745.038 
24752000    135.01316    -4955.318   -4694.9338    -4955.318            0    6666.4829    19.842935    19.905085    20.344734    8035.6678    7350.6894    5696.1713    6952.5882   -257.20087    342.61557    463.42877   -3913.6755 
24753000    141.65525   -4971.6441   -4698.4501   -4971.6441            0       7153.9    19.834734    19.770224    20.424602    8009.2446    6645.2198    6541.9024    8274.5777    39.374486    537.25709    299.60829   -3862.8272 
24754000    134.32622   -4967.4231   -4708.3637   -4967.4231            0    7382.5262    19.811272    19.788013    20.324583    7967.7589    6968.1688    7136.1203    8043.2896   -35.227582   -607.17905    21.170834   -3850.5024 
24755000    133.36032   -4951.8899   -4694.6933   -4951.8899            0    6863.2218     19.83963     19.87401    20.351003    8024.2582    6351.4996    6902.2542    7335.9117   -674.21908     605.7797   -248.49071   -3891.5208 
24756000    138.53942   -4948.8895   -4681.7045   -4948.8895            0    7774.2391    19.889003    19.601658    20.507946    7995.1753     7264.219     8420.236    7638.2623   -278.54271   -965.47236    1111.2606   -3775.2171 
24757000    142.15917   -4965.0311   -4690.8652   -4965.0311            0    6159.9052    19.771365    19.708206    20.527563     7998.732    6549.2592    5634.4955     6295.961   -433.79847    120.31695    -712.0535   -3972.2919 
24758000    138.63895   -4952.0348   -4684.6579   -4952.0348            0    8356.6737      19.5337    19.767285    20.611415    7958.6491    8070.7901     9340.581      7658.65   -637.19782   -578.20781   -644.10415   -3714.7094 
24759000    143.78819   -4960.3805   -4683.0729   -4960.3805            0    6576.2772    19.813285    19.827247    20.530675    8065.3297    6946.9015    6381.3982    6400.5319   -241.03642    16.959513   -147.13465   -3909.5412 
24760000    144.65084   -4965.1011   -4686.1298   -4965.1011            0    6279.0238    19.899036    19.920024     20.25118    8027.3507     5793.398     5690.499    7353.1745   -9.8441606    1873.4725   -353.37079   -3951.0403 
24761000    140.60516   -4967.3419    -4696.173   -4967.3419            0    6754.3635    19.801794    19.821219    20.424944    8016.7025    6535.2813    6781.6134    6946.1958   -227.64963    466.24321    86.038678    -3906.484 
24762000    149.72147   -4961.0317   -4672.2813   -4961.0317            0    6078.2848    19.657023    19.761641    20.663572    8026.8684    6654.8679    6487.5082    5092.4784   -305.99626   -618.83267   -201.44657   -3960.7351 
24763000     140.2801   -4945.5853   -4675.0434   -4945.5853            0    6431.8124     19.84341     19.73156    20.508506      8029.93    6952.7279    5426.6711    6916.0381   -435.92343    549.06793     45.57074   -3921.8248 
24764000    135.05483   -4959.9771   -4699.5125   -4959.9771            0    7509.4932    19.760012    19.813377    20.444618     8004.325    7117.4929     6975.236    8435.7508   -230.41467    243.07746   -127.91283   -3822.8928 
24765000     143.7226    -4975.983   -4698.8019    -4975.983            0    6643.3358    19.886915    19.930933    20.266532    8032.9389    5495.1883    6265.6417    8169.1774    76.914725   -291.63819    590.34661   -3920.5207 
24766000    136.34098   -4958.2599   -4695.3149   -4958.2599            0    6497.4855    19.721419    19.913741     20.43255    8024.4187    5855.9494    6616.5485    7019.9587   -74.013645   -694.00532    1313.8576   -3934.9277 
24767000    143.10607   -4965.6148   -4689.6227   -4965.6148            0    9207.5133    19.718626    19.646184    20.542518    7958.0843    8872.0224    9231.9676    9518.5498   -130.59086   -2360.0917   -65.683788   -3620.9941 
24768000    135.11441   -4964.6619   -4704.0824   -4964.6619            0    7696.0791    19.711651    19.770293    20.430619    7961.9169    9968.1998     4919.884    8200.1536   -105.78097   -1106.1209   -332.57566   -3810.4414 
24769000    143.67873   -4972.3216    -4695.225   -4972.3216            0    7099.9361    19.922581    19.645157    20.459667      8007.55    4967.8054     8465.102    7866.9008   -15.854359    3.7706368   -1345.7929    -3866.081 
24770000    138.04085   -4965.7926   -4699.5692   -4965.7926            0    7957.4923    19.701747     19.80683      20.5825    8031.8913    8109.7494    8266.6104    7496.1172      626.028   -510.19711    279.69623   -3767.4533 
24771000    135.30724   -4974.5059   -4713.5545   -4974.5059            0    7539.9847    19.815987    19.790438    20.466334    8026.2221    6405.4244    8996.3963    7218.1334     7.743996   -8.7014792   -919.59574   -3830.9675 
24772000    141.96211   -4964.9635   -4691.1776   -4964.9635            0    8170.9344    19.756974    19.950418    20.291135    7997.9517    7612.3987    7982.2281    8918.1764   -729.48708    274.12695    934.23148   -3738.1041 
24773000    137.38198   -4970.8599   -4705.9072   -4970.8599            0    7213.4561    19.958042    19.708916    20.369175    8012.2428    5873.0008    8353.1238    7414.2437   -171.90252    -73.92112   -91.942648   -3863.0124 
24774000    151.18724   -4949.0537   -4657.4764   -4949.0537            0    8325.9943    19.652573    19.622821    20.542207    7921.8742     7750.931    9474.7387    7752.3131   -469.49188    207.00296   -187.38643   -3695.5543 
24775000    142.73871   -4956.6966    -4681.413   -4956.6966            0    6776.9198    19.875175    19.748858    20.553417     8067.463     7484.596     6499.686    6346.4773   -190.51595    83.463093   -12.104162   -3884.0699 
24776000    143.64329   -4955.3233   -4678.2951   -4955.3233            0    6478.1895    19.714987    19.813185    20.554834    8029.0613    7201.1282    7011.3839    5222.0564    182.13313    798.89862    894.54149   -3919.7275 
24777000     140.3337   -4941.7228   -4671.0774   -4941.7228            0    7991.5442     19.67583    19.872557    20.436592    7990.8921    8505.5513    7090.6844    8378.3968    507.45504    1075.2925   -711.00684   -3739.7511 
24778000    131.24863   -4958.5271   -4705.4031   -4958.5271            0    6182.0771    19.737322    19.894684    20.518024    8056.7671    7398.3215    5006.8866    6141.0231   -45.050141   -782.93478    124.04469    -3979.011 
24779000    141.35304   -4963.5286   -4690.9174   -4963.5286            0    6827.1773    19.784492    19.825604    20.422139    8010.3694    7744.2569    6714.2585    6023.0163   -150.39029    257.99037    389.98559   -3893.3459 
24780000     141.8382   -4954.3694   -4680.8225   -4954.3694            0    7323.3299    19.762579    19.614947    20.561869    7970.6429    7005.8082    6966.1206    7998.0609    126.23318   -708.62054    192.65955   -3829.5319 
24781000    140.73704   -4954.6012   -4683.1779   -4954.6012            0    5999.6696    19.903972    19.809717    20.433458      8056.75    5198.9217     6369.665     6430.422   -7.5150004   -385.82916    510.71898   -3978.2202 
24782000    133.91568   -4948.5603   -4690.2926   -4948.5603            0    5900.2382    19.854203    19.699133    20.587218    8051.8788    6242.2455    5959.1697    5499.2995    182.94911    936.50695    762.02839   -3997.4371 
24783000    141.96726   -4958.7828    -4684.987   -4958.7828            0    8417.8107    19.777321    19.780035    20.356571     7963.411    8360.9235    7724.8791    9167.6296    405.11887    852.17553   -557.20054   -3707.3578 
24784000    132.55074   -4960.9912    -4705.356   -4960.9912            0    6545.2615    19.986287    19.731245    20.367223    8031.9022    6650.1937    5304.6501    7680.9406   -345.60328    356.44255   -20.120361   -3938.6633 
24785000    136.43724   -4981.6564   -4718.5257   -4981.6564            0    7916.8374    19.700727    19.746843    20.527444     7985.733    6839.2793    8552.1753    8359.0575    13.132146     424.4285   -189.26535   -3796.5013 
24786000    131.98242   -4957.1658   -4702.6266   -4957.1658            0    7351.6765    19.795521    19.673786    20.453667    7965.7391    5728.3381    9451.6187    6875.0725   -225.82376   -533.02962   -1644.0385   -3848.5667 
24787000      140.118   -4965.8054    -4695.576   -4965.8054            0    7394.8287    19.803423    19.911862     20.32091    8013.0024    7039.6315    6850.2155    8294.6392   -291.70151     408.3491    298.29564   -3831.4059 
24788000    138.69576   -4944.2129   -4676.7265   -4944.2129            0    9131.6372    19.714989    19.750036    20.449555    7962.4787    9162.0796    9648.1343    8584.6977    247.75014    837.17277   -160.29891   -3616.3189 
24789000    135.43127   -4966.4839   -4705.2933   -4966.4839            0    8186.4214    19.795375    19.742378    20.505703     8013.788    7618.2058    8429.9492    8511.1091    350.74082   -316.00548    711.94131   -3748.5226 
24790000    133.37042   -4954.5875   -4697.3714   -4954.5875            0    8274.1265     19.93527    19.585958    20.513398     8009.484    7039.5854    10863.139    6919.6549   -83.052221    1002.7413    328.99073   -3730.8698 
24791000    140.32549    -4958.662   -4688.0324    -4958.662            0    7651.6835    19.868799    19.888382    20.269399    8009.6207     6062.712    8938.1894     7954.149   -329.83552    -344.0788   -914.80464   -3794.2232 
24792000    138.30225   -4969.1171   -4702.3895   -4969.1171            0     6344.171    19.883019    19.753598    20.440176    8028.1078    5338.9976    7763.9789    5929.5365    -266.9494   -495.21224    11.116389   -3959.6031 
24793000    141.39972   -4957.8104   -4685.1091   -4957.8104            0    6387.5093    19.752525    19.903334    20.387012    8014.9726    5853.9979    5760.6509    7547.8792   -299.15938    524.45547    44.533164   -3938.4722 
24794000    135.49641   -4970.9001   -4709.5839   -4970.9001            0    6994.1815    19.627325    19.790445    20.638258    8016.5907    6598.9039    8042.7256    6340.9151   -184.51815    539.09612     593.2977   -3891.8679 
24795000    137.22273   -4977.0627   -4712.4172   -4977.0627            0    8043.3941    19.741288    19.700812    20.599356    8011.4894    8090.7832    8631.3864    7408.0126    35.164431    196.40356    942.55572   -3772.6322 
24796000     133.0721   -4959.9534   -4703.3126   -4959.9534            0    7582.9796    19.793154    19.797101    20.432106     8006.261    8726.3588    6598.0419    7424.5379     129.2499    648.44522   -73.862537   -3817.9004 
24797000    149.32134   -4984.5225   -4696.5437   -4984.5225            0    7389.5603     19.74851    19.784807     20.52267    8018.6269    6660.8557    8940.2443     6567.581    461.97579   -180.41866   -1003.8193    -3832.383 
24798000    134.56814   -4969.4798   -4709.9539   -4969.4798            0    8097.2045    19.877233    19.664359    20.488322    8008.3326    5985.5782    10585.408    7720.6275   -59.949239   -218.29247    145.84175   -3764.2545 
24799000    141.75104   -4962.1752   -4688.7964   -4962.1752            0    7423.3627    19.650874    19.834164    20.596874    8027.8098     6809.056    7541.8647    7919.1674   -239.15234   -290.18405    807.91773   -3819.6886 
24800000    134.42925    -4968.302   -4709.0438    -4968.302            0    6995.0584     19.78832    19.966471    20.376549    8050.8338    7614.2389      5572.86    7798.0764    923.64536   -589.58624    949.19719    -3887.732 
24801000    139.10993   -4923.2791   -4654.9939   -4923.2791            0    7673.2794    19.789818    19.903022    20.268081    7983.1348    9640.7506    5772.1319    7606.9558    350.98893    599.51159   -57.499979    -3761.626 
24802000    135.07052   -4968.9467   -4708.4518   -4968.9467            0    6533.2675    19.799944    19.886848    20.451302    8052.8733    5446.1966    6810.6447    7342.9613   -8.6867044   -921.02312    -738.7288    -3941.166 
24803000    128.84951   -4960.9239   -4712.4268   -4960.9239            0    8149.0253    19.654829     19.85694    20.418503    7969.0308    8194.6832    8009.5999    8242.7926    11.687639    705.57393    637.22283   -3765.3459 
24804000     143.0821   -4946.8551   -4670.9092   -4946.8551            0    7981.7836    19.717011    19.624832    20.540916    7948.1642    7557.4926    8842.3612    7545.4971   -171.91056    682.42096   -4.9990493   -3745.6942 
24805000    139.79587   -4955.5822   -4685.9741   -4955.5822            0    8271.2194    19.721708    19.755369    20.425634    7958.0234    7777.5527    8434.8357    8601.2699   -452.25391   -513.79491   -257.26901   -3726.0196 
24806000    145.65262   -4947.9773   -4667.0739   -4947.9773            0    8432.4254    19.764883    19.678067    20.551339    7993.1288    7833.4067    8626.7166    8837.1528   -105.87282   -565.83316   -48.157471   -3684.0927 
24807000    133.95112   -4967.4457   -4709.1097   -4967.4457            0    8256.0761    19.730757    19.688079    20.554406    7984.5791    8678.4546    7874.3578    8215.4158    220.35234    1429.9554    -278.7914   -3747.7152 
24808000    140.24046   -4963.9084   -4693.4429   -4963.9084            0    6929.7161     19.74446    19.699886    20.592401    8009.6947    6733.9187     8114.224    5941.0057    536.87218    1536.7016   -1281.1235   -3883.9607 
24809000     140.3907   -4962.8999   -4692.1446   -4962.8999            0    6125.4417    19.844061    19.689193    20.379044    7962.3684     5507.617    6820.6243    6048.0837   -110.14411   -882.34657    -326.2127   -3980.8401 
24810000    143.78161   -4972.7708   -4695.4759   -4972.7708            0    7375.6719     19.84174    19.749675    20.437572    8008.8289    7998.6375    6345.5212    7782.8571   -299.10357     138.5475    390.34821   -3833.9933 
24811000      137.037   -4953.0853   -4688.7979   -4953.0853            0    7688.5177    19.818653    19.711109    20.444886    7986.7461    7067.0293    8148.4263    7850.0976    210.86414     37.51455   -319.39088   -3793.2509 
24812000    145.15052   -4950.9863   -4671.0513   -4950.9863            0     7326.567    19.843895    19.883732    20.373335    8038.7209    7263.5405    7901.8153    6814.3452    76.121808     38.14732    56.450956   -3812.1103 
24813000    142.00661   -4952.3921   -4678.5204   -4952.3921            0    8218.3534    19.873091    19.628569    20.483965    7990.3918    7591.5944    8973.3586     8090.107   -677.10088    376.37654   -44.353463    -3720.822 
24814000    142.06705   -4964.5436   -4690.5554   -4964.5436            0    8129.6577    19.811455    19.722393    20.487335    8005.0022    7649.3247    8901.6884    7837.9599    575.46177   -344.40562   -77.778181   -3741.4606 
24815000    143.39141    -4971.592   -4695.0496    -4971.592            0    8008.7745    19.734846    19.915044    20.272406    7967.4675    8275.8371    7173.6388    8576.8477    321.88274   -146.91821    3.1344797   -3764.4513 
24816000    144.34564   -4953.9564   -4675.5737   -4953.9564            0    7003.5796    19.759979     19.91782    20.404104    8030.5592    7030.1226    6067.2212    7913.3949   -59.376989    824.93152   -816.32692   -3855.3322 
24817000    129.91589   -4952.9535   -4702.3997   -4952.9535            0     6353.339    19.691831    19.959645    20.418421    8025.2959    6531.1033    5793.2073    6735.7065    220.36179    -213.0575   -715.66901   -3958.8004 
24818000    144.11228   -4968.8271   -4690.8945   -4968.8271            0    7797.1371    19.752093    19.774411    20.441578     7984.194    7956.4948    8538.7292    6896.1874     1067.691    694.75104    147.69133   -3782.9859 
24819000    136.31057   -4972.1483   -4709.2619   -4972.1483            0    7455.0405    19.657914    19.797746    20.453234    7960.0384    7357.9532    6323.7361    8683.4321   -127.82916   -374.63557    158.36994   -3843.8137 
24820000    140.55374   -4958.8753   -4687.8056   -4958.8753            0     7411.712    19.973746    19.656959    20.462752    8034.1495    7271.9818    7254.1844    7708.9698    291.16425    1196.3562   -135.13037   -3819.3765 
24821000    140.93284    -4959.875   -4688.0741    -4959.875            0    8077.4533    20.045136     19.67033    20.304402    8005.9126    6867.8572    8682.1463    8682.3563    -483.6459    852.62381   -43.255749   -3744.9667 
24822000    149.12327    -4952.886   -4665.2892    -4952.886            0    7082.4753    19.867387    19.814028    20.388938    8026.1658    6670.1185    7836.7618    6740.5456    270.64711    314.74652   -884.14461   -3836.2614 
24823000    131.27479   -4963.9321   -4710.7576   -4963.9321            0    7371.1654    19.701668    19.736832    20.511126    7975.7205    6110.6584    8550.1272    7452.7105    134.31147    1123.8296    341.92725   -3853.3606 
24824000    139.83589   -4971.3884   -4701.7031   -4971.3884            0    8464.2935    19.729646    19.786836    20.371166    7952.6439    7909.5649    8917.4364    8565.8792   -162.84271   -272.65592     336.7418   -3720.0046 
24825000    138.11542   -4964.2278   -4697.8606   -4964.2278            0    7480.1148     19.74249    19.745312    20.439455    7967.7418    6903.6512    8250.6883    7286.0048   -343.79202     559.1222    395.67527   -3828.6613 
24826000    139.53189   -4963.1259    -4694.027   -4963.1259            0    7904.3292    19.753551    19.660276    20.562695    7985.7337    7836.7475    7641.5649    8234.6752   -433.29069    16.412398    -516.0974   -3773.4593 
24827000    130.46868   -4968.7354   -4717.1155   -4968.7354            0    8112.0886    19.926416    19.693537    20.430436    8017.3448    7567.2782    8793.1543    7975.8334   -374.62016    187.31323   -1452.5596   -3768.6116 
24828000    145.55355   -4954.6768   -4673.9645   -4954.6768            0     6770.127    19.795014    19.770427    20.418344    7990.8394    6371.3967    6056.7311    7882.2533   -222.29714    112.44806    15.617303   -3884.9861 
24829000    134.65718   -4958.9874   -4699.2897   -4958.9874            0      8148.89    19.862985    19.804268    20.285099    7979.5874    6981.6041    7717.2919    9747.7741    21.270011    1526.5574   -639.00688     -3750.97 
24830000    141.71522   -4952.3381   -4679.0284   -4952.3381            0    7765.2329    19.630781    19.880011    20.395859    7959.6912    7921.0749    6367.1226    9007.5014    364.52928    692.34537    982.39562   -3777.6096 
24831000    140.21944   -4958.2473   -4687.8223   -4958.2473            0    6568.4205    19.828849    19.905256    20.292004    8009.2199     5697.495    5629.3564      8378.41   -505.56707    273.09802    221.45427   -3920.5897 
24832000    140.09352    -4979.178   -4708.9959    -4979.178            0    7055.9203    19.945858    19.744231    20.366833    8020.7772    6228.4373    7434.8374    7504.4861    87.803205   -46.294586   -66.741902    -3883.631 
24833000    143.50103   -4967.6471   -4690.8933   -4967.6471            0    7153.4415    19.724088     19.92763    20.423882    8027.6952    9458.8286    3923.2246    8078.2713   -227.18896     639.9652    8.1316731   -3853.3991 
24834000    142.78436    -4947.046   -4671.6743    -4947.046            0    6486.4617    19.824336    19.793318    20.437991    8019.6507    7172.1685    5274.6393    7012.5772   -625.87951    35.859074   -509.26426   -3913.0283 
24835000    134.35603   -4961.9187   -4702.8018   -4961.9187            0     7210.643    19.666009    19.843803    20.506197    8002.5105    8236.3119    6291.5782    7104.0389    788.43199    616.43229   -205.74145   -3861.2591 
24836000    138.11457   -4971.3219   -4704.9563   -4971.3219            0    7411.7017    19.743649    19.828871    20.486926    8020.5143    6664.0373    9715.8598     5855.208    497.73754   -1001.1214    721.05172   -3838.0023 
24837000    135.87614   -4961.9899   -4699.9413   -4961.9899            0    7769.4401    20.004918    19.604315    20.431368    8012.8296    6589.9387    8906.1588    7812.2228   -191.97172     118.7934   -845.35221   -3792.0131 
24838000    134.38847   -4949.7925    -4690.613   -4949.7925            0    8084.6342    20.019218    19.676128    20.268779    7983.8861    8039.6456    7344.3107    8869.9463   -467.26489    477.65117    626.87336   -3749.2641 
24839000    140.96782   -4993.6556   -4721.7873   -4993.6556            0    8049.4978    19.969892    19.758407    20.328263    8020.9887    7282.3246    7270.4098     9595.759   -309.46302    191.17227   -2396.2482    -3780.174 
24840000    140.05214   -4966.9421   -4696.8397   -4966.9421            0    7915.6644    19.738533    19.640651    20.578457    7977.8073    7472.9846    8739.9649    7534.0438   -33.260929   -1526.1763   -342.96288   -3775.8669 
24841000    134.32777   -4964.5202   -4705.4578   -4964.5202            0    6713.7199     19.72987    19.856371    20.446821    8010.3208     5518.735    8563.2758     6059.149   -611.40043    712.36286   -266.61812   -3921.1455 
24842000    134.18564   -4953.0328   -4694.2445   -4953.0328            0     7657.488    19.704864     19.86864    20.380191    7979.0251    7960.4536    7179.7954    7832.2149    592.83337    741.42516    217.79344   -3803.1741 
24843000    141.24634   -4952.4871   -4680.0817   -4952.4871            0    6051.4069      19.6374    20.003163    20.377192    8004.3666    5133.5891    5614.4897     7406.142    160.76485    733.61362   -430.36591   -3973.6678 
24844000     138.1868   -4962.1867   -4695.6819   -4962.1867            0    7732.9218     19.89137    19.797443    20.383504    8026.9883    8222.4237    6574.9934    8401.3483    97.533401    587.43666    794.08948   -3790.4244 
24845000     135.8856   -4980.2632   -4718.1963   -4980.2632            0    5596.4913    19.815255    19.943166    20.350832      8042.22    5062.8227    5872.3303    5854.3209   -663.25462    1502.4477   -16.036865   -4061.7977 
24846000    143.46496   -4959.7888   -4683.1045   -4959.7888            0    8540.1324    19.642667    19.816682    20.481252    7972.3781    9238.2268    9142.9541    7239.2161    -195.6477    115.10095    185.07022   -3690.1522 
24847000    139.25756   -4967.6412   -4699.0713   -4967.6412            0    7038.2105    19.785739    19.813644    20.462852    8022.0027    7198.3218    7601.6962    6314.6136    -18.61044    166.92528    1046.6788   -3875.6522 
24848000    138.08352   -4964.7001   -4698.3944   -4964.7001            0    6092.4587    19.915571      19.7639    20.417211     8036.405    6703.3812    5485.4214    6088.5736   -490.48169   -759.40949   -67.793968   -3984.3417 
24849000    134.80378   -4956.8487   -4696.8683   -4956.8487            0    7420.5326    19.797323    19.823427    20.419875    8013.7964    5731.2294    8793.7655    7736.6029    552.83067   -368.73838   -1408.3368   -3829.6084 
24850000    141.14116   -4968.6775   -4696.4749   -4968.6775            0    7829.0881    19.554118    19.943045    20.482368    7987.4818    8496.0814    6768.2481    8222.9348   -340.75055   -259.01369   -775.85927   -3784.4704 
24851000    133.59999   -4977.6553   -4719.9965   -4977.6553            0     6133.999    19.865038    19.677847     20.59626    8051.1022    6570.5376    6728.8828    5102.5767   -273.78564    415.58856   -100.21332   -3999.7604 
24852000    136.28686   -4962.5718   -4699.7312   -4962.5718            0    5907.2592    19.902564    19.795333    20.481333    8069.1922      4858.76    5980.7647    6882.2529   -131.31309   -818.10896    328.69667   -4004.5596 
24853000    137.39171   -4948.1774   -4683.2059   -4948.1774            0    6850.9269    19.590752    19.986549    20.417757    7994.6043    6008.5735    7636.8554    6907.3518   -317.40571    194.28953    705.46103   -3884.4351 
24854000    144.59229    -4964.606   -4685.7476    -4964.606            0     7554.033    19.811128     19.76288    20.435515     8001.014    7405.6818     7427.112    7829.3051   -25.276626   -35.501106    -336.1876   -3804.2933 
24855000    141.02686   -4946.0255   -4674.0434   -4946.0255            0     6711.917    19.665015    19.945829    20.551135    8060.8749     6970.409     6929.011    6236.3311   -384.62096    1066.6149    1064.5886   -3884.9931 
24856000    139.37087   -4976.7337   -4707.9452   -4976.7337            0    7777.3229    19.677723    19.819534    20.520708     8003.144    7523.8933    8657.8655      7150.21    240.85377    610.97147    974.56643   -3800.1944 
24857000    135.52357   -4947.1108   -4685.7422   -4947.1108            0    7495.1833    19.615688     19.84069    20.489105    7974.1302    6532.7934    7277.5335    8675.2231   -86.764141    1069.0166   -308.37163   -3814.0936 
24858000    136.94931   -4951.1763   -4687.0581   -4951.1763            0    6567.1481    19.800834    19.801798    20.571846    8066.0586    5473.4183    7232.8788    6995.1473    78.169683    90.711192    362.71922   -3914.5304 
24859000    134.31783   -4961.2361   -4702.1929   -4961.2361            0    5715.9225    19.714867    19.922544    20.608429    8094.3789    5111.9744    6374.9579     5660.835   -206.91009    34.676128     609.7309   -4027.4385 
24860000     140.3717    -4948.718   -4677.9994    -4948.718            0    6779.5492    19.930158    19.680054    20.379767    7993.4865    6798.1592     6872.566    6667.9224    407.12763   -400.11005   -583.29764   -3887.6612 
24861000     136.7967   -4944.6541   -4680.8301   -4944.6541            0    6433.4206    19.677706    19.891022    20.557703     8046.484    6330.6207    6577.1639    6392.4771   -290.47979    761.74488    204.55835   -3925.8701 
24862000    139.23615   -4957.2694   -4688.7407   -4957.2694            0    6338.1754    19.730045    19.897091    20.433392    8021.5467     7106.237    5364.5664    6543.7229     87.52503   -409.90914    325.63536   -3947.2628 
24863000    139.36888   -4978.6502   -4709.8656   -4978.6502            0    6957.8896    19.812595    19.848228    20.377695    8013.4249    7425.0227    5783.8231    7664.8231   -703.44433   -425.77855    -664.2466   -3896.7138 
24864000    133.24778   -4947.6272   -4690.6476   -4947.6272            0    7160.2265    19.718387    19.859023    20.541791    8043.9171    7492.4503    7445.6737    6542.5556   -269.37222    432.68756    631.63637   -3850.6651 
24865000    138.48998   -4954.8477   -4687.7581   -4954.8477            0     9452.037    19.580985    19.765816    20.513371    7939.3749    9463.8145    9997.6634    8894.6332     172.9058    1524.2908    868.20037    -3593.329 
24866000    134.14284   -4969.2336   -4710.5278   -4969.2336            0    6717.5422    19.773724    19.823063    20.417141    8003.0248     6923.474     6161.767    7067.3857   -549.94828    507.39836   -386.58212   -3926.4838 
24867000    138.49852   -4975.5415   -4708.4355   -4975.5415            0    8400.9247    19.631202    19.754882    20.530898    7962.1302    10482.256    6957.1967    7763.3217    608.24934    1383.7534    1468.7167   -3732.9243 
24868000    133.05024   -4958.1396   -4701.5411   -4958.1396            0    8236.3431    19.757443    19.802169    20.418877    7988.6859    7618.1934    8608.8537    8481.9823   -227.80431   -486.00394   -913.86796   -3741.9512 
24869000     134.2116    -4961.965   -4703.1266    -4961.965            0    7947.1865    19.938016    19.842994     20.21607    7998.0824    8302.7561    7303.0841    8235.7194   -111.97907    253.28127    329.19392   -3776.1364 
24870000    135.18304   -4954.7041   -4693.9923   -4954.7041            0    7477.2014    19.699244    19.789217    20.512927    7996.6079     8554.704    6595.7112     7281.189   -523.10668   -205.71693   -82.265362   -3821.9837 
24871000    136.27601   -4980.7198   -4717.9001   -4980.7198            0    7472.5009     19.72678    19.818789    20.588792    8049.4123    7709.0258    7201.3715    7507.1053    126.00589    939.27782   -557.39009   -3840.6851 
24872000    139.91466   -4944.0187   -4674.1815   -4944.0187            0    8379.4559    19.700122     19.76491    20.553654    8002.9992    9805.3577    8580.7036    6752.3063    80.917198    994.46716   -41.535657   -3696.1689 
24873000    142.02539    -4967.914   -4694.0061    -4967.914            0     7136.509    19.681944    19.712258    20.616108    7998.5462    7981.1557    7801.3996    5626.9717   -585.35401    134.68222    40.063357   -3861.5282 
24874000    146.16508   -4971.3068   -4689.4151   -4971.3068            0    7102.7969    19.799925    19.652186    20.551003    7996.6378     7107.499    7838.3154    6362.5764    414.99413    1826.5474    -479.1562   -3861.0673 
24875000    145.71069   -4962.5167   -4681.5014   -4962.5167            0     6628.327    19.724713    19.799066     20.52364    8015.1157    5860.3456    7862.7271    6161.9085   -250.80909   -1146.4129   -97.751766   -3906.7014 
24876000    135.49422   -4971.7852   -4710.4732   -4971.7852            0    8084.6714     19.80187     19.81327    20.322484    7973.3191    8717.3692    6682.9651      8853.68   -282.26377    531.72223    322.52911    -3770.366 
24877000    143.83121   -4981.0583   -4703.6677   -4981.0583            0    6586.0172    19.841664    19.843781    20.434329    8045.6825    6939.6429     5520.056    7298.3527    142.71774   -833.40061    311.65511   -3930.8775 
24878000    139.81094   -4970.4239   -4700.7867   -4970.4239            0    7769.4795    19.971491    19.717751    20.354963    8015.6398     7273.542    9052.6826    6982.2139   -690.05603    416.57993      16.5349   -3792.5355 
24879000    145.24443   -4953.5256   -4673.4095   -4953.5256            0    6887.5508    19.747938    19.853778    20.391604    7994.9598    8324.2414    4924.0153    7414.3956    250.28231    278.53038   -581.44266   -3870.3329 
24880000    131.38232    -4964.095   -4710.7132    -4964.095            0    7415.2136    19.578827     19.88028    20.484107    7973.0814    8340.6645    6942.0165    6962.9599   -543.37081      516.713    -249.7281    -3848.478 
24881000    131.29062   -4962.5014   -4709.2964   -4962.5014            0    9699.8616    19.906141    19.676104    20.304298    7952.6922    9604.5294    9658.2779    9836.7775    227.37219   -908.04883   -512.26474   -3584.2885 
24882000    141.80361   -4949.0286   -4675.5484   -4949.0286            0    7437.8783    19.583362    19.864271    20.551924    7994.8878    7348.7315    7880.2374     7084.666   -94.280076     825.3058   -367.17955   -3808.3123 
24883000    139.33014   -4943.7179    -4675.008   -4943.7179            0    7977.8893    19.657054    19.730672    20.589073    7985.4074    8720.9759    7717.4968    7495.1954   -684.57389    1303.6818   -856.63784   -3745.9111 
24884000    137.27367   -4970.9476   -4706.2038   -4970.9476            0    6833.0079    19.857349    19.780448    20.454291    8034.1847    6698.1939     6456.341    7344.4887    -14.55508    1043.9627    230.95176   -3905.5779 
24885000    139.41801   -4965.5461   -4696.6668   -4965.5461            0    7273.4907    19.790588    19.658866     20.54211    7992.1236    6708.1546     7935.152    7177.1655    241.21641   -629.32745   -1548.5644    -3848.891 
24886000    143.52372    -4969.597   -4692.7995    -4969.597            0    6850.8159    19.658209     19.82146    20.594058    8024.5655    7802.6457    6443.4277    6306.3743   -387.94812    210.50912     1034.524   -3891.0481 
24887000    136.50719   -4968.6974   -4705.4318   -4968.6974            0    6972.5046    19.778135    19.778176     20.55088    8038.9994    7141.3989    7043.7086    6732.4064   -167.99239   -269.93789   -325.27501   -3887.9715 
24888000    137.39706   -4970.8303   -4705.8485   -4970.8303            0    7693.3416    19.750575    19.907187    20.413685    8026.2197    8552.9395    7005.4411    7521.6443   -483.48052   -461.39359    754.33084   -3805.3107 
24889000    133.05431   -4975.8551   -4719.2487   -4975.8551            0    8586.3961    19.842019    19.848278    20.256504    7977.6175    8119.1292    8516.9053    9123.1538    -476.1679    919.93724    -1032.502   -3720.2613 
24890000    143.39306   -4962.8477   -4686.3021   -4962.8477            0     8184.835    19.720802    19.717045    20.549154    7990.2499    8030.3677    8775.5825    7748.5547    334.95316    44.897937    1307.2988   -3732.5266 
24891000    134.69098   -4961.3588   -4701.5959   -4961.3588            0    6460.4129    19.793847    19.767596     20.56761    8047.6278    6440.5731     6811.356    6129.3096    50.968199   -878.78421    503.28991   -3943.3606 
24892000    133.58229   -4951.0711   -4693.4464   -4951.0711            0     7896.983    19.900453      19.8095    20.273031    7991.9941    9202.9135    7400.8296    7087.2059   -33.736586    386.99119    397.59538   -3773.0132 
24893000    137.22448   -4959.8947   -4695.2457   -4959.8947            0    7495.9192     19.80712    19.772696    20.378569    7981.0659    6826.4106    7618.4577    8042.8893    38.972019    11.084474    920.46578   -3822.7533 
24894000    139.77388   -4962.1391   -4692.5734   -4962.1391            0    7591.2863    19.855359    19.792793    20.378332    8008.5421    6329.8016    7921.1737    8522.8835    149.40342    1183.4286    314.35173   -3805.9387 
24895000     139.5533   -4968.0364   -4698.8961   -4968.0364            0    7549.1566    19.745735    19.701037    20.643274    8030.4702    8240.8542    7446.4276     6960.188   -220.71537    110.52999    338.15322   -3814.7678 
24896000    133.79675   -4962.5848   -4704.5465   -4962.5848            0    8502.6393    19.848935    19.685381     20.49365    8007.5623    7674.5124    8842.6978    8990.7077   -18.682122    773.40496    1223.1704   -3711.5906 
24897000    140.62893   -4983.2663   -4712.0516   -4983.2663            0    7105.6281    19.800532    19.885219    20.346135    8011.0447    6417.4255    7226.3414    7673.1174   -184.72617    969.63998   -19.098066   -3881.8807 
24898000    137.49961   -4965.6744   -4700.4948   -4965.6744            0     7940.363    19.824134    19.754059    20.296717    7948.3387    8175.9618    8370.8095    7274.3177   -675.47884   -579.41884   -1236.9099   -3780.0609 
24899000    142.54038   -4961.1286   -4686.2275   -4961.1286            0    7323.0023    19.898512    19.826008    20.394187    8045.6714    7388.3868    7077.4776    7503.1426    -381.7956    197.27336    848.74152    -3826.962 
24900000    139.60406   -4964.8947   -4695.6565   -4964.8947            0    7761.9528     19.83077    19.655061    20.467229    7977.6144    7461.1522    8188.9465    7635.7596   -123.96532   -11.520619    622.11523   -3792.5896 
24901000     138.5811   -4936.1064   -4668.8411   -4936.1064            0    8458.2097    19.821109    19.768462    20.321778      7962.74    8268.3879    7996.2002    9110.0409   -281.82538    406.66165    250.50734   -3686.6028 
24902000    143.54269   -4966.6292   -4689.7951   -4966.6292            0    6715.7899    19.966319     19.56715    20.597398    8047.0733     5316.765    8053.8773    6776.7275    10.777543   -957.32056    2.8478765   -3901.6413 
24903000    136.94303   -4964.0571    -4699.951   -4964.0571            0    7157.8214    19.768348    19.853308    20.421187    8014.6442    7855.4097    6142.0641    7475.9905   -365.10536   -227.47586     31.30297   -3863.3064 
24904000    136.94103   -4967.5161   -4703.4138   -4967.5161            0    6687.8288    19.930258    19.845259    20.350052    8048.8756    5904.9539    6483.9992    7674.5332   -85.385768    266.43639    1.5055101   -3918.3658 
24905000    139.45943   -4972.5704   -4703.6112   -4972.5704            0    6138.8555    19.862091    19.737649    20.536258    8050.8494    6289.6976      6583.74     5543.129    493.72782   -290.06603    154.16797   -3982.8274 
24906000    138.81933   -4976.9148     -4709.19   -4976.9148            0     6896.015    19.754069    19.709973    20.630108    8032.3774    6790.0301    7834.4463    6063.5687    270.88144   -162.13234    594.72907   -3901.3633 
24907000    140.38334   -4961.8553   -4691.1142   -4961.8553            0    6039.6393    19.606865    19.850625    20.569524     8005.834    6926.2821    6505.2291    4687.4066   -110.15143    112.92148   -10.623022   -3985.9447 
24908000     136.1917    -4979.665   -4717.0078    -4979.665            0    6547.9195    19.854076    19.891617      20.3206     8025.208    8106.0699    4620.7368    6916.9517    275.76936    102.17182   -237.04988   -3950.6431 
24909000    135.25273   -4964.6041   -4703.7579   -4964.6041            0    7327.1306    19.601194    19.852195    20.478631    7968.7824    8194.1293     6974.346    6812.9165   -769.12126   -540.31372    958.90598   -3852.2243 
24910000    139.74832   -4962.1796   -4692.6632   -4962.1796            0    6812.3169    19.828249    19.656222    20.600107    8028.8598    6505.6011     7033.467    6897.8825    12.917637    123.75581   -1670.4179   -3894.9907 
24911000    132.41302    -4961.516   -4706.1464    -4961.516            0    7141.7424    19.965211    19.691814    20.354575    8002.4258    7294.0233    6338.0387    7793.1653    43.992722    190.62784    634.41122   -3872.6538 
24912000    130.37717   -4943.5991   -4692.1558   -4943.5991            0    7508.3334    19.830377    19.788824    20.402942    8006.5193    7242.4963    7534.7828    7747.7212    191.84424    477.36922     1483.236   -3815.4312 
24913000    137.21376    -4959.985   -4695.3567    -4959.985            0    5991.8624    20.069502    19.737325    20.377916    8072.0651    6215.6404     6639.676    5120.2709     446.6007   -18.025165    653.09596    -3989.978 
24914000    139.47785   -4968.9257    -4699.931   -4968.9257            0    8509.8365    19.765024    19.784953    20.357224    7960.6939    9708.8325    7068.7584    8751.9185    359.58849   -158.92276   -38.924314   -3711.9512 
24915000    142.03787    -4972.341    -4698.409    -4972.341            0    6061.6719     19.76499    19.736077    20.567404    8023.0022     6343.175    6040.8025    5801.0381   -236.59171    1483.6376   -679.49662   -3989.1494 
24916000    142.46183    -4967.179   -4692.4294    -4967.179            0    5927.9736    20.021074     19.89737     20.29685    8085.5897    5404.3625    5433.4536    6946.1048    242.75835    32.336678   -31.160734   -3993.4026 
24917000    143.93484   -4969.3793   -4691.7888   -4969.3793            0    8600.9843    19.773807    19.821075     20.39981    7995.4629    6479.6828    9887.6284    9435.6416   -488.82659   -31.736909    890.56954   -3688.8657 
24918000    147.67484   -4961.7788   -4676.9754   -4961.7788            0    7483.5856    19.773136    19.834443    20.436452    8014.9542     8088.241    7095.5077    7267.0081   -665.63174    -586.6707   -694.33242   -3802.2199 
24919000    138.86774   -4948.6529   -4680.8348   -4948.6529            0    5688.5035    19.911076    19.800326    20.468165    8069.4878      5369.56    5448.2722    6247.6784   -423.39173    51.558553   -720.25123   -4011.3821 
24920000    139.11779   -4955.3841   -4687.0838   -4955.3841            0    8397.5252    19.723633    19.769651    20.409532    7958.2756    9784.8511    6326.3315    9081.3928   -322.04214   -1277.4793    701.00845   -3712.4394 
24921000    146.31861   -4967.6373   -4685.4495   -4967.6373            0    6553.6914     19.83397    19.652102     20.52435     7999.965    5951.5644    7511.6425    6197.8673   -347.53414    1304.7784    408.13103   -3920.8219 
24922000    133.78205   -4959.0236   -4701.0137   -4959.0236            0    7182.1484    19.805013    19.810793    20.373159    7993.4706     6942.991     6966.385    7637.0692    46.226909    2079.9553    931.45812   -3863.7435 
24923000    136.12825   -4976.6242   -4714.0894   -4976.6242            0    6028.1105    19.939691    19.743865    20.430017    8043.0233    5741.7342      6088.62    6253.9774    653.12691    576.14848   -295.17789   -4006.9966 
24924000    143.92806   -4972.7301   -4695.1527   -4972.7301            0    6662.7803    19.961623     19.81469    20.316111       8035.7    5564.5554     7788.673    6635.1123   -608.80995    410.19649   -216.90599   -3914.3252 
24925000    141.36694   -4975.4598   -4702.8218   -4975.4598            0    6577.3178    19.879079    19.835429    20.376496    8034.6571    6158.5799    6359.6673    7213.7061   -134.00372    544.95356    471.24795   -3932.1099 
24926000    138.26005   -4977.1486   -4710.5024   -4977.1486            0    6232.6726    19.782478    19.887218    20.351378    8006.6081    5944.7227    5872.5583    6880.7369    146.70161    346.70515     651.1129   -3982.7247 
24927000    140.77836   -4965.2112   -4693.7083   -4965.2112            0    7016.6665    19.883968    19.781128    20.434506    8037.4499    7106.9342    6528.4809    7414.5843   -97.049093    641.99833   -1183.1842   -3871.2289 
24928000    136.40237   -4960.9948   -4697.9314   -4960.9948            0    6751.8612    19.811789    19.804961    20.497617    8042.6851    6378.6628    7364.6484    6512.2722   -197.10957   -884.88371    620.09968   -3905.9765 
24929000    138.97911   -4954.3284   -4686.2955   -4954.3284            0    7270.5118    19.626106    19.893477     20.60681    8045.5471    8925.7916    6153.4912    6732.2526    213.73258    1310.2059   -531.08966   -3833.2024 
24930000      142.621    -4962.684   -4687.6274    -4962.684            0    7580.6993    19.829661    19.728001    20.523619    8028.8311    7822.8128    8437.9088    6481.3761    -377.3967    657.49434   -77.420525   -3799.9862 
24931000    139.97807    -4967.662   -4697.7026    -4967.662            0    7907.9749    19.957146    19.755921    20.278805    7995.3609    6506.0505    9187.9775    8029.8967    521.55135    757.32755   -1204.2446      -3775.6 
24932000    137.39468   -4960.5372     -4695.56   -4960.5372            0    6637.5362    19.931575    19.814067    20.293106    8014.2667      5746.34     7560.751    6605.5177    24.057393    51.557484    57.426427   -3919.7657 
24933000    138.80743   -4974.4032   -4706.7014   -4974.4032            0    8070.8855    19.849748    19.704995     20.43366    7992.4051    8745.5456      7927.53    7539.5808    501.15387   -569.36469    616.83991   -3765.9507 
24934000    135.50773   -4967.1053   -4705.7672   -4967.1053            0    8692.4373    19.902832    19.575856    20.397377    7947.1233    8439.0729    8245.5371     9392.702    440.95607   -232.68044     193.7569   -3698.3082 
24935000    141.10119   -4964.5295    -4692.404   -4964.5295            0    5416.8557    19.952742    19.816441    20.456747    8088.4408    5110.3471      5186.57    5953.6498     -167.885   -599.00398   -723.57581   -4053.4229 
24936000    141.38611   -4948.4936   -4675.8186   -4948.4936            0    8268.7593     19.52145    19.894336    20.502594    7962.5162    8297.7829    7860.8848    8647.6101   -344.49621   -882.52036    325.47533   -3715.6079 
24937000    133.80328   -4960.4069    -4702.356   -4960.4069            0    6610.9694    19.757256    19.933377    20.401995    8034.8941    6649.2618    6420.2392    6763.4074    59.916498   -161.03142    -1451.938    -3927.678 
24938000    135.86918   -4952.2684   -4690.2333   -4952.2684            0    7079.8794    19.808248    19.827829    20.415165    8018.1488    5822.0735    7444.9812    7972.5835   -158.64898     532.2401    153.06304   -3862.3371 
24939000    136.51648   -4978.9475    -4715.664   -4978.9475            0    6899.8549    19.776254    19.749345    20.630151     8057.478    7017.2534    7518.2501    6164.0613   -120.75954   -256.04156   -297.20459   -3904.8616 
24940000    139.20127   -4940.2531   -4671.7918   -4940.2531            0    8313.6743    19.744419     19.71532    20.561909    8004.0837     8001.596    8714.1207    8225.3061   -534.06503   -307.16603    346.55931   -3701.3253 
24941000    137.81469   -4964.4627   -4698.6754   -4964.4627            0    6063.7999    19.913983    19.815753    20.398869    8049.6093    4725.4113    7749.4182    5716.5702   -225.17714    455.47136   -490.39128   -3986.8139 
24942000    145.75778   -4971.6452   -4690.5391   -4971.6452            0    6814.1782    19.645403    19.910762    20.493561    8016.1575    6747.0259    7590.0417    6105.4669    152.70443   -393.48759    494.41169    -3893.911 
24943000     135.6849   -4959.3696   -4697.6899   -4959.3696            0    7428.3243    19.716636      19.8143     20.61137    8052.2716    7482.7704    7375.5162    7426.6863   -323.46995   -673.52812   -259.85473   -3825.3512 
24944000    145.43882    -4958.611     -4678.12    -4958.611            0    7788.0117    19.687761    19.872907    20.420927    7989.7499    9600.3297    6734.7441    7028.9614   -37.778758    446.22847   -759.97652   -3770.6429 
24945000    137.71365   -4956.9932   -4691.4009   -4956.9932            0    7680.8404    19.984233    19.545872    20.513891    8012.9159    7764.4638    8324.7614    6953.2959   -193.81894    463.07825   -166.56378   -3793.8167 
24946000    140.11106   -4971.0932   -4700.8772   -4971.0932            0    6499.1941    19.749707     19.81481    20.494061    8020.0777    6269.3029    6297.9941    6930.2853   -112.10273    -412.9106    395.08652   -3940.7016 
24947000    135.25026   -4948.3238   -4687.4823   -4948.3238            0    7614.6218    19.765794    19.612837    20.569095     7973.883    8017.0526    8032.4145    6794.3984   -121.83755    247.92504    349.02224    -3801.971 
24948000    138.56751   -4963.2432   -4696.0041   -4963.2432            0    7400.7428    19.889111    19.779974    20.410937    8029.7877    6361.0014     7648.585     8192.642    168.94097   -807.31695   -252.70445   -3829.3311 
24949000    136.10323   -4945.9494   -4683.4629   -4945.9494            0    6704.1129     19.94371    19.792067    20.389639    8048.3461    5204.1818    7575.4137    7332.7433   -303.65307   -269.05132    396.64979   -3896.5551 
24950000     131.6843   -4949.4005   -4695.4363   -4949.4005            0    7412.8392    19.870242    19.550039    20.480076    7955.7724     6934.503     7385.806    7918.2086    271.88689    133.52571    129.41098   -3835.3484 
24951000    136.81979   -4962.9756   -4699.1071   -4962.9756            0    7149.3565    19.695413    19.774833    20.540081    7999.8172    7804.4388    6335.2142    7308.4164   -152.40896    281.01067   -311.85484    -3864.998 
24952000    140.08418   -4961.7041     -4691.54   -4961.7041            0    7718.8332    19.751579    19.793666    20.427653    7986.3167    7608.0359    7907.6595    7640.8041   -257.35944    609.24762     200.9319   -3792.5102 
24953000     133.4425   -4968.2013   -4710.8462   -4968.2013            0    6921.6912    19.833994    19.757013    20.501908    8033.8876    5191.9243    8171.6184    7401.5309    4.7150619    242.69967   -491.96671   -3899.8593 
24954000    135.94454   -4971.0484   -4708.8679   -4971.0484            0    6831.3243    19.760849    19.746948    20.502141    8000.2726    7074.6952    7144.5787     6274.699   -153.56844    4.7047942   -148.13368   -3911.8179 
24955000    130.77334   -4962.7567   -4710.5493   -4962.7567            0    7021.0734     19.63242    19.816187    20.542901    7992.0038    6970.5418    7683.1509    6409.5274    88.242282    330.94041    1648.6869   -3892.2069 
24956000    132.25358   -4967.8345   -4712.7724   -4967.8345            0    7707.8257    19.758098    19.788578     20.52069    8023.2749    9295.5726    6123.3367    7704.5679    179.63965    233.03017   -1189.3881   -3810.8702 
24957000    139.50926   -4960.9536   -4691.8983   -4960.9536            0    8438.9536    19.847009    19.665333    20.446781    7980.3385    8601.3356    8905.8802    7809.6449   -240.48681   -230.85394    -475.9252   -3709.7302 
24958000    138.78332   -4956.8599   -4689.2046   -4956.8599            0    7814.5565    19.942795    19.734742    20.280728     7981.803     6604.244    8835.6786    8003.7471   -60.268868   -192.02761   -483.50055   -3779.5401 
24959000    137.14019   -4958.9346   -4694.4482   -4958.9346            0    7002.6561     19.84075    19.694483    20.446057    7989.3647    7424.0386    6470.2137     7113.716   -429.11885     472.7085   -383.07902   -3878.5219 
24960000    142.58931   -4952.3844   -4677.3889   -4952.3844            0    7670.2977    19.806603    19.773101    20.444106    8006.6881    7637.5829    7122.7562    8250.5538   -250.77092    951.94776    462.89349   -3781.7334 
24961000    142.38595   -4959.0551   -4684.4518   -4959.0551            0    8811.2796    19.890235    19.778634    20.258675    7969.7969    9168.1162    8642.0903    8623.6324    278.32523    226.64536   -110.78922   -3660.3052 
24962000     140.9542   -4960.5645   -4688.7225   -4960.5645            0    8319.4113    19.750012    19.827845    20.288906    7945.1395    8495.1127    8117.9326    8345.1886   -300.28495     15.62905   -673.84658    -3724.738 
24963000    138.26926   -4943.3201   -4676.6562   -4943.3201            0     7286.025    19.850891    19.824434     20.35339    8009.7244    7940.4295    6183.4476    7734.1979    538.46894     1023.846   -180.69377   -3825.5493 
24964000    137.59454   -4954.6702   -4689.3076   -4954.6702            0    7259.2619    19.749245    19.675848    20.526921    7976.4158    8331.9241    7437.4461    6008.4156    -73.84383    459.09512    437.93081   -3844.8533 
24965000    133.27281   -4978.1689   -4721.1411   -4978.1689            0    7533.5384    19.797833    19.774308    20.464564    8011.6407    7955.1573     7166.822    7478.6359    17.746704    -117.0299   -1018.4758   -3840.9107 
24966000    134.12883   -4961.5119   -4702.8332   -4961.5119            0    7909.3073    19.653979    19.887361    20.429195    7985.0732    8726.2357    8393.4389    6608.2474    365.95009     635.2581    -465.3502   -3781.7619 
24967000    133.20589   -4973.3468    -4716.448   -4973.3468            0    8198.5658    19.861949    19.818649    20.352871    8011.6432    6946.3411    8972.3426    8677.0138   -614.49047    316.98198   -99.333247   -3758.5145 
24968000    138.01749   -4957.2531   -4691.0747   -4957.2531            0    5105.2281    19.800369    19.998589    20.449029    8097.3951    5025.1045    5545.6498    4744.9299   -60.630506    911.88563    1118.4813   -4088.1871 
24969000    140.99604   -4959.7409   -4687.8182   -4959.7409            0    7536.1708    19.754206    19.732215    20.463881    7976.7029    6520.9129    7778.4337    8309.1658    41.348953   -1429.1949   -89.091147   -3811.1201 
24970000    129.90247   -4960.7034   -4710.1756   -4960.7034            0    7904.8082    19.965937    19.712195    20.352139    8010.0414    8477.9912    7821.4677    7414.9656   -450.26952    810.71888   -176.92639   -3786.7498 
24971000    141.18636   -4970.3112   -4698.0214   -4970.3112            0    7957.1982    19.980272    19.635214    20.336113     7978.201    6210.8405    9320.0851     8340.669   -3.5550382    174.02705   -956.49088   -3772.1705 
24972000    137.51781   -4974.8322   -4709.6175   -4974.8322            0    6829.7864    19.742757    19.753547    20.561424    8018.7389    7711.2364    7504.8388     5273.284   -101.66472    784.31182    246.54191   -3910.9076 
24973000    140.36208   -4977.8999   -4707.1998   -4977.8999            0    7343.7976    19.725429    19.689152    20.604352    8002.2559    6422.0801    9531.2063    6078.1063   -365.77307    268.55586   -644.95872   -3850.1442 
24974000    137.36117   -4961.9958   -4697.0833   -4961.9958            0     7465.312    19.861025    19.866042    20.299313     8009.296    7315.9886    6422.2545    8657.6928    340.34353    874.35659    235.64306   -3825.0798 
24975000    140.31232   -4978.4646   -4707.8605   -4978.4646            0    7728.6436    19.750512    19.793836    20.453574    7996.0874    6781.2153    8614.5439    7790.1715    541.19695    138.75552   -853.69344   -3806.5868 
24976000     138.4054   -4967.2228   -4700.2964   -4967.2228            0    6754.0856    19.698026     19.86831    20.576368    8052.9009    7032.9855    6373.3951    6855.8763    186.72896   -15.162831   -147.57695   -3907.0743 
24977000    145.44056   -4949.4296   -4668.9353   -4949.4296            0    6443.8028     19.68452    19.874579    20.654248    8080.3869    6799.5856    6510.6003    6021.2227   -22.215024    504.44476    -519.5984   -3909.5708 
24978000    146.37889   -4958.1415   -4675.8375   -4958.1415            0    8761.5112    19.754387    19.804665    20.381985    7974.0242     8563.366    9129.9577      8591.21   -405.18761    28.649443   -192.03438   -3656.9354 
24979000    142.49697   -4960.2124    -4685.395   -4960.2124            0    8596.7328    19.694093    19.898167    20.367909    7981.7016    9583.5694    7939.5646    8267.0644   -433.43765   -149.20589   -668.25496   -3684.6929 
24980000    146.76462   -4957.2467   -4674.1988   -4957.2467            0    7253.7922    19.859762    19.888789       20.254    8000.0589    7550.1257    6276.5079     7934.743    13.749333   -641.05859   -44.765721   -3827.8796 
24981000    144.71044   -4965.9415   -4686.8552   -4965.9415            0     6544.738    19.783086    19.934477    20.380424    8037.3357     6545.639     6694.322     6394.253   -283.46993   -220.71852    647.27119   -3919.7053 
24982000    141.12877   -4966.6984   -4694.5197   -4966.6984            0    6285.5646    19.902278     19.59357    20.580605    8025.5447    5968.4705    7618.7596    5269.4636   -62.454227   -978.70364    845.69009     -3958.83 
24983000    137.95277   -4968.6901   -4702.6366   -4968.6901            0    8075.0701    19.805614    19.736585    20.486548    8008.0926    8527.0752    7186.2712    8511.8638    44.063775   -1065.7112   -299.04944   -3759.5507 
24984000    141.55344   -4961.8606   -4688.8629   -4961.8606            0    7000.8238    19.795575    19.777923    20.540372    8041.8713     7239.287    7474.2776    6288.9069    89.389615    459.94372    746.95403   -3867.7892 
24985000      138.525   -4980.3461    -4713.189   -4980.3461            0    5935.1428    19.715044    19.760092     20.63778     8039.882    6828.9577    6875.7758    4100.6948   -484.01333   -356.49136   -227.60627   -4017.2731 
24986000    132.62401   -4964.5183   -4708.7417   -4964.5183            0    5919.4409    19.762184    19.852039    20.491865     8039.361    5946.4813    5928.5683    5883.2732    35.402905    116.97903    351.06498   -4014.7119 
24987000    134.36448    -4953.135   -4694.0018    -4953.135            0    6823.5972    19.582457    19.936554    20.495253    8001.4847      8992.14    5238.1751    6240.4766    72.597382    1523.6734    176.74957   -3897.7327 
24988000     133.8045   -4939.5612    -4681.508   -4939.5612            0    7336.5002    19.505089    19.863039    20.576621    7972.0075    7904.3222    8299.4241    5805.7544   -40.800503    -539.1742   -794.97366   -3828.5404 
24989000    130.44411    -4950.732   -4699.1595    -4950.732            0     7009.604    19.816782    19.739914    20.528538    8030.3854    8030.7996    6232.0952    6765.9171   -236.00301    690.54224   -336.67503   -3878.2302 
24990000    141.81232   -4960.3627   -4686.8657   -4960.3627            0    6796.4878     19.65791    19.908531    20.443804    8000.8895    8343.7371    5661.2439    6384.4822    509.68635    856.31808    565.06123   -3893.8191 
24991000    130.07995   -4956.3602   -4705.4901   -4956.3602            0    6928.2602    19.801266    19.566497    20.696515    8018.6867    6095.6303    7791.4671    6897.6832   -369.02009    244.47219   -608.03882   -3895.2694 
24992000    139.26126   -4964.8965   -4696.3195   -4964.8965            0    7866.2164    19.608619    19.834619    20.574508    8002.0333    7522.4202    9116.5832    6959.6458   -182.81558   -194.72054    69.844477   -3778.3206 
24993000    134.34341   -4947.3338   -4688.2413   -4947.3338            0    7249.9958    19.779977    19.806664    20.491045    8027.8864    7396.8597    5896.1663    8456.9615   -444.69965    597.14375    679.88989   -3839.4227 
24994000     140.9186   -4957.0194    -4685.246   -4957.0194            0     7051.902    19.758817    19.888418    20.413489    8021.9216    7460.6541    6298.3389    7396.7128    219.73749    1173.1194    1198.6923   -3860.2334 
24995000    148.04423    -4959.753   -4674.2373    -4959.753            0    6642.5141    19.871749    19.736301    20.486899    8034.8559    6847.0433    6567.8523    6512.6468    65.313317    103.38451   -1971.1687   -3895.8666 
24996000    148.06308   -4970.4232   -4684.8711   -4970.4232            0    6933.7868    19.664557     19.90884    20.456598    8008.7278    7806.7655    5206.9487    7787.6462   -94.857235    271.91045    446.73406   -3875.0112 
24997000     139.8068   -4963.0552    -4693.426   -4963.0552            0     8048.535    19.591406    19.868327     20.43728    7955.1797    9713.7087     6777.919    7653.9772   -288.48331    953.71648    -265.5475     -3759.65 
24998000    144.27754   -4957.6371   -4679.3857   -4957.6371            0    7478.2507    19.829854    19.870952    20.276579    7989.7446    7778.5098    5940.0626    8716.1798   -244.48662     1013.301    807.59858   -3808.0033 
24999000    131.21976   -4964.6347   -4711.5664   -4964.6347            0    7079.9075    19.844313    19.842939    20.462287    8057.4244    7220.8089    7084.9096    6934.0042   -112.09801   -67.555069   -186.92277   -3879.6116 
25000000    140.51023   -4938.2589   -4667.2731   -4938.2589            0    8574.7316    19.519412    19.746358     20.66194    7963.8825    9667.9156    9241.7518    6814.5274   -412.65909    355.54735    1795.1732   -3671.3604 
Loop time of 385.091 on 64 procs for 250000 steps with 972 atoms

Performance: 112.181 ns/day, 0.214 hours/ns, 649.197 timesteps/s
193.9% CPU use with 32 MPI tasks x 2 OpenMP threads

MPI task timing breakdown:
Section |  min time  |  avg time  |  max time  |%varavg| %total
---------------------------------------------------------------
Pair    | 29.188     | 36.297     | 52.169     |  80.9 |  9.43
Bond    | 1.051      | 1.231      | 2.121      |  17.4 |  0.32
Kspace  | 162.86     | 181.21     | 193        |  46.4 | 47.06
Neigh   | 1.0441     | 1.1355     | 1.278      |   6.7 |  0.29
Comm    | 64.582     | 70.617     | 75.026     |  31.3 | 18.34
Output  | 0.4812     | 0.48147    | 0.48276    |   0.0 |  0.13
Modify  | 74.44      | 76.201     | 79.414     |  12.1 | 19.79
Other   |            | 17.92      |            |       |  4.65

Nlocal:        30.3750 ave          36 max          25 min
Histogram: 3 2 6 3 4 2 3 3 3 3
Nghost:        2728.53 ave        2770 max        2687 min
Histogram: 2 2 4 3 5 5 5 2 1 3
Neighs:        9846.56 ave       12704 max        7676 min
Histogram: 3 4 4 5 3 6 2 2 2 1

Total # of neighbors = 315090
Ave neighs/atom = 324.16667
Ave special neighs/atom = 2.0000000
Neighbor list builds = 3003
Dangerous builds = 0

unfix		3
unfix		2
unfix		1

write_data	data.final.${pid}
write_data	data.final.1
System init for write_data ...
PPPM initialization ...
  extracting TIP4P info from pair style
  using 12-bit tables for long-range coulomb (../kspace.cpp:340)
  G vector (1/distance) = 0.37360434
  grid = 24 24 25
  stencil order = 5
  estimated absolute RMS force accuracy = 0.0032641667
  estimated relative force accuracy = 9.829941e-06
  using double precision FFTW3
  3d grid and FFT values/proc = 3458 576
Last active /omp style is kspace_style pppm/tip4p/omp
WARNING: Not all mixed pair coeffs generated from mixing. Use write_data with 'pair ij' option to store all pair coeffs. (../write_data.cpp:312)

write_restart   restart.lmp.${pid}
write_restart   restart.lmp.1
System init for write_restart ...
PPPM initialization ...
  extracting TIP4P info from pair style
  using 12-bit tables for long-range coulomb (../kspace.cpp:340)
  G vector (1/distance) = 0.37360434
  grid = 24 24 25
  stencil order = 5
  estimated absolute RMS force accuracy = 0.0032641667
  estimated relative force accuracy = 9.829941e-06
  using double precision FFTW3
  3d grid and FFT values/proc = 3458 576
Last active /omp style is kspace_style pppm/tip4p/omp
Total wall time: 0:06:25
