LAMMPS (30 Jul 2021)
  using 1 OpenMP thread(s) per MPI task
package omp 0
using multi-threaded neighbor list subroutines
echo both

include		in.partitions
variable        pid world 0
include		in.temp
variable        temperature equal 231.02
variable	tempDamp equal 100.0
include		in.pressure
variable        pressure equal 3125.0
variable        pressureDamp equal 1000.0 # This is 1 ps
include		in.seed
variable        seed world 745823

units		real
atom_style	full
read_restart    restart.lmp.${pid}
read_restart    restart.lmp.0
Reading restart file ...
  restart file = 30 Jul 2021, LAMMPS = 30 Jul 2021
  restoring atom style full from restart
  triclinic box = (-3.2915798 -0.20826797 -0.086582570) to (14.901579 22.788267 19.316581) with tilt (-0.22859115 -6.8867806 0.30117257)
  4 by 4 by 4 MPI processor grid
  restoring pair style lj/cut/tip4p/long/omp from restart
  restoring bond style harmonic/omp from restart
  restoring angle style harmonic/omp from restart
  1008 atoms
  672 bonds
  336 angles
Finding 1-2 1-3 1-4 neighbors ...
  special bond factors lj:    0        0        0       
  special bond factors coul:  0        0        0       
     2 = max # of 1-2 neighbors
     1 = max # of 1-3 neighbors
     1 = max # of 1-4 neighbors
     2 = max # of special neighbors
  special bonds CPU = 1.247 seconds
  read_restart CPU = 1.505 seconds

include 	in.setup
variable	out_freq equal 1000
variable	out_freq2 equal 10000
variable	out_freq3 equal 1000

timestep	2.0

neigh_modify    delay 7 every 1

include		in.tip4p
# This is TIP4P/Ice

# create groups ###
group ox type 2
336 atoms in group ox
group hy type 1
672 atoms in group hy

# set charges - beside manually ###
set group ox charge -1.1794
Setting atom values ...
  336 settings made for charge
set group hy charge 0.5897
Setting atom values ...
  672 settings made for charge

# ### TIP3P Potential Parameters ###
pair_style lj/cut/tip4p/long/omp 2 1 1 1 0.1577 8.5
pair_coeff 1 1*2 0.000 0.000
pair_coeff 2 2 0.21084 3.1668
bond_style  harmonic
bond_coeff  1 450 0.9572
angle_style harmonic
angle_coeff 1 55 104.52
kspace_style pppm/tip4p/omp 1.0e-5
pair_modify tail yes

thermo          ${out_freq}
thermo          1000
thermo_style    custom step temp pe etotal epair emol press lx ly lz vol pxx pyy pzz pxy pxz pyz enthalpy

restart 	${out_freq3} restart.lmp.${pid} restart2.lmp.${pid}
restart 	1000 restart.lmp.${pid} restart2.lmp.${pid}
restart 	1000 restart.lmp.0 restart2.lmp.${pid}
restart 	1000 restart.lmp.0 restart2.lmp.0


include         in.dump
dump            myDump all atom ${out_freq2} dump.water.${pid}
dump            myDump all atom 10000 dump.water.${pid}
dump            myDump all atom 10000 dump.water.0
dump            myDump2 all dcd ${out_freq2} dump.dcd
dump            myDump2 all dcd 10000 dump.dcd
dump_modify     myDump append yes
dump_modify     myDump2 append yes


variable natoms 	equal  "count(all)"                        # NUMBER ATOMS
variable H      	equal  "enthalpy/v_natoms"                 # ENTHALPY-per-atom
variable Vol      	equal  "vol/v_natoms"                 # volume-per-atom
fix AVG all 		ave/time ${out_freq} 1 ${out_freq} v_Vol v_H file vol_enthalpy.dat
fix AVG all 		ave/time 1000 1 ${out_freq} v_Vol v_H file vol_enthalpy.dat
fix AVG all 		ave/time 1000 1 1000 v_Vol v_H file vol_enthalpy.dat



fix 		1 all shake 1e-6 200 0 b 1 a 1
       0 = # of size 2 clusters
       0 = # of size 3 clusters
       0 = # of size 4 clusters
     336 = # of frozen angles
  find clusters CPU = 0.167 seconds
fix             2 all nph tri ${pressure} ${pressure} ${pressureDamp}
fix             2 all nph tri 3125 ${pressure} ${pressureDamp}
fix             2 all nph tri 3125 3125 ${pressureDamp}
fix             2 all nph tri 3125 3125 1000
fix             3 all temp/csvr ${temperature} ${temperature} ${tempDamp} ${seed}
fix             3 all temp/csvr 231.02 ${temperature} ${tempDamp} ${seed}
fix             3 all temp/csvr 231.02 231.02 ${tempDamp} ${seed}
fix             3 all temp/csvr 231.02 231.02 100 ${seed}
fix             3 all temp/csvr 231.02 231.02 100 745823


run             250000
PPPM initialization ...
  extracting TIP4P info from pair style
  using 12-bit tables for long-range coulomb (../kspace.cpp:340)
  G vector (1/distance) = 0.38287271
  grid = 24 30 36
  stencil order = 5
  estimated absolute RMS force accuracy = 0.0019849052
  estimated relative force accuracy = 5.9774831e-06
  using double precision FFTW3
  3d grid and FFT values/proc = 4320 480
Last active /omp style is kspace_style pppm/tip4p/omp
Neighbor list info ...
  update every 1 steps, delay 7 steps, check yes
  max neighbors/atom: 2000, page size: 100000
  master list distance cutoff = 10.8154
  ghost atom cutoff = 10.8154
  binsize = 5.4077, bins = 5 5 4
  1 neighbor lists, perpetual/occasional/extra = 1 0 0
  (1) pair lj/cut/tip4p/long/omp, perpetual
      attributes: half, newton on, omp
      pair build: half/bin/newton/tri/omp
      stencil: half/bin/3d/tri
      bin: standard
Per MPI rank memory allocation (min/avg/max) = 9.353 | 9.360 | 9.367 Mbytes
Step Temp PotEng TotEng E_pair E_mol Press Lx Ly Lz Volume Pxx Pyy Pzz Pxy Pxz Pyz Enthalpy 
15500000    229.79357   -4850.2232   -4390.6077   -4850.2232            0    3500.9849    18.193159    22.996535    19.403163    8117.8878     2634.621    3600.5635    4267.7703   -879.03197   -384.19916   -737.80128   -3976.1223 
15501000    219.91716   -4865.1654   -4425.3039   -4865.1654            0    1915.9273     18.10875    23.084743    19.470855    8139.5154    1321.5066    2954.8216    1471.4536    303.69342    941.61178    230.77779   -4197.8709 
15502000    237.56324   -4897.3805   -4422.2247   -4897.3805            0    1208.1756    18.211978    22.948255    19.637185    8207.0297    351.81592     1158.555    2114.1559   -183.15163   -278.26011   -190.49225   -4277.6168 
15503000    230.39906   -4887.8198   -4426.9932   -4887.8198            0    3498.3495    18.238237     22.91084    19.381049    8098.4356    2544.9079    4337.1543    3612.9865    1178.3279    714.05888    554.72275   -4013.8123 
15504000    215.74836    -4888.944   -4457.4206    -4888.944            0    365.78205    18.118273    23.213133    19.488689     8196.589   -411.83506   -16.212011    1525.3932   -587.76543    -270.6959    15.053083   -4413.6955 
15505000    230.80771   -4881.7709    -4420.127   -4881.7709            0     3363.868    18.118755    23.103154    19.345523    8098.0436    3812.8934    3410.3756     2868.335   -931.73967    131.02479   -375.98238   -4022.8486 
15506000    231.43605   -4863.6129   -4400.7122   -4863.6129            0    3970.8777    17.915774    23.177614    19.472292    8085.7695    4363.1302    3335.4828    4214.0201    1186.9444    692.55446    1142.0358   -3932.4557 
15507000    225.98451    -4870.039   -4418.0421    -4870.039            0    3947.2762    18.217231    22.876412    19.405878    8087.3005    3165.7777    3079.7842    5596.2667    210.02675   -1244.9914   -1114.0396   -3952.4807 
15508000    230.54874   -4881.9869    -4420.861   -4881.9869            0    2918.8313    18.437357    22.812838    19.340824    8134.9134    1213.8461    3025.5204    4517.1274    -789.2384   -237.01336   -1535.3356   -4074.5727 
15509000    230.40927   -4857.8356   -4396.9886   -4857.8356            0    2826.9269    18.042278    23.040025      19.5923    8144.4123    3433.6762    2582.6145    2464.4901   -679.94832    339.19105   -1680.3386   -4061.2121 
15510000    245.17181   -4897.4363   -4407.0624   -4897.4363            0    4137.3305    18.106925    22.971639    19.445767     8088.384    3922.8835    4056.0589    4433.0491    285.27162    379.40232    1765.8121   -3919.0196 
15511000    241.21336   -4915.3129   -4432.8564   -4915.3129            0    4210.2023    18.150943    23.054069    19.241362    8051.6073    3584.8784    3048.1999    5997.5286    966.50311   -1471.1325   -41.339398   -3938.4758 
15512000    238.61121   -4857.1922   -4379.9403   -4857.1922            0    2810.8907    18.054628    23.094911    19.431201    8102.2288      3388.55    2994.4858    2049.6364    752.29448    75.383497    534.30821   -4047.7978 
15513000    245.69554   -4877.1873   -4385.7659   -4877.1873            0    2751.1769    18.185203    22.855222    19.537612    8120.3564    1519.6873    4099.7605    2634.0829   -74.199344    814.52351   -1696.9228   -4059.9521 
15514000    231.97791   -4888.4599   -4424.4754   -4888.4599            0    2987.9733    18.438561    22.657397    19.359269     8087.718    1753.3997    4271.2408    2939.2793   -40.863463   -235.26325    1311.1826   -4072.0408 
15515000    238.81596   -4897.1687   -4419.5073   -4897.1687            0     1935.824    18.200209    23.172987    19.317549    8147.2381    2640.1778    739.62563    2427.6687    164.53479    610.27504     1745.974   -4189.4944 
15516000    230.73169    -4870.234   -4408.7421    -4870.234            0    3850.9543    18.043851    23.211581      19.3516    8104.9592    3880.9271     4131.593    3540.3427    1024.2803    1005.5466    726.00151   -3953.5496 
15517000    233.96167    -4884.674   -4416.7218    -4884.674            0    2719.7353    18.017213    23.203423    19.394205     8107.961    2064.6875     3534.102    2560.4166   -99.375066    608.63974    765.68902   -4095.1232 
15518000    228.23632    -4895.496   -4438.9951    -4895.496            0    3873.7943    18.233769    22.841374     19.37664    8070.0668    1259.4792    5033.4793    5328.4244   -549.49205    837.81838   -968.37978   -3983.0742 
15519000    225.98741   -4872.2038   -4420.2011   -4872.2038            0    3570.1072    18.136539    22.860746     19.52923    8097.1085    2945.3029    4590.2035    3174.8152    445.51749    139.99519   -358.81019   -3998.6142 
15520000    229.32398     -4887.18   -4428.5037     -4887.18            0    4554.5395    18.138399     22.99367    19.350748    8070.5848    4178.2225    3041.2112    6444.1849   -1071.9182   -1063.8296    558.00478   -3892.4289 
15521000    224.64636   -4887.3432   -4438.0227   -4887.3432            0    2926.0584    17.904564    23.161425    19.542557    8104.2051    2975.1634    2538.0421    3264.9696   -1113.7792   -14.669723    801.59392   -4092.1874 
15522000    229.79537   -4880.8612   -4421.2421   -4880.8612            0    2249.6871    18.159482    23.150071    19.372385     8144.021    2899.8074    1168.7011    2680.5529    545.72534   -599.85297   -762.73485   -4154.0418 
15523000    224.44234   -4902.2918   -4453.3794   -4902.2918            0    2439.2115    18.082537     22.99287    19.602754    8150.2257    2688.1079    2711.3843    1918.1423   -703.82028    1099.9662    257.32513   -4163.4482 
15524000    231.23718   -4838.5976   -4376.0947   -4838.5976            0    3315.1861    18.201231    22.818221    19.608398    8143.7543    5463.4861    2928.6649    1553.4075    17.011734    92.327196   -613.24782   -3982.3557 
15525000    237.12297   -4867.6655   -4393.3902   -4867.6655            0     2129.162    18.194152    22.960876    19.543116    8164.2088    2731.3903    1880.0941    1776.0015    94.841426   -32.525555    2045.8623   -4139.8781 
15526000    241.49562    -4887.924    -4404.903    -4887.924            0    3274.9708    18.087766    23.068396     19.39964    8094.6115     1399.501    3879.5092    4545.9022   -1362.9658    1546.5114   -1519.0298   -4018.2874 
15527000    235.65358   -4860.1666   -4388.8304   -4860.1666            0    2076.8494    18.276943    23.107901    19.312203    8156.3503    1649.6264    2325.9594    2254.9624   -21.578053   -636.40132    1409.4628    -4141.785 
15528000     230.2297   -4899.5803   -4439.0924   -4899.5803            0     2191.701    18.198992    22.911636     19.51328    8136.4268    2569.7796    2022.8209    1982.5024   -278.05013    73.251424    -74.93844    -4179.022 
15529000    228.69892   -4875.7947   -4418.3686   -4875.7947            0    3242.5259    18.243397    22.661635    19.589596    8098.8326    2887.7293    3712.2185    3127.6298    798.84993   -1439.0143   -283.28337   -4035.3836 
15530000    231.79835    -4855.344   -4391.7187    -4855.344            0    2758.5301    18.199113    22.938634    19.503727    8142.0802    1519.9683    3347.0552    3408.5668    173.44281   -171.54949   -2060.3001   -4064.1601 
15531000    233.79826   -4860.6743   -4393.0489   -4860.6743            0    1631.6544    18.175241    23.035607    19.507304    8167.2735    2509.3344    1521.1436    864.48524   -224.11081   -147.70887   -372.34681   -4198.7004 
15532000     226.2904   -4858.1572   -4405.5485   -4858.1572            0    3968.0543    18.123608    22.980887    19.416987    8087.1091    3586.4162    4296.9023    4020.8443    759.06034    696.18554    1141.1998   -3937.5474 
15533000    229.74424     -4879.12   -4419.6032     -4879.12            0    3255.5552    18.118488    22.963186    19.519095    8121.0796    4488.0317    2718.6361    2559.9977    703.66967    654.66433    266.21712    -4034.023 
15534000    226.66682   -4901.7406    -4448.379   -4901.7406            0    3229.4035    18.157802     23.14001    19.291331    8105.6717    4206.8674    2751.6621    2729.6811   -513.83066      1100.95    665.67117   -4066.6218 
15535000    227.97823   -4913.0693   -4457.0846   -4913.0693            0    3698.1426    18.081238    22.955948    19.423566    8062.1773    5727.7431    2461.3912    2905.2935   -353.15917     -129.704    649.46522   -4022.2622 
15536000    227.36846    -4898.617    -4443.852    -4898.617            0    2525.7732    18.115455    22.988197    19.459325    8103.6734    3441.1126    2255.1042    1881.1028   -362.12754    225.68141     1258.028   -4145.3466 
15537000    237.20101   -4888.0751   -4413.6438   -4888.0751            0    2229.2451    18.377754    22.926674    19.365405    8159.4347     1664.263    1666.5845    3356.8879    228.19488    436.80792    672.21734   -4148.3703 
15538000    228.88118   -4875.5992   -4417.8085   -4875.5992            0     2295.626    18.177199    22.597192    19.840377    8149.5075     2519.777    3699.6864    667.41469   -1061.1144    411.84994   -1040.6663   -4144.9683 
15539000    238.39364   -4905.8612   -4429.0445   -4905.8612            0    2718.1515    18.238904    22.947332    19.378383    8110.5153     2875.365    2857.6845     2421.405    1419.1047    174.35205    875.66602   -4107.5319 
15540000    232.43998   -4879.6079   -4414.6993   -4879.6079            0    2384.7543     17.97433    23.155597    19.560131     8141.051    2743.6529    1833.8652    2576.7447    1002.2149   -1192.1765   -2019.3673   -4131.5601 
15541000    234.29163    -4886.475   -4417.8628    -4886.475            0    1606.7642    18.155735    23.132196    19.422026    8156.9016    1557.3798    2323.2862    939.62672    967.11976   -403.64356   -691.24463    -4226.722 
15542000    233.74235   -4887.4575   -4419.9439   -4887.4575            0    2308.1351    18.245242    22.822427    19.446444    8097.5128    2574.9229     1997.044    2352.4384    731.96694   -1979.1271   -66.635874   -4147.3672 
15543000    235.35816   -4873.3032   -4402.5578   -4873.3032            0    1556.4307    18.208533    22.792566    19.598122    8133.5968    570.72231    1817.9661    2280.6038   -979.00346   -1023.2172   -49.483564   -4217.9337 
15544000    220.23609   -4887.3098   -4446.8104   -4887.3098            0    4011.7003    18.133097    22.804774    19.515034    8069.8799     5417.531    4259.6338    2357.9361   -474.45365   -874.19478   -660.03162   -3974.6697 
15545000    226.16667   -4899.8308   -4447.4695   -4899.8308            0    3148.5315    18.159636    22.867262    19.512324      8102.71     2477.909    3125.2682    3842.4173   -41.952357    354.91864    1315.3915   -4075.4085 
15546000    226.50097   -4885.6271   -4432.5972   -4885.6271            0     2221.129    18.191822    23.187378    19.304348    8142.9728    2173.6528    2187.7241      2302.01   -1128.8843    1626.6449   -1411.9226   -4168.8228 
15547000     226.4896   -4872.5645   -4419.5573   -4872.5645            0    3144.0828    18.037183    23.099985    19.427517    8094.6431    2859.5856    3309.9679    3262.6951   -215.43252    540.47349    1204.0358   -4048.3919 
15548000    237.45028   -4916.6597   -4441.7298   -4916.6597            0    2916.9881     18.20985    22.853661     19.48683    8109.6731    3895.5867    2722.1758    2133.2017   -30.628017    536.75426    246.85081   -4096.7339 
15549000    239.99666   -4881.1895   -4401.1665   -4881.1895            0    2975.5731    18.294576    22.732536    19.522082    8118.8844    1913.5272    4922.0405    2091.1515    1718.4393    799.69863    624.39033    -4048.842 
15550000    229.17467   -4901.0132   -4442.6356   -4901.0132            0    3511.2088    18.116484    22.860725    19.553792    8098.3196    4472.5594    3558.9949    2502.0721    846.09936   -988.93631    507.61889   -4027.9419 
15551000    245.55528   -4849.4265   -4358.2856   -4849.4265            0     3149.395    18.224935    23.121522    19.301783    8133.5447    910.00037    2925.3279    5612.8568    212.20923   -15.851517   -725.07724   -3984.7062 
15552000    231.96719   -4904.6569   -4440.6938   -4904.6569            0      2238.59    18.110537    22.890447    19.513874    8089.6379    2675.7705     2811.625    1228.3744    165.24095    281.55455    468.69232   -4176.5871 
15553000    218.27069   -4885.5476   -4448.9793   -4885.5476            0    3443.5134    17.975545    23.123607    19.510794    8109.8458    3671.1103    3325.5741    3333.8559   -870.94479    300.47242   -910.82148   -4041.7019 
15554000     232.4735   -4856.4161   -4391.4404   -4856.4161            0    2785.9363    18.177419    23.182617    19.338456    8149.2281    3450.6604    1917.9793    2989.1693   -765.32855    -549.5009    818.85538   -4060.3371 
15555000    236.90164   -4880.1057   -4406.2732   -4880.1057            0    3245.3304      18.0549    23.200507    19.471123     8156.119    3627.2289    2766.8746    3341.8878   -539.98134    1394.6561    680.59787   -4020.2456 
15556000    240.73253   -4855.8263   -4374.3316   -4855.8263            0     4720.411    17.996793     23.04903    19.565638    8115.9957    5500.9721    4795.5024    3864.7585     -566.972    879.01439    1814.7533   -3815.6073 
15557000    224.00389   -4901.9721   -4453.9367   -4901.9721            0    2640.6409    18.374924    22.607522     19.54512    8119.2677    254.82498    4696.8067     2970.291    114.49021    284.21153    80.191651   -4141.2552 
15558000    233.80024   -4888.2891   -4420.6597   -4888.2891            0    3802.7444    18.182225    22.701154    19.530455    8061.3418    3732.8364    3553.7487     4121.648    199.67303    192.45186    -365.5359   -3973.5847 
15559000    235.57513   -4894.0734    -4422.894   -4894.0734            0    1566.3965    18.309025    22.979444    19.412549    8167.4654    1265.0746    1764.0545    1670.0603     1230.319   -462.70716   -148.44669   -4236.3141 
15560000    236.66283   -4899.0141   -4425.6592   -4899.0141            0    3784.0823    18.093964    23.128288    19.311613    8081.5701    2743.1314     4211.174    4397.9414    368.64014    1011.2103   -792.57104   -3979.6619 
15561000    233.11654     -4868.19   -4401.9281     -4868.19            0    4474.0819    18.047314    23.074224    19.462134     8104.573    4320.6223    3827.4632    5274.1601    587.60367    311.72006    384.63153   -3873.1056 
15562000    243.93285   -4859.0203   -4371.1244   -4859.0203            0    3933.9029    18.197689    23.150785    19.254128    8111.5868    1844.2319    3893.8055    6063.6714    1109.0945    1604.3427   -723.00254    -3905.747 
15563000    245.49956   -4883.3346   -4392.3052   -4883.3346            0    2437.8682     18.21133    23.032263    19.465643    8164.8277    3187.3044    1481.3638    2644.9363   -1452.1196    263.03004   -974.85873   -4102.0145 
15564000    219.82626   -4872.6346   -4432.9549   -4872.6346            0    3643.0209    18.235665    22.874127    19.523401    8143.6968    4161.2783    3590.6505    3177.1338    -297.8291    1104.0575    1355.1482   -4000.2826 
15565000    227.39087   -4898.7297   -4443.9199   -4898.7297            0    3285.2349    18.134073    22.872081    19.526577    8098.9212    4300.0964    3631.5486    1924.0598    477.96746   -460.59287    498.02108   -4055.8862 
15566000    230.40935   -4843.9889   -4383.1418   -4843.9889            0    4926.4789      18.1845    22.941147    19.392486     8090.027    5055.1459    3802.9891    5921.3017   -350.19262   -1017.3192    1826.1447   -3801.8924 
15567000    225.17926   -4878.2113    -4427.825   -4878.2113            0     2937.043    18.174335    22.633675    19.753747    8125.7429    3427.0558    4041.2808    1342.7924   -1040.3119   -184.48759    137.15244   -4079.7689 
15568000    228.81777   -4873.8141   -4416.1503   -4873.8141            0    2390.4798    18.108553     23.17987    19.395751    8141.4423    2567.7082    1656.9984     2946.733    181.17004    1374.7646     196.8927   -4132.3177 
15569000    218.00205    -4891.578    -4455.547    -4891.578            0    1792.4471     18.12547    23.283208    19.375481    8176.8228    860.96545    1247.9079    3268.4679   -1340.5014    531.63674   -976.27487   -4241.7967 
15570000    229.83233   -4869.2057   -4409.5126   -4869.2057            0    2952.8299    18.264477    23.050955    19.359777    8150.7304     1109.955    3676.5248    4072.0099   -332.38913    1265.1388    1687.0745   -4058.5096 
15571000    234.10509   -4888.7333   -4420.4942   -4888.7333            0    2989.0368    18.134577    22.917468    19.540421     8120.971    3109.0018    3429.7598    2428.3489   -552.31988    275.11149    627.15881   -4066.4845 
15572000    232.47354   -4829.6615   -4364.6857   -4829.6615            0    1439.5476     18.17828    23.148678    19.481315    8197.7982     2870.144    490.93911     957.5598    1539.8307    142.25202    813.44223   -4192.5785 
15573000    217.49676   -4893.7239   -4458.7035   -4893.7239            0    409.93834    18.087708    23.147244    19.594696     8203.919    1085.1877   -33.845365    178.47268    137.08851   -913.26664    90.379214   -4409.6561 
15574000    220.29247   -4893.4203   -4452.8081   -4893.4203            0    4080.1407    17.953317    22.925678    19.537056    8041.2952    5369.6864    3305.7629    3564.9727    368.55454    -242.8791    796.85834   -3974.3135 
15575000    230.04522   -4889.8345   -4429.7156   -4889.8345            0    4079.1782     18.17247    22.954062    19.390913    8088.5705    4470.3071    3751.7165    4015.5109    436.01064   -44.781329    -621.2533   -3948.5215 
15576000    238.83958   -4881.4747   -4403.7661   -4881.4747            0    2748.6134    18.119928    23.008837    19.581043    8163.6987    2099.5999    2683.7475    3462.4929    1081.6568     367.5664    58.922232   -4076.5184 
15577000    218.61303   -4899.4471    -4462.194   -4899.4471            0    2886.5502    18.110187    23.009697    19.536716    8141.1432    3277.8783    2785.2002    2596.5719    70.608156    515.30979   -293.83714   -4119.4733 
15578000    245.68337   -4872.6276   -4381.2306   -4872.6276            0    2754.5104     18.16874    22.952443    19.475678    8121.6882    3840.6317    2544.3285    1878.5711    240.82374   -1354.2558    477.73306   -4054.9685 
15579000    219.28368   -4876.4886   -4437.8941   -4876.4886            0    2848.8334    18.148388     22.91181    19.575785    8139.8546    2815.8389    2833.0118    2897.6495   -203.26126     1203.258    832.59315    -4099.705 
15580000     244.1596   -4882.3013   -4393.9519   -4882.3013            0    1576.1615    18.233966    23.085621    19.405963    8168.7934    1163.1975    1280.2543    2285.0326   -280.58488    1026.0156    277.12245   -4206.1783 
15581000     229.3236   -4876.9331   -4418.2575   -4876.9331            0     2795.142    17.996475    23.022969    19.579735    8112.5163    4238.2202    2835.9243    1311.2816   -1455.4888    889.06427   -244.51825   -4087.5567 
15582000    216.06965   -4879.9349   -4447.7689   -4879.9349            0     2680.735    18.273562    22.984867    19.347156    8126.1035    2963.0429    2928.4101     2150.752    1215.4724    808.30356    1983.5154   -4130.0726 
15583000    232.88569   -4873.1743   -4407.3742   -4873.1743            0    3650.3271    18.142114    22.985676    19.498291    8130.9575    4218.8061    3837.4385    2894.7367   -1475.6929    501.39989   -912.88532   -3974.5123 
15584000     234.1178   -4848.3502   -4380.0856   -4848.3502            0    1708.8654    18.075054    23.112342    19.526024      8157.13    1425.2757    2352.9147    1348.4059    863.06075    867.71764   -486.94713   -4176.7932 
15585000    226.32435   -4887.9444   -4435.2678   -4887.9444            0     3287.041    18.216219      23.0933    19.267144      8105.16    1296.1871    3383.0259    5181.9099    2.9356301    7.8671729    -1900.153   -4046.7216 
15586000     218.7954   -4865.5947   -4427.9768   -4865.5947            0     2300.152    18.128363    22.965613    19.522983    8127.9838    2269.5741    2754.9279     1875.954    514.63743   -575.70903    519.96098   -4155.3207 
15587000    217.89164   -4869.8202     -4434.01   -4869.8202            0    2634.7794    18.087425    23.096679    19.406042    8107.0575     2923.697    1663.5755    3317.0657   -1164.9152   -490.89572    858.59887   -4122.4918 
15588000    236.81952   -4902.4712   -4428.8029   -4902.4712            0    2262.4042    18.181999    23.193702    19.378175     8171.929    3613.3947    1651.8528    1521.9649    1646.9163   -734.96857    741.79416   -4159.1714 
15589000    221.30772   -4914.0662   -4471.4234   -4914.0662            0     3272.824    18.229212    22.969657    19.262705    8065.6558    3279.6573    3154.8409    3383.9738    -477.6709    515.16295   -574.38484   -4086.4433 
15590000    224.58129    -4885.534   -4436.3437    -4885.534            0     3066.079    18.309473    22.765414    19.380659    8078.2992    2407.5625    3360.1367    3430.5377     909.9889    793.51162    934.80689   -4075.1176 
15591000    227.60896   -4889.2321    -4433.986   -4889.2321            0    2997.8163    18.071059    22.697404    19.820406    8129.6594    4604.2145     3192.181    1197.0534   -1377.7058    848.10784    307.59315   -4078.5567 
15592000    232.32801   -4897.8622   -4433.1774   -4897.8622            0    3382.8708    18.161902    23.103082    19.368989    8127.1491     3420.779    2893.4398    3834.3936   -500.06893    375.59189    130.99569   -4032.2188 
15593000    232.96546   -4863.8453   -4397.8856   -4863.8453            0    2952.2698    18.149278    23.141155    19.327817    8117.5915    3733.8692    1677.7407    3445.1996   -1518.2922   -911.31236   -698.97812    -4048.376 
15594000    218.93556   -4864.5501   -4426.6519   -4864.5501            0    2372.3513    18.021815    23.036886    19.601571    8137.9154    2203.7395    2742.0182    2171.2963   -650.18516    143.60825    492.73026   -4145.0938 
15595000    223.72004   -4910.7402   -4463.2724   -4910.7402            0    4306.1249    18.131807    22.802398     19.48126    8054.5014     5668.886    3446.2109    3803.2778    67.565225   -230.05585   -340.31173   -3957.4464 
15596000    242.57442    -4897.509   -4412.3302    -4897.509            0    2205.0765    18.172651     23.08574    19.334317    8111.3085     897.9533    2480.5837    3236.6927    968.21762   -312.35876   -1940.5899   -4151.4804 
15597000    232.26935   -4888.5754    -4424.008   -4888.5754            0    1898.7332    18.113655    23.092833    19.442019     8132.511    677.24499    2470.0889    2548.8658    1623.3875   -635.19035   -29.875362     -4198.81 
15598000    230.63278   -4887.1953   -4425.9012   -4887.1953            0     3207.992    18.282526    22.721633    19.533002    8114.1817    1599.1608    3535.5841    4489.2312    436.02349   -588.43244   -331.62117    -4046.277 
15599000    228.32935   -4882.2504   -4425.5635   -4882.2504            0    3279.2419    18.304142    22.818781    19.441638    8120.3487    2762.2071    2737.4073    4338.1112   -148.64114   -250.10934   -17.157629   -4037.2129 
15600000    231.78471   -4890.0757   -4426.4776   -4890.0757            0    2020.6724    18.224993    22.869456    19.507382    8130.5926     1420.922    3198.1385    1442.9567   -215.08366    376.58049    711.94097   -4186.8736 
15601000    222.96791   -4911.3437   -4465.3804   -4911.3437            0    2534.7489    18.261632    22.945502    19.412507    8134.2736    2459.3322    3517.3815    1627.5331   -1720.3484    1427.5267    114.03345    -4164.683 
15602000    227.64903   -4876.2819   -4420.9558   -4876.2819            0    4119.5997     18.07418    23.124478    19.304471    8068.4192    3467.3259    4445.0438    4446.4293   -242.59428    998.13248    887.75267    -3936.204 
15603000    231.48762   -4865.7118    -4402.708   -4865.7118            0    3310.7467    17.979637    23.180281    19.439125    8101.7032    3642.8958    3311.6688    2977.6756    1591.5321    498.16852    1279.2949   -4011.5266 
15604000    236.56742   -4876.2869   -4403.1228   -4876.2869            0    3979.0102    18.081054    22.863979    19.533594    8075.2823    4801.3626    3462.7586    3672.9094    1283.2807    -700.7573    213.89262   -3934.5159 
15605000    236.83748   -4850.8405   -4377.1362   -4850.8405            0    1852.7847    18.369227    22.850573     19.43739    8158.7932    501.53414    2096.9962    2959.8237    1178.9269   -576.22517   -171.04767   -4156.6778 
15606000    223.42134   -4901.1512   -4454.2809   -4901.1512            0    1853.8031    18.158101    23.067092    19.506906    8170.5572    2381.4247    1358.4601    1821.5246    650.98946    55.509854     451.5147   -4233.3832 
15607000    231.57311    -4879.104   -4415.9292    -4879.104            0    2531.6894    18.001299    23.244726     19.38809    8112.6603    3243.5451    1929.4861     2422.037   -56.887439    1218.0686   -1628.3738   -4116.3928 
15608000    227.76963   -4867.8214    -4412.254   -4867.8214            0    2866.3273     18.22114    22.974982    19.454453    8144.2249    2392.0076    3039.1573    3167.8169   -1779.2277    490.23777   -471.94053   -4071.8055 
15609000    228.50835   -4891.1178   -4434.0728   -4891.1178            0     2506.599    18.288283    22.787024     19.58653    8162.4033     2711.319    2647.8789    2160.5991   -383.50181    1002.9522    1278.3954   -4135.6866 
15610000    235.81259   -4868.0457   -4396.3914   -4868.0457            0    3334.9723    18.184836    22.984571    19.429989    8121.1653    3515.0981    2429.5952    4060.2235    664.07978   -552.83109     813.0979   -4001.4011 
15611000    238.46435   -4864.5896   -4387.6314   -4864.5896            0    2539.2423    18.137806     23.06022    19.483052    8149.0162    3721.1917    2002.6627    1893.8725   -4.1800326    481.82479   -660.83266   -4085.8551 
15612000    228.13775   -4863.7106   -4407.4069   -4863.7106            0    4085.6014    18.143342    22.978933    19.365198    8073.6346    2895.1802    4510.8239    4850.8001    1385.2269   -252.80988    667.53706    -3926.345 
15613000    235.86057   -4904.4872   -4432.7369   -4904.4872            0    4076.9209    18.180754    22.969303     19.30339    8061.0813    3147.0127    4408.3828    4675.3671    69.236035   -662.57515   -929.95195   -3953.4435 
15614000    226.94016   -4851.5134   -4397.6051   -4851.5134            0    2917.0712    17.949794    23.238473    19.519433    8142.0591    3310.8818    1782.6366    3657.6952    1354.3577    -1733.171    338.24684   -4051.2216 
15615000    228.61833   -4875.2648   -4417.9999   -4875.2648            0    2711.5499    18.209541    23.011033    19.403172     8130.324    2886.5185    3483.7009    1764.4305    2117.6043   -1156.8311    636.70542   -4096.4848 
15616000    228.86025     -4901.27   -4443.5212     -4901.27            0    2940.2509    18.240808    22.820936    19.492689    8114.2664    4153.8933    3147.2074     1519.652    224.55357   -1142.9431   -719.12705   -4095.5771 
15617000    228.78727     -4913.86   -4456.2572     -4913.86            0    2165.2968    18.162545    22.808025    19.650939    8140.4362     1669.555    2900.0466    1926.2888    718.47556    1595.4288   -1538.9458   -4199.1934 
15618000     220.7691   -4886.0226   -4444.4571   -4886.0226            0    4076.2856    18.290671    22.991451     19.22207    8083.4391     2591.946    4236.4991    5400.4116    273.34591    1264.1633   -307.64116   -3963.9093 
15619000    226.52127   -4901.7966   -4448.7261   -4901.7966            0    3296.1004    17.967001    23.180763    19.435147    8094.5208    4407.9787    1321.3086     4159.014    1069.9044   -583.83282   -154.35067   -4059.6205 
15620000    226.53001   -4881.4869   -4428.3989   -4881.4869            0     3870.404    18.141326    23.003252    19.383274    8088.8243    3841.3751    4120.4508     3649.386   -223.04108    1361.7637   -1293.7488   -3971.8181 
15621000    232.56861   -4910.7111   -4445.5451   -4910.7111            0    2554.1279    18.193041    22.971271    19.434521    8122.0224    2573.3488     2050.853    3038.1819   -686.79603   -149.84367    1009.0019   -4143.0052 
15622000    238.29819   -4878.6457   -4402.0199   -4878.6457            0    4498.6554    18.157351    22.880994    19.448132    8079.8866    3261.3136    4852.3956    5382.2569   -4.4285006   -942.40999    73.505597   -3871.9125 
15623000    222.72072    -4862.897    -4417.428    -4862.897            0    2678.6701    18.087938    22.912308    19.613592    8128.5865    2158.2609    3195.3308    2682.4184   -1702.2723    314.44224   -449.01669   -4099.8795 
15624000    231.22133   -4866.6299   -4404.1587   -4866.6299            0     4932.906    18.064714    22.893302    19.458134    8047.1248    5124.4556    5029.7685    4644.4939   -331.94301   -238.11608   -879.95189   -3825.2375 
15625000    232.56917   -4862.7789   -4397.6119   -4862.7789            0    2744.8428    18.139182    22.864707    19.647958     8148.933    3745.1859    3107.2386    1382.1039    470.42877   -1302.8303   -70.467329   -4071.4042 
15626000     234.7105   -4903.4867   -4434.0367   -4903.4867            0     4676.014    18.157348    22.889453    19.383396    8055.9675    5688.7785    5123.3375    3215.9261    1147.4798    351.18272    377.10572   -3884.6611 
15627000    215.27575   -4870.7539   -4440.1758   -4870.7539            0    3733.2508    18.007812     23.15867    19.345789    8067.9094    3933.2184    3612.5896    3653.9444     116.6681     778.8653   -48.243188   -4000.9134 
15628000    223.97484    -4894.252   -4446.2747    -4894.252            0    4093.3299    18.142518    22.989989    19.394893    8089.5381    3005.8206     4146.153    5128.0161    716.08003    121.40406    2009.1815   -3963.3534 
15629000       237.12   -4853.7321   -4379.4628   -4853.7321            0    2400.2783    18.273454    22.934143    19.387048    8124.8405    2129.8721     2474.238    2596.7248    1270.9598     973.9197    2620.2952   -4095.0479 
15630000    219.79199   -4894.7933   -4455.1821   -4894.7933            0    2804.0292    18.176149    22.887788    19.520278    8120.6669    4620.3163    3048.6492     743.1222    120.96913    544.59502   -194.23783   -4123.0965 
15631000    227.06634   -4909.0803   -4454.9195   -4909.0803            0    5047.1102    18.047752    22.852321    19.426534    8012.1443    4509.3223    4969.4686    5662.5398   -435.78223    511.60072   -198.34373   -3865.1702 
15632000    238.39836   -4872.4595   -4395.6333   -4872.4595            0    2979.6491    18.229221    23.122749    19.267874    8121.5957    1476.6357    2795.8772    4666.4344   -864.79376    1090.3252   -1.3272891   -4042.7084 
15633000    238.94096   -4876.3371   -4398.4257   -4876.3371            0    3362.2045    18.160275    23.089965    19.326045    8103.7993    4437.0667    2708.5722    2940.9747   -1078.6044   -384.47541    474.66501   -4001.0615 
15634000    223.48442   -4892.2141   -4445.2176   -4892.2141            0     4538.905    18.137499    22.861981    19.560614    8110.9876    4582.5984    4567.7394    4466.3773     717.3502    789.16313    1701.3992   -3908.3085 
15635000    222.45883   -4884.6781   -4439.7329   -4884.6781            0    3649.3284    18.204575    22.757668    19.538906    8094.8452     2922.835    3459.3501    4565.8001   -2526.2336   -1206.9717   -204.13949   -4008.9114 
15636000     238.5959   -4886.4782   -4409.2569   -4886.4782            0    1883.0107    18.245021    22.866842    19.505961    8138.0043    3376.2383    1832.6971    440.09674    1059.7089    112.10323   -228.88348   -4185.7728 
15637000    228.14233   -4892.8894   -4436.5765   -4892.8894            0    2277.0731    18.173314    22.858372    19.543873    8118.7667    3177.3887    2013.2536    1640.5769    361.78417    544.01193   -1147.0586   -4166.9622 
15638000    234.42987   -4891.8136   -4422.9249   -4891.8136            0    4102.8088    18.227062    23.081498    19.201442    8078.1984    3660.4947    3685.9895    4961.9421    872.97687   -182.56138   -498.08749   -3939.5638 
15639000    218.92027   -4892.3232   -4454.4556   -4892.3232            0    2307.8551    17.982064    23.281905    19.437417    8137.6049    3836.3494    1177.8396    1909.3763    250.20693    190.13349    851.78024   -4180.5625 
15640000    240.86181   -4896.0824    -4414.329   -4896.0824            0    1297.7032    18.099087    22.984107    19.662016    8179.2288   -4.4771485    2692.9423    1204.6445    854.77097    298.29383    1300.1967   -4259.5316 
15641000    237.51069   -4903.5813   -4428.5306   -4903.5813            0    2528.5943    18.237971    22.970609    19.354242    8108.2138    1093.9448    3301.4963    3190.3419   -1137.2961    447.59242   -797.03511   -4129.5244 
15642000    234.66375   -4888.5459   -4419.1894   -4888.5459            0    2047.7369    18.055154    23.064221    19.563934    8146.9711    3994.8201    2280.5932   -132.20255   -1222.5822    14.479994   -1508.9497   -4175.8871 
15643000    231.59336   -4898.2593   -4435.0439   -4898.2593            0    1937.9057    17.973317     23.09127    19.585267    8128.4093    1621.0426    1982.6427    2210.0318   -76.704308   -536.30356    537.10502   -4205.3158 
15644000    229.54485   -4877.7769   -4418.6588   -4877.7769            0    3764.5231     18.21256    22.921169    19.324011    8066.8698    4802.7237    2908.1944    3582.6511   -1209.1396    -1302.406    664.92226   -3975.7739 
15645000     231.5322   -4886.8237   -4423.7307   -4886.8237            0    2734.3098    18.199297    22.892055    19.541084    8141.1931    3007.9202    2813.6448    2381.3645    180.42733    1219.2464    415.57159   -4099.0835 
15646000    233.64216   -4900.5578   -4433.2446   -4900.5578            0    3963.8721    17.990323    22.980933    19.506384    8064.6107    5007.7052    3393.6276    3490.2835    145.64948    749.59858   -1506.8237   -3967.0374 
15647000    229.93897   -4911.0477   -4451.1414   -4911.0477            0    3435.5175    18.148695    23.203146    19.245009    8104.2045    3606.8707    2955.0928    3744.5889    424.00641    767.09779   -667.70682   -4045.0924 
15648000    228.34047   -4894.0353   -4437.3262   -4894.0353            0    3167.3253      18.0022    23.072747    19.487714    8094.4204    2788.5627    4067.0165    2646.3968    -1667.585    232.57844   -833.25214   -4063.4271 
15649000     235.6095   -4864.5717   -4393.3236   -4864.5717            0    3506.4739    18.204377    22.972998    19.483568    8148.2055    3736.7286    3658.2701    3124.4229    1318.1458    1008.4528    1040.8984    -3976.638 
15650000    225.25374   -4888.7029   -4438.1676   -4888.7029            0    2418.5113    18.302215    22.935226    19.454773    8166.4411    999.64804    3029.4334    3226.4525    288.74953   -17.576939    62.892157    -4150.125 
15651000    245.42156   -4866.3503   -4375.4768   -4866.3503            0    3869.7529    18.198557    22.659287    19.654865    8105.0043    3967.7541    5961.2007    1680.3038    1457.9754    680.47493   -1690.8619   -3918.0598 
15652000    233.48751      -4880.1   -4413.0961      -4880.1            0    4600.7805    18.423527    22.641307    19.335697    8065.5524    3233.8854    4353.9017    6214.5544    1173.2321    1106.8462   -52.859671   -3871.9164 
15653000    228.55676   -4873.1583   -4416.0166   -4873.1583            0    4271.1987    18.273699    22.867897    19.368537    8093.7445    5410.3056    3391.0487    4012.2418   -394.48328   -599.29063    375.36223   -3911.8487 
15654000    224.75006   -4878.4011   -4428.8732   -4878.4011            0    3377.5925    18.008318    23.073579    19.437178    8076.4652     4767.335    3198.0367    2167.4056    1308.2083   -1520.7371    1615.2103   -4031.0369 
15655000    230.60039    -4896.706   -4435.4768    -4896.706            0    2473.8261     18.17642    23.217424    19.297082    8143.5549    2155.2835    1815.6933    3450.5015 -0.064470203   -656.80679   -2006.9847   -4141.6718 
15656000    221.53578   -4900.4947   -4457.3958   -4900.4947            0    1902.3437    18.151965    23.016904    19.488915    8142.5083    2379.4959    1187.9201    2139.6153    264.49256   -678.53472    84.790069   -4231.4922 
15657000    228.88139   -4893.4107   -4435.6196   -4893.4107            0    3963.3525    18.258086    22.652215    19.559317    8089.4612    2996.5746      5343.31     3550.173   -1061.4576    1013.3768   -179.59596   -3968.0372 
15658000    236.46539   -4919.8576   -4446.8976   -4919.8576            0    3848.1635    18.223559    22.845495    19.320698    8043.7135      2709.38    3888.0176    4947.0927   -181.15004    639.27757     61.96932   -3995.4722 
15659000    217.45639    -4877.753   -4442.8133    -4877.753            0    1505.3985    18.166629    23.099418    19.452814    8163.1508    695.34819    1209.9063     2610.941    238.79504   -426.99248    495.64532   -4263.5939 
15660000    228.99252   -4868.8666   -4410.8533   -4868.8666            0    3743.2462    17.908147    22.998296    19.697941    8112.7322    4513.3318    3583.7793    3132.6274   -471.84782   -229.36423   -306.14608   -3967.9679 
15661000    226.88211   -4897.3423     -4443.55   -4897.3423            0    2317.8605    18.316562    23.016551     19.28108    8128.5962    1438.8573     2223.189     3291.535   -897.33471   -525.67443   -1424.7362   -4168.7741 
15662000     230.1969   -4880.0486   -4419.6264   -4880.0486            0    1664.4104    18.248552    22.951948    19.522728    8176.8954    1273.5273    2073.6653    1646.0386   -741.69505    280.51776    1052.1962   -4221.1427 
15663000     228.5164   -4891.2918   -4434.2308   -4891.2918            0     2895.476    18.052965    22.892172    19.600549    8100.3501    4112.5571     2799.197     1774.674   -1088.0151   -575.25444   -2061.7728   -4092.1729 
15664000    231.42768   -4892.7851   -4429.9012   -4892.7851            0    3109.4174     18.17354    23.197671    19.232894    8108.2764    3538.3254    2125.2631    3664.6636    1416.9169   -196.60857    320.55048   -4062.2098 
15665000    224.48839   -4889.0156   -4440.0111   -4889.0156            0    2809.4222    18.167672    23.266152    19.261066     8141.495    1429.7712    2400.4533    4598.0421   -1076.0287   -26.992319    641.30587   -4106.4333 
15666000    231.80399    -4851.478   -4387.8414    -4851.478            0    3441.6619    18.126184    22.961591    19.551928      8137.63    3212.2454    2695.5909    4417.1494   -978.11408   -1243.2627   -1275.7836   -3979.3885 
15667000    220.98022   -4865.9714   -4423.9837   -4865.9714            0    4576.3114    18.313319    22.574903     19.42146     8029.247    2512.7073    6159.7822    5056.4447   -269.24339   -73.524329   -1018.1972   -3888.1052 
15668000    233.88502   -4872.8143   -4405.0154   -4872.8143            0    2438.2693    18.271686    22.907739     19.43924    8136.5465    1749.2016    2960.3641    2605.2421   -1119.9754   -1682.0717   -1645.8651   -4115.6826 
15669000    247.68133   -4886.3807   -4390.9874   -4886.3807            0    2829.9354     18.07632    23.040161    19.461672    8105.4229    2901.2548    2723.7815    2864.7698    176.17573   -260.94095   -1651.5527   -4056.4628 
15670000    224.96088   -4866.3604   -4416.4108   -4866.3604            0    3530.1429     18.23334     23.12036    19.288706    8131.3733     4490.042    1443.1461    4657.2407   -407.68917   -736.22352   -92.833956   -3997.7792 
15671000    234.33868   -4878.3148   -4409.6085   -4878.3148            0    4829.8073    18.066357    22.900046    19.499623    8067.3921    5048.5606    4762.0593     4678.802    1798.1988   -230.27661    -68.00981   -3841.3593 
15672000    238.58701   -4917.2142   -4440.0107   -4917.2142            0    3746.8699     18.17657    22.883125    19.423311    8078.8685    4812.2576    3200.3504    3228.0017    1386.4748   -504.13022   -1088.0177   -3998.5469 
15673000      236.586    -4919.366   -4446.1648    -4919.366            0    2712.2772    18.356062    22.841113    19.339227    8108.4133    1179.4986     3086.985     3870.348    1331.1072    176.65934   -639.04096   -4125.4302 
15674000    224.95673   -4885.5155   -4435.5743   -4885.5155            0    2182.9967    18.137648     23.08015    19.485151    8156.8668    3327.0353    1524.2311    1697.7236    896.49674   -819.03497   -418.27915    -4175.886 
15675000    233.94654    -4900.751   -4432.8291    -4900.751            0     3231.417    18.025559    22.885345    19.599742    8085.3082    4228.3683    3400.0375    2065.8452   -1241.2062   -16.557297   -369.00539   -4051.7935 
15676000      226.903   -4889.0776   -4435.2436   -4889.0776            0    4168.7329    18.188008    22.875722    19.490502    8109.2922    4524.6043    4181.0371    3800.5572   -289.72511   -763.53715   -1040.3497   -3942.2255 
15677000     228.9967   -4857.5798   -4399.5581   -4857.5798            0    3884.3453    18.245208    22.719226    19.564675    8109.8904      2381.25    5228.5804    4043.2054   -1783.0171    191.59172   -124.85266   -3940.1394 
15678000    240.17761   -4895.3033   -4414.9184   -4895.3033            0    2105.5758    18.196423    22.971392     19.48826    8146.0375    2332.6896    2063.4463    1920.5917   -239.31124   -842.70563    911.70293   -4164.7726 
15679000    233.98373   -4877.0062   -4409.0098   -4877.0062            0    2986.8425    18.001024     23.18442    19.395063    8094.3998    3960.5233    2661.9703    2338.0339   -519.82091    115.76211    1248.0364   -4056.4174 
15680000     235.4299   -4888.0245   -4417.1356   -4888.0245            0    4869.8762    17.845926    23.125659     19.48974    8043.3921    7470.0677    4309.6152    2829.9457    162.00966   -595.85342    1052.4637   -3845.8766 
15681000     232.4854   -4903.8177   -4438.8182   -4903.8177            0    4119.6647    18.262598    22.747904    19.464325    8086.1775    3179.8151    4574.4907    4604.6881   -186.91309    216.13868   -2156.6931   -3952.9919 
15682000    237.78465   -4893.0837    -4417.485   -4893.0837            0    3770.9541    18.326554    22.693807    19.461245    8093.9178    4351.3801       3208.4    3753.0821    698.03502   -437.09626    1026.0575   -3972.3559 
15683000    232.12779   -4905.2012   -4440.9169   -4905.2012            0      3405.24    18.133812    22.836977    19.544349     8093.734     2986.124    4441.1013    2788.4948    1625.2567    1294.3638    177.58572   -4038.9665 
15684000    218.86713   -4885.7631   -4448.0019   -4885.7631            0    3910.6757    18.076269    23.005183     19.42557    8078.0821    4480.4047    3113.7979    4137.8246   -175.95587   -403.61626    277.25095    -3987.283 
15685000    238.52292   -4880.9532   -4403.8779   -4880.9532            0    4464.7711     18.03046     23.18703    19.347831    8088.8022    5354.1845    3509.0768    4531.0519   -782.64615   -354.09029   -351.53215   -3877.1828 
15686000      230.638   -4867.1326   -4405.8281   -4867.1326            0    3040.0724    18.021436    23.121633    19.449248    8104.2105    5071.5537    1958.1528    2090.5108   -384.55424   -952.91277    -685.0951   -4046.5171 
15687000    236.31115   -4906.5315     -4433.88   -4906.5315            0    3116.4608    18.206038    22.831788    19.479156    8097.0252    2539.2558    3429.2278    3380.8989   -1316.7155   -526.48248   -343.28945   -4065.8671 
15688000    237.52369   -4879.3464   -4404.2697   -4879.3464            0    3069.7627    18.290799     22.64982    19.572677    8108.6336       3612.3    2766.2574    2830.7308     1359.359   -1103.4633    894.71397   -4041.2515 
15689000    221.64269   -4900.3547   -4457.0419   -4900.3547            0    3360.5319    18.055647    23.064362    19.454631     8101.725    3772.7579    2737.0529     3571.785    986.66713    158.89128    2460.9458   -4059.9771 
15690000    239.72184   -4865.1921   -4385.7188   -4865.1921            0    3065.0216    18.066968    23.327296    19.228228    8103.8039     2825.005    2623.1658    3746.8939    201.94357    356.32404    1062.2281   -4023.4772 
15691000    236.22212   -4883.6456   -4411.1722   -4883.6456            0    2989.8726    18.145861    22.826503    19.606111      8120.98    1652.3853    3480.3896    3836.8428     1239.392    1179.9001    1771.6839   -4057.0632 
15692000    230.89872   -4876.3779    -4414.552   -4876.3779            0    2592.1718    18.281917    22.683258    19.565393    8113.6405    1531.4996     3252.897    2992.1188    280.71644     635.4318     278.9499   -4107.8225 
15693000    219.01306   -4861.3863   -4423.3331   -4861.3863            0     3592.374    18.229994    22.948733    19.422524    8125.5155    3995.7452     2833.139    3948.2378    -197.4042   -408.41048    -1630.005   -3997.6285 
15694000    224.70627   -4863.8651   -4414.4248   -4863.8651            0    2417.6911    18.014147    23.356049     19.33221    8133.8207    2219.6319    1280.0581    3753.3834   -380.16166   -96.525451    500.63699     -4127.63 
15695000    237.48509   -4897.3428   -4422.3432   -4897.3428            0    2393.3304    18.125745     23.16364    19.350345    8124.4014    2357.8454    1087.2057    3734.9402    172.01525   -1610.7184    341.88177   -4138.7669 
15696000    226.43634   -4885.5958   -4432.6951   -4885.5958            0    2973.7622    18.268126    22.664025    19.669008     8143.545    1797.5695    4130.2661     2993.451    273.70388   -212.38921    1377.5218   -4079.5155 
15697000     222.8026   -4867.0007    -4421.368   -4867.0007            0     2398.325    18.226852    22.752767    19.670452     8157.559    1298.6695    2825.0157    3071.2899   -150.42176   -995.17358    22.621426   -4136.0402 
15698000    219.89859   -4856.7611   -4416.9367   -4856.7611            0    4743.5264    18.160985    23.036407    19.216126    8039.3319     3570.381    5321.4907    5338.7074   -63.845622    -994.5503     669.9786   -3860.7801 
15699000    240.20505   -4878.9086   -4398.4688   -4878.9086            0    1897.3014    18.066044    23.196844    19.439334    8146.5426    1838.7198    1611.3713     2241.813    1378.6595   -353.84022   -417.80065   -4173.0524 
15700000    220.86711   -4878.3555   -4436.5939   -4878.3555            0    3748.3799    18.223988    22.772614    19.541847    8110.0197    3327.1723    4531.9082    3386.0593    -27.56766    500.18809    -321.8346   -3993.2494 
15701000    228.02063   -4884.7744    -4428.705   -4884.7744            0    4409.1994    18.321867    22.708237    19.406882    8074.3748    4975.0601     4219.394    4033.1441    627.59772    90.836537    1101.6214   -3909.4932 
15702000    229.73022   -4885.5133   -4426.0245   -4885.5133            0    2969.1056    18.044845    23.142045    19.388013    8096.3298    3530.1458    2050.9954    3326.1755    2368.3368   -447.05361    1362.1234   -4075.4424 
15703000    222.04559   -4892.4521   -4448.3335   -4892.4521            0    4035.5266    17.975243    23.256331    19.351603    8089.7096    4631.3282    3323.1313    4152.1202   -1949.0601   -576.38037    50.555695   -3972.2216 
15704000    222.30665   -4902.2946   -4457.6538   -4902.2946            0    3183.5082     18.19605    22.891613    19.376893    8071.1916    3691.2912    3112.5877    2746.6457    -159.1625    537.31932   -185.32782   -4082.9229 
15705000    226.85892   -4907.8185   -4454.0726   -4907.8185            0    2988.5845    18.183937    22.646664    19.606053    8073.8807    3177.8517    3609.9195    2177.9825   -1170.0948   -596.76992   -485.58528    -4102.169 
15706000    224.86248   -4891.5737    -4441.821   -4891.5737            0    2712.2976    18.228674    22.869434    19.509192    8132.9817    2828.4045    2905.6232    2402.8651    957.59189    204.21197    2295.5399   -4120.1121 
15707000    225.95059   -4872.0437   -4420.1146   -4872.0437            0    1540.2197    18.150526     23.15232    19.403243    8153.7622     1467.057    1029.4681     2124.134   -128.57376    910.56406   -217.27649   -4236.9605 
15708000    236.51915   -4875.4692   -4402.4017   -4875.4692            0    4243.1803    17.881057    23.251875    19.374043     8055.109     5628.141    2829.4666    4271.9332   -39.467803   -1071.2363    1490.2606    -3903.932 
15709000    233.49644   -4893.0027    -4425.981   -4893.0027            0    1816.8656    18.174638    23.140238    19.357558    8141.1205    106.54124    1851.3728    3492.6827    150.73802   -188.34929    650.98103   -4210.2648 
15710000    220.44579   -4851.3187   -4410.3998   -4851.3187            0      3696.77    18.238179    22.774518    19.578389    8132.1919    3691.0013    3823.0834    3576.2254    -220.2673   -245.79311   -801.77949   -3971.9641 
15711000    229.42575   -4876.3574   -4417.4775   -4876.3574            0    3359.0815    18.285784    22.614101    19.622078    8114.0542    3397.6613    3967.5704    2712.0129   -1796.3624   -148.57334   -633.65811   -4019.9801 
15712000    231.47075   -4886.7852   -4423.8151   -4886.7852            0    3738.7964    18.270648    22.834517    19.427894    8105.3451    4666.2832    3674.2977    2875.8082    -549.0168    555.98196   -1304.3932   -3981.8589 
15713000    231.18513   -4890.5543   -4428.1555   -4890.5543            0    3721.8248    17.929596    23.325386    19.327142     8082.896    4302.1398    2298.5748    4564.7598   -882.39369   -325.16942    -996.0632    -3989.424 
15714000    231.87022    -4889.739   -4425.9699    -4889.739            0    3177.6101    18.114168     23.11859    19.343739    8100.6555    2186.8293    3533.0035    3812.9973    1089.3375   -1219.6409   -1513.2787   -4050.5678 
15715000    222.08135   -4909.1758   -4464.9856   -4909.1758            0    2784.1353    18.183332    22.967325    19.419766    8110.1314    2275.9629    3187.7913    2888.6518    409.62578   -327.44152    156.06652   -4135.6838 
15716000    228.75575   -4889.0266   -4431.4869   -4889.0266            0    3040.5282    18.084387    22.793534    19.681541    8112.8705    4144.7057    3178.8257    1798.0533    1355.2595    51.833244    45.297687    -4071.738 
15717000    218.06346   -4889.2269    -4453.073   -4889.2269            0    3664.0147    18.055134    22.867112    19.515752    8057.4447    5121.9025    3291.6331    2578.5085   -277.53313    393.98486   -365.80902   -4022.5163 
15718000    230.61253   -4868.2818   -4407.0282   -4868.2818            0    2723.8447    18.225226    23.178893     19.29613    8151.4679    3079.1403    2208.5326    2883.8611   -688.80802    683.72798    175.97739   -4083.2154 
15719000    230.90331   -4894.7162    -4432.881   -4894.7162            0    1937.9468      18.0757    23.142194    19.438178    8131.2107    2656.8771    734.33237     2422.631    653.11589   -865.09288    1315.7346   -4203.0689 
15720000    221.93291   -4897.2896   -4453.3963   -4897.2896            0    3724.1342    18.040495    22.978737    19.504268    8085.4512    3698.6183     3204.538    4269.2462   -938.84112    978.76864   -90.809058   -4014.2538 
15721000    233.13212   -4901.2811   -4434.9881   -4901.2811            0    2877.6094    18.217111    22.969901    19.409606    8121.8571    2052.2693    2285.4904    4295.0686   -292.84644    53.461136   -805.18249   -4094.1382 
15722000    222.85439   -4907.2193    -4461.483   -4907.2193            0    1767.5708    18.296594    22.890151    19.427969    8136.6625    2147.3455    1764.5702    1390.7967    -191.8536   -826.88361    336.53584   -4251.7344 
15723000    215.82769   -4886.3929   -4454.7108   -4886.3929            0    2623.1317    18.104258    23.058049    19.555849    8163.5669    1896.7358    3188.5873    2784.0721   -540.74853    816.86045    1467.6407    -4142.408 
15724000    230.16614   -4882.6603   -4422.2996   -4882.6603            0    5031.4365    17.975349    23.007834    19.455316    8046.2094    7500.3639     4402.175    3191.7705     1069.156   -182.57593    522.28071   -3831.8821 
15725000    225.25227   -4893.1735   -4442.6412   -4893.1735            0    4024.9071    18.056082     23.11439    19.334806    8069.4841    4325.4366    4058.5769    3690.7079     2250.238   -676.19909    2020.5068   -3968.9694 
15726000    224.95115   -4872.9513   -4423.0212   -4872.9513            0    4075.5085    17.990785    23.019893    19.475853    8065.8454    4592.3374    3392.0152    4242.1729   -534.31318   -448.67715   -1087.7399   -3943.6107 
15727000     239.6987   -4851.4453   -4372.0182   -4851.4453            0    3171.2927     18.20082    22.968355     19.50616    8154.4114    3278.6153    3105.7826    3129.4802    759.07217   -271.15881    412.51539   -3994.8763 
15728000    233.79473   -4871.1632   -4403.5449   -4871.1632            0    3540.4485    18.187168    22.855492    19.502867    8106.8865    3871.1237    3533.9073    3216.3145    1732.4309    743.21962    166.08817   -3984.9555 
15729000    226.12949   -4862.0434   -4409.7565   -4862.0434            0    3170.7397    18.242307    22.881405     19.50367    8141.0192    4168.1559    3681.4995    1662.5638   -365.32666    261.15811    1733.8399   -4033.2996 
15730000    238.01459   -4864.7232   -4388.6646   -4864.7232            0    2815.1502    18.250479    22.717554    19.658337    8150.4694    3192.3939    4358.5418    894.51494    280.53196    827.48763   -580.20925   -4054.0383 
15731000    231.08172   -4860.9008   -4398.7088   -4860.9008            0    4891.4318    18.214691    22.888861      19.3891    8083.5777    3604.0125    5609.0941    5461.1889    215.78255   -18.796815    1202.3049   -3822.0545 
15732000    229.59792    -4878.576   -4419.3518    -4878.576            0    3818.1445    17.980665    23.136935    19.409105    8074.5272    5520.7305    1745.4984    4188.2045   -853.21008   -126.47961    163.33229   -3969.7321 
15733000    230.60332   -4893.2128   -4431.9777   -4893.2128            0    3073.2927    17.931479    23.215041    19.495717    8115.6774     6163.667    1130.6656    1925.5455   -644.35123   -1440.1834   -311.24737   -4068.2263 
15734000    228.16721   -4852.7309   -4396.3683   -4852.7309            0    4539.2387    18.252602    22.849594     19.37437    8080.3629    5359.9768    4279.4518    3978.2874   -917.14371     439.1161    341.92387   -3861.4471 
15735000    219.81179   -4885.2788   -4445.6281   -4885.2788            0    5249.3064    18.199422    22.693761    19.518247    8061.2964    5842.6744    5547.5523    4357.6925   -419.39379   -884.18166   -629.35236   -3828.4895 
15736000    225.47672   -4882.9449   -4431.9636   -4882.9449            0    2670.9077    18.184142    22.810125    19.625106    8140.1519    2965.8347    1264.2417    3782.6467   -488.91977   -1183.2309   -1141.2129   -4114.8848 
15737000    235.39184   -4903.6194   -4432.8066   -4903.6194            0    1982.5965    18.092253    23.016825     19.58574     8156.016    3585.3586    391.32062    1971.1102   -156.26713   -938.27523    1695.0765   -4196.9825 
15738000    235.75735   -4877.0901   -4405.5462   -4877.0901            0      2423.98    18.105787    23.042074    19.498726    8134.7687    1734.5332    2639.7301    2897.6767    239.97059     990.8308   -49.679301   -4117.9719 
15739000    241.47898   -4904.2904   -4421.3026   -4904.2904            0    3070.9716    18.256094    22.921875    19.305904     8078.824    1562.1188    3048.1271    4602.6689    1176.4517   -751.34384    534.29257   -4059.4766 
15740000    228.37048   -4868.7991   -4412.0299   -4868.7991            0    3630.6419    18.252698    22.743903    19.594859    8134.5624     4870.291    2657.1875    3364.4474    387.45461   -671.82239   -401.24817   -3981.3114 
15741000    232.27096   -4909.6322   -4445.0616   -4909.6322            0    2176.9377    18.202117     22.88409    19.505786    8124.9183    1800.2622    2214.5114    2516.0396    641.65471    -441.5162   -243.47487   -4187.1084 
15742000    230.19694   -4886.4069   -4425.9846   -4886.4069            0    4166.9349     18.16093    22.960572    19.391277    8085.8786    4334.3892     3364.444    4801.9716    835.94692    385.47569    747.90719    -3934.602 
15743000    236.05588   -4865.6747   -4393.5338   -4865.6747            0    3268.2327    17.856681    23.286649    19.534814    8123.0107    4638.1124    2974.9316    2191.6539   -1280.1195     615.2037      92.7811   -4006.3601 
15744000    237.96697   -4883.9622   -4407.9989   -4883.9622            0    2517.5068    18.019198    23.152603    19.497307    8134.1077    3100.6308    1988.9375    2462.9519   -850.14655   -1598.0104    -1411.559   -4109.3531 
15745000    233.23171    -4848.603   -4382.1108    -4848.603            0    2968.8057    18.233256    22.986602    19.402418    8131.9532    3441.8627     2875.086    2589.4682    490.79702   -1027.6703   -229.94174   -4030.0217 
15746000    224.04686   -4876.3854    -4428.264   -4876.3854            0      2640.35    18.114688    22.704169    19.684136    8095.6706    1966.1087    4423.4567    1531.4848    214.28337   -437.86107    721.95499   -4116.5257 
15747000    229.24124   -4877.5426   -4419.0318   -4877.5426            0    3335.0061    18.141589    23.015545    19.406958    8103.1533    3276.7654    2923.6746    3804.5783    1353.0782   -25.739917   -1022.9525   -4024.9136 
15748000    237.46853   -4882.1827   -4407.2163   -4882.1827            0    3460.9213    18.139994    23.055402    19.344999     8090.559    3694.7192    3359.2452    3328.7995    106.64383   -113.00284   -1444.5283   -3998.8535 
15749000    234.09804   -4899.1567   -4430.9317   -4899.1567            0     4073.811    18.037457    22.946912    19.477066    8061.6339    5457.4125    3854.5968    2909.4238   -2121.7951    54.171406    -1174.177   -3951.9711 
15750000    231.24316   -4855.4203   -4392.9054   -4855.4203            0    661.46945    18.387398    23.122584    19.343031    8223.9635   -1219.4078    905.53436    2298.2818    761.74346    633.25303    151.05134     -4313.57 
Loop time of 552.517 on 64 procs for 250000 steps with 1008 atoms

Performance: 78.188 ns/day, 0.307 hours/ns, 452.475 timesteps/s
99.1% CPU use with 64 MPI tasks x 1 OpenMP threads

MPI task timing breakdown:
Section |  min time  |  avg time  |  max time  |%varavg| %total
---------------------------------------------------------------
Pair    | 27.877     | 31.41      | 35.25      |  30.3 |  5.68
Bond    | 0.27994    | 0.29473    | 0.30796    |   0.9 |  0.05
Kspace  | 260.58     | 273.93     | 282.99     |  29.7 | 49.58
Neigh   | 3.5069     | 4.1355     | 4.7007     |  15.3 |  0.75
Comm    | 102.23     | 111.94     | 123.81     |  48.1 | 20.26
Output  | 1.1294     | 1.1341     | 1.1567     |   0.6 |  0.21
Modify  | 114.92     | 120.38     | 125.79     |  26.0 | 21.79
Other   |            | 9.293      |            |       |  1.68

Nlocal:        15.7500 ave          21 max          12 min
Histogram: 2 5 7 15 16 8 7 3 0 1
Nghost:        2459.11 ave        2487 max        2438 min
Histogram: 4 7 7 9 15 9 8 3 1 1
Neighs:        5099.30 ave        6834 max        3886 min
Histogram: 2 6 6 15 16 8 7 3 0 1

Total # of neighbors = 326355
Ave neighs/atom = 323.76488
Ave special neighs/atom = 2.0000000
Neighbor list builds = 7686
Dangerous builds = 0

unfix		3
unfix		2
unfix		1

write_data	data.final.${pid}
write_data	data.final.0
System init for write_data ...
PPPM initialization ...
  extracting TIP4P info from pair style
  using 12-bit tables for long-range coulomb (../kspace.cpp:340)
  G vector (1/distance) = 0.38228777
  grid = 24 30 36
  stencil order = 5
  estimated absolute RMS force accuracy = 0.0020368725
  estimated relative force accuracy = 6.1339809e-06
  using double precision FFTW3
  3d grid and FFT values/proc = 4320 480
Last active /omp style is kspace_style pppm/tip4p/omp
WARNING: Not all mixed pair coeffs generated from mixing. Use write_data with 'pair ij' option to store all pair coeffs. (../write_data.cpp:312)

write_restart   restart.lmp.${pid}
write_restart   restart.lmp.0
System init for write_restart ...
PPPM initialization ...
  extracting TIP4P info from pair style
  using 12-bit tables for long-range coulomb (../kspace.cpp:340)
  G vector (1/distance) = 0.38228777
  grid = 24 30 36
  stencil order = 5
  estimated absolute RMS force accuracy = 0.0020368725
  estimated relative force accuracy = 6.1339809e-06
  using double precision FFTW3
  3d grid and FFT values/proc = 4320 480
Last active /omp style is kspace_style pppm/tip4p/omp
Total wall time: 0:09:14
