LAMMPS (30 Jul 2021)
Processor partition = 0
  using 1 OpenMP thread(s) per MPI task
using multi-threaded neighbor list subroutines
variable        pid world 0 1
variable        phase world IceII IceIII

shell cd ${phase}
shell cd IceII
include Restart.lmp
echo both
log log.lammps
#include		in.partitions
include		in.temp
variable        temperature equal 126.94
variable	tempDamp equal 100.0
include		in.pressure
variable        pressure equal 5918.8
variable        pressureDamp equal 1000.0 # This is 1 ps
include		in.seed
variable        seed equal 745823

units		real
atom_style	full
box tilt large
read_restart	restart.lmp.${pid}
read_restart	restart.lmp.0
Reading restart file ...
  restart file = 30 Jul 2021, LAMMPS = 30 Jul 2021
  restoring atom style full from restart
  triclinic box = (-10.594685 -9.1684503 0.16051868) to (12.574685 12.158448 21.699480) with tilt (-9.1314585 1.8971194 2.7454469)
  4 by 4 by 4 MPI processor grid
  restoring pair style lj/cut/tip4p/long/omp from restart
  restoring bond style harmonic/omp from restart
  restoring angle style harmonic/omp from restart
  1296 atoms
  864 bonds
  432 angles
Finding 1-2 1-3 1-4 neighbors ...
  special bond factors lj:    0        0        0       
  special bond factors coul:  0        0        0       
     2 = max # of 1-2 neighbors
     1 = max # of 1-3 neighbors
     1 = max # of 1-4 neighbors
     2 = max # of special neighbors
  special bonds CPU = 0.007 seconds
  read_restart CPU = 0.018 seconds
include 	in.setup
variable	out_freq equal 1000
variable	out_freq2 equal 10000
variable	out_freq3 equal 1000

timestep	2.0

neigh_modify    delay 7 every 1

include		in.tip4p
# This is TIP4P/Ice

# create groups ###
group ox type 2
432 atoms in group ox
group hy type 1
864 atoms in group hy

# set charges - beside manually ###
set group ox charge -1.1794
Setting atom values ...
  432 settings made for charge
set group hy charge 0.5897
Setting atom values ...
  864 settings made for charge

# ### TIP3P Potential Parameters ###
pair_style lj/cut/tip4p/long/omp 2 1 1 1 0.1577 8.5
pair_coeff 1 1*2 0.000 0.000
pair_coeff 2 2 0.21084 3.1668
bond_style  harmonic
bond_coeff  1 450 0.9572
angle_style harmonic
angle_coeff 1 55 104.52
kspace_style pppm/tip4p/omp 1.0e-5
pair_modify tail yes

thermo          ${out_freq}
thermo          1000
thermo_style    custom step temp pe etotal epair emol press lx ly lz vol pxx pyy pzz pxy pxz pyz enthalpy

restart 	${out_freq3} restart.lmp.${pid} restart2.lmp.${pid}
restart 	1000 restart.lmp.${pid} restart2.lmp.${pid}
restart 	1000 restart.lmp.0 restart2.lmp.${pid}
restart 	1000 restart.lmp.0 restart2.lmp.0


include         in.dump
dump            myDump all atom ${out_freq2} dump.water.${pid}
dump            myDump all atom 10000 dump.water.${pid}
dump            myDump all atom 10000 dump.water.0
dump            myDump2 all dcd ${out_freq2} dump.dcd
dump            myDump2 all dcd 10000 dump.dcd
dump_modify     myDump append yes
dump_modify     myDump2 append yes


variable natoms 	equal  "count(all)"                        # NUMBER ATOMS
variable H      	equal  "enthalpy/v_natoms"                 # ENTHALPY-per-atom
variable Vol      	equal  "vol/v_natoms"                 # volume-per-atom
fix AVG all 		ave/time ${out_freq} 1 ${out_freq} v_Vol v_H file vol_enthalpy.dat
fix AVG all 		ave/time 1000 1 ${out_freq} v_Vol v_H file vol_enthalpy.dat
fix AVG all 		ave/time 1000 1 1000 v_Vol v_H file vol_enthalpy.dat


timer           timeout 10:00:00 every 1000
New timer settings: style=normal  mode=nosync  timeout=10:00:00

fix 		1 all shake 1e-6 200 0 b 1 a 1
Finding SHAKE clusters ...
       0 = # of size 2 clusters
       0 = # of size 3 clusters
       0 = # of size 4 clusters
     432 = # of frozen angles
  find clusters CPU = 0.002 seconds
fix             2 all nph tri ${pressure} ${pressure} ${pressureDamp}
fix             2 all nph tri 5918.8 ${pressure} ${pressureDamp}
fix             2 all nph tri 5918.8 5918.8 ${pressureDamp}
fix             2 all nph tri 5918.8 5918.8 1000
fix             3 all temp/csvr ${temperature} ${temperature} ${tempDamp} ${seed}
fix             3 all temp/csvr 126.94 ${temperature} ${tempDamp} ${seed}
fix             3 all temp/csvr 126.94 126.94 ${tempDamp} ${seed}
fix             3 all temp/csvr 126.94 126.94 100 ${seed}
fix             3 all temp/csvr 126.94 126.94 100 745823


run             250000
PPPM initialization ...
  extracting TIP4P info from pair style
  using 12-bit tables for long-range coulomb (../kspace.cpp:340)
  G vector (1/distance) = 0.36884913
  grid = 30 40 32
  stencil order = 5
  estimated absolute RMS force accuracy = 0.0042092976
  estimated relative force accuracy = 1.2676175e-05
  using double precision FFTW3
  3d grid and FFT values/proc = 5168 640
Last active /omp style is kspace_style pppm/tip4p/omp
Neighbor list info ...
  update every 1 steps, delay 7 steps, check yes
  max neighbors/atom: 2000, page size: 100000
  master list distance cutoff = 10.8154
  ghost atom cutoff = 10.8154
  binsize = 5.4077, bins = 7 5 4
  1 neighbor lists, perpetual/occasional/extra = 1 0 0
  (1) pair lj/cut/tip4p/long/omp, perpetual
      attributes: half, newton on, omp
      pair build: half/bin/newton/tri/omp
      stencil: half/bin/3d/tri
      bin: standard
Setting up Verlet run ...
  Unit style    : real
  Current step  : 15750000
  Time step     : 2
  Walltime left : 9:59:59.90
Per MPI rank memory allocation (min/avg/max) = 9.444 | 9.450 | 9.455 Mbytes
Step Temp PotEng TotEng E_pair E_mol Press Lx Ly Lz Volume Pxx Pyy Pzz Pxy Pxz Pyz Enthalpy 
15750000    133.06192   -6681.3933   -6339.0996   -6681.3933            0    5945.4533    23.169369    21.326899    21.538962    10643.064    5761.1761    6130.1264    5945.0572    235.02432   -927.51959    -60.22072   -5416.2572 
15751000    129.74997   -6689.4115   -6355.6376   -6689.4115            0    7193.7446    23.194579    21.241423    21.456852    10571.488     7411.161    6867.3433    7302.7296    136.63102   -123.99188    80.751386   -5246.5471 
15752000    126.29246   -6689.6845   -6364.8048   -6689.6845            0    5440.8673    23.178031     21.30035    21.578984    10653.548    5388.5281    5658.7985    5275.2752   -279.87823   -999.88566    406.40794   -5519.4515 
15753000    129.46651   -6698.0749   -6365.0301   -6698.0749            0     5381.326    23.207995    21.307246    21.527059    10645.098    5403.4105    5941.6132    4798.9545    221.49377   -778.94886     242.0594   -5529.5909 
15754000    125.63186    -6698.495   -6375.3147    -6698.495            0    6459.9971    23.171992    21.210306    21.608421    10620.216    7313.2786    6123.8317     5942.881   -271.21001   -420.23771    1.9581739   -5374.7583 
15755000    125.39951   -6684.4525   -6361.8699   -6684.4525            0    4885.8729    23.396678    21.240575    21.448372    10658.959    3955.2427    5130.7155    5571.6605    386.62253   -756.04049   -267.32351    -5602.361 
15756000     128.4751   -6679.7574   -6349.2631   -6679.7574            0    5646.9509    23.161869    21.183731    21.654987    10625.123    5521.9853    6511.4121    4907.4551    1184.5704   -121.38903    283.69602   -5474.2312 
15757000    127.17865   -6690.7227   -6363.5634   -6690.7227            0    6762.5466    23.233228    21.165865    21.513495     10579.29    6672.2654    6898.5147    6716.8598    420.46656   -642.82557   -33.639475   -5320.1829 
15758000    131.37654   -6693.4992    -6355.541   -6693.4992            0      5763.64    23.318397    21.257205    21.456107    10635.448    5494.5737    5946.5401    5849.8062   -172.85826   -754.34427    237.72392   -5461.5595 
15759000    131.00338   -6672.3521   -6335.3539   -6672.3521            0    6234.7218    23.224073    21.136531    21.651574    10628.245    6519.5015    7252.0708     4932.593   -153.24944   -807.16546   -1017.3526   -5368.9592 
15760000    127.95918   -6680.9117   -6351.7445   -6680.9117            0     5341.939    23.269396    21.193627     21.56683    10635.961    4426.9259      5837.28    5761.6109    934.92066   -72.825777    409.33105   -5523.1319 
15761000    127.00795   -6683.3912    -6356.671   -6683.3912            0    6202.2919    23.225943    21.123186    21.633412     10613.48    5582.0885    7185.4877    5839.2995    200.45061   -604.38635    633.94668   -5396.6386 
15762000    130.91871   -6673.1271   -6336.3467   -6673.1271            0    6017.4473    23.358455    21.206639    21.418284     10609.64    5086.6764    6347.2819    6618.3836    -277.8196    208.14541   -93.420067   -5405.2628 
15763000    129.68161   -6678.8551   -6345.2571   -6678.8551            0     6032.296    23.238721    21.242614     21.56237    10644.289    5595.2521    6502.3974    5999.2384   -985.81686    96.969743   -515.10986   -5408.8273 
15764000    121.69462   -6684.7422   -6371.6902   -6684.7422            0    5604.7666    23.259923    21.198121    21.532593    10617.004    4980.9888    5614.2281    6219.0829    -833.9945    285.83244    284.61529   -5503.8587 
15765000    126.97149   -6679.7545    -6353.128   -6679.7545            0    7012.2561    23.243632    21.231556    21.462329    10591.627     6455.346    7369.5775    7211.8447   -805.66236    276.67127     170.8797   -5269.9588 
15766000    123.13414   -6677.4408   -6360.6858   -6677.4408            0    5481.9503    23.171039    21.193667    21.667511    10640.465    4773.1161    7276.4631    4396.2716    130.31835    495.02657    -92.03473   -5509.9952 
15767000    126.60043   -6681.2321   -6355.5602   -6681.2321            0    6133.5128    23.280726    21.255226     21.40108    10590.048    5365.9674     6397.999     6636.572    946.82668    2.7571913    192.60169   -5408.2699 
15768000    123.81801   -6694.3155   -6375.8012   -6694.3155            0    6696.1049    23.167189    21.223115    21.585721    10613.265    7153.2879    7230.7921    5704.2349    176.71181   -564.47329   -547.89817    -5339.354 
15769000    127.38806   -6692.0473   -6364.3493   -6692.0473            0    5465.3196    23.188253    21.301284    21.546468    10642.653    5368.1701     5048.444    5979.3446   -415.97239   -114.41843    653.10487   -5516.0651 
15770000    123.40742   -6686.8521    -6369.394   -6686.8521            0    5797.1643    23.225961    21.255211    21.518954     10623.32     5660.217    5767.0399    5964.2362    741.97467    991.33652    108.41754   -5471.2381 
15771000     124.7514   -6699.2715   -6378.3561   -6699.2715            0    5206.0779    23.250021    21.213942    21.592563    10649.983    4518.2782    6150.8138    4949.1417    155.81513     349.2093   -339.28566   -5569.7529 
15772000     131.4917   -6698.2322   -6359.9778   -6698.2322            0     5660.024    23.256229    21.270155    21.478438    10624.601    6339.3771    5188.7396    5451.9552   -601.92419   -663.64645    25.262733   -5482.9632 
15773000    125.63632   -6690.4023   -6367.2105   -6690.4023            0    6149.2657    23.254879    21.200836    21.527881    10613.737    5269.8195    6959.6391    6218.3385    626.75369   -273.92672    434.05042   -5415.3627 
15774000     135.5221   -6671.2023   -6322.5799   -6671.2023            0    6124.9037     23.24983    21.234203    21.505753    10617.209    5860.2092    6260.0042    6254.4977    380.71504   -212.92018   -243.30924    -5374.193 
15775000    132.36757   -6680.9599   -6340.4523   -6680.9599            0    5806.7349    23.173706    21.301524    21.550409    10638.042    4962.7719    6239.4522    6217.9806    62.257761     780.4672    721.02363   -5439.5669 
15776000    129.90338   -6678.9956    -6344.827   -6678.9956            0    5507.5343     23.23241     21.32713      21.4922    10648.969    5824.1542    5014.5032    5683.9454    253.62886   -491.54651    468.82896   -5489.4833 
15777000    123.68458   -6669.4669   -6351.2958   -6669.4669            0    5260.9027    23.172421    21.300363    21.610278    10666.422    4422.9012    5724.5281    5635.2788   -546.55236    405.20705   -28.564309   -5532.9159 
15778000    116.72235   -6675.2574   -6374.9963   -6675.2574            0    6729.2056    23.132234    21.325468     21.48314    10597.756    6805.7541    5899.0536    7482.8092    779.74892   -111.23268   -104.34605   -5334.9478 
15779000    122.79812   -6686.1549   -6370.2643   -6686.1549            0     6008.647    23.117821    21.351226    21.512867    10618.618    6051.8636    5167.1093    6806.9681    -205.9721    290.03965    656.09138   -5439.7553 
15780000    134.16793   -6680.8011   -6335.6623   -6680.8011            0    5705.8204    23.122617    21.379853    21.482664     10620.13    5797.1972    5366.7408    5953.5233    508.86351    104.96559   -23.284775   -5451.9236 
15781000    130.28595   -6683.7606   -6348.6079   -6683.7606            0    5563.6858    23.050286    21.431131    21.561379    10651.185    6557.6035    4788.3038    5345.1502   -65.342738   -1171.7173   -652.24987   -5484.3638 
15782000    124.83381   -6669.9264    -6348.799   -6669.9264            0    5939.8853    23.041291    21.439494    21.547869     10644.51    6490.1247     4878.044    6451.4872   -30.019173   -563.02934    445.32996   -5426.6957 
15783000    129.45896    -6694.587   -6361.5617    -6694.587            0    4925.4886    23.130388    21.396378    21.556989    10668.694    5816.8674    3829.2316    5130.3669   -230.17768    26.417941    345.30471   -5595.1952 
15784000    123.97368   -6681.0175   -6362.1028   -6681.0175            0    6728.7603    23.009647     21.43746    21.495477    10603.039    7644.3151    5003.3581    7538.6078    497.63572   -350.67739    681.32422   -5321.6046 
15785000    130.59467   -6704.4229   -6368.4761   -6704.4229            0    6036.4612    23.065968    21.439435    21.450111    10607.537    6447.3123    5695.6776    5966.3938   -793.86631   -259.82135   -290.79907   -5434.6353 
15786000    126.79912   -6698.0539   -6371.8709   -6698.0539            0    6007.2907     23.05284    21.344556    21.596197    10626.466    6518.7749    5704.4224     5798.675    362.35196    259.21169   -18.058819   -5440.8843 
15787000    128.17577   -6683.7568   -6354.0325   -6683.7568            0    6872.8625    23.154037    21.354788     21.39558    10579.035    5824.6522    6884.5727    7909.3625   -469.47418    1648.3627    130.90304   -5293.6572 
15788000    125.41789   -6689.8883   -6367.2585   -6689.8883            0    5215.7042    23.149115    21.352376    21.595091    10674.207    5472.8155    4870.2154    5304.0818    157.40127   -382.87599   -470.86302   -5555.3175 
15789000    128.49493   -6686.0348   -6355.4895   -6686.0348            0    6364.8608    23.097663    21.371057    21.498049    10611.899    7088.0502    5139.3858    6867.1463    218.39167   -121.07888    251.48371   -5370.4403 
15790000    124.78774   -6693.3918    -6372.383   -6693.3918            0    5167.8468    23.093729     21.35258    21.643607    10672.694    5427.5407    5710.4349    4365.5648   -512.96528    577.03986    179.85058   -5568.0061 
15791000    126.33504     -6695.49   -6370.5009     -6695.49            0     6118.012    23.169944    21.319782    21.514446    10627.666    6359.6189    4740.8565    7253.5608   -326.97516   -185.51377    572.77335   -5422.2481 
15792000    128.44416   -6690.0972   -6359.6824   -6690.0972            0     5777.618    23.218612    21.353237    21.410144     10614.99    5520.0288    5618.1352      6194.69   -738.90227    301.98094   -169.53411   -5465.2567 
15793000    128.63002    -6680.198   -6349.3051    -6680.198            0    6647.4557    23.142004    21.224953    21.572118    10595.964    6097.3116    6816.2637    7028.7918    620.83626    243.26963    373.45821   -5322.0653 
15794000    129.43593   -6691.2813   -6358.3152   -6691.2813            0    5437.3528    23.238808    21.374865    21.425693    10642.707    5296.7102    5352.0967    5663.2515   -1092.9562   -385.43914   -107.24736   -5514.3676 
15795000    124.37873   -6712.1694   -6392.2127   -6712.1694            0    6404.1802    23.180247    21.140652    21.658262    10613.535    6329.4887    7327.7881    5555.2636    456.48792    417.65367   -1587.3379   -5400.9255 
15796000    124.33906   -6673.3361   -6353.4814   -6673.3361            0    5753.0234    23.247806    21.285984    21.485058    10631.933    5588.9129     5657.256    6012.9012   -1297.5183    64.316305    26.168793   -5461.4416 
15797000    124.99431   -6695.0121   -6373.4719   -6695.0121            0    6038.9977    23.203999    21.201873    21.602669    10627.827    6493.6045    6069.7058    5553.6826   -637.28569     728.9686    229.19454   -5437.4517 
15798000    127.93992   -6673.4919   -6344.3743   -6673.4919            0    6475.9246    23.219905    21.224977    21.572463    10631.815    5921.8624    7878.3461    5627.5653   -575.84712    -94.44522   -177.22318   -5340.2555 
15799000    130.34362   -6686.5633   -6351.2623   -6686.5633            0    5194.1479    23.363289    21.223549    21.487037    10654.388    4142.5091    5624.1345       5815.8    538.52593    360.60534    482.90573   -5544.1783 
15800000     126.7741   -6687.0226   -6360.9039   -6687.0226            0    5998.5277    23.214638    21.212488    21.605577    10639.455    5947.4018    6038.7528    6009.4285    90.991336   -921.58658    900.00115   -5430.1391 
15801000    128.43624    -6675.098   -6344.7036    -6675.098            0    6126.8048    23.253577    21.125752    21.651569    10636.318    5813.7523    7231.7954    5334.8666   -61.423567    143.26096   -755.57095   -5394.3149 
15802000    126.90672   -6697.9059   -6371.4461   -6697.9059            0     6095.653     23.26654    21.234996    21.464193    10604.704    5601.7948    6510.8535    6174.3106   -296.43549   -671.48062   -720.29523   -5428.7001 
15803000    129.07066   -6702.0891   -6370.0626   -6702.0891            0    6167.9871    23.185573    21.221054    21.594008    10624.734    6502.7485    6173.2756    5827.9372   -473.55591    344.56365    512.36449   -5414.3278 
15804000    127.22697   -6671.1683   -6343.8847   -6671.1683            0    6800.1144    23.224415    21.213493     21.46191     10573.66    6793.7866    6329.1506    7277.4061   -168.61369    984.27918    256.83896   -5295.2663 
15805000    126.82262   -6681.6071   -6355.3637   -6681.6071            0    5797.5177    23.118541    21.299201    21.614427    10643.083     6533.066    6199.5114    4659.9757    104.16296    -864.9599   -818.76947   -5455.4819 
15806000    131.32162   -6676.8218   -6339.0049   -6676.8218            0    6480.6567    23.197426    21.317513    21.482709    10623.445    6997.6043    5986.5671    6457.7986   -274.05285    318.23128    166.10528   -5334.9435 
15807000    131.27033   -6696.5722   -6358.8873   -6696.5722            0    6006.4139    23.134665    21.302203     21.55625    10623.337    5756.8078    5960.6693    6301.7647    829.47277   -733.10191    677.02348   -5428.3108 
15808000    124.56021   -6682.9402   -6362.5166   -6682.9402            0    6150.6721    23.122847    21.289308    21.571669    10619.073    7157.8302    5828.4782     5465.708    272.94519   -945.12847     -6.34736   -5409.9726 
15809000     130.1373   -6697.0544   -6362.2841   -6697.0544            0    4006.1404    23.228766    21.477605    21.414457    10683.635    3920.0177    3417.4442    4680.9593    -724.2131    654.61567   -526.33022   -5738.0879 
15810000    124.85791   -6696.5431   -6375.3537   -6696.5431            0    6632.0412    22.983278    21.324515    21.648482    10610.078    7283.3173    6482.0344    6130.7719    403.35499    1210.6996   -49.712999   -5349.1308 
15811000    129.46967   -6693.0157   -6359.9629   -6693.0157            0    6600.6339    23.163766    21.322681    21.447134    10593.031    5759.4723    6788.3989    7254.0305   -81.391893    230.17879    -427.0884   -5340.2409 
15812000    125.38086   -6679.1467   -6356.6121   -6679.1467            0    5177.4394    23.162926    21.395907    21.539971    10675.033    5285.5415    4890.5958     5356.181    261.77791   -305.16831   -716.18362   -5550.5655 
15813000    134.70524   -6683.2439   -6336.7229   -6683.2439            0    5112.9701     23.10829    21.299123    21.631868    10646.909    6323.7666    4995.0657    4020.0779   -221.26024   -283.22869   -213.24691   -5542.8104 
15814000    123.38628   -6679.8533   -6362.4496   -6679.8533            0      7582.77    23.179698    21.269859    21.427747    10564.499    7300.4523    7494.2994    7953.5583   -161.76379    855.64315    418.91421   -5194.1542 
15815000    125.35345   -6707.0674   -6384.6033   -6707.0674            0    5702.7836    23.125232    21.293639    21.611406    10641.896    5423.6034    6339.8446    5344.9027   -434.69003   -329.96395   -809.48215   -5499.5248 
15816000    130.98279   -6679.4846   -6342.5393   -6679.4846            0    5758.4814    23.228664     21.27259    21.500171    10623.962    5924.5594    5495.0822    5855.8026    133.58541    628.06086    256.15388   -5450.3226 
15817000    119.78774   -6691.6725   -6383.5259   -6691.6725            0    5399.5559     23.20076    21.193413    21.658603    10649.606    6114.7977    5895.8075    4188.0625     118.1701   -209.16729   -146.72926   -5544.9015 
15818000    122.08148   -6688.5736   -6374.5264   -6688.5736            0    5237.0458    23.331509    21.201949    21.542905    10656.704    4728.0248    5909.3251    5073.7875    350.44013   -492.92333   -332.24051      -5560.6 
15819000    120.54864   -6690.4885   -6380.3844   -6690.4885            0    6894.5826    23.204833    21.206917    21.495297    10577.899    7766.5239    6772.0776    6145.1462   -757.38516   -892.65003    -227.9396   -5316.7723 
15820000    125.86192    -6682.734   -6358.9618    -6682.734            0    6759.2516     23.26598    21.171405    21.492161    10586.469    5589.5395    6841.9274     7846.288     1202.907    -227.0878    937.41497   -5315.3822 
15821000    129.42371   -6692.4264   -6359.4918   -6692.4264            0    5237.1471     23.23204    21.230638    21.587981    10647.862    4459.4134    5821.6694    5430.3585   -200.21447    431.40541    642.38257   -5546.2249 
15822000     137.5888   -6685.5986   -6331.6598   -6685.5986            0    6524.0939    23.195592    21.296016    21.486132    10613.584    5927.2139    7402.2616    6242.8061    12.741347   -375.05571    -343.9391   -5321.8068 
15823000    128.24692   -6704.8225   -6374.9151   -6704.8225            0    5720.5976    23.200964    21.288283    21.509434    10623.697    5769.4425    5444.7468    5947.6033    50.590657    62.116421    539.29429   -5488.5902 
15824000    129.44926   -6696.7075   -6363.7072   -6696.7075            0    4822.8164    23.136223     21.30482    21.647773     10670.47    5106.4049    5411.6886    3950.3556   -546.19062    309.38253    1101.2187   -5613.1908 
15825000    131.94996   -6697.8548   -6358.4216   -6697.8548            0    6981.8944     23.17612    21.263432    21.472037    10581.502    6092.5839    6832.3839    8020.7154     1793.963    1133.3419     771.1128   -5280.9731 
15826000    124.64318   -6687.3963   -6366.7594   -6687.3963            0    4932.2536    23.104348    21.405363    21.601656    10683.249    5423.8454     4736.902    4636.0133   -340.65838   -197.85768    400.82871   -5598.2934 
15827000    126.59359   -6687.9269   -6362.2725   -6687.9269            0    6899.7065    23.163641    21.248975    21.461469    10563.413    7371.4119    7397.8407    5929.8668    450.28612    917.10142   -994.74665   -5299.3276 
15828000    129.30712   -6675.6586   -6343.0239   -6675.6586            0    6109.6191    23.071516    21.330888    21.574241    10617.459    5719.4463    6108.4049    6501.0061    244.12409    -407.3181   -493.48671   -5396.9814 
15829000     126.6212   -6704.2567   -6378.5314   -6704.2567            0    5210.1117    23.173899    21.374862    21.524704    10662.023    5018.2546    4875.8701    5736.2103     228.0379    125.67082    600.65235   -5568.3868 
15830000    137.16547   -6693.4693   -6340.6195   -6693.4693            0    5274.8616    23.164285    21.324282     21.55989    10649.761     5707.674    4892.2613    5224.6495   -170.45833   -153.22212    122.61998   -5521.3499 
15831000    124.22815   -6690.8615   -6371.2921   -6690.8615            0    5694.7949    23.158045    21.279919    21.552903    10621.299    5964.5886    5136.3188    5983.4773   -470.60031     672.5138    144.05246   -5489.1641 
15832000    126.29228   -6696.4703   -6371.5911   -6696.4703            0    5548.4477    23.243515    21.293116    21.489671    10635.815     5429.299    5027.0398    6189.0043    -144.9907    412.08681   -268.07606   -5510.9578 
15833000    127.63773   -6692.3651   -6364.0248   -6692.3651            0    5784.8664    23.158473    21.268924    21.617354    10647.753    5677.7333    7055.7207    4621.1453   -54.198784   -95.704353   -1149.4724   -5465.7128 
15834000    131.39321   -6670.8322   -6332.8312   -6670.8322            0    6269.5959    23.235706    21.262285    21.471301    10607.772    4674.4271     7389.136    6745.2246    -97.92661     643.5685   -211.23056   -5362.9029 
15835000    123.95433   -6689.4537   -6370.5888   -6689.4537            0    5604.0756    23.098371    21.232559    21.725198    10654.852     5537.528    6060.5474    5214.1514    858.16094   -441.38375    618.79207    -5499.771 
15836000    127.51783   -6695.7456   -6367.7137   -6695.7456            0    5581.1552    23.296387    21.310301    21.385361    10616.827    4757.8385    4670.0235    7315.6034    25.604549    219.95934    491.22545   -5503.5526 
15837000    123.59251   -6697.8585   -6379.9243   -6697.8585            0    5864.0678    23.107145    21.297177    21.598112    10628.797    6729.7938    5232.1348    5630.2747   -373.78651   -1028.3029   -617.67785   -5470.9345 
15838000    131.01742   -6695.9459   -6358.9115   -6695.9459            0    5842.2431    23.242953    21.215478    21.552896    10627.956    4713.7629    6457.0111    6355.9554    1001.4894   -218.12263    142.38321   -5453.3765 
15839000    123.12305   -6700.2422   -6383.5157   -6700.2422            0    5987.0585    23.188223    21.270692    21.504447    10606.629    6102.8702    6421.7634    5436.5419   -1107.7334    196.79157    348.02969   -5457.3967 
15840000     126.7397   -6698.1427   -6372.1126   -6698.1427            0    5559.2007     23.19744    21.300126    21.522414    10634.406    5763.4652    5125.4741    5788.6628   -70.496163    489.86758    33.849339   -5509.9256 
15841000    123.39376   -6692.8733   -6375.4504   -6692.8733            0    6071.9319     23.14471     21.33221    21.538709     10634.26    5727.8095    5468.6192    7019.3671    -1610.173    565.86269    411.88874   -5433.7558 
15842000    126.36426   -6684.7077   -6359.6433   -6684.7077            0    6376.6692    23.129514    21.289689    21.526859    10600.259    6666.1172    6593.2189    5870.6716    -71.13253    -80.62479   -790.27004   -5373.8491 
15843000    126.85863   -6687.9953   -6361.6592   -6687.9953            0    6418.8276    23.184974    21.306819    21.477207    10609.698    5676.5558    6397.7746    7182.1523   -678.28389     206.4456    110.57894   -5368.4639 
15844000    124.22028   -6673.3394   -6353.7903   -6673.3394            0    7003.6844    23.166519    21.169893    21.607584    10597.067    7090.9634    7365.4245    6554.6653    -231.7127     476.3783   -189.28138   -5271.3894 
15845000    123.63432   -6701.9517   -6383.9099   -6701.9517            0    5261.1856    23.286065    21.314538    21.438014    10640.366    3928.6101    5731.4661    6123.4806     168.9204   -188.43936    235.95044   -5567.4853 
15846000    132.58671   -6687.3086   -6346.2374   -6687.3086            0    6544.9936    23.102658    21.212799    21.666442    10618.118    7790.4327    6215.0646    5629.4836   -562.00562   -572.19493   -406.83179   -5332.7166 
15847000    128.04634   -6698.1675   -6368.7761   -6698.1675            0    4761.2153    23.271456    21.308708    21.510907    10666.929    4821.8781    3130.0059    6331.7619   -113.35758    69.064167    475.35639   -5628.0918 
15848000      120.175   -6689.9297   -6380.7869   -6689.9297            0     5871.937    23.192746    21.256604    21.577147    10637.512    5491.9727    5441.8065    6682.0318    36.279892   -654.97368    681.07437    -5469.831 
15849000    129.10036   -6694.2499   -6362.1471   -6694.2499            0    5795.9723    23.210525    21.271404    21.525305    10627.483     5304.031    5719.7164    6364.1694    207.28047    434.76403    264.27038   -5463.8239 
15850000    121.83413   -6682.6866   -6369.2757   -6682.6866            0    7200.4864    23.094283    21.269475      21.5484    10584.645    7012.5646    7761.2619    6827.6326    76.335532   -316.49053    433.23445   -5257.7641 
15851000    125.98367   -6701.6801   -6377.5948   -6701.6801            0    5678.8385    23.311248    21.207197    21.460435    10609.314    5032.9359    6275.1551    5728.4244    864.74955   -4.7008474   -171.20813    -5498.931 
15852000    123.52836   -6683.1877   -6365.4185   -6683.1877            0    5628.0995    23.143246    21.345158    21.567521    10654.274    6348.8623    5407.7059    5127.7303   -403.82028   -803.65587    332.81493    -5490.915 
15853000    128.30745   -6681.9317   -6351.8686   -6681.9317            0    5606.7647    23.218201    21.284267    21.582746    10665.813    5395.4547    6261.8065    5163.0329    1078.8504    326.78226    -84.18921   -5479.7367 
15854000    129.04222   -6682.7541   -6350.8008   -6682.7541            0     6900.767     23.09145    21.300989     21.52179    10585.938     6754.368    6672.6375    7275.2956    -555.8688    489.18098    1074.5529   -5285.4256 
15855000    124.37398   -6673.0459   -6353.1014   -6673.0459            0    5590.7002    23.171268    21.273054    21.578685    10636.643    6346.8878    5163.6136    5261.5992    1349.8119    -317.7637    170.33187   -5485.8466 
15856000    125.60524    -6691.642   -6368.5302    -6691.642            0    6319.5762    23.135758    21.288924    21.494683    10586.892    6667.3835    5966.3479    6324.9972   -567.75779    849.25163    382.56772   -5392.7942 
15857000    128.12547   -6698.2928   -6368.6978   -6698.2928            0    5806.5938    23.098624    21.308532    21.596021    10629.514    6665.5668    4834.4743    5919.7403    883.16028   -88.996578    215.00749   -5468.5564 
15858000    127.02292   -6689.2764   -6362.5177   -6689.2764            0    7316.0906    23.013357    21.379015    21.492362    10574.305    8599.5579    6690.1899    6658.5239    930.71925   -307.73132    343.22829   -5234.2639 
15859000    126.89957   -6699.2044    -6372.763   -6699.2044            0    5545.0223    23.116784    21.364444    21.535061    10635.676    5829.9992     5502.193    5302.8746   -505.18892    255.91185   -428.32181   -5512.6722 
15860000    127.78899   -6695.7272   -6366.9979   -6695.7272            0    6092.4257    23.168127     21.35339    21.444035    10608.751    5677.4729    5835.7043       6764.1    1019.8098    290.06657   -110.64548   -5424.3914 
15861000    129.51946   -6692.7945   -6359.6136   -6692.7945            0    6178.5731    22.918387    21.410298    21.636322    10616.716    7631.7779    5170.7501    5733.1912   -1120.1003    1065.0907    993.08924    -5402.961 
15862000    126.13086    -6684.433    -6359.969    -6684.433            0     5652.978    23.169861    21.344264    21.513766    10639.496    4930.5844    5430.3156    6598.0341    1166.8951   -72.784268    205.10375   -5482.8183 
15863000    127.59458   -6686.2708   -6358.0415   -6686.2708            0    5630.1715    23.108733    21.418143    21.485773    10634.301    5734.5257    4836.2169    6319.7719   -766.12101   -375.63992     848.0885   -5484.8561 
15864000     126.8058   -6677.9144   -6351.7142   -6677.9144            0    5830.6524      23.1201     21.32047    21.581905    10638.399    6020.3479    5852.7344    5618.8749    825.24393   -236.70915    24.603019   -5447.0877 
15865000    125.28241   -6672.9229   -6350.6416   -6672.9229            0    7288.3029    23.094115    21.304964    21.534637    10595.457    7680.1068    6682.9796    7501.8223    10.405257    -934.4724    349.56776   -5224.4248 
15866000    126.17225   -6706.8973   -6382.3268   -6706.8973            0    5454.2307    23.207096    21.297563    21.497857    10625.415    5023.2556    4634.0158    6705.4209    -537.2248    933.06254   -453.34908    -5537.135 
15867000    116.27853   -6699.1463   -6400.0269   -6699.1463            0    5819.3095    23.181683    21.329764    21.527067     10644.27    5542.2233    5898.2839    6017.4213   -701.38546   -348.15075    -33.15654   -5496.6619 
15868000    125.36937    -6695.323   -6372.8179    -6695.323            0    6335.6821    23.187426     21.22207    21.503262    10581.436     6224.484    6354.5902     6427.972    628.00667    473.03322    234.53481   -5395.0993 
15869000    127.36653   -6698.7945   -6371.1519   -6698.7945            0    5111.3133    23.136518    21.313597     21.62728    10664.896    5565.1375    4871.3188    4897.4835   -53.068134   -340.75081    163.76028   -5576.1557 
15870000    127.60136   -6696.5114   -6368.2646   -6696.5114            0    5701.8452    23.208536    21.367532    21.451551     10638.02    6015.0892    4669.5452    6420.9012   -161.26649   -394.09269   -398.57123   -5483.6541 
15871000    121.85616   -6680.1384   -6366.6708   -6680.1384            0    5965.4871    23.055211    21.269373    21.666434    10624.567    6444.4162    5636.6158    5815.4294   -403.80018    495.61523    1077.4181   -5442.3281 
15872000     128.2831   -6671.6183   -6341.6178   -6671.6183            0    6278.9687    23.140256    21.315579    21.554534     10631.73    7408.3733    5565.2496    5863.2831    121.54335   -950.66675    209.59344   -5368.0457 
15873000     124.7529   -6689.4097   -6368.4905   -6689.4097            0    5478.4014    23.132821     21.39273    21.488142    10633.927    6167.3424    5564.1928    4703.6691   -12.414173    -1920.245   -524.98567   -5518.8731 
15874000     124.8897   -6678.4009   -6357.1297   -6678.4009            0     6268.977    23.146723    21.279202    21.592026    10635.019     6964.475    5832.4051    6010.0507   -474.75671      43.6284    1001.5772   -5384.8061 
15875000     130.2819   -6682.2397   -6347.0974   -6682.2397            0    5725.0948    23.189478    21.368297    21.453932    10630.845    5982.1505    4788.9822    6404.1517   -653.28322   -351.54888    408.43798   -5459.4789 
15876000    131.31918   -6701.6694   -6363.8588   -6701.6694            0    5456.9959    23.151755    21.304089    21.591044    10649.287    5453.1212    4405.9446    6511.9218    471.65894   -303.75861    14.652847   -5516.3386 
15877000    125.74506   -6689.8833   -6366.4118   -6689.8833            0    5681.8157    23.206989    21.394287    21.411153    10630.573    4487.2956    5471.8244    7086.3272     102.2494     442.3545    337.93815   -5485.5258 
15878000    129.25995   -6692.1339   -6359.6206   -6692.1339            0    6352.7463     23.02486     21.31124    21.633443    10615.277    7585.2323    5732.1624    5740.8442   -776.33927    732.15827    1055.9996   -5376.1333 
15879000    130.67815   -6676.9117   -6340.7501   -6676.9117            0    6215.5409    23.181444    21.419109    21.373937    10612.712    5453.4765    5740.7828    7452.3634   -74.443564    174.72938   -272.86607   -5378.7365 
15880000    123.95237   -6706.0189    -6387.159   -6706.0189            0    5989.5829    22.961538    21.408788    21.616762     10626.34    6959.8211    5169.5729    5839.3545   -689.66069    683.38483    295.76451   -5458.9278 
15881000    121.25655   -6695.3836   -6383.4585   -6695.3836            0    5800.3273    23.137249    21.304991    21.538456    10617.143    5792.0654    5035.2632    6573.6531    416.64745    79.153315    1256.5267   -5485.3351 
15882000    132.90462   -6693.9937   -6352.1047   -6693.9937            0     5396.094     23.19101    21.352075    21.542821    10667.492    3688.8263    6165.7205    6333.7352   -11.075328     645.7446   -835.15926   -5512.6105 
15883000    127.12882   -6683.5959   -6356.5648   -6683.5959            0    5203.9744     23.20499    21.376897    21.530323    10680.132    5079.3007    4587.2538    5945.3689   -296.51254     527.8932     753.2069   -5546.0001 
15884000     122.3571   -6690.3543   -6375.5981   -6690.3543            0    6623.5541    23.101169    21.247106    21.562438    10583.556    5934.2547    6508.1301    7428.2777    978.07586    118.60447    1139.6213   -5353.2505 
15885000    125.15791   -6706.9177   -6384.9566   -6706.9177            0     5418.574    23.240099    21.297398    21.515758    10649.303    4138.5659    6238.8967    5878.2593    421.83951    591.87715   -564.64839   -5543.4024 
15886000    130.31157   -6681.9256    -6346.707   -6681.9256            0    6498.4491    23.320464     21.27443    21.403814    10619.065     6351.625    7106.7779    6036.9444   -221.64482   -266.62645   -930.75701   -5340.3041 
15887000    130.36285   -6701.3001   -6365.9496   -6701.3001            0    6571.3323    23.178935    21.161481    21.603485    10596.522    6617.6039    6528.3335    6568.0594     206.8238   -55.330409    330.09662   -5350.4198 
15888000    123.87796   -6700.9456    -6382.277   -6700.9456            0    4367.7108    23.409771     21.23165    21.515482    10693.798    3196.0626    5445.5487    4461.5212     675.0682    -211.4111   -240.63714   -5701.0973 
15889000    124.12934   -6689.2451     -6369.93   -6689.2451            0    5856.6236    23.264348    21.169118    21.616788     10645.96    6039.3007    6583.8156    4946.7544   -335.45535    590.53586   -860.94947   -5460.6282 
15890000    122.67675    -6682.873   -6367.2945    -6682.873            0    4815.7331    23.350776    21.175378    21.562099    10661.628    4845.3637    5176.9004     4424.935   -67.995524   -481.91073    110.82196   -5618.5014 
15891000     125.9841   -6693.0796   -6368.9932   -6693.0796            0    6921.5066    23.212874    21.110938    21.617417    10593.519    7124.1987    7595.6104    6044.7106   -542.79116   -1282.5022   -328.58645   -5299.6509 
15892000    127.46986   -6690.3547   -6362.4463   -6690.3547            0    5685.1977    23.271325    21.238169    21.494727    10623.561    5319.2772    5809.7223    5926.5936   -502.70285    270.34922   -728.51721   -5481.6173 
15893000    128.47052   -6693.0357   -6362.5531   -6693.0357            0    5563.0636    23.279373    21.154331    21.603403    10638.802    5482.1371    6315.6368    4891.4169   -138.77237   -17.262021   -420.04999   -5499.4103 
15894000    128.96628   -6696.5339    -6364.776   -6696.5339            0    5580.3194    23.254661    21.133981    21.632786    10631.726    5509.1337    6376.3856    4855.4391   -1623.6558   -219.68949     131.0484   -5499.5318 
15895000    128.68284   -6673.8402   -6342.8115   -6673.8402            0    6138.3304    23.293691    21.191645    21.507205    10616.636    5916.7941      6826.66    5671.5372   -352.80969   -1103.8847   -996.98818   -5392.3969 
15896000    125.63568   -6691.5899   -6368.3998   -6691.5899            0    5883.4631    23.244787     21.18609    21.584507    10629.639    4753.7252    7030.3051    5866.3589   -578.40547   -318.53102   -119.83407   -5456.3314 
15897000    124.30264   -6694.9325   -6375.1715   -6694.9325            0     5798.728    23.331835    21.138383     21.52593     10616.53    4684.9962     7030.375    5680.8129    509.20342    842.97458   -232.40716   -5477.3475 
15898000     120.7654   -6690.7671   -6380.1054   -6690.7671            0     4957.621     23.21212    21.291154    21.547858    10649.227    5052.0503    5648.9627    4171.8502   -620.45747      50.0748   -147.33156   -5610.1469 
15899000    131.29695   -6684.8129   -6347.0595   -6684.8129            0    6036.0795    23.233174    21.163395    21.650301    10645.298    5528.3491    6397.1906     6182.699    949.90173   -235.53132   -173.30105   -5409.9536 
15900000    123.69909   -6686.4927   -6368.2843   -6686.4927            0    5362.0977    23.186847    21.309531    21.542635    10644.234    5348.3603    5350.3711    5387.5615   -1440.0855    198.05012    182.43479   -5535.8978 
15901000    127.30121   -6678.6582   -6351.1836   -6678.6582            0     5816.339    23.256736    21.289881    21.469357     10630.19     5494.756    5932.9561     6021.305   -384.96709   -25.760012   -399.76081   -5449.4741 
15902000    127.89282   -6707.4575    -6378.461   -6707.4575            0    5534.9587    23.155241    21.267686     21.58855    10631.462     4780.183    5334.6232    6490.0699   -158.70369    838.42288    336.78614   -5520.2714 
15903000    128.56968   -6674.9035   -6344.1658   -6674.9035            0    6632.0355    23.206997    21.272178    21.464415    10596.195    6372.0723    6452.7174    7071.3169   -109.32243    188.15946   -483.98781   -5319.2865 
15904000    128.36716   -6694.9923   -6364.7756   -6694.9923            0    5649.2148    23.179948    21.320719     21.49819    10624.688    6456.0308    5574.7676     4916.846   -337.87163   -75.758069    -1227.335   -5489.4288 
15905000    122.68104   -6695.5266   -6379.9371   -6695.5266            0    5233.6297    23.072544    21.301858    21.656034    10643.682    5721.6054    5094.1906    4885.0931   -131.64133    732.86668    85.336592   -5567.5354 
15906000    120.52039   -6699.5908   -6389.5594   -6699.5908            0    6317.4436    23.133615    21.398891    21.407495    10597.432    6694.4924    4920.6961    7337.1424    249.97077   -43.026617   -36.021737   -5413.1817 
15907000    124.88918   -6695.1014   -6373.8316   -6695.1014            0    5821.6877    23.053221    21.411262    21.551031    10637.557    6722.8109    5076.3936    5665.8585   -1292.3171   -353.64599    113.22991   -5470.6674 
15908000     125.5917   -6698.1079   -6375.0309   -6698.1079            0    6324.1425    23.064833    21.403472    21.493677     10610.73    5904.1036    6707.5862    6360.7377    1018.6323    172.20424    -743.3373   -5396.3912 
15909000     130.9723   -6698.8919   -6361.9737   -6698.8919            0     5784.965    22.946607    21.544996    21.489297    10623.976     7186.629    4502.0763    5666.1897    21.103922   -98.841558    590.17082   -5465.6524 
15910000    129.65209   -6700.5331    -6367.011   -6700.5331            0    6144.1386    23.021694    21.424008    21.458353    10583.623    7075.8731    5617.3143    5739.2284    491.51016   -1222.9728    -773.4768   -5418.6552 
15911000    123.46823    -6701.758   -6384.1435    -6701.758            0    5350.0682     22.94653    21.525592    21.543924    10641.355    6522.1216    4397.7093    5130.3737   -109.71657    564.62691    517.25878   -5553.8491 
15912000    125.54188    -6681.364   -6358.4152    -6681.364            0    6690.5375    22.940122    21.452277    21.541234    10600.825    7649.9236    6275.1949    6146.4939   -444.20967    227.85618   -1086.2414   -5324.0436 
15913000    126.38122   -6683.8285   -6358.7205   -6683.8285            0    7035.4527    23.021719    21.385143     21.45079    10560.712     7627.177    6841.7215    6637.4595   -99.899688     794.6978   -386.89935     -5275.14 
15914000    124.52385    -6695.309    -6374.979    -6695.309            0    5863.5939    23.012354     21.40158    21.564833    10620.696    6021.9911    5836.4367     5732.354   -748.96264    686.92365   -635.86123   -5466.7554 
15915000     125.4493   -6683.2793   -6360.5686   -6683.2793            0    5937.7787    23.146285    21.407215    21.429951    10618.487     5538.529    5016.0585    7258.7485    279.02733    246.58779    175.09458   -5441.0457 
15916000    126.91932   -6676.2708   -6349.7786   -6676.2708            0    6001.7412    23.122017    21.357947    21.536545    10635.582    5940.8769    5697.2345    6367.1124   -304.26072    117.43441     791.0217   -5418.8542 
15917000    124.17986   -6690.7728   -6371.3277   -6690.7728            0    5060.6233    23.067196    21.402208    21.607142    10667.207    6157.8247     4280.715    4743.3301   -10.842906    135.41084    275.10428   -5584.0451 
15918000    129.61425   -6685.4555   -6352.0307   -6685.4555            0    4695.8334    23.178892    21.377806    21.534695     10670.74    5498.5003    4015.9725    4573.0275    189.89792   -364.98165   -134.21614   -5621.2566 
15919000    134.05093   -6683.2133   -6338.3754   -6683.2133            0     5292.622    23.115061    21.346413      21.6053    10660.566    5012.1775    4934.2654    5931.4229   -118.92125   -787.43942    84.682294   -5515.5134 
15920000    125.81706   -6688.7075   -6365.0508   -6688.7075            0    6326.1406    23.193521    21.301521    21.469765    10607.294    7865.0106    4390.0973    6723.3139   -892.82518   -425.21499    464.89753    -5386.419 
15921000    124.53958   -6687.6854   -6367.3149   -6687.6854            0    4744.4566    23.175558    21.323893    21.630017    10689.405     4934.656    5022.8381    4275.8756    868.41181   -652.53532   -612.78187   -5627.6825 
15922000    127.56569   -6688.5474   -6360.3925   -6688.5474            0    5925.9502    23.185064    21.253032    21.544891    10616.308    4587.1579    6626.6436    6564.0492    406.44138    329.22504    472.79138   -5442.8897 
15923000    124.53692    -6689.302   -6368.9384    -6689.302            0    6763.3195    23.221132    21.201445    21.515353    10592.472    7013.2536    7391.6023    5885.1026   -416.30039   -24.015265   -645.11117   -5324.1385 
15924000    127.63623   -6704.5264     -6376.19   -6704.5264            0    5290.6608    23.269028    21.239984    21.554797    10653.109    4445.2892     6806.168    4620.5253   -318.88793    152.04932   -1650.8474   -5554.2083 
15925000    125.56963   -6678.3581   -6355.3378   -6678.3581            0    6823.6473    23.195008    21.210099     21.50069    10577.661    6027.3614    7278.4836    7165.0969   -920.93291    792.72564   -191.86912   -5302.6925 
15926000    126.42944   -6701.9332   -6376.7012   -6701.9332            0    5686.3731    23.208441    21.222179    21.596037    10636.776    6088.0928    5347.6859    5623.3407     825.0314   -840.24748    557.05091   -5494.5942 
15927000    128.10276    -6672.614   -6343.0774    -6672.614            0    4941.6367    23.360228    21.234597    21.502658    10666.287    3777.8734    6111.6927    4935.3439   -895.93106   -165.79079   -680.16642    -5574.372 
15928000    127.51496   -6684.9469   -6356.9225   -6684.9469            0    6132.8481    23.259088    21.172358    21.571538    10622.898    6338.7721     7240.018     4819.754   -446.43245   -622.74282   -148.27084   -5406.7967 
15929000      125.663    -6683.734   -6360.4736    -6683.734            0    5793.3119    23.302621    21.116573    21.591438    10624.531    5623.7203    5895.3797    5860.8359    117.86136    34.234907     808.1196   -5462.8122 
15930000    128.27438   -6689.8191    -6359.841   -6689.8191            0    5644.2402    23.332716    21.240482    21.466521    10638.768    3769.5405     7019.791     6143.389    733.13019   -642.75097   -839.77549    -5484.106 
15931000    127.46016   -6689.8186   -6361.9351   -6689.8186            0     7309.293    23.208842    21.116838    21.587414    10579.934     7441.384    8459.4048    6027.0901   -77.957076    200.93843   -179.16785   -5234.1296 
15932000    125.94124   -6674.4378   -6350.4616   -6674.4378            0    6327.2895    23.243777    21.159914    21.575841    10611.782    6452.8021    7021.7493     5507.317    379.58072    130.03864   -777.56139   -5371.2379 
15933000    122.82009   -6692.6312    -6376.684   -6692.6312            0    5011.5002      23.3149    21.200166    21.583648     10668.36    3655.4428    6166.8413    5212.2166   -793.99928    91.755938   -328.65816   -5596.9593 
15934000    125.65026   -6695.2565   -6372.0289   -6695.2565            0    5711.1758    23.308316    21.181135    21.541559    10634.994     5529.983    6420.3661    5183.1782    596.40124   -633.43958    -589.3033   -5486.2227 
15935000    131.88717    -6692.362   -6353.0903    -6692.362            0    5651.2892    23.230008     21.15981    21.632809    10633.447    5013.3156    6865.2974    5075.2545    511.52893   -238.91327     379.1728   -5476.7002 
15936000    133.90775   -6692.0992   -6347.6296   -6692.0992            0    6278.3124    23.234625    21.245754    21.522933    10624.519    6719.5142       5720.6    6394.8231   -15.452982   -109.47927    253.49099   -5374.8195 
15937000    123.40279   -6701.6443   -6384.1981   -6701.6443            0    5114.6965    23.272483    21.342134    21.453196    10655.469    4453.6284    5233.1111    5657.3499   -491.36045   -473.70768   -223.65266    -5589.379 
15938000    130.81315   -6682.0275   -6345.5186   -6682.0275            0    6648.4338    23.096079    21.244181    21.622362    10609.169    6205.9506    7174.7943    6564.5565    356.30519    229.20262    702.52506   -5316.8474 
15939000    118.61436   -6687.4461   -6382.3178   -6687.4461            0    5923.5882     23.19756    21.255541    21.503406    10602.828    5339.9384    6546.5833     5884.243    345.25407    579.69552    474.45002   -5466.3453 
15940000    129.64429   -6667.3194   -6333.8174   -6667.3194            0    6101.7008    23.183931     21.25935    21.581257    10636.868    6629.2051    5953.1651    5722.7321    195.81328   -1398.7452    -493.5115   -5387.2739 
15941000    129.94319   -6684.2078   -6349.9368   -6684.2078            0    6512.6859    23.212137    21.254987    21.516708    10615.777     5983.107    7713.6705    5841.2801    435.52235    154.21537    108.18454   -5341.6414 
15942000    128.12917   -6688.7549   -6359.1504   -6688.7549            0    4946.3686    23.236745    21.222462     21.62296    10663.167    4834.0745    5256.4403     4748.591    240.75894    63.475776    963.59295    -5589.934 
15943000    125.73891   -6695.3314   -6371.8757   -6695.3314            0    5071.4053    23.312865    21.193566    21.561084    10652.959     4578.994    5905.2969    4729.9251   -101.86569    361.78676   -373.03156   -5583.9696 
15944000    129.12576   -6697.9648   -6365.7966   -6697.9648            0    4879.6861     23.23118    21.338057    21.528025    10671.619    4957.0557    4975.7323    4706.2702   -739.52544   -120.49182   -727.27578   -5606.3485 
15945000    128.09489   -6678.2135   -6348.6972   -6678.2135            0    6760.6043    23.176101    21.219585    21.542387    10594.271    6637.8357    6809.2078    6834.7696   -378.09166    769.82303    419.93963   -5304.1394 
15946000    126.60367   -6692.1534   -6366.4731   -6692.1534            0    6042.4531    23.102719    21.247052    21.632723     10618.74    6375.0877    5546.0147     6206.257   -357.24643   -132.01432    337.99595   -5430.7182 
15947000    125.18544   -6681.6673   -6359.6354   -6681.6673            0    5788.7264     23.21861     21.31213    21.484556    10631.375    6734.6613    5404.5222    5226.9957   -1684.4395    501.08694   -1618.2581   -5462.1066 
15948000    127.45836   -6681.4083   -6353.5294   -6681.4083            0    6399.9045    23.135707    21.248527    21.577542    10607.513    7062.9597    5411.3527     6725.401    520.25322   -115.00642     82.87712   -5363.4661 
15949000    129.22278   -6687.4425   -6355.0248   -6687.4425            0    5195.0651    23.224964    21.241562    21.597616    10654.849    4316.0034    4976.2355    6292.9563   -63.063128    277.30352    1393.1862   -5547.7633 
15950000    123.98369   -6690.8649   -6371.9244   -6690.8649            0     6573.133    23.171164    21.250734    21.506236    10589.762    6572.5206    6519.7649    6627.1135   -571.61324    220.45302   -79.477086   -5356.7643 
15951000    125.49746   -6680.7404   -6357.9059   -6680.7404            0    6507.8482    23.148328    21.307452    21.522222    10615.446    6153.2122     7202.143    6168.1894   -230.32559   -583.77258   -684.68401   -5350.3908 
15952000    126.58014   -6691.4204   -6365.8007   -6691.4204            0     4918.164    23.192025    21.260365    21.583444    10642.168    5369.4951    4378.2996    5006.6971    1047.4737     423.2492    518.52881   -5602.4765 
15953000    123.27858   -6701.9103   -6384.7837   -6701.9103            0    6662.7229    23.083766    21.315462    21.506638    10582.151    6726.3277    6555.9075    6705.9335    95.169859    59.169151   -301.54538   -5356.5268 
15954000    127.36211    -6695.009   -6367.3777    -6695.009            0    6395.6063    23.172164    21.340795    21.420843    10592.873    5823.0214     6786.299    6577.4985   -133.21592    743.69391   -841.24038   -5379.3449 
15955000    127.36282   -6700.5279   -6372.8948   -6700.5279            0    5263.7077    23.017384    21.353438    21.620046    10626.259    6407.7488    5151.8733    4231.5011   -631.15033   -559.70802    30.326165   -5557.1618 
15956000    122.90273   -6694.3724   -6378.2126   -6694.3724            0     6396.776    23.151739    21.325211    21.453641    10591.999    6115.5607    6278.7776    6795.9898    392.25738   -522.21995   -326.95912   -5390.0806 
15957000     119.8046   -6686.0791   -6377.8891   -6686.0791            0    6117.0999    23.033274    21.393057     21.55747    10622.489    7014.2419    6232.5439    5104.5139    -763.9426   -542.97818   -678.36092   -5430.2395 
15958000    127.15439    -6688.866   -6361.7691    -6688.866            0    7189.2392    23.094966    21.319007    21.493753    10582.702    6944.5424    7426.5683     7196.607     744.3962     902.1433    506.99248   -5252.1974 
15959000     130.9157   -6690.3847    -6353.612   -6690.3847            0     5485.462    23.064808    21.361954    21.608115    10646.521    6722.4588    5156.0122    4577.9151    999.59287   -703.82147    154.04934   -5501.8921 
15960000    124.09045   -6684.5733   -6365.3582   -6684.5733            0    5981.8238    23.146212     21.43719    21.419803    10628.286    6420.8083    5832.2324    5692.4307   -714.38744   -22.408102    -588.9932   -5438.1596 
15961000    127.01277   -6673.3332   -6346.6006   -6673.3332            0    7465.1877     22.98119    21.311511    21.588851    10573.439    7915.5796    7579.7504     6900.233     596.3936    671.71849     -790.117    -5195.448 
15962000    124.04944     -6691.38   -6372.2704     -6691.38            0    6065.4963    23.089186     21.39764    21.481813    10613.178     5553.221     6667.008      5976.26   -275.24691   -3.1899494    117.90263   -5433.4389 
15963000    128.81994   -6702.4326   -6371.0512   -6702.4326            0    5448.5583    23.164259    21.329033    21.569271    10656.757    4598.4542     5363.283    6383.9376    330.48308   -29.165895    887.72016   -5524.2478 
15964000    128.50455   -6698.7015   -6368.1314   -6698.7015            0    4928.7936    23.146861    21.417009    21.557229    10686.706    5560.3311    3677.8712    5548.1785   -624.25485   -952.29208    240.67613    -5599.956 
15965000    121.60531   -6696.8445   -6384.0222   -6696.8445            0    6264.7949    23.184918    21.320988    21.442129    10599.388    6156.5113    5920.3535    6717.5197     227.4883   -290.07401    218.38766   -5415.6027 
15966000    125.21676   -6692.9395    -6370.827   -6692.9395            0    5725.7688    23.132453    21.284115    21.608195    10638.877    6265.5159     5334.186    5577.6046   -454.58098   -12.299062    508.79243   -5482.4333 
15967000    127.59872   -6691.2763   -6363.0364   -6691.2763            0    5727.0754    23.242633    21.345466    21.448507    10641.137     5667.349    5669.7123    5844.1648    731.09691    101.52114   -295.22797   -5474.2512 
15968000    129.24693   -6687.2665   -6354.7867   -6687.2665            0    5991.8412    23.142644    21.225314     21.63871    10629.148    6077.7749    6311.6771    5586.0717    729.50503   -15.213371    785.53539   -5425.9601 
15969000    127.31783   -6694.6334   -6367.1161   -6694.6334            0    5660.8902    23.193827    21.329442    21.498229    10635.418    5527.2698    4895.3233    6560.0776    470.66091   -375.08348    1175.2505   -5489.0742 
15970000     121.7126   -6695.3059   -6382.2077   -6695.3059            0    6179.7472    23.114791    21.293065     21.58813    10625.348    6241.3024    6684.6271    5613.3122   -283.06502   -331.03272    -225.2569   -5424.5953 
15971000    130.09661    -6705.085   -6370.4194    -6705.085            0    6077.5648    23.218605    21.360711    21.409476     10618.37    6456.1735    4816.8525    6959.6683   -566.59134   -984.99948    109.16835   -5429.2596 
15972000     129.5194   -6706.9452   -6373.7645   -6706.9452            0    6365.8689    23.163959    21.246493    21.555759    10608.729    6601.0943     6295.033    6201.4794   -284.12746    500.80257   -187.82332   -5388.8535 
15973000    124.50423   -6692.9665    -6372.687   -6692.9665            0    5444.4077     23.18874    21.309358    21.506884    10627.351    5470.5465      5561.29    5301.3866   -1161.9377    378.83994    94.061568   -5528.8636 
15974000    128.35542   -6680.1949   -6350.0084   -6680.1949            0    6057.7091     23.21945    21.271216    21.511892    10624.851    5683.7854    6125.7589     6363.583    443.52953   -398.72949   -219.90879   -5411.3509 
15975000    125.73539   -6694.2614   -6370.8147   -6694.2614            0    6047.7969    23.158437    21.298773     21.52588     10617.56    6603.3397    6140.0507    5400.0004   -962.55391   -326.23346    303.46987   -5434.3362 
15976000    128.07714   -6693.7119   -6364.2413   -6693.7119            0    5544.4359    23.162864    21.231145     21.62601    10635.112    5893.5119    5425.4957    5314.3002   -151.03467    619.14958   -339.62398   -5504.2871 
15977000    127.30734   -6664.3311   -6336.8407   -6664.3311            0    5601.3896    23.289434    21.345376    21.442661    10659.613    5369.9594    4754.2856    6679.9237   -482.88555   -84.201588    168.21862   -5466.0514 
15978000    131.66233   -6678.8848   -6340.1915   -6678.8848            0    6243.1327    23.181471    21.259566    21.570298    10630.447    5576.7629    5740.7006    7411.9345   -614.78155    1127.1711    226.07266   -5372.2926 
15979000    126.37636   -6679.2676   -6354.1721   -6679.2676            0    6706.4544    23.083957    21.265534    21.584119    10595.486    6562.8924     6562.267    6994.2039    -944.9007   -13.531601    238.16514    -5317.862 
15980000     132.4783   -6689.7182   -6348.9259   -6689.7182            0    5355.4958    23.336149    21.270526    21.441753    10643.089    4167.6748    6188.6592    5710.1534    1001.5533   -601.58935   -177.15969   -5517.6536 
15981000    129.60187   -6680.8621   -6347.4692   -6680.8621            0    6521.5568    23.164508    21.248055     21.57648    10619.959    5986.3779    6910.9844     6667.308    46.619251    259.66027   -83.603892   -5337.4026 
15982000    128.12027   -6688.5621   -6358.9805   -6688.5621            0     4535.891    23.242416    21.282145    21.583307     10676.15    4336.4011    4240.7867    5030.4851    559.79927    110.34551    446.92722   -5652.7391 
15983000    123.43781   -6689.5816   -6372.0453   -6689.5816            0    6229.6225     23.20531    21.231584    21.527467    10606.271    6524.9888    6810.4148     5353.464    378.99183    -76.21632   -454.22907   -5408.4375 
15984000    124.40778   -6679.6069   -6359.5754   -6679.6069            0    5862.0563    23.218855    21.270722     21.51822    10627.457    4870.1214    7519.2252    5196.8224    335.46157    889.01877    262.88831    -5451.012 
15985000    127.03529   -6694.2517   -6367.4612   -6694.2517            0    6082.1539    23.203648    21.244232    21.539172    10617.599    6270.2776    6364.5975    5611.5867   -111.92053   -73.863501   -46.605534   -5425.6592 
15986000    130.33316   -6705.8775   -6370.6034   -6705.8775            0    5364.7089    23.132681    21.310894    21.570467    10633.768    5181.8343    5570.4915    5341.8008   -815.25589   -42.929005    121.74502   -5538.6304 
15987000    117.09777   -6676.5074   -6375.2805   -6676.5074            0    6315.8022    23.160793    21.290892    21.504886    10604.359    7142.2813    5417.8396    6387.2856   -434.70656     32.82322    473.47362   -5398.5183 
15988000    130.62726   -6684.7742   -6348.7435   -6684.7742            0    5789.8713    23.139899    21.349094    21.526657     10634.51    6090.9107    5177.6081    6101.0952   -293.27951    190.17418    557.50576   -5450.7725 
15989000    123.39922   -6688.4358   -6370.9988   -6688.4358            0    5302.3554    23.142884     21.38526    21.538656    10659.838    5172.8118    5223.8377    5510.4168    619.30668   -78.512306   -591.62347   -5546.6797 
15990000    130.25588   -6687.0361   -6351.9608   -6687.0361            0    6969.1759    23.011579    21.382911    21.532248     10595.04    7601.5051    5927.1616     7378.861   -1069.2071   -12.928253    1050.6919   -5275.0991 
15991000    126.96908   -6693.6964   -6367.0762   -6693.6964            0    6205.8855    23.137456    21.335892    21.475619    10601.617    6049.0153    6514.3045    6054.3367    106.20401     288.3997   -696.47012   -5407.5612 
15992000    123.27816   -6689.0323   -6371.9067   -6689.0323            0    6278.7075     23.12779    21.365151     21.48822    10617.947    6540.0717    6154.0225    6142.0284   -11.794077   -414.95347   -472.37856   -5399.6371 
15993000    124.20353   -6675.5842   -6356.0782   -6675.5842            0    6078.5459     23.06882    21.358809    21.574963     10630.47    6652.9437    6733.9433    4848.7509   -84.529101   -137.37545   -1588.3328   -5413.6938 
15994000    123.01324   -6679.6065   -6363.1625   -6679.6065            0    5894.8059    23.126452    21.362923    21.525208    10634.499    6740.7628    5432.6571    5510.9978    647.16622    211.34566   -24.588711   -5448.9178 
15995000    131.07649   -6672.9205   -6335.7343   -6672.9205            0    6099.0794    23.119572    21.299431    21.579488    10626.468    7387.6759    6253.9751    4655.5872    91.568001   -224.21687   -437.12215   -5390.5225 
15996000    123.81123   -6692.5883   -6374.0914   -6692.5883            0    4787.0591    23.167138     21.42135    21.467699    10653.805    4524.1818      4373.05    5463.9454   -311.79083     586.1592    223.42199    -5630.303 
15997000    124.54249   -6682.6938   -6362.3158   -6682.6938            0    6488.3349    23.096976    21.293515    21.575931    10611.384    6543.2197    6381.0025    6540.7826   -150.88979    167.26938    94.923786   -5358.2061 
15998000     124.4974   -6679.0453   -6358.7833   -6679.0453            0    5980.1595    23.154311    21.323984    21.543863    10637.113    5439.2353    5902.9062     6598.337    487.58978   -9.2531488    813.91666   -5431.0729 
15999000    128.14095   -6694.3501   -6364.7153   -6694.3501            0    7361.7838    23.146906    21.254981    21.468629    10562.288    7545.3229    7001.1108    7538.9177    113.34651    713.57031    500.60967   -5230.7052 
16000000    132.23012   -6675.1657   -6335.0118   -6675.1657            0    5667.3852    23.146474    21.298526    21.596928    10646.978    5747.5664    5535.3451    5719.2441   -317.75133   -177.44625     116.3196   -5455.0071 
Loop time of 505.802 on 64 procs for 250000 steps with 1296 atoms

Performance: 85.409 ns/day, 0.281 hours/ns, 494.265 timesteps/s
99.1% CPU use with 64 MPI tasks x 1 OpenMP threads

MPI task timing breakdown:
Section |  min time  |  avg time  |  max time  |%varavg| %total
---------------------------------------------------------------
Pair    | 29.837     | 41.282     | 52.627     | 112.2 |  8.16
Bond    | 0.28142    | 0.28854    | 0.29989    |   0.8 |  0.06
Kspace  | 252.1      | 263.37     | 275.09     |  44.7 | 52.07
Neigh   | 1.685      | 1.7041     | 1.7263     |   0.7 |  0.34
Comm    | 88.423     | 89.388     | 90.983     |   6.9 | 17.67
Output  | 0.61       | 0.61073    | 0.61227    |   0.0 |  0.12
Modify  | 98.393     | 99.856     | 102.36     |   8.5 | 19.74
Other   |            | 9.301      |            |       |  1.84

Nlocal:        20.2500 ave          25 max          14 min
Histogram: 3 7 8 6 4 4 3 6 8 15
Nghost:        2621.00 ave        2636 max        2601 min
Histogram: 3 5 1 7 6 8 10 10 9 5
Neighs:        6559.53 ave        8083 max        4530 min
Histogram: 3 6 9 6 4 4 3 6 11 12

Total # of neighbors = 419810
Ave neighs/atom = 323.92747
Ave special neighs/atom = 2.0000000
Neighbor list builds = 3312
Dangerous builds = 0

unfix		3
unfix		2
unfix		1

write_data	data.final.${pid}
write_data	data.final.0
System init for write_data ...
PPPM initialization ...
  extracting TIP4P info from pair style
  using 12-bit tables for long-range coulomb (../kspace.cpp:340)
  G vector (1/distance) = 0.36886141
  grid = 30 40 32
  stencil order = 5
  estimated absolute RMS force accuracy = 0.0042057703
  estimated relative force accuracy = 1.2665552e-05
  using double precision FFTW3
  3d grid and FFT values/proc = 5168 640
Last active /omp style is kspace_style pppm/tip4p/omp
WARNING: Not all mixed pair coeffs generated from mixing. Use write_data with 'pair ij' option to store all pair coeffs. (../write_data.cpp:312)

write_restart   restart.lmp.${pid}
write_restart   restart.lmp.0
System init for write_restart ...
PPPM initialization ...
  extracting TIP4P info from pair style
  using 12-bit tables for long-range coulomb (../kspace.cpp:340)
  G vector (1/distance) = 0.36886141
  grid = 30 40 32
  stencil order = 5
  estimated absolute RMS force accuracy = 0.0042057703
  estimated relative force accuracy = 1.2665552e-05
  using double precision FFTW3
  3d grid and FFT values/proc = 5168 640
Last active /omp style is kspace_style pppm/tip4p/omp
Total wall time: 0:08:25
