LAMMPS (30 Jul 2021)
Processor partition = 1
  using 4 OpenMP thread(s) per MPI task
using multi-threaded neighbor list subroutines
variable        pid world 0 1
variable        phase world IceII IceIh

shell cd ${phase}
shell cd IceIh
include Restart.lmp
echo both
log log.lammps
#include		in.partitions
include		in.temp
variable        temperature equal 112.60
variable	tempDamp equal 100.0
include		in.pressure
variable        pressure equal 2054.7
variable        pressureDamp equal 1000.0 # This is 1 ps
include		in.seed
variable        seed equal 745823

units		real
atom_style	full
#include		in.box
read_restart	restart.lmp.${pid}
read_restart	restart.lmp.1
Reading restart file ...
  restart file = 30 Jul 2021, LAMMPS = 30 Jul 2021
  restoring atom style full from restart
  orthogonal box = (0.098528550 0.11448079 0.11913642) to (18.109044 23.514697 22.094059)
  2 by 4 by 2 MPI processor grid
  restoring pair style lj/cut/tip4p/long/omp from restart
  restoring bond style harmonic/omp from restart
  restoring angle style harmonic/omp from restart
  864 atoms
  576 bonds
  288 angles
Finding 1-2 1-3 1-4 neighbors ...
  special bond factors lj:    0        0        0       
  special bond factors coul:  0        0        0       
     2 = max # of 1-2 neighbors
     1 = max # of 1-3 neighbors
     1 = max # of 1-4 neighbors
     2 = max # of special neighbors
  special bonds CPU = 0.001 seconds
  read_restart CPU = 0.006 seconds
include 	in.setup
variable	out_freq equal 1000
variable	out_freq2 equal 10000
variable	out_freq3 equal 1000

timestep	2.0

neigh_modify    delay 7 every 1

include		in.tip4p
# This is TIP4P/Ice

# create groups ###
group ox type 2
288 atoms in group ox
group hy type 1
576 atoms in group hy

# set charges - beside manually ###
set group ox charge -1.1794
Setting atom values ...
  288 settings made for charge
set group hy charge 0.5897
Setting atom values ...
  576 settings made for charge

# ### TIP3P Potential Parameters ###
pair_style lj/cut/tip4p/long/omp 2 1 1 1 0.1577 8.5
pair_coeff 1 1*2 0.000 0.000
pair_coeff 2 2 0.21084 3.1668
bond_style  harmonic
bond_coeff  1 450 0.9572
angle_style harmonic
angle_coeff 1 55 104.52
kspace_style pppm/tip4p/omp 1.0e-5
pair_modify tail yes

thermo          ${out_freq}
thermo          1000
thermo_style    custom step temp pe etotal epair emol press lx ly lz vol pxx pyy pzz pxy pxz pyz enthalpy

restart 	${out_freq3} restart.lmp.${pid} restart2.lmp.${pid}
restart 	1000 restart.lmp.${pid} restart2.lmp.${pid}
restart 	1000 restart.lmp.1 restart2.lmp.${pid}
restart 	1000 restart.lmp.1 restart2.lmp.1


include         in.dump
dump            myDump all atom ${out_freq2} dump.water.${pid}
dump            myDump all atom 10000 dump.water.${pid}
dump            myDump all atom 10000 dump.water.1
dump            myDump2 all dcd ${out_freq2} dump.dcd
dump            myDump2 all dcd 10000 dump.dcd
dump_modify     myDump append yes
dump_modify     myDump2 append yes


variable natoms 	equal  "count(all)"                        # NUMBER ATOMS
variable H      	equal  "enthalpy/v_natoms"                 # ENTHALPY-per-atom
variable Vol      	equal  "vol/v_natoms"                 # volume-per-atom
fix AVG all 		ave/time ${out_freq} 1 ${out_freq} v_Vol v_H file vol_enthalpy.dat
fix AVG all 		ave/time 1000 1 ${out_freq} v_Vol v_H file vol_enthalpy.dat
fix AVG all 		ave/time 1000 1 1000 v_Vol v_H file vol_enthalpy.dat


timer           timeout 23:50:00 every 1000
New timer settings: style=normal  mode=nosync  timeout=23:50:00

fix 		1 all shake 1e-6 200 0 b 1 a 1
Finding SHAKE clusters ...
       0 = # of size 2 clusters
       0 = # of size 3 clusters
       0 = # of size 4 clusters
     288 = # of frozen angles
  find clusters CPU = 0.000 seconds
fix             2 all nph aniso ${pressure} ${pressure} ${pressureDamp}
fix             2 all nph aniso 2054.7 ${pressure} ${pressureDamp}
fix             2 all nph aniso 2054.7 2054.7 ${pressureDamp}
fix             2 all nph aniso 2054.7 2054.7 1000
fix             3 all temp/csvr ${temperature} ${temperature} ${tempDamp} ${seed}
fix             3 all temp/csvr 112.6 ${temperature} ${tempDamp} ${seed}
fix             3 all temp/csvr 112.6 112.6 ${tempDamp} ${seed}
fix             3 all temp/csvr 112.6 112.6 100 ${seed}
fix             3 all temp/csvr 112.6 112.6 100 745823


run             250000
PPPM initialization ...
  extracting TIP4P info from pair style
  using 12-bit tables for long-range coulomb (../kspace.cpp:340)
  G vector (1/distance) = 0.37176549
  grid = 24 27 25
  stencil order = 5
  estimated absolute RMS force accuracy = 0.0031502409
  estimated relative force accuracy = 9.4868568e-06
  using double precision FFTW3
  3d grid and FFT values/proc = 6300 1296
Last active /omp style is kspace_style pppm/tip4p/omp
Neighbor list info ...
  update every 1 steps, delay 7 steps, check yes
  max neighbors/atom: 2000, page size: 100000
  master list distance cutoff = 10.8154
  ghost atom cutoff = 10.8154
  binsize = 5.4077, bins = 4 5 5
  1 neighbor lists, perpetual/occasional/extra = 1 0 0
  (1) pair lj/cut/tip4p/long/omp, perpetual
      attributes: half, newton on, omp
      pair build: half/bin/newton/omp
      stencil: half/bin/3d
      bin: standard
Setting up Verlet run ...
  Unit style    : real
  Current step  : 25750000
  Time step     : 2
  Walltime left : 23:49:59.95
Per MPI rank memory allocation (min/avg/max) = 12.26 | 12.29 | 12.31 Mbytes
Step Temp PotEng TotEng E_pair E_mol Press Lx Ly Lz Volume Pxx Pyy Pzz Pxy Pxz Pyz Enthalpy 
25750000    120.03573   -4536.1953   -4330.4582   -4536.1953            0    636.06192    18.010515    23.400216    21.974923    9261.3302    769.39154    1035.9454     102.8488    113.88354   -386.89649   -268.26142   -4244.5472 
25751000    108.25407   -4530.5257   -4344.9819   -4530.5257            0    1947.2563    17.907238    23.547358    21.839227    9208.9065    2043.4284    1109.7819    2688.5586   -493.76591   -278.00085   -405.24573   -4083.4606 
25752000    118.39011   -4546.7779   -4343.8613   -4546.7779            0    2192.4848    17.823066    23.425988    22.014817    9191.6908    2604.6049    1600.3418    2372.5078   -543.81885    246.35146    -395.9237   -4049.9557 
25753000    113.33116    -4542.538   -4348.2922    -4542.538            0    1577.5679     17.96622    23.263738    22.048221    9215.3059    2688.4659    899.98877     1144.249    441.26617   -170.08928    -333.0734   -4136.2738 
25754000    107.99389   -4545.4101   -4360.3123   -4545.4101            0     1915.111    18.062357    23.114123    22.047032    9204.5374    2105.8028     2782.616    856.91414    638.58717    276.25829     266.9952   -4103.2302 
25755000     113.3626   -4534.2551   -4339.9555   -4534.2551            0    2051.1438    17.865284    23.450061    21.994238    9214.3098    1508.4254    2224.8221    2420.1838   -518.16986    71.519383    317.05135   -4064.3202 
25756000    114.86965   -4533.8908   -4337.0082   -4533.8908            0    1202.5873    17.814446    23.395833     22.15829    9235.2163    1236.3923    2344.0657    27.303826   -79.475376   -61.652058   -113.61779   -4175.0363 
25757000    110.85994   -4535.6476   -4345.6375   -4535.6476            0    1111.8614    18.007515    23.318846    22.061291    9263.8551    655.67169    1100.9278    1578.9848   -53.262871   -163.34235    357.14428   -4195.4207 
25758000    112.82279   -4529.5654    -4336.191   -4529.5654            0    2238.3268    17.966016    23.333596    21.900742    9181.0489    1529.6994    2233.5709    2951.7101   -5.4123525   -114.92463   -17.043705   -4036.4876 
25759000    116.48546     -4529.58   -4329.9279     -4529.58            0    2032.7193    17.988054    23.398389    21.862491    9201.7364    2076.5495    1791.0286    2230.5799    277.12132    259.72389    463.21104   -4057.1413 
25760000    114.24631   -4535.7384   -4339.9242   -4535.7384            0    2361.2726    17.999293    23.287184    21.871814     9167.633    2617.2629    2729.0542    1737.5006   -290.09341   -249.65514   -6.9218679   -4024.2208 
25761000    110.78109   -4536.8548   -4346.9798   -4536.8548            0    1798.6973    18.089629    23.080812    22.040974    9202.6207    1229.4854     2779.649    1386.9575   -324.84651   -86.850654   -269.02187   -4105.5752 
25762000    117.72428    -4525.841   -4324.0656    -4525.841            0    1496.1226    17.905881      23.4599    21.895201    9197.5215    1554.8066     1371.401    1562.1603    248.90511    51.213717    141.24476   -4123.3811 
25763000    121.50243   -4539.6417   -4331.3907   -4539.6417            0    1683.6537      17.8061     23.50569    21.990769    9204.1189    1527.8177    1197.3496    2325.7939      181.539   -157.27118   -799.72401   -4105.3894 
25764000     103.3553   -4531.0738   -4353.9264   -4531.0738            0     2526.654    18.039793    23.173276    21.951499    9176.6289    2143.7368    2608.3782     2827.847    67.298922   -153.89624   -369.36117   -4015.7799 
25765000    112.85423   -4534.2261   -4340.7979   -4534.2261            0    1968.5632    18.058042    23.185125    21.971326    9198.9099    1795.1295    1982.4997    2128.0603   -177.87367    43.015068   -125.26243    -4076.702 
25766000    112.74558   -4536.6258   -4343.3838   -4536.6258            0    2115.8176    17.967034    23.382494    21.858196    9182.9358    1995.7016    2174.4158    2177.3355   -285.98748    -185.3106   -192.79536   -4060.0257 
25767000    109.26031   -4529.7527   -4342.4843   -4529.7527            0    1206.6284    17.931623    23.468795    21.904663    9218.2182    1587.7952    1056.4474    975.64258    314.72351   -484.24237    152.41944   -4180.2672 
25768000    115.75491   -4555.9925   -4357.5925   -4555.9925            0    2130.0078    17.937961    23.270494    21.963197    9167.9922    1847.8431    2723.2547    1818.9255    748.30623   -307.06224   -14.801108   -4072.7982 
25769000    115.05389   -4541.6137   -4344.4153   -4541.6137            0    1414.3637    18.051413    23.256588    21.957418    9218.0376    1344.1271    1554.2707    1344.6934    329.08621    251.38055    76.225171   -4154.2744 
25770000    108.86625   -4538.9934   -4352.4004   -4538.9934            0    2163.8729    17.858141    23.503039    21.891692    9188.3933    2463.3411    2220.0976    1808.1801   -334.31068   -716.39659    43.951549   -4062.4343 
25771000     114.6837   -4546.7083   -4350.1443   -4546.7083            0    3116.2042    17.726945    23.377281    22.031057    9129.8411     5014.411    2640.5631    1693.6385    547.13738   -346.63331    108.19185   -3935.2237 
25772000    111.86068   -4523.7756   -4332.0502   -4523.7756            0    2428.4325    17.944081    23.161631    22.077047     9175.534    3537.3957    2209.7769    1538.1249   -66.656245      271.069   -63.109992   -4007.0877 
25773000     109.9483   -4539.8659   -4351.4182   -4539.8659            0    2080.5615     17.96001     23.22182    22.002645    9176.5134    1830.6453    2195.3892    2215.6501   -5.3340622   -155.00786    511.90195   -4072.9766 
25774000    120.44868   -4526.3686   -4319.9237   -4526.3686            0    2295.3687    17.777835    23.415491    22.000926    9158.4735    3650.7021     1462.112    1773.2922     -856.608   -133.97674    408.78834   -4013.3383 
25775000    118.03469   -4544.5818   -4342.2744   -4544.5818            0    1415.3297    17.871819    23.453256     21.97314    9210.0935    1282.7444    1140.5815    1822.6633   -481.74925   -584.09677    519.74322   -4152.1676 
25776000    121.50718   -4534.1871   -4325.9279   -4534.1871            0    3436.3885    17.863493    23.356269      21.8705    9124.9093    3982.7748    3249.6969    3076.6937    -123.0791    93.476605    735.17068   -3868.6222 
25777000    111.38367   -4525.3091   -4334.4013   -4525.3091            0    2699.8242    17.910691    23.151628    22.058512    9146.8192    2890.7663    3117.8017    2090.9047   -118.87594    120.39648     619.5458   -3974.2529 
25778000    112.65959   -4542.2603   -4349.1656   -4542.2603            0    2271.3565    17.749746     23.31063    22.110934    9148.5703    1492.1409      2947.82    2374.1086    86.871935   -649.84607    623.81001   -4046.1155 
25779000    108.44772   -4542.9362   -4357.0605   -4542.9362            0     1952.926    17.875496    23.369213    21.990831    9186.3676    1748.4876    2098.4848    2011.8056   -780.45033    290.09779    20.110471   -4095.4197 
25780000    112.02636   -4527.7619   -4335.7525   -4527.7619            0    1704.7123    17.976987    23.384594    21.918839    9214.3412    207.40806    2502.2717    2404.4572    134.94751    355.97761    503.87536   -4106.6703 
25781000    116.31488   -4526.8467    -4327.487   -4526.8467            0    2036.6545    17.980838    23.122627     22.11441      9194.38    1762.6898    2215.5969    2131.6767    84.545391   -671.31528   -458.28286   -4054.3908 
25782000     111.4163   -4525.9588   -4334.9951   -4525.9588            0    2686.6553     17.81241    23.161233    22.166492    9144.9498    2643.7263    3032.6192    2383.6205    210.81204    26.076506    470.98391   -3976.6767 
25783000    113.06378   -4534.5366   -4340.7492   -4534.5366            0    1861.2899    17.973017    23.294229    21.946626    9188.3407    875.01228    2061.2918    2647.5656    313.97001    4.8345317   -59.072227   -4091.3316 
25784000    107.81572   -4542.4708   -4357.6784   -4542.4708            0    1829.2127    17.944366    23.425152    21.793462     9160.871    1472.8777    763.72107    3251.0393    282.34389    21.414797    648.52171   -4113.2921 
25785000    109.49846   -4549.5009   -4361.8243   -4549.5009            0    1473.7498    17.896853    23.375883    22.002444    9204.8263    674.33523    2587.0885    1159.8257   -315.37399   -123.39092    411.73635   -4163.9837 
25786000    108.02785   -4533.3543   -4348.1982   -4533.3543            0    3157.8493    17.914431    23.128357    22.038851    9131.3872    3044.5602    3608.7868    2820.2009   -480.87932    139.18894   -612.32333   -3927.6614 
25787000    112.63474   -4532.0605   -4339.0084   -4532.0605            0    1962.7049    17.977411    23.280422    21.954009    9188.2293    1963.8379    3232.2114    692.06528   -591.04303   -195.07321    466.32376   -4076.0042 
25788000    115.28374   -4543.2576   -4345.6652   -4543.2576            0    1137.0413    17.888255    23.525284    21.918662    9223.9487    1288.6206    2185.4159   -62.912458   -510.11712   -420.28298   -4.7296471   -4192.7083 
25789000    112.15344   -4531.4491   -4339.2219   -4531.4491            0    2309.4163    17.962017    23.310009      21.8846    9162.9678    1863.7569    2511.6489    2552.8431   -12.475145   -608.11142   -203.67927   -4030.6089 
25790000     111.5657   -4542.9263   -4351.7065   -4542.9263            0    1924.8754    17.930896    23.232351     22.00329    9166.0617    2757.6926    1983.8883    1033.0452    378.27371   -424.36762   -485.33349   -4094.3937 
25791000    112.44451     -4540.52   -4347.7939     -4540.52            0     1959.194    17.931302    23.371296    21.895469    9175.9037    1786.5521    2114.6784    1976.3515   -207.61746    137.32422    211.00165   -4085.6124 
25792000    107.65566   -4533.6917   -4349.1736   -4533.6917            0    2491.6071    17.924988     23.19638     22.04546    9166.3884    3124.3223    2542.0712    1808.4278     384.3143    13.066016    60.953881   -4016.0897 
25793000    110.80454    -4527.041   -4337.1258    -4527.041            0    2860.0374    17.924151    23.139451    22.048278    9144.6336    2485.0397    3413.0044    2682.0683    23.377787    -106.6417     366.9639   -3955.6967 
25794000    111.64498    -4534.332   -4342.9763    -4534.332            0     1585.086    17.989839    23.297112    22.018895    9228.3674    1803.1324    2252.4696    699.65605   -217.42241    45.549691   -251.10225   -4129.6455 
25795000    110.68688   -4554.2226    -4364.509   -4554.2226            0    2301.7378    17.894748    23.230528    22.028423    9157.3134    2195.5706    3199.3058    1510.3371   -56.974765   -80.362758     -212.716   -4057.1119 
25796000    112.04916   -4529.9901   -4337.9417   -4529.9901            0    1592.2309    18.036258     23.19426    22.029424    9215.7374    1574.1024    2505.2876    697.30267     407.7368   -509.98462    114.40907   -4123.9426 
25797000    112.40213   -4544.8838   -4352.2304   -4544.8838            0    1409.6446    18.070284    23.302416    21.875863     9211.516     1156.694    2056.2324    1016.0075   -454.84856    528.33881   -111.90642   -4162.8581 
25798000    116.02212   -4539.5038   -4340.6459   -4539.5038            0    2251.8807    17.869218    23.505506    21.897937    9197.6813     2341.428    2120.8793    2293.3348    975.30057   -438.60995    942.32446   -4038.5814 
25799000    112.75957   -4529.7574   -4336.4913   -4529.7574            0    2908.8597    17.884955    23.362775    21.923916    9160.7366    3376.9742    3498.9981    1850.6069    414.57587   -118.95915    -407.5513   -3947.8678 
25800000    113.47432   -4546.5702   -4352.0792   -4546.5702            0    1510.2916    18.112865    23.306624    21.847575    9222.9476    991.76636    1587.6125    1951.4959    602.11635   -30.390368    503.95868    -4148.934 
25801000    110.35701   -4525.0478   -4335.8997   -4525.0478            0    949.12315    18.067647    23.314513    21.997383    9266.1427    1061.5398    288.74946    1497.0802   -352.69536    203.56885    66.828182   -4207.6378 
25802000      114.202   -4540.4776   -4344.7393   -4540.4776            0    2509.4222    17.820078     23.49689    21.898549    9169.2821     2498.585    1860.6301    3169.0516   -155.03543    111.75223    39.678647   -4009.1679 
25803000    112.06031   -4542.8714   -4350.8039   -4542.8714            0    1664.4696    17.920935    23.348488    22.062227    9231.4258    2185.1229    1849.1657    959.12023   -901.81106    -285.4657   -225.20883   -4126.7149 
25804000    117.53023   -4536.6225   -4335.1797   -4536.6225            0    2703.4099    18.022164    23.175057    21.954553    9169.6415    2410.0764    2995.3765    2704.7768    1165.0575   -100.31975    421.51486   -3973.6531 
25805000    117.09219   -4544.1098   -4343.4178   -4544.1098            0    1957.2137    17.988189    23.241428    21.949062    9176.2708    757.48625    2948.9235    2165.2313   -593.22492   -311.60846     551.6115   -4081.4908 
25806000    121.47221   -4539.4095   -4331.2102   -4539.4095            0    1730.6348    17.838398     23.49964    21.955175    9203.5202    2735.6503    1618.5508    837.70323    -291.7589    267.42131   -250.59993   -4098.9177 
25807000    111.13939   -4534.9861   -4344.4969   -4534.9861            0    2086.9192    17.848388    23.330537    22.075314     9192.436    2290.7479    2017.6678    1952.3418    643.60762    -85.61733    634.84203   -4064.7199 
25808000    110.17208     -4531.24   -4342.4089     -4531.24            0    3020.3792     17.98955    23.164079    21.967869    9154.2605    1770.3298    5130.6676    2160.1402   -256.67333    543.91143   -509.84953   -3939.1716 
25809000     114.0709   -4540.0164   -4344.5028   -4540.0164            0    1191.9752    18.003073    23.281684    22.018661    9228.9423    1457.8941    522.37796    1595.6537    281.34353   -273.49861   -598.62942   -4184.0693 
25810000    109.93701   -4545.9167   -4357.4884   -4545.9167            0    2369.5543     17.80187    23.435889    21.937748    9152.4866    2646.1639     1741.715     2720.784    178.78058   -371.51655   -512.57568   -4041.2012 
25811000    112.69917   -4538.6618   -4345.4993   -4538.6618            0    2141.2994    17.968305     23.25643    22.009241    9197.1916    1854.3209    3389.6352    1179.9422   -37.796349    209.83827    29.808513   -4058.2833 
25812000    111.41623   -4527.2729   -4336.3093   -4527.2729            0    2754.6864    17.982982    23.203425    21.937523    9153.7993    2658.3745    3254.9266    2350.7581   -171.00098    443.31036    187.59704   -3968.5621 
25813000     115.5527   -4527.6751   -4329.6218   -4527.6751            0    1722.9572    17.862449    23.415025    22.030653    9214.3139     2970.281    1602.4447    596.14599   -879.18457   -220.17692    429.98191   -4098.0885 
25814000    115.53972   -4543.0295   -4344.9984   -4543.0295            0     1513.991    17.814649    23.515009    21.983094    9208.9743    1807.3022    1675.9852    1058.6856    23.967312    126.47154    -126.5933   -4141.6642 
25815000    107.35121   -4538.7286   -4354.7323   -4538.7286            0    2456.3051    18.056601    23.158351    21.952399    9179.6392    1775.1658     2827.371    2766.3787    460.53533    168.57021   -132.32284    -4025.893 
25816000    114.68239   -4530.9805   -4334.4188   -4530.9805            0    1631.0608    18.085908    23.106273    22.086704    9229.9881    2920.6878    1881.7492     90.74534   -526.49068    258.95852    627.76151   -4114.8618 
25817000    106.95995   -4546.0263   -4362.7006   -4546.0263            0    1611.4108    17.819855    23.531495     21.95741    9207.3526    2395.9302    685.13809     1753.164    74.306318   -417.92705   -77.267105   -4146.3207 
25818000    113.64585     -4541.56   -4346.7749     -4541.56            0    2272.1644    17.896703    23.418133    21.861433    9162.2882    2593.2099    1209.3496    3013.9338   -110.03833    78.926254    620.88377   -4043.1625 
25819000    103.84277   -4540.7025   -4362.7196   -4540.7025            0    2320.0378    18.064363    23.261459     21.81677    9167.4819    2154.9857     2549.811    2255.3167    161.83152    145.57019   -138.39358   -4052.5344 
25820000    113.83004   -4538.3965   -4343.2958   -4538.3965            0    1889.0019    18.095078    23.269932    21.843829    9197.8077    1251.7152    2867.6551    1547.6353    -222.4128    26.799453    215.98809   -4089.9039 
25821000    113.47598   -4539.8579    -4345.364   -4539.8579            0    276.54492    17.941385    23.657464    21.839796    9269.8508   -223.62821   -989.05455    2042.3175    592.07639    65.421468    171.74691   -4307.9775 
25822000    119.90594   -4529.9804   -4324.4657   -4529.9804            0    1933.2584    17.996232    23.290379    21.983389    9214.0971    1604.8516    2381.0541    1813.8696   -113.54519   -357.42752   -288.56576    -4064.678 
25823000    106.93072   -4540.7601   -4357.4845   -4540.7601            0     2597.348    17.930325    23.224005    22.000121    9161.1575    3047.5475    2486.4218    2258.0746    101.88665   -178.62932   -179.88431    -4010.463 
25824000    116.67973   -4546.7413   -4346.7562   -4546.7413            0    1851.0387    17.938529    23.236917     22.03875     9186.547     1414.172     3225.003    913.94109    108.76185    7.8410976    -39.60295   -4098.7608 
25825000    114.32076   -4542.3323   -4346.3904   -4542.3323            0    2020.3457    17.773792    23.516513    21.957637    9177.8007    2614.2205    1484.6971    1962.1196   -44.089987   -163.43836   -147.15037   -4075.9695 
25826000    110.50286   -4538.6704   -4349.2723   -4538.6704            0    1982.2639    17.973968    23.130242    22.094083    9185.4434    1794.6656    3016.8892    1135.2369   -408.92774   -598.28803   -302.65718   -4083.7277 
25827000    107.54914   -4538.4308   -4354.0952   -4538.4308            0    2130.2269    18.000719    23.156307    22.013314    9175.8137    1465.0516    2054.6934    2870.9356    285.75204   -316.98391    505.74177   -4069.0286 
25828000    116.07533    -4525.482   -4326.5329    -4525.482            0    1849.8391    17.909366    23.288508     22.07176     9205.743    1553.7622    2987.3165    1008.4386    414.09386   0.26583054    132.30287   -4078.1803 
25829000    110.49712   -4538.8464   -4349.4581   -4538.8464            0     2670.965    17.818894    23.360372    22.019878     9165.906    2434.4025    2990.8832    2587.6093   -52.672676   -165.99632    60.950534    -3992.416 
25830000    117.65964   -4531.4153   -4329.7507   -4531.4153            0    2575.2037    17.977085    23.277839     21.92559    9175.1514    2766.4196    2395.1379    2564.0534    861.75829    263.95667     450.0751   -3985.1622 
25831000    109.70763   -4531.4151     -4343.38   -4531.4151            0    1951.6208    18.076999    23.261395    21.859486    9191.8311    2719.7694    2041.1031    1093.9899    100.65946    548.01307    434.69724   -4081.7585 
25832000    111.01204   -4544.0037   -4353.7328   -4544.0037            0    1367.5338    18.035583    23.266715    21.934882    9204.5076    851.46911    1769.0139    1482.1185    885.03357    288.40931   -104.08183   -4170.1574 
25833000    106.79856   -4538.7107   -4355.6616   -4538.7107            0    2647.0005    17.870548    23.466956    21.839252    9158.6697    3269.0307    2289.5399     2382.431    209.52077    132.39967     -21.5471   -4002.1023 
25834000    122.20934    -4537.563   -4328.1004    -4537.563            0    1502.5574    17.913528    23.550082    21.800719    9196.9615    2485.7398    798.11614    1223.8164   -532.80721    212.76675   -102.50736    -4126.565 
25835000    116.41039   -4546.1676   -4346.6442   -4546.1676            0    1662.5905    17.934589    23.325521    22.034533    9217.7864    1628.8049    1848.5472    1510.4194    129.49032   -549.20739     6.154251   -4123.1389 
25836000    109.85851   -4534.0911   -4345.7974   -4534.0911            0    1167.1166    18.021228     23.31233    21.983866    9235.7919    1070.0926    344.67824     2086.579   -715.22569    884.00546    165.29232   -4188.5932 
25837000    109.67191   -4538.2144   -4350.2405   -4538.2144            0    2223.0347    17.929249    23.398247    21.913215    9192.8783    3624.7507    1355.5753     1688.778    812.43364   -239.59992   -344.20342   -4052.2011 
25838000    121.89003   -4537.3248   -4328.4095   -4537.3248            0     2279.728    17.779802    23.431627    22.041853    9182.8495    2527.0232    1738.8268     2573.334    166.53009   -58.743401   -79.846687   -4023.1027 
25839000    107.93399   -4541.7353   -4356.7402   -4541.7353            0     2918.512    17.885867    23.232871    21.985943    9136.0397    3395.0389    3636.4525    1724.0447   -450.91329   -275.32899    151.76437   -3967.8783 
25840000    114.17972   -4535.7108   -4340.0107   -4535.7108            0    2955.7901     17.83677    23.209361    22.068524    9135.9283    3823.2401    3193.5733     1850.557   -758.37145   -126.09504   -113.03729   -3946.1867 
25841000    107.87783   -4537.9391   -4353.0402   -4537.9391            0    2832.5865    17.703063     23.44032    22.010617    9133.6458    3373.1732    3558.8564    1565.7298    2.9383446   -65.828547   -14.648568   -3975.7259 
25842000    119.06956   -4540.6742   -4336.5931   -4540.6742            0    1993.7129    17.996247    23.105343    22.090788    9185.5584    2515.9649    2170.2622    1294.9114   -648.16885   -142.03859    248.86932   -4069.5114 
25843000    109.85671   -4543.2955   -4355.0048   -4543.2955            0    1623.9174    18.074265    23.108843    21.979892     9180.459    1539.7991    2150.5299    1181.4233   -50.467395    204.60073   -84.180084   -4137.5825 
25844000     114.8501   -4544.8406   -4347.9915   -4544.8406            0    1815.7022    17.967522    23.313389     21.92964    9185.9715    1632.3645    1976.2699    1838.4723    53.023835   -76.497336   -77.025054   -4104.7455 
25845000    109.87999   -4537.7551   -4349.4245   -4537.7551            0    2299.2474    17.706491    23.598184    21.907852    9153.9994    3066.5335    2152.8652    1678.3436     122.4118    380.84741    225.76429   -4042.4711 
25846000     115.3008     -4533.78   -4336.1584     -4533.78            0    2369.1512    17.937731    23.366917    21.855237    9160.6111    2583.8227    1303.7991    3219.8318   -874.22835   -98.186399    394.71732   -4019.6443 
25847000     117.6882   -4541.0834   -4339.3698   -4541.0834            0    2591.5106     17.98077    23.260168     21.86774    9145.8704    1800.8576    2913.4749    3060.1993    487.80213   -287.56263    672.99146    -3993.706 
25848000    113.26328    -4552.304   -4358.1746    -4552.304            0    1242.0747    17.882344    23.612976    21.870328    9234.8628    1832.1776    199.76317    1694.2834    106.80095    -761.0581    388.90183   -4190.8908 
25849000    109.80602   -4529.0746   -4340.8709   -4529.0746            0    2223.9217    17.928679    23.410513    21.884336    9185.2846    1614.2626    2693.1708    2364.3316    243.15386     537.0758     376.0691   -4042.9589 
25850000    113.10916   -4548.1519   -4354.2866   -4548.1519            0    1664.4063    18.117742    23.234084    21.815194    9183.0873    795.20597    1973.1621    2224.8509   -78.605094   -122.37452    329.09792   -4131.3795 
25851000    111.24702   -4553.0318   -4362.3582   -4553.0318            0    954.56905     18.04477    23.327289    21.958684    9243.1911    606.07582    1434.0781    823.55326   -71.537767   -169.34746   -194.20602   -4233.6799 
25852000     117.5146   -4538.5888   -4337.1728   -4538.5888            0    2276.2239    18.017958    23.164279    22.005211    9184.3812    2259.1689    2339.8124    2229.6904    809.18864   -328.93213    176.95894   -4032.2845 
25853000    113.29796   -4534.1371   -4339.9483   -4534.1371            0    1165.1153    17.977737    23.518086    21.825216    9227.7444    1785.6825    75.455316    1634.2081    291.16155   -303.65843    144.82715   -4183.1503 
25854000    115.63161   -4543.3563   -4345.1677   -4543.3563            0     1952.305    18.018105    23.321909    21.911518    9207.5838    715.73016    1792.7073    3348.4777   -238.99759    -319.5897   -130.83129    -4083.006 
25855000    115.46286    -4533.311   -4335.4116    -4533.311            0    2892.4183    18.010514    23.127884     21.98157    9156.3147    2669.4826    3815.2067    2192.5656   -277.48268     884.8734    186.27742   -3949.1712 
25856000    115.32559   -4557.6788   -4360.0147   -4557.6788            0    1616.8507    17.908622    23.300223    22.045855    9199.1817    1023.5324    2388.7182    1438.3015    578.86531   -363.26434   -329.86057    -4143.097 
25857000    112.90787   -4547.6916   -4354.1714   -4547.6916            0    1300.5061    17.836437    23.399143    22.078586    9214.6602    658.84102    1512.1697    1730.5076    194.09086   -240.46803   -140.77511   -4179.4011 
25858000    109.59475   -4533.3017     -4345.46   -4533.3017            0    2302.0957    17.903866     23.16295    22.127582    9176.4488    1925.8707    3212.2355     1768.181   -419.24496    502.76074    290.72647   -4037.3726 
25859000    111.97179   -4541.4144   -4349.4986   -4541.4144            0    2125.9954    18.032714    23.009832    22.100522    9170.1636    1725.0112    2304.3647    2348.6103   -116.17231    10.684966     604.4172   -4065.1734 
25860000    115.69613   -4548.8605   -4350.5613   -4548.8605            0    1604.4405    17.892583    23.393956    21.978745    9199.8256    1742.8391     1605.477    1465.0054    832.29921    87.319416   -384.58691   -4135.2935 
25861000    110.51496   -4530.3885   -4340.9697   -4530.3885            0    2971.8805    17.816714    23.396468    21.946625    9148.4104     2365.377    2710.4952    3839.7692    35.114358   -29.997692    204.26696   -3944.4608 
25862000    112.70659   -4538.6431   -4345.4679   -4538.6431            0    1621.9711    17.899297      23.3614     22.02255    9208.7875    2453.0228    538.93708    1873.9534   -303.55324    221.72491   -409.24999    -4127.636 
25863000    110.81258   -4537.9724   -4348.0434   -4537.9724            0    1897.0794    17.936368     23.24161    22.035242    9185.8328    1398.5698    2472.6258    1820.0425    918.49389   -396.15103    265.78985   -4093.8994 
25864000    116.76221   -4528.1408   -4328.0144   -4528.1408            0    1324.9298     17.96398    23.378149    21.941696    9214.7355    1173.3104    1890.3625     911.1165   -535.64927    255.43714    211.26928   -4149.9605 
25865000    116.57038   -4532.1468   -4332.3491   -4532.1468            0     2285.959    18.052616    23.183662    21.911807    9170.6555    1525.4852    2696.2332    2636.1585   -326.08541     218.2045    353.27717   -4026.6144 
25866000    108.55276   -4537.0878   -4351.0321   -4537.0878            0    3206.6397    17.902852    23.389441    21.796202    9126.8913    3235.6756    2457.5468    3926.6967   -320.81479    103.71583   -249.17606    -3924.208 
25867000     112.7229   -4553.7648   -4360.5616   -4553.7648            0    2747.3565     17.92537    23.340368    21.852419    9142.7181    2505.0934    1863.2985    3873.6777     111.0525     199.1421    210.72879   -3994.2369 
25868000    108.30347   -4537.9528   -4352.3243   -4537.9528            0    1554.0038    18.023477    23.324204    21.900135    9206.4498    1665.3331    1670.1104    1326.5678   -404.10925    6.9762287   -525.70923   -4143.6735 
25869000    108.56866   -4523.2478   -4337.1649   -4523.2478            0    2636.2712    18.095153    23.253866    21.755746    9154.4319    1865.8014    1970.0837    4072.9286   -878.59328    223.27022    489.92123   -3985.2016 
25870000    108.11892   -4535.6436   -4350.3315   -4535.6436            0    2324.7152    17.962667    23.483542    21.713867    9159.4965    1490.8348    2889.0081    2594.3028   -443.48258    381.15919   -255.10012   -4039.7917 
25871000    112.63126   -4542.9376   -4349.8915   -4542.9376            0    1851.7338    17.885041    23.460531    21.876424    9179.1851    2325.3833     1544.326    1685.4922    117.18045   -427.97049   -151.62916   -4102.0017 
25872000    112.72066   -4525.7919   -4332.5925   -4525.7919            0    1277.4997    17.891378    23.351363    21.985196    9185.1523    1425.3143    552.07574    1855.1089   -372.80052   -208.00348    189.11774   -4161.4637 
25873000    102.90085   -4535.6391   -4359.2705   -4535.6391            0    2351.0795    17.998313    23.177745    21.974272    9166.7941    951.67321      3383.35    2718.2153   -579.58145    339.76053    412.14409   -4044.9587 
25874000    113.06005   -4530.6014   -4336.8203   -4530.6014            0     2022.811    18.122849    23.216485    21.845474    9191.4584    299.30933    3177.2817    2591.8419   -106.22834    174.14944    42.185811   -4065.6665 
25875000    117.56078    -4531.006   -4329.5109    -4531.006            0    2208.6013     17.95583     23.39097    21.836682    9171.4999    2422.6193    2009.9336    2193.2511    325.21828    212.47739    549.17482   -4034.0952 
25876000    107.06641   -4527.4552    -4343.947   -4527.4552            0    1975.3932    17.934599    23.305834     21.97848    9186.5824     1730.241    1134.0471    3061.8914   -148.66014    133.35325   -383.24125     -4079.29 
25877000    116.09965   -4539.5085   -4340.5177   -4539.5085            0    2065.6072     18.00693    23.025887    22.131083    9176.1117    1795.1874    3336.0516    1065.5826   -685.89221    1200.6501    34.939336   -4064.0895 
25878000    115.96746   -4539.3384   -4340.5742   -4539.3384            0    2939.4027    17.817654    23.367502    21.951496    9139.5946    3111.1882    3370.7988    2336.2209   -592.58711   -448.30494    25.158173   -3948.7764 
25879000     114.5096    -4530.817   -4334.5514    -4530.817            0    866.95523    17.907444    23.522667    21.924842      9235.42    674.28526     956.9886    969.59183    507.90148   -180.53065    163.38515    -4217.782 
25880000    103.58168   -4532.7068   -4355.1713   -4532.7068            0    3152.5174    17.944391    23.286908    21.873329    9140.1946    2990.2268    3093.5014    3373.8239   -624.76014   -155.25732   -196.95852   -3934.9396 
25881000    109.40193   -4545.3002    -4357.789   -4545.3002            0    1261.0316    18.115849    23.134948    22.004802    9222.4152     2147.857    1153.8025    481.43534    247.76554    276.86378   -184.75954   -4188.1809 
25882000     111.3324   -4524.5551   -4333.7351   -4524.5551            0    1840.2648    17.938495    23.341924    21.987512    9206.5887     1866.248    2390.6016    1263.9446   -634.36388   -246.14592    36.416529   -4086.6453 
25883000    112.23807   -4542.9671   -4350.5949   -4542.9671            0    1976.9174    17.860871     23.62183    21.719745    9163.7005    2253.2936    543.50893    3133.9498   -687.62421   -211.30107   -400.87316   -4086.3934 
25884000     108.2192   -4540.9327   -4355.4487   -4540.9327            0    2669.8094    17.975244    23.267811    21.856562    9141.3886    3577.7144    2363.8989    2067.8149   -478.74636    444.09219     218.3451   -3999.5156 
25885000    109.08541    -4550.463   -4363.4943    -4550.463            0    2315.5031    18.045605    23.288441    21.792179    9158.2506    2547.2712    1910.7475    2488.4908    199.18046    171.84622    -334.6559   -4054.2272 
25886000    112.20761   -4534.5458   -4342.2258   -4534.5458            0    1853.7683    17.905607    23.511262    21.785681    9171.4106    2358.4452    1955.9257     1246.934    649.83619    172.94601     235.9934   -4094.2738 
25887000    105.95113    -4533.428   -4351.8314    -4533.428            0    2282.9575    17.819907    23.435344    21.890399    9141.7731    2876.4066    2308.4173    1664.0487    229.66808   -908.70093    416.30721   -4047.4598 
25888000    110.21253   -4534.0616   -4345.1611   -4534.0616            0    1988.5737    18.061905    23.235439    21.911592    9195.7758    1885.5016    2086.5192    1993.7004    598.37497   -3.8277843    509.35069   -4078.4716 
25889000    108.01122   -4554.7558   -4369.6283   -4554.7558            0    1267.5293    17.999171    23.404188    21.893025    9222.5676    787.88967    735.85452    2278.8438   -336.53276   -259.83426    154.90729   -4199.1434 
25890000    114.11717   -4540.9544   -4345.3615   -4540.9544            0    1705.2672     17.99162    23.381469    21.856119    9194.2246    999.80527    2009.8336    2106.1629   -77.040011     -39.3046      663.714   -4116.7051 
25891000    110.31325   -4549.9571    -4360.884   -4549.9571            0    1898.1991    17.974106    23.380924    21.841975    9179.1159    2647.5128    698.99802    2348.0865    573.25318   -461.56776    211.38169   -4106.7759 
25892000    108.59722   -4537.8061   -4351.6742   -4537.8061            0    2765.1324    18.074413    23.136491    21.871249    9146.0858    3049.0817    2937.4241    2308.8916    261.48543   -191.06484   -11.216661   -3982.8434 
25893000    111.67455   -4546.7921   -4355.3857   -4546.7921            0    2226.9745    17.959918    23.331754     21.91729    9184.1421    2671.8283    1752.9146    2256.1805   -453.49954    -297.5292    165.76881   -4057.1019 
25894000    108.88363   -4535.6256   -4349.0027   -4535.6256            0    2437.9613    17.931517    23.457639    21.781942    9162.1612    2564.3314    2153.0671    2596.4855   -202.04435    398.86946   -208.13536   -4023.2406 
25895000    117.79796   -4538.8072   -4336.9055   -4538.8072            0    1729.8685     18.04967    23.404189    21.839837    9225.9751    1687.8822    1939.1952    1562.5279    420.58341   -297.81732   -105.25477   -4104.1493 
25896000    111.80275   -4542.5768   -4350.9507   -4542.5768            0    2215.9998     17.93281    23.298077    21.980534    9183.4669    2507.5919    1994.2277    2146.1797    29.545661    292.48873    539.06734   -4054.1586 
25897000     106.9432   -4546.1221   -4362.8251   -4546.1221            0     1647.333    17.857627    23.303189    22.076295     9186.822    1848.7299    1102.0871    1991.1821    633.18196    422.61405   -439.62804   -4142.1148 
25898000    107.90321   -4543.7912   -4358.8487   -4543.7912            0    2445.6128    17.858378     23.30049    22.030496    9167.0863    3424.9845    1965.3174    1946.5365   -184.18498    197.78708   -194.16869   -4031.8885 
25899000    111.10721   -4518.6125   -4328.1785   -4518.6125            0    2131.3396    17.818549    23.433442    22.017559    9193.4302    2488.3531    2791.9319    1113.7339    308.67131    -81.84487     726.3465   -4042.4154 
25900000    110.71351   -4539.5742   -4349.8151   -4539.5742            0    1997.1438    18.014977    23.131339      22.0554    9190.7172    1282.3295    2384.4052    2324.6966    63.309239   -399.07959    141.68277   -4082.1236 
25901000    113.99235   -4534.1332   -4338.7542   -4534.1332            0    1788.6748    17.969839    23.261689    21.962806    9180.6463    1848.5369    1389.7658    2127.7217    47.322111   -702.25894   -307.58186    -4099.268 
25902000    109.20439   -4543.3689   -4356.1963   -4543.3689            0    2772.3834    17.815091    23.240693    22.057984    9132.7784    3907.3531    3642.3941    767.40307   -436.87338   -39.645288   -150.09271   -3986.9364 
25903000    113.14055   -4539.5311   -4345.6121   -4539.5311            0    983.77555    17.969076    23.557373    21.804873    9230.0952    460.32288    1244.5253    1246.4785   -804.06009   -423.69009   -114.09422   -4213.1846 
25904000     112.3186   -4546.3441   -4353.8339   -4546.3441            0    2587.2268    18.037119    23.196975    21.872202    9151.4738     1876.983    3024.5767    2860.1207   -134.55044    193.05072    509.33738     -4008.53 
25905000    109.75842   -4537.6479   -4349.5258   -4537.6479            0    744.42871    18.152023    23.234648    21.908686    9240.1168    220.22545    1458.7637    554.29701    566.74626    217.14013   -113.89329   -4249.2083 
25906000    106.03997   -4550.1312   -4368.3823   -4550.1312            0    1996.8022    17.937533    23.377152    21.931234    9196.3901    1697.7622    2446.4637    1846.1808    336.62339   -139.49123    -229.9466   -4100.5714 
25907000     111.4389   -4543.7198   -4352.7173   -4543.7198            0     1785.385    17.788786    23.544254    21.942786    9190.1589    2168.3972    1149.0795    2038.6784   -548.05602   -22.474127    43.746653   -4113.4238 
25908000    108.21691   -4541.6682   -4356.1881   -4541.6682            0     1774.211    17.966178    23.332027    21.979264    9213.4291    2180.5499     2186.638    955.44507    654.36793   -294.77498    1.7316757   -4117.7902 
25909000    110.13746   -4539.5019   -4350.7301   -4539.5019            0    1875.4572    17.883971    23.413447    21.994868      9209.81    2717.0129    969.89059    1939.4682     1236.573    105.60697   -57.508325   -4098.8269 
25910000    116.94772   -4536.8658   -4336.4214   -4536.8658            0     1471.582    17.914764    23.421927    22.002222    9232.0951    1014.3281    1742.8586    1657.5594   -121.11772     372.1696    122.82128   -4138.2867 
25911000    102.19593   -4535.9477   -4360.7874   -4535.9477            0     1602.488    17.938945    23.365192    21.942337    9197.0628    1358.9129    1782.0058    1666.5453   -266.70335     -358.101   -169.13166   -4145.8461 
25912000    109.66057   -4537.2782   -4349.3237   -4537.2782            0    2564.9478    18.044235    23.042717    22.043308    9165.3475    1662.1491    4416.3939    1616.3002   -221.74511   -307.55097    -254.1006   -4006.4743 
25913000    108.30172   -4528.7405   -4343.1151   -4528.7405            0    2090.0169    17.949411     23.35237    21.905682    9182.0139    1730.3216    1922.8379    2616.8911   -726.72311    -578.0649    578.58836   -4063.2404 
25914000     106.7939   -4534.5246   -4351.4836   -4534.5246            0    3081.6813    17.866804     23.36811    21.932491    9157.1098    3138.5904    3306.0515     2800.402    -353.6564    382.87707    199.97009   -3939.9341 
25915000    113.62986   -4540.6129   -4345.8552   -4540.6129            0     2347.534     17.87659    23.283316     22.02936    9169.1988    3215.4666    1889.1722    1937.9634    78.947031   -226.97623   -37.151273   -4031.9351 
25916000    116.08119   -4538.8682    -4339.909   -4538.8682            0    1563.0887    18.055114     23.06097    22.103723    9203.2924    466.59587    1237.0238    2985.6466    56.588445    256.33842   -144.83277   -4130.1103 
25917000    107.93246   -4540.0481   -4355.0555   -4540.0481            0    2519.0156    17.895185    23.321002    21.943087    9157.5887     2874.657    3060.7626    1621.6274    517.09518   -540.45011    96.591239   -4018.6308 
25918000    114.59044   -4525.5458   -4329.1417   -4525.5458            0     1450.374    17.996647    23.554281    21.809279    9244.9115    1155.7088    873.07832    2322.3349    379.02398    18.419848    760.84118   -4133.5913 
25919000    120.59135   -4538.6497   -4331.9602   -4538.6497            0       2166.4    18.045706    23.263473    21.877813    9184.4323    797.70856    3560.8648    2140.6267   -303.73216    418.05879    141.56943   -4041.7806 
25920000     112.7599   -4539.5893   -4346.3227   -4539.5893            0    2497.6354    18.027138    23.191305    21.937482    9171.4656    2779.7163    2651.6037    2061.5862   -596.38728   -19.783661    122.93944   -4012.2479 
25921000    111.84639   -4538.2429    -4346.542   -4538.2429            0    3023.4326    17.902529    23.271285    21.937159    9139.3466    3803.3054    3692.6659    1574.3265    401.53368   -141.40771    339.19743   -3943.5547 
25922000    115.17363   -4547.4958   -4350.0921   -4547.4958            0    1459.4771    17.784042    23.442049    22.084452    9206.8839    1406.0873    1359.3743    1612.9698   -91.975664   -75.724097   -252.20903   -4154.1238 
25923000     109.9954   -4538.3844    -4349.856   -4538.3844            0    2180.5487    17.884987    23.251837    22.024354    9159.0214    1862.4486    2831.6332    1847.5642    76.688157   -783.31011   -494.92744   -4058.5894 
25924000    112.13625   -4545.4413   -4353.2436   -4545.4413            0    1856.2076     17.97963    23.278053    21.902848    9167.0162    2414.8391     754.1918    2399.5919    495.55627    307.44885    29.544603   -4105.0844 
25925000     114.5003   -4534.8033   -4338.5537   -4534.8033            0    2443.8763    17.965249    23.147055    22.020879    9157.2196    2023.4649    3465.0273    1843.1367    51.542173   -571.12294   -172.54334   -4012.1773 
25926000    108.68912   -4535.1284    -4348.839   -4535.1284            0     2673.578    17.770643    23.458899    21.948623    9149.9355     2892.558    2155.7035    2972.4724   -485.57236     234.2286    191.80711   -3992.0703 
25927000    115.32374   -4531.3128   -4333.6518   -4531.3128            0    1915.6266    18.026966    23.218046    21.961743     9192.108    2019.4159     1719.107    2008.3568   -592.87328   -255.15522    360.77125   -4076.8478 
25928000    112.61415   -4529.9597   -4336.9429   -4529.9597            0    2806.6031    18.056193    23.141276    21.898972    9150.3395    1972.3912    3232.0371    3215.3811    958.95487   -542.01331   -943.57409   -3962.4065 
25929000    114.28106   -4544.1784   -4348.3045   -4544.1784            0    1368.1138    17.882809    23.472287    21.896449    9191.0437    1795.2145     1776.419    532.70809   -163.93788   -340.31824   -229.13969   -4164.9199 
25930000    111.68654   -4540.6669     -4349.24   -4540.6669            0    2952.7736    17.931981    23.355968    21.772994    9118.9387    1923.8311    3334.2901    3600.1997   -623.38556   -32.812258    681.28043   -3956.5496 
25931000    116.68047   -4539.3278   -4339.3414   -4539.3278            0    2911.7351    18.015007    23.192021    21.918667    9157.7159    3749.7568     3132.271    1853.1774    151.74046   -97.895497    87.443785    -3950.462 
25932000    118.22354   -4534.7232   -4332.0921   -4534.7232            0    2174.1159    18.000757     23.21772    21.949993    9173.7039      2301.53    3075.2229    1145.5949    352.12388    30.635551     14.96247   -4041.2191 
25933000    114.51664   -4552.1069   -4355.8293   -4552.1069            0    1754.8232    17.948047    23.448177    21.860676    9200.0434    1649.1225     939.8683    2675.4789    286.77111    246.93639    285.96055   -4120.3791 
25934000    106.38892   -4536.2345   -4353.8875   -4536.2345            0     2316.545    17.886622    23.448758    21.827934    9155.0523    2963.6138    2268.4316    1717.5897   -142.41941     113.1214   -19.481825   -4044.5892 
25935000    116.28005   -4535.5171    -4336.217   -4535.5171            0    2260.7717    17.879592    23.341376    21.965672     9167.028    3133.2995    2352.1573    1296.8583   -377.94689    275.82625    320.08767   -4033.9706 
25936000    117.31011   -4535.9907   -4334.9252   -4535.9907            0    1845.3807    17.925307    23.222069    22.100008    9199.4096    1384.5059    2797.6053     1354.031   -218.90421    15.906892    231.88279   -4087.3416 
25937000    110.18122    -4539.646   -4350.7991    -4539.646            0    2622.4479    17.890458    23.276464     21.95127    9141.0923    2743.0744    2679.3304    2444.9388   -210.81613    37.771865   -211.56326   -4001.1915 
25938000    116.96276   -4532.1015   -4331.6313   -4532.1015            0     1623.576    17.831289    23.454994    22.010779     9205.629    1981.9721    1637.5596    1251.1962    -192.6831    297.30911   -57.777503   -4113.6587 
25939000     106.4848   -4540.8531   -4358.3418   -4540.8531            0    1699.8966     17.92143    23.331407    21.968091    9185.5656    1004.9974    3038.1318    1056.5606    933.04193    414.98561    85.120713   -4130.6201 
25940000    122.68662   -4535.9884   -4325.7078   -4535.9884            0    2622.4479    17.928753    23.237545    21.980893    9157.6845    2619.6054    2667.9045    2579.8338   -407.27481   -562.33042   -130.97294   -3975.4656 
25941000    112.91934   -4532.2396   -4338.6998   -4532.2396            0    2149.9985    17.933964     23.24733    21.982511    9164.8776    1032.9294    2652.5722    2764.4938    371.51753   -71.945535   -460.80181   -4051.3302 
25942000    109.20358   -4528.3295   -4341.1583   -4528.3295            0    2322.8024    17.941527    23.224298    22.013897    9172.7371    2910.4575    2633.2578    1424.6918   -18.480403    44.939309    154.50689   -4030.4255 
25943000    113.06798   -4537.6995   -4343.9048   -4537.6995            0    1653.3349    17.877301    23.316737    22.060586    9195.7418    2577.3965    1252.6179    1129.9902    -79.21627     225.9355    370.23577   -4122.1753 
25944000    113.98969    -4528.306   -4332.9316    -4528.306            0    2532.6931    17.850487    23.344244    22.037678    9183.2354     2208.133    2831.7557    2558.1908   -356.71817    409.55905    213.84013   -3993.7329 
25945000    114.60739   -4546.0468   -4349.6136   -4546.0468            0    3094.3218    18.022759    23.224362    21.839145    9141.1476    3880.1621    2789.9138    2612.8895   -343.69666   -829.02827    -540.4944   -3937.0964 
25946000    112.30939      -4541.2   -4348.7056      -4541.2            0    776.39519    17.954251     23.36962    22.007198    9233.8687    410.46553    1008.1133    910.60678   -927.61739   -151.46938    279.31147   -4244.1511 
25947000    114.20571   -4540.7819   -4345.0372   -4540.7819            0    1535.5604    17.867659    23.472934     21.95776    9209.2246    2187.0296    1338.5746     1081.077   -317.47909    262.39517   -422.44348   -4138.8005 
25948000     111.3023   -4532.6596   -4341.8912   -4532.6596            0    2369.4464    17.842601     23.46526    21.948021    9189.2252    2344.4153    2826.2003    1937.7238    252.83352    462.89765    149.45887   -4024.3489 
25949000    115.06481   -4531.9449   -4334.7277   -4531.9449            0    2536.8777    17.898164    23.158627    22.091768    9156.9696    1835.8137    3279.8811    2494.9382   -490.77002    -397.9928     28.54198   -3995.9404 
25950000    111.99848   -4538.3049   -4346.3433   -4538.3049            0    2549.1183    17.950079    23.142943    22.031538    9152.2899    2035.4711    2898.8931    2712.9909    348.37364   -85.770618    441.25364   -4006.0953 
25951000    110.14837   -4535.0986   -4346.3081   -4535.0986            0    2158.2518    17.898797    23.414499    21.921555    9187.1341    2272.8605    2284.6088    1917.2862    577.82061    325.27034    188.76631   -4057.1349 
25952000    115.38427    -4540.372   -4342.6073    -4540.372            0    2174.7553    17.914839    23.385143    21.928348     9186.686    2872.5345    2011.1347    1640.5968   -627.49041    193.28728   -196.38547   -4051.2371 
25953000    108.70234   -4538.7901    -4352.478   -4538.7901            0    1483.4505    17.920521    23.277604    22.035765    9192.1486    644.94055    1858.2096    1947.2012    337.65229    -357.8353   -434.51542   -4153.6095 
25954000    112.31045    -4545.281   -4352.7847    -4545.281            0    2443.3725    17.830449     23.32356    22.028248    9160.8772    2796.2708    2452.7114    2081.1352   -491.13465   -81.361014    340.15587   -4026.3453 
25955000    103.14811   -4533.7534    -4356.961   -4533.7534            0    2315.5345    17.822813    23.370053    21.967025    9149.7073    3489.9141    2100.0962    1356.5932   -68.971536    139.83726   -341.05024   -4047.9782 
25956000    113.60062   -4548.1799   -4353.4723   -4548.1799            0    1936.9711    17.844187    23.259103    22.122275     9181.624    2613.3175    1332.5857    1865.0102    358.41333    17.152037    253.05047    -4094.103 
25957000    107.83683   -4533.5111   -4348.6825   -4533.5111            0    825.14075     18.06531    23.045469    22.223644    9252.2265    1272.2055    1187.0864    16.130344    -330.1893   -203.49579    447.31785   -4237.3428 
25958000    117.48738   -4540.6041   -4339.2347   -4540.6041            0    2738.3113    17.830247    23.381756    21.955915    9153.4756    2889.8163    1641.9142    3683.2033    580.29153    125.12895    321.73493   -3973.6865 
25959000    104.38063   -4522.5712   -4343.6664   -4522.5712            0    2150.5646    17.790565    23.350782    22.096771    9179.5203    3082.9591    2249.6181    1119.1167    210.41946    135.87792    273.96804    -4055.762 
25960000     113.8242   -4528.5566   -4333.4658   -4528.5566            0    2256.4665    17.851526    23.248448    22.166035    9199.3539    3451.1986     3223.046    95.154968   -1154.3056    205.78858   -97.271037   -4030.7312 
25961000    111.94708   -4541.6245   -4349.7511   -4541.6245            0    1867.6885    17.828956    23.298863    22.130353    9192.8249    2831.0568    1803.8773     968.1312    534.32875   -75.386914     43.76108    -4099.354 
25962000    112.32294   -4539.1328   -4346.6151   -4539.1328            0    1977.1969    17.834204    23.453573    21.969238    9189.2009    3387.4632    607.68492    1936.4427    109.20642   -241.29392    155.12883   -4081.6409 
25963000    115.45778   -4532.1778   -4334.2871   -4532.1778            0    3265.7484    17.677573    23.609185    21.883708    9133.2333    4214.7718    2446.5957    3135.8779   -963.34496    454.99829    119.52991   -3899.2932 
25964000    109.15018   -4538.4244   -4351.3447   -4538.4244            0    1619.3747    17.919263     23.28705    22.079983    9213.6849    1176.7091    1491.4937    2189.9214   -292.86615    -295.5624   -351.88795   -4133.7458 
25965000    109.47438   -4556.0221   -4368.3868   -4556.0221            0     1318.806    17.966248    23.166074    22.133007    9211.9222    1337.4573    2099.6652    519.29547   -598.22583   -117.11801    -562.8234   -4191.2099 
25966000    111.52911   -4542.4936   -4351.3365   -4542.4936            0    1958.1904    18.004317    23.168288    21.921738    9144.1971    602.05598    2334.7894    2937.7259    177.93124   -178.27671    177.46751   -4090.1947 
25967000    109.62437   -4544.5547   -4356.6623   -4544.5547            0    2802.9406    17.897631    23.246056     21.97192    9141.4029    3115.9316     3497.169    1795.7211   -277.77724    77.662475    363.44804   -3982.9799 
25968000    112.22711   -4537.1626   -4344.8092   -4537.1626            0    1109.9657    17.833603    23.407149    22.134395    9239.6444    1431.0274    1663.6941    235.17557   -235.63264   -1279.6651   -225.07096   -4195.2405 
25969000    110.92347   -4531.9343   -4341.8153   -4531.9343            0     1365.594    17.884047    23.305299    22.170831    9240.6488    981.47609    1293.8689    1821.4369   -498.41727    -405.1886    618.52812   -4157.7805 
25970000    109.18613   -4543.3833    -4356.242   -4543.3833            0    2234.7681    17.986411    23.153219    22.037009     9177.165    1710.0295    3064.5832    1929.6915   -202.63359    135.11111    230.35244   -4057.1417 
25971000    118.47027   -4554.7685   -4351.7145   -4554.7685            0     1030.061    17.860644    23.355255    22.133773    9232.8797    1380.3829    1806.0244   -96.224317   -318.61804    314.94983   -328.09165   -4213.0146 
25972000    113.68735   -4547.7443   -4352.8881   -4547.7443            0    2338.2141    17.799891    23.435031    21.963988    9162.0798    2203.6794    1841.1936    2969.7693   -295.17323    -10.49111   -165.03265    -4040.457 
25973000    109.35512   -4539.2322   -4351.8012   -4539.2322            0     1202.938     17.91677    23.260516    22.105077    9212.3644    1626.6778    1263.2031    718.93288   -479.61713    96.011938    537.50628   -4190.1831 
25974000    112.02854   -4538.5763   -4346.5632   -4538.5763            0    1390.0247    18.010399    23.206607    22.006682    9197.9188    978.70981    2012.2524    1179.1119    46.320539    675.40466    26.115609   -4160.1022 
25975000    108.28828   -4539.9223   -4354.3199   -4539.9223            0    1885.6648    18.015497    23.279574    21.933515    9198.7648    903.64534    1765.8046    2987.5444    899.13943    41.490011    74.016653   -4101.3494 
25976000    114.20776   -4543.1146   -4347.3664   -4543.1146            0    1972.9426    17.875376    23.543337    21.853114    9196.7956    1694.8625    1306.6286    2917.3366    289.81252    325.02735    52.196874   -4082.7438 
25977000    114.07599   -4515.8331   -4320.3107   -4515.8331            0    1464.6086    17.962053    23.435483    21.956024    9242.3746     1863.891    993.64073     1536.294   -906.78234    260.01561    198.52152   -4122.8953 
25978000    116.04033   -4534.9851   -4336.0959   -4534.9851            0    2718.1246    18.030519    23.225816    21.893361    9168.3599    2733.0504    2832.9957    2588.3277    366.56194    -310.7914   -272.42464   -3972.6524 
25979000    113.92115   -4535.9432   -4340.6863   -4535.9432            0    2145.0682      18.1311    23.177791    21.852919    9183.4452    2982.7019     2342.876    1109.6267   -540.87207   -317.78097    212.83479   -4053.3949 
25980000    114.39023   -4530.7674   -4334.7065   -4530.7674            0    1704.9219    18.005205    23.464832    21.795015    9208.1562    1891.6868    1262.0848    1960.9941   -669.65729    563.59728   -53.763608   -4105.7499 
25981000    116.26228   -4537.0525   -4337.7829   -4537.0525            0    1832.9312    17.856437    23.474007    21.970169    9209.0628     1736.459    1962.2285     1800.106   -214.63425   -378.30544   -282.09743   -4091.6116 
25982000    110.62597   -4532.8871    -4343.278   -4532.8871            0    1962.2302    17.981219    23.268052    21.926354    9173.7218    2114.3902    2522.7712    1249.5291    289.69396   -90.385139    419.94808   -4080.7525 
25983000    113.44092   -4545.7829    -4351.349   -4545.7829            0    2785.3405    17.901519    23.385271    21.884402    9161.5086    3390.2595    2190.6217    2775.1401   -268.06608   -43.009075    273.07502   -3979.1963 
25984000    114.85566   -4533.9103   -4337.0516   -4533.9103            0    2005.3222    17.895185    23.540618    21.896936    9224.3848    2366.1404    2186.1194    1463.7067   -288.39875   -276.78203    353.57072   -4067.2793 
25985000    109.79313   -4544.6535   -4356.4719   -4544.6535            0    1922.4275    17.989852    23.207134    22.005797    9187.2642    2450.4362    2839.1445    477.70194   -84.147903    563.29738    482.44345   -4098.8919 
25986000    109.04919   -4536.9463   -4350.0397   -4536.9463            0     1776.354    17.973871    23.125801    22.131087    9199.0115    2715.6659    1915.5206    697.87535    30.576574     536.2269   -794.91738   -4111.7274 
25987000    113.50432   -4540.6682   -4346.1256   -4540.6682            0    2181.3002    17.849425    23.362486    21.990969    9170.3868    2321.4693    1881.9176    2340.5138     412.7215   -6.8784303     111.4483    -4054.397 
25988000    113.10668   -4532.0139   -4338.1529   -4532.0139            0    2927.0039    17.926695    23.194062    22.019476    9155.5411    3130.1834    2713.6131    2937.2152    840.62634    56.884337    446.71686   -3947.3271 
25989000    112.83646   -4535.2914   -4341.8936   -4535.2914            0    1372.9664    17.951485    23.273471    22.089832    9228.9851     1621.313    358.94112    2138.6452   -269.54643   -268.90673    73.139244   -4157.0988 
25990000    113.29161   -4537.9468   -4343.7689   -4537.9468            0    1551.3042    17.882831     23.35323    22.069221     9216.589    2077.0878    549.83063    2026.9943    -362.2681   -146.68681   -301.18043   -4135.2511 
25991000    110.30973    -4546.215   -4357.1479    -4546.215            0    1353.7536    17.900573    23.332038    22.015136    9194.7725    1938.1207    828.24949    1294.8906   -38.692672    119.05758   -296.03089   -4175.6146 
25992000     113.8454   -4541.9117   -4346.7846   -4541.9117            0    1519.7011    17.883754    23.161048    22.209744    9199.4203    1334.0901     1394.331    1830.6823    576.70289    185.23908   -603.29721   -4142.8952 
25993000     116.2779   -4534.3092   -4335.0129   -4534.3092            0    1476.3535    17.836772    23.444642    22.082724    9234.4812    1332.9458    1099.9248    1996.1899    25.091869     25.60503   -45.532026   -4136.1843 
25994000    114.89914   -4538.0771   -4341.1439   -4538.0771            0    1768.8722     17.87534    23.400538    22.001399     9203.022    2298.0605    1687.9275    1320.6287   -29.079715   -450.31514   -177.01926   -4103.7318 
25995000    115.16061   -4530.0575   -4332.6762   -4530.0575            0    2959.1587    17.861913      23.3766    21.921516    9153.3461    3901.9181    2286.3635    2689.1945    -556.0855   -322.96978    180.00005   -3937.6517 
25996000    116.99191    -4548.688   -4348.1678    -4548.688            0    1578.6765    17.912499    23.324047     21.95131    9171.0814    1424.3737    1380.4913    1931.1645    77.887922    111.30142    396.63119   -4137.0186 
25997000    110.36986   -4535.1227   -4345.9525   -4535.1227            0    2130.1284    17.790503    23.420332    21.987708    9161.3872     3303.735     1877.997    1208.6533   -391.81433    107.05327    26.799237   -4061.3473 
25998000    117.56493   -4535.9783    -4334.476   -4535.9783            0    2172.8843    17.900928    23.380804    21.941809    9183.4827    2319.1292      2345.31    1854.2137    -55.26388    355.42089    141.35334    -4043.458 
25999000     108.2207   -4541.9239   -4356.4374   -4541.9239            0    1972.0778    18.014899    23.252838    21.941492    9191.2368    1435.8862    2456.3316    2024.0156   -425.52735    -108.8811    388.57459   -4092.0907 
26000000    116.18162   -4528.4123    -4329.281   -4528.4123            0    1724.4535    18.009957     23.43271    21.819474    9208.2999    923.20275    1386.4739    2863.6839   -613.22402    76.029154    252.12949   -4097.6979 
Loop time of 419.566 on 64 procs for 250000 steps with 864 atoms

Performance: 102.964 ns/day, 0.233 hours/ns, 595.854 timesteps/s
375.6% CPU use with 16 MPI tasks x 4 OpenMP threads

MPI task timing breakdown:
Section |  min time  |  avg time  |  max time  |%varavg| %total
---------------------------------------------------------------
Pair    | 25.795     | 28.442     | 34.237     |  35.0 |  6.78
Bond    | 1.6209     | 1.9097     | 2.8869     |  23.0 |  0.46
Kspace  | 219.59     | 224.54     | 234.43     |  24.3 | 53.52
Neigh   | 0.64523    | 0.67852    | 0.75207    |   4.0 |  0.16
Comm    | 51.558     | 60.814     | 68.61      |  53.0 | 14.49
Output  | 0.45171    | 0.452      | 0.45363    |   0.1 |  0.11
Modify  | 66.2       | 76.042     | 84.696     |  55.4 | 18.12
Other   |            | 26.69      |            |       |  6.36

Nlocal:        54.0000 ave          61 max          48 min
Histogram: 5 2 1 0 0 0 1 2 2 3
Nghost:        2557.69 ave        2585 max        2544 min
Histogram: 5 3 1 1 1 1 2 0 1 1
Neighs:        13200.5 ave       14824 max       11747 min
Histogram: 4 3 1 0 0 0 0 3 4 1

Total # of neighbors = 211208
Ave neighs/atom = 244.45370
Ave special neighs/atom = 2.0000000
Neighbor list builds = 2328
Dangerous builds = 0

unfix		3
unfix		2
unfix		1

write_data	data.final.${pid} nocoeff
write_data	data.final.1 nocoeff
System init for write_data ...
PPPM initialization ...
  extracting TIP4P info from pair style
  using 12-bit tables for long-range coulomb (../kspace.cpp:340)
  G vector (1/distance) = 0.37199406
  grid = 24 27 25
  stencil order = 5
  estimated absolute RMS force accuracy = 0.0031205542
  estimated relative force accuracy = 9.3974563e-06
  using double precision FFTW3
  3d grid and FFT values/proc = 6300 1296
Last active /omp style is kspace_style pppm/tip4p/omp

write_restart   restart.lmp.${pid}
write_restart   restart.lmp.1
System init for write_restart ...
PPPM initialization ...
  extracting TIP4P info from pair style
  using 12-bit tables for long-range coulomb (../kspace.cpp:340)
  G vector (1/distance) = 0.37199406
  grid = 24 27 25
  stencil order = 5
  estimated absolute RMS force accuracy = 0.0031205542
  estimated relative force accuracy = 9.3974563e-06
  using double precision FFTW3
  3d grid and FFT values/proc = 6300 1296
Last active /omp style is kspace_style pppm/tip4p/omp
Total wall time: 0:06:59
