#include		in.partitions
include		in.temp
variable        temperature equal 47.72
variable	tempDamp equal 100.0
include		in.pressure
variable        pressure equal 2140.5
variable        pressureDamp equal 1000.0 # This is 1 ps
include		in.seed
variable        seed equal 745823

units		real
atom_style	full
#include		in.box
read_restart	restart.lmp.${pid}
read_restart	restart.lmp.0
Reading restart file ...
  restart file = 30 Jul 2021, LAMMPS = 30 Jul 2021
  restoring atom style full from restart
  orthogonal box = (0.11828814 0.16124190 0.21526321) to (18.089284 23.467936 21.997933)
  2 by 4 by 4 MPI processor grid
  restoring pair style lj/cut/tip4p/long/omp from restart
  restoring bond style harmonic/omp from restart
  restoring angle style harmonic/omp from restart
  864 atoms
  576 bonds
  288 angles
Finding 1-2 1-3 1-4 neighbors ...
  special bond factors lj:    0        0        0       
  special bond factors coul:  0        0        0       
     2 = max # of 1-2 neighbors
     1 = max # of 1-3 neighbors
     1 = max # of 1-4 neighbors
     2 = max # of special neighbors
  special bonds CPU = 0.003 seconds
  read_restart CPU = 0.012 seconds
include 	in.setup
variable	out_freq equal 1000
variable	out_freq2 equal 10000
variable	out_freq3 equal 1000

timestep	2.0

neigh_modify    delay 7 every 1

include		in.tip4p
# This is TIP4P/Ice

# create groups ###
group ox type 2
288 atoms in group ox
group hy type 1
576 atoms in group hy

# set charges - beside manually ###
set group ox charge -1.1794
Setting atom values ...
  288 settings made for charge
set group hy charge 0.5897
Setting atom values ...
  576 settings made for charge

# ### TIP3P Potential Parameters ###
pair_style lj/cut/tip4p/long/omp 2 1 1 1 0.1577 8.5
pair_coeff 1 1*2 0.000 0.000
pair_coeff 2 2 0.21084 3.1668
bond_style  harmonic
bond_coeff  1 450 0.9572
angle_style harmonic
angle_coeff 1 55 104.52
kspace_style pppm/tip4p/omp 1.0e-5
pair_modify tail yes

thermo          ${out_freq}
thermo          1000
thermo_style    custom step temp pe etotal epair emol press lx ly lz vol pxx pyy pzz pxy pxz pyz enthalpy

restart 	${out_freq3} restart.lmp.${pid} restart2.lmp.${pid}
restart 	1000 restart.lmp.${pid} restart2.lmp.${pid}
restart 	1000 restart.lmp.0 restart2.lmp.${pid}
restart 	1000 restart.lmp.0 restart2.lmp.0


include         in.dump
dump            myDump all atom ${out_freq2} dump.water.${pid}
dump            myDump all atom 10000 dump.water.${pid}
dump            myDump all atom 10000 dump.water.0
dump            myDump2 all dcd ${out_freq2} dump.dcd
dump            myDump2 all dcd 10000 dump.dcd
dump_modify     myDump append yes
dump_modify     myDump2 append yes


variable natoms 	equal  "count(all)"                        # NUMBER ATOMS
variable H      	equal  "enthalpy/v_natoms"                 # ENTHALPY-per-atom
variable Vol      	equal  "vol/v_natoms"                 # volume-per-atom
fix AVG all 		ave/time ${out_freq} 1 ${out_freq} v_Vol v_H file vol_enthalpy.dat
fix AVG all 		ave/time 1000 1 ${out_freq} v_Vol v_H file vol_enthalpy.dat
fix AVG all 		ave/time 1000 1 1000 v_Vol v_H file vol_enthalpy.dat


timer           timeout 23:50:00 every 1000
New timer settings: style=normal  mode=nosync  timeout=23:50:00

fix 		1 all shake 1e-6 200 0 b 1 a 1
       0 = # of size 2 clusters
       0 = # of size 3 clusters
       0 = # of size 4 clusters
     288 = # of frozen angles
  find clusters CPU = 0.001 seconds
fix             2 all nph aniso ${pressure} ${pressure} ${pressureDamp}
fix             2 all nph aniso 2140.5 ${pressure} ${pressureDamp}
fix             2 all nph aniso 2140.5 2140.5 ${pressureDamp}
fix             2 all nph aniso 2140.5 2140.5 1000
fix             3 all temp/csvr ${temperature} ${temperature} ${tempDamp} ${seed}
fix             3 all temp/csvr 47.72 ${temperature} ${tempDamp} ${seed}
fix             3 all temp/csvr 47.72 47.72 ${tempDamp} ${seed}
fix             3 all temp/csvr 47.72 47.72 100 ${seed}
fix             3 all temp/csvr 47.72 47.72 100 745823


run             250000
PPPM initialization ...
  extracting TIP4P info from pair style
  using 12-bit tables for long-range coulomb (../kspace.cpp:340)
  G vector (1/distance) = 0.37225099
  grid = 24 27 25
  stencil order = 5
  estimated absolute RMS force accuracy = 0.0030918178
  estimated relative force accuracy = 9.3109173e-06
  using double precision FFTW3
  3d grid and FFT values/proc = 4410 672
Last active /omp style is kspace_style pppm/tip4p/omp
Neighbor list info ...
  update every 1 steps, delay 7 steps, check yes
  max neighbors/atom: 2000, page size: 100000
  master list distance cutoff = 10.8154
  ghost atom cutoff = 10.8154
  binsize = 5.4077, bins = 4 5 5
  1 neighbor lists, perpetual/occasional/extra = 1 0 0
  (1) pair lj/cut/tip4p/long/omp, perpetual
      attributes: half, newton on, omp
      pair build: half/bin/newton/omp
      stencil: half/bin/3d
      bin: standard
Per MPI rank memory allocation (min/avg/max) = 10.21 | 10.22 | 10.23 Mbytes
Step Temp PotEng TotEng E_pair E_mol Press Lx Ly Lz Volume Pxx Pyy Pzz Pxy Pxz Pyz Enthalpy 
41000000     51.92232    -4648.847   -4559.8539    -4648.847            0    2016.7867    17.970996    23.306694    21.782669    9123.5514    1666.0291    1961.1538    2423.1772   -253.75762   -294.10237   -114.27382    -4291.505 
41001000    48.101808   -4656.3385   -4573.8936   -4656.3385            0    2348.6579     18.02245    23.222208    21.766158    9109.5962    2711.8309    2212.8082    2121.3347   -251.14435   -139.54577   -245.94413   -4261.8647 
41002000    47.590384   -4656.4298   -4574.8615   -4656.4298            0      2170.39    17.924488    23.233045    21.902683    9121.1628    2485.1896    2654.1977    1371.7826   -90.187456   -327.30942    -184.0908   -4286.1501 
41003000    50.048625    -4661.304   -4575.5224    -4661.304            0    2426.7029    17.874696    23.305589    21.874946    9112.6719    2763.3708    2423.1529    2093.5849    -104.4742    123.43069     493.4586    -4253.016 
41004000    45.769821   -4659.2616   -4580.8137   -4659.2616            0    2416.1525    17.932257    23.350277    21.740251    9103.1467    2503.8967    2028.1276    2716.4333   -466.62663    58.693745    416.10564   -4260.0452 
41005000    48.719531   -4655.6817    -4572.178   -4655.6817            0     1369.607    17.896057    23.459963    21.778644    9143.5636    1575.1934    1062.4886     1471.139    15.331129    92.551088   -157.74003   -4389.5416 
41006000    49.160239   -4656.9065   -4572.6475   -4656.9065            0    2033.8912    17.901039     23.30432    21.892333    9132.8582    2714.5871    1889.6575    1497.4289   -410.56403    276.55786   -15.118448   -4301.7467 
41007000    47.557068   -4655.9201    -4574.409   -4655.9201            0    2227.8451    17.919586     23.23415    21.882526    9110.7102     1999.267     2583.605    2100.6632     67.07673    46.161557    363.74138   -4278.3944 
41008000    49.259393   -4657.3715   -4572.9426   -4657.3715            0    2454.4918    17.888909    23.309265    21.869355    9119.0249    2104.9203     2267.424     2991.131    230.51056    79.786195    445.63245   -4246.5158 
41009000    49.284255    -4651.331   -4566.8594    -4651.331            0    3095.6271    17.949952    23.171039    21.826271    9077.9617    2379.7759    3169.1444     3737.961    -339.3361   -298.26108    146.94014   -4157.0208 
41010000    47.046886   -4653.2997    -4572.663   -4653.2997            0     2148.079    17.842568     23.25407    21.982708    9120.8964    2478.0766    2305.4467    1660.7136     62.86639   -200.44452   -130.72227   -4286.9278 
41011000    47.910684   -4657.7685   -4575.6512   -4657.7685            0    1496.0196    17.890476    23.311025    21.939552     9149.788    1663.8322    1552.2057    1272.0209    37.058609     131.2923     13.68187   -4376.0219 
41012000    49.919965   -4652.0902   -4566.5291   -4652.0902            0    2270.7708     17.88549    23.288378    21.872732    9110.5187    2512.5015     2077.952    2221.8588   -254.08915    17.400825   -202.91831   -4264.8173 
41013000    50.383791   -4655.4578   -4569.1017   -4655.4578            0      2282.47    17.957244    23.251478    21.846567    9121.6512    2032.3666    2142.6657    2672.3778    21.251372   -356.53939    8.2903642   -4265.4649 
41014000    47.534264   -4659.2117   -4577.7396   -4659.2117            0    2029.2141    17.896307     23.35743    21.818695    9120.4706    1720.4258    2064.7728    2302.4436    163.85171   -215.15843    104.41791   -4307.8284 
41015000    50.182583   -4660.8938   -4574.8825   -4660.8938            0    1925.4395    17.798684    23.453423    21.888655    9137.2019    2292.1114    1694.7459    1789.4612    -436.4191   -68.227096   -242.60374   -4318.3048 
41016000     48.26644   -4655.8785   -4573.1514   -4655.8785            0    2189.9354    17.868007    23.223046     21.97349    9117.8899    2350.6949    2213.3107    2005.8006   -317.75161    126.53066    34.255776   -4281.9446 
41017000    45.763094   -4650.7158   -4572.2795   -4650.7158            0    2479.7837    17.933908    23.137771    21.939408    9103.7716      2615.44    2461.7686    2362.1427   -185.04731   -93.289043    65.297324   -4243.0406 
41018000    45.452654   -4656.8643   -4578.9601   -4656.8643            0    2545.8606    17.929533    23.274082    21.794487    9094.6961     2039.213    2486.1071    3112.2616    339.57043    129.11865    510.86697   -4241.2852 
41019000    49.333649   -4658.9194   -4574.3633   -4658.9194            0    2025.0302    17.834949     23.37513    21.875034     9119.576    2560.0344    948.15325    2566.9029   -247.74292   -4.5028777    312.26167   -4305.0349 
41020000    44.628235   -4654.3149   -4577.8237   -4654.3149            0    1491.8643    17.881796    23.270757    21.982807    9147.5503    1377.6273    1679.4888    1418.4767    94.949383    89.938981   -83.596419   -4378.7976 
41021000    47.092649   -4659.4057   -4578.6905   -4659.4057            0    2046.7863    17.882398    23.350927    21.843818    9121.3352    2041.4024    2536.5595    1562.3969   -37.581419   -159.89532   -333.15595   -4306.4161 
41022000    48.087701   -4652.3722   -4569.9515   -4652.3722            0    2472.0693    17.891193    23.311106    21.844106    9110.3797     2899.055    2162.9633    2354.1895    498.06835   -30.924535    133.31038   -4241.4987 
41023000    46.158835   -4657.7347   -4578.6201   -4657.7347            0    2124.0279    17.947799    23.363639     21.73858      9115.55    1467.5333    2121.5785    2782.9721   -283.07837   -294.82564    275.05765   -4296.2498 
41024000    51.340678   -4651.2896   -4563.2934   -4651.2896            0    2477.3755    17.798788    23.242575    22.012032    9106.1499    2455.7406    1755.1985    3221.1874     233.6948    27.826517   -36.425665   -4234.2884 
41025000    47.669289   -4653.7992   -4572.0957   -4653.7992            0    2009.3777    17.835346    23.287291     21.93986    9112.4333     1820.912    2321.9896    1885.2317    31.409927   -5.0843931     7.469764   -4305.0585 
41026000    48.679259   -4652.1591   -4568.7245   -4652.1591            0    2025.0681    17.952501    23.256213     21.86024    9126.8076    1825.5304    2199.1925    2050.4815   -556.95356    331.22442    45.496883   -4299.1775 
41027000    48.392235   -4654.5335   -4571.5909   -4654.5335            0    1365.1714    17.835927     23.35553    21.961127    9148.2927    1539.7369    1515.0997    1040.6775    607.57298     109.3079   -77.664278   -4389.4518 
41028000    46.479984   -4656.2951     -4576.63   -4656.2951            0    1998.1018    17.832086    23.294312    21.961042    9122.3132    2505.8412    2191.5482    1296.9161   -78.663782    160.36532    373.02897   -4310.8034 
41029000    48.103417   -4663.3847   -4580.9371   -4663.3847            0    2002.1131    17.995122    23.157041    21.899179    9125.6894    1615.7094    2400.3955    1990.2345   -37.461168   -244.93772    245.75466   -4314.4782 
41030000    49.606453   -4655.5647    -4570.541   -4655.5647            0    2282.2677    17.861074    23.185855    21.997194    9109.5716    2351.2623    2777.7418    1717.7988   -515.25107    37.493928    115.03107   -4267.3331 
41031000    50.273899   -4653.4337    -4567.266   -4653.4337            0    2158.8699    17.793508    23.321219    21.996216    9127.6883    2713.6263     1996.897    1766.0864    64.037936    -84.68997   -248.50428   -4279.8816 
41032000    49.444211   -4656.5068   -4571.7611   -4656.5068            0    2087.7489    17.959515    23.206214    21.895927    9125.6168    2062.8362    2528.2006    1672.2099    435.64872   -236.81471    89.843797   -4293.9073 
41033000    46.453067   -4651.7438   -4572.1248   -4651.7438            0    2223.0253    17.886324    23.276807    21.883056    9110.7151    2511.5285    1824.0849    2333.4625   -229.01871   -231.66656    117.59327   -4276.7505 
41034000    43.965519   -4655.3678   -4580.0124   -4655.3678            0    2113.5943    17.840222    23.382336    21.883608    9128.6611     2251.655    1618.5252    2470.6027    163.08882   -104.03408   -266.71307    -4298.625 
41035000    46.288978    -4659.095   -4579.7573    -4659.095            0    2684.3321    17.863026    23.184909     21.96431    9096.5768     2544.637     2781.841    2726.5184    97.308126   -89.616834    176.67558   -4223.6424 
41036000    44.564599   -4653.4817   -4577.0995   -4653.4817            0    2313.4292    17.854334    23.313183    21.909955    9119.8292     2502.812     1920.364    2517.1117    353.11343   -305.97708   -432.16854   -4269.4057 
41037000    47.565315   -4654.7293   -4573.2039   -4654.7293            0     1597.012    17.871101    23.277714    21.974512    9141.3617    1389.2705    2222.4453    1179.3202    46.872323     258.8443    117.89774   -4360.2945 
41038000    48.160493   -4656.6191   -4574.0737   -4656.6191            0    2382.0474    17.922012    23.164587    21.961422    9117.4163    2772.3148    2820.1815    1553.6458    58.869027    120.03266   -9.7654234   -4257.3372 
41039000    48.716321   -4655.8253   -4572.3272   -4655.8253            0    2138.3562    17.818163    23.242353    22.020931    9119.6612    2383.6646    2057.5332    1973.8707   -691.77321   -445.17396   -70.549185   -4287.9239 
41040000    47.092428   -4654.2424   -4573.5276   -4654.2424            0    2771.7913    17.822985    23.371782    21.821209    9089.7318    2463.6225    2816.8087    3034.9427    240.28682   -222.26128    420.46443   -4206.0867 
41041000    47.726777   -4656.6159   -4574.8139   -4656.6159            0    2322.3307    17.873518    23.331019     21.83633    9105.9112    1944.1408    2426.4804     2596.371    314.80352   -20.304509    117.20314   -4266.4075 
41042000    48.153827   -4656.5397   -4574.0056   -4656.5397            0    2620.0609    17.896323    23.168299     21.94872    9100.5397    2191.0623    3074.8459    2594.2745   -380.74369   -82.376792   -294.63715   -4226.2658 
41043000    48.275245   -4653.6192    -4570.877   -4653.6192            0    2133.8782    17.804481    23.281359    21.974084    9108.5327     2095.135     2787.403    1519.0967    411.28824    60.486891   -179.52219   -4287.4156 
41044000    48.952827   -4656.7556   -4572.8522   -4656.7556            0    1695.1097    17.934526    23.284127    21.887868    9140.1499    1532.6129    1983.3882    1569.3281  -0.91505533   -290.06765   -147.79236   -4346.8945 
41045000    45.341338   -4661.3749   -4583.6614   -4661.3749            0    2331.0517    17.992366    23.149519    21.866288    9107.6288    1430.4302    3224.3031    2338.4217   -180.61339    176.37751    173.83742   -4274.0384 
41046000     48.52871    -4653.442   -4570.2654    -4653.442            0    2304.4143      17.8966    23.273071    21.866442    9107.5664    1955.4402     2677.046    2280.7567     289.7088    120.68529    332.55638   -4264.1827 
41047000    45.214097   -4655.2073   -4577.7119   -4655.2073            0    1910.2138    17.909146      23.2745    21.875447    9118.2644    1836.1062    2408.5561    1485.9792   -353.74871   -66.898496   -194.20949   -4323.6906 
41048000      48.1382   -4655.4871   -4572.9799   -4655.4871            0    1821.5528    17.856309    23.444223    21.837138    9141.6223    1883.8809    1444.5403    2136.2372    166.99641   -53.176214   -455.39896   -4330.1283 
41049000     47.94127   -4654.7204   -4572.5507   -4654.7204            0    1701.8248    17.976857    23.231995    21.889257    9141.7908     1949.671    1345.6864    1810.1169    24.840508    -83.21693    2.4934995   -4345.6572 
41050000    49.217538   -4661.7971   -4577.4399   -4661.7971            0    1990.0051     17.95565    23.249913    21.828403    9112.6445    1617.8462    2108.9942    2243.1749    -297.4397    111.87151    8.3067648   -4312.9711 
41051000    47.855051   -4651.4856   -4569.4637   -4651.4856            0    2820.8667    17.880927     23.30044    21.826592    9093.6884     2923.759    2715.6876    2823.1533   -522.25968    94.782011    206.68578   -4195.3543 
41052000    46.714547   -4652.6809   -4572.6138   -4652.6809            0    2192.7418    17.974003    23.206037    21.842635    9110.6806    1839.4227     2461.525    2277.2778    887.49402     454.3143    259.39372   -4281.2643 
41053000    47.593482   -4659.9936     -4578.42   -4659.9936            0    1993.4565    17.904709    23.320514    21.862016    9128.4192    1470.1603    2494.6998    2015.5093    109.44275    267.22814    369.12417   -4313.0339 
41054000     48.92986   -4654.5862    -4570.722   -4654.5862            0    2244.8997    17.918057    23.281126    21.867783    9122.2013     1986.741    2509.9807    2237.9772    268.78134    84.613863    562.10989   -4272.0652 
41055000    46.768242   -4654.7983   -4574.6391   -4654.7983            0    1904.2462    17.897129    23.324502    21.873061     9130.726    1881.7779    1847.0061    1983.9547    196.76246    81.349587    385.78076   -4321.0654 
41056000    48.628708   -4651.3483   -4568.0004   -4651.3483            0    2118.3698    17.876914    23.288375    21.905364    9119.7348     1765.342    1678.3266    2911.4407   -120.22785   -21.752017   -6.7588153    -4286.253 
41057000    49.573195   -4659.2989   -4574.3322   -4659.2989            0    2065.5949    17.860804    23.255604    21.953487    9118.6835    1991.4062    2228.4513    1976.9272   -176.20454    117.70315    -104.3092   -4299.6356 
41058000     47.18427   -4655.6264   -4574.7541   -4655.6264            0    2362.8279    17.973632    23.162719    21.893716    9114.7524    2060.1422    2959.4004    2068.9412   -94.839877    99.105988    115.05985    -4260.665 
41059000     49.87285   -4659.2897   -4573.8093   -4659.2897            0    2010.8042    17.877284     23.30536     21.92288    9133.8727    2565.0473    1674.2516    1793.1136    153.98233   -175.82483      173.338   -4305.9538 
41060000    48.828325   -4663.4734   -4579.7833   -4663.4734            0    2226.1377    17.873595    23.248665    21.919499    9108.3672      2467.07    1873.5871    2337.7561   -402.73432   -177.52699    431.04505   -4284.0716 
41061000    47.481663   -4656.8812   -4575.4993   -4656.8812            0    1610.9242    17.981954    23.210223    21.885988    9134.4488    1171.0655    2382.9336    1278.7737    30.494204    233.14034    154.01562   -4360.8975 
41062000    47.521512   -4653.9567   -4572.5064   -4653.9567            0    2412.8001    17.816147     23.33527    21.935767    9119.6766    2886.2626    2411.1647    1940.9729    344.87302     400.6609   -86.893166   -4251.6013 
41063000    49.977793    -4652.508   -4566.8478    -4652.508            0     2197.322    17.785222    23.362496    21.964443    9126.3837    2516.1234     2357.069    1718.7736   -261.70431      351.879   -132.01344   -4274.3865 
41064000    49.801645   -4660.1972   -4574.8389   -4660.1972            0    1983.0993    17.920697    23.256931     21.90004    9127.5076    1972.7933    2399.6102    1576.8945   -62.479339   -99.319788   -102.78694   -4310.8579 
41065000    46.390168   -4659.2388   -4579.7277   -4659.2388            0    2096.6503    17.859159    23.250772    21.972547    9123.8634    2060.3632    1631.6044    2597.9834   -40.534978   -151.47639    62.053498   -4300.7428 
41066000    48.470774   -4653.7135   -4570.6362   -4653.7135            0    2389.2635    18.000068    23.227243    21.819609    9122.6029     1513.384    2310.9618    3343.4448     257.1837    219.88698    249.92114   -4252.7595 
41067000    46.435371   -4661.4892   -4581.9006   -4661.4892            0    2153.8062     17.89845    23.249859    21.914011    9119.2185    2150.0793    2018.5372    2292.8022   -405.45945    159.75313    332.02337   -4295.4563 
41068000    48.462472     -4657.19   -4574.1269     -4657.19            0    2474.4378    17.776604    23.362656    21.917877    9102.6844    3193.5364     1877.034    2352.7432   -160.86867    8.8143739   -164.47924   -4245.6371 
41069000    46.557222   -4661.1446   -4581.3471   -4661.1446            0    2185.4702    17.906228    23.292037    21.841424    9109.4577    2068.7265    2060.3491    2427.3351    360.07106   -107.33531   -12.398543   -4291.0028 
41070000    50.629662   -4662.3282   -4575.5507   -4662.3282            0    1567.3155    17.901994    23.470413    21.766281    9145.4773    1312.4391    981.94618    2407.5611   -357.14951    199.09143    81.388457   -4366.5063 
41071000    48.668702   -4660.1973   -4576.7808   -4660.1973            0    1544.7626    17.889471    23.417548    21.845394    9151.6372    1693.1251    1099.5151    1841.6478    187.94551   -22.130078   -106.16661   -4370.6056 
41072000    52.056684   -4652.9763   -4563.7529   -4652.9763            0    2263.3402    17.989532    23.135383    21.900142    9114.7232    2111.8636    2322.4113    2355.7458   -70.294495    92.184931   -100.26512   -4262.8896 
41073000    46.661694   -4661.9333   -4581.9567   -4661.9333            0    1786.7803    17.880303    23.374427    21.845376    9130.0963    1950.6197    1346.0529    2063.6684   -120.35185    42.031594   -52.622087   -4344.0414 
41074000    46.678694   -4656.4603   -4576.4546   -4656.4603            0    2211.5463    17.904409    23.354916    21.795644    9113.9785    2007.9271    2490.4041    2136.3075   -283.30983     78.85125    304.40107   -4282.5003 
41075000    47.054179   -4656.6678   -4576.0186   -4656.6678            0    2565.9042    17.945117    23.288321    21.793955    9107.9477    2221.3695    2859.7209    2616.6223    -827.7947   -358.31852   -138.45014   -4235.1893 
41076000    47.632669   -4657.1395   -4575.4988   -4657.1395            0     1931.429     17.99079    23.218508    21.841671    9123.6875    1570.8222    2056.4862    2166.9785   -411.58838   -66.343729   -130.30421   -4318.5035 
41077000    47.545465   -4660.1824   -4578.6911   -4660.1824            0    1709.1745    17.925808    23.329976    21.856806    9140.7057    1594.4116    1566.7146    1966.3971   -352.57498    16.074922    323.96909   -4350.8448 
41078000    47.141929   -4646.3535   -4565.5539   -4646.3535            0    2248.0971    17.822458    23.345399    21.878406    9103.0004    2416.9648    2331.9746    1995.3519    350.37705   -50.579202    55.817257   -4267.1012 
41079000    48.354521   -4658.9456   -4576.0676   -4658.9456            0    2034.1382    17.938323    23.238578     21.88381    9122.5098    1951.7895    2313.1003    1837.5249   -204.50225   -4.0722011    153.95409   -4305.4409 
41080000    48.100311   -4649.9069   -4567.4646   -4649.9069            0    2418.2933    17.916598    23.248712    21.872635      9110.78    1843.9361    2686.9491    2723.9947   -194.43849   -113.75271    225.36546   -4246.1426 
41081000    46.182857   -4652.8945   -4573.7387   -4652.8945            0    2519.3302    17.862955    23.336075    21.845574    9106.3548    2570.9828    2241.5402    2745.4676    367.76327    170.68494    137.57467   -4239.1544 
41082000    46.787197   -4658.0502   -4577.8585   -4658.0502            0    2057.2113    17.824838    23.398389    21.898445     9133.239    2209.5806    2028.2977    1933.7555   -206.19032   -93.605539    111.49374   -4303.8402 
41083000    44.641912   -4654.2535   -4577.7388   -4654.2535            0    2137.0045    17.826804    23.227097    22.014823    9115.5657    3209.3811    2108.1071    1093.5254    65.476535   -475.86253   -271.53637   -4293.6429 
41084000    49.884601   -4652.9104   -4567.4099   -4652.9104            0    2062.0257    17.884699    23.228857    21.959702    9122.9629    2403.4168     1800.459    1982.2014   -346.56819   -4.2609766    78.505919   -4293.0593 
41085000    47.042138   -4655.5956    -4574.967   -4655.5956            0    2487.7272     17.89715    23.291265    21.832561    9100.8436    2563.5444    2539.7928    2359.8445   -154.31644   -442.03295    144.73842   -4244.7798 
41086000    48.277159   -4657.5091   -4574.7637   -4657.5091            0    1918.9395    17.835459    23.373613    21.871935    9117.9528    2090.4041    2192.9232    1473.4912    209.88586   -205.42651    238.72672   -4319.5908 
41087000    45.486451   -4655.1622      -4577.2   -4655.1622            0    2675.3802     17.93395     23.19791    21.867948    9097.7257    1683.4778    3382.0449     2960.618    206.39809    -110.7852     174.7554   -4222.2278 
41088000     48.49999   -4652.0447   -4568.9174   -4652.0447            0    2052.5682    17.867454    23.288879    21.934518    9127.2375    2072.2024    2340.6912    1744.8109    276.96836    744.82581   -144.24844   -4295.6972 
41089000    44.856538   -4658.6238   -4581.7412   -4658.6238            0     1829.549    17.834061    23.450343    21.834435    9131.4846    1806.9279    1256.4884    2425.2307   -144.37999    -192.7696     308.0007    -4338.094 
41090000    47.738115   -4655.1135    -4573.292   -4655.1135            0    2133.5014    17.835078     23.27347    21.946221    9109.5288    1891.6894     2302.634    2206.1808    41.667606   -152.88336    265.55174   -4289.8496 
41091000    44.881375   -4657.1128   -4580.1876   -4657.1128            0    2259.7758     17.90245    23.215803    21.939672    9118.5609    2648.1008    2020.1137     2111.113   -95.027241    196.68926    9.6757402   -4279.6717 
41092000    50.080235   -4656.7326   -4570.8967   -4656.7326            0    2109.3285    17.766072    23.313656    22.010619    9116.6242    2504.8266     2260.177    1562.9818   -304.60663    354.84999    291.38411   -4290.4476 
41093000    46.512872   -4658.5161   -4578.7946   -4658.5161            0    2157.0416    17.780563    23.325822    21.982352    9117.0979    2619.2007    1758.3755    2093.5484    494.83294   -21.754094   -321.46104   -4291.9868 
41094000    48.725636   -4658.9388   -4575.4247   -4658.9388            0    2853.3359    17.872146     23.28046    21.843397     9088.421     2601.014    2675.2883    3283.7054   -38.725563    180.59676   -123.30202   -4197.2285 
41095000    45.987462   -4656.6692   -4577.8483   -4656.6692            0    2207.8688    17.864456    23.273876    21.925102    9115.9122    2417.4685    2084.0886    2122.0495   -482.84875   -68.539764    302.27194   -4284.3205 
41096000    49.675815   -4656.9439   -4571.8013   -4656.9439            0    1948.2836    17.922559    23.257848     21.89022    9124.7222    1845.0989    2208.1941    1791.5579   -98.221633    12.704965    401.11622    -4312.534 
41097000    47.712177   -4655.0757   -4573.2987   -4655.0757            0    2415.5969    17.843558    23.253962    21.947946     9106.936    2985.1798    1735.3413    2526.2696   -125.10883    -323.7286    158.45078   -4252.4704 
41098000    46.706449   -4661.2632   -4581.2099   -4661.2632            0    2185.5599    18.002113    23.218141    21.825765     9122.637    1620.7149    1785.0292    3150.9356     166.8076   -241.59448    124.20905   -4290.4336 
41099000    48.920933   -4656.7867   -4572.9379   -4656.7867            0      1956.26    17.931715    23.328925     21.80241    9120.5507    1855.6636    1621.2521    2391.8644   -384.31738   -249.37844   -127.23064   -4312.7281 
41100000    47.887021   -4659.8281   -4577.7514   -4659.8281            0     2084.107    17.829203    23.301752    21.919995    9106.6982     2346.024    2483.3828    1422.9144   -574.21721   -330.66198    153.73307   -4300.9572 
41101000    45.964273   -4659.3289   -4580.5477   -4659.3289            0    2543.1001    17.804271    23.356912    21.874432    9096.5438    2502.7907    2298.3675    2828.1421    89.624529     205.3989    564.16934   -4243.1705 
41102000    48.976088    -4656.144   -4572.2007    -4656.144            0    2241.6388    17.958597    23.304399    21.781891    9116.0329    1490.1487     2236.837    2997.9307   -198.00237    424.18024    316.40285   -4274.1793 
41103000    47.394264    -4653.158   -4571.9259    -4653.158            0    2011.0463    18.014561    23.105465    21.902409    9116.5453     1995.318    2555.5738     1482.247   -207.60924    27.214466    332.94458   -4304.5463 
41104000     48.45503   -4658.3993    -4575.349   -4658.3993            0    2027.3904    17.903585    23.190204    21.983047    9127.0923     2177.316     2275.913    1628.9421   -167.44323    78.886762    230.14676   -4305.4846 
41105000    50.441156    -4656.091   -4569.6366    -4656.091            0    2872.5538    17.935631    23.301352    21.757258    9092.8898    3148.3803     2874.309    2594.9721   -29.306763   -156.93602   -26.053337   -4188.7059 
41106000     45.69626   -4657.8249   -4579.5031   -4657.8249            0    2040.9165    17.839547    23.262569    21.991973    9126.5297    2532.9102    2258.8515    1330.9877    -54.64516   -334.28444    185.71082   -4307.8549 
41107000    46.716057   -4659.8914   -4579.8216   -4659.8914            0    1856.1089    17.861852    23.281647    21.962889     9133.341    1885.5245    1791.2689    1891.5333   -22.318911   -116.06948    15.415129   -4332.5872 
41108000     46.86758   -4655.8086   -4575.4791   -4655.8086            0    2432.6593     17.90825     23.28435    21.849723    9110.9407    2543.6536    2798.2535    1956.0707   -456.17716    81.559182   -220.46654   -4252.2426 
41109000    46.805897   -4656.9619   -4576.7382   -4656.9619            0    1773.3715    17.875166    23.227952    21.989049    9129.9299    1818.3893    2041.8037    1459.9215    -353.7372   -9.4181078    142.22666   -4340.6126 
41110000    47.346484   -4658.9976   -4577.8473   -4658.9976            0    2281.4876    17.929354    23.218099    21.892228     9113.417    2317.6407    2753.4296    1773.3925   -152.18107    212.83608    77.227623   -4274.6152 
41111000    50.413084   -4657.8753    -4571.469   -4657.8753            0    2642.4319    17.938474    23.131043    21.921619    9096.0607    2186.4932    3340.0168    2400.7856   -63.932554    61.241529   -78.210459   -4220.9326 
41112000    48.748906   -4657.7765   -4574.2226   -4657.7765            0    1235.0085    17.889348    23.339002    21.930748    9156.5153    706.29751    1808.0552    1190.6729   -303.70928   -91.273011   -712.72724   -4409.3015 
41113000    46.426853   -4655.4412   -4575.8672   -4655.4412            0    1967.4819    17.893167    23.241518    21.937904    9123.1928    2036.3938    2398.6523    1467.3997    51.089872   -159.85968    -205.6222    -4314.089 
41114000    49.258198   -4651.3157   -4566.8888   -4651.3157            0    2102.1468    17.903852    23.274786    21.886378    9120.2356    1641.4169    2396.4907     2268.533    6.9607978   -13.120728    164.40169   -4287.2838 
41115000    48.401004   -4654.1973   -4571.2397   -4654.1973            0    2165.7534     17.95248    23.262924    21.856866    9128.0212    1460.5468    2577.9106    2458.8028    141.39851    379.26731    453.32734   -4282.9284 
41116000    47.565199   -4658.7707   -4577.2456   -4658.7707            0    2679.4838    17.837558    23.208557    21.985499    9101.6445    3267.0872    2706.9703     2064.394   -63.248518    -190.2683    356.70421   -4221.5759 
41117000    46.448485   -4659.4229   -4579.8118   -4659.4229            0    2419.0779    17.876784    23.263104    21.890575     9103.622    2317.7468    2334.6635    2604.8233   -506.39125    10.784893    154.09718   -4258.6381 
41118000    46.479912   -4656.8768   -4577.2118   -4656.8768            0     2385.754    17.833341    23.226298     21.95877    9095.3773     2532.305    2752.3934    1872.5634   -596.91849   -84.734931   -219.26265   -4260.7493 
41119000    49.227294   -4655.7462   -4571.3723   -4655.7462            0    2012.2419    17.973271     23.16375    21.921797    9126.6655    2001.1014    2304.9861    1730.6383   -182.68897    71.679191   -225.24118   -4303.5368 
41120000    48.110072   -4659.8509   -4577.3919   -4659.8509            0    2395.5216    17.936438    23.234713       21.865    9112.1948     2520.653    2406.6601    2259.2518    91.279954   -173.91476   -153.08282   -4259.0462 
41121000    48.857601   -4661.5402      -4577.8   -4661.5402            0    1422.3053    18.044727    23.179746    21.893066    9157.2606    964.42721    1743.4825    1559.0063    277.07482   -182.26424    114.66368   -4387.8522 
41122000    50.031712   -4656.0539   -4570.3013   -4656.0539            0    2014.1074    17.845698    23.387412     21.86482    9125.6038    2615.7318    1660.4064    1766.1841    -178.6488   -111.25193    77.380869   -4302.2486 
41123000    45.332273   -4658.1536   -4580.4556   -4658.1536            0    2439.5927    17.766919    23.387973    21.889618    9095.8414    2595.7487    2098.5078    2624.5216    368.95802    232.69237   -49.547079   -4256.8351 
41124000    47.104993   -4652.2421   -4571.5057   -4652.2421            0    2042.7249    17.985901    23.190133      21.8864    9128.7178    1639.2272    2162.7864    2326.1612    304.92727   -355.57599   -121.62436   -4299.5516 
41125000    50.090821   -4654.4483   -4568.5943   -4654.4483            0     1939.954    17.996943    23.261244     21.80419    9127.9158    1362.4063    2464.5757    1992.8799   -331.54726   -10.313642    40.525365   -4310.3452 
41126000     47.71965   -4656.8669    -4575.077   -4656.8669            0     2390.074    17.922015    23.258956    21.856064    9110.6427    2333.0588    2765.8378    2071.3253    57.996897    95.039283    56.789086   -4257.5094 
41127000    46.864059   -4652.5662   -4572.2428   -4652.5662            0    2362.1698    17.807536    23.222471    22.025192    9108.1873    2917.1153    2123.4055    2045.9887   -159.36753    649.02776    73.633027   -4258.4674 
41128000    47.463393   -4654.9057   -4573.5551   -4654.9057            0    1955.2563    17.933617     23.21198    21.937487     9132.022    1797.6704    2106.3583    1961.7403    734.21562   -14.982409    154.56462   -4313.1518 
41129000    48.184612   -4651.4425   -4568.8558   -4651.4425            0    2383.3046    17.907563    23.288586    21.819075    9099.4665    1699.7297    2512.8751    2937.3089   -202.66717    40.936816    13.937196    -4252.576 
41130000    47.792638   -4661.5003   -4579.5853   -4661.5003            0    2090.7106    17.926568    23.283539    21.850375    9120.2145    1249.3302    2321.8878    2700.9137   -151.03893    307.58785    51.681938   -4301.5021 
41131000    48.692623   -4663.1155    -4579.658   -4663.1155            0    1846.5089    17.823423    23.445258    21.857046    9133.5075    2127.8796    1312.6828    2098.9643   -252.77121    60.719914   -6.6816233   -4333.6978 
41132000    47.283935   -4651.6933   -4570.6503   -4651.6933            0    2248.9667     17.77114    23.415448    21.911031    9117.6005    2447.4871    1674.9302    2624.4828    295.08572   -131.05514   -102.00864   -4271.6033 
41133000    47.024097   -4657.3416   -4576.7439   -4657.3416            0    2498.8507    17.902824    23.308554    21.821972    9106.0678    2844.1833    2174.3901    2477.9786    31.081088    39.838777    249.45673   -4244.8899 
41134000     46.65173   -4659.5826   -4579.6231   -4659.5826            0    1880.7389     17.87953    23.312522    21.886707    9122.7502    1689.3058    1961.9838    1990.9271   -418.41717   -86.721153    3.6532165   -4329.3984 
41135000    44.001097   -4656.8474    -4581.431   -4656.8474            0    2514.5341    17.891584    23.320623    21.792618    9092.8147    2482.2476    2686.4317     2374.923    309.26122   -144.86783     -31.7365   -4247.9802 
41136000    45.157046   -4651.6089   -4574.2112   -4651.6089            0    2044.1006    17.860517    23.352756    21.864193    9119.3864    2141.8827    2099.1926    1891.2267   -313.35274   -512.84014    47.288425   -4302.3522 
41137000    48.446826    -4662.661   -4579.6248    -4662.661            0    1799.5329    17.963053     23.19062    21.914046    9128.8293    1525.3026    2382.3268    1490.9694    -324.5469   -293.31227    201.67138   -4340.0447 
41138000    46.033594   -4653.6784   -4574.7784   -4653.6784            0    2131.3262    17.852253    23.326229    21.904169    9121.4599    2204.3712    2086.6972    2102.9101    -129.1176   -270.17686    264.28332   -4291.2542 
41139000    45.451924   -4661.8694   -4583.9664   -4661.8694            0    2246.5816    17.872018     23.26309    21.867351    9091.5343    2354.7141    2042.5008    2342.5298   -422.31204    214.47571   -284.77875   -4286.0906 
41140000    46.898437   -4656.5403    -4576.158   -4656.5403            0    2275.3566     17.85767    23.385463    21.833477    9117.8757    2323.9902    1959.2066    2542.8731   -512.50814   -120.31993    114.42697   -4273.5927 
41141000    48.652467   -4664.3848   -4580.9961   -4664.3848            0     2146.357    17.957061    23.367504    21.713499    9111.2382    1966.7872     1483.248    2989.0359    319.90801   -211.50896   -199.06358   -4295.7923 
41142000    47.417561   -4659.5219   -4578.2499   -4659.5219            0    2614.7945    17.902635    23.351269    21.756064     9095.106    2902.9436    1338.9576    3602.4824    7.2075032    66.920131   -301.63593   -4231.4162 
41143000    45.265099   -4654.9819   -4577.3991   -4654.9819            0    2105.6225    17.860848    23.292396     21.91058    9115.2817    2157.4499    1669.8501    2489.5676   -309.24022   -550.92315   -14.669571   -4297.4839 
41144000    43.623186   -4651.4225   -4576.6538   -4651.4225            0    1763.9927    17.976627    23.197797    21.919184    9140.6975    1638.2059    1586.2623    2067.5098   -213.49574    101.74116   -243.58053      -4341.5 
41145000    47.602229   -4652.1896    -4570.601   -4652.1896            0    2250.2324    17.875822    23.225729    21.952861    9114.3663    1976.0944    2189.2687    2585.3343   -226.44297   -435.60872    9.6593446   -4271.4918 
41146000    45.845608   -4654.1225   -4575.5447   -4654.1225            0    2828.3994    17.813692    23.342625    21.856966    9088.5269    2639.5403    2877.7343    2967.9237     214.9255    87.106275    341.46656   -4200.6493 
41147000    47.483126   -4662.0334   -4580.6489   -4662.0334            0    2341.0986    17.899054    23.138134    21.976931    9101.7615    2157.9084    2533.6205    2331.7668    -477.5365     186.8701    221.31378   -4269.8918 
41148000    45.550402   -4658.9299   -4580.8581   -4658.9299            0    2080.0441    17.905962    23.319988    21.820452    9111.4969    1544.2005    2423.3976    2272.5342   -291.87104    455.32027    76.750211    -4304.458 
41149000    50.026628   -4655.5529    -4569.809   -4655.5529            0    1994.1131    17.888544    23.292756    21.926174    9136.0555    2005.6069    2867.9149    1108.8175   -120.02281   -85.004406    139.86912   -4304.1134 
41150000    48.197767   -4659.5015   -4576.8922   -4659.5015            0    2476.9304     17.82772    23.195652    22.011024    9102.1215    2935.3896    2786.7888    1708.6129    135.11668     133.9723    276.27118   -4248.0918 
41151000    47.027919   -4651.9146   -4571.3103   -4651.9146            0    2305.1831    17.956575    23.294445    21.805658    9121.0551    2181.6022     1996.454     2737.493    260.88066   -357.88384    55.593471    -4264.672 
41152000    45.946122   -4660.4994   -4581.7494   -4660.4994            0    1811.2696    17.947524    23.269934    21.878786    9137.4059    1313.0973    2059.4152    2061.2965   -263.11186    -86.28255     -91.2014   -4340.3801 
41153000    46.933597   -4655.6702   -4575.2276   -4655.6702            0    1885.5144      17.8923    23.330118    21.894105    9139.2446    1218.1366    1728.3158    2710.0908   -175.28676   -148.49724   -299.77346    -4323.914 
41154000    46.290501   -4658.0931   -4578.7528   -4658.0931            0    2785.0788    17.805166    23.287614    21.916173    9087.3187    3083.6836     2605.774    2665.7786   -229.21451    87.522906   -241.97206   -4209.6485 
41155000    47.079985   -4656.2753   -4575.5818   -4656.2753            0    2443.7879    17.882837    23.282376    21.879247    9109.5322    2726.9157    2681.6081    1922.8399   -674.54661   -163.58599   -132.83035   -4250.9168 
41156000    43.332062   -4657.8561   -4583.5864   -4657.8561            0    2002.5259    18.021558    23.200681    21.825773    9125.6267    1776.0399    2339.7556    1891.7822    450.35709   -86.477648   -42.612108   -4317.0744 
41157000    45.405009   -4654.8414   -4577.0188   -4654.8414            0    2246.5093    17.961343    23.159901    21.904463    9111.8828    1759.5934    2720.8187    2259.1158   -417.51845     119.8945    368.69172   -4278.4859 
41158000    47.619165   -4658.6343   -4577.0167   -4658.6343            0    2455.5238    17.937857    23.213698    21.878351    9110.2325    2464.3258    2615.8907    2286.3547   -317.74488    174.04901    316.01286   -4250.7675 
41159000    47.167751   -4655.3902   -4574.5463   -4655.3902            0    1994.8861    17.866051    23.263369    21.954062     9124.647    2027.9654    2473.2567    1483.4363   -46.008741     159.5277    359.85171   -4309.0796 
41160000    47.649743   -4651.7433   -4570.0733   -4651.7433            0    2007.7465    17.874933    23.292799    21.922775    9127.7057    1761.8698    1929.9471    2331.4227     114.1201     11.98667   -93.837733   -4302.8056 
41161000    45.085286   -4657.8538   -4580.5792   -4657.8538            0    2374.9282    17.785552    23.331011     21.94536    9106.3346    2569.1331    2512.9943    2042.6572   -381.83076   -409.60369    164.30903   -4265.1731 
41162000    47.390654   -4659.6558   -4578.4298   -4659.6558            0    1953.8715    17.958001    23.352457    21.769392    9129.2875    1589.1292    1681.2046    2591.2807    133.14652   -2.1236008   -99.129765   -4318.2888 
41163000    47.368544   -4656.8044   -4575.6163   -4656.8044            0    2822.9934    17.875103    23.253188    21.880549    9094.7191    3193.6995    3141.0504    2134.2302    57.548885    293.93805   -407.68227   -4201.1825 
41164000     47.50841   -4658.2298    -4576.802   -4658.2298            0    2321.0949    17.802966    23.320065    21.912961    9097.5231    2551.7166    2537.4303    1874.1378   -222.93407    27.357142   -122.52318   -4268.8437 
41165000    47.079701   -4655.9966   -4575.3036   -4655.9966            0    1965.3044    17.929653    23.210212    21.908264    9117.1469    1483.0971    2089.2627    2323.5535   -199.72451   -51.634937    259.67121   -4313.9884 
41166000    49.071732   -4657.6877   -4573.5804   -4657.6877            0    1591.7791    17.939644    23.232672    21.911217    9132.2851    782.38836    1479.6321    2513.3169    74.436414   -9.7470402    516.63248   -4361.5793 
41167000    44.716099   -4656.1024   -4579.4605   -4656.1024            0    2103.7594    17.975933    23.169455     21.87327    9110.0542    1670.7365    2322.7731    2317.7685   -282.10618   -125.17054    72.425576   -4299.9534 
41168000    49.649141   -4653.4343   -4568.3374   -4653.4343            0    1815.5105    17.917514         23.2    21.970464    9132.8212    1418.5692    2203.2011    1824.7612    217.38698    126.15064    32.187465   -4326.5244 
41169000    47.839083   -4650.9217   -4568.9271   -4650.9217            0    2366.9601    17.786593    23.318229    21.962594    9109.0263    2195.8711    2559.7123    2345.2968   -225.76027   -138.04617   -25.776092   -4254.4864 
41170000    47.052956   -4656.2815   -4575.6344   -4656.2815            0    2065.4558    17.858439    23.304778    21.922516    9123.8655      2068.26    2601.7578    1526.3497   -44.081772   -300.30323    393.99406   -4300.8003 
41171000    47.592848   -4657.7533   -4576.1808   -4657.7533            0    2210.5437    17.891282    23.264151    21.900388    9115.4998    2492.7193     2040.921    2097.9909   -386.86362   -38.064814     249.2661   -4282.3107 
41172000    48.546188   -4659.2262   -4576.0197   -4659.2262            0    1932.3862    17.857468    23.351546    21.887102    9126.9102    1883.5325    1392.7748    2520.8514    378.15375    79.922867   -308.16545   -4318.8063 
41173000    46.920719   -4657.2592   -4576.8387   -4657.2592            0    2149.0034    17.912564    23.213622    21.948557    9126.5501    2418.0476    1544.0955    2484.8672   -121.99479   -183.24374   -25.105225   -4290.8034 
41174000    47.854818   -4659.2517   -4577.2302   -4659.2517            0    2469.7359    17.875895    23.245518    21.922166     9109.415    2910.2885     2223.255     2275.664   -325.75593    -452.0975    74.915439   -4249.1221 
41175000    49.177205   -4654.9405   -4570.6525   -4654.9405            0     2381.918    17.914641    23.196656    21.931694    9113.9298    2375.1169    2165.7648    2604.8724    176.57661   -71.616914     100.1086   -4254.0543 
41176000    46.093318   -4655.4897   -4576.4873   -4655.4897            0    2064.4115    17.846272    23.285925     21.92793    9112.5228    1911.3266     1620.668    2661.2398   -559.23905     123.3727   -260.28067   -4302.1337 
41177000    51.128946   -4658.4707   -4570.8374   -4658.4707            0    1725.0331    17.930807    23.176651     21.99843    9142.0208    1962.1883    1961.2162    1251.6948    7.3618398    26.820325   -93.124638   -4340.8439 
41178000    48.921857   -4656.7459   -4572.8955   -4656.7459            0    1677.0363    17.911147      23.2335    21.985743     9149.117    2064.7989    2257.6422    708.66782   -295.17224   -228.61246    366.23733   -4349.1277 
41179000    48.664905   -4660.6552   -4577.2453   -4660.6552            0     2423.998    17.969606    23.221083    21.819515    9104.7099    2000.2229    3299.9774    1971.7936   -135.54995    417.92798   -130.71957   -4255.3799 
41180000    47.123087   -4656.9852   -4576.2178   -4656.9852            0    2351.1799    17.900987    23.230646    21.904555    9109.0416    2309.9536    2981.8886    1761.6973    300.49098    -82.55857   -110.43601   -4263.8729 
41181000    47.309629   -4656.9485   -4575.8614   -4656.9485            0    1926.5736    17.936083    23.217905    21.935131     9134.628    2382.5307    1842.4095    1554.7805     120.9983   -89.610885    173.41469   -4319.2049 
41182000    48.517794   -4652.8697   -4569.7119   -4652.8697            0    2250.5148     17.95499    23.214941    21.895785    9126.6896    2260.8569    2860.3681    1630.3196   -75.173809    -97.48181    184.53576   -4270.1607 
41183000    45.412794   -4656.1664   -4578.3304   -4656.1664            0    2477.7168    17.902485     23.23407    21.906833    9112.0944    2609.7187     2079.187    2744.2447   -569.93969    127.47861   -243.58795   -4249.0652 
41184000     46.73326   -4660.0887   -4579.9895   -4660.0887            0    2164.7562    18.034305    23.195544    21.813957    9125.1168    1828.5481    2043.5662    2622.1542    53.271509    33.977615    175.54014   -4291.9028 
41185000    48.875591   -4655.9365   -4572.1654   -4655.9365            0    2136.5807    17.899384    23.354274    21.827918    9124.6613    2102.8509    2238.4302    2068.4611   -75.399923   -208.02748    108.37854   -4287.8424 
41186000    49.670578   -4657.2008   -4572.0671   -4657.2008            0    2233.2793    17.856456    23.346715    21.858746    9112.6834    2207.6706    1952.6327    2539.5345   -384.53387   -69.213265    178.35961   -4275.2662 
41187000     46.32939   -4656.4574   -4577.0504   -4656.4574            0    2655.9007    17.869527     23.24763    21.886242    9092.0734    2750.4278    2344.0671    2873.2071   -41.155137    52.468573    229.78385   -4224.8818 
41188000    49.711296   -4653.6836   -4568.4801   -4653.6836            0    2131.4735    17.944111    23.156233    21.958782    9124.2697    2033.6018    1987.0749    2373.7437     108.2937   -181.68764    15.635809   -4284.8489 
41189000    45.246363   -4656.1538    -4578.603   -4656.1538            0     2174.703    17.876855    23.340817    21.828634    9108.2246     2368.618    1852.9487    2302.5424    121.91927   -309.20038    259.27748   -4289.7283 
41190000     50.36876   -4655.2597   -4568.9294   -4655.2597            0    1590.6509    18.017985    23.162272    21.902637     9140.791    1486.9888    1382.4951    1902.4688   -523.63965    35.381388   -133.09731   -4356.8812 
41191000    45.174476   -4649.6606   -4572.2331   -4649.6606            0    2235.4495    17.844341    23.164932    22.066298    9121.3898    2118.4805    2403.9231    2183.9447    191.48282    203.57212   -394.34701     -4274.86 
41192000    47.750046   -4656.7388   -4574.8969   -4656.7388            0    2188.1045    17.889424    23.283226    21.905052    9123.9687    2578.2653    2448.4947    1537.5536   -3.2281565   -21.704706    44.983678   -4283.7395 
41193000    46.936241   -4653.5973   -4573.1501   -4653.5973            0    3031.7043    17.862803    23.328677    21.817191    9091.5632    3584.6457    2562.2181    2948.2491   -30.924761   -96.772172   -4.9344834   -4171.1731 
41194000    48.077611   -4651.5614   -4569.1581   -4651.5614            0    1631.6335    17.883822    23.377964    21.882178    9148.6616    1567.5772    1478.7395    1848.5839    572.12943   -13.393975   -205.62209   -4351.4592 
41195000    46.532857   -4656.6514   -4576.8957   -4656.6514            0    1523.2215    17.900722    23.327468    21.894193     9142.545    1373.7571    1614.8367    1581.0706   -238.51209    22.701967    123.57714   -4373.7975 
41196000    47.009586   -4657.0308   -4576.4579   -4657.0308            0    1920.7611    17.852571    23.328347    21.948009    9140.7087     2276.967    1590.2461    1895.0703    389.31827   -115.10153    6.6604554   -4320.4054 
41197000    49.219629   -4657.7594   -4573.3986   -4657.7594            0    2271.1039    17.954868    23.167497    21.910143    9113.9478    1700.8765    2435.5411    2676.8941   -128.69317    423.59717    187.70765    -4271.529 
41198000    49.183061   -4657.5381     -4573.24   -4657.5381            0    2354.5025    17.974898    23.204172    21.837232    9108.1483    1505.9574    3011.4535    2546.0966   -158.06561    347.09986    250.48676   -4260.4844 
41199000    50.709283   -4657.7543   -4570.8403   -4657.7543            0    2382.6011    17.890007    23.242594    21.924312    9116.3516    2490.8149    2551.0319    2105.9566   -113.43092    65.472806   -188.01648   -4254.0672 
41200000    47.173517   -4654.1438     -4573.29   -4654.1438            0    2861.1921     17.86769     23.30533     21.84451    9096.3251    2902.2281    2830.9205    2850.4276   -382.25656    79.001798    429.32951   -4193.7226 
41201000    46.475248   -4654.2454   -4574.5885   -4654.2454            0    1886.1858    17.928988    23.373769    21.797733    9134.7328    1376.2849    1546.3282    2735.9443   -370.50549    270.74776    189.11409   -4323.3094 
41202000    49.829994   -4659.9208   -4574.5139   -4659.9208            0    1850.1795    17.935532    23.364143    21.787517     9130.023    2424.5476    1326.9078    1799.0832    46.239093   -16.701568    -59.58934   -4328.1587 
41203000    46.302048   -4658.0059   -4578.6458   -4658.0059            0    2707.7382     17.91778    23.294814     21.82064    9107.7466    2916.7729    2284.3064    2922.1354   -215.11242   -87.528821     588.9438   -4218.9846 
41204000    45.741063   -4655.0926    -4576.694   -4655.0926            0    2315.9114    17.779724    23.321916    21.963591    9107.3615    2592.1641    2620.3264    1735.2438   -282.46868    175.14659    147.22193   -4269.0911 
41205000    44.765934   -4657.4955   -4580.7682   -4657.4955            0    1985.7207    17.891163    23.370698    21.832317    9128.7241    1587.2412    2152.4428    2217.4783   -427.94178   -363.77306    10.461394   -4316.4031 
41206000    46.474076   -4659.6661   -4580.0111   -4659.6661            0    2086.7179    17.801377    23.264631    22.036786    9126.3689    2353.3556    2019.0974    1887.7006    276.30564    47.095982   -17.959909   -4302.2716 
41207000    47.141404   -4655.0699   -4574.2712   -4655.0699            0    2219.8622    17.934939    23.153378      21.9644    9120.8143    1513.2996    2208.1661    2938.1209   -291.15252   -92.822184    483.55609   -4278.9901 
41208000    47.660668   -4653.3901   -4571.7013   -4653.3901            0    1542.0552    17.826392    23.338908    21.989161    9148.5579    2337.9125    1423.6158     864.6373   -86.349767   -310.41132    303.78013   -4365.9567 
41209000    46.472134   -4655.3446   -4575.6929   -4655.3446            0    2217.1456    17.817923    23.292872    21.970671    9118.5003    2299.2016    2783.8486    1568.3867   -71.393281    211.79797   -108.04737   -4280.8481 
41210000    47.911906   -4651.7436   -4569.6243   -4651.7436            0    2152.0814    17.902643    23.205154    21.955264    9120.9541    1434.7215    2829.4356    2192.0871   -257.85048   -49.147129   -201.42962   -4283.3549 
41211000    48.107985   -4659.9966   -4577.5412   -4659.9966            0    1873.1911     17.89431    23.252992    21.951808    9134.0649    1366.6776    2769.3513    1483.5443    33.935311   -17.582689    187.40384   -4328.0116 
41212000    47.863391   -4656.1122    -4574.076   -4656.1122            0    2009.8312    17.842363    23.335903    21.931513    9131.5724    2009.9312    2373.2481    1646.3143   -143.12711    -206.7348    568.52932   -4306.4175 
41213000    49.321129   -4656.4293   -4571.8946   -4656.4293            0    2013.2167    17.929461     23.18962    21.957758     9129.539    1592.8691    2611.6937    1835.0874   -13.405283   -211.93338    427.34169    -4303.845 
41214000    47.067621   -4658.0033    -4577.331   -4658.0033            0    1892.6976    17.892706    23.201783     22.00404    9134.8161    1654.4999    2074.8667    1948.7262   -212.26243    -35.87846    71.598876   -4325.1822 
41215000    43.800906    -4660.864   -4585.7908    -4660.864            0    1940.6726    18.015488     23.22043    21.846275     9138.895    1433.6121    1544.8318    2843.5737   -306.77249   -109.88303   -94.391764   -4327.1352 
41216000     50.08399   -4662.7032   -4576.8609   -4662.7032            0    1953.2353    17.936646     23.32704    21.800178    9121.3875     2290.803    1305.2396    2263.6632   -385.97901   -352.80501   -117.17503   -4317.0297 
41217000    47.277759   -4663.2669   -4582.2345   -4663.2669            0    1357.2897    17.914652    23.271311    21.960607    9155.3209    2170.3841     1381.088    520.39718    406.58495    176.03718    365.96563   -4401.0078 
41218000    50.240427   -4661.2966   -4575.1862   -4661.2966            0    2390.6112    17.883078    23.256218    21.904892    9110.0864    2282.2998    2421.4742    2468.0597   -55.270648   -126.47838    413.02075   -4257.5666 
41219000    49.017047   -4655.3907   -4571.3772   -4655.3907            0    2664.8936     17.82611    23.378602    21.834703    9099.6024    2870.2105    1788.6251    3335.8451    454.07001   -79.067591    341.96423   -4217.7235 
41220000    47.409377   -4658.7186   -4577.4605   -4658.7186            0    2676.6191    17.812193    23.261741    21.938939    9090.2379    2684.5779     2527.289    2817.9904   -88.188379    81.181014   -282.17869   -4222.6163 
41221000    49.972991   -4661.8283   -4576.1763   -4661.8283            0    1953.1872    17.951788    23.232612    21.894174    9131.3356    1683.3273    1908.6756    2267.5588    89.365265   -476.16793   -227.80949   -4316.0681 
41222000    48.469737      -4662.6   -4579.5246      -4662.6            0    2112.7579    17.866978    23.377187    21.827231     9116.791    2294.7626    1767.8819    2275.6294   -569.22556   -145.20066    434.13267   -4298.6143 
41223000    46.149675   -4655.2843   -4576.1854   -4655.2843            0    2420.8938    17.906146    23.214714    21.907182      9106.51    2214.9489    2973.6009    2074.1315     431.9229    124.32081    204.34946   -4254.6686 
41224000    47.718063    -4656.511   -4574.7239    -4656.511            0    2435.2616    17.986235    23.086987    21.915786    9100.4855    2069.3283     3090.827    2145.6293   -56.325333    52.951993    372.02871   -4251.5129 
41225000    47.847357   -4660.2039   -4578.1951   -4660.2039            0    1805.5637    17.862304    23.307255    21.916884    9124.4649     2352.764    1941.2217    1122.7054   -403.17651   -277.17843   -519.65711    -4337.927 
41226000    48.182035   -4657.5888   -4575.0064   -4657.5888            0    2054.7525    17.842914    23.312727    21.925463    9120.2686    1649.4585    1731.8238    2782.9752   -119.35438    -108.1949    241.56065   -4301.7042 
41227000    51.595344   -4650.5518   -4562.1192   -4650.5518            0    2734.2463    17.929336    23.311014    21.757591    9093.6071    2340.9346    2619.6653     3242.139   -137.89836   -12.862155    25.387747   -4199.5009 
41228000    50.354139   -4655.8233   -4569.5181   -4655.8233            0    1968.7443    18.008302    23.229176    21.803446    9120.7741      1506.49    1836.9751    2562.7679   -347.00824   0.10339273    513.30355   -4307.6413 
41229000    48.114574   -4655.6233   -4573.1566   -4655.6233            0    1652.3129    17.979331    23.268148     21.85635    9143.5106    1510.2249    1914.8671    1531.8469    243.20592   -67.466149   -194.23256   -4352.8227 
41230000    50.116325   -4655.4161   -4569.5184   -4655.4161            0    2163.8047    18.004216    23.208008    21.803338      9110.35    1344.2219     2717.551    2429.6413   -208.95425   -395.76042    24.372193   -4282.0242 
41231000    48.690786   -4654.4181   -4570.9638   -4654.4181            0    2955.4217    17.863632    23.290323     21.81924    9077.8896     2453.891    2849.1358    3563.2383    -398.5114   -179.55348    33.619011   -4179.6905 
41232000     45.35175   -4651.6283    -4573.897   -4651.6283            0     2016.427    17.977396    23.230314    21.841718    9121.5503    1321.2587    2044.9953     2683.027   -238.48676   -169.15628    214.04782   -4305.6548 
41233000    45.981752   -4657.1781   -4578.3669   -4657.1781            0    2368.4347    17.897197    23.225338    21.906485    9105.8344    2565.2178    2466.0979    2073.9882    55.644579   -331.71055   -102.99992   -4263.8406 
41234000     49.88206   -4655.5068   -4570.0106   -4655.5068            0     2181.203    17.877754    23.281966    21.910644    9119.8512    2228.3289    1847.2951    2467.9851   -571.38628   -25.429723   -111.25107   -4279.9026 
41235000    47.003618   -4660.8248   -4580.2622   -4660.8248            0    1827.5648    17.887557    23.413206    21.791456     9126.372    1732.3385    1279.1253    2471.2307    4.6581906    427.02947   -3.4880055   -4337.0156 
41236000    47.090622    -4657.597   -4576.8853    -4657.597            0    1937.8105    17.904339    23.259679    21.893439    9117.5047    1913.2564    2426.7885    1473.3866   -223.62677   -126.14374    533.42415   -4319.2157 
41237000    47.401692   -4657.9639   -4576.7191   -4657.9639            0    1425.4922    17.912299    23.255886    21.936723    9138.1011    1764.3911    1586.9005    925.18509   -311.56309   -113.56765   -218.19583   -4386.7439 
41238000     48.57668   -4656.3375   -4573.0787   -4656.3375            0    2685.6529    17.896037     23.30124    21.781343    9082.8168     2287.827    3012.5329    2756.5987    387.29685    3.9029708    148.43769   -4217.3276 
41239000    47.283619   -4654.9786   -4573.9361   -4654.9786            0    2274.2581     17.91421    23.312815     21.83652    9119.6003    2526.8033     1796.405    2499.5659   -194.57626     52.11572   -107.02486   -4271.4597 
41240000    46.890308   -4654.9829   -4574.6145   -4654.9829            0    2086.8483    17.923314    23.242366    21.879863    9114.7183    1999.3681    1724.0135    2537.1631   -239.09626  -0.39657208     49.29343   -4297.2123 
41241000    47.314307   -4661.1715   -4580.0764   -4661.1715            0    2133.5533    17.859088    23.370294    21.870381    9128.0874    2468.8029    1494.9338    2436.9233   -207.99788    452.62655   -135.09678   -4296.0497 
41242000    45.258827   -4651.9062   -4574.3341   -4651.9062            0    2898.3966    17.878972    23.319105    21.820155    9097.2945    2664.6921    2635.6525    3394.8454     405.5037   -137.64144   -217.20078   -4189.7902 
41243000    48.425182   -4653.3269   -4570.3277   -4653.3269            0    2520.4897    17.919426    23.277369    21.852575    9115.0824    2441.6935    1998.3571    3121.4185    153.81708    -254.7722   -266.28962   -4235.2686 
41244000    49.107856   -4656.3278   -4572.1586   -4656.3278            0    2254.3126    17.832352    23.322807    21.899291    9107.9263    2718.7662    2295.4672    1748.7046    112.12338   -139.97117   -22.003751   -4272.7188 
41245000    47.726093    -4651.804   -4570.0031    -4651.804            0    2095.2891    17.825928    23.445413     21.84001     9127.732    2998.0864    1255.3768    2032.4039    329.42853    -4.697443    284.60232   -4291.0812 
41246000    48.898084   -4658.2337    -4574.424   -4658.2337            0    2724.4503    17.855457    23.272372    21.882257    9092.9275    2772.4788    2945.1797    2455.6925    421.53692   -308.60987      56.9819   -4213.1319 
41247000    45.568566   -4653.1948   -4575.0918   -4653.1948            0    1993.1164    17.946052    23.142753    21.985916    9131.2139     2222.538      2514.83    1241.9812   -223.55703   -188.25954   -513.69287   -4309.6697 
41248000    51.484134   -4657.2368   -4568.9947   -4657.2368            0    2137.2049    17.894946    23.197523    21.949246    9111.5364    2377.4335    2420.3006    1613.8805    -136.8195   -517.06097   -84.794003   -4284.9978 
41249000    45.537151    -4657.967   -4579.9178    -4657.967            0    2083.6763    17.904978    23.356954     21.80545    9119.1645    2107.8712     1864.828    2278.3298   -147.82864   -329.69944   -140.61394   -4302.8021 
41250000    50.936168   -4654.6183   -4567.3155   -4654.6183            0    1982.8765    17.844943    23.471865    21.811887    9135.9978    1531.4056     1580.065    2837.1589    557.11291     -175.198    643.38352   -4303.1187 
Loop time of 366.257 on 64 procs for 250000 steps with 864 atoms

Performance: 117.950 ns/day, 0.203 hours/ns, 682.581 timesteps/s
195.8% CPU use with 32 MPI tasks x 2 OpenMP threads

MPI task timing breakdown:
Section |  min time  |  avg time  |  max time  |%varavg| %total
---------------------------------------------------------------
Pair    | 18.3       | 25.27      | 34.626     | 104.6 |  6.90
Bond    | 0.97356    | 1.2723     | 2.2943     |  21.6 |  0.35
Kspace  | 185.05     | 195.03     | 204.25     |  41.1 | 53.25
Neigh   | 0.066588   | 0.072274   | 0.078571   |   1.4 |  0.02
Comm    | 55.307     | 60.9       | 64.793     |  27.9 | 16.63
Output  | 0.52363    | 0.52394    | 0.52578    |   0.0 |  0.14
Modify  | 66.73      | 69.143     | 72.752     |  19.3 | 18.88
Other   |            | 14.04      |            |       |  3.83

Nlocal:        27.0000 ave          39 max          19 min
Histogram: 8 3 5 1 1 3 2 3 4 2
Nghost:        2152.50 ave        2249 max        2053 min
Histogram: 14 2 0 0 0 0 0 0 0 16
Neighs:        6658.38 ave        9659 max        4565 min
Histogram: 7 3 5 2 1 4 1 4 3 2

Total # of neighbors = 213068
Ave neighs/atom = 246.60648
Ave special neighs/atom = 2.0000000
Neighbor list builds = 253
Dangerous builds = 0

unfix		3
unfix		2
unfix		1

write_data	data.final.${pid} nocoeff
write_data	data.final.0 nocoeff
System init for write_data ...
PPPM initialization ...
  extracting TIP4P info from pair style
  using 12-bit tables for long-range coulomb (../kspace.cpp:340)
  G vector (1/distance) = 0.37209939
  grid = 24 27 25
  stencil order = 5
  estimated absolute RMS force accuracy = 0.0031151569
  estimated relative force accuracy = 9.3812025e-06
  using double precision FFTW3
  3d grid and FFT values/proc = 4410 672
Last active /omp style is kspace_style pppm/tip4p/omp

write_restart   restart.lmp.${pid}
write_restart   restart.lmp.0
System init for write_restart ...
PPPM initialization ...
  extracting TIP4P info from pair style
  using 12-bit tables for long-range coulomb (../kspace.cpp:340)
  G vector (1/distance) = 0.37209939
  grid = 24 27 25
  stencil order = 5
  estimated absolute RMS force accuracy = 0.0031151569
  estimated relative force accuracy = 9.3812025e-06
  using double precision FFTW3
  3d grid and FFT values/proc = 4410 672
Last active /omp style is kspace_style pppm/tip4p/omp
Total wall time: 0:06:06
