#include		in.partitions
include		in.temp
variable        temperature equal 187.60
variable	tempDamp equal 100.0
include		in.pressure
variable        pressure equal 2085.6
variable        pressureDamp equal 1000.0 # This is 1 ps
include		in.seed
variable        seed equal 745823

units		real
atom_style	full
#include		in.box
read_restart	restart.lmp.${pid}
read_restart	restart.lmp.1
Reading restart file ...
  restart file = 30 Jul 2021, LAMMPS = 30 Jul 2021
  restoring atom style full from restart
  orthogonal box = (0.022225815 0.19306934 0.10297052) to (18.185347 23.436108 22.110225)
  2 by 4 by 4 MPI processor grid
  restoring pair style lj/cut/tip4p/long/omp from restart
  restoring bond style harmonic/omp from restart
  restoring angle style harmonic/omp from restart
  864 atoms
  576 bonds
  288 angles
Finding 1-2 1-3 1-4 neighbors ...
  special bond factors lj:    0        0        0       
  special bond factors coul:  0        0        0       
     2 = max # of 1-2 neighbors
     1 = max # of 1-3 neighbors
     1 = max # of 1-4 neighbors
     2 = max # of special neighbors
  special bonds CPU = 0.002 seconds
  read_restart CPU = 0.007 seconds
include 	in.setup
variable	out_freq equal 1000
variable	out_freq2 equal 10000
variable	out_freq3 equal 1000

timestep	2.0

neigh_modify    delay 7 every 1

include		in.tip4p
# This is TIP4P/Ice

# create groups ###
group ox type 2
288 atoms in group ox
group hy type 1
576 atoms in group hy

# set charges - beside manually ###
set group ox charge -1.1794
Setting atom values ...
  288 settings made for charge
set group hy charge 0.5897
Setting atom values ...
  576 settings made for charge

# ### TIP3P Potential Parameters ###
pair_style lj/cut/tip4p/long/omp 2 1 1 1 0.1577 8.5
pair_coeff 1 1*2 0.000 0.000
pair_coeff 2 2 0.21084 3.1668
bond_style  harmonic
bond_coeff  1 450 0.9572
angle_style harmonic
angle_coeff 1 55 104.52
kspace_style pppm/tip4p/omp 1.0e-5
pair_modify tail yes

thermo          ${out_freq}
thermo          1000
thermo_style    custom step temp pe etotal epair emol press lx ly lz vol pxx pyy pzz pxy pxz pyz enthalpy

restart 	${out_freq3} restart.lmp.${pid} restart2.lmp.${pid}
restart 	1000 restart.lmp.${pid} restart2.lmp.${pid}
restart 	1000 restart.lmp.1 restart2.lmp.${pid}
restart 	1000 restart.lmp.1 restart2.lmp.1


include         in.dump
dump            myDump all atom ${out_freq2} dump.water.${pid}
dump            myDump all atom 10000 dump.water.${pid}
dump            myDump all atom 10000 dump.water.1
dump            myDump2 all dcd ${out_freq2} dump.dcd
dump            myDump2 all dcd 10000 dump.dcd
dump_modify     myDump append yes
dump_modify     myDump2 append yes


variable natoms 	equal  "count(all)"                        # NUMBER ATOMS
variable H      	equal  "enthalpy/v_natoms"                 # ENTHALPY-per-atom
variable Vol      	equal  "vol/v_natoms"                 # volume-per-atom
fix AVG all 		ave/time ${out_freq} 1 ${out_freq} v_Vol v_H file vol_enthalpy.dat
fix AVG all 		ave/time 1000 1 ${out_freq} v_Vol v_H file vol_enthalpy.dat
fix AVG all 		ave/time 1000 1 1000 v_Vol v_H file vol_enthalpy.dat


timer           timeout 23:50:00 every 1000
New timer settings: style=normal  mode=nosync  timeout=23:50:00

fix 		1 all shake 1e-6 200 0 b 1 a 1
       0 = # of size 2 clusters
       0 = # of size 3 clusters
       0 = # of size 4 clusters
     288 = # of frozen angles
  find clusters CPU = 0.001 seconds
fix             2 all nph aniso ${pressure} ${pressure} ${pressureDamp}
fix             2 all nph aniso 2085.6 ${pressure} ${pressureDamp}
fix             2 all nph aniso 2085.6 2085.6 ${pressureDamp}
fix             2 all nph aniso 2085.6 2085.6 1000
fix             3 all temp/csvr ${temperature} ${temperature} ${tempDamp} ${seed}
fix             3 all temp/csvr 187.6 ${temperature} ${tempDamp} ${seed}
fix             3 all temp/csvr 187.6 187.6 ${tempDamp} ${seed}
fix             3 all temp/csvr 187.6 187.6 100 ${seed}
fix             3 all temp/csvr 187.6 187.6 100 745823


run             250000
PPPM initialization ...
  extracting TIP4P info from pair style
  using 12-bit tables for long-range coulomb (../kspace.cpp:340)
  G vector (1/distance) = 0.37176504
  grid = 24 27 25
  stencil order = 5
  estimated absolute RMS force accuracy = 0.0031453012
  estimated relative force accuracy = 9.4719812e-06
  using double precision FFTW3
  3d grid and FFT values/proc = 4410 672
Last active /omp style is kspace_style pppm/tip4p/omp
Neighbor list info ...
  update every 1 steps, delay 7 steps, check yes
  max neighbors/atom: 2000, page size: 100000
  master list distance cutoff = 10.8154
  ghost atom cutoff = 10.8154
  binsize = 5.4077, bins = 4 5 5
  1 neighbor lists, perpetual/occasional/extra = 1 0 0
  (1) pair lj/cut/tip4p/long/omp, perpetual
      attributes: half, newton on, omp
      pair build: half/bin/newton/omp
      stencil: half/bin/3d
      bin: standard
Per MPI rank memory allocation (min/avg/max) = 10.19 | 10.21 | 10.23 Mbytes
Step Temp PotEng TotEng E_pair E_mol Press Lx Ly Lz Volume Pxx Pyy Pzz Pxy Pxz Pyz Enthalpy 
10750000    194.31133   -4377.2613   -4044.2183   -4377.2613            0    1534.9405    18.163121    23.243039    22.007255    9290.7175     1201.842    1573.2862    1829.6933     287.0891    118.09359    529.37665   -3836.2407 
10751000    187.22476   -4385.5868     -4064.69   -4385.5868            0    1195.9686     17.79449    23.697734    22.068777    9306.1625    2353.8301    238.18657     995.8892     282.6655   -497.61292    -218.5863   -3902.3722 
10752000    192.36689   -4390.4151   -4060.7048   -4390.4151            0    3394.8279    17.973326    23.262914    21.959518    9181.5368    2867.7619    3877.9747     3438.747    37.420004    68.491648   -723.94722   -3606.1262 
10753000    185.31508   -4393.4011   -4075.7774   -4393.4011            0    959.29274    18.117074    23.374675    22.064667     9343.961    1554.6246    1269.0653    54.188293    1050.2635   -33.513197    -202.2046   -3945.0526 
10754000     178.6506   -4400.5829   -4094.3819   -4400.5829            0    2066.9861    17.828129    23.618312     21.98536    9257.3825    3981.5462    2076.3306    143.08139   -258.49653    387.83148    851.11006   -3815.3193 
10755000    193.79652   -4388.9575   -4056.7969   -4388.9575            0    1939.1905    18.196603    23.099842     22.02726    9258.9086    1150.1282    4175.6033    491.84001   -771.12188   -273.40144   -465.16105   -3794.9447 
10756000    183.63203   -4366.1301   -4051.3911   -4366.1301            0    1793.4904    17.949846    23.356228    22.096678    9263.8262    2292.3495    2231.4867    856.63507    181.93178    117.56012    172.00747   -3809.0844 
10757000    195.05609    -4400.669   -4066.3496    -4400.669            0    2836.2229    17.928311    23.427291    21.926199    9209.2613    2667.8837    2044.4898    3796.2953     223.0151   -454.45675   -108.04366   -3685.4232 
10758000    197.13761   -4392.6762   -4054.7891   -4392.6762            0    872.48582     18.12785    23.283766     22.09654    9326.6095    822.03254    866.13348    929.29145   -82.772058   -34.474968   -137.60951   -3936.1144 
10759000    196.77446   -4381.8803   -4044.6156   -4381.8803            0     2694.557     17.93132    23.375323    21.961146    9205.0236    3319.8896    3534.3965    1229.3849    504.00997     631.1546    901.18791   -3682.8826 
10760000    183.47152   -4372.1388   -4057.6749   -4372.1388            0    3573.6256    17.952802    23.248878    21.925094    9151.1507     3399.018    4696.2467    2625.6121    648.29647    -95.56215    955.65327   -3580.7383 
10761000    183.24823    -4385.094   -4071.0128    -4385.094            0    2620.3536    18.002795    23.455584    21.833662    9219.6149    2554.6662    919.44498    4386.9496   -580.74635    774.37992   -311.02471   -3718.6836 
10762000    207.67793     -4391.71   -4035.7571     -4391.71            0    1505.0642    17.835743    23.468243    22.138416    9266.5555     2934.424    1751.1213   -170.35275   -1274.2614    388.02223   -270.86034   -3832.3579 
10763000    191.84678   -4372.3725   -4043.5536   -4372.3725            0    2287.5581    18.116008    23.324963    21.820052    9220.1768     1262.248    2430.7259    3169.7003     161.5356    417.79947    216.27449    -3735.953 
10764000    184.88483   -4395.5157   -4078.6294   -4395.5157            0     2582.898    17.822911    23.309111    22.133644    9195.1172    2179.9508    3424.3621    2144.3811   -84.734408    209.84164    99.763651   -3732.2593 
10765000    190.39335   -4392.2316   -4065.9039   -4392.2316            0    3226.7558     18.12731    23.081646    21.968073    9191.6208    3440.8861    3852.9071    2386.4741     599.1847    -539.6017    394.22605   -3633.3561 
10766000    189.82272   -4388.5622   -4063.2125   -4388.5622            0    2786.4439    17.872555    23.337063    22.074161    9206.9766    4295.1257    1619.7777    2444.4284    493.24482   -352.10029    213.14044   -3689.0647 
10767000    185.46972   -4380.3149   -4062.4262   -4380.3149            0    1683.5149    17.961183    23.468225    22.029073    9285.6309    1789.7777    2649.1659    611.60117   -230.68803   -327.90564    930.00392   -3834.4422 
10768000     180.5662   -4400.0505   -4090.5662   -4400.0505            0    2208.4815    18.116489    23.157775    22.062874    9256.2044    1850.4334    2427.2632     2347.748   -311.21332    398.42875    296.19895   -3792.4383 
10769000     191.4313    -4396.207   -4068.1003    -4396.207            0    2220.0013     17.84299    23.616517    21.922945    9238.0936    2145.2148    1669.4456    2845.3436    684.70247    775.89062   -202.61912   -3769.0037 
10770000    177.06596   -4384.8643   -4081.3793   -4384.8643            0    2044.9627     18.13387    23.235005    22.017756    9276.9733    2681.2951    2428.2789    1025.3141    -646.1873    352.27997   -154.29014   -3804.7058 
10771000    188.08868   -4409.1862   -4086.8086   -4409.1862            0    1403.6805    18.081321    23.405337    22.018317    9318.1388   -173.91593    2610.1557    1774.8017    86.140731    799.81732   -171.36445   -3896.0547 
10772000    195.16684   -4385.8311   -4051.3218   -4385.8311            0    1118.2811    17.802304    23.774619    22.047786    9331.5711    1774.7789   -792.52462     2372.589   -1026.1101   -85.619386    178.75774   -3899.1334 
10773000    181.62625   -4399.8029   -4088.5017   -4399.8029            0    2116.3273    18.105367    23.258446    22.035659    9279.2756    2702.5822    3223.5334    422.86643   -232.62036    73.373719    502.30374   -3802.1019 
10774000    196.49741   -4362.3161   -4025.5263   -4362.3161            0    2584.1885     17.92843    23.668773     21.83513    9265.6049    2266.0592    2030.4457    3456.0605    564.11281   -15.882577    318.06175   -3676.3266 
10775000     176.8278   -4364.1972   -4061.1205   -4364.1972            0    1571.2033    17.984109    23.426017      22.0778    9301.2897    1709.1313      2924.95    79.528462   -232.16876   -579.77184   0.55859192   -3847.9871 
10776000    200.47658   -4387.0852   -4043.4752   -4387.0852            0     1243.855    18.157014    23.307179    22.038828    9326.5848    1458.5682    1626.1597     646.8373   -271.17345   -35.221556    220.52375   -3874.2877 
10777000    191.20414   -4379.7097   -4051.9924   -4379.7097            0     2471.161    17.885476    23.530084    22.010844    9263.1922    2276.7589    2253.3228    2883.4014   -522.58307    1.9611514   -324.07464    -3718.153 
10778000    184.06803     -4396.43   -4080.9437     -4396.43            0     1558.431    18.183802    23.098508     22.14472    9301.1964    612.39233    2822.3825    1240.5181   -9.1570698   -40.137899     -385.214    -3869.545 
10779000    182.66727   -4408.1882   -4095.1027   -4408.1882            0    1639.5571    17.956475    23.563731    21.954204     9289.297    1030.4567    1252.9702    2635.2445   -60.059093   -214.68127     446.5091    -3872.984 
10780000    195.58901   -4384.3445   -4049.1116   -4384.3445            0    2778.9672    17.924769    23.385811    22.049319    9242.7495    3508.8473    2707.0286    2121.0258    894.43802   -126.84769    316.53679   -3674.5179 
10781000    196.31545   -4375.6461   -4039.1682   -4375.6461            0    2536.3385    18.058417    23.239636    22.019929    9241.1261    2844.8877    2383.6778      2380.45   -549.22272   -376.51615    245.46602   -3697.3399 
10782000    189.45302   -4382.5483   -4057.8323   -4382.5483            0    2940.9734    17.910115    23.440572    21.989553    9231.7278    3927.7343    3363.0122    1532.1737   -14.316866    485.03591   -171.32097   -3661.8735 
10783000    192.40092   -4396.6313   -4066.8627   -4396.6313            0    926.07377    18.194696    23.337679    21.965911    9327.2086    190.49434    1501.1363    1086.5906    1130.0134    55.492592   -66.555604   -3940.8909 
10784000    183.10544   -4396.2311   -4082.3946   -4396.2311            0    2979.8158    17.857015    23.336993    21.959706     9151.247    4366.9526    2647.0888    1925.4059    151.89397    478.95714    587.86639   -3684.7038 
10785000    183.65164   -4410.8837    -4096.111   -4410.8837            0    1890.7949     18.10945    23.431609    21.813988    9256.4073    2269.3591    2161.8721    1241.1537   -1422.0774    184.59261   -945.48947   -3840.8628 
10786000    178.58725   -4390.2205   -4084.1281   -4390.2205            0    1265.4931    18.081253    23.273347    22.070069    9287.3342    635.20741    2080.1819      1081.09   -33.883354   -439.69385   -594.62131   -3912.7218 
10787000     193.1408   -4390.3775   -4059.3408   -4390.3775            0    2629.8608    17.883027    23.489099      21.8809    9191.2078    3124.1089    3154.4558    1611.0175    41.684461    55.463794   -282.56702   -3706.8228 
10788000    188.74494   -4391.0556   -4067.5532   -4391.0556            0    846.35817    18.146278    23.401793    21.944529    9318.8637      414.653    931.98141    1192.4401    440.65972    74.603624    421.02733    -3952.528 
10789000    188.86197   -4388.4641   -4064.7612   -4388.4641            0    1726.9978    17.890275    23.384234    22.160896    9271.0193     3352.177    2551.7646   -722.94814    372.52144    191.21558    629.42481   -3831.2567 
10790000    183.72516   -4389.5479   -4074.6493   -4389.5479            0    1339.1184    18.085632    23.617406    21.803305    9312.9704    1541.6159   -232.69135    2708.4307    455.53105   -252.00287   -112.96972   -3892.7701 
10791000    184.62353   -4389.7026   -4073.2642   -4389.7026            0    843.98267    18.131258    23.136004    22.227682    9324.1763    1087.2964    511.11572    933.53586    259.38374    281.21137     89.40302   -3958.4965 
10792000     179.5081   -4382.2853   -4074.6146   -4382.2853            0    1761.5407    17.934071    23.635335    21.956839    9307.0163    2343.1022    1597.4237    1344.0963   -60.170235   -68.868272    810.12422   -3835.5148 
10793000    182.36487   -4371.5089   -4058.9418   -4371.5089            0    2141.6009    18.058742    23.393476    21.936967    9267.4197    2187.3798    2416.6419    1820.7809    62.203924    386.35889    254.21595    -3769.492 
10794000    186.91321   -4385.2417   -4064.8788   -4385.2417            0     2968.234    17.968099     23.25205    22.094379    9230.9241    2487.3455    4558.9122    1858.4442    420.50315    621.95007    569.56019   -3665.2846 
10795000    183.49617   -4417.4124   -4102.9062   -4417.4124            0    1114.7877    17.953716     23.65386    21.796111    9256.2562    790.06221    459.03696    2095.2639   -667.84899    218.41179    53.668944   -3952.4177 
10796000    191.05468   -4384.6827   -4057.2215   -4384.6827            0    3423.1839    18.023448     23.19757    22.036195    9213.3373    3411.2386    3887.8343    2970.4788    789.77989   -396.11828     724.6809   -3597.2583 
10797000    182.23839    -4391.762   -4079.4116    -4391.762            0    1052.1689    17.971018    23.626581    21.945376    9317.8682    120.21481    1883.3472    1152.9446   -583.95665   -323.44826    155.82745   -3936.4308 
10798000     186.4873   -4387.2625   -4067.6297   -4387.2625            0    992.67704    18.031486    23.361228    22.160751    9334.9428    787.23337    257.93608    1932.8617    191.88337   -234.87933    49.749235   -3932.4861 
10799000    189.51311   -4380.2686   -4055.4496   -4380.2686            0    1767.1623    17.983885    23.356124     22.06082    9266.2914    961.07443    1053.7923    3286.6203   -819.48467    20.431352   -183.08599   -3816.6365 
10800000    178.15922   -4379.8958    -4074.537   -4379.8958            0    3235.6012    17.789327    23.565458     21.88167    9173.0944    3534.6897    2348.7622    3823.3517    246.67209   -99.209798   -152.45659   -3641.6777 
10801000    191.49497    -4373.457   -4045.2412    -4373.457            0    2793.2977    18.088547     23.03134    22.041805    9182.6926    2720.9351    3220.0969    2438.8612   -8.5670148    96.802551   -713.65627   -3671.1623 
10802000    186.87431   -4390.5661   -4070.2699   -4390.5661            0    2566.9838     17.96868    23.511325    21.892103     9248.702    2834.9972    2372.3841      2493.57   -754.72595    2.5726352   -14.692973   -3724.0278 
10803000    181.25667    -4387.566   -4076.8983    -4387.566            0    1011.2493    17.913401    23.260168    22.349673    9312.4093    1982.1783    1386.1618   -334.59232   -1007.9517    293.56477    897.78549   -3939.5586 
10804000    197.92669   -4393.6909   -4054.4513   -4393.6909            0      1830.34    18.020538    23.350554    21.883638    9208.4064    788.72343    2280.7038    2421.5929   -190.36712    328.18777    206.70315   -3808.6455 
10805000    186.04616   -4384.0603   -4065.1836   -4384.0603            0    2022.2467    17.760951    23.591045    21.969315    9205.1297    2231.7679    1773.2033     2061.769    33.438828    1247.9012    396.26341   -3793.7022 
10806000    197.51068   -4381.0472   -4042.5206   -4381.0472            0    1199.0782    18.137382    23.317783    21.990028    9300.1004     327.3907    1848.2279     1421.616   -407.77544    188.34118   -414.62188   -3879.8867 
10807000    190.67644   -4392.4821   -4065.6692   -4392.4821            0    1988.4534    17.947117     23.52971     21.91967    9256.4671    2314.8537    779.10541    2871.4013   -568.36287   -404.79329    348.26641   -3797.2358 
10808000    192.55015   -4398.7141   -4068.6897   -4398.7141            0     1315.751    17.930305    23.427417     22.13367    9297.4854    660.14035    1105.8083    2181.3043    -461.4118   -76.158815    317.27827   -3890.2814 
10809000    181.99865    -4376.481   -4064.5415    -4376.481            0    2146.1424    18.206316    23.264954    21.792622    9230.6813    2713.2212      1960.23     1764.976    828.36386    141.55285    499.47024   -3775.6278 
10810000    179.04954    -4402.756   -4095.8712    -4402.756            0    1671.5934    17.867235    23.566346    22.040458    9280.4755    1297.4099    1571.1924    2146.1778    554.11349   -75.824589   -55.374453   -3869.6274 
10811000    188.50587    -4391.863   -4068.7704    -4391.863            0    1687.4862    18.087218    23.344748    21.930996     9260.178    2809.3026    769.62059    1483.5354   -525.07862    -61.35293   -761.85381    -3840.875 
10812000    188.94078   -4381.0936   -4057.2556   -4381.0936            0    2483.3314      17.9807    23.310218    22.106809    9265.7161    2650.9792    3298.0981    1500.9169   -723.14925    56.774423   -140.42865   -3721.6806 
10813000    193.86986   -4374.0214   -4041.7351   -4374.0214            0    1765.6819    17.885074    23.226995    22.261231    9247.6831    1137.8605     2742.451    1416.7342   -320.69137   -157.70614   -34.927203   -3803.6012 
10814000    181.54585   -4380.3717   -4069.2083   -4380.3717            0    2070.9349    18.098269    23.418202     21.88384    9275.0039    546.35352    2728.9406    2937.5106    -195.3595    -393.8586   -550.64015   -3789.0803 
10815000    177.48463   -4388.7281   -4084.5255   -4388.7281            0    2747.6778    17.822793    23.455133    21.997008    9195.5402    3650.1253    2011.7351    2581.1731    481.79074   -733.87342   -434.86666   -3716.0413 
10816000    203.36872   -4397.5197   -4048.9526   -4397.5197            0    1680.0984    18.085093    23.282916    22.042329    9281.4451    1431.7194    1139.7209    2468.8549    56.422769    -249.6862    544.88155   -3821.5339 
10817000    180.70715    -4402.737   -4093.0112    -4402.737            0    2037.7959    17.980231    23.371509    21.993019    9242.0194    2504.1292    1339.7118    2269.5469   -774.13676    510.94025   -11.337313   -3818.3461 
10818000    181.96868   -4384.2128   -4072.3247   -4384.2128            0    1915.3456    17.925974    23.529561    21.911951    9242.2481    2602.5601    1928.2637    1215.2132    738.51193    207.72936   -815.62509   -3814.1577 
10819000    186.53088   -4418.4706   -4098.7631   -4418.4706            0    1417.6604    18.168025    23.175081    22.071735    9293.2039    1472.0222    1141.3207    1639.6383   -1147.5859    466.49799    245.90273   -3906.6249 
10820000    186.49244   -4395.6714   -4076.0298   -4395.6714            0    1682.9302    17.914813    23.606492    21.994039    9301.4087    1901.9632    932.88049    2213.9469    -244.2608   -123.52057    167.37843   -3847.7378 
10821000    193.71841   -4399.0666   -4067.0398   -4399.0666            0     2869.612    18.110376    23.110906    21.988198    9203.0987    3298.9932    3233.3702    2076.4726   -129.09988    1006.3779   -415.83145    -3681.887 
10822000     194.6849   -4358.5591   -4024.8758   -4358.5591            0    1996.4656    17.948596    23.437367    22.015687    9261.2915    995.25419    3044.0216    1950.1208    116.48908   -135.28038    450.48001   -3755.2203 
10823000    177.46784   -4400.8189   -4096.6451   -4400.8189            0    1624.2875     17.96613    23.464867    21.994882    9272.4447    1347.4237    1442.4079     2083.031     163.7085    250.32612    283.37183   -3876.9942 
10824000    191.00278   -4403.0755   -4075.7033   -4403.0755            0     2575.645    18.081916     23.22169     22.01695    9244.7552    1688.9112    2498.9267     3539.097   -239.19485   -312.66153    191.88961   -3728.4412 
10825000    182.63241   -4383.9159   -4070.8902   -4383.9159            0    1646.0723    17.895655    23.548297    22.034294      9285.52    2328.0982    298.96186    2311.1569   -163.13848    90.154594   -298.55923   -3847.9794 
10826000    182.11902   -4385.5889   -4073.4431   -4385.5889            0    1217.9702    18.281738     23.06711    21.970435    9265.0831    93.417607    1530.4955    2029.9975     1283.558    99.194461    1137.7252   -3908.8689 
10827000    179.17922   -4390.7533   -4083.6462   -4390.7533            0    2443.6288    17.915213    23.415653     22.02779    9240.5791    3282.9742    2492.7577    1555.1545    72.599215    420.11095     34.60733   -3754.3321 
10828000    194.21008   -4370.5907   -4037.7213   -4370.5907            0     2120.201    18.114628    23.492607    21.821863    9286.5081    1852.8157    1537.8564    2969.9309    1188.0323   -708.03382   -406.68669   -3750.5736 
10829000    176.46432   -4377.5047   -4075.0509   -4377.5047            0    1089.3186    18.009038    23.308525    22.170962    9306.5741    1504.3567    1499.4838    264.11535    103.33744    8.5557832    321.57288   -3927.2012 
10830000    197.02681    -4375.312   -4037.6148    -4375.312            0    3352.8577    18.010828    23.410147    21.796529    9190.2042    2999.5589    3452.5113    3606.5029    830.23859   -30.496839   -597.44368   -3588.2323 
10831000    178.53383   -4372.9869   -4066.9861   -4372.9869            0     2997.807    18.012169    23.373765    21.931215     9233.309    4004.2147    2974.1049    2015.1015   -193.13879    815.71248    444.57662   -3663.3063 
10832000    186.26656   -4399.5383   -4080.2838   -4399.5383            0    3622.4406    17.796922    23.432806    22.017666    9182.0676    5115.6142    3158.1391    2593.5684    785.17818     15.39252    -444.3146    -3595.199 
10833000    178.92538   -4391.7594   -4085.0874   -4391.7594            0    1976.9622     18.15984    23.293748    21.842315    9239.5335    1667.9058      1042.78    3220.2006    95.286236    105.00399   -230.94323   -3818.6935 
10834000    196.97853   -4374.5768   -4036.9624   -4374.5768            0    3431.8055    17.872631    23.379314    22.004176    9194.4418    5325.5619    2614.2034    2355.6513    364.51898   -931.23692   -368.26177   -3576.7864 
10835000    194.26322   -4408.2798   -4075.3193   -4408.2798            0    1774.3855    17.990737     23.40261    22.063564    9289.4265    2066.0877     1514.994    1742.0746   -186.67856    -231.7042    557.64752   -3834.9313 
10836000    195.98894     -4408.19   -4072.2717     -4408.19            0    1807.6438     18.07732    23.338762    21.945108     9258.691    1366.7882    1186.3719    2869.7713   -431.95017    355.15854     691.5505   -3828.1883 
10837000    188.54637   -4401.2394   -4078.0774   -4401.2394            0    2459.4181    17.674979    23.576135    22.140446    9226.0942    2531.1266    1644.7455    3202.3823   -267.75117    297.48586    277.31039    -3747.155 
10838000    196.61709    -4380.565   -4043.5701    -4380.565            0    2154.8461    18.086551    23.304347    21.918562      9238.57    1352.5867    2258.9171    2853.0345    8.5023044    406.30736    257.93861   -3753.2367 
10839000    182.42618   -4404.3419   -4091.6696   -4404.3419            0    942.35531    18.077282    23.285544    22.107682    9305.9936    24.751359    2592.1491    210.16544     254.3664   -309.16544   -166.39835   -3963.7747 
10840000    182.17251    -4377.017   -4064.7796    -4377.017            0    1010.2057    17.910589    23.685069    21.896216    9288.6714    1409.8347   -514.56556    2135.3481    -118.5144   -205.13879   -64.270273   -3927.9313 
10841000    179.70801   -4397.8816   -4089.8682   -4397.8816            0    2372.8439     18.02015     23.18098    22.077847    9222.4629    4092.8495    1707.2467    1318.4356   -870.04164   -302.46242   -313.81621   -3770.7203 
10842000    192.22461   -4385.7399   -4056.2735   -4385.7399            0    3130.5916    17.870661    23.571118    21.880112    9216.5916    3870.7524    3353.3955    2167.6269   -595.85833   -490.27585   -80.974439   -3635.4765 
10843000    182.89948    -4394.344   -4080.8606    -4394.344            0     3572.012    17.979299    23.284106    21.968601    9196.7571    2850.0569    2875.9689    4990.0101   -481.94289    4.8952339    213.14763   -3601.7635 
10844000    188.19101   -4392.9766   -4070.4236   -4392.9766            0    3300.3031     17.96023    23.285609    21.983473    9193.8157    3542.1439    3717.4231    2641.3421    142.32575   -339.59647   -421.17508   -3627.9112 
10845000    182.87062   -4399.1202   -4085.6862   -4399.1202            0    2094.8681    17.863799     23.50713    22.070603    9268.0341    2149.8211    2348.2416    1786.5417   -1484.8683    40.711401    1074.8492   -3802.5339 
10846000    190.48826     -4380.53   -4054.0396     -4380.53            0    1395.7433     18.26444    23.216247    21.924331    9296.6123   -178.06553     1641.895    2723.4006   -1027.5299    8.9586295    413.06152   -3864.8026 
10847000    196.17252   -4405.2309   -4068.9979   -4405.2309            0    3131.3849      17.7926    23.527447    21.995933    9207.8154    3189.0349    2619.2442    3585.8756   -595.31233   -558.94532   -26.978367   -3648.4951 
10848000    176.44037   -4395.2259   -4092.8132   -4395.2259            0    1461.5302    18.079898    23.277726    22.011739    9263.8362    1367.3318    2037.7464    979.51245    321.99408   -216.35676   -116.80217   -3895.3552 
10849000    186.60336    -4385.756   -4065.9243    -4385.756            0    753.78598    18.157515    23.259807    22.060929    9317.2192      487.985    1255.3059    518.06707   -292.75268   -430.94209   -168.44859   -3963.4982 
10850000    183.94677   -4403.0027   -4087.7243   -4403.0027            0    1393.9521    17.961089    23.556633    22.019268    9316.4138     1504.484    876.79699    1800.5752    90.439103   -272.21737   -134.40942   -3898.3275 
10851000    180.19141    -4403.774   -4094.9321    -4403.774            0    2513.8943    18.063105    23.283724     21.83555    9183.5162    2444.4457    3093.7419    2003.4952    1464.6171    20.474561    881.37264   -3758.2408 
10852000    188.84474   -4378.7126   -4055.0392   -4378.7126            0    2924.9822    17.838526    23.346721    22.114094    9209.8804    5060.1345    1506.0516    2208.7604   -860.73082    96.186727    -617.1048   -3662.1654 
10853000    188.84284   -4387.5403   -4063.8701   -4387.5403            0    1615.7782    18.051995    23.504619    21.838409    9266.1518     1912.904    1442.5465     1491.884   -353.25333   -760.90918    178.84859   -3845.5182 
10854000    184.42756   -4386.7616   -4070.6591   -4386.7616            0    996.60486    17.948465    23.342703    22.188665    9296.2896    1423.7202    1748.1666   -182.07221    1212.0558   -473.65614    759.06397   -3935.5426 
10855000    191.23688   -4376.8386   -4049.0652   -4376.8386            0    1931.6417    18.147221    23.458553     21.74171    9255.6105    1307.9789    2353.4612    2133.4851    655.97679   -239.82517    790.59596   -3788.3252 
10856000    178.72435   -4398.7161   -4092.3887   -4398.7161            0     1899.833     17.91074    23.359854    22.134917    9261.0782     1572.692    2648.9948    1477.8122   -724.47982   -201.33809   -1391.3263    -3835.791 
10857000    186.60241   -4401.0235   -4081.1934   -4401.0235            0    1182.1525    18.022657    23.410732    21.952465    9262.2629     1683.053    1326.9381    536.46658   -778.10557    748.35817   -233.50439   -3921.5075 
10858000    184.35812   -4381.9751   -4065.9916   -4381.9751            0    69.234495    18.049783    23.364384    22.172652    9350.6964   -1359.1001    1119.8141    446.98939    659.17969    524.10799    549.09456   -4056.5501 
10859000    190.07346   -4404.3069   -4078.5275   -4404.3069            0    754.77518    17.946489     23.54679    22.067209    9325.2096    1061.2182     827.1354    375.97191    205.11185   -331.24062    363.89005   -3975.8791 
10860000    183.05075   -4391.2614   -4077.5186   -4391.2614            0    2833.3669    18.116944    23.282967    21.981737     9272.253    1707.3107    4092.1265    2700.6636   -903.23546   -258.54144    36.081197   -3694.3729 
10861000    190.04548   -4390.8668   -4065.1354   -4390.8668            0    1557.1744    17.971886    23.356052    22.139971     9293.304    1946.1665     1775.046     950.3108    868.42886   -21.250886    50.211568   -3854.0864 
10862000     185.7295   -4384.9139   -4066.5799   -4384.9139            0    1760.0764    18.109956    23.471734    21.816118    9273.4227    1805.4522    611.12111    2863.6559    210.43753    83.054417    704.41702   -3828.5413 
10863000    182.63493   -4388.7409   -4075.7109   -4388.7409            0    1870.4251    17.965756    23.210408    22.133273    9229.4097    1538.1121    2482.9706    1590.1925   -380.84081   -1356.3895    98.232449   -3823.9489 
10864000    188.03043   -4364.1289   -4041.8512   -4364.1289            0    1196.3485    18.035634    23.480527    21.969961    9303.9748    615.89224    822.67512    2150.4781   -758.77543   -385.10738    476.73659     -3879.52 
10865000    197.94636   -4394.6592   -4055.3859   -4394.6592            0    1180.2949    17.987896    23.378822    22.078897    9284.9668    966.43375    1528.1155    1046.3354     750.6992   -454.26206    61.518877   -3895.5602 
10866000     186.3079   -4402.4749   -4083.1495   -4402.4749            0    2652.1723     18.07843    23.284627    21.870585    9206.4116    3400.9359    3049.3622     1506.219   -2013.3074   -444.61061   -248.06471   -3727.0528 
10867000    180.48938   -4405.7577   -4096.4051   -4405.7577            0     2371.579    17.811125    23.610908     21.90273     9210.905    2598.3453     2175.616    2340.7756   -535.96861   -446.02452   -231.70257   -3777.8271 
10868000    181.89977    -4399.579    -4087.809    -4399.579            0    1746.1379    18.175741    23.117211     21.98277    9236.5546    2559.0677    2259.6258    419.72034   -697.48189    50.100966    309.81894   -3852.5943 
10869000    191.31887   -4391.7082   -4063.7942   -4391.7082            0    1517.4566    18.052902    23.436448    21.907207    9268.8496    1499.9475    1001.6152    2050.8072    110.62102   -343.57852    472.29266   -3858.6695 
10870000    182.04846   -4390.3471   -4078.3223   -4390.3471            0    2925.4365    17.884317    23.338896    22.094725     9222.343    3225.2271    2894.0158    2657.0665    514.32148   -2.0183235    857.57583   -3684.8557 
10871000    190.30758   -4399.7503   -4073.5696   -4399.7503            0    3419.6055    17.986683    23.226245    21.905384     9151.261    1829.5514    4038.4643    4390.8007    1693.1779   -583.17962    250.81806   -3617.1831 
10872000    187.94093   -4370.2789   -4048.1546   -4370.2789            0    1760.5036     17.97784    23.542121    21.923871    9278.9821    1427.4504    2164.1624    1689.8981   -299.25519   -65.509786    801.69023   -3809.9154 
10873000    184.18903   -4416.2595   -4100.5658   -4416.2595            0    1663.0658    18.110032    23.209163    22.023758     9256.997    320.50543    2950.4958    1718.1962   -425.85081    12.178719    897.21597   -3876.0456 
10874000    204.78398   -4407.9066   -4056.9138   -4407.9066            0    3124.8552    17.899542    23.476093    21.933207     9216.582    2907.7755    3498.2671     2968.523    368.13021    35.861739    223.60227   -3636.8883 
10875000     199.6519   -4383.0358   -4040.8393   -4383.0358            0    2803.6409    17.898095    23.430204    21.966517    9211.7908    4022.6841    2465.8163    1922.4223    814.98639     185.0253    619.10624   -3664.1855 
10876000    185.90482   -4385.7198   -4067.0853   -4385.7198            0    3722.2462    18.076952    23.058592    21.952711    9150.5279    2740.7617    5248.5227    3177.4543    224.55944    -1137.163    713.01211   -3570.3476 
10877000    186.78642   -4383.5587   -4063.4132   -4383.5587            0    1686.7968    17.929932     23.62021    21.891988    9271.4486    2348.2841    645.91499    2066.1913   -475.17702    387.82557    199.00308   -3835.3337 
10878000    193.11968   -4398.8805     -4067.88   -4398.8805            0    1765.1297    17.936708    23.232816    22.193754    9248.5865    1923.6285    2201.4635    1170.2972   -2.4298487   -699.24536    69.617651   -3829.7973 
10879000    190.88446    -4382.446   -4055.2766    -4382.446            0    1593.2308    18.114788    23.459765    21.964423    9334.1916    619.05915    1909.4169    2251.2164   -424.67156   -285.14179   -1016.6296   -3838.3907 
10880000    192.05125   -4416.8903    -4087.721   -4416.8903            0    1467.4297    17.943318    23.628688    21.971415    9315.3759    953.44387    792.94488    2655.9005   -453.15859   -154.61165   -327.11439    -3888.363 
10881000    184.09997   -4409.8336   -4094.2926   -4409.8336            0    1567.4497    18.157237    23.136485    22.123594    9294.0031    1232.3686     2483.308    986.67243   -66.016213   -399.32868   -152.71508    -3881.835 
10882000    201.59966   -4393.6652   -4048.1303   -4393.6652            0    1341.7142    17.959969    23.566879    21.883876    9262.5788    1281.1918    1011.5899     1732.361    9.8843908   -186.53636    397.12688   -3866.8846 
10883000    182.02161   -4394.1175   -4082.1387   -4394.1175            0    2284.6152    18.054761    23.238699    22.033824    9244.7129    1785.2224    3455.9519    1612.6713   -662.83183   -331.71385   -412.45292   -3774.1162 
10884000    180.69126   -4396.5506    -4086.852   -4396.5506            0    2220.6941    17.980588    23.454025    21.858382    9218.0549    1355.0097    3020.1383    2286.9342     647.8562   -367.27252    270.03562    -3788.311 
10885000    187.40498   -4424.4677   -4103.2619   -4424.4677            0    1474.5094    17.919615    23.449911    22.056731    9268.5329    653.00702    2208.9766    1561.5445   -134.16102    567.21508    697.12565   -3903.9495 
10886000    187.36005    -4388.201   -4067.0723    -4388.201            0    2371.1068    18.068305    23.327912    21.863126    9215.2164    3199.2478     1643.527    2270.5456     252.8492   -290.37109   -84.705054   -3748.4086 
10887000    180.78853   -4392.6207   -4082.7554   -4392.6207            0    2600.4021    17.781853    23.399091    22.092931    9192.4092     2558.491     3312.243    1930.4723   -538.06747    284.87218   -548.82796   -3734.1406 
10888000    190.51135   -4393.3079    -4066.778   -4393.3079            0    1847.0563    18.148448    23.210098    21.962824    9251.3404    1449.1155    2684.1408    1407.9128   -1102.7172   -561.33717    318.55795   -3817.5707 
10889000    169.68362   -4396.6029    -4105.771   -4396.6029            0    962.88736    17.879938    23.522285    22.061927    9278.7392    911.79595    1360.9071    615.95899    19.029541   -279.21183    218.40882   -3975.4722 
10890000    186.94557   -4393.6558   -4073.2375   -4393.6558            0    3648.2302    17.949151    23.389196    21.904371    9195.8099    4048.0086    2717.7553    4178.9268   -362.73194    541.49486   -280.24769   -3583.9681 
10891000    181.37765   -4400.8281    -4089.953   -4400.8281            0    2161.2354    18.084234    23.151399    22.037393    9226.5121    844.89398    2643.0759    2995.7362   -248.03625   -117.97151    86.981837   -3799.1388 
10892000    187.33784   -4405.2399   -4084.1492   -4405.2399            0    1510.4438    17.860037    23.522087     21.96778    9228.7822    2344.5511    763.62818    1423.1522    -495.5411    379.52963    597.56604   -3880.8551 
10893000    183.36935   -4397.2977   -4083.0089   -4397.2977            0    2330.1497    18.126754    23.104658    22.029084    9226.0544    1286.1502    3050.6778     2653.621    71.489346    82.967894    -730.9356   -3769.4814 
10894000    183.77231   -4393.6962   -4078.7168   -4393.6962            0    1792.6888    17.932044    23.661172    21.841046    9267.0065    1133.6813    1679.7246    2564.6605    -142.9318    406.14568   -56.142634   -3836.4353 
10895000     183.1679   -4366.7397   -4052.7962   -4366.7397            0    2448.8899    17.959822    23.405214     21.96457    9232.8835    2101.2019    1898.2618    3347.2059   -383.65688    528.96384   -473.83973    -3723.048 
10896000    177.50126   -4385.4216   -4081.1905   -4385.4216            0    3002.9356    18.102621    23.270639    21.845436    9202.5986    4094.5239    3235.1499    1679.1329   -222.72946   -138.07834    338.09825   -3678.1652 
10897000    181.80826   -4405.5576   -4093.9444   -4405.5576            0    2503.3142    17.773526    23.434008    22.160777    9230.0736    3023.5871    2673.0856      1813.27    196.99688   -1016.4129    36.365069   -3756.9704 
10898000    178.52873   -4401.9363   -4095.9442   -4401.9363            0    1905.7769    18.067183    23.378919    21.897469    9249.2985     986.6613    1028.5063    3702.1632   -575.85125    373.26007   -127.78206    -3838.871 
10899000    195.92373    -4381.145   -4045.3385    -4381.145            0    2329.3188    17.948099    23.270899    22.018005    9196.2251    2699.0267    2693.0226    1595.9071   -603.56469    146.97224     317.9097    -3732.936 
10900000    185.87943   -4396.4546   -4077.8636   -4396.4546            0     2029.617     17.87225    23.526409    21.987587    9245.1175    2961.1518    1925.0422    1202.6568    70.007106   -374.53507    491.34127   -3804.2092 
10901000     184.4657   -4369.7157   -4053.5478   -4369.7157            0    1749.2785    18.190959    23.225435    21.912561    9257.9022    1290.2659    1493.5782    2463.9915   -249.88457    135.99138   -670.18862   -3817.3655 
10902000    183.57514   -4406.6396   -4091.9981   -4406.6396            0    3269.3288    17.856266    23.341502    22.042097    9186.9713     4065.505    2020.4588    3722.0227    211.71229   -83.429138     23.85733    -3653.965 
10903000    184.79891    -4380.005    -4063.266    -4380.005            0    2133.9748    18.212863     23.32085    21.809482     9263.347    2245.6263    883.47816      3272.82   -555.48003    129.70606    204.12726   -3774.9737 
10904000    179.17702   -4393.8519   -4086.7486   -4393.8519            0    1441.9639    17.946538    23.295838    22.190615    9277.4444    1735.5718    1852.6903    737.62947    216.50611   -17.607363   -140.53744    -3891.648 
10905000    184.14861   -4393.1751   -4077.5507   -4393.1751            0    1955.8565    17.963065    23.411172    21.981946    9244.2087    2261.4622    2487.0133    1119.0941    -186.4127   -285.60953   -64.898022   -3813.8674 
10906000    174.24239   -4407.9672   -4109.3218   -4407.9672            0    1965.0958    18.060843    23.183573    22.123452    9263.4182    1235.2203    2276.1165    2383.9507      76.6294   -169.16895   -233.14586   -3843.8423 
10907000    184.32396   -4395.2109   -4079.2859   -4395.2109            0     2502.079    17.787515    23.666138    21.895192    9217.0392    3267.6524     1916.924    2321.6605   -554.27804    77.245191    451.04709   -3742.9538 
10908000    182.42492   -4395.8607   -4083.1906   -4395.8607            0    2185.8841    18.047061    23.381066    21.918301     9248.636    1691.7137    2353.8204    2512.1181   -1075.6989    364.84205   -108.95423   -3788.3545 
10909000    184.78851   -4392.1928   -4075.4716   -4392.1928            0    2494.2916    17.913311    23.393207    22.003849    9220.7082    1017.5614    1852.0438    4613.2696    783.57986   -152.92068    233.65366   -3740.0528 
10910000    188.95413   -4370.7526   -4046.8917   -4370.7526            0    2866.8116    17.994518    23.459304    21.868374    9231.4904    1680.2113    4188.0927    2732.1309   -590.36518    483.24494    219.86312   -3660.9277 
10911000    178.67939   -4402.7797   -4096.5293   -4402.7797            0    1312.4261    18.073869    23.162593    22.177368    9284.2817    1187.0925    1006.5241    1743.6618   -1256.5979   -1063.4404    360.20754   -3918.8246 
10912000    188.10502   -4405.0193   -4082.6137   -4405.0193            0    1748.1562    18.033048    23.617934    21.790716    9280.7388    673.20501    2009.8137    2561.4498   -54.118696     720.4282   -668.15608   -3846.0007 
10913000    187.41013   -4386.6797   -4065.4652   -4386.6797            0     2251.256     17.92317    23.323434    22.121805    9247.5751    3701.7049    1298.3865    1753.6767   -52.413882   -566.20788   -465.25489   -3761.8464 
10914000    191.22839   -4409.3823   -4081.6233   -4409.3823            0    2384.6691    18.092235    23.391645    21.851533    9247.7245    1437.6895    1593.4209     4122.897    272.36143    141.56602    535.95454   -3760.0064 
10915000    184.42336   -4389.6564   -4073.5611   -4389.6564            0    1725.5782    17.871085    23.528266    22.060714    9275.9931    2628.3121    965.81723    1582.6053   -732.60992    -319.4876    266.77156   -3840.1234 
10916000    187.47248   -4378.7819   -4057.4605   -4378.7819            0    1351.8283    18.226451    23.171847    22.037221    9307.2116   -20.893656    1898.1445    2178.2339   -42.192939    94.057409   -233.04896   -3873.9686 
10917000    179.40882   -4397.4168   -4089.9162   -4397.4168            0    1692.7953    17.885706    23.484187    21.990187    9236.5658    1582.1745    2075.7596    1420.4518    -100.5582    11.027749    -227.2263   -3861.8868 
10918000    202.41759   -4396.0524   -4049.1156   -4396.0524            0    969.64246    18.069743    23.431746    22.066678    9343.1558    947.31082    852.11719    1109.4994   -501.98259   -438.71316   -179.02246   -3916.9918 
10919000    189.24096   -4371.9861   -4047.6335   -4371.9861            0     1540.859    18.012531     23.41252    22.031355    9291.0353    1062.1364    1840.0397    1720.4008   -941.52053   -530.14859   -203.78569   -3838.8468 
10920000     190.7462   -4402.3698   -4075.4373   -4402.3698            0    2799.7475     17.88347    23.416572    22.034815      9227.51     2769.252    2646.6522    2983.3384    576.96597   -456.21628    367.54921   -3698.6647 
10921000    189.56918   -4402.7145   -4077.7994   -4402.7145            0    1759.9357    18.225338    23.282581    21.810441    9254.8879    1319.4315    2838.9152    1121.4605    372.15141   -49.337258   -85.828054   -3840.2555 
10922000     184.6622   -4391.9746   -4075.4699   -4391.9746            0    2425.5481    17.896176     23.38189    22.025987    9216.6952    1179.4759    2604.7263    3492.4422   -1063.5811   -40.151036    211.10801   -3749.4373 
10923000    177.01448   -4385.5843   -4082.1875   -4385.5843            0    2075.5547    18.067571    23.354021    21.892956    9237.7422    1492.7943    1429.8708    3303.9991   -335.98089    557.24478   -535.58847   -3802.5626 
10924000    186.18385   -4407.2517   -4088.1389   -4407.2517            0    2358.4743    18.003091    23.329288    22.009248    9243.8689    2258.3318    3060.4577    1756.6334   -292.69241     185.1189   -562.87543   -3770.1875 
10925000    190.17391   -4388.0765   -4062.1249   -4388.0765            0    1828.3193    17.863608    23.602452    22.036489    9291.1338    1004.9547    2131.2264    2348.7768   -311.03052    970.08893   -90.986897   -3814.3846 
10926000    189.29546   -4403.6662   -4079.2203   -4403.6662            0    1433.0859    18.167722     23.27142    21.964065    9286.1579    2113.6179    897.88183    1287.7581    616.85509    182.32982    650.67394   -3885.1388 
10927000    195.82353   -4387.7916   -4052.1568   -4387.7916            0    1126.3491    17.900321    23.535065     22.16354    9337.1712     1437.851    579.80288    1361.3935    329.40396    255.62212   -181.57718   -3898.7783 
10928000     190.0842   -4379.6627   -4053.8649   -4379.6627            0    3426.9835     18.14289     23.28238     21.82603    9219.5261    3079.5065    4457.6897    2743.7542    245.36969    342.68922    483.47957   -3593.0819 
10929000     186.3912   -4395.6861    -4076.218   -4395.6861            0    2197.9229    17.952728    23.363989    22.083777    9262.9813    2646.7908    3215.4464    731.53152   -407.78925   -270.23695   -279.09751   -3779.2982 
10930000    194.93159   -4409.2277   -4075.1216   -4409.2277            0    2550.6203     18.05728    23.490145    21.733279    9218.5646    1904.6677    2259.8135    3487.3797    204.24267    -298.9269    72.519513   -3732.2078 
10931000    181.90967   -4377.8839    -4066.097   -4377.8839            0     1425.454    17.863125    23.359784     22.32894     9317.392     1701.092    2119.0277     456.2423   -822.76505   -276.35769    243.63669   -3872.3997 
10932000    195.53049   -4379.9447   -4044.8121   -4379.9447            0    2487.4467     18.02127    23.224075    22.004585    9209.5199    2730.7735    2442.7429    2288.8236    398.40239    531.15805     -175.298   -3710.7197 
10933000    185.38649   -4401.9513   -4084.2052   -4401.9513            0    1960.9783    18.004755    23.517134    21.966867    9301.2161    2823.5201    145.86598    2913.5489    190.23109   -628.55337    2.5127945   -3818.2011 
10934000    183.00002   -4404.4509   -4090.7951   -4404.4509            0    2356.6886    18.077984    23.167267    22.108084     9259.252    2714.5268    3689.5031    666.03584   -239.88023    525.42366    757.59048   -3772.5556 
10935000    187.01598   -4376.7917   -4056.2527   -4376.7917            0    2548.4788    17.962326     23.59974    21.807866    9244.4899    2959.5295    2645.1747    2040.7321    -1413.502    16.410799   -520.69178   -3712.6632 
10936000    185.59109   -4378.6614   -4060.5647   -4378.6614            0     1648.932    17.974356    23.379269    22.128843    9299.1442    2582.2183     1859.108    505.46957    291.07266   -200.96911   -991.93921    -3836.939 
10937000    189.15785   -4400.7737   -4076.5637   -4400.7737            0    1039.2167    18.151988    23.377794    21.890418    9289.2743    745.79083    46.097398    2325.7617   -418.84327   -219.61075    105.11215   -3935.7763 
10938000    197.96423   -4389.0622   -4049.7583   -4389.0622            0    1982.5953    17.860016    23.582072    22.001898    9266.6756    2618.2689    1840.1793    1489.3376   -914.01566    245.19744   -371.00094   -3781.8206 
10939000    182.60795   -4409.0134   -4096.0296   -4409.0134            0    641.68317    18.108071    23.394834    22.062438     9346.428    664.23953   -1.0363129    1261.8463    249.07482    71.286595    267.63911    -4008.563 
10940000      198.186   -4381.4129   -4041.7288   -4381.4129            0    1546.2032    17.937219    23.579837     21.92486    9273.2663    1829.8376    -570.6282    3379.4001   -286.25983    653.29347    23.002443   -3832.6187 
10941000    191.33969   -4390.4058   -4062.4561   -4390.4058            0    1479.9699    17.977652    23.257684    22.210624    9286.6735    424.97614    1569.0681    2445.8655    -1034.883     509.9393   -773.53816    -3862.014 
10942000    187.75546   -4384.2749   -4062.4685   -4384.2749            0    3481.3706    18.119093    23.248535    21.823389     9192.936    2904.6589    3186.6251    4352.8276   -629.48233    -730.2927   -397.87749   -3595.7227 
10943000     187.2881   -4387.0847   -4066.0794   -4387.0847            0    2302.0832    17.912416    23.437002    22.006013    9238.4177    2957.4624    2306.1442     1642.643   -37.706161    370.00971   -259.82189   -3755.9131 
10944000    192.68949   -4382.7108   -4052.4476   -4382.7108            0    1035.8378    18.001789    23.471673    22.032209    9309.3155    1527.5998    203.81787    1376.0958    130.40485   -683.17691   -235.34584   -3911.8152 
10945000    181.33059   -4381.8858   -4071.0914   -4381.8858            0     2689.219    17.987869    23.464935    21.784825    9195.0297    2738.9147    1838.1746    3490.5677    302.77423   -355.09684   -54.358476   -3710.4669 
10946000    186.57146   -4390.2312   -4070.4541   -4390.2312            0    2108.7709    17.960705    23.253445    22.133574    9244.0487    2271.4282    2485.6748    1569.2096   -126.67727    645.12702     60.48834   -3786.1602 
10947000    180.59958   -4372.5315     -4062.99   -4372.5315            0    1668.1839    18.007853    23.599206    21.769226    9251.2903    1042.1349    1032.4915    2929.9254    290.73135   -593.57205     231.3948   -3837.9176 
10948000    191.88251   -4396.8988   -4068.0188   -4396.8988            0    1982.5968    17.980849    23.393954    22.065372    9281.6474    2163.9684    2044.1625    1739.6593   -332.90979   -273.96123   -310.52134   -3799.6479 
10949000    186.05016   -4375.7227   -4056.8391   -4375.7227            0    1128.8666    18.051225    23.326561    22.066054    9291.4199    1098.4557    41.550835    2246.5931   -165.08577    73.032045   -338.75677   -3903.8711 
10950000    189.23074   -4394.2517   -4069.9167   -4394.2517            0    3851.5926    17.911569    23.426092    21.828757    9159.3043    4194.6464    4156.4698    3203.6616   -577.81335    200.22231    413.75859   -3555.4246 
10951000    194.35694   -4399.0515   -4065.9304   -4399.0515            0    1646.8364    17.998833    23.243318    22.139769    9262.2299    778.03579    2563.1798    1599.2935    245.96562   -317.34418    886.12455   -3843.4755 
10952000    194.24567   -4397.2307   -4064.3003   -4397.2307            0    2441.0035    17.824666    23.757803    21.839335    9248.4104    2320.8082    2213.5768    2788.6256    502.26005    350.08038   -28.256463   -3735.0612 
10953000    177.56375   -4385.4418   -4081.1036   -4385.4418            0    1855.8575    18.088051    23.213715    22.015055    9243.9201    2406.3987    2763.2448    397.92911   -588.75721   -511.12473   -593.37918   -3830.9097 
10954000    182.84457   -4398.5744    -4085.185   -4398.5744            0    2420.5283    18.025373    23.291002    21.982635    9228.9474    2419.7822    2171.0772    2670.7255   -594.11452    137.57362    703.91466   -3759.3947 
10955000    177.50698   -4395.5343   -4091.2934   -4395.5343            0    1128.2666    17.874639    23.756689    21.835735    9272.3757     1176.097   -375.76738      2584.47   -413.11209   -29.970229    532.73203   -3938.7201 
10956000     183.2311   -4397.5643   -4083.5124   -4397.5643            0    2101.4136    17.986275    23.224897    22.166514    9259.6041    3001.0908     2106.083    1197.0669    -1142.326   -61.073209    143.83035   -3799.7337 
10957000    195.68516    -4411.637   -4076.2393    -4411.637            0    1247.4449     18.00797    23.573791      21.8954    9294.9504    1887.8078    1071.8268    782.70001    685.60171    312.29628   -49.467092    -3907.139 
10958000    195.86014   -4392.6611   -4056.9636   -4392.6611            0    2007.7701    17.946042    23.426404    21.989704    9244.7186    2901.4583    386.88365    2734.9683    1399.6109    381.14066    45.550287   -3786.2665 
10959000    182.67437   -4384.6322   -4071.5346   -4384.6322            0    1563.5592    18.135275     23.40817     21.88309    9289.6695    1020.3418    765.11743    2905.2185   -429.57739    251.95854    222.03074   -3859.7031 
10960000    188.79762   -4375.9577    -4052.365   -4375.9577            0    2101.9225    17.944946     23.43817    22.014853    9259.3743    2509.1056      3128.58    668.08188    1537.8173   -56.053532    333.65454   -3768.5246 
10961000    194.65097   -4413.4409   -4079.8158   -4413.4409            0    1415.9765    18.046929    23.299946     22.03977    9267.5573    1819.4524    809.21698      1619.26   -12.955582   -283.67542   -56.287735   -3888.4355 
10962000    194.31708   -4395.9801   -4062.9272   -4395.9801            0    1910.2849    17.993135    23.390917     21.89354    9214.4638    1398.4813    2688.5068    1643.8665    322.01815    320.50539    610.37386   -3806.2165 
10963000    192.43713   -4384.8281   -4054.9975   -4384.8281            0     2504.082    17.989258    23.359019    21.944496    9221.3278    3680.1613     2264.923    1567.1619   -259.99809    686.20676    433.34039   -3718.2395 
10964000    189.85318   -4402.9039    -4077.502   -4402.9039            0    1282.9234    18.046337    23.510045    21.869838    9278.7203    2257.0494    726.01799    865.70284    976.94645    381.88347     577.3509    -3903.896 
10965000    173.04208   -4408.1175   -4111.5293   -4408.1175            0    1640.5192     18.02851    23.197941    22.229406    9296.8779    2197.2353    1881.0804    843.24192   0.73247821   -386.64607   -327.35913   -3889.0988 
10966000    189.70376   -4405.6157   -4080.4699   -4405.6157            0    2425.3989    18.000863    23.364765    21.925016    9221.3534    1492.2711    2464.7434    3319.1822   -415.47176    225.10854    25.419564   -3754.2926 
10967000    175.73576   -4394.9022   -4093.6971   -4394.9022            0    255.79249    17.897296    23.705351    21.990489    9329.7216    116.33389    431.47725    219.56634    129.03908    224.85948   -21.052837   -4058.8928 
10968000    193.40828   -4399.3735   -4067.8784   -4399.3735            0     2966.318    18.038118    23.178088    22.107111     9242.742    2739.6564     4582.653    1576.6447    151.42603    -405.7243    129.79275   -3668.0308 
10969000     194.5806   -4395.3429   -4061.8384   -4395.3429            0    2288.1578    18.010755    23.372286    21.976864    9251.2158    3767.8406    1411.8952    1684.7377    337.40908    377.57851    459.91024   -3753.1213 
10970000    174.78784   -4389.6086   -4090.0282   -4389.6086            0    1458.9814    18.023248    23.393874    22.086106    9312.2437      1313.39    2273.9832    789.57088    243.54334   -85.604456   -716.44437   -3891.8846 
10971000    190.16796   -4398.2673   -4072.3259   -4398.2673            0    1833.7729    18.031639    23.381728    21.967372    9261.6831    2640.2352    1809.9285    1051.1551    684.01205   -440.01167   -84.038843   -3824.6342 
10972000     186.2856   -4403.4708   -4084.1837   -4403.4708            0    1237.0884    17.900314    23.461605    22.124831    9291.7678    1696.7413    170.75748    1843.7665    972.64136    116.22626    739.40256   -3916.5447 
10973000    188.65787   -4399.3882   -4076.0351   -4399.3882            0    1732.9374    17.978624    23.458425    21.920307    9244.8941    1506.9469    2780.9016    910.96385    578.43452   -98.478153    7.6665773   -3842.3878 
10974000    191.98386   -4404.5895   -4075.5357   -4404.5895            0    2066.4778    18.035407    23.321853    21.973831    9242.6134    2346.2165    1528.0981    2325.1188    197.27094    314.17715    598.69469   -3796.9868 
10975000    181.39039   -4398.4462   -4087.5492   -4398.4462            0    2005.7311    18.041114    23.363462     21.94985    9251.9248    695.76084    3043.3095    2278.1229   -124.50078     159.2464     314.0435   -3816.9163 
10976000    189.54916   -4392.8145   -4067.9337   -4392.8145            0    3766.6526    17.949216    23.469736    21.756639    9165.2746    4114.4232    2857.2398    4328.2948    556.37456    633.35031   -486.31702   -3564.4599 
10977000    199.11648   -4369.6677   -4028.3889   -4369.6677            0     2095.493    18.005291     23.24787    22.112574    9255.9842    2401.8804    2978.8885    905.71014   -529.68678   -81.762127    120.69074   -3745.5203 
10978000     193.3478   -4386.7169   -4055.3254   -4386.7169            0    1626.6225    18.100188    23.460569    21.801303    9257.7207    1329.6512    1601.7415    1948.4749   -107.88555    354.28926   -27.131739    -3835.708 
10979000    195.49679   -4393.7572   -4058.6824   -4393.7572            0    3602.4861    17.840814    23.489843    21.897669    9176.8295    3453.5983    4386.2782    2967.5817    204.02286    541.32347   -472.11084   -3576.5449 
10980000    189.09664    -4366.873   -4042.7679    -4366.873            0    2431.5534    18.096404    23.186746     22.01427    9237.1158    1903.6844    1844.8214    3546.1543     -199.267   -2.5025941    116.21784   -3715.2039 
10981000    193.16936   -4390.4697   -4059.3841   -4390.4697            0    1758.2579    18.011421    23.552552     21.86656    9276.1216    2064.9064     1293.753    1916.1143     536.0108    69.670701      126.929   -3821.5222 
10982000    195.58817   -4400.0009   -4064.7695   -4400.0009            0     2361.964    18.059751    23.129712    22.077311    9222.0646    1216.6777    2788.6063    3080.6081   -1648.6598   -276.67757   -168.55567   -3747.0987 
10983000    174.58143   -4381.1374   -4081.9108   -4381.1374            0    1470.9934     18.02284    23.500492    21.962121      9301.96     876.1115    826.81382    2710.0548    47.772437    -161.1875    5.2623003   -3882.3566 
10984000     183.5116   -4371.9773   -4057.4447   -4371.9773            0    2084.9295    17.958953    23.411627    22.057818    9274.1724    2668.4021    2910.0034    676.38293    1375.5101   -408.94124    366.56883    -3775.449 
10985000    189.11272   -4413.4742   -4089.3415   -4413.4742            0    841.53347    18.038005     23.29228    22.113551    9290.9261    465.68623     1347.005    711.90914   -122.64956     203.3471   -192.94726   -3975.3149 
10986000    189.91531   -4404.5258   -4079.0174   -4404.5258            0    1800.2238    18.038234    23.598565    21.787092    9274.2516    2483.9371    1836.6608    1080.0734   -97.191579    29.634368   -229.67562   -3835.5273 
10987000    184.69224   -4391.8136   -4075.2574   -4391.8136            0     2038.374    17.885159    23.423775    22.097629    9257.5351    2773.9165    3559.4096   -218.20401    867.02314   -19.377013   -709.92464   -3800.0531 
10988000    193.19497   -4388.2055   -4057.0759   -4388.2055            0    1892.7872    18.198022    23.205637    21.976912    9280.7776   -107.41833    3111.2738    2674.5062   -539.30862   -239.05611    -600.0057    -3800.886 
10989000    187.43121   -4385.2142   -4063.9636   -4385.2142            0    3236.8962    17.800485    23.446654    21.993601    9179.2889    4742.7077    2269.2328     2698.748   -267.91234    416.82019    322.41468   -3630.6386 
10990000    183.44117   -4384.6592   -4070.2473   -4384.6592            0     2242.359    18.138047    23.400089    21.874606    9284.2808    2577.0743    2425.9548     1724.048    609.44448   -46.858254    435.00927   -3766.6281 
10991000    183.13734   -4402.7152    -4088.824   -4402.7152            0    2668.3729    17.942414     23.27418    22.109601    9232.8584    3201.8529    3777.1951    1026.0707    1049.8458    192.41338   -425.19241   -3729.5229 
10992000    190.64558   -4397.7406   -4070.9806   -4397.7406            0    2972.5174    17.988563    23.525448    21.796274    9223.9438    4453.1387    2283.8756     2180.538   -46.236492     689.7079     251.5927   -3671.1123 
10993000    195.95133   -4386.8759    -4051.022   -4386.8759            0    2230.0879    17.995771    23.249016    22.162697    9272.5169    3217.8281     2334.135    1138.3006   -670.06948     612.4378    601.45856   -3749.4469 
10994000    182.88113   -4372.6496   -4059.1976   -4372.6496            0    2054.6645       17.859    23.770975    21.816445     9261.645    2091.9577    1962.1123    2109.9234   -1658.5571    176.10258    544.72475   -3781.6708 
10995000    191.40939   -4380.6676   -4052.5984   -4380.6676            0    1690.8763    18.060089    23.373173    22.063431    9313.4507    1633.7133    1942.7892    1496.1263   -568.51095   -659.61211   -77.563796   -3822.9316 
10996000    183.12822   -4385.1194   -4071.2439   -4385.1194            0    2896.8018    18.044779    23.166176     21.97046    9184.2791    2518.4092    4404.7809    1767.2153   -98.771839    231.45751   -718.06279   -3683.2367 
10997000    191.37708    -4403.174   -4075.1602    -4403.174            0    2569.6339    17.932763    23.524033    21.811422    9201.1683    1870.1702    2639.4654     3199.266    744.68292   -122.00073     496.5303   -3730.3421 
10998000    194.94403   -4386.7637   -4052.6364   -4386.7637            0    2512.4933    17.866187    23.305536    22.176326    9233.8022    1721.6723    3083.0591    2732.7484    484.98952   -436.54022    236.98373   -3714.2901 
10999000    183.66154   -4401.0958   -4086.3062   -4401.0958            0    1871.5582    18.229976    23.219117    21.867533    9256.1754    965.35805    2751.7258    1897.5906   -226.54826    462.77532     916.0928   -3833.6611 
11000000    196.80203   -4378.1168   -4040.8048   -4378.1168            0    1724.5109    17.884578    23.567694    22.043174    9291.1597    2003.4905    1776.3042    1393.7379   -662.61372   -113.20045    842.02768   -3807.1301 
Loop time of 375.185 on 64 procs for 250000 steps with 864 atoms

Performance: 115.143 ns/day, 0.208 hours/ns, 666.337 timesteps/s
195.8% CPU use with 32 MPI tasks x 2 OpenMP threads

MPI task timing breakdown:
Section |  min time  |  avg time  |  max time  |%varavg| %total
---------------------------------------------------------------
Pair    | 17.75      | 25.12      | 34.994     | 105.1 |  6.70
Bond    | 0.8626     | 1.04       | 1.3158     |   9.8 |  0.28
Kspace  | 189.56     | 200.99     | 209.52     |  41.2 | 53.57
Neigh   | 1.0487     | 1.15       | 1.259      |   5.0 |  0.31
Comm    | 56.319     | 60.894     | 64.699     |  23.7 | 16.23
Output  | 0.5131     | 0.51347    | 0.51518    |   0.0 |  0.14
Modify  | 67.689     | 70.072     | 73.593     |  14.0 | 18.68
Other   |            | 15.41      |            |       |  4.11

Nlocal:        27.0000 ave          40 max          17 min
Histogram: 3 6 5 3 2 2 4 1 3 3
Nghost:        2127.34 ave        2229 max        2024 min
Histogram: 8 7 1 0 0 0 0 1 6 9
Neighs:        6540.09 ave        9744 max        4146 min
Histogram: 3 7 4 3 2 3 2 3 3 2

Total # of neighbors = 209283
Ave neighs/atom = 242.22569
Ave special neighs/atom = 2.0000000
Neighbor list builds = 3939
Dangerous builds = 0

unfix		3
unfix		2
unfix		1

write_data	data.final.${pid} nocoeff
write_data	data.final.1 nocoeff
System init for write_data ...
PPPM initialization ...
  extracting TIP4P info from pair style
  using 12-bit tables for long-range coulomb (../kspace.cpp:340)
  G vector (1/distance) = 0.3715434
  grid = 24 27 25
  stencil order = 5
  estimated absolute RMS force accuracy = 0.0031831016
  estimated relative force accuracy = 9.5858161e-06
  using double precision FFTW3
  3d grid and FFT values/proc = 4410 672
Last active /omp style is kspace_style pppm/tip4p/omp

write_restart   restart.lmp.${pid}
write_restart   restart.lmp.1
System init for write_restart ...
PPPM initialization ...
  extracting TIP4P info from pair style
  using 12-bit tables for long-range coulomb (../kspace.cpp:340)
  G vector (1/distance) = 0.3715434
  grid = 24 27 25
  stencil order = 5
  estimated absolute RMS force accuracy = 0.0031831016
  estimated relative force accuracy = 9.5858161e-06
  using double precision FFTW3
  3d grid and FFT values/proc = 4410 672
Last active /omp style is kspace_style pppm/tip4p/omp
Total wall time: 0:06:15
