LAMMPS (30 Jul 2021)
Processor partition = 0
  using 2 OpenMP thread(s) per MPI task
using multi-threaded neighbor list subroutines
variable        pid world 0 1
variable        phase world IceIII Liquid

shell cd ${phase}
shell cd IceIII
include Restart.lmp
echo both
log log.lammps
#include		in.partitions
include		in.temp
variable        temperature equal 255.70
variable	tempDamp equal 100.0
include		in.pressure
variable        pressure equal 1750.0
variable        pressureDamp equal 1000.0 # This is 1 ps
include		in.seed
variable        seed equal 745823

units		real
atom_style	full

read_restart	restart.lmp.${pid}
read_restart	restart.lmp.0
Reading restart file ...
  restart file = 30 Jul 2021, LAMMPS = 30 Jul 2021
  restoring atom style full from restart
  orthogonal box = (-0.034477574 -0.079402185 -0.21532616) to (20.034479 20.079403 20.915324)
  2 by 4 by 4 MPI processor grid
  restoring pair style lj/cut/tip4p/long/omp from restart
  restoring bond style harmonic/omp from restart
  restoring angle style harmonic/omp from restart
  972 atoms
  648 bonds
  324 angles
Finding 1-2 1-3 1-4 neighbors ...
  special bond factors lj:    0        0        0       
  special bond factors coul:  0        0        0       
     2 = max # of 1-2 neighbors
     1 = max # of 1-3 neighbors
     1 = max # of 1-4 neighbors
     2 = max # of special neighbors
  special bonds CPU = 0.002 seconds
  read_restart CPU = 0.009 seconds
include 	in.setup
variable	out_freq equal 1000
variable	out_freq2 equal 10000
variable	out_freq3 equal 1000

timestep	2.0

neigh_modify    delay 7 every 1

include		in.tip4p
# This is TIP4P/Ice

# create groups ###
group ox type 2
324 atoms in group ox
group hy type 1
648 atoms in group hy

# set charges - beside manually ###
set group ox charge -1.1794
Setting atom values ...
  324 settings made for charge
set group hy charge 0.5897
Setting atom values ...
  648 settings made for charge

# ### TIP3P Potential Parameters ###
pair_style lj/cut/tip4p/long/omp 2 1 1 1 0.1577 8.5
pair_coeff 1 1*2 0.000 0.000
pair_coeff 2 2 0.21084 3.1668
bond_style  harmonic
bond_coeff  1 450 0.9572
angle_style harmonic
angle_coeff 1 55 104.52
kspace_style pppm/tip4p/omp 1.0e-5
pair_modify tail yes

thermo          ${out_freq}
thermo          1000
thermo_style    custom step temp pe etotal epair emol press lx ly lz vol pxx pyy pzz pxy pxz pyz enthalpy

restart 	${out_freq3} restart.lmp.${pid} restart2.lmp.${pid}
restart 	1000 restart.lmp.${pid} restart2.lmp.${pid}
restart 	1000 restart.lmp.0 restart2.lmp.${pid}
restart 	1000 restart.lmp.0 restart2.lmp.0


include         in.dump
dump            myDump all atom ${out_freq2} dump.water.${pid}
dump            myDump all atom 10000 dump.water.${pid}
dump            myDump all atom 10000 dump.water.0
dump            myDump2 all dcd ${out_freq2} dump.dcd
dump            myDump2 all dcd 10000 dump.dcd
dump_modify     myDump append yes
dump_modify     myDump2 append yes


variable natoms 	equal  "count(all)"                        # NUMBER ATOMS
variable H      	equal  "enthalpy/v_natoms"                 # ENTHALPY-per-atom
variable Vol      	equal  "vol/v_natoms"                 # volume-per-atom
fix AVG all 		ave/time ${out_freq} 1 ${out_freq} v_Vol v_H file vol_enthalpy.dat
fix AVG all 		ave/time 1000 1 ${out_freq} v_Vol v_H file vol_enthalpy.dat
fix AVG all 		ave/time 1000 1 1000 v_Vol v_H file vol_enthalpy.dat


timer           timeout 02:55:00 every 1000
New timer settings: style=normal  mode=nosync  timeout=02:55:00

fix 		1 all shake 1e-6 200 0 b 1 a 1
Finding SHAKE clusters ...
       0 = # of size 2 clusters
       0 = # of size 3 clusters
       0 = # of size 4 clusters
     324 = # of frozen angles
  find clusters CPU = 0.000 seconds
fix             2 all nph aniso ${pressure} ${pressure} ${pressureDamp}
fix             2 all nph aniso 1750 ${pressure} ${pressureDamp}
fix             2 all nph aniso 1750 1750 ${pressureDamp}
fix             2 all nph aniso 1750 1750 1000
fix             3 all temp/csvr ${temperature} ${temperature} ${tempDamp} ${seed}
fix             3 all temp/csvr 255.7 ${temperature} ${tempDamp} ${seed}
fix             3 all temp/csvr 255.7 255.7 ${tempDamp} ${seed}
fix             3 all temp/csvr 255.7 255.7 100 ${seed}
fix             3 all temp/csvr 255.7 255.7 100 745823


run             250000
PPPM initialization ...
  extracting TIP4P info from pair style
  using 12-bit tables for long-range coulomb (../kspace.cpp:340)
  G vector (1/distance) = 0.37165562
  grid = 24 24 25
  stencil order = 5
  estimated absolute RMS force accuracy = 0.0034998423
  estimated relative force accuracy = 1.0539671e-05
  using double precision FFTW3
  3d grid and FFT values/proc = 3458 576
Last active /omp style is kspace_style pppm/tip4p/omp
Neighbor list info ...
  update every 1 steps, delay 7 steps, check yes
  max neighbors/atom: 2000, page size: 100000
  master list distance cutoff = 10.8154
  ghost atom cutoff = 10.8154
  binsize = 5.4077, bins = 4 4 4
  1 neighbor lists, perpetual/occasional/extra = 1 0 0
  (1) pair lj/cut/tip4p/long/omp, perpetual
      attributes: half, newton on, omp
      pair build: half/bin/newton/omp
      stencil: half/bin/3d
      bin: standard
Setting up Verlet run ...
  Unit style    : real
  Current step  : 1250000
  Time step     : 2
  Walltime left : 2:54:59.93
Per MPI rank memory allocation (min/avg/max) = 10.19 | 10.19 | 10.20 Mbytes
Step Temp PotEng TotEng E_pair E_mol Press Lx Ly Lz Volume Pxx Pyy Pzz Pxy Pxz Pyz Enthalpy 
 1250000    264.30551   -4674.7075   -4164.9721   -4674.7075            0    2221.0049    20.068956    20.158805     21.13065    8548.7465    4379.8559   -438.80336    2721.9621     142.1051    139.84733   -1262.1973    -3888.069 
 1251000    261.23959   -4713.5324   -4209.7099   -4713.5324            0    2748.6279    20.331007    19.861998     21.16149    8545.3149    1284.0078    4796.6157    2165.2604   -570.87097    194.35698   -578.28693   -3867.1631 
 1252000    258.24877   -4686.8871   -4188.8327   -4686.8871            0    3502.5154    20.206824    20.043086    20.949722    8484.7864    4669.7402    1721.6041    4116.2019   -326.97579    577.24665    937.01039   -3755.4247 
 1253000    254.40088   -4702.5613   -4211.9278   -4702.5613            0   -110.29804    20.326075    20.305972    20.889774    8622.0601    -336.0455   -1725.0454    1730.1967   -270.71385   -26.266026   -656.48044   -4225.7971 
 1254000    246.22286    -4720.283   -4245.4215    -4720.283            0    1222.3106    20.171742      20.1755    20.884461    8499.4528    2701.2379   -584.98984    1550.6836    131.00171   -1680.3852    435.01859    -4093.909 
 1255000    258.26898   -4693.2785    -4195.185   -4693.2785            0    2246.1997    20.183892    20.068489    21.026282    8516.9102    1688.9138    2614.6425    2435.0427    485.22499    1714.5921    375.64023   -3916.1836 
 1256000    267.57845    -4696.153   -4180.1054    -4696.153            0      526.544    20.507388    19.987971    21.219821    8698.0276   -792.57793    1178.2178    1193.9921   -106.19382   -757.42655   -150.26231   -4113.3124 
 1257000    262.11751   -4701.2056   -4195.6899   -4701.2056            0    805.05735    20.106878    20.057439     21.29603    8588.5287    1905.7304   -417.62713    927.06883   -587.89471    481.03458    114.80672   -4094.8526 
 1258000    256.19229   -4683.1143   -4189.0259   -4683.1143            0    1973.0227    20.114914    20.235009     21.09955     8588.054    1963.0056    420.03072    3536.0318   -405.78234     109.1854   -1992.0205   -3941.9088 
 1259000    260.83752   -4677.0782   -4174.0311   -4677.0782            0    1891.0107    20.155998    20.096817     21.26157    8612.4538    1851.5205    2216.5064    1605.0052   -923.95494    195.38264    100.76564    -3936.513 
 1260000    258.73105   -4683.7975   -4184.8129   -4683.7975            0    2205.0639    20.279602    20.021514    21.238668    8623.5008    669.82015    3569.9164    2375.4552   -1240.5068   -208.26757   -556.42608   -3907.4932 
 1261000    256.09234   -4699.1763   -4205.2807   -4699.1763            0    2104.1702     20.07648     20.07679    21.051776    8485.3659    1587.0392    3213.7531    1511.7182   -89.588558    110.71751    1374.7412   -3944.8889 
 1262000    266.07135   -4663.3765   -4150.2356   -4663.3765            0    1735.0321    20.161441    20.313943     20.97948    8592.3215    2204.6855    781.75273    2218.6582    318.65176    639.52402    -203.7281   -3932.8184 
 1263000    261.36527   -4657.8238   -4153.7589   -4657.8238            0    2817.4038    20.253018    20.251604    20.716057    8496.8172     3263.486    2050.6738    3138.0516    209.24125    520.58018    144.16675   -3804.6337 
 1264000    264.60126   -4722.8388    -4212.533   -4722.8388            0    1746.2077    20.132363    20.205388    20.977602    8533.3152    994.89447    1463.0218    2780.7069   -536.27825    539.02579    246.93021   -3995.2181 
 1265000    260.63117   -4706.5938   -4203.9446   -4706.5938            0    1145.7125    20.152839    19.935936    21.226056    8527.9013    926.73913     2572.309    -61.91058    292.44473   -769.74639   -666.48316   -4061.4516 
 1266000    251.63772   -4678.4547   -4193.1502   -4678.4547            0    2176.0188    20.254469    20.069566    21.272217    8647.1223    1364.2578    2399.8769    2763.9217    69.478584   -232.31804   -1447.4868   -3918.7337 
 1267000     255.0858    -4697.012   -4205.0576    -4697.012            0    799.34534     20.07154    20.209808    21.067448    8545.8409    516.86772    1017.8958     863.2725   -358.82978    23.566896    434.90989   -4105.4333 
 1268000    242.62796    -4693.911   -4225.9825    -4693.911            0    1432.5639    20.092831    20.128252     21.02001    8501.1974    1477.8373    2104.3196     715.5349   -235.96888   -76.561999   -762.46282   -4048.3715 
 1269000    250.95809   -4688.3091   -4204.3153   -4688.3091            0    1471.8976    20.293095    20.023926    21.079618    8565.6485    4.6516526    2366.3046    2044.7366    -577.5812    661.27454     2.427142   -4020.4441 
 1270000    250.10458   -4692.3825   -4210.0348   -4692.3825            0    1429.6249    20.057372    20.279317    21.042734     8559.128    2498.2155    200.70283    1589.9563   -47.223187   -1327.4722   -801.30584   -4031.5803 
 1271000    252.06136   -4706.6417   -4220.5202   -4706.6417            0    450.39678    20.431918    20.282912    20.753664    8600.7084    -168.6727   -1235.2259     2755.089    256.21288   -1529.6054   -202.81233   -4164.0258 
 1272000    255.06138   -4695.4621   -4203.5547   -4695.4621            0    2136.1561    20.172914    20.101394     20.93797    8490.4243    2098.2292    2697.1873    1613.0516    340.93273   -527.15657   -243.43408   -3939.0471 
 1273000    243.61075   -4700.5214   -4230.6976   -4700.5214            0     694.0497    20.250499    20.178957    21.030544    8593.7944    1290.7353   -49.300158    840.71394   -16.577898   -251.11954    750.24315   -4143.7112 
 1274000    268.98265   -4668.1553   -4149.3996   -4668.1553            0    686.50237    20.279487     20.05446    21.106693    8583.9691   -615.71546     3566.739   -891.51642   -126.11602    1047.1748    488.44769   -4063.4575 
 1275000    279.14813   -4701.1645   -4162.8039   -4701.1645            0    1102.5246    20.039738    20.160139    21.257188    8587.9873     789.1781     2098.368    420.02772   -187.44584   -893.00758   -1680.5793    -4024.716 
 1276000    271.47936   -4689.3471   -4165.7763   -4689.3471            0    578.73763    20.030588    20.200591    21.312709    8623.7554    2401.2952   -658.62935   -6.4529795   -34.236416   -1559.3794    813.84084   -4092.9893 
 1277000    276.65255   -4692.5901   -4159.0423   -4692.5901            0     3452.979    20.140454    19.939079    21.352711    8574.8663    3580.0388    5018.9596    1759.9384   -7.9605204    576.25389   -484.03753   -3727.2279 
 1278000    247.95642   -4692.8334   -4214.6286   -4692.8334            0    1182.9937    20.070361    20.293286    21.150379    8614.4133    1543.0853    1369.1572    636.73856     157.6209    713.85435   -1191.4048   -4066.0063 
 1279000    264.25299    -4706.589   -4196.9549    -4706.589            0    2187.6071    20.252746    19.933224     21.09755    8517.1342    1600.7661    2299.2731    2662.7821   -403.37819    402.18289   -135.77964   -3925.2242 
 1280000    255.41203   -4671.2899   -4178.7063   -4671.2899            0    480.16325    20.211757    20.278811    21.215382    8695.5572    462.31727   -156.25522    1134.4277     217.5953   -1152.9424   -139.19187    -4117.814 
 1281000    259.29924   -4665.3185   -4165.2381   -4665.3185            0     1927.089    20.104335    20.247284    20.993451     8545.556      1390.78    2461.5836    1928.9034    360.37519    41.650957     252.1928   -3925.0685 
 1282000    263.08796   -4693.0698   -4185.6826   -4693.0698            0    2120.8391    20.354303    20.107826    20.760598    8496.9143    1905.6531    1176.1292     3280.735    70.070928    525.34242   -1525.5283   -3922.8708 
 1283000      259.535   -4695.5676   -4195.0326   -4695.5676            0    1406.5763    20.324172     20.09501    21.042969    8594.2522    166.94421    2855.3847    1197.4002    570.77987    231.17371   -495.53446   -4018.7346 
 1284000    263.27977   -4719.8207   -4212.0635   -4719.8207            0    1171.8829    20.170169    20.053458    21.137669    8549.7988    1610.9027    422.06811     1482.678    563.26022   -266.61932   -125.85291   -4065.9414 
 1285000    237.56947    -4705.696   -4247.5233    -4705.696            0    1692.4357    20.127993    20.101105    21.018165    8503.8423    2153.9536    565.87135    2357.4822   -919.28411    1318.4033    132.75683   -4037.6278 
 1286000    252.61495   -4720.3843   -4233.1951   -4720.3843            0    1281.1873    20.291331    20.003829    20.977012    8514.6593    310.81473    1190.7103     2342.037   -613.37463   -478.50738   -398.28124   -4074.1004 
 1287000    254.98959   -4698.8241   -4207.0553   -4698.8241            0    169.93736    20.233102    20.203003    21.098561    8624.4465    619.12389     108.6541    -217.9659   -168.63122     285.0757   -58.812815   -4185.6808 
 1288000    263.78447   -4689.2516   -4180.5211   -4689.2516            0    2513.2159    20.214567     20.02788    21.063597     8527.701    2672.7995    2178.2385    2688.6097    216.45838    1994.6023    1393.9993    -3867.958 
 1289000    248.34281    -4700.732    -4221.782    -4700.732            0    1067.0302    20.281552    20.113874    21.182413    8641.1657    1139.2287    262.91505    1798.9469    -298.7794    1400.0322   -968.46888   -4087.3121 
 1290000    252.56339   -4691.4288   -4204.3391   -4691.4288            0    3121.4163    20.052397    20.290747    20.839181    8479.0065    3547.3939    2345.3301    3471.5249   -519.81007     1823.598   -2054.4631   -3818.3522 
 1291000    269.09153   -4716.5539   -4197.5882   -4716.5539            0    1113.1476    20.324249    20.143721    20.887562    8551.4933    586.06709    1951.7057    801.66985   -599.13979   -309.84827   -2352.1598   -4058.7623 
 1292000    262.81751   -4716.9756   -4210.1099   -4716.9756            0    1733.0884    19.926161    20.360973    20.929436    8491.4078    4355.1382   -2124.2496    2968.3768   -34.861671    965.92726   -189.74407   -3995.4869 
 1293000    271.61106   -4705.9943   -4182.1695   -4705.9943            0    1840.4428     20.22525    20.071196    21.088092    8560.6046    2205.4409     2114.081    1201.8066    19.109461     343.9279     260.9697   -3952.3945 
 1294000    249.31512    -4712.013   -4231.1878    -4712.013            0    2095.9836    19.919859    20.244077    21.093501     8506.147    3460.5923    1451.1832    1376.1754    -330.6961   -524.72835    -376.7514   -3971.1738 
 1295000    258.97842   -4734.9952   -4235.5336   -4734.9952            0    1842.2341    19.844255    20.241341    21.132785    8488.4971    3934.4465   -336.42702    1928.6828    302.64733    1130.8491   -1293.8207   -4007.4723 
 1296000    254.35915   -4704.7307   -4214.1777   -4704.7307            0    3027.7683     20.15382    20.175915    20.931462    8511.1881    2776.1234    4303.1043    2004.0771   -781.99309     535.7254   -385.00787     -3838.35 
 1297000    250.96538   -4687.3307   -4203.3229   -4687.3307            0    2244.6411    20.208515    20.187042    20.824207    8495.2384    3326.6168    2022.5252    1384.7813    284.27493   -797.34792    528.05634   -3925.2245 
 1298000    242.78248   -4691.6792   -4223.4528   -4691.6792            0    1314.0856    20.246601    20.105291    20.921721    8516.4753    1616.6131    1331.8208    993.82305   -135.26751    -1009.857   -1295.1132    -4060.238 
 1299000    254.28925   -4682.8173   -4192.3991   -4682.8173            0    21.241987    20.060537    20.235335    21.269788    8634.0804    1679.0293   -1339.8563   -275.44703    500.67814    314.42868     749.8714   -4189.7243 
 1300000    248.29953   -4699.3597   -4220.4931   -4699.3597            0    1173.2532    20.212619    20.073943    21.025926    8531.2056    1290.6616    750.11341    1478.9847    31.184657    1057.4021    314.08346   -4074.5183 
 1301000     277.6029   -4662.2125    -4126.832   -4662.2125            0    701.65065    20.450958    20.164178    20.880078    8610.4589   -117.27511    505.68514    1716.5419    934.20423   -390.26874   -358.09958   -4038.7224 
 1302000    251.04587   -4706.5276   -4222.3645   -4706.5276            0    2059.1495     20.08994    20.158894    21.085213     8539.321    3602.0825    757.12514    1818.2409    157.25253   -311.64901   -117.69785   -3965.9237 
 1303000    243.45663   -4710.6628   -4241.1362   -4710.6628            0    2847.3419    20.030569    20.121473    21.225052    8554.6413    4482.4995    2271.1841    1788.3421     70.26724   -366.56459    63.756332   -3885.8999 
 1304000    257.53906   -4666.3999   -4169.7141   -4666.3999            0     1755.737    20.323677    20.016469    21.166624    8610.7573    662.78255    3158.7486    1445.6798   -479.68239    1007.9745   -1376.7076   -3949.2303 
 1305000    252.99632   -4677.7153   -4189.7906   -4677.7153            0     2450.571    20.203514    20.160959    20.869359    8500.5538    1851.4419    2182.2197    3318.0515   -193.16946    1325.8549    817.72614   -3885.9888 
 1306000    257.44801   -4653.1313   -4156.6212   -4653.1313            0    2392.2865    20.032703    20.352483    20.998663    8561.4748    2736.9039    920.73284    3519.2228    468.90598   -258.89006    111.35464   -3857.9195 
 1307000    246.49021   -4713.1809   -4237.8038   -4713.1809            0    446.35571     20.20179    20.225271    21.146293    8640.0937    853.96795    540.10609   -55.006909   -385.96681     373.3378    183.13132   -4181.5599 
 1308000    258.48595   -4685.9656   -4187.4537   -4685.9656            0    2487.5446    19.951496    20.090314    21.269571    8525.5207    1853.3528    3327.4965    2281.7845   -411.79161    210.66021    843.87895   -3878.1625 
 1309000    260.45481    -4707.815    -4205.506    -4707.815            0    1544.8584    20.153496    20.133387    21.108957    8565.1308    1359.8656    1590.6721    1684.0376    107.92846    407.03965    615.08922   -4012.5321 
 1310000    260.45679    -4701.037   -4198.7241    -4701.037            0    3107.8042    20.175357    20.069452    20.972396    8491.8989    2385.6471    4243.6088    2694.1567   -168.18515     999.4113    471.21738   -3813.8362 
 1311000    257.60921   -4686.9317   -4190.1107   -4686.9317            0    1806.1546    20.093069    20.238552    20.878732    8490.4331    2610.4684    1553.2322    1254.7632    477.57964    889.94575    60.965182   -3966.4649 
 1312000     272.9486   -4686.0398   -4159.6355   -4686.0398            0     1100.593    20.108553    20.331367    21.062039    8610.8854    171.12261    2185.8467    944.80967    51.455132     -202.148   -393.49583    -4021.422 
 1313000    267.43722   -4691.8943   -4176.1191   -4691.8943            0    2615.0966    20.264532    19.915958    21.331732    8609.2218    1848.2232    3998.6432    1998.4234    27.129358     1238.784     92.33243   -3847.7763 
 1314000    251.23901   -4680.1963   -4195.6607   -4680.1963            0    2264.9751    20.069584    20.262747     21.10882    8584.2159    2161.3612    2300.2361     2333.328   -600.39588   -1756.1161    748.44415    -3912.104 
 1315000     253.9441   -4701.5645   -4211.8119   -4701.5645            0    1508.3119    20.100021    20.431009    20.797276    8540.6862     2459.937   -1356.0031    3421.0018   -435.60576    61.758767    -31.97407   -4023.9409 
 1316000    245.62926    -4626.264   -4152.5473    -4626.264            0    2295.7305    20.229101    20.185689    21.089512    8611.6562    2548.6618     2678.499    1660.0307   -261.37823   -460.05894   -1683.9209   -3864.2215 
 1317000    245.88236   -4687.5853   -4213.3805   -4687.5853            0    610.98628     20.32509    19.945681    21.254077    8616.3552    863.27393      1538.94   -569.25511   -143.72667    887.56969   -494.77079   -4136.6035 
 1318000    260.62083   -4709.5877   -4206.9585   -4709.5877            0    1132.5962     20.21776    20.119312    21.243336    8641.0968    2344.6626   -200.34257    1253.4685   -608.07419    631.65555   -1346.0165    -4064.227 
 1319000    255.97748   -4729.7203   -4236.0462   -4729.7203            0    2424.9251    20.160056    20.072404    20.889485    8453.1558    4249.3945   -67.950644    3093.3315   -15.626393    -599.6461   -351.53923   -3937.0999 
 1320000     249.3353   -4671.3558   -4190.4917   -4671.3558            0    559.97838    20.356929    20.225395    20.972952    8635.1289   -455.89514    1087.6561    1048.1742     70.43196    728.67338   -695.64145   -4119.9711 
 1321000    247.78722   -4672.2617   -4194.3832   -4672.2617            0    2770.0727    20.437892    20.022984    20.930293    8565.2534    2307.8108    2875.9172      3126.49   -589.92186   -771.32331   -1331.7548   -3848.3584 
 1322000     278.4978   -4674.3712   -4137.2648   -4674.3712            0    1985.5605    20.112323    20.120817    21.205634    8581.4191    1009.7566    2998.4244    1948.5004   -268.60685    783.75665   -699.55982   -3888.7695 
 1323000    253.69214   -4730.9096    -4241.643   -4730.9096            0    196.84243    20.184877    20.401659    21.048745    8667.9781    -1154.833    615.88602    1129.4742    35.315895    291.12889    391.50647   -4216.7595 
 1324000     236.0593   -4675.1482    -4219.888   -4675.1482            0    4209.8289    20.004019    20.090404    20.926568    8410.1538    4301.2444    4361.1083     3967.134    565.58673    1340.3277   -1670.4732   -3703.5379 
 1325000    256.84097   -4704.5183   -4209.1789   -4704.5183            0    848.14674    20.118412    20.450081    20.877601    8589.5287   -363.71129    796.03446    2112.1171    22.250206   -544.32293    885.56991   -4102.9321 
 1326000    260.22465   -4704.3758   -4202.5107   -4704.3758            0     2510.975    20.112664    20.191638    20.760712    8431.0832    2591.7962    2069.7713    2871.3575    555.00101    48.914448   -264.00345   -3893.7645 
 1327000    244.48105     -4717.49   -4245.9878     -4717.49            0    178.12374    20.242755    20.082374    21.161939    8602.8058   -708.33061    305.00396    937.69788   -160.61839   -1640.3295    391.18608   -4223.6398 
 1328000    274.84082   -4690.6961   -4160.6425   -4690.6961            0    2686.4343    19.879109    20.211529    21.232699    8531.0266    3465.8051    3343.9136    1249.5841    220.65912   -241.00327   -986.74128   -3826.4063 
 1329000    245.41619   -4698.6549   -4225.3491   -4698.6549            0    82.326703    20.334976    20.068555    21.073291    8599.8751    1095.3947   -950.24891    101.83434    -107.1329   -760.20259      1352.54   -4215.0237 
 1330000    258.08068    -4676.212   -4178.4817    -4676.212            0    2375.6852    20.025309    20.272898    20.993886    8522.9096    3165.9231    727.27543    3233.8572     21.94075    457.81034   -735.06798    -3883.189 
 1331000    263.65232   -4697.0653   -4188.5896   -4697.0653            0    2445.0504    20.390959    19.906664    20.977811     8515.228    500.56263    4101.3736    2733.2149   -1005.8205     391.6019      1054.91   -3884.9489 
 1332000     250.5073    -4709.376   -4226.2516    -4709.376            0     1348.601    20.139069    20.150682    21.069688    8550.4161    1916.4974    939.53714    1189.7685     -541.511    985.35697    149.64367   -4058.0824 
 1333000    260.32938   -4694.2301    -4192.163   -4694.2301            0    1140.8599    20.131194    20.278294    21.113026    8618.8918    283.09942     1621.709    1517.7711    -707.9667   -412.61351    159.89074   -4048.7595 
 1334000    256.24489   -4652.2599   -4158.0701   -4652.2599            0    2195.6756    20.240018    19.966913    21.163941     8552.998    1947.6974    3491.5292    1147.8002    944.20636    443.87714    667.63587   -3884.1888 
 1335000    250.71095   -4705.9524   -4222.4352   -4705.9524            0    3180.6966    20.027059    20.432712    20.903939    8554.0409    5160.8009    414.70623    3966.5826    261.59824   -224.44894    253.73951   -3825.6372 
 1336000    248.28906    -4683.517   -4204.6707    -4683.517            0    2183.1375    20.122293    20.189943    20.889686    8486.8103    1539.9568    3307.1423    1702.3134    114.23561     626.8474    1171.5183   -3934.4607 
 1337000    249.97756    -4705.172   -4223.0692    -4705.172            0    2485.2311     20.33526    19.987532    20.938807     8510.613     3736.151     1476.811    2242.7313    -776.2885   -205.88487   -484.67111   -3914.6059 
 1338000    254.36616   -4695.5344   -4204.9679   -4695.5344            0    2332.4725    20.080652    20.339743    20.838714    8511.2664    1741.2687    3326.0784    1930.0704    16.673669   -70.229428    -243.7549   -3915.4425 
 1339000    235.77424   -4703.1619   -4248.4515   -4703.1619            0    1555.7294    20.171069    20.295026    20.810146    8519.0988    4309.2983   -351.86035    709.75027   -655.21967    187.45379   -273.54217   -4055.1641 
 1340000    262.35497      -4728.6   -4222.6264      -4728.6            0    2050.4593    20.065969    20.110363    21.003995    8475.8246    1863.4474    1979.2738    2308.6568   -706.68339   -199.44746   -1006.5431   -3969.1666 
 1341000    263.01184   -4719.9869   -4212.7465   -4719.9869            0     1008.819    20.191659    20.330677    20.949022     8599.785    241.92859    1234.2209    1550.3076   -176.70368   -744.24279   -1035.5202   -4086.2214 
 1342000    250.70514   -4691.0068   -4207.5009   -4691.0068            0    3736.1077    20.009951    20.174715    21.015025    8483.6617    4436.0128    3181.8571    3590.4531   -651.79815    1415.6148    1171.1146   -3745.2491 
 1343000    258.58005   -4680.5381   -4181.8447   -4680.5381            0    1106.0248    20.309106    20.016133    21.195815    8616.3057    912.78754    2064.2584    341.02852   -115.96637   -368.96604    1340.9316   -4042.8616 
 1344000    264.77555   -4718.8979    -4208.256   -4718.8979            0    3468.3274    20.099959    19.961144    21.161746    8490.4774    2340.2982    4500.8412    3563.8427    63.026958   -1425.4662    -1373.005   -3778.7907 
 1345000    238.66671   -4701.7204   -4241.4316   -4701.7204            0    3905.2617    20.119404    20.042114    21.113986    8513.9064    2395.3611    5153.2636    4167.1605    891.29757   -64.397803     173.9332   -3756.5286 
 1346000    259.68183   -4689.5607   -4188.7425   -4689.5607            0    2929.4702    20.365987    19.932323    20.918238    8491.5797    2651.0746    2937.0817    3200.2544   -477.98707    895.41769    567.70728    -3825.954 
 1347000    261.36824   -4707.6561   -4203.5854   -4707.6561            0     1990.707    20.191373    20.156973    21.071391    8575.9918    2219.7883    2033.0621    1719.2706   -493.79996    1203.8458   -924.45565   -3954.6036 
 1348000    264.98825   -4711.5401    -4200.488   -4711.5401            0     2626.464    19.970422    20.253561    21.068497    8521.6205     1887.425    3106.0805    2885.8863   -798.86174   -26.240879    -14.05434   -3874.0734 
 1349000    258.23386   -4706.0272   -4208.0015   -4706.0272            0    644.75203    20.363796    19.941167    21.065872    8554.3843   -288.15323     52.83355    2169.5758    265.85898     1221.725    275.40516   -4127.5642 
 1350000    259.48029   -4701.3756    -4200.946   -4701.3756            0    1932.0359     20.13476    20.229803    21.020936    8562.2945    2661.2687    1193.9537    1940.8852   -953.78103   -138.57309    606.96207   -3959.6883 
 1351000    247.05072   -4718.8607   -4242.4026   -4718.8607            0    2286.7035    20.352269    20.176697    20.609719    8463.2071    2519.5291    1599.4269    2741.1546    745.78718   -824.91633    596.86061   -3960.1612 
 1352000    247.93115   -4682.2398   -4204.0837   -4682.2398            0    282.61375    20.244238    20.231323    21.035915    8615.6313    1837.9861   -867.36028   -122.78454   -700.57204    301.39497   -1115.1864   -4168.5733 
 1353000    252.80634    -4679.398   -4191.8397    -4679.398            0    2715.9251    20.110103    19.994775    21.214497     8530.285    3405.7796    3232.1456    1509.8499    -316.5814   -269.62013    1623.1689   -3853.9638 
 1354000    264.02925    -4696.977   -4187.7744    -4696.977            0    1813.1972    20.042628     20.19677    21.164599    8567.3522    2077.7158    1122.5979    2239.2777   -5.0217853   -1572.3262    657.85168   -3961.2226 
 1355000    271.52498   -4679.5842   -4155.9255   -4679.5842            0     3028.492    20.188345     20.07017    21.106517    8552.0129    1653.2139    4047.4561    3384.8059    212.66254    1706.6661   -360.93444   -3778.2049 
 1356000    249.68104   -4712.7559    -4231.225   -4712.7559            0    1866.5591    20.214689    20.057522    21.097928     8554.293    1887.7112    2470.7183    1241.2478   -433.65244   -1568.6851    921.77485   -3998.3613 
 1357000    264.92696   -4707.6375   -4196.7036   -4707.6375            0    3331.1983    19.887523    20.222791    21.005309    8447.9406    5572.3285     1787.546    2633.7203   -14.956704    583.33198    726.78041   -3786.2848 
 1358000    263.86442   -4681.3578   -4172.4731   -4681.3578            0    1600.8316    20.139843    20.203207    20.985618    8538.8261    905.28782    2082.3524    1814.8544    -316.1408    -137.2251   -100.12555   -3973.1215 
 1359000     258.1103   -4703.8752   -4206.0878   -4703.8752            0    1110.0132     20.24381    20.002239    21.260149    8608.6916    2366.2968     638.3804    325.36239     179.7973    28.025739    174.16842   -4066.7268 
 1360000    262.56811   -4677.7907    -4171.406   -4677.7907            0    2641.3707    20.266328    20.028889    21.136545    8579.5779    1397.4961    3027.9953    3498.6208   -746.52816    1886.3928   -295.34265   -3840.9062 
 1361000    262.02769   -4679.1646   -4173.8222   -4679.1646            0     1830.624    20.128426    20.204059    21.113156    8586.2116    1108.7724    3080.6636    1302.4358    80.346759   -308.58974    -1285.326   -3944.5894 
 1362000    253.57503   -4674.1033   -4185.0625   -4674.1033            0     869.6213    20.378692    20.039681    20.890592    8531.3518    1330.0924    457.34669    821.42475   -492.04302   -478.22235    874.52414   -4076.8633 
 1363000    253.48118   -4719.6075   -4230.7477   -4719.6075            0    2234.1686    20.081319    20.169749    20.938546    8480.8476    2771.7884     2075.705    1855.0125   -264.50466    797.93218    933.51156   -3954.4158 
 1364000    256.33182   -4683.7919   -4189.4344   -4683.7919            0    2028.8286    20.132588    20.272266    21.027778     8582.134     2419.829    1477.5072    2189.1495   -557.88117    1283.7304   -651.83633    -3935.503 
 1365000    261.79969   -4718.3977    -4213.495   -4718.3977            0    2185.6219     20.12842    20.189778    21.192222    8612.2718    3023.1654    1629.1691    1904.5313   -549.76731    474.73435    9.7923619   -3938.9783 
 1366000    248.22502   -4706.5799   -4227.8571   -4706.5799            0    789.95841    20.155164    20.285828    21.001507    8586.7639    646.19883    1485.5859    238.09053    513.45005   -151.01092     1415.257   -4128.9312 
 1367000     254.7339   -4733.4994   -4242.2237   -4733.4994            0    2103.0786    20.180191    20.172933    20.814986    8473.6484    3727.6935    1311.9295    1269.6127    496.29398   -873.76724   -185.31552   -3982.3263 
 1368000    239.23023   -4683.7059   -4222.3302   -4683.7059            0    1843.1306    20.227811    20.074041    21.168774    8595.6637    2022.8008    1954.7891    1551.8019    251.24004    157.60987    521.55926   -3991.2773 
 1369000     247.7886   -4709.7968   -4231.9156   -4709.7968            0    2724.7685    19.915952     20.21802    21.121925    8504.9774    4568.4955    2538.7731    1067.0369     84.62275   -426.23537    425.27551   -3893.9452 
 1370000    263.51742   -4698.1484   -4189.9329   -4698.1484            0    1770.3905    20.240283    20.230914    21.053556    8620.9982    1682.0178    1200.0792    2429.0745    199.32248   -937.23207    451.98015   -3967.3445 
 1371000    244.28292   -4714.0202      -4242.9   -4714.0202            0    1406.3323    20.296417    19.918642    21.266266    8597.4636    477.23341    3599.5123    142.25123    483.91961    23.130398    220.89644   -4066.5668 
 1372000    265.23012   -4674.3159   -4162.7973   -4674.3159            0    953.12463    20.209217    20.224896    21.047088    8602.5616    1902.9354    176.94305    779.49539   -197.30124    1575.0731    1748.9124   -4043.2188 
 1373000    256.30677   -4700.7671    -4206.458   -4700.7671            0    2356.8845    20.092982    20.167726    21.035692    8524.2883    2893.6726    2761.6539     1415.327   -438.25424    1164.6812   -80.040121   -3913.4548 
 1374000    264.70897   -4700.6054   -4190.0918   -4700.6054            0     3417.104    19.868687    20.277157    21.100792    8501.0974    5781.0442    1714.4231    2755.8447    155.76294    175.83957   -1778.9009     -3766.44 
 1375000    254.68083   -4670.0699   -4178.8965   -4670.0699            0    1022.7199    20.184801     20.22589    21.302363    8696.8082    1267.8309     297.0268     1503.302      206.817    230.14764    294.06893   -4049.1808 
 1376000    242.27939   -4701.4134   -4234.1572   -4701.4134            0    460.75164    20.191708     20.17488    21.130527    8607.8431    288.43875    836.96916      256.847    691.26579   -651.19076   -436.82172    -4176.316 
 1377000    249.92222   -4699.0634   -4217.0674   -4699.0634            0    1334.6341      20.1993    20.198575    21.091755    8605.3747    991.30633    2407.8386    604.75742    -552.0943     944.3616    450.97158   -4049.5701 
 1378000    262.03878   -4724.9078    -4219.544   -4724.9078            0    3256.5323    20.145065    20.124371    20.858211    8456.0599    2658.8712    2796.9099    4313.8157    950.81487   -141.31396   -748.03726   -3817.9388 
 1379000      274.598   -4687.3102   -4157.7249   -4687.3102            0    1342.2582    19.845929    20.250838    21.309066     8564.043    3920.5868   -741.61915     847.8069   -459.77905    156.29104   -61.073833   -3990.0798 
 1380000    239.19687   -4708.5194   -4247.2081   -4708.5194            0    207.27662    20.298791    19.909812    21.149571    8547.4956    1271.6764   -481.26471   -168.58181   -1161.7327    562.56865    760.19763   -4221.3697 
 1381000     249.3748    -4720.501   -4239.5607    -4720.501            0    1929.1188    20.303506    19.973098    20.950062    8495.7511    1705.4863    2708.9471    1372.9229    765.71464    239.21599   -22.591916   -4000.5394 
 1382000     265.3942   -4676.9243   -4165.0893   -4676.9243            0    1536.1815    20.181826     20.35783    20.841881    8563.0574    2124.4193   -600.27299    3084.3981   -255.69935   -161.25614    298.26926   -3973.2457 
 1383000    273.93106   -4694.4166   -4166.1176   -4694.4166            0    1905.2414    20.267077    20.068349    20.863522    8485.7533     3042.734    1206.7137    1466.2767   -210.19748    1185.2139   -400.84093   -3930.3325 
 1384000    250.25338   -4708.2495   -4225.6148   -4708.2495            0    50.374867    20.179318    20.160661     21.23449     8638.793   -621.20431    945.78531    -173.4564     316.7566   -1061.1996    553.54549   -4219.2682 
 1385000     258.2647     -4701.58   -4203.4948     -4701.58            0    3951.9071    20.065453    19.967949    21.049799    8433.9375    4182.8081     4010.092    3662.8211   -167.18559    207.93685    1225.1396   -3717.4089 
 1386000    256.27089    -4682.387    -4188.147    -4682.387            0    2127.7905    20.284356    20.159468    20.892609    8543.4443    1217.6168    1766.4841    3399.2706    16.061752     151.0839    45.328056   -3923.0299 
 1387000    255.01268   -4718.6861   -4226.8727   -4718.6861            0     2179.615    20.307501    20.150221    20.886517    8546.7762    2133.7032    784.98313    3620.1587    78.235964   -76.732973    455.36326   -3955.1925 
 1388000    255.69841   -4713.0031   -4219.8672   -4713.0031            0    2523.2895    20.114851    19.956647     21.28027    8542.4317    2493.1568    3570.6626    1506.0491    615.95983   -1293.3193   -1152.1724   -3905.5092 
 1389000    244.30176   -4721.9854   -4250.8289   -4721.9854            0    264.95604    20.049135    20.314476    21.173057     8623.525   -401.20609    671.21392     524.8603    -111.9937   -190.99492    72.022029   -4217.5067 
 1390000    243.17317   -4660.9947   -4192.0148   -4660.9947            0    3046.0348    20.207281    20.092128     20.81799    8452.2552    3571.1442    3341.4437    2225.5165    624.83193   -455.45798    991.46803   -3816.5378 
 1391000    249.67977   -4696.8315    -4215.303   -4696.8315            0    2044.8902    20.272426     20.19363    21.059303    8621.1282    2274.5442    1555.3944    2304.7319    331.42518    1248.7119     74.00194   -3958.1983 
 1392000    253.81821    -4695.538   -4206.0282    -4695.538            0    526.00326    20.196622    20.044409     20.98036    8493.4658   -1069.1388    1749.9951     897.1535     109.4802   -688.46612   -102.35382    -4140.873 
 1393000    241.48513     -4677.99   -4212.2657     -4677.99            0    1479.0544    20.097561    20.040246    21.317868    8585.9861    1232.5129    2011.5045    1193.1457   -403.52441    -510.0109   -292.32573   -4027.0617 
 1394000    261.88647   -4708.4122   -4203.3421   -4708.4122            0   -48.137804    19.982135    20.200007    21.258021    8580.5723    1774.5989   -521.80133   -1397.2109    996.68373   -860.35599    526.74878    -4209.366 
 1395000    256.31367   -4698.8866   -4204.5641   -4698.8866            0    2226.7071    20.119507    20.204145    21.052278    8557.6973    365.20613     3720.032    2594.8831   -327.50293    117.22264   -749.17831   -3926.6594 
 1396000    257.11346   -4713.4408   -4217.5759   -4713.4408            0    1390.8982    20.423484    20.106456    20.725872    8510.9523    1286.7392    745.13348    2140.8221    210.44452   -215.55306   -1304.4114   -4044.9327 
 1397000    256.18795   -4724.1085   -4230.0285   -4724.1085            0    1034.5483    20.121645    20.220139    20.947747    8522.8521    603.81846    6.7251913    2493.1012   -652.93287    850.58985   -554.69578   -4101.4372 
 1398000    251.89589   -4712.4249   -4226.6225   -4712.4249            0    2114.5494    20.248963    20.025912    21.152658    8577.4865     1812.671    3071.8604    1459.1169    567.40832     755.4416    1114.0084   -3962.1054 
 1399000     256.1938   -4665.5335   -4171.4422   -4665.5335            0    1345.5141    20.156979    19.966902    21.465132    8639.1236    1942.2502     1726.398    367.89422   -227.99177   -98.305203   -470.06002   -4001.9172 
 1400000    255.30655   -4707.0465   -4214.6664   -4707.0465            0    2056.4327    20.045418    20.151333    21.052982    8504.1814    2935.1235    1446.7701    1787.4046   -505.31359   -381.11218    473.85792   -3959.6178 
 1401000    260.27965   -4662.3127   -4160.3415   -4662.3127            0    1467.7073    20.295231    20.061442    21.131874    8603.8767    1441.4757    3436.9141   -475.26786    185.83235    828.75993     1277.266   -3976.1755 
 1402000    259.67675   -4682.9124   -4182.1039   -4682.9124            0    699.09973     20.36187    19.973727    21.072897    8570.3986   -47.251969    2075.2765    69.274682   -609.69904    1079.8889   -1147.6831   -4094.7231 
 1403000    255.81154   -4695.6827   -4202.3286   -4695.6827            0    168.41121    20.301622    20.219406    20.845114    8556.6429     414.2898   -1054.7529    1145.6967   -282.93211    1754.6662   -923.56864   -4181.3126 
 1404000    261.92382   -4703.6817   -4198.5396   -4703.6817            0    2847.5431    20.258033    19.977486    20.913875    8463.9408     3856.101    3039.8614    1646.6669   -452.40696   -1083.1968   -408.06488   -3847.0448 
 1405000    254.37882   -4703.2911   -4212.7002   -4703.2911            0    1527.8788    19.987214    20.209267     21.18865    8558.6667    5682.8293   -1655.4616    556.26866    164.95275    359.69506   -292.77962   -4021.9913 
 1406000    246.23636   -4695.5631   -4220.6755   -4695.5631            0     317.6202     20.29792    20.148455    21.387457    8746.8651   -947.96121    1465.7909    435.03091   -270.56545   -724.33156   -743.37365   -4180.1586 
 1407000    275.49412   -4732.1606   -4200.8471   -4732.1606            0    2050.6039    19.914258    20.119735    21.258622    8517.6833     1810.056    3111.0028    1230.7529   -321.29395    59.116022     558.2721   -3946.1176 
 1408000    246.94404   -4719.6344    -4243.382   -4719.6344            0     1837.045    20.120409    20.099945     21.06597    8519.4812    730.93303     4056.153    724.04888   -462.05604    -243.6328    991.96613   -4015.1331 
 1409000    262.29984   -4734.1889   -4228.3216   -4734.1889            0    1505.1839    20.366979    20.235116    20.712806    8536.3312    2315.2556   -541.28131    2741.5774   -460.62469   -268.88527    -304.6955   -4040.9358 
 1410000    243.49202   -4662.5213   -4192.9265   -4662.5213            0    619.14252    20.059785    20.408759    20.803317    8516.7806    2292.5127   -1274.5228    839.43759    176.53406    425.59339   -406.83039   -4116.0237 
 1411000     261.1599   -4729.5036   -4225.8348   -4729.5036            0     2560.985    20.093651    20.126549    21.016271    8499.3132    1996.0456    2157.2626    3529.6468    302.44055     1958.656    254.17877   -3908.3911 
 1412000    258.16779   -4697.2512   -4199.3529   -4697.2512            0    1963.0395    20.034916    20.201504    21.301998    8621.6736    2155.3999    1914.4242    1819.2945   -38.306129   -1574.3992    447.49424   -3952.5238 
 1413000    255.38435   -4694.3248   -4201.7946   -4694.3248            0      3010.56    20.019281    20.209916    21.090504    8532.9646    3924.7425    1823.2596    3283.6777    14.960595   -658.49434    840.45109   -3827.1469 
 1414000    257.98982   -4712.7915   -4215.2364   -4712.7915            0    1882.0765    20.174365    20.066575    21.206121    8584.8828    2772.3512    2596.3116    277.56667    58.670989    1516.5612    -661.2394   -3979.5973 
 1415000    258.73528    -4714.445   -4215.4523    -4714.445            0    2839.6036    20.148254    20.174426    20.921646     8504.219    3158.4309    2444.9467    2915.4332   -490.80676   -265.86133    870.82915   -3863.2696 
 1416000    268.84866   -4708.7133   -4190.2161   -4708.7133            0    1444.8407    20.210226    20.171565    21.038899    8576.9673      1237.29     1157.792    1939.4402   -143.26866     343.9758   -789.18872   -4009.4864 
 1417000    265.49488   -4718.6693   -4206.6401   -4718.6693            0    2254.9902    19.907518    20.288447    20.949993    8461.5478    4017.3079   -507.93188    3255.5945     482.5548    503.98964   -224.46519   -3928.3675 
 1418000    265.95716   -4684.1209   -4171.2002   -4684.1209            0    2014.8898    20.105472    20.068876     21.21223    8559.0121   -1715.5116    4853.3154    2906.8656     61.24476    1258.0723    245.83224   -3919.6927 
 1419000    260.05378   -4669.0919   -4167.5563   -4669.0919            0    1888.2199    20.026827     20.28796    21.168936    8601.0121    1729.2503    1978.6378    1956.7715    102.77807   -358.27071   -134.83807   -3930.7037 
 1420000    264.17357   -4701.7158   -4192.2348   -4701.7158            0    1211.4592    20.271357    20.131796    20.963485    8555.1737    1412.3363    500.91629    1721.1248    43.282511   -1.9813877    346.57991    -4041.083 
 1421000     261.3284   -4683.0956   -4179.1018   -4683.0956            0    2112.1132    20.168975    20.256894    20.700789    8457.5308    1231.6068    2160.6836    2944.0491    -136.5363   -809.25673    637.25387   -3918.5845 
 1422000    247.94688   -4690.1233   -4211.9369   -4690.1233            0    1854.4249     20.31333    20.061446    21.018227    8565.2378    709.43514    3534.5616    1319.2779   -214.39038    2375.9718    1.4287208    -3980.291 
 1423000    248.54049   -4705.2421   -4225.9109   -4705.2421            0    2261.5493    20.066841    19.960376    21.047675    8430.4713    1812.0503    3272.0008    1700.5968   -374.33617    673.47308    31.531915   -3947.8539 
 1424000    259.79415   -4699.0412   -4198.0063   -4699.0412            0    2587.9724    20.103479    19.978838    21.285752    8549.2981    3618.9809    2869.3391    1275.5972    334.90126   -213.75343     828.0231   -3875.3308 
 1425000    256.71472   -4706.5149   -4211.4189   -4706.5149            0     1789.794    20.027691    20.226815    21.097326     8546.451    3085.2278    582.83342    1701.3209   0.26887586   -1304.1295    488.47344   -3988.3368 
 1426000    253.88151   -4709.0658    -4219.434   -4709.0658            0    1875.0567     20.32722    20.336875    20.734623    8571.5301    2836.9691    872.19524    1916.0057   -301.09198    -733.5943    266.42405   -3985.0388 
 1427000    248.48463   -4679.5007   -4200.2772   -4679.5007            0    1882.3606    20.189627    20.071717    21.098875     8550.118    1376.0674    2247.1813     2023.833    293.13783   -1202.2526    -444.0493   -3965.5568 
 1428000     250.6002   -4682.4499   -4199.1463   -4682.4499            0    2530.4814    20.190997    19.877399    21.349384    8568.4577    2429.3605    3346.3173    1815.7664    40.448824   -1173.3492   -262.13457   -3882.9319 
 1429000     264.1033   -4682.4321   -4173.0867   -4682.4321            0    1721.8659    20.208133    20.208454    21.016149    8582.4725    2037.9733    2345.6178    782.00682    1287.5349   -86.097113   -1166.4193   -3957.5666 
 1430000    251.04263   -4670.6901   -4186.5333   -4670.6901            0    1695.7822    20.152181    20.243841    20.906621    8529.0138    2745.3836    94.023628    2247.9394    -797.5414   -470.38421    52.886414   -3975.6001 
 1431000     249.7092   -4699.2382    -4217.653   -4699.2382            0    1661.1868    20.134833    20.314565    21.025532    8600.0811    2891.4657    898.97381    1193.1209    96.363602    208.28621   -230.35163   -4009.3013 
 1432000    252.56002   -4693.4031   -4206.3199   -4693.4031            0    1366.9001     20.02218    20.305795    21.039524    8553.9612    2040.8112    471.59927    1588.2898    121.62608   -1262.3966    351.25899    -4035.798 
 1433000    241.58396   -4698.5278   -4232.6128   -4698.5278            0     1998.375    20.206048    20.165083    20.825103    8485.3264    1385.1649    1579.3864    3030.5737   -183.75251    1159.3908    486.88043   -3985.3144 
 1434000    242.97634    -4703.599   -4234.9987    -4703.599            0    2049.6357    20.123325    20.332088    20.900402    8551.3829    2209.0451    1317.6685    2622.1936    133.78127   -111.98334    458.84677   -3979.3822 
 1435000    267.57289   -4696.2656   -4180.2288   -4696.2656            0    2290.8362    20.100585    20.035891    21.388643    8613.9149    1384.9294    2850.0482    2637.5311    664.23769    608.44364   -1086.6892   -3892.4422 
 1436000     244.5866   -4645.7784   -4174.0725   -4645.7784            0    1756.7891    20.046266     20.17183    21.189524    8568.4049    639.03043    3085.0342    1546.3027     269.1592   -129.35148    28.741329   -3954.5417 
 1437000    252.72825    -4702.852   -4215.4443    -4702.852            0    1452.2533    20.360167    20.166991    20.926923    8592.6638    687.89148    371.48692    3297.3814   -366.48921    467.14006   -1001.7016   -4033.4549 
 1438000    264.13266   -4703.3279   -4193.9258   -4703.3279            0    1412.4168      20.3984    20.054279    20.884049    8543.1467    238.43655    2174.1642    1824.6496   -308.02766   -146.48386    148.29645   -4017.9486 
 1439000    253.90903   -4720.4915   -4230.8066   -4720.4915            0    2770.8633    20.054366     20.11611    20.967319    8458.5488    4150.0335    2204.9327    1957.6236   -51.584978    518.86994    346.60959    -3888.995 
 1440000    274.63609   -4691.9265   -4162.2677   -4691.9265            0    1186.6989    20.262895    19.975642    21.221543    8589.7239    2096.1009    680.15809    783.83772    368.89859    1127.9201    563.31325   -4013.6072 
 1441000     244.6358   -4670.4915   -4198.6908   -4670.4915            0    1706.9717    20.263357    20.130694    21.150699    8627.6967    1165.1373    1345.9337     2609.844   -712.70992    631.65984    235.79394   -3983.9092 
 1442000    264.52737   -4696.1594   -4185.9961   -4696.1594            0    1816.1276    19.926205    20.261444    21.388019    8635.0636    3086.0971     1058.367    1303.9188    -14.87195    440.54453    889.89183   -3957.2847 
 1443000    263.71527   -4709.0182   -4200.4212   -4709.0182            0    2232.7714    20.151889    20.247155    21.027983    8579.8044     1357.542    2665.9619    2674.8103    790.30322    1291.8184   -47.577508   -3921.0397 
 1444000    270.58925   -4696.6521    -4174.798   -4696.6521            0    2209.0763    20.388194    19.873208    21.036069    8523.3699     1398.688    3646.2572    1582.2838   -658.50569    106.30663    -200.5695   -3900.1997 
 1445000    259.29473    -4696.575   -4196.5033    -4696.575            0    2797.0155    20.170547    20.091253    21.004891    8512.2647     2642.434    4053.8016    1694.8111    279.39876      177.786   -775.03256   -3849.2744 
 1446000    253.69276    -4688.591   -4199.3232    -4688.591            0    619.85234    20.091481    20.378157     21.09684    8637.6236     1479.659   -829.49531    1209.3933   -577.63472    1081.3448   -31.068191   -4121.2399 
 1447000    241.48054   -4662.3434   -4196.6279   -4662.3434            0    38.014414    20.378281    20.014029     20.91468    8530.0837   -1569.2456    1068.2828    615.00598   -119.92375      898.969   -535.59941   -4191.8988 
 1448000    248.10014   -4670.6438   -4192.1619   -4670.6438            0    431.61098    20.264193    20.139452    21.035877    8584.9464    1161.4674   -458.36151    591.72708   -251.96659    957.36505    1160.3915    -4138.123 
 1449000     271.7125    -4699.399   -4175.3786    -4699.399            0     2340.058    20.324763    19.690944     21.27339    8513.9034    2304.6236     2627.079    2088.4712   -203.92953   -145.37254     1646.604   -3884.8217 
 1450000    249.78443   -4692.3686   -4210.6383   -4692.3686            0   -14.212465    20.245267    20.129265    21.104867    8600.7047    45.720142    432.92826    -521.2858   -187.92174    877.78588    51.157173    -4212.421 
 1451000    261.42188   -4717.2461    -4213.072   -4717.2461            0   -629.64904    20.205673    20.235177    21.073392    8616.1801   -1943.6168   -402.65112    457.32079   -491.16547     54.59494   -158.49387   -4292.1926 
 1452000    259.66434   -4693.0766   -4192.2921   -4693.0766            0    1990.9453    20.170622    20.022613    21.219763    8569.9952    3247.0333    1338.9608    1386.8416    679.57565    1018.1744   -693.07199   -3943.4546 
 1453000    247.88562   -4708.2039   -4230.1356   -4708.2039            0    1237.9671    20.220908    19.894785    21.206028    8530.9864   -59.643967    2896.2743    877.27096    310.61699    565.51315    372.41064   -4076.1131 
 1454000    241.72411     -4700.04   -4233.8548     -4700.04            0    1638.5518    20.100808    20.313684    20.899546    8533.7336    952.06035    2198.5332    1765.0617   -169.94693    1350.7282   -1297.9014   -4029.9276 
 1455000    249.04187   -4715.5012    -4235.203   -4715.5012            0     1290.509    20.241758    20.222996    20.883522    8548.6487    1897.2917    263.30578    1710.9294    84.249794    404.11251     248.7856    -4074.311 
 1456000    252.65736   -4718.3861   -4231.1151   -4718.3861            0    2287.7286    20.065957    20.041721    21.131527     8498.177    2832.7764    2575.4372    1454.9723    233.85286    216.09494    1421.3891   -3947.5804 
 1457000    254.79179   -4703.0138   -4211.6264   -4703.0138            0    624.79829    20.200106     20.15629    21.343554    8690.2245     1750.448   -136.75056    260.69745    582.89052   -707.18326   -377.83491   -4132.4407 
 1458000    257.47365    -4683.864   -4187.3044    -4683.864            0    2653.9771    20.324028    20.016493    20.906011    8504.8954    3558.1728    1110.2416     3293.517   -25.442336   -503.38953    235.47636   -3858.1179 
 1459000    252.00127   -4700.9359   -4214.9303   -4700.9359            0    572.95111    20.232653    20.239439    21.041896    8616.6045    113.04634    805.24427    800.56271   -190.09487     388.7949    667.33423   -4142.9308 
 1460000    266.81494   -4688.0013   -4173.4262   -4688.0013            0    1327.4464    20.129592    20.251995    21.010138    8565.0855    1413.2539    1798.6954     770.3898    495.13287   -910.94981   -199.56664   -4007.6109 
 1461000    268.28218   -4718.1142   -4200.7095   -4718.1142            0    2508.3937    20.213362    20.225417    20.835942    8518.2262    1138.0327    4438.2012    1948.9472    176.51094   -148.36828   -377.89524   -3889.0928 
 1462000    256.29342   -4690.5177   -4196.2343   -4690.5177            0    1647.3995    20.196497    20.300962     20.91254    8574.3154     557.2058    1679.6272    2705.3654    -70.03382    900.13222    269.63624   -3990.2309 
 1463000    262.64123   -4673.4873   -4166.9616   -4673.4873            0    764.21336    19.988775    20.456819    20.836768    8520.2951    1856.6354   -647.79619    1083.8009   -488.87241    652.38419   -1083.9805   -4072.0006 
 1464000     259.5792     -4696.59   -4195.9696     -4696.59            0    1511.9852    20.141643    20.093427    21.104725    8541.3913    517.87012     2480.758    1537.3274   -52.544492    1164.5545    378.89511   -4007.6255 
 1465000    237.25625   -4709.6475   -4252.0789   -4709.6475            0    1781.1868    20.156415    20.160971    21.007068    8536.7028    1150.4078    2271.0811    1922.0715    552.12819    510.44142   -321.32913   -4030.3228 
 1466000    255.92363   -4711.3375   -4217.7672   -4711.3375            0    2275.1102    19.924495    20.410896    20.943621    8517.2848    2860.9374     467.7475    3496.6458    576.55094    -167.5686   -718.60383   -3935.1624 
 1467000    246.88485   -4724.3224   -4248.1842   -4724.3224            0    1088.1541    20.395253    20.010746    20.945347    8548.3035   -2324.7449    2823.3553    2765.8518    1008.7189   -505.88387    311.72763   -4112.5259 
 1468000    269.73296   -4700.9294   -4180.7267   -4700.9294            0    2342.7218    20.053075    20.159674     20.99299    8486.6988    2656.8692    1880.3721    2490.9242    622.89649   -1742.5208    450.36558   -3890.7685 
 1469000    252.62201   -4683.9587   -4196.7559   -4683.9587            0    3397.6435     20.12523    20.121696    21.045615    8522.5009    2995.7342    4013.2654     3183.931   -335.22629   -293.53773    216.62096   -3774.4562 
 1470000    238.50888   -4693.5023   -4233.5179   -4693.5023            0    3878.6489     20.27502    20.033784    20.868099    8476.3164    4031.1345    3243.3722      4361.44   -53.671126    1289.3275   -645.51689   -3754.0456 
 1471000    258.95152    -4708.221   -4208.8112    -4708.221            0     1700.184    20.211799    20.125258    20.974909    8531.9147    1147.5525    989.51022    2963.4893    214.29593    659.65762    436.42173   -3997.2586 
 1472000    251.07163   -4710.3175   -4226.1048   -4710.3175            0    583.74912    20.260439     20.19343    21.159799    8657.0611    806.00557    636.78804    308.45374   -712.36632   -620.77361    461.81671   -4152.4039 
 1473000    255.30607   -4715.8462    -4223.467   -4715.8462            0    2043.9331    20.051988    20.091514    21.072989    8489.7759     3299.789     77.74446    2754.2659    31.799153    106.44422    665.80329   -3970.3981 
 1474000    259.28064   -4710.8918   -4210.8473   -4710.8918            0     793.4673     20.01402    20.286273    21.245376    8625.8325     744.2698    1513.4743    122.65783    137.69746    954.58606    744.71097     -4111.03 
 1475000    248.33722   -4700.7068   -4221.7676   -4700.7068            0    2087.4643    20.192884    20.057547    20.931074    8477.4975    3257.6534    1320.1211    1684.6184   -629.80239    -776.0442    -639.9255   -3963.6827 
 1476000    253.36316    -4701.997   -4213.3649    -4701.997            0    1261.0647    20.217539    20.335112    20.952973    8614.3106     1479.319    1659.7943    644.08073   -68.767582    826.61855   -809.18116   -4054.9362 
 1477000    269.00821   -4654.5595   -4135.7546   -4654.5595            0    1482.5429    20.194483    20.221558    21.058696    8599.6111    681.49027    3666.6956    99.442659   -697.01191    622.97808    693.07211   -3949.8192 
 1478000     256.6943   -4669.5103   -4174.4538   -4669.5103            0    2738.5915    20.152115    19.976605    21.382465    8607.9569    2786.3147    2862.8909     2566.569    19.643697   -1118.2404   -322.91895   -3830.6558 
 1479000    264.10213   -4690.2438   -4180.9006   -4690.2438            0    3111.5503     20.07615    20.070782    21.109967    8506.1353    1786.8994    6566.2158    981.53576   -717.53113    449.23427   -807.30823   -3794.9027 
 1480000    257.11039   -4657.2707   -4161.4116   -4657.2707            0    2172.2046    20.176834    20.005883    20.984447     8470.485    4221.0188    270.00456    2025.5903    -219.5902    59.379641    -1703.856    -3893.072 
 1481000    265.21855   -4689.9767   -4178.4804   -4689.9767            0    2340.6739    20.310908    20.144394    20.843242    8528.0318    1451.3705    2904.4435    2666.2076   -477.39707   -1019.5059   -711.55751   -3887.3647 
 1482000    265.29125   -4712.0668   -4200.4303   -4712.0668            0      1704.83    20.087557    20.259843    21.038858    8562.1997    2169.5842    478.64249    2466.2632    886.97369    599.40646    1648.9385   -3987.5467 
 1483000    255.77141   -4705.8754   -4212.5987   -4705.8754            0    1546.9672    20.171129    19.928167    21.272943    8551.1623    154.90782    2162.8593    2323.1346    234.18862    1063.5028    265.47552   -4019.6766 
 1484000    258.18882   -4683.7985   -4185.8596   -4683.7985            0    2784.8715    20.104463    20.009079    21.114486    8493.7619    2475.6095    3059.4666    2819.5384   -501.76917    385.31546   -806.78727   -3840.8898 
 1485000    247.91024   -4701.2459   -4223.1301   -4701.2459            0    2072.3797    20.159553    20.317982    20.841556    8536.7312    1281.1632    1375.4722    3560.5039   -149.08055   -1279.2238    -610.0799   -3965.1199 
 1486000    255.96641   -4721.9591   -4228.3064   -4721.9591            0    1255.8601    20.186593    20.277055    20.826541    8524.8167    977.39752    477.52425    2312.6585   -289.44015    752.93106    699.11645   -4072.1707 
 1487000    247.38975    -4674.204   -4197.0921    -4674.204            0     2869.615    20.219108    20.020396    20.994032    8498.2697    3127.1979    3013.3559    2468.2913   -80.610813    -280.7926    -971.7769   -3841.4361 
 1488000    257.90218   -4684.6904   -4187.3043   -4684.6904            0    1620.6697    20.090099    19.871402    21.553889      8604.71    3374.4048    967.48475    520.11952   -395.86109    1743.0357   -1105.6305   -3983.9251 
 1489000     256.3817   -4704.8123   -4210.3586   -4704.8123            0    1973.4371    20.087512     20.09364    21.133741    8530.2376    1049.9128    2329.0091    2541.3895    112.10274     -1172.05    764.37864   -3964.8536 
 1490000    257.76866    -4683.567   -4186.4385    -4683.567            0    2498.2927    20.143694    20.412642    20.701034    8511.9756    2496.7209    1488.2792    3509.8781   -101.06247   -1551.8047    2058.6742   -3876.3044 
 1491000    243.77292   -4699.1664   -4229.0298   -4699.1664            0    975.25052      20.2245    20.327193    20.924539    8602.2309    2972.8283   -2145.6877    2098.6109    417.66796    430.42117    382.93336     -4106.68 
 1492000    249.31209   -4675.4381   -4194.6188   -4675.4381            0    3469.8966    20.078123    19.812644    21.350551    8493.2645    4109.5431    3957.8619    2342.2847    36.524636   -473.96362   -1353.2319   -3764.8181 
 1493000    251.34256   -4661.4938   -4176.7586   -4661.4938            0    1254.4588    20.115338    19.985098    21.400264    8603.0557    1895.8846    1612.5638    254.92786    260.03519   -1259.6761      124.097   -4019.3657 
 1494000    257.06164   -4666.3986   -4170.6336   -4666.3986            0    2657.9675    20.121815    20.233604    20.975361    8539.8425    4502.0366    141.79755    3330.0683    448.45367   -635.30531    556.62324   -3839.5975 
 1495000    262.48841   -4667.2611   -4161.0301   -4667.2611            0     1591.348    20.223547     20.19955    20.940094    8554.1655    152.77363    3170.7806    1450.4898   -137.36973    -761.9485    1109.5185   -3962.5035 
 1496000    261.75388   -4680.5399   -4175.7255   -4680.5399            0     1081.352    20.204573    20.134097    21.131672    8596.3818   -1397.4428    3818.1466    823.35216   -558.05939    579.68367    454.37532    -4040.157 
 1497000    263.60252    -4713.722   -4205.3424    -4713.722            0    1160.7075    20.234682    20.183614    21.027336    8587.7536    815.70522    2175.2107    491.20666   -881.23195    577.64372    220.09341   -4059.9712 
 1498000    260.61341   -4678.1358   -4175.5209   -4678.1358            0    416.27769    20.176691    19.953715    21.469482    8643.6119    659.63893    1065.7824   -476.58831    -782.2322    277.39996   -864.60766   -4123.0456 
 1499000     246.2353   -4700.8451   -4225.9596   -4700.8451            0     1185.035    20.297706    19.963389    21.075141    8539.8792    274.55264    2462.2706    818.28176    43.874055   -46.209905    1232.1289    -4078.369 
 1500000    252.47798    -4644.146    -4157.221    -4644.146            0    1445.8547    20.130116    20.264092    20.959634    8549.8228    1901.3399    1046.5452    1389.6791     99.63826   -492.44394     717.9431   -3976.9368 
Loop time of 416.131 on 64 procs for 250000 steps with 972 atoms

Performance: 103.813 ns/day, 0.231 hours/ns, 600.772 timesteps/s
192.9% CPU use with 32 MPI tasks x 2 OpenMP threads

MPI task timing breakdown:
Section |  min time  |  avg time  |  max time  |%varavg| %total
---------------------------------------------------------------
Pair    | 27.017     | 34.661     | 46.479     |  69.2 |  8.33
Bond    | 0.86554    | 1.2027     | 2.3434     |  24.5 |  0.29
Kspace  | 178.75     | 193.37     | 203.74     |  38.8 | 46.47
Neigh   | 2.4466     | 2.7846     | 3.1821     |  13.4 |  0.67
Comm    | 75.562     | 85.166     | 93.899     |  43.5 | 20.47
Output  | 0.43042    | 0.43078    | 0.43243    |   0.1 |  0.10
Modify  | 77.565     | 81.047     | 85.871     |  20.9 | 19.48
Other   |            | 17.47      |            |       |  4.20

Nlocal:        30.3750 ave          35 max          25 min
Histogram: 2 1 3 2 1 7 3 5 6 2
Nghost:        2531.41 ave        2569 max        2498 min
Histogram: 3 0 7 3 5 5 2 2 2 3
Neighs:        9216.44 ave       11136 max        6867 min
Histogram: 2 0 3 4 4 7 2 4 4 2

Total # of neighbors = 294926
Ave neighs/atom = 303.42181
Ave special neighs/atom = 2.0000000
Neighbor list builds = 8045
Dangerous builds = 0

unfix		3
unfix		2
unfix		1

write_data	data.final.${pid}
write_data	data.final.0
System init for write_data ...
PPPM initialization ...
  extracting TIP4P info from pair style
  using 12-bit tables for long-range coulomb (../kspace.cpp:340)
  G vector (1/distance) = 0.37163426
  grid = 24 24 25
  stencil order = 5
  estimated absolute RMS force accuracy = 0.0035036475
  estimated relative force accuracy = 1.055113e-05
  using double precision FFTW3
  3d grid and FFT values/proc = 3458 576
Last active /omp style is kspace_style pppm/tip4p/omp
WARNING: Not all mixed pair coeffs generated from mixing. Use write_data with 'pair ij' option to store all pair coeffs. (../write_data.cpp:312)

write_restart   restart.lmp.${pid}
write_restart   restart.lmp.0
System init for write_restart ...
PPPM initialization ...
  extracting TIP4P info from pair style
  using 12-bit tables for long-range coulomb (../kspace.cpp:340)
  G vector (1/distance) = 0.37163426
  grid = 24 24 25
  stencil order = 5
  estimated absolute RMS force accuracy = 0.0035036475
  estimated relative force accuracy = 1.055113e-05
  using double precision FFTW3
  3d grid and FFT values/proc = 3458 576
Last active /omp style is kspace_style pppm/tip4p/omp
Total wall time: 0:06:56
