LAMMPS (30 Jul 2021)
  using 1 OpenMP thread(s) per MPI task
package omp 0
using multi-threaded neighbor list subroutines
echo both

include		in.partitions
variable        pid world 0
include		in.temp
variable        temperature equal 287.21
variable	tempDamp equal 100.0
include		in.pressure
variable        pressure equal 12250.0
variable        pressureDamp equal 1000.0 # This is 1 ps
include		in.seed
variable        seed world 745823

units		real
atom_style	full
read_restart	restart.lmp.${pid}
read_restart	restart.lmp.0
Reading restart file ...
  restart file = 30 Jul 2021, LAMMPS = 30 Jul 2021
  restoring atom style full from restart
  orthogonal box = (0.70395523 1.9206976 0.85882374) to (17.503617 21.708480 21.354372)
  4 by 4 by 4 MPI processor grid
  restoring pair style lj/cut/tip4p/long/omp from restart
  restoring bond style harmonic/omp from restart
  restoring angle style harmonic/omp from restart
  864 atoms
  576 bonds
  288 angles
Finding 1-2 1-3 1-4 neighbors ...
  special bond factors lj:    0        0        0       
  special bond factors coul:  0        0        0       
     2 = max # of 1-2 neighbors
     1 = max # of 1-3 neighbors
     1 = max # of 1-4 neighbors
     2 = max # of special neighbors
  special bonds CPU = 1.188 seconds
  read_restart CPU = 1.424 seconds
include 	in.setup
variable	out_freq equal 1000
variable	out_freq2 equal 10000
variable	out_freq3 equal 1000

timestep	2.0

neigh_modify    delay 7 every 1

include		in.tip4p
# This is TIP4P/Ice

# create groups ###
group ox type 2
288 atoms in group ox
group hy type 1
576 atoms in group hy

# set charges - beside manually ###
set group ox charge -1.1794
Setting atom values ...
  288 settings made for charge
set group hy charge 0.5897
Setting atom values ...
  576 settings made for charge

# ### TIP3P Potential Parameters ###
pair_style lj/cut/tip4p/long/omp 2 1 1 1 0.1577 8.5
pair_coeff 1 1*2 0.000 0.000
pair_coeff 2 2 0.21084 3.1668
bond_style  harmonic
bond_coeff  1 450 0.9572
angle_style harmonic
angle_coeff 1 55 104.52
kspace_style pppm/tip4p/omp 1.0e-5
pair_modify tail yes

thermo          ${out_freq}
thermo          1000
thermo_style    custom step temp pe etotal epair emol press lx ly lz vol pxx pyy pzz pxy pxz pyz enthalpy

restart 	${out_freq3} restart.lmp.${pid} restart2.lmp.${pid}
restart 	1000 restart.lmp.${pid} restart2.lmp.${pid}
restart 	1000 restart.lmp.0 restart2.lmp.${pid}
restart 	1000 restart.lmp.0 restart2.lmp.0


include         in.dump
dump            myDump all atom ${out_freq2} dump.water.${pid}
dump            myDump all atom 10000 dump.water.${pid}
dump            myDump all atom 10000 dump.water.0
dump            myDump2 all dcd ${out_freq2} dump.dcd
dump            myDump2 all dcd 10000 dump.dcd
dump_modify     myDump append yes
dump_modify     myDump2 append yes


variable natoms 	equal  "count(all)"                        # NUMBER ATOMS
variable H      	equal  "enthalpy/v_natoms"                 # ENTHALPY-per-atom
variable Vol      	equal  "vol/v_natoms"                 # volume-per-atom
fix AVG all 		ave/time ${out_freq} 1 ${out_freq} v_Vol v_H file vol_enthalpy.dat
fix AVG all 		ave/time 1000 1 ${out_freq} v_Vol v_H file vol_enthalpy.dat
fix AVG all 		ave/time 1000 1 1000 v_Vol v_H file vol_enthalpy.dat


timer           timeout 23:50:00 every 1000
New timer settings: style=normal  mode=nosync  timeout=23:50:00

fix 		1 all shake 1e-6 200 0 b 1 a 1
       0 = # of size 2 clusters
       0 = # of size 3 clusters
       0 = # of size 4 clusters
     288 = # of frozen angles
  find clusters CPU = 0.001 seconds
fix             2 all nph iso ${pressure} ${pressure} ${pressureDamp}
fix             2 all nph iso 12250 ${pressure} ${pressureDamp}
fix             2 all nph iso 12250 12250 ${pressureDamp}
fix             2 all nph iso 12250 12250 1000
fix             3 all temp/csvr ${temperature} ${temperature} ${tempDamp} ${seed}
fix             3 all temp/csvr 287.21 ${temperature} ${tempDamp} ${seed}
fix             3 all temp/csvr 287.21 287.21 ${tempDamp} ${seed}
fix             3 all temp/csvr 287.21 287.21 100 ${seed}
fix             3 all temp/csvr 287.21 287.21 100 745823

run             250000
PPPM initialization ...
  extracting TIP4P info from pair style
  using 12-bit tables for long-range coulomb (../kspace.cpp:340)
  G vector (1/distance) = 0.37511604
  grid = 24 24 24
  stencil order = 5
  estimated absolute RMS force accuracy = 0.0030648717
  estimated relative force accuracy = 9.22977e-06
  using double precision FFTW3
  3d grid and FFT values/proc = 2535 216
Last active /omp style is kspace_style pppm/tip4p/omp
Neighbor list info ...
  update every 1 steps, delay 7 steps, check yes
  max neighbors/atom: 2000, page size: 100000
  master list distance cutoff = 10.8154
  ghost atom cutoff = 10.8154
  binsize = 5.4077, bins = 4 4 4
  1 neighbor lists, perpetual/occasional/extra = 1 0 0
  (1) pair lj/cut/tip4p/long/omp, perpetual
      attributes: half, newton on, omp
      pair build: half/bin/newton/omp
      stencil: half/bin/3d
      bin: standard
Per MPI rank memory allocation (min/avg/max) = 9.238 | 9.241 | 9.244 Mbytes
Step Temp PotEng TotEng E_pair E_mol Press Lx Ly Lz Volume Pxx Pyy Pzz Pxy Pxz Pyz Enthalpy 
 9000000    294.88567    -3751.831   -3246.4071    -3751.831            0    12477.442    16.799662    19.787783    20.495548    6813.2954    14445.963    11304.175     11682.19    621.27227    -593.5216    1154.3651    -2006.587 
 9001000     290.2085   -3782.2951   -3284.8876   -3782.2951            0    11342.126    16.822502    19.814686    20.523413    6841.1226     11625.44    9482.0135    12918.924   -1645.6011   -588.36379   -1933.5356   -2153.2752 
 9002000    290.66732   -3778.2301   -3280.0363   -3778.2301            0    12352.152     16.74923    19.728381    20.434022    6752.1198    12843.156    13137.625    11075.675    1551.2533   -266.29604    1295.8765    -2063.686 
 9003000    291.74008   -3750.3194   -3250.2869   -3750.3194            0    12825.724    16.792187    19.778978    20.486429     6804.205    14195.583    12051.361    12230.228    132.10822   -1124.7621    343.71167   -1977.5601 
 9004000    275.20574    -3776.849   -3305.1558    -3776.849            0    14100.013    16.767813    19.750269    20.456692    6774.6183    14527.541    13176.042    14596.455   -556.84972    243.65238    1499.4488   -1912.0624 
 9005000    293.40551   -3728.4768   -3225.5898   -3728.4768            0    14401.906    16.797964    19.785783    20.493477      6811.23    14067.779    13864.784    15273.154   -696.62596   -1114.6719   -110.88801   -1794.9794 
 9006000    286.70399   -3763.8713   -3272.4704   -3763.8713            0    13265.683      16.8482    19.844954    20.554764    6872.5213    15240.432    11713.204    12843.413    489.93009    901.58789    372.11853   -1942.8686 
 9007000    286.65525   -3748.9854   -3257.6681   -3748.9854            0    15247.132    16.751883    19.731505    20.437258    6755.3283    14883.623    13819.576    17038.196   -285.46901   -2430.3832    -2568.501   -1755.5278 
 9008000    275.16041   -3755.2341   -3283.6185   -3755.2341            0    10997.479    16.869306    19.869814    20.580514    6898.3819    9181.7777    11350.307    12460.352    1242.2635   -420.39246    865.10359   -2177.2081 
 9009000      305.545   -3752.5877    -3228.894   -3752.5877            0    12789.499     16.80045    19.788711    20.496509    6814.2539    11856.067     14422.92     12089.51   -280.94726    416.50618    778.39417   -1957.8877 
 9010000    293.68474    -3775.926   -3272.5604    -3775.926            0    10410.895    16.878963    19.881188    20.592295    6910.2354    11325.956     9690.095    10216.634   -987.52247   -460.65645    1323.6677    -2223.364 
 9011000    284.63222    -3755.065   -3267.2151    -3755.065            0    12236.976    16.817284    19.808539    20.517047    6834.7582    12891.387    11140.473    12679.069     677.5637   -1540.0302   -1772.6164   -2047.4585 
 9012000    303.93081   -3745.4268   -3224.4998   -3745.4268            0    11626.385    16.832822    19.826841    20.536004    6853.7208    10026.335    13245.744    11607.075     641.1053   -490.85203   -683.45118   -2062.3905 
 9013000    292.38357   -3731.3766   -3230.2412   -3731.3766            0      13869.3    16.806632    19.795993    20.504052    6821.7794    11222.432    14722.499    15662.969   -1076.1238   -1115.2375    1834.8317   -1850.4031 
 9014000    279.77576   -3781.2731    -3301.747   -3781.2731            0    12501.871     16.77523    19.759005    20.465742    6783.6128    11323.307    11289.207    14893.099    1465.4319    839.15744   -433.03094   -2064.9115 
 9015000    283.84739   -3755.3629   -3268.8582   -3755.3629            0    14639.767    16.782946    19.768094    20.475155    6792.9777    14317.365    15645.727    13956.209     464.4294   -531.77947    212.35459   -1818.5168 
 9016000    285.06672    -3754.507   -3265.9124    -3754.507            0    13165.952    16.786879    19.772726    20.479953    6797.7545     10789.15    13492.404    15216.302    171.48789    702.34368     1905.284   -1960.6626 
 9017000    290.17291   -3776.7768   -3279.4303   -3776.7768            0    12933.298    16.795765    19.783193    20.490794    6808.5554    13159.158    14400.257    11240.481   -1855.7359   -520.51263    247.16766   -1995.2082 
 9018000     285.6812     -3797.21   -3307.5622     -3797.21            0    13246.621    16.772059    19.755271    20.461873    6779.7669    13624.276    13595.916    12519.671   -941.36283   -2084.6998     635.9372     -1997.79 
 9019000    303.68919   -3810.4401   -3289.9272   -3810.4401            0    12752.455    16.818629    19.810123    20.518687    6836.3978    13308.174    13235.241     11713.95   -658.43545   -1561.9536    539.53078   -2018.4839 
 9020000    285.00799   -3835.7079   -3347.2139   -3835.7079            0    12815.839    16.805768    19.794975    20.502998    6820.7277    12805.862     12907.88    12733.776   -17.775893    510.30739    81.241652   -2072.3799 
 9021000    294.32856   -3806.5097   -3302.0406   -3806.5097            0    10713.062    16.865514    19.865347    20.575887    6893.7305     12171.56    9045.8659    10921.759   -443.42932    1009.0729    1039.0158   -2224.9709 
 9022000    302.07681   -3764.1887   -3246.4394   -3764.1887            0    11836.216    16.801028    19.789392    20.497215    6814.9574    11615.268    12697.133    11196.248   -1090.7043   -114.49926    384.52392   -2070.0478 
 9023000    287.26032   -3805.9106   -3313.5563   -3805.9106            0    12556.695    16.789004     19.77523    20.482546    6800.3368     12465.57    11164.008    14040.508    1458.1978    821.53464    692.55066   -2068.2342 
 9024000    289.40247   -3738.2552   -3242.2293   -3738.2552            0    11101.368    16.880897    19.883467    20.594655    6912.6118    11320.601    12083.538     9899.967   -755.46793   -281.05683   -290.90865   -2123.0631 
 9025000    293.92895   -3784.6405   -3280.8563   -3784.6405            0     10891.57    16.772788    19.756128    20.462762    6780.6501    11025.918    11319.166    10329.627   -1496.7546   -770.00421    510.98258   -2203.8017 
 9026000    292.05947   -3769.3054   -3268.7254   -3769.3054            0    11180.997     16.82889     19.82221    20.531207    6848.9187    11779.923    10504.037     11259.03    1718.4142   -81.970824    754.34133   -2151.9177 
 9027000    291.33765   -3807.7528     -3308.41   -3807.7528            0    13060.662     16.83544    19.829924    20.539197    6856.9182    14309.197    11466.581    13406.209    469.90221    104.53508    297.73439   -2002.3292 
 9028000    292.51782   -3828.5861   -3327.2205   -3828.5861            0     10959.24    16.818701    19.810208    20.518776    6836.4858    11178.268    9367.2778    12332.174   -1141.2094   -110.29823    679.76943     -2234.55 
 9029000    282.93273   -3810.5419   -3325.6049   -3810.5419            0    11226.331    16.773845    19.757373    20.464051    6781.9322    10675.146    11569.231    11434.615     1206.038   -690.53044   -191.86767   -2215.2363 
 9030000    292.17175   -3756.5174    -3255.745   -3756.5174            0    11391.709    16.787618    19.773597    20.480855    6798.6526    13179.009    10493.051    10503.067   -898.25976    128.47872    1938.8199   -2126.2414 
 9031000    297.93257   -3741.4423    -3230.796   -3741.4423            0    10641.882    16.836431    19.831092    20.540407    6858.1302    10211.047    10481.305    11233.293   -541.11765    -2381.106    908.04257   -2166.4079 
 9032000    289.20597   -3751.8417   -3256.1526   -3751.8417            0    11773.672    16.802542    19.791175    20.499062    6816.8005    11468.914    11322.044    12530.057   -1041.0826   -1053.4276   -403.32819   -2085.6607 
 9033000     295.1497   -3777.4748   -3271.5983   -3777.4748            0    12811.853    16.781588    19.766494    20.473498    6791.3289    14019.903    9180.5545    15235.101    1284.4879     144.2308   -611.91267   -2002.6539 
 9034000    283.66143    -3780.268   -3294.0821    -3780.268            0    12603.046    16.756936    19.737457    20.443423    6761.4434     13140.81     11840.58    12827.749   -834.04127    307.37261    477.24754   -2051.3118 
 9035000    275.48555   -3785.4582   -3313.2854   -3785.4582            0    12855.266    16.751286    19.730802    20.436529     6754.606    13424.067    12080.462    13061.268   -1362.0571    725.86563    765.12829    -2046.926 
 9036000    280.34961   -3776.5937    -3296.084   -3776.5937            0    11660.133    16.750569    19.729958    20.435655    6753.7396    13496.665    9398.3132     12085.42    300.76048     982.4709    136.23578   -2147.6034 
 9037000    286.09811   -3770.7233   -3280.3609   -3770.7233            0    10830.983    16.891187    19.895588    20.607209    6925.2607     9599.068    11381.272    11512.609    574.25001   -832.52007   -1199.1208   -2186.4552 
 9038000    293.01813   -3762.4451   -3260.2221   -3762.4451            0    13286.894    16.819828    19.811536    20.520151    6837.8612    13191.111    11344.485    15325.086    84.984652   -225.80985   -740.39213   -1935.2106 
 9039000    286.20253   -3783.4611   -3292.9198   -3783.4611            0    11842.832    16.801423    19.789857    20.497697    6815.4382    11087.074    10908.269    13533.154   -165.25905    326.68051   -500.31368   -2115.7875 
 9040000    282.29284   -3762.9105   -3279.0702   -3762.9105            0    11544.529    16.760391    19.741527    20.447638    6765.6266    12019.549    11685.727    10928.311   -432.92265    576.92066    581.01562   -2139.9747 
 9041000    280.09435   -3750.6052    -3270.533   -3750.6052            0    13608.937    16.767438    19.749827    20.456236    6774.1645    13899.967    12698.459    14228.387    796.86003    638.82326    1349.8784   -1926.0484 
 9042000    293.62236   -3783.7214   -3280.4628   -3783.7214            0    12445.422    16.748121    19.727074    20.432668    6750.7779    12547.317    12524.661    12264.288    922.33298   -478.72612    779.91332   -2055.1715 
 9043000    296.12546    -3773.361   -3265.8121    -3773.361            0    11516.261    16.802639    19.791289    20.499181    6816.9184    13943.815    9505.7923    11099.175   -1276.0686   -930.20303   -15.152913   -2120.8912 
 9044000    287.01753   -3780.0028   -3288.0645   -3780.0028            0    12798.337    16.715192    19.688289    20.392495    6711.0383    13319.863     12981.22    12093.929    701.00008   -837.28922    73.804359   -2035.4451 
 9045000    267.93212    -3782.615   -3323.3886    -3782.615            0    12169.443    16.773897    19.757435    20.464115    6781.9952    11898.676     13635.46    10974.192    284.41786    546.42666    632.16929   -2119.7279 
 9046000    298.02184   -3785.4231   -3274.6239   -3785.4231            0    11899.701    16.783204    19.768398     20.47547     6793.291    10553.649    13923.583     11221.87    1176.3353   -93.850044   -797.75183   -2095.6827 
 9047000    278.60456   -3791.4722   -3313.9535   -3791.4722            0    9909.9648    16.737114    19.714109     20.41924    6737.4769    8706.2966    10165.608    10857.989   -18.914993    46.305199    322.01134   -2340.2084 
 9048000    304.86103   -3787.8913   -3265.3699   -3787.8913            0    12374.007    16.695026    19.664536    20.367893    6686.7781    13537.808    12595.596    10988.617      475.966   -96.519958    921.80059   -2058.6592 
 9049000    285.01837   -3759.9267    -3271.415   -3759.9267            0    12354.329    16.722565    19.696972     20.40149    6719.9222    14263.042    10023.605    12776.341    1669.4131    791.75443    640.46101   -2060.6515 
 9050000    280.12933   -3781.3104   -3301.1783   -3781.3104            0    13522.908    16.715707    19.688895    20.393124    6711.6589    12277.904    14285.988    14004.832   -506.49087    1479.7485    72.085124   -1977.5201 
 9051000    289.10503    -3760.584   -3265.0679    -3760.584            0    11265.923    16.766252    19.748431    20.454789    6772.7272    12877.268    10867.564    10052.939    408.63808    183.58207   -363.94694   -2152.2957 
 9052000    280.94741   -3769.7896   -3288.2554   -3769.7896            0    11734.073    16.753016     19.73284     20.43864    6756.6994     11758.41    10811.981    12631.828   -1088.6039   -576.64413    -277.6109   -2131.9854 
 9053000    279.49568   -3760.9589   -3281.9129   -3760.9589            0    14541.396    16.699565    19.669881     20.37343    6692.2329    15024.306     13287.46    15312.423    35.237791    581.08658    100.59835    -1862.682 
 9054000    297.62103    -3780.632   -3270.5198    -3780.632            0    10078.998    16.807216     19.79668    20.504764      6822.49    9885.6193     9507.906    10843.469    2459.4729   -992.70386    1512.2365   -2267.6694 
 9055000    293.11746   -3803.1998   -3300.8065   -3803.1998            0    12655.097    16.794646    19.781875    20.489429    6807.1946     10958.44    13467.992     13538.86    2202.1219   -2111.0392   -817.46957   -2044.4597 
 9056000    309.59566   -3775.6772   -3245.0408   -3775.6772            0    10913.473    16.837318    19.832137    20.541489    6859.2142    10307.913    11458.378    10974.127   -305.98207   -746.39688   -702.04635   -2153.3159 
 9057000    283.20155   -3769.5217    -3284.124   -3769.5217            0     12779.59    16.841837    19.837459    20.547001    6864.7376    11702.857    13849.845    12786.066   -550.20715    550.30893   -137.95212   -2004.6933 
 9058000    279.87429   -3765.9506   -3286.2557   -3765.9506            0     13220.57    16.821006    19.812924    20.521589    6839.2979    14402.227    12261.751    12997.731    1247.4485   -1023.4714   -287.18161   -1967.5812 
 9059000    293.10859   -3786.8096   -3284.4316   -3786.8096            0    12833.165    16.815524    19.806466    20.514899    6832.6122    11819.166    13481.738     13198.59   -596.01801   -1166.0233   -711.58787   -2005.6498 
 9060000    278.27977   -3792.4888   -3315.5268   -3792.4888            0    13501.548    16.764736    19.746644    20.452938    6770.8894    14401.388    12635.482    13467.773    1946.8918    1164.2761    523.56905   -1982.2966 
 9061000    279.02057   -3767.0505   -3288.8188   -3767.0505            0    12024.137     16.79397    19.781078    20.488604    6806.3719    11361.949    12235.851     12474.61    2720.5127    1536.1492    753.74895   -2095.2554 
 9062000    293.42584    -3759.808   -3256.8861    -3759.808            0    11785.487    16.770285    19.753181    20.459709    6777.6154    12603.928    10432.784    12319.748   -788.89162   -1266.9554   -1205.4042   -2091.9548 
 9063000    302.53881   -3750.7958   -3232.2547   -3750.7958            0    11659.592    16.828532    19.821787    20.530769    6848.4812    15023.904     10734.83    9220.0414   -911.07714   -740.57797    905.26792   -2067.7171 
 9064000    289.04396   -3802.6561   -3307.2447   -3802.6561            0    12747.933    16.830257     19.82382    20.532874    6850.5879    13800.967    10073.261    14369.571   -2247.8647   -1839.5873   -242.79993    -2033.614 
 9065000     279.9966   -3802.9251   -3323.0205   -3802.9251            0    12786.775    16.742132     19.72002    20.425362    6743.5394    11323.649      13392.2    13644.477    699.89618    1378.1222    1253.7388   -2065.4718 
 9066000     294.9252   -3778.8219   -3273.3302   -3778.8219            0     11895.55    16.796938    19.784574    20.492225    6809.9816    13529.094    12184.349    9973.2076    373.45693   -103.44457   -1608.3259   -2091.9047 
 9067000    277.72736   -3831.4586   -3355.4434   -3831.4586            0    12352.993    16.772387    19.755657    20.462273    6780.1644    12905.198    13398.027    10755.753    1349.2419    1351.8954    -375.0493    -2133.958 
 9068000    283.58554   -3787.5651   -3301.5092   -3787.5651            0    13065.838    16.771761     19.75492     20.46151    6779.4055    11483.927     13764.42    13949.168   -1670.5712    250.84279   -296.13314   -2009.6809 
 9069000    272.64029   -3809.0845   -3341.7884   -3809.0845            0    13300.318    16.733944    19.710376    20.415373    6733.6499    13847.811    11620.593     14432.55   -1492.5419    597.60007   -1489.8285   -2035.6522 
 9070000    270.13564   -3739.6886   -3276.6853   -3739.6886            0     12578.58    16.802291    19.790879    20.498755    6816.4942    12946.044    12285.458    12504.238    146.42635   -244.22551    636.74456   -2026.2289 
 9071000    301.93364   -3810.5625   -3293.0586   -3810.5625            0    12167.415    16.796568    19.784138    20.491774    6809.5316    11900.303    12173.277    12428.664   -1122.4451   -337.06305   -1162.7778   -2084.7122 
 9072000    312.63857   -3722.2355   -3186.3836   -3722.2355            0    13150.961    16.768205     19.75073    20.457171    6775.0935    11681.967    13633.713    14137.204    13.255708    105.07111    575.47207   -1886.9662 
 9073000     271.2189   -3782.1571   -3317.2972   -3782.1571            0    13673.217    16.769658    19.752442    20.458944    6776.8555    12033.815    13218.278    15767.558   -1280.4752   -995.96729     1091.395   -1965.9254 
 9074000     284.3052   -3782.9956   -3295.7062   -3782.9956            0     12628.57     16.79088    19.777439    20.484835    6802.6163    14678.715     11885.26    11321.735    1334.4923   -381.57781   -1219.4467   -2042.8361 
 9075000    287.36424   -3802.9105   -3310.3781   -3802.9105            0    11091.119     16.85865    19.857262    20.567513    6885.3171    9965.1823    12051.787    11256.388    729.00166    384.57461    621.74582   -2196.6602 
 9076000    278.99249    -3781.389   -3303.2054    -3781.389            0    12147.004    16.798897    19.786882    20.494616    6812.3653    12455.305    13202.021    10783.687   -2376.6724   -317.24734   -1016.0771    -2096.384 
 9077000    282.60903   -3789.8165   -3305.4343   -3789.8165            0     13549.32     16.70445    19.675635     20.37939    6698.1073    12491.059    14883.699    13273.203   -1505.4311   -511.96959   -1657.5909   -1981.8686 
 9078000    303.50622   -3740.6047   -3220.4054   -3740.6047            0    10518.361    16.811753    19.802024    20.510299    6828.0169    11691.708    8880.0778    10983.296   -26.992616     492.1785    907.72922   -2172.9911 
 9079000    292.47072   -3791.1798    -3289.895   -3791.1798            0    14723.663    16.713443    19.686228    20.390361    6708.9316     14739.86     16290.36    13140.769    1099.0402    266.41319    274.40798   -1849.2893 
 9080000    293.83891   -3728.6852   -3225.0554   -3728.6852            0    12853.232    16.810404    19.800435    20.508653    6826.3729    12622.032     14869.18    11068.483   -669.37781    892.35003   -1037.4045   -1945.4436 
 9081000      272.544   -3746.4673   -3279.3362   -3746.4673            0     12333.58    16.790465     19.77695    20.484328    6802.1119    11788.624     14118.15    11093.966    1300.6081    876.57328   -24.955611   -2055.8226 
 9082000    288.76854   -3814.6405   -3319.7011   -3814.6405            0    11350.756    16.814702    19.805498    20.513897    6831.6105    10317.228    13708.413    10026.626    564.06728    574.07299    523.83754   -2188.8022 
 9083000    269.14228   -3770.1067   -3308.8061   -3770.1067            0    11126.655    16.768906    19.751557    20.458026    6775.9439    11495.066    10951.377    10933.521   -1477.1317   -56.193522   -1404.6824   -2209.2679 
 9084000    309.48629   -3754.3774   -3223.9285   -3754.3774            0     10270.16    16.815068     19.80593    20.514344    6832.0574    11530.249    10628.112    8652.1178     152.5122   -1254.0187    902.84187   -2200.6247 
 9085000    283.78746   -3772.4729    -3286.071   -3772.4729            0    12876.948    16.771877    19.755056    20.461651    6779.5457    12946.278    13564.428    12120.139   -610.72292   -1119.8202    23.845965    -2012.892 
 9086000    306.38784   -3809.9935   -3284.8553   -3809.9935            0    11218.411    16.837192    19.831988    20.541334    6859.0591    11899.474    10236.333    11519.427   -781.62706    214.92256   -445.24815   -2162.6513 
 9087000    278.00855   -3772.1276   -3295.6305   -3772.1276            0    13221.619    16.753937    19.733925    20.439764    6757.8137    14156.675    12699.584    12808.597   -841.76793   -1345.9763    1077.6818   -1992.5635 
 9088000    296.83286   -3768.1431   -3259.3817   -3768.1431            0    12070.528    16.799412    19.787489    20.495244    6812.9918    11956.756    13480.437    10774.392    1062.2805    302.13097    1392.9565    -2060.048 
 9089000    275.69547   -3792.3074   -3319.7748   -3792.3074            0    13342.033    16.768941    19.751598    20.458069     6775.986    15141.176    13673.563    11211.359    574.54501   -506.84588   -983.64441   -2001.3044 
 9090000     287.2189   -3749.6233     -3257.34   -3749.6233            0    14717.974    16.726765     19.70192    20.406615    6724.9875     14530.41    14958.665    14664.845    847.20428    1397.4069    1144.8711   -1813.8446 
 9091000    270.97741   -3754.6175   -3290.1715   -3754.6175            0    12957.349    16.681525    19.648633    20.351421    6670.5683    14565.202     11756.36    12550.485    769.58969    1192.0253    926.17702   -2029.6366 
 9092000    301.30682   -3779.5744   -3263.1448   -3779.5744            0     11979.21     16.75583    19.736154    20.442073    6760.1045     13053.84    10881.995    12001.796   -358.10049    992.27891   -1334.9149   -2082.1242 
 9093000    281.31302   -3790.7226   -3308.5617   -3790.7226            0    12682.808    16.757344    19.737937     20.44392     6761.937    11327.986    14797.475    11922.962     1081.619    956.87512    -987.4384    -2057.835 
 9094000    279.69068   -3781.8268   -3302.4465   -3781.8268            0     13477.78    16.739803    19.717277    20.422521    6740.7253    11200.238    14562.599    14670.503    1300.8115   -541.72374   -413.48638   -1977.4923 
 9095000    283.98874   -3800.4054   -3313.6585   -3800.4054            0    11656.133    16.801891    19.790408    20.498267    6816.0073    10489.224    11892.716    12586.459    1112.5198   -707.36033    1523.2041   -2154.9867 
 9096000      294.423     -3774.79    -3270.159     -3774.79            0    13539.468    16.775058    19.758803    20.465532    6783.4042    12459.969     15125.68    13032.755   -1006.4524   -889.16836    639.62858   -1930.7131 
 9097000    288.66018   -3794.5758   -3299.8221   -3794.5758            0    12155.782    16.763603     19.74531    20.451556    6769.5166    12134.314    11010.869    13322.165   -93.947934    753.61675   -820.70627   -2099.7248 
 9098000    278.35387   -3818.0919   -3341.0029   -3818.0919            0    9823.5108    16.748234    19.727207    20.432806    6750.9149    9647.0009    9122.8146    10700.717     403.8629    2426.5099    -887.8542   -2373.8275 
 9099000    289.44658   -3779.4179   -3283.3164   -3779.4179            0    12188.187    16.710152    19.682351    20.386346    6704.9688    13449.958     9389.687    13724.916    -486.8432   -142.06975    7.7339393   -2091.4934 
 9100000    281.85079   -3777.3729   -3294.2903   -3777.3729            0    12330.309    16.776807    19.760863    20.467666    6785.5262    11701.244    11100.085    14189.599    -1988.178    996.73109    280.14127   -2074.0836 
 9101000    287.77891   -3810.2032     -3316.96   -3810.2032            0    12207.963    16.829533    19.822966    20.531991    6849.7033    11535.593    11552.526    13535.772   -594.17703   -681.04386   -730.34989   -2097.4346 
 9102000    287.55246   -3761.6832   -3268.8281   -3761.6832            0    12522.765     16.84202    19.837675    20.547225     6864.962     10772.86    11023.634    15771.799    210.26453   -303.61492   -749.50473   -2015.0686 
 9103000    292.54284   -3742.7954    -3241.387   -3742.7954            0    13231.188    16.784127    19.769485    20.476596    6794.4121    14437.819    11662.857     13592.89   -1328.6745   -1456.0407    -2881.525   -1930.3147 
 9104000    278.65374   -3764.9759    -3287.373   -3764.9759            0    11137.964    16.856374    19.854582    20.564737    6882.5292    11851.984    8235.5204    13326.388   -1458.6743   -1236.8179   -1324.8361   -2169.4039 
 9105000    301.88148   -3781.5502   -3264.1357   -3781.5502            0    11459.794    16.851678    19.849051    20.559008    6876.7791     11750.48    11588.012     11040.89    2.5194848    315.31491   -673.38782   -2114.8241 
 9106000    276.56691    -3764.692   -3290.6658    -3764.692            0    12951.411    16.796506    19.784065    20.491698    6809.4562    10803.623    15947.214    12103.398   -184.09372      1017.41    1317.2688   -2004.4749 
 9107000    288.93015   -3795.7546   -3300.5382   -3795.7546            0    10982.929     16.84593    19.842281    20.551996    6869.7445    9466.9726    12189.782    11292.033     224.2291   -1269.6056    1099.2211   -2200.1785 
 9108000    286.35417   -3779.4106   -3288.6094   -3779.4106            0     10389.87    16.853413    19.851094    20.561124    6878.9028    10964.065    9236.1818    10969.364   -398.44959    958.84664   -1201.1144   -2246.2795 
 9109000     289.0031   -3808.5648   -3313.2234   -3808.5648            0    9618.2545    16.829344    19.822744     20.53176    6849.4726    9427.5004    8683.6391    10743.624   -98.353957      177.789   -748.83685   -2352.4316 
 9110000    284.92289   -3774.1563   -3285.8082   -3774.1563            0    11430.594    16.772315    19.755572    20.462185    6780.0772    11063.758    11085.412    12142.613    958.58615    5.0964032    424.07583   -2155.5456 
 9111000    290.43479   -3798.7383    -3300.943   -3798.7383            0    11948.085    16.828837    19.822148    20.531142    6848.8544    11404.328    13547.335    10892.591    681.23182   -90.348805     493.3022   -2107.5263 
 9112000    279.96348   -3781.9475   -3302.0996   -3781.9475            0    10712.202     16.82281    19.815048    20.523789     6841.498    10632.403    12060.613    9443.5889   -976.05152   -1195.1553    -1162.655   -2233.2765 
 9113000     274.8164   -3776.0635   -3305.0376   -3776.0635            0     13640.45    16.763127     19.74475    20.450976     6768.941    13875.994    13629.204    13416.151   -458.34161   -175.09999    620.57982   -1958.4789 
 9114000    306.08432    -3784.206    -3259.588    -3784.206            0    13289.632     16.77238    19.755648    20.462265     6780.156    13606.736    12747.532    13514.626    293.38248   -183.20496    1384.7664   -1945.4876 
 9115000    288.93257   -3763.7366   -3268.5161   -3763.7366            0    12094.659    16.797248    19.784939    20.492603    6810.3587    12219.746    11192.925    12871.306    946.08668   -592.82652    288.26997   -2067.2492 
 9116000    279.81063   -3792.2543   -3312.6684   -3792.2543            0    13472.343    16.805342    19.794473    20.502478    6820.2081    12415.283    14388.788    13612.959   -2058.8127    849.83925    2561.5665   -1972.6319 
 9117000    273.14681   -3809.0389   -3340.8746   -3809.0389            0    13980.303    16.797906    19.785714    20.493406     6811.159    14196.118    13819.747    13925.046   -4.7061636   -941.72797    662.96143   -1952.1584 
 9118000    288.64728   -3812.0929   -3317.3613   -3812.0929            0    13710.441    16.766185    19.748351    20.454706    6772.6455    15455.118    13263.395    12412.809   -2415.4112   -1498.2571    2851.0739   -1963.1525 
 9119000    301.48299   -3814.7866   -3298.0551   -3814.7866            0    11498.021    16.827492    19.820563    20.529501    6847.2122    12021.221    10729.671    11743.171    917.25981   -1194.6727   -321.53869   -2149.8677 
 9120000    267.94292   -3749.3353   -3290.0903   -3749.3353            0    12288.728    16.885355    19.888717    20.600093    6918.0891    13506.963    10506.119    12853.101    474.28687   -4.1945633    724.15857   -2050.2408 
 9121000    276.19982   -3767.4202   -3294.0232   -3767.4202            0    10969.151    16.835921    19.830491    20.539784    6857.5066     11515.99    11856.376    9535.0884   -230.49369    1008.0142   -1593.5303   -2197.0017 
 9122000    292.31167   -3741.1143   -3240.1021   -3741.1143            0    12566.643    16.818299    19.809734    20.518285    6835.9955    13279.887    12690.338    11729.704    391.32563   -226.44538    221.13849   -1987.2583 
 9123000    278.36842   -3812.6358   -3335.5218   -3812.6358            0    10138.413    16.861076     19.86012    20.570473    6888.2899    9336.0429    10406.649    10672.546    64.970017   -682.60712    102.07917   -2317.0306 
 9124000    297.80563   -3778.6182   -3268.1895   -3778.6182            0    13844.775    16.783263    19.768467    20.475542    6793.3626    13786.901     13210.75    14536.672   -920.96224     365.2557    121.47091   -1896.5292 
 9125000    298.79924   -3763.8313   -3251.6996   -3763.8313            0    12559.519    16.815173    19.806052    20.514471    6832.1844    11956.334    13257.694    12464.527    1626.2742    2364.0726    -198.4474   -2000.2642 
 9126000    293.65303    -3781.394   -3278.0828    -3781.394            0    11889.159    16.796379    19.783916    20.491543    6809.3015    10676.107    12650.043    12341.328    335.70541   -810.08285    1450.5979   -2097.4099 
 9127000     297.5389   -3766.5748   -3256.6033   -3766.5748            0     15177.88    16.775075    19.758822    20.465552    6783.4243    16638.358    16331.532    12563.749   -405.96473   -105.25109    1124.7579   -1755.0666 
 9128000    286.82798   -3779.4836   -3287.8703   -3779.4836            0    13247.158    16.791418    19.778072     20.48549    6803.2695    13242.529    12938.705     13560.24   -464.50895   -46.826217   -397.39189   -1973.5044 
 9129000    294.86511   -3768.3946   -3263.0059   -3768.3946            0    12898.157    16.791246     19.77787    20.485281    6803.0614    11776.858    12196.543    14721.069   -1470.1122    1317.1839   -761.87068   -1983.3066 
 9130000    279.59408   -3791.7978   -3312.5831   -3791.7978            0    10742.396    16.813417    19.803985     20.51233    6830.0449    11232.894    10487.662     10506.63   -167.38441   -214.02568     177.6459   -2242.5417 
 9131000    276.60836   -3809.3654   -3335.2681   -3809.3654            0    12362.086    16.769408    19.752148    20.458639    6776.5522    11857.659    12188.209    13040.389    690.64496    2102.0689     410.2273   -2113.5348 
 9132000    287.90093   -3766.8292   -3273.3768   -3766.8292            0    12702.299    16.781373    19.766241    20.473236    6791.0675    12876.779    14433.855    10796.264    1365.5757   -847.57492   -359.00117   -2015.3316 
 9133000    278.14071   -3770.8737   -3294.1501   -3770.8737            0    10574.099    16.826659    19.819582    20.528485    6846.1957    10543.773    10629.201    10549.324     675.2786    718.61101   -99.566745   -2238.3819 
 9134000    281.49536   -3809.9215   -3327.4481   -3809.9215            0    10424.741    16.876219    19.877957    20.588948    6906.8667    9578.8664    11117.514    10577.843   -941.75067   -910.80727    1254.9774   -2277.3684 
 9135000    267.55778   -3787.5711   -3328.9863   -3787.5711            0    11899.647    16.791386    19.778035    20.485452    6803.2313    10283.302    12020.601    13395.037   -1667.8627    488.99448    281.64327   -2148.3253 
 9136000    278.96334   -3778.3194   -3300.1858   -3778.3194            0    11843.555    16.750753    19.730174    20.435879    6753.9614    11146.074    12447.975    11936.615   -353.55444   -570.79113    272.80692   -2133.6004 
 9137000    284.17032   -3801.5044   -3314.4461   -3801.5044            0     10429.31    16.786374    19.772131    20.479337    6797.1404    11001.639    10573.284    9713.0051    243.16423   -835.85121   -299.19877   -2280.5958 
 9138000    278.93917   -3761.1828   -3283.0907   -3761.1828            0    12492.094    16.814068    19.804751    20.513123    6830.8375     11476.03    13192.846    12807.406   -388.24722   -584.73674    -1962.714   -2038.6188 
 9139000     271.7094   -3825.2887   -3359.5881   -3825.2887            0    11807.409    16.823664    19.816054    20.524831    6842.5402    11778.102    11593.372    12050.753    -797.6201    476.33286    551.71567   -2181.3098 
 9140000     269.5893   -3766.6059   -3304.5391   -3766.6059            0    13091.196    16.820251    19.812034    20.520667    6838.3763    12635.733    15257.915    11379.941   -859.86855   -891.01104   -615.61798   -1998.9448 
 9141000    283.26232   -3797.3567   -3311.8548   -3797.3567            0    11806.745    16.813521    19.804107    20.512456    6830.1714    10435.843    12323.955    12660.437   -1040.1864   -532.67753   -1284.0339   -2135.7726 
 9142000    267.48909   -3769.9137   -3311.4465   -3769.9137            0    11813.835    16.797425    19.785147    20.492819    6810.5736    11813.361    13106.705     10521.44   -861.49081    384.05826   -182.85659   -2138.0346 
 9143000    286.54571   -3786.9115    -3295.782   -3786.9115            0    14299.311    16.826519    19.819416    20.528313    6846.0237     13497.68    14697.375    14702.877    1002.5268   -1027.5224    519.58528   -1868.1068 
 9144000    278.60506   -3772.5922   -3295.0726   -3772.5922            0    10882.487    16.845032    19.841222      20.5509    6868.6455    11993.423    9553.1983    11100.841    1618.5395    478.11772    -522.8324   -2204.9505 
 9145000    296.31637   -3756.9173   -3249.0412   -3756.9173            0    13868.509    16.816766    19.807929    20.516416    6834.1271    13814.795    12257.155    15533.576    404.95108    1787.0755   -2809.7151   -1866.7845 
 9146000    282.70678   -3771.5659   -3287.0162   -3771.5659            0    11208.533    16.809129    19.798934    20.507099    6824.8207    9492.8721    12475.208     11657.52    677.90208    984.25184   -906.66334   -2171.3971 
 9147000    279.47159   -3790.2186   -3311.2139   -3790.2186            0    13899.438    16.744632    19.722965    20.428413     6746.561    13035.212    15361.026    13302.076    275.00875   -481.19071    184.12406    -1943.625 
 9148000    275.65293   -3808.9343   -3336.4746   -3808.9343            0    11879.012     16.78632    19.772068    20.479272    6797.0757    12123.612    9031.6106    14481.813    292.85846    808.83077    840.45559   -2158.9274 
 9149000    286.96118   -3722.7438   -3230.9021   -3722.7438            0    14984.191    16.781667    19.766587    20.473594    6791.4241    14913.212    13568.109    16471.251    1060.0272    887.78347    980.26615   -1746.7787 
 9150000    278.25198   -3770.4465   -3293.5322   -3770.4465            0    11684.129    16.830136    19.823677    20.532726    6850.4397    11578.294    11726.658    11747.435    1027.4625   -949.15795   -697.23654   -2126.2101 
 9151000    280.35339   -3753.7871   -3273.2709   -3753.7871            0    9840.8134    16.872742    19.873861    20.584705    6902.5977    9364.2922    11277.038    8881.1099    2206.7131   -467.65172    -369.8798   -2282.6228 
 9152000    268.26424   -3803.6616   -3343.8659   -3803.6616            0    12539.585     16.81645    19.807557     20.51603    6833.7419    13496.048     12253.09    11869.618    -348.8155    1989.5789   -995.29017   -2094.1317 
 9153000    296.19375   -3777.9754   -3270.3095   -3777.9754            0    10551.267    16.825459    19.818169    20.527021     6844.731    11244.796    11802.437    8606.5684   -2026.5343   -476.75931    694.72525   -2217.0463 
 9154000    275.90982   -3771.5067   -3298.6068   -3771.5067            0    13611.142    16.782993    19.768149    20.475212    6793.0348    13520.552    11016.291    16296.583    1036.7227    122.28667   -38.225397   -1950.1585 
 9155000    293.97655   -3802.8086   -3298.9429   -3802.8086            0    12724.121    16.790732    19.777264    20.484654    6802.4359    12498.277    13180.612    12493.473    -481.0437   -315.87587    144.61542   -2036.6267 
 9156000    262.45729   -3793.8895   -3344.0467   -3793.8895            0    10028.351    16.830552    19.824167    20.533234    6850.9478    9484.4065    11022.142    9578.5036    88.635518    1238.1755    1581.1493   -2342.0736 
 9157000    277.91188   -3802.3851   -3326.0536   -3802.3851            0    10567.281    16.763732    19.745462    20.451714    6769.6734    10025.085    11949.453     9727.304    992.63732    327.87144   -908.68841   -2282.7593 
 9158000    279.75271   -3786.9893   -3307.5028   -3786.9893            0    13232.092    16.739783    19.717254    20.422497    6740.7015     12416.13    12914.785    14365.361     -2111.65    909.06602    532.17989   -2006.7059 
 9159000     284.3532    -3798.827   -3311.4553    -3798.827            0    12143.786    16.810506    19.800556    20.508778    6826.4977    13113.057    13286.388    10031.915   -57.472846   -164.37991    513.07589   -2102.4507 
 9160000    300.67894   -3760.9189   -3245.5655   -3760.9189            0    11704.022    16.832339    19.826272    20.535415    6853.1309    11537.252    11625.936    11948.878     1393.466    348.20602   -721.82504   -2075.7966 
 9161000    278.63069   -3808.6567   -3331.0933   -3808.6567            0    12603.272     16.77756     19.76175    20.468584      6786.44    9749.8462     15390.39    12669.581    305.66295    408.80336   -158.81205   -2083.7062 
 9162000    274.26428   -3794.1068   -3324.0272   -3794.1068            0    10713.571    16.816396    19.807493    20.515964     6833.676    7493.2441    13485.453    11162.016    189.00085    1467.6528   -289.14007   -2256.2896 
 9163000    284.05073   -3781.3721   -3294.5188   -3781.3721            0    12730.683    16.787763    19.773768    20.481032    6798.8288     11434.72    15539.935    11217.394   -1321.4675   -470.61114    2736.3389   -2032.2214 
 9164000     290.7926    -3811.166   -3312.7574    -3811.166            0    12802.034    16.812133    19.802472    20.510763      6828.48    12557.804    14050.103    11798.194    1089.1634    586.08532    842.00968   -2037.8493 
 9165000    290.11109   -3796.5265    -3299.286   -3796.5265            0    14640.319    16.740557    19.718165     20.42344    6741.6357    12981.075    15363.247    15576.636   -704.31015   -272.18882    894.04986   -1859.8521 
 9166000    282.68224   -3767.3589   -3282.8512   -3767.3589            0    11601.977    16.786218    19.771947    20.479147    6796.9513    13353.821      10710.3    10741.809   -67.632223    -229.7612    401.66339   -2132.7872 
 9167000    262.58822   -3756.4831   -3306.4158   -3756.4831            0    11795.472    16.777726    19.761945    20.468787    6786.6415    12429.651    12094.826    10861.939    385.01124   -631.47756    182.43826   -2138.9448 
 9168000    302.59477   -3739.9816   -3221.3445   -3739.9816            0    13518.195    16.731557    19.707564    20.412461    6730.7688    13859.028     13747.82    12947.738    1038.4197   -51.059211    523.44153   -1894.3801 
 9169000    289.40735   -3745.3442   -3249.3099   -3745.3442            0    11965.835    16.784086    19.769437    20.476546    6794.3623    10186.478    14594.046     11116.98    220.14092    1153.1543    320.57294   -2063.6297 
 9170000    289.11237   -3744.9627    -3249.434   -3744.9627            0    14540.282    16.718221    19.691856    20.396191    6714.6873     14168.57    16240.109    13212.166   -916.88364    1210.2068    794.18112   -1825.5504 
 9171000    282.35874   -3768.6046   -3284.6514   -3768.6046            0    12446.595     16.71665    19.690006    20.394274    6712.7943    14535.914    9536.4958    13267.374    1174.1371    27.086252    1194.2199   -2066.1395 
 9172000    292.74702   -3770.1737   -3268.4153   -3770.1737            0    11177.361    16.768383     19.75094    20.457388    6775.3091    10937.511    11619.035    10975.536   -193.92376   -83.017155   -932.25252   -2163.9699 
 9173000    281.93591   -3793.3888   -3310.1603   -3793.3888            0     12693.44    16.768259    19.750794    20.457236    6775.1589    14901.957    12300.884     10877.48   -985.66707    108.90127   -213.46966   -2055.9374 
 9174000    284.69475    -3774.897     -3286.94    -3774.897            0    13415.138     16.72443    19.699169    20.403766    6722.1711    15103.997        14511    10630.416   -76.574259   -569.55658    746.37664   -1971.7739 
 9175000    288.29827   -3774.0927   -3279.9594   -3774.0927            0     13529.08    16.796577    19.784149    20.491784    6809.5423    14264.482    12762.395    13560.362    1642.6636   -2779.9101      124.631   -1936.3839 
 9176000    291.59215   -3778.4787   -3278.6997   -3778.4787            0    12123.006    16.791713     19.77842    20.485851    6803.6292    11401.465    13160.598    11806.955    2651.8087   -272.96575    421.34375   -2075.8071 
 9177000    293.88014   -3751.7232   -3248.0227   -3751.7232            0    12579.902    16.827887    19.821028    20.529983    6847.6941    11915.349    13754.536    12069.821    98.987239   -751.40539    1864.4678   -1991.7107 
 9178000    298.30071   -3776.2518   -3264.9746   -3776.2518            0    10755.936    16.796441    19.783989    20.491619    6809.3773    11790.959    7891.1307    12585.719   -245.43845   -773.48532    390.36574   -2196.8264 
 9179000    286.45072   -3767.7484   -3276.7816   -3767.7484            0    10757.437    16.836637    19.831335    20.540658    6858.3818    9996.8638    12698.104    9577.3431    99.454467    16.872896   -1216.1639   -2200.7963 
 9180000    279.18418   -3767.5384   -3289.0262   -3767.5384            0    10588.234    16.919104     19.92847    20.641268    6959.6546    10790.404    10737.101    10237.198    621.46623   -1332.2061   -1084.9826   -2214.3266 
 9181000     300.7176   -3783.6329   -3268.2132   -3783.6329            0    12936.797    16.784351    19.769748    20.476869    6794.6838    13202.962    11506.811    14100.616    546.33025    704.80451   -636.59646   -1986.2609 
 9182000    307.08268   -3736.3195   -3209.9903   -3736.3195            0    12587.163    16.780841    19.765614    20.472587    6790.4216    12236.447    15243.702     10281.34   -221.08587   -256.05461   -1951.2931   -1963.4667 
 9183000    288.90452   -3774.1093   -3278.9368   -3774.1093            0    11355.468    16.806044      19.7953    20.503335    6821.0635    12010.991    11430.985    10624.427    1126.2164    260.44818     548.1502   -2149.3152 
 9184000     276.2348   -3788.3887   -3314.9317   -3788.3887            0    10304.641    16.863655    19.863158     20.57362    6891.4517    10315.974    10705.191    9892.7588    -704.4048   -138.27009   -1154.7989   -2279.2663 
 9185000    295.47879   -3785.0257   -3278.5852   -3785.0257            0    12240.929    16.861734    19.860895    20.571276    6889.0967    12124.426    12637.781    11960.578   -578.99183    95.413114   -317.47282   -2048.7341 
 9186000    296.36927   -3740.9092   -3232.9424   -3740.9092            0    10807.392     16.81034     19.80036    20.508575    6826.2952    9172.6309    12262.257    10987.286   -1021.0596   -418.47048   -157.38561   -2157.0178 
 9187000    272.10638   -3751.1064   -3284.7254   -3751.1064            0    9865.9776    16.784792    19.770268    20.477407    6795.2194    9815.1026    10186.895    9595.9351    747.42577    -2190.713   -721.99963   -2306.9941 
 9188000    285.51904   -3731.7611   -3242.3913   -3731.7611            0    13033.843    16.776305    19.760272    20.467053    6784.9173     12555.39    14231.493    12314.647    75.856138    120.76346    1650.5806   -1952.6787 
 9189000    287.93108   -3820.0951   -3326.5911   -3820.0951            0    13727.084    16.760402    19.741539    20.447651    6765.6397    14776.133    15775.292    10629.827    645.44825    227.67294   -1486.3982   -1972.1409 
 9190000     295.8379   -3764.3722   -3257.3162   -3764.3722            0    13035.315     16.79459    19.781808     20.48936    6807.1261    15302.201     12747.35    11056.395   -190.51133    1367.2932    -1910.814   -1963.2359 
 9191000    292.54506   -3799.5374   -3298.1252   -3799.5374            0    12144.983     16.80126    19.789664    20.497497    6815.2393    14155.426    10362.205    11917.317   -127.73926   -409.22494   -261.35166   -2090.9956 
 9192000    284.35545   -3762.8599   -3275.4844   -3762.8599            0    12059.753    16.847372    19.843979    20.553755    6871.5089    12627.065    11132.499    12419.694   -1364.6471   -11.089285    1170.7039   -2066.9294 
 9193000    292.53654   -3779.1795   -3277.7819   -3779.1795            0    13387.043    16.822182    19.814309    20.523023    6840.7321      14196.5    11343.771    14620.859    -206.1611   -1439.8683    123.58925   -1942.2227 
 9194000    297.13002   -3783.1066   -3273.8359   -3783.1066            0    12364.696     16.81419    19.804895    20.513273     6830.987    12868.348    10454.573    13771.167   -829.06394    1044.0334    1540.7903   -2042.0285 
 9195000    284.19591   -3773.4286   -3286.3265   -3773.4286            0    11791.631     16.83904    19.834164    20.543589    6861.3178    12798.932    10948.859    11627.103   -197.35484   -552.81818    784.38646   -2106.3936 
 9196000    283.45635   -3796.8638   -3311.0294   -3796.8638            0    9834.1587    16.835873    19.830434    20.539725    6857.4476    9337.1384    8432.1548    11733.183   -2086.5925   -1408.6089    1561.3295   -2327.5266 
 9197000    290.45167   -3741.0885   -3243.2643   -3741.0885            0     14302.48    16.705345    19.676689    20.380482    6699.1841     13872.53    16015.505    13019.406    729.43977    378.73063   -499.21877   -1845.9015 
 9198000    289.99401   -3790.1929   -3293.1531   -3790.1929            0    11288.819     16.80775    19.797309    20.505416    6823.1408    12863.341    10626.101    10377.016   -863.30146   -239.92884    254.83197   -2169.8195 
 9199000    292.41598   -3795.7446   -3294.5536   -3795.7446            0    12746.178    16.787378    19.773313    20.480561    6798.3601    13707.237    12187.889    12343.408   -1535.6495    -2113.715   -858.06781   -2030.8069 
 9200000     291.5785   -3811.1809   -3311.4253   -3811.1809            0    12275.015    16.773066    19.756457    20.463102    6780.9882    12828.251    10266.753    13730.043    1353.0899    657.13754    998.56541   -2097.5029 
 9201000    288.94561    -3794.427   -3299.1841    -3794.427            0    13807.043    16.761114    19.742378     20.44852    6766.5023     10604.52    14848.276    15968.334   -822.23325    1092.4994   -1430.5155   -1936.6706 
 9202000    292.48658   -3760.0847   -3258.7728   -3760.0847            0    11936.697    16.790463    19.776947    20.484325    6802.1089    11355.894     12586.29    11867.909   -1645.6591   -773.59574    1557.5499   -2074.6311 
 9203000    277.77595   -3789.4142   -3313.3157   -3789.4142            0    10921.969    16.853539    19.851243    20.561278    6879.0573    10559.454     11936.95    10269.504   -773.53158    495.21999   -407.96252   -2217.5801 
 9204000    265.82127   -3772.2123   -3316.6038   -3772.2123            0    11893.635    16.764234    19.746053    20.452326    6770.2815    13650.747    9687.3784     12342.78    -168.2174   -1088.2315    2365.6306   -2142.2546 
 9205000    284.59731   -3817.9967   -3330.2066   -3817.9967            0    12821.936    16.798281    19.786156    20.493863    6811.6148    13329.244    11981.931    13154.634    1195.1543   -342.00042   -1528.7533   -2056.4701 
 9206000    271.11623   -3816.0463   -3351.3624   -3816.0463            0    12037.332    16.856386    19.854597    20.564752    6882.5445    11860.724    12449.475    11801.798   -191.72649   -262.61371   -640.33746   -2143.1169 
 9207000    287.10687   -3791.4432   -3299.3518   -3791.4432            0    11471.491    16.822598    19.814798     20.52353    6841.2389    10807.201    11952.043    11655.228    158.40894    1206.6285   -653.17242   -2154.8131 
 9208000     294.5515   -3761.8277   -3256.9765   -3761.8277            0    12085.483    16.786307    19.772053    20.479256    6797.0599    13160.013    10285.401    12811.035    1083.5293   -527.66225    55.357823   -2058.9649 
 9209000    287.32853   -3795.1486   -3302.6774   -3795.1486            0    11370.307    16.796475    19.784029     20.49166    6809.4184    12467.415    10089.134    11554.373    83.871319    1047.8007     358.8012   -2173.5106 
 9210000    285.14457   -3724.8495   -3236.1215   -3724.8495            0    12575.491    16.798717    19.786669    20.494395    6812.1452    11490.147    13073.558    13162.768    601.86836   -1244.9728   -6.8656166   -1986.7697 
 9211000    279.39934   -3757.3996   -3278.5186   -3757.3996            0     13113.96    16.769971    19.752811    20.459325    6777.2347    12468.962    13240.549    13632.367   -250.10171    788.73506   -122.13077   -1982.3478 
 9212000    287.68687   -3776.6511   -3283.5657   -3776.6511            0    12855.848    16.801745    19.790237     20.49809    6815.8304    11338.189    14187.495     13041.86   -1061.5621    553.55644   -341.23351     -2005.67 
 9213000    295.32583   -3773.7122   -3267.5338   -3773.7122            0    12462.618    16.777681    19.761893    20.468732     6786.587     12031.54    13508.638    11847.674    1584.1781    306.32493   -67.316374   -2034.0411 
 9214000    284.71391   -3800.8439    -3312.854   -3800.8439            0     11513.21    16.815997    19.807023    20.515477    6833.1889    12178.155     10211.84    12149.635   -235.38141   -148.47369   -1091.1415   -2165.5045 
 9215000    282.39128   -3831.1952   -3347.1862   -3831.1952            0    10666.785    16.765057    19.747023     20.45333    6771.2787    10859.499    11430.052    9710.8038   -1389.3221    307.09251    -406.5936   -2293.8182 
 9216000    291.74293   -3817.6625   -3317.6251   -3817.6625            0     10712.87    16.784221    19.769596    20.476711    6794.5262    10922.021    11161.455    10055.134    -2175.176    409.33815    13.453512    -2256.074 
 9217000    280.86472   -3784.3199   -3302.9274   -3784.3199            0    11913.665    16.824058    19.816518    20.525312    6843.0211    10801.037    13729.334    11210.622   -1379.4936    -1426.151   -989.25286   -2113.9622 
 9218000    286.66957   -3745.3508    -3254.009   -3745.3508            0    13128.311    16.801355    19.789777    20.497614    6815.3561    13578.231    13298.532     12508.17   -1434.7809    510.87329    2244.1128   -1949.1208 
 9219000    288.01732    -3735.742   -3242.0901    -3735.742            0     12713.77    16.759519      19.7405    20.446575    6764.5712    13741.217    13590.543    10809.552   -4.3424372   -127.34687   -2456.4927   -1987.8216 
 9220000    288.64811   -3820.7109   -3325.9779   -3820.7109            0    10601.914    16.824087    19.816552    20.525347    6843.0561    9316.5282    11953.975    10535.239    1912.6862    -92.58495   -1034.4818    -2267.918 
 9221000    271.32177   -3759.0698   -3294.0336   -3759.0698            0    10754.821    16.821326      19.8133    20.521978    6839.6873    11294.844    9142.6743    11826.944    1207.1808   -167.24389    42.969647   -2221.2421 
 9222000    284.45647   -3781.0643   -3293.5156   -3781.0643            0    14277.437    16.736055    19.712862    20.417948    6736.1988    14159.119    14533.839    14139.353     1478.527   -1678.1356   -84.131606   -1890.8924 
 9223000    283.51183   -3785.9152   -3299.9856   -3785.9152            0      13381.6    16.729448     19.70508    20.409888    6728.2238     13468.04    14951.178    11725.582    1322.0484    2077.8329   -1311.7515   -1986.9263 
 9224000    291.34853   -3780.2623   -3280.9008   -3780.2623            0    13892.869    16.719255    19.693074    20.397452    6715.9328    12352.438    13289.826    16036.343    1128.2888    235.98335     -905.429   -1920.1639 
 9225000    278.43341   -3799.3191   -3322.0938   -3799.3191            0    13119.388    16.753253    19.733119    20.438929    6756.9857    12257.305    14547.918     12552.94   -1462.5941    1096.5084    478.68657   -2029.2607 
 9226000    295.97447   -3785.2951    -3278.005   -3785.2951            0    10958.229    16.780096    19.764736    20.471678    6789.5172    11738.835    10367.255    10768.596   -77.160662   -497.05837    1181.5764   -2192.9415 
 9227000    296.31439   -3711.6646   -3203.7919   -3711.6646            0     12398.86    16.786085    19.771791    20.478984    6796.7896    13524.471    11708.015    11964.095   -317.79178    588.00936   -880.18329   -1974.7648 
 9228000    295.63526   -3754.9425   -3248.2338   -3754.9425            0    11806.792    16.829315     19.82271    20.531725    6849.4371    13521.513    11332.742    10566.121    1422.9825    321.59917    847.10694   -2068.8296 
 9229000    287.77803   -3743.3985   -3250.1568   -3743.3985            0    12491.297    16.793726    19.780791    20.488306    6806.0757    12957.772    11675.321    12840.797    1270.1772   -727.28377   -355.94189   -2010.2753 
 9230000    292.23827   -3745.8661   -3244.9797   -3745.8661            0    12389.971    16.821897    19.813973    20.522675    6840.3843    12725.531    10636.836    13807.545    1696.8385   -1139.1358   -673.17051   -2008.9563 
 9231000    296.16904   -3771.9419   -3264.3183   -3771.9419            0    12370.086    16.846505    19.842958    20.552697    6870.4476    11757.424     13655.58    11697.253    1067.1773   -572.77196      762.579   -2024.8552 
 9232000    290.72711   -3763.2816   -3264.9853   -3763.2816            0    14075.183    16.778057    19.762335     20.46919    6787.0428    13987.389    13783.931    14454.229    958.52442   -2139.2948   -438.75844   -1871.7947 
 9233000    282.27702   -3763.4327   -3279.6196   -3763.4327            0     11537.22    16.818524    19.809999     20.51856      6836.27    11495.751    11361.789    11754.119   -244.22235   -601.45449    917.11802   -2129.3589 
 9234000     290.0124   -3770.5197   -3273.4483   -3770.5197            0    11094.614    16.850166     19.84727    20.557163    6874.9281    11157.477    11237.896    10888.469   -4.7486877   -512.70212    115.50268   -2161.0604 
 9235000    283.06658   -3814.4675   -3329.3011   -3814.4675            0    9973.3011    16.877655    19.879648      20.5907    6908.6295    10404.426    10592.944    8922.5333   -1549.1144    2583.0124   -213.93841   -2324.4384 
 9236000    277.82786   -3786.6962   -3310.5087   -3786.6962            0    11559.025    16.855665    19.853747    20.563872    6881.6605    11974.449    11011.076     11691.55   -1494.3886   -747.59099   -279.35968   -2150.4223 
 9237000    291.09719   -3777.8284   -3278.8978   -3777.8284            0    11888.796    16.780607    19.765338    20.472301    6790.1375     13128.61    9866.2219    12671.557   -268.84554     255.6322    188.61311   -2101.5837 
 9238000    286.18015   -3749.1179   -3258.6149   -3749.1179            0    12722.763    16.810635    19.800708    20.508936     6826.655    12949.488    13194.649    12024.153    162.97851    1566.3331    1015.8077   -1991.9397 
 9239000    277.01552    -3755.942   -3281.1469    -3755.942            0    9801.5091    16.844347    19.840416    20.550064    6867.8082    12044.547    7942.6959     9417.284   -41.752464   -384.91504   -1292.6089   -2299.4284 
 9240000    283.31817   -3762.9639   -3277.3662   -3762.9639            0    10210.527     16.86282    19.862175    20.572601    6890.4284     10388.08    9542.4296    10701.071    893.79757    1143.5882    110.94727   -2251.3121 
 9241000    267.16526    -3745.952   -3288.0399    -3745.952            0    11741.516    16.841482    19.837041    20.546568    6864.3034    11610.917    10899.554    12714.076   -1194.7653    -819.3638    169.66686   -2112.6106 
 9242000    285.07561   -3738.7732   -3250.1633   -3738.7732            0    11491.603    16.812158    19.802502    20.510794    6828.5106    13303.949    9761.3732    11409.487    961.52106   -1117.2914    176.78458   -2105.7511 
 9243000    292.46157   -3718.3823   -3217.1132   -3718.3823            0    14638.747    16.773313    19.756748    20.463403    6781.2877    15679.027    13886.564     14350.65   -478.52119   -197.62184    99.659573   -1769.3685 
 9244000    289.86726   -3761.3686    -3264.546   -3761.3686            0    13865.783    16.789555    19.775878    20.483218    6801.0058     11754.76    15856.743    13985.846    988.73118    380.59206   -563.45458   -1889.2587 
 9245000    293.18867   -3738.1032   -3235.5879   -3738.1032            0    12657.474    16.765287    19.747294    20.453611    6771.5576    12202.317    11707.903    14062.201    1322.0317   -1035.7097   -650.05555   -1985.5836 
 9246000    285.78956    -3789.378   -3299.5444    -3789.378            0    8311.7194    16.957953    19.974229    20.688664    7007.7064    7817.8594    8829.4324    8287.8666    25.233053   -109.77546   -469.16286    -2450.085 
 9247000    281.42801   -3772.9073   -3290.5493   -3772.9073            0     11583.52    16.872184    19.873205    20.584026    6901.9139    12484.648     10123.87    12142.042   -329.71638    156.71565     2498.721   -2124.5831 
 9248000     290.2565   -3751.9261   -3254.4364   -3751.9261            0    12512.421    16.852886    19.850474    20.560482    6878.2576    9634.9557    15092.439    12809.867   -417.47644    81.385239   -216.59598   -1999.2863 
 9249000    281.05736   -3776.5406   -3294.8179   -3776.5406            0    10962.618    16.861852    19.861034     20.57142    6889.2413     11046.03    11302.283    10539.541   -1315.1224   -466.31435    1166.1711   -2193.3761 
 9250000    291.80068   -3758.1048   -3257.9684   -3758.1048            0    11964.445    16.875599    19.877227    20.588192    6906.1056    11924.333     11920.23    12048.773   -215.71945     1347.662    510.27507   -2052.9279 
Loop time of 461.433 on 64 procs for 250000 steps with 864 atoms

Performance: 93.621 ns/day, 0.256 hours/ns, 541.790 timesteps/s
99.0% CPU use with 64 MPI tasks x 1 OpenMP threads

MPI task timing breakdown:
Section |  min time  |  avg time  |  max time  |%varavg| %total
---------------------------------------------------------------
Pair    | 22.478     | 27.706     | 32.653     |  45.5 |  6.00
Bond    | 0.27441    | 0.28302    | 0.29887    |   0.9 |  0.06
Kspace  | 192.01     | 202.48     | 216.54     |  33.1 | 43.88
Neigh   | 6.7378     | 7.6252     | 9.5348     |  25.2 |  1.65
Comm    | 93.395     | 107.74     | 115.57     |  49.1 | 23.35
Output  | 1.0274     | 1.0304     | 1.0425     |   0.4 |  0.22
Modify  | 108        | 110.2      | 112.67     |  12.3 | 23.88
Other   |            | 4.363      |            |       |  0.95

Nlocal:        13.5000 ave          19 max           9 min
Histogram: 1 3 4 14 15 5 11 7 2 2
Nghost:        2295.75 ave        2327 max        2247 min
Histogram: 2 0 4 4 10 14 5 9 9 7
Neighs:        4460.78 ave        6037 max        2872 min
Histogram: 2 3 5 15 10 8 9 2 5 5

Total # of neighbors = 285490
Ave neighs/atom = 330.42824
Ave special neighs/atom = 2.0000000
Neighbor list builds = 16344
Dangerous builds = 1

unfix		3
unfix		2
unfix		1

write_data	data.final.${pid}
write_data	data.final.0
System init for write_data ...
PPPM initialization ...
  extracting TIP4P info from pair style
  using 12-bit tables for long-range coulomb (../kspace.cpp:340)
  G vector (1/distance) = 0.37474532
  grid = 24 24 24
  stencil order = 5
  estimated absolute RMS force accuracy = 0.0031062495
  estimated relative force accuracy = 9.3543782e-06
  using double precision FFTW3
  3d grid and FFT values/proc = 2535 216
Last active /omp style is kspace_style pppm/tip4p/omp
WARNING: Not all mixed pair coeffs generated from mixing. Use write_data with 'pair ij' option to store all pair coeffs. (../write_data.cpp:312)

write_restart   restart.lmp.${pid}
write_restart   restart.lmp.0
System init for write_restart ...
PPPM initialization ...
  extracting TIP4P info from pair style
  using 12-bit tables for long-range coulomb (../kspace.cpp:340)
  G vector (1/distance) = 0.37474532
  grid = 24 24 24
  stencil order = 5
  estimated absolute RMS force accuracy = 0.0031062495
  estimated relative force accuracy = 9.3543782e-06
  using double precision FFTW3
  3d grid and FFT values/proc = 2535 216
Last active /omp style is kspace_style pppm/tip4p/omp
Total wall time: 0:07:43
