LAMMPS (30 Jul 2021)
  using 1 OpenMP thread(s) per MPI task
package omp 0
using multi-threaded neighbor list subroutines
echo both

include		in.partitions
variable        pid world 0
include		in.temp
variable        temperature equal 264.61
variable	tempDamp equal 100.0
include		in.pressure
variable        pressure equal 8875.0
variable        pressureDamp equal 1000.0 # This is 1 ps
include		in.seed
variable        seed world 745823

units		real
atom_style	full
read_restart    restart.lmp.${pid}
read_restart    restart.lmp.0
Reading restart file ...
  restart file = 30 Jul 2021, LAMMPS = 30 Jul 2021
  restoring atom style full from restart
  triclinic box = (-3.1488383 -0.16069773 -0.048684370) to (14.758837 22.740697 19.278682) with tilt (-0.37486683 -6.1058346 0.22387570)
  4 by 4 by 4 MPI processor grid
  restoring pair style lj/cut/tip4p/long/omp from restart
  restoring bond style harmonic/omp from restart
  restoring angle style harmonic/omp from restart
  1008 atoms
  672 bonds
  336 angles
Finding 1-2 1-3 1-4 neighbors ...
  special bond factors lj:    0        0        0       
  special bond factors coul:  0        0        0       
     2 = max # of 1-2 neighbors
     1 = max # of 1-3 neighbors
     1 = max # of 1-4 neighbors
     2 = max # of special neighbors
  special bonds CPU = 0.569 seconds
  read_restart CPU = 0.750 seconds

include 	in.setup
variable	out_freq equal 1000
variable	out_freq2 equal 10000
variable	out_freq3 equal 1000

timestep	2.0

neigh_modify    delay 7 every 1

include		in.tip4p
# This is TIP4P/Ice

# create groups ###
group ox type 2
336 atoms in group ox
group hy type 1
672 atoms in group hy

# set charges - beside manually ###
set group ox charge -1.1794
Setting atom values ...
  336 settings made for charge
set group hy charge 0.5897
Setting atom values ...
  672 settings made for charge

# ### TIP3P Potential Parameters ###
pair_style lj/cut/tip4p/long/omp 2 1 1 1 0.1577 8.5
pair_coeff 1 1*2 0.000 0.000
pair_coeff 2 2 0.21084 3.1668
bond_style  harmonic
bond_coeff  1 450 0.9572
angle_style harmonic
angle_coeff 1 55 104.52
kspace_style pppm/tip4p/omp 1.0e-5
pair_modify tail yes

thermo          ${out_freq}
thermo          1000
thermo_style    custom step temp pe etotal epair emol press lx ly lz vol pxx pyy pzz pxy pxz pyz enthalpy

restart 	${out_freq3} restart.lmp.${pid} restart2.lmp.${pid}
restart 	1000 restart.lmp.${pid} restart2.lmp.${pid}
restart 	1000 restart.lmp.0 restart2.lmp.${pid}
restart 	1000 restart.lmp.0 restart2.lmp.0


include         in.dump
dump            myDump all atom ${out_freq2} dump.water.${pid}
dump            myDump all atom 10000 dump.water.${pid}
dump            myDump all atom 10000 dump.water.0
dump            myDump2 all dcd ${out_freq2} dump.dcd
dump            myDump2 all dcd 10000 dump.dcd
dump_modify     myDump append yes
dump_modify     myDump2 append yes


variable natoms 	equal  "count(all)"                        # NUMBER ATOMS
variable H      	equal  "enthalpy/v_natoms"                 # ENTHALPY-per-atom
variable Vol      	equal  "vol/v_natoms"                 # volume-per-atom
fix AVG all 		ave/time ${out_freq} 1 ${out_freq} v_Vol v_H file vol_enthalpy.dat
fix AVG all 		ave/time 1000 1 ${out_freq} v_Vol v_H file vol_enthalpy.dat
fix AVG all 		ave/time 1000 1 1000 v_Vol v_H file vol_enthalpy.dat



fix 		1 all shake 1e-6 200 0 b 1 a 1
       0 = # of size 2 clusters
       0 = # of size 3 clusters
       0 = # of size 4 clusters
     336 = # of frozen angles
  find clusters CPU = 0.038 seconds
fix             2 all nph tri ${pressure} ${pressure} ${pressureDamp}
fix             2 all nph tri 8875 ${pressure} ${pressureDamp}
fix             2 all nph tri 8875 8875 ${pressureDamp}
fix             2 all nph tri 8875 8875 1000
fix             3 all temp/csvr ${temperature} ${temperature} ${tempDamp} ${seed}
fix             3 all temp/csvr 264.61 ${temperature} ${tempDamp} ${seed}
fix             3 all temp/csvr 264.61 264.61 ${tempDamp} ${seed}
fix             3 all temp/csvr 264.61 264.61 100 ${seed}
fix             3 all temp/csvr 264.61 264.61 100 745823


run             250000
PPPM initialization ...
  extracting TIP4P info from pair style
  using 12-bit tables for long-range coulomb (../kspace.cpp:340)
  G vector (1/distance) = 0.3798196
  grid = 24 27 32
  stencil order = 5
  estimated absolute RMS force accuracy = 0.0023767428
  estimated relative force accuracy = 7.1574903e-06
  using double precision FFTW3
  3d grid and FFT values/proc = 3825 384
Last active /omp style is kspace_style pppm/tip4p/omp
Neighbor list info ...
  update every 1 steps, delay 7 steps, check yes
  max neighbors/atom: 2000, page size: 100000
  master list distance cutoff = 10.8154
  ghost atom cutoff = 10.8154
  binsize = 5.4077, bins = 5 5 4
  1 neighbor lists, perpetual/occasional/extra = 1 0 0
  (1) pair lj/cut/tip4p/long/omp, perpetual
      attributes: half, newton on, omp
      pair build: half/bin/newton/tri/omp
      stencil: half/bin/3d/tri
      bin: standard
Per MPI rank memory allocation (min/avg/max) = 9.312 | 9.326 | 9.337 Mbytes
Step Temp PotEng TotEng E_pair E_mol Press Lx Ly Lz Volume Pxx Pyy Pzz Pxy Pxz Pyz Enthalpy 
 7750000    270.61135   -4781.8466   -4240.5905   -4781.8466            0    9501.2924    17.907676    22.901394    19.327367    7926.3607     8905.289      9774.31    9824.2782    1346.4976   -516.45735   -52.613208   -3142.2616 
 7751000    256.71502   -4802.4377   -4288.9759   -4802.4377            0    7071.1775     18.12988    22.878649    19.256816    7987.4798    6289.6599    7183.1539    7740.7187    1005.5519    451.25402   -650.78818   -3465.2601 
 7752000    262.64542   -4795.8673    -4270.544   -4795.8673            0    9299.4018     17.96544    22.727402    19.410937    7925.6368    10077.209    9416.9252    8404.0716    280.11642    721.92582    290.88291   -3195.6514 
 7753000    265.10728   -4813.1834   -4282.9361   -4813.1834            0    9963.5762    17.972297    22.879366    19.178853    7886.2438    6289.6401    11455.806    12145.282   -1024.8181   -420.39945   -1173.8493   -3136.9976 
 7754000    260.32516   -4837.0908   -4316.4083   -4837.0908            0    9207.7604    17.956888    22.611019    19.446316    7895.6619    9419.4564    9108.5154    9095.3095   -858.50646   -138.72643   -467.91761   -3256.1335 
 7755000    260.11528   -4804.1984   -4283.9357   -4804.1984            0     8891.406    18.146307    22.626204    19.391722    7961.8931    8239.0225     10588.14    7847.0557    419.87083    746.14905    1534.9737   -3251.5008 
 7756000    272.68505   -4805.9641   -4260.5603   -4805.9641            0    9976.0543    18.115156    22.595206     19.34338    7917.5487    10451.071    10874.107    8602.9844   -2771.0401    1641.8298   -91.071188    -3108.632 
 7757000    265.19148   -4814.2954   -4283.8796   -4814.2954            0    9683.2197    17.996041    22.656336    19.406799    7912.6248    8657.1779      10841.4    9551.0806    121.61338    545.30785    2659.6087   -3166.4602 
 7758000    269.41744   -4819.3177   -4280.4495   -4819.3177            0    9442.8153    18.015621    22.892907    19.267453    7946.4745    8072.3403    9564.1352     10691.97    -588.0716    497.67064     1273.683   -3186.1105 
 7759000     274.7919   -4799.4507   -4249.8329   -4799.4507            0    8504.9083    17.864857    23.010967    19.352885    7955.7317    7681.7008    9032.8742    8800.1498    856.38019    69.524639    365.54846   -3263.0408 
 7760000    271.95186   -4805.0815   -4261.1442   -4805.0815            0    9292.2623    17.848518      22.9869    19.330332    7930.8889    9199.7319    9100.1421    9576.9127    2458.4073     267.7189    774.80128   -3186.3651 
 7761000    261.06759   -4807.0701   -4284.9027   -4807.0701            0    10010.208    17.996908    23.042642    19.073128     7909.556    10183.283    9486.0175    10361.324    587.19826   -4.0244389    850.07301   -3130.1975 
 7762000    276.27146   -4780.4337   -4227.8566   -4780.4337            0     10163.09    17.746836    23.037456    19.317453    7897.7857    11236.575    10183.122    9069.5711   -759.91909   -1029.0168   -921.97571   -3057.2607 
 7763000    270.07103   -4774.6762   -4234.5008   -4774.6762            0     8549.091     17.89476    23.174858    19.276083    7993.9556    8693.7047    8222.5111    8731.0572   -556.08609    453.39182    813.05792   -3237.8166 
 7764000    273.09305   -4819.6311   -4273.4113   -4819.6311            0    8932.4866    17.820836    23.087549    19.203646    7901.1372    8263.5468    9140.4324    9393.4806    553.86888    1471.6668    1433.9311   -3244.1211 
 7765000    274.62459     -4826.71   -4277.4269     -4826.71            0    9029.3687    17.746657    23.423731    19.011989    7903.1493    10656.122    7591.6414    8840.3425   -177.89967    126.96035     299.3089    -3236.708 
 7766000    256.11645   -4786.4787   -4274.2142   -4786.4787            0    9015.0697    17.851612    23.128585    19.203505    7928.7919    9973.5105    8764.6392    8307.0594   -55.790318    1120.5297    899.53577   -3231.7719 
 7767000    274.31729   -4812.7385     -4264.07   -4812.7385            0     11309.18    17.838468    22.969371    19.127833    7837.4078    11451.993    10489.911    11985.635   -556.20859   -739.95212    478.81204   -2971.4245 
 7768000    249.17791    -4809.499   -4311.1124    -4809.499            0    6275.6646    17.778117    23.041526    19.528036    7999.3659    8005.2503    5610.6093    5211.1343    466.34836   -676.49337    48.412863   -3578.9773 
 7769000    262.94199   -4806.7133   -4280.7968   -4806.7133            0    8795.3851    17.910898     23.05933    19.215665    7936.3256    10501.545    7521.4222    8363.1883   -593.86835   -384.70486   -1652.1456   -3262.7911 
 7770000    267.19983   -4826.4465   -4292.0138   -4826.4465            0    6948.0649    17.933476    23.026035    19.312763     7974.951    6569.9861      7379.72    6894.4886   -1631.4388   -20.436478   -735.36359   -3483.9088 
 7771000    271.36187   -4845.7573        -4303   -4845.7573            0    9314.9012    17.897941    22.938458    19.189731    7878.3666    8708.2841    10523.025     8713.394   -344.46084   -63.073718    -684.2488   -3232.7375 
 7772000    266.01938   -4809.1691   -4277.0975   -4809.1691            0    8899.1905    17.903857    23.011938    19.269303    7938.9997    8642.8802    9450.5154    8604.1758    1432.0914    1166.7213    1145.4266   -3246.7299 
 7773000    259.17703   -4819.1055   -4300.7195   -4819.1055            0    8460.3166     17.93166    22.931613    19.220287    7903.4183    9126.5415    8083.1954    8171.2128    684.39534       106.38   -187.44142   -3325.5559 
 7774000       277.74   -4772.3699   -4216.8556   -4772.3699            0    11675.725    17.832061    23.206654    18.983557    7855.8225     12963.85    11036.433    11026.891    -945.6038   -424.43395   -1141.2808   -2879.1782 
 7775000    267.34811   -4781.5291   -4246.7998   -4781.5291            0    9163.9991    17.801071    23.088685    19.289596    7928.0881    9070.9041    8618.8202    9802.2731    681.15742    881.84429    1975.0784   -3187.2304 
 7776000     264.4746   -4775.7291   -4246.7472   -4775.7291            0    8723.2719    17.917574    23.162849    19.201028    7968.8504    8881.9134    8394.0027    8893.8998    734.49129   -343.24215    796.25272   -3232.9503 
 7777000    279.01998   -4803.9305    -4245.856   -4803.9305            0    9293.9457    18.106695    22.842563     19.12929    7911.9379    8797.5423    9094.3043    9989.9904   -1251.1516     202.0937   -453.86603   -3173.4509 
 7778000    261.53614   -4811.9635   -4288.8589   -4811.9635            0     7167.116    17.924415    22.694045    19.528946    7943.9354    7931.8016    8188.8942    5380.6522    1330.4437    560.36732    1267.9273   -3458.5187 
 7779000    259.99351    -4795.104   -4275.0849    -4795.104            0    9594.0174    18.132741    22.763517    19.186264    7919.4173    8884.3148     9698.831    10198.907   -692.82612   -101.98429   -1678.3195   -3167.0087 
 7780000    274.35018   -4805.0189   -4256.2846   -4805.0189            0    8867.2084    17.851531    22.813827     19.52914    7953.4716    10476.772    8954.9136    7169.9394   -706.18885    377.83107    606.96962   -3227.7485 
 7781000    271.25894   -4787.0962   -4244.5448   -4787.0962            0    9484.1101    18.048347    22.922491     19.24123     7960.348    9088.8294    8945.1916    10418.309    674.69878    1066.3036   -1309.1948   -3143.5012 
 7782000    269.76829   -4793.1817   -4253.6118   -4793.1817            0    10112.082    17.849309    22.993109    19.183239    7873.0141    11057.875    9839.5028    9438.8695   -342.13047    86.777436   -1513.4446   -3092.5441 
 7783000    256.75331   -4793.3905   -4279.8522   -4793.3905            0     7249.642    17.780908    23.181571    19.440838    8013.3071    9155.9209    5763.4025    6829.6025     -538.656   -1235.3047     770.8173   -3432.6165 
 7784000    246.69327   -4808.2021   -4314.7851   -4808.2021            0    7655.2962    17.970741    23.016984    19.246311    7960.8949    6436.1689    7313.3667    9216.3529    172.67426    650.11596    447.92946   -3425.9938 
 7785000    263.48276    -4833.725   -4306.7269    -4833.725            0    10293.934    17.885771    22.862043    19.265175    7877.6315    8606.0487    12176.257    10099.495    -1159.564    1101.3784   -910.44322    -3124.086 
 7786000    270.27288   -4833.8737   -4293.2945   -4833.8737            0    10652.191    17.928948    22.911896    19.181081    7879.3234    12471.549    9329.5848     10155.44    1467.1284   -279.30827   -1034.2407   -3069.2315 
 7787000    273.14241   -4806.7717   -4260.4531   -4806.7717            0    9254.7166    17.838616    22.903445    19.300404    7885.4844    8376.6824    10367.888    9019.5791    -1139.929    186.78268   -1902.5479   -3196.1449 
 7788000    268.22603   -4827.8615   -4291.3763   -4827.8615            0    7500.7178    18.077352    22.841331    19.364414    7995.7752    6962.3972    7063.5202    8476.2361    484.89918      199.372    -46.42126   -3416.7162 
 7789000    267.19913   -4820.6408   -4286.2096   -4820.6408            0    9014.1687    18.044944     22.73608    19.320515    7926.6526    8028.0247    10764.564    8249.9174   -1177.9373   -114.73902    928.14594   -3244.1528 
 7790000    269.88696   -4807.5653    -4267.758   -4807.5653            0    9344.8492    18.148797    22.523801    19.432491    7943.6116    8939.5555    11078.891    8016.1016    957.99391    1132.5112     951.7727   -3185.1626 
 7791000    254.08642   -4777.2128   -4269.0086   -4777.2128            0    9401.0836    18.077492    22.577899     19.44953    7938.3604    8146.6237    10776.232     9280.395   -193.51556    1035.9405    -2263.821   -3180.6184 
 7792000    269.41997   -4816.6657   -4277.7925   -4816.6657            0     8040.091    18.131333    22.672578    19.384086    7968.4891     8006.464    7854.2732     8259.536   -1346.5025    299.01148    309.39265   -3343.4355 
 7793000    259.68275   -4769.0852   -4249.6876   -4769.0852            0    11042.801    17.995632    22.577551    19.418489    7889.6795    12117.338     10422.16    10588.907   -556.17352   -963.86507     932.9556   -2979.0711 
 7794000    257.87084   -4829.4163   -4313.6427   -4829.4163            0    10573.098    17.971057    22.753942    19.257764    7874.7383    11005.771    11327.354    9386.1701    2664.8457    712.46049    2822.7186   -3099.3755 
 7795000    254.25881   -4820.3581   -4311.8091   -4820.3581            0    9126.4807    18.014654    22.896543    19.199723    7919.3732     10174.41    9512.4305    7692.6016   -987.36179    -556.6851   -1433.6935   -3257.7377 
 7796000    257.49754   -4823.8245   -4308.7976   -4823.8245            0     8212.975    17.896968    22.959185    19.392372    7968.3219    8305.9825    8399.0477    7933.8947    305.95568   -1251.6933    1244.8955   -3354.3694 
 7797000    254.94764   -4781.1115   -4271.1847   -4781.1115            0    9191.5233    17.998657     22.84557    19.269539    7923.4336    9372.3516    9271.0375    8931.1808    394.54339    -201.3542   -650.71704   -3209.0568 
 7798000    263.77521   -4823.8845   -4296.3015   -4823.8845            0    10670.574    18.058889    22.557251    19.322946    7871.3741    11519.829    10791.444    9700.4497    469.20773    1051.2027   -1479.5019   -3071.3632 
 7799000    267.50985   -4791.2373   -4256.1845   -4791.2373            0    9984.2394    18.012774    22.745152    19.383371    7941.4306    11090.193    9548.7593    9313.7663    717.95046    722.09271   -742.06136   -3099.8337 
 7800000    261.09985   -4820.5532   -4298.3212   -4820.5532            0    8434.5351    17.959196    22.904589    19.258433     7921.918    7373.1018    9704.3719    8226.1315    153.43695    555.85935   -1224.5193   -3323.8536 
 7801000    279.80107   -4769.2378   -4209.6011   -4769.2378            0    7827.9096    17.920376    22.947089     19.39757    7976.6778    8566.0474    7499.2547    7418.4267    576.93204    38.681062     595.1221   -3298.9674 
 7802000    259.28103    -4824.137   -4305.5429    -4824.137            0    9352.5147       18.056    22.894984    19.143192    7913.6396    7932.7335     9475.167    10649.644     589.3956    -84.81106   -401.50934   -3226.1475 
 7803000    253.21196   -4817.2973   -4310.8421   -4817.2973            0    9241.8777    17.878402    22.889461    19.332262    7911.2832    9138.0545    10346.766    8240.8129   -1106.6614    1659.9489     585.3063   -3244.5332 
 7804000    281.48735   -4799.4938   -4236.4844   -4799.4938            0    9448.9148    17.972769    22.943378    19.191759    7913.8374    8434.8528    10651.216    9260.6758    1158.6464    1114.3953    1184.9096   -3145.9359 
 7805000    276.25029   -4804.2164   -4251.6817   -4804.2164            0    10378.876    17.789113    22.990788    19.295994     7891.786    10082.805    9589.4582    11464.365    803.40306    357.09667   -391.27069   -3057.1394 
 7806000    273.09174   -4792.2028   -4245.9855   -4792.2028            0    7703.7566    17.986163     23.19114    19.164727    7993.9836    5545.9045    7797.5995    9767.7658    411.96194    100.03024   -140.75302   -3347.8504 
 7807000     250.0432   -4815.7243    -4315.607   -4815.7243            0    7492.3095    17.968844    22.953816    19.287695     7955.278     8446.218    7091.1457    6939.5648   -426.02631      1431.11    980.10695   -3446.3525 
 7808000    264.22248   -4803.3429   -4274.8653   -4803.3429            0     9731.868    17.994013    22.886987    19.192225    7903.9102    10776.675    9036.1093    9382.8193   -875.90679    205.91462    72.071442   -3153.0688 
 7809000    265.65179   -4809.9184    -4278.582   -4809.9184            0    7857.8169    17.835177    22.923281     19.38587    7925.7342    6888.5168     8517.152    8167.7821   -1171.9191    276.47529    787.63318   -3370.3071 
 7810000    261.83045   -4801.8333   -4278.1401   -4801.8333            0    9773.0087    17.918081      22.8639    19.261952    7891.1826    8036.2506     9644.881    11637.895   -293.42086   -719.20483    693.24016   -3153.4153 
 7811000    270.78795   -4800.4704    -4258.861   -4800.4704            0     9089.169    18.080665    22.721758    19.333553    7942.6968     8747.622    10016.904    8502.9808   -1010.2315    -522.2366   -134.25569   -3206.0072 
 7812000    277.18751   -4783.1888   -4228.7795   -4783.1888            0    9793.3868    18.047652    22.818494    19.310864    7952.6047    9253.3576    9907.0049    10219.798   -804.81639    720.02934    1117.8279   -3092.9368 
 7813000     274.6087   -4793.1826   -4243.9313   -4793.1826            0    9492.5455    17.919308    22.861562    19.373865    7936.7626    9723.8422    9914.2407    8839.5537   -2261.8797    814.79986   -1673.5691   -3145.1735 
 7814000    263.79419   -4810.1144   -4282.4935   -4810.1144            0    7714.9156    17.999569    22.873202    19.222158    7913.9117    8267.2865    7252.0827    7625.3776   -1520.0946   -1616.5413   -2490.6601   -3392.0666 
 7815000    246.49577   -4793.8226   -4300.8006   -4793.8226            0    9091.7496    17.944177    22.735629    19.400752    7914.9667    7954.7129    10044.892    9275.6435    1224.5224   -201.62783    2354.4353   -3251.3248 
 7816000    266.22869   -4779.6837   -4247.1934   -4779.6837            0    8337.6675    18.060678    22.832073    19.293172    7955.7852    7938.8277    8601.9416    8472.2332   -939.54178    -67.06832   -2271.4354   -3279.7992 
 7817000     270.8814   -4839.5751   -4297.7788   -4839.5751            0    8201.0642    17.872726    22.800487    19.454601    7927.8833    10096.136    7875.3477    6631.7087    2091.5073    668.85332   -59.612088   -3349.5714 
 7818000    262.21032   -4793.9878   -4269.5347   -4793.9878            0    8735.3446    17.934256    22.911992    19.227587    7900.7989    8618.3164    9103.1116    8484.6059    1186.8141    -54.97169   -2898.2516   -3263.0042 
 7819000    261.69957   -4839.4088   -4315.9773   -4839.4088            0    9273.5242    17.861776    22.828611    19.377625    7901.4116    8290.1477    10166.045    9364.3795    2872.0462    348.40663    1754.6713   -3247.3522 
 7820000    269.52313    -4807.051   -4267.9715    -4807.051            0    7497.6943    18.132835    22.799105    19.264209    7964.0628    8274.3044    6571.7163    7647.0622   -1683.7909    182.40461   -2517.2077   -3397.1316 
 7821000    261.70863   -4798.5666    -4275.117   -4798.5666            0    9820.2846    17.809882    22.841856    19.434646    7906.2234    10954.785     8235.916    10270.153   -750.81316   -130.95739    587.17982   -3142.7974 
 7822000    278.34184   -4773.1168   -4216.3987   -4773.1168            0    9569.1688    18.040425    22.908724     19.14096    7910.6355    7636.7153    9439.5235    11631.268   -1160.6764    1561.8889   -411.18346    -3112.418 
 7823000    248.53508   -4815.1929    -4318.092   -4815.1929            0    8708.9625    17.788564    22.916933    19.504249    7951.0891    9088.3629    8055.6561    8982.8686    81.539957      1456.17    1556.6528    -3308.214 
 7824000    260.48957   -4837.3375   -4316.3261   -4837.3375            0     7812.221    18.051745    22.984429    19.118207    7932.3168    7389.3354    8368.9262    7678.4015    81.285581   -565.28105   -842.99128   -3412.5717 
 7825000    264.95577   -4816.3422   -4286.3979   -4816.3422            0    8055.8662    17.868624    22.685496    19.592655    7942.0513     7871.657    9215.7813    7080.1603    456.27595    285.22204    371.83735   -3353.3137 
 7826000    270.05881   -4811.9157   -4271.7648   -4811.9157            0    7331.5273    18.061939    23.002799    19.292448    8015.5329    7106.0575    8158.1855    6730.3389    657.08254    1268.1298    1135.8933   -3414.7215 
 7827000    255.19971   -4836.1307   -4325.6998   -4836.1307            0    10428.272     17.89328    22.843791    19.360693    7913.6899    10472.394    10274.384    10538.037      150.023   -251.41778    -855.5219   -3122.1411 
 7828000    269.16482   -4763.0903   -4224.7274   -4763.0903            0    10340.161    18.007976    22.981461    19.128977    7916.5195     12385.34    8601.6063    10033.537    19.472897   -1921.3873    -959.0191   -3030.9111 
 7829000    262.63544   -4818.9295   -4293.6262   -4818.9295            0    8641.5212    17.753913    23.031013     19.37557    7922.4881    10562.977    7520.7367    7840.8498    -472.9922   -1068.6776   -1063.9251    -3295.173 
 7830000    267.69026   -4788.3269   -4252.9133   -4788.3269            0    9136.7769    18.180968    23.031419    18.988384    7951.0722    8145.8774    9277.1583    9987.2949   -20.924509    502.84391    546.11938   -3193.4288 
 7831000    271.73669   -4813.4598   -4269.9528   -4813.4598            0    8187.2699    17.731043    23.062847    19.431342    7946.0265    9393.0852    7544.0434     7624.681   -92.071983    307.40871    1233.9024   -3321.1739 
 7832000    257.43513   -4826.4074   -4311.5054   -4826.4074            0    5130.2738    18.051409    23.173869    19.198554    8031.1584    5069.2349    4273.8748    6047.7116    995.32663   -1144.0713   -1230.9544   -3710.6159 
 7833000    266.56892   -4785.2485   -4252.0777   -4785.2485            0    8699.6477    17.830228    22.952183     19.39129     7935.743    10671.897    7456.9175    7970.1286     460.8605    364.27962   -487.96869   -3245.2268 
 7834000    266.83079   -4768.2725   -4234.5779   -4768.2725            0    10162.339    18.090125    22.734778    19.204926    7898.5058    11050.378    9389.7949    10046.845    1276.6722   -935.35253   -108.74699   -3063.9617 
 7835000    262.56527   -4812.7069   -4287.5439   -4812.7069            0    11017.925    18.051591    22.557886    19.317217    7866.0817    10308.668     12666.37    10078.737    1237.9671    690.12619    1103.8259   -3023.5815 
 7836000    263.55941   -4823.8858   -4296.7344   -4823.8858            0    7998.4407    18.137608    22.785542    19.262557    7960.7379    7369.6928     8375.631    8249.9983    659.10561   -68.209009    1015.2194   -3368.1218 
 7837000    264.84506   -4822.0836   -4292.3608   -4822.0836            0    8543.1852    17.835595    23.115116    19.311904    7961.7548    7836.4704     6459.525     11333.56    888.37114    895.07754    128.73004   -3300.3772 
 7838000    267.96872   -4814.5111   -4278.5406   -4814.5111            0    8272.6105    17.890815     23.13579    19.133693    7919.7824     8273.588    8142.8588    8401.3846   -552.95964    306.94635    326.11698   -3323.0383 
 7839000    256.18332   -4844.0328   -4331.6345   -4844.0328            0    7889.8519    17.806363    22.993815      19.3472    7921.4442    9577.1436    7554.2826    6538.1294    506.41213   -208.45102    1340.4016   -3420.1504 
 7840000    263.89264   -4815.6578   -4287.8399   -4815.6578            0     8884.642     17.97177    23.035687     19.09422    7904.8556    6925.4421    9122.8564    10605.627    1621.6353   -14.297978    2135.3354    -3263.581 
 7841000    268.28319   -4832.4353   -4295.8358   -4832.4353            0    7617.9543    17.920367    23.021983    19.242149    7938.5865    9418.9986    6842.7735    6592.0909   -699.07142    300.31059   -127.71683   -3413.8585 
 7842000    256.65507   -4792.4814   -4279.1396   -4792.4814            0    9175.7378    17.881723    22.921969    19.265105    7896.4641    9257.4845    9592.5281    8677.2009    237.78322   -316.58199   -213.60326   -3222.4448 
 7843000    267.39593   -4795.2695   -4260.4447   -4795.2695            0    6202.1094    18.068004    22.780155     19.47083    8014.0365    6898.1548    7587.1204     4121.053   -2129.3209    348.10165    271.16698   -3535.5638 
 7844000    267.21303   -4815.5849   -4281.1258   -4815.5849            0    9661.3034    17.966613    22.897907    19.219353    7906.8004    9340.6662    9900.8837    9742.3602      384.049    232.08961   -32.320458    -3167.056 
 7845000    254.65168   -4829.6113   -4320.2765   -4829.6113            0    7954.9304    17.902477    22.983335     19.27001    7928.8118    8104.6267    7001.1115    8759.0531   -765.70272    429.12069   -448.08759   -3400.4193 
 7846000    269.48856   -4807.0448   -4268.0344   -4807.0448            0    8771.2828    17.874961    22.996874       19.213     7897.854    9864.2796    8096.2127    8353.3561   -781.13517    216.68199     1927.704   -3257.7397 
 7847000    257.24598   -4798.9349   -4284.4111   -4798.9349            0    9781.5646      17.7191       23.134    19.292898    7908.4226    10444.343    9476.9415    9423.4092   -1625.2635    510.49882    2307.7563   -3156.2423 
 7848000    263.44517   -4817.6895   -4290.7666   -4817.6895            0    7305.0378    17.978466    22.988911    19.294799    7974.6442     7478.978    7275.1811    7160.9543   -932.44622    555.68606    1961.1097   -3441.1761 
 7849000    263.01942   -4810.8026   -4284.7313   -4810.8026            0    9173.6162    18.100762    22.740883    19.294656    7942.2072    10041.238    9314.1369    8165.4742     -1680.38    1169.3587    13.883506    -3222.161 
 7850000    281.45815   -4828.0645   -4265.1134   -4828.0645            0     10128.75    18.044097    22.498538    19.371676    7864.2381    9337.5769    10254.325    10794.349    863.86023   -1251.9923    440.45715   -3103.4284 
 7851000    259.66229   -4836.1049   -4316.7482   -4836.1049            0    8144.7569     17.95622    22.751138    19.520945    7974.7829    8190.6948    7553.4752    8690.1007   -256.29881    14.537133   -1449.5332   -3369.4802 
 7852000    258.88068   -4802.0546   -4284.2613   -4802.0546            0    7965.9626    18.088427     22.74648    19.350356    7961.6662    8494.3584    8001.2188    7402.3105   -1140.2853   -539.24495    1137.4524   -3359.3116 
 7853000    268.98499   -4797.9328   -4259.9296   -4797.9328            0     9932.028    18.176138    22.585944    19.253698     7904.129    9700.5469    10011.037      10084.5   -397.30218   -818.72278    340.76439   -3115.0288 
 7854000    255.96548   -4776.0671   -4264.1045   -4776.0671            0    8587.6648    17.995856    22.670625    19.484116    7949.0773    6896.2197      9463.86    9402.9147    106.86336   -96.279344   -117.92492    -3268.544 
 7855000    270.48279   -4770.9128   -4229.9138   -4770.9128            0    7855.1628    18.153114    22.971876    19.136301    7980.0497    4985.3837     8706.141    9873.9637   -1029.1831    349.57529   -929.53772   -3315.7233 
 7856000    260.03053   -4822.5747   -4302.4815   -4822.5747            0    9892.8121    17.849974    22.728164    19.438214    7886.0279    10357.663    9436.2533    9884.5199   -373.88094    369.95702    353.26296   -3164.7128 
 7857000    274.35363   -4809.5608   -4260.8197   -4809.5608            0    9652.2009    18.173726    22.632888    19.251878    7918.7574     8785.515    10809.208      9361.88    32.807747     389.6041    484.51812   -3146.1164 
 7858000    261.09594   -4780.4257   -4258.2016   -4780.4257            0     8654.248    17.940628    22.868265     19.44733    7978.6764    9359.2347    8634.1057    7969.4034    1835.0504   -27.563297      1197.18   -3251.1862 
 7859000    263.61915   -4814.3829   -4287.1121   -4814.3829            0    7996.5011     18.22126    22.778604    19.234946    7983.5578    6133.4549    8349.5032    9506.5452   -729.68756    337.37481    1497.7796   -3356.0634 
 7860000    270.66179    -4794.367     -4253.01    -4794.367            0    10676.157    17.927003    22.889122    19.309849    7923.4752    11295.005    10094.853    10638.611    1167.0478   -127.85065   -635.96579   -3019.3186 
 7861000    284.37224   -4802.0747    -4233.295   -4802.0747            0    9641.1053    18.089583    22.599039    19.331283    7902.7674    7946.5443    10750.902    10225.869    -1513.561    172.84127    445.42576   -3122.1214 
 7862000    265.10274   -4798.8675   -4268.6293   -4798.8675            0    10167.752    17.871354    22.863201    19.303284    7887.2515    9484.0547    11058.785    9960.4162    -1574.339    954.04214    1130.6982   -3099.0584 
 7863000    267.51833   -4830.1162   -4295.0465   -4830.1162            0     8044.817    17.891165    23.003399    19.279401    7934.5844    5916.4954    9176.6925    9041.2631   -692.18155    1076.2786   -998.24476   -3364.1182 
 7864000    262.65433    -4791.358   -4266.0169    -4791.358            0    8220.0386    17.834501    23.334344     19.15518    7971.5504    6337.7867    8721.3898    9600.9393    1234.8236    1282.4935    934.49523   -3310.3808 
 7865000    264.07786   -4816.3466   -4288.1583   -4816.3466            0    6491.9011    17.992873    23.102986    19.202532    7982.2826    5453.8046    5737.9823    8283.9162   -1291.8879   -115.80433   -1014.3412    -3532.414 
 7866000    259.90461   -4825.3034   -4305.4621   -4825.3034            0    8313.2265    17.868704    23.034726    19.265235    7929.5842    8433.0057    8113.1258    8393.5479   -1206.5723    -1110.908    -193.7434   -3344.0802 
 7867000     263.8275   -4846.7896    -4319.102   -4846.7896            0    8465.2287    17.813373     23.15525    19.171774    7907.8412    9029.2002    8216.4761    8150.0096   -1341.1718    392.92574    2088.9537   -3342.8263 
 7868000    262.19581   -4836.0465   -4311.6225   -4836.0465            0    8521.5859    17.937518    22.945929    19.281608    7936.1753    8091.9546    8428.3547    9044.4485    55.279732   -217.60195   -1637.2706   -3325.3258 
 7869000     260.6162   -4828.6532   -4307.3886   -4828.6532            0    5968.4363    18.152535    22.989753    19.158509    7995.2731    5833.6904    4462.9089    7608.7095   -510.86966   -76.118445   -1785.7051   -3611.4519 
 7870000    272.52774   -4831.5479   -4286.4588   -4831.5479            0    8116.8206    17.892218    22.987376    19.308791    7941.6122    7774.8756    9113.7488    7461.8374   -932.18289    1086.7777   -2096.7749   -3346.3665 
 7871000    256.51267   -4815.4934   -4302.4364   -4815.4934            0    9652.1025    17.998861    22.953309    19.193006    7929.2721    9198.1653    8857.1043    10901.038    1827.5434    18.400059    1366.2934   -3186.2644 
 7872000    274.43465    -4798.089   -4249.1858    -4798.089            0    9353.9308    17.842952    22.999304    19.322201    7929.3574    11003.817    8954.9011    8103.0741   -263.83284    197.24686   -690.44443   -3167.4828 
 7873000    271.65618   -4816.8672   -4273.5213   -4816.8672            0    10688.189    18.025372    22.715242     19.24586    7880.2306    10144.558    11324.119     10595.89    415.64358    1288.5966    1006.8404   -3045.1803 
 7874000    267.55765   -4802.5985   -4267.4502   -4802.5985            0    9198.4771     17.91293    22.932785     19.36301    7954.1961    9918.0012     8673.277    9004.1532    787.99895   -24.544661     483.1731    -3200.392 
 7875000    285.65849   -4821.1198   -4249.7675   -4821.1198            0    8754.8704    17.922894    22.924137    19.321219    7938.4486    10077.188    8417.0591    7770.3639   -429.10641   -801.85518    227.93204     -3236.18 
 7876000    267.27629    -4807.428   -4272.8424    -4807.428            0    10977.512    17.707988    23.109217    19.016083    7781.7186    9750.9079    10835.444    12346.185   -53.759205    310.72819    1110.5093   -3027.0223 
 7877000    261.26459   -4817.5207   -4294.9592   -4817.5207            0     8806.971    17.782826    23.069914    19.240528    7893.3931    9024.0445    8294.4978    9102.3707     171.0366    410.21493   -1760.2104   -3281.1268 
 7878000    262.87987   -4822.5211   -4296.7289   -4822.5211            0    10904.884    17.885685    22.963588    19.167677    7872.5388    10939.989    10734.855    11039.808    701.87087     1218.286    2013.8365   -3044.7075 
 7879000    290.55262   -4798.5564   -4217.4152   -4798.5564            0    8478.0452    17.680012    23.390309    19.105148    7900.7607    10396.049    6278.9982    8759.0883   -1658.2673   -144.88691   -3863.2519   -3240.5368 
 7880000    252.14719   -4825.4702   -4321.1447   -4825.4702            0    8393.6396     17.81859     23.03976    19.290095    7919.2794    9286.6366    7867.9002    8026.3822   -77.206118   -1022.1737    1480.8408   -3351.7249 
 7881000    258.99387   -4840.4762   -4322.4564   -4840.4762            0    9882.8272    17.963577    22.970318    19.105432    7883.4567    8068.5005    10808.497    10771.484   -1468.8058    1582.4001   -1224.6078   -3186.2067 
 7882000    268.68576   -4789.1924   -4251.7877   -4789.1924            0    8505.3498    17.890074    23.052175    19.298423    7958.7681    11391.767    6931.2391    7193.0435   -1057.5142    1285.9048    1204.6466   -3264.5677 
 7883000    257.13085   -4772.2443   -4257.9508   -4772.2443            0    8793.9472    18.013376    23.044303    19.202912     7971.238     6996.056    9516.4491    9869.3367    405.38297    894.51982    848.74343   -3235.6339 
 7884000    259.55273   -4816.7573   -4297.6198   -4816.7573            0    9110.5987    17.743293      23.2588    19.093978    7879.8499    8822.9139    8651.9181    9856.9641   -74.758862   -1176.2853   -824.86215   -3250.6341 
 7885000     266.5577   -4821.3085   -4288.1602   -4821.3085            0    9267.4869     17.85463    22.971745    19.237554    7890.3209    10016.287    9351.0809    8435.0929    209.38704    547.07818    2338.4923   -3221.7297 
 7886000    259.15853   -4777.9918   -4259.6427   -4777.9918            0    9353.5001    17.903759    23.185049    19.118379    7936.0299    8841.5651    9562.5275    9656.4077     1878.569    2745.8128    1410.6788   -3177.0793 
 7887000    273.23523   -4839.2544   -4292.7502   -4839.2544            0    8929.5447     18.00796    22.986226    19.168043    7934.3247    8262.9454    7939.3872    10586.301    790.92384   -402.48283   -1254.1179    -3259.477 
 7888000    267.95078   -4818.7669   -4282.8323   -4818.7669            0    9017.5788    17.724078    22.969607    19.402618     7899.099    11742.951    7611.7567    7698.0283    1750.9374   -857.05182    1526.2536   -3244.0049 
 7889000    258.92837   -4821.0736   -4303.1849   -4821.0736            0      10694.9    17.858171    23.086104    19.068118    7861.3195    10649.035    10184.098    11251.565     2299.583   -481.90737    1837.8785   -3077.0223 
 7890000    266.93565   -4803.9503    -4270.046   -4803.9503            0    8543.8127    17.854917    23.161111    19.229688    7952.2399    8349.9357    8134.7969    9146.7054    699.26709    145.23854   -1306.3211   -3279.1751 
 7891000    258.56414   -4803.9956   -4286.8353   -4803.9956            0    9773.3901    17.837641    23.218636    19.049393    7889.6053    9731.6185    8355.2152    11233.337   -302.67667    268.60742   -114.62521   -3162.2915 
 7892000    263.19403   -4803.1633   -4276.7427   -4803.1633            0    9118.6944    17.814067    22.919628    19.331767    7893.0018    10486.912     8404.682    8464.4887    1727.5454   -689.73222   -532.12924   -3227.0776 
 7893000    254.95618   -4802.7306   -4292.7868   -4802.7306            0    7790.7267    17.993676    23.066409    19.128349    7939.2115    9013.0641    7590.1681    6768.9479    240.19698   -301.08481    476.55605   -3390.7355 
 7894000    271.15376   -4827.4015   -4285.0605   -4827.4015            0    8238.0605    17.776434    22.999748    19.424541    7941.7912    7748.2987     9612.775     7353.108    134.86832    1328.3585    433.27101   -3330.9046 
 7895000    255.19582   -4795.0196   -4284.5965   -4795.0196            0    8064.9654    18.110989    22.996776    19.133824    7969.1297    7562.9237    7625.0986    9006.8739   -387.57732    1290.4813   -274.58028   -3347.2734 
 7896000    266.39639   -4824.8115   -4291.9858   -4824.8115            0     9887.031    17.812173    22.867725    19.345844    7880.0239    9683.2765    9947.9519    10029.864   -281.82371    -539.6081    1394.9401   -3155.7478 
 7897000    264.10508   -4836.7102   -4308.4674   -4836.7102            0     7408.025    17.933856    23.180691    19.135788    7955.1142    4961.2936    8166.7808    9096.0005    633.22732     632.2311   -113.55346   -3449.0093 
 7898000    263.72968    -4831.051   -4303.5591    -4831.051            0    8157.2056    17.830663    23.094764    19.293361    7944.9084    7906.0651    8068.5978    8496.9539   -1232.9305   -339.01795    1405.2301   -3358.3972 
 7899000    264.34033   -4776.3542   -4247.6409   -4776.3542            0    9881.5206    17.950412    22.964956     19.17013    7902.5107    9367.6006    9940.7729    10336.188   -679.27638    81.881367    707.17461   -3108.7955 
 7900000     268.3049   -4834.2054   -4297.5625   -4834.2054            0    9827.9009     17.86612     23.00903    19.227739    7904.1792    11113.296    9001.4561    9368.9504    521.31108    -382.1364    815.43479   -3164.6576 
 7901000    269.84816   -4771.9173   -4232.1876   -4771.9173            0    7150.4737    18.013484    23.013868    19.250169    7980.3491    6410.8157    7138.0098    7902.5956   -1688.9621    119.98452    873.48629   -3399.9783 
 7902000    255.23687   -4787.6084   -4277.1031   -4787.6084            0    8658.1941    17.916954    22.851283    19.410962    7947.3403    9265.2683    8719.7647    7989.5492   -809.26141    833.85127    316.92918   -3273.5855 
 7903000    272.40775   -4823.7183   -4278.8692   -4823.7183            0    7189.5485    18.131644    22.880064    19.279103    7997.9972     6052.428     7980.577    7535.6406    1409.1572    536.77617   -313.71577   -3440.2617 
 7904000    259.42615   -4794.2134   -4275.3291   -4794.2134            0      10639.7    17.945828    22.754984     19.29549    7879.4492    12010.987    8905.4353    11002.677    186.35145   -1617.9571    -2179.482    -3052.682 
 7905000    258.82318   -4808.7882   -4291.1099   -4808.7882            0    8246.4308    17.944368    22.798235    19.365869    7922.5753    8806.3277     7521.773    8411.1917    1345.2308   -248.04676    1347.7775   -3338.2956 
 7906000    261.45993    -4840.102   -4317.1498    -4840.102            0    8407.3254    18.091612    22.817858    19.316053    7973.8956    8470.9627    8174.3547    8576.6587    587.16831    -609.5175    951.05676   -3339.4528 
 7907000    258.23635   -4805.5905   -4289.0859   -4805.5905            0    8848.9445     18.03483    22.843862     19.29234    7948.1582    9430.7593    7795.9683     9320.106    1481.0894    779.19792    456.63178    -3263.354 
 7908000    257.51697    -4841.412   -4326.3463    -4841.412            0    7867.9902    17.967015    23.000753      19.2633    7960.6525    10262.906    7044.1608    6296.9039   -946.33521    83.533196    351.65974   -3412.8887 
 7909000    271.46613   -4836.5658      -4293.6   -4836.5658            0    10512.124      17.8007    22.838184    19.316001    7852.6434    10176.521    11434.213    9925.6377      502.112   -238.57082    556.97344   -3089.7227 
 7910000    280.66982   -4830.2809   -4268.9065   -4830.2809            0    8314.1816    17.957634    22.849058    19.398147     7959.351    7782.4119    8819.0167    8341.1163   -308.31152   -1127.3206    654.88593   -3303.8049 
 7911000       253.78   -4822.3954   -4314.8041   -4822.3954            0    7557.7702    17.895498    22.994356    19.358445    7965.9121    7590.5581    7751.1812    7331.5712    1763.4452    244.66227    422.41806   -3436.7827 
 7912000    254.63708   -4792.3469   -4283.0412   -4792.3469            0    8150.5517    18.051977    23.040145    19.177701    7976.3928    8037.0025    7976.9037    8437.7488   -209.44252    1072.6431    190.30273   -3334.9079 
 7913000    254.09517   -4782.0893   -4273.8676   -4782.0893            0    10602.431     17.73896    22.982807    19.276219    7858.7432    10256.468     10860.84    10689.984    509.36906   -39.098105    47.916462   -3058.7049 
 7914000    269.84111   -4821.4913   -4281.7758   -4821.4913            0    11926.203    17.981944    22.754615    19.189795    7851.9308    12816.952    11837.116     11124.54    739.84142   -1066.5334    1160.8667   -2916.0782 
 7915000    250.39431   -4788.6924   -4287.8729   -4788.6924            0    9951.9478    17.987863    22.730314    19.370571     7920.041    9433.3282    11165.129     9257.386    368.18506    1009.1898    1193.1954   -3138.3664 
 7916000    280.22124   -4807.9034   -4247.4263   -4807.9034            0    6709.1915    18.217188    22.803271    19.313592    8023.0876    5090.2006    8205.3438    6832.0303   -1214.8773    1321.1988   -85.323871   -3462.3939 
 7917000    256.78698   -4810.7254   -4297.1197   -4810.7254            0    10416.053    17.947304    22.887462    19.206156    7889.2787    10565.128    10760.075    9922.9561    445.10758   -436.97478   -495.01403   -3098.6795 
 7918000    256.87078    -4752.333   -4238.5597    -4752.333            0    9956.7867    17.637788    23.564333    18.989115    7892.3074    10784.828    8537.0737    10548.459   -873.08186    2555.6227   -1642.1021   -3092.5215 
 7919000    268.52052   -4782.7275   -4245.6533   -4782.7275            0    10336.613    17.858325    23.234098    19.127238    7936.3133    10777.598    9284.9824     10947.26    301.60401    1004.0994    1835.1775   -3049.2628 
 7920000    269.33352    -4818.384   -4279.6837    -4818.384            0    7820.0583    17.745489    23.411718    19.183695    7969.9115    7765.0418       7794.6    7900.5331   -479.96029   -361.33355   -157.26711   -3370.7349 
 7921000    265.59165   -4792.9832   -4261.7671   -4792.9832            0    9327.0776    17.801503    23.324483    19.036909    7904.3311    10631.897    8500.7866    8848.5487     126.4337   -1453.3988    407.57145   -3186.5737 
 7922000    274.27407   -4840.5863   -4292.0043   -4840.5863            0    11104.776     17.70145    23.094484     19.18436    7842.6787    12690.545    10720.555    9903.2295   -593.44237    486.51579    899.39558   -3021.8686 
 7923000     259.4882   -4825.4519   -4306.4434   -4825.4519            0    9646.4996    17.793509    23.351698    18.986624    7889.1065    9327.4689    8678.3142    10933.716    416.14337    810.73458    123.75507     -3196.57 
 7924000    259.94798   -4820.9408   -4301.0127   -4820.9408            0    7462.2009    17.791496    23.322705    19.216254    7973.7042    7471.1137    7308.2127    7607.2763    407.67472    873.95622    651.07921   -3433.2461 
 7925000    260.28236   -4816.5284   -4295.9315   -4816.5284            0    8953.9878    17.853253    23.123215    19.198394    7925.5693     8040.477    8407.0507    10414.436    -320.2051    332.31832    495.17683   -3260.9732 
 7926000    267.86383   -4811.6752   -4275.9144   -4811.6752            0    11293.188    17.785833    22.972834    19.237134    7860.1196    11858.446     10765.84    11255.278   -2154.0579    201.84545    2076.3596   -2981.3562 
 7927000     265.6755    -4790.106   -4258.7222    -4790.106            0    8999.7948    17.897732    22.938883    19.298425    7923.0448    7688.1697    10273.663    9037.5518   -3330.8842    110.77818   -1187.8258   -3218.8006 
 7928000    257.31616   -4780.6394   -4265.9753   -4780.6394            0    9598.2899    17.925978    23.028617    19.202389    7926.9475    9020.1227    8349.4617    11425.285   -367.81726   -371.84043    2035.4268   -3156.3516 
 7929000    273.69084   -4815.9774   -4268.5619   -4815.9774            0    7879.6867    17.963374    22.846899     19.42154    7970.7437    6480.6634     7603.119    9555.2777   -1143.6013   -50.701906   -1662.8438   -3352.5868 
 7930000    264.31074   -4804.8255   -4276.1714   -4804.8255            0    9178.7755    18.082457    22.806005    19.192131    7914.6162    9843.2944    8989.7172     8703.315   -48.369057   -455.71726    264.25107   -3216.6969 
 7931000    271.95885   -4831.0247   -4287.0734   -4831.0247            0    11637.828    17.794296      22.7443    19.362995    7836.5683    11533.123     11871.52    11508.841    451.42903   -1460.5571    1020.5234   -2957.0057 
 7932000    271.76522   -4812.7629   -4269.1989   -4812.7629            0    8361.8616    18.011306     22.81884    19.247603    7910.7093     8422.149    8846.1444    7817.2914   -1442.7619    433.37191   -994.68975   -3304.4945 
 7933000    268.41867   -4844.6791   -4307.8086   -4844.6791            0    9295.1152    17.807916    22.952667    19.432667    7942.8918    10223.807    8707.9883    8953.5505    186.12994    1113.7617   -1308.3367   -3231.0724 
 7934000    247.41944   -4809.0364    -4314.167   -4809.0364            0    9088.8073    18.083832    22.893134    19.098018    7906.4954    8722.4261    8669.1432    9874.8528    550.46654    474.89827    1199.8577   -3266.1536 
 7935000    262.63728   -4776.2677   -4250.9607   -4776.2677            0    8350.1042    17.877583    22.978359    19.319451    7936.3824    9079.5006    7050.9041    8919.9079   -321.46512   -1060.7884   -257.88631   -3284.4862 
 7936000    273.37419   -4812.5451   -4265.7629   -4812.5451            0    8635.6035      18.0034    22.816964    19.233363    7900.7373     8667.765    8904.5195     8334.526    1029.7613   -1675.3826    750.35858   -3270.7328 
 7937000    271.61717   -4832.9544   -4289.6866   -4832.9544            0    8246.0232    18.058933    22.685098    19.383908    7940.9797    6708.6338    9322.9108    8706.5251    626.00099   -183.90456   -1348.1437    -3334.706 
 7938000    262.24436    -4779.892   -4255.3708    -4779.892            0    10274.448    18.082914    22.964484    19.092385    7928.3952     9136.225    10217.694    11469.424   -59.537486    48.037747   -3012.7793    -3067.362 
 7939000    264.62835   -4846.6584    -4317.369   -4846.6584            0    7248.6573    17.820744    22.960336    19.458663    7961.9063    9953.5804    5928.9964    5863.3951    700.30549   -1482.7844   -265.64962   -3475.6822 
 7940000    276.77286   -4787.3762   -4233.7963   -4787.3762            0    7449.6561    17.959437    23.102031    19.175412    7955.8685    9365.3768    5592.5348    7391.0568   -495.33516   -377.07528   -851.58579   -3369.4262 
 7941000    274.93795   -4820.1289    -4270.219   -4820.1289            0    8197.1932     17.87591    23.055469    19.268114    7941.1121    7765.9192    7542.3656    9283.2948   -906.63453    326.72056   -1387.9371   -3320.8777 
 7942000    269.22695   -4801.0297   -4262.5426   -4801.0297            0     10778.39     17.85628    23.191615    19.062649    7894.1473    11160.396    11573.858    9600.9164    927.45739    528.06714    1110.1489   -3021.6476 
 7943000    266.21014    -4810.094   -4277.6409    -4810.094            0    8738.4912    17.724663    23.343575    19.131493    7915.7888    8535.9839    8805.5639    8873.9258   -1418.2436   -786.42188   -1158.7186   -3268.8374 
 7944000    263.53459   -4789.7202   -4262.6184   -4789.7202            0    10444.784    18.068714    22.873566    19.057588    7876.4237    8976.1082    10714.274    11643.971   -956.82682    538.34278    1061.2694   -3062.8306 
 7945000    260.48056    -4793.342   -4272.3488    -4793.342            0    9999.8009    17.888079    22.932213    19.266915    7903.5434    10779.931    10309.279    8910.1924    -821.7715   -19.938812   -913.53713    -3119.721 
 7946000    260.98064   -4813.8336   -4291.8401   -4813.8336            0     8154.527    17.835392    23.446902    19.037731    7961.2879    7758.3699     7038.989    9666.2223   -66.922568    -941.0627   -595.99873   -3345.0406 
 7947000     253.0453   -4782.3605   -4276.2386   -4782.3605            0    8536.4805    17.735267    23.088763     19.32814    7914.5907    9471.7627    7487.9005    8649.7783   -199.88643   -1125.2425   -540.10552   -3290.9052 
 7948000    267.90266   -4815.9807   -4280.1423   -4815.9807            0    9100.6889    17.854227     23.08093     19.18585    7906.3383    8273.1776    9178.4962    9850.3928    2273.3668   -166.98292   -455.42796   -3230.7798 
 7949000    273.87436   -4804.7374   -4256.9548   -4804.7374            0    8755.8281    17.832184    23.074382    19.322615    7950.6111    9386.6736    8421.7267    8459.0839   -118.77073    167.83828   -214.41096   -3241.7034 
 7950000    262.32338   -4807.2355   -4282.5564   -4807.2355            0    8733.9596     17.86035    23.201492    19.174362    7945.6017    6900.6122    8564.4343    10736.832     1590.474    1807.2046   -25.048448   -3270.4787 
 7951000     258.9488   -4797.5029   -4279.5733   -4797.5029            0    9077.5666    18.014526    22.890446    19.267904     7945.323    9033.4187    8258.6057    9940.6753    585.83003    977.27653   -709.71012   -3227.7158 
 7952000    269.37084   -4814.4872   -4275.7123   -4814.4872            0    10450.138    17.955298    22.965581    19.112861    7881.2622     9546.934    10631.619     11171.86    103.08439    20.492145     146.2055   -3074.5721 
 7953000    260.76357    -4839.331   -4317.7717    -4839.331            0    7846.4433    17.943765    22.931668    19.210212    7904.6271    7038.9044    7797.6294     8702.796    196.65007    917.48633    614.67309   -3413.2268 
 7954000    250.34921   -4816.4686   -4315.7392   -4816.4686            0    8943.1142    17.915439    22.916488    19.260968    7907.7625    10105.931    8421.3743    8302.0371    1113.1608     460.7471   -210.28353   -3284.3602 
 7955000    256.44052   -4829.1478   -4316.2351   -4829.1478            0    7816.3118    18.123745     23.06285    19.073167    7972.3014    8759.3188    6407.4015     8282.215     1661.322    321.30255    1016.0351   -3407.4494 
 7956000     265.7885   -4835.3827   -4303.7728   -4835.3827            0     7938.694    17.890353    22.973536    19.319792     7940.525    9239.2288    8044.7918    6532.0614    1058.9476    400.67834    759.47843    -3384.437 
 7957000    256.99428   -4792.7385   -4278.7181   -4792.7385            0    8647.6375    17.906013    22.919902    19.340984    7937.6184    12140.664    6658.5866    7143.6622   -368.10144   -1636.0129    -44.95133   -3277.6502 
 7958000    264.30446   -4793.4633   -4264.8218   -4793.4633            0    7661.1606    17.967122    23.015412    19.259031     7964.008     7895.164    7442.4202    7645.8975    633.93326   -245.20537   -546.03711   -3375.0018 
 7959000    259.77367   -4807.0988   -4287.5194   -4807.0988            0    7894.9657    17.891065    23.077134    19.258152    7951.1997    7652.7579    7926.8963    8105.2431    1205.3101     1156.605    -883.6837   -3372.0184 
 7960000    269.20605    -4803.912   -4265.4667    -4803.912            0    7789.4172    17.887646    23.052851    19.290836    7954.7928    7919.7732    9347.1324     6101.346    1947.1138    273.49429    1564.8212   -3361.7969 
 7961000    260.66395   -4797.7211   -4276.3609   -4797.7211            0     8756.765    17.916147    23.083558    19.179739    7932.1343    8541.8782    8461.1818    9267.2352   -56.965549    675.33323    93.892809   -3263.3605 
 7962000    264.73457   -4812.5911   -4283.0892   -4812.5911            0    9307.9331    17.823964     22.98831    19.316624    7914.8477     9521.202    9693.8505    8708.7469    655.91815    75.390845    353.93422   -3208.6751 
 7963000    255.03824   -4783.9595   -4273.8515   -4783.9595            0     10013.26    17.833212    23.082725    19.281994     7937.223    10692.901    9107.3853    10239.494    186.83274   -104.19287   -269.84743   -3114.7541 
 7964000    261.18832   -4804.9909   -4282.5819   -4804.9909            0    7696.9523     17.92884    22.983206    19.277167    7943.3927    9606.4098    6253.9479    7230.4992    1238.5597   -1516.8893    2544.1347    -3390.919 
 7965000    247.95415   -4827.6827   -4331.7437   -4827.6827            0    8532.2192    17.868896    23.007181    19.222287    7902.5305    7160.8848    9055.1421    9380.6307    784.71153    425.32978    583.99363   -3348.4029 
 7966000     258.2859   -4802.0664   -4285.4627   -4802.0664            0     8987.254    17.974995    22.983529    19.166465    7918.2191     9042.178     8819.354    9100.2301     325.7508    423.63222    13.785578   -3247.6227 
 7967000    265.62836   -4849.3233   -4318.0337   -4849.3233            0    8920.7761    17.883365     22.95014    19.241844    7897.3479    7684.8226    9906.7592    9170.7466    929.10191   -832.96825    121.45354   -3290.5859 
 7968000     274.9416   -4803.9003   -4253.9832   -4803.9003            0    9103.8034    17.741014    22.932567    19.385035    7886.7433    10961.149       8644.2    7706.0608     -2184.68    469.26486    159.52853   -3206.8632 
 7969000     270.0074   -4820.2216   -4280.1734   -4820.2216            0    8280.4999    17.963963    23.018875    19.210524     7943.748    9425.9802    7196.9747    8218.5449   -490.37806   -574.05689   -426.84693   -3320.8658 
 7970000     249.6226    -4823.689    -4324.413    -4823.689            0    8633.3726    17.900742     22.84066    19.362733    7916.7392    7489.9267    9655.8003     8754.391   -1749.4435    694.01167   -446.43055   -3327.6252 
 7971000    267.78287   -4824.2835   -4288.6846   -4824.2835            0    9579.9573    18.150577    22.797433    19.127563    7914.7287     9762.815    9384.6472    9592.4095    228.00349    10.212886    2176.9229   -3182.8874 
 7972000    256.01843   -4840.2406   -4328.1722   -4840.2406            0    8584.6633    17.907258    22.807601    19.421761    7932.2665    9889.5246    8771.0117    7093.4535   -1305.2279   -538.13964   -792.82015   -3335.0642 
 7973000    257.80979   -4835.7545    -4320.103   -4835.7545            0    8809.9784     17.98887    22.840035    19.306457    7932.3746    7537.8129    9556.3017    9335.8207    290.37836   -1014.2743   -615.82164   -3300.9159 
 7974000    263.24162   -4804.3463   -4277.8306   -4804.3463            0    10051.143    17.987306    22.681716      19.3527    7895.5715    8953.8303    10639.859    10559.739   -1242.1263   -1306.8558    52.661929   -3120.4535 
 7975000    252.13028   -4806.3578    -4302.066   -4806.3578            0    9290.8098    18.099385    22.533167     19.38749    7906.9253    7668.1488     10872.82    9331.4612   -143.51384   -185.87567    -1010.446   -3230.7019 
 7976000    262.50317    -4821.552   -4296.5132    -4821.552            0    8337.3591    18.033556    22.780691    19.383492    7963.0651    8645.3253    7927.0578    8439.6941    477.19453   -1058.1777   -2063.7312   -3328.2695 
 7977000    288.31207   -4786.9528   -4210.2931   -4786.9528            0    9255.3824    18.030778    22.901405    19.174213    7917.6108    8657.1835    9360.0014    9748.9623    1328.1661   -796.09859     95.64726   -3141.5719 
 7978000    266.14245   -4795.3263   -4263.0086   -4795.3263            0    9043.5852     17.85616    22.977637    19.394255    7957.3146    9006.6138    8521.0051    9603.1368    -79.61007   -602.93794   -472.25745   -3213.5071 
 7979000    285.61078   -4837.9599   -4266.7031   -4837.9599            0    9975.7483    17.889834    23.032591     19.13257    7883.5611    9761.4691    9431.5947    10734.181    1348.0884   -582.53427   -126.88478   -3119.7549 
 7980000    273.76548   -4793.8239   -4246.2592   -4793.8239            0     9229.189    17.921499    22.842911    19.383245    7935.0976       9396.7    9472.9841    8817.8829    -196.3802    1606.9269   -730.78925   -3178.2089 
 7981000    272.68272   -4801.2568   -4255.8577   -4801.2568            0    8929.8647    18.032339    22.958339    19.142453    7924.8332     9479.679    8174.9917    9134.9234   -715.13033    -570.0708   -223.19804   -3223.7836 
 7982000    268.75929    -4810.482   -4272.9302    -4810.482            0    8822.9323    17.812606    22.926592     19.40227    7923.5446    10023.692    8144.1866    8300.9186   -1011.7646    1020.5908    274.39083   -3253.3806 
 7983000    274.63526   -4841.3984    -4292.094   -4841.3984            0    8675.4226    18.202784     22.77361     19.09283    7914.8013    6863.2766    9594.9759    9568.0154   -925.42593   -15.808785    550.83065   -3290.6964 
 7984000    270.74495   -4801.1975   -4259.6742   -4801.1975            0    8303.8211    17.680128    23.128792    19.526046     7984.591    10278.235    7692.2878    6940.9399   -1176.5034    738.28605    2638.3916   -3292.7185 
 7985000    264.17081    -4824.751   -4296.3768    -4824.751            0    10023.173     18.03106    23.008884    19.000569     7882.853    10192.085    8237.9414    11639.494   -42.740674   -924.31817   -1551.6441   -3144.0794 
 7986000    269.75428   -4830.2382   -4290.6963   -4830.2382            0    8989.4074    17.883554    22.928993     19.31653    7920.7793    9778.8442    9747.5455    7441.8326    896.11458    263.40501     87.75199   -3252.2719 
 7987000    251.47811   -4790.1751   -4287.1878   -4790.1751            0    8051.1966    18.056688    22.995487    19.188557    7967.5173    9045.8258    7826.8426    7280.9215    187.88799    581.45282    13.668473   -3351.6543 
 7988000    265.44181   -4784.4686   -4253.5521   -4784.4686            0    11111.465    17.759674    22.796466    19.517525    7901.8226     12960.04    11293.914    9080.4407    693.20489    746.17601   -75.170266   -2973.0672 
 7989000    256.08093   -4788.5238   -4276.3303   -4788.5238            0     8118.945    18.120309    22.853165    19.230657    7963.5385    6076.3132    8786.6801    9493.8417    646.87014     511.6481    1410.5583   -3333.3957 
 7990000    272.47332   -4798.0336   -4253.0533   -4798.0336            0    11138.611    17.901936    22.791193    19.318803    7882.1965    11400.423    11194.031    10821.378    551.38891    1035.7145   -376.31019   -2972.6282 
 7991000    264.92595    -4822.398   -4292.5134    -4822.398            0    9633.0874    18.110324    22.570672    19.313777    7894.7417    10515.385    8782.9093    9600.9678   -1832.8574   -893.63532   -2289.4373   -3183.3914 
 7992000    255.70545   -4818.0409   -4306.5984   -4818.0409            0     7501.142    18.207638    22.712234    19.455509    8045.5561    7147.7733    7858.4703    7497.1823    2054.9856   -304.17558    445.01899    -3426.443 
 7993000    267.84007   -4781.9751   -4246.2618   -4781.9751            0    10493.455    18.058152    22.511076    19.420122    7894.4435    9857.4369    11727.226    9895.7019    2007.2075   -117.28832    769.20587   -3038.1256 
 7994000    263.51821    -4784.912    -4257.843    -4784.912            0    9897.2742    18.019383    22.752135    19.303457    7914.0203    8605.0738    9876.8138    11209.935    259.45261   -88.652782   -1566.2537   -3115.5207 
 7995000    266.42326   -4767.4482   -4234.5688   -4767.4482            0    10154.544    17.808864    22.666659    19.610623    7916.1704    11687.694    10724.612    8051.3283     1044.132   -97.730203   -816.71292   -3062.2345 
 7996000    271.42164   -4837.2399   -4294.3631   -4837.2399            0    7058.5187    18.301935    22.532879    19.317278    7966.3541    5050.5719    8018.7695    8106.2148   -308.58888    -1140.219    606.61812   -3474.2966 
 7997000    265.08606   -4805.7912   -4275.5863   -4805.7912            0    9881.6117    17.962174     22.65804    19.431834    7908.5168    9552.2265    10531.468    9561.1408   -346.25353    670.49476    1071.1206   -3135.8649 
 7998000    258.57168   -4760.0987   -4242.9234   -4760.0987            0    9076.0358    18.217571    22.521057    19.368445    7946.4649    6852.0455    9515.4759    10860.586   -490.88094    73.700011    345.34493   -3191.0922 
 7999000    252.07264   -4794.6181   -4290.4417   -4794.6181            0     9161.256    18.074971    22.467182    19.434383    7892.1801    6537.9632    11107.169    9838.6363    194.70968    1274.2941    719.69813   -3235.9871 
 8000000     267.1399   -4770.1043   -4235.7915   -4770.1043            0     7684.524    18.109116    22.743298    19.384911    7983.8891    8615.3179      8089.97     6348.284   -280.27493    464.60587   -2083.0368   -3341.0299 
Loop time of 565.602 on 64 procs for 250000 steps with 1008 atoms

Performance: 76.379 ns/day, 0.314 hours/ns, 442.007 timesteps/s
99.1% CPU use with 64 MPI tasks x 1 OpenMP threads

MPI task timing breakdown:
Section |  min time  |  avg time  |  max time  |%varavg| %total
---------------------------------------------------------------
Pair    | 27.641     | 32.343     | 36.796     |  34.9 |  5.72
Bond    | 0.28318    | 0.29617    | 0.31007    |   1.0 |  0.05
Kspace  | 257.37     | 268.64     | 281.88     |  39.6 | 47.50
Neigh   | 4.8891     | 5.6108     | 6.9706     |  28.4 |  0.99
Comm    | 106.53     | 121.39     | 132.62     |  64.7 | 21.46
Output  | 0.79112    | 0.79289    | 0.79877    |   0.1 |  0.14
Modify  | 124.86     | 128.52     | 133.73     |  20.5 | 22.72
Other   |            | 8.007      |            |       |  1.42

Nlocal:        15.7500 ave          19 max          11 min
Histogram: 1 0 3 13 0 11 15 10 8 3
Nghost:        2497.06 ave        2515 max        2470 min
Histogram: 1 2 4 6 12 4 10 10 8 7
Neighs:        5242.44 ave        6394 max        3634 min
Histogram: 1 0 3 13 6 9 11 10 8 3

Total # of neighbors = 335516
Ave neighs/atom = 332.85317
Ave special neighs/atom = 2.0000000
Neighbor list builds = 10081
Dangerous builds = 2

unfix		3
unfix		2
unfix		1

write_data	data.final.${pid}
write_data	data.final.0
System init for write_data ...
PPPM initialization ...
  extracting TIP4P info from pair style
  using 12-bit tables for long-range coulomb (../kspace.cpp:340)
  G vector (1/distance) = 0.37835833
  grid = 24 27 36
  stencil order = 5
  estimated absolute RMS force accuracy = 0.0025654562
  estimated relative force accuracy = 7.7257953e-06
  using double precision FFTW3
  3d grid and FFT values/proc = 4050 480
Last active /omp style is kspace_style pppm/tip4p/omp
WARNING: Not all mixed pair coeffs generated from mixing. Use write_data with 'pair ij' option to store all pair coeffs. (../write_data.cpp:312)

write_restart   restart.lmp.${pid}
write_restart   restart.lmp.0
System init for write_restart ...
PPPM initialization ...
  extracting TIP4P info from pair style
  using 12-bit tables for long-range coulomb (../kspace.cpp:340)
  G vector (1/distance) = 0.37835833
  grid = 24 27 36
  stencil order = 5
  estimated absolute RMS force accuracy = 0.0025654562
  estimated relative force accuracy = 7.7257953e-06
  using double precision FFTW3
  3d grid and FFT values/proc = 4050 480
Last active /omp style is kspace_style pppm/tip4p/omp
Total wall time: 0:09:27
