LAMMPS (30 Jul 2021)
  using 1 OpenMP thread(s) per MPI task
package omp 0
using multi-threaded neighbor list subroutines
echo both

include		in.partitions
variable        pid world 0
include		in.temp
variable        temperature equal 268.50
variable	tempDamp equal 100.0
include		in.pressure
variable        pressure equal 11125.0
variable        pressureDamp equal 1000.0 # This is 1 ps
include		in.seed
variable        seed world 745823

units		real
atom_style	full
read_restart	restart.lmp.${pid}
read_restart	restart.lmp.0
Reading restart file ...
  restart file = 30 Jul 2021, LAMMPS = 30 Jul 2021
  restoring atom style full from restart
  orthogonal box = (0.66687064 1.8770168 0.81358062) to (17.540702 21.752161 21.399615)
  4 by 4 by 4 MPI processor grid
  restoring pair style lj/cut/tip4p/long/omp from restart
  restoring bond style harmonic/omp from restart
  restoring angle style harmonic/omp from restart
  864 atoms
  576 bonds
  288 angles
Finding 1-2 1-3 1-4 neighbors ...
  special bond factors lj:    0        0        0       
  special bond factors coul:  0        0        0       
     2 = max # of 1-2 neighbors
     1 = max # of 1-3 neighbors
     1 = max # of 1-4 neighbors
     2 = max # of special neighbors
  special bonds CPU = 1.293 seconds
  read_restart CPU = 1.521 seconds
include 	in.setup
variable	out_freq equal 1000
variable	out_freq2 equal 10000
variable	out_freq3 equal 1000

timestep	2.0

neigh_modify    delay 7 every 1

include		in.tip4p
# This is TIP4P/Ice

# create groups ###
group ox type 2
288 atoms in group ox
group hy type 1
576 atoms in group hy

# set charges - beside manually ###
set group ox charge -1.1794
Setting atom values ...
  288 settings made for charge
set group hy charge 0.5897
Setting atom values ...
  576 settings made for charge

# ### TIP3P Potential Parameters ###
pair_style lj/cut/tip4p/long/omp 2 1 1 1 0.1577 8.5
pair_coeff 1 1*2 0.000 0.000
pair_coeff 2 2 0.21084 3.1668
bond_style  harmonic
bond_coeff  1 450 0.9572
angle_style harmonic
angle_coeff 1 55 104.52
kspace_style pppm/tip4p/omp 1.0e-5
pair_modify tail yes

thermo          ${out_freq}
thermo          1000
thermo_style    custom step temp pe etotal epair emol press lx ly lz vol pxx pyy pzz pxy pxz pyz enthalpy

restart 	${out_freq3} restart.lmp.${pid} restart2.lmp.${pid}
restart 	1000 restart.lmp.${pid} restart2.lmp.${pid}
restart 	1000 restart.lmp.0 restart2.lmp.${pid}
restart 	1000 restart.lmp.0 restart2.lmp.0


include         in.dump
dump            myDump all atom ${out_freq2} dump.water.${pid}
dump            myDump all atom 10000 dump.water.${pid}
dump            myDump all atom 10000 dump.water.0
dump            myDump2 all dcd ${out_freq2} dump.dcd
dump            myDump2 all dcd 10000 dump.dcd
dump_modify     myDump append yes
dump_modify     myDump2 append yes


variable natoms 	equal  "count(all)"                        # NUMBER ATOMS
variable H      	equal  "enthalpy/v_natoms"                 # ENTHALPY-per-atom
variable Vol      	equal  "vol/v_natoms"                 # volume-per-atom
fix AVG all 		ave/time ${out_freq} 1 ${out_freq} v_Vol v_H file vol_enthalpy.dat
fix AVG all 		ave/time 1000 1 ${out_freq} v_Vol v_H file vol_enthalpy.dat
fix AVG all 		ave/time 1000 1 1000 v_Vol v_H file vol_enthalpy.dat


timer           timeout 23:50:00 every 1000
New timer settings: style=normal  mode=nosync  timeout=23:50:00

fix 		1 all shake 1e-6 200 0 b 1 a 1
       0 = # of size 2 clusters
       0 = # of size 3 clusters
       0 = # of size 4 clusters
     288 = # of frozen angles
  find clusters CPU = 0.144 seconds
fix             2 all nph iso ${pressure} ${pressure} ${pressureDamp}
fix             2 all nph iso 11125 ${pressure} ${pressureDamp}
fix             2 all nph iso 11125 11125 ${pressureDamp}
fix             2 all nph iso 11125 11125 1000
fix             3 all temp/csvr ${temperature} ${temperature} ${tempDamp} ${seed}
fix             3 all temp/csvr 268.5 ${temperature} ${tempDamp} ${seed}
fix             3 all temp/csvr 268.5 268.5 ${tempDamp} ${seed}
fix             3 all temp/csvr 268.5 268.5 100 ${seed}
fix             3 all temp/csvr 268.5 268.5 100 745823

run             250000
PPPM initialization ...
  extracting TIP4P info from pair style
  using 12-bit tables for long-range coulomb (../kspace.cpp:340)
  G vector (1/distance) = 0.37475394
  grid = 24 24 24
  stencil order = 5
  estimated absolute RMS force accuracy = 0.0031052815
  estimated relative force accuracy = 9.351463e-06
  using double precision FFTW3
  3d grid and FFT values/proc = 2535 216
Last active /omp style is kspace_style pppm/tip4p/omp
Neighbor list info ...
  update every 1 steps, delay 7 steps, check yes
  max neighbors/atom: 2000, page size: 100000
  master list distance cutoff = 10.8154
  ghost atom cutoff = 10.8154
  binsize = 5.4077, bins = 4 4 4
  1 neighbor lists, perpetual/occasional/extra = 1 0 0
  (1) pair lj/cut/tip4p/long/omp, perpetual
      attributes: half, newton on, omp
      pair build: half/bin/newton/omp
      stencil: half/bin/3d
      bin: standard
Per MPI rank memory allocation (min/avg/max) = 9.238 | 9.241 | 9.244 Mbytes
Step Temp PotEng TotEng E_pair E_mol Press Lx Ly Lz Volume Pxx Pyy Pzz Pxy Pxz Pyz Enthalpy 
28750000    285.20324   -3845.2754   -3356.4468   -3845.2754            0    8928.9353    16.873831    19.875144    20.586035    6903.9348    7263.0971    10959.242    8564.4668    1613.9655    579.77863   -332.35807   -2457.4208 
28751000    281.51103   -3852.4965   -3369.9962   -3852.4965            0    11100.105    16.800576     19.78886    20.496664     6814.408    10376.702    11307.199    11616.415   -533.12023    957.50128     1021.107    -2266.855 
28752000    283.62058   -3869.6121   -3383.4962   -3869.6121            0    11348.995    16.821924    19.814004    20.522708    6840.4167    11691.011    12161.387    10194.589   -2629.6025   -51.377556    432.36815   -2251.3152 
28753000    265.97029   -3842.4157   -3386.5517   -3842.4157            0    11047.564    16.799708    19.787837    20.495604    6813.3513    11675.308    11436.517    10030.866    2149.8721   -602.59508     1302.494   -2288.8023 
28754000    266.41694   -3885.5533   -3428.9238   -3885.5533            0    10212.711     16.78314    19.768322    20.475392    6793.2132    10864.276    10142.857    9631.0014    298.12177     1245.818    -1844.981   -2417.1296 
28755000    270.25016   -3835.9416   -3372.7421   -3835.9416            0    7000.8664    16.889432     19.89352    20.605068    6923.1019    8234.7117    5610.0356    7157.8519   -270.57502    63.619795    537.39534   -2665.8903 
28756000     276.2817    -3841.436   -3367.8987    -3841.436            0    12490.473    16.744671     19.72301    20.428459    6746.6069    11935.417    11090.885    14445.118    1022.2453     279.4238   -1269.2534   -2138.9318 
28757000    276.36792   -3855.3315   -3381.6463   -3855.3315            0    10246.636    16.802218    19.790793    20.498667    6816.4056    9201.8947    9628.3582    11909.654    423.82089   -567.24668    -1130.581   -2363.0254 
28758000     275.5752   -3832.8787   -3360.5523   -3832.8787            0    11056.387     16.77336    19.756803     20.46346    6781.3445     12583.41     11816.14    8769.6102    369.29975    140.61313   -927.70214   -2267.0872 
28759000    288.12591   -3815.1528   -3321.3148   -3815.1528            0    11998.827    16.862416    19.861698    20.572108    6889.9322    12056.149    11919.386    12020.946    729.74507    394.95669    1693.8704   -2115.6416 
28760000    270.71056    -3856.888   -3392.8994    -3856.888            0    10281.474    16.896524    19.901874     20.61372    6931.8272    12062.855    10212.932    8568.6364     1039.668   -271.96804    314.86947   -2353.5082 
28761000    269.26119   -3840.8379   -3379.3334   -3840.8379            0    12144.007     16.80664    19.796002    20.504061    6821.7888    12885.234    12333.252    11213.536    -492.0698    -291.9562   -1361.3312   -2171.1409 
28762000    267.56897   -3794.3045   -3335.7005   -3794.3045            0    10851.361    16.844181    19.840221    20.549862    6867.6049    12073.224    10836.412    9644.4454   -1043.3164   -1434.6981      716.605    -2248.861 
28763000    277.88353   -3813.4208   -3337.1379   -3813.4208            0    10177.911    16.874247    19.875634    20.586542    6904.4453    11032.061    11102.437     8399.234   -1930.6359    830.92672    1004.6474   -2312.2808 
28764000    262.08812   -3834.1851    -3384.975   -3834.1851            0    12482.302    16.779691     19.76426    20.471184    6789.0259    12138.416    14494.266    10814.224   -529.43129    868.76065   -712.97822     -2149.09 
28765000    264.73483   -3843.5041   -3389.7576   -3843.5041            0    10959.425     16.86542    19.865237    20.575773    6893.6158    10721.593    11500.583    10656.099   -467.53274    34.192899    2024.5524   -2287.9374 
28766000    276.41785   -3845.9803   -3372.2096   -3845.9803            0    12058.648    16.831662    19.825475    20.534588    6852.3037    11947.828    12856.372    11371.742    629.81079    -646.5642   -442.14225   -2167.1428 
28767000    271.56716   -3820.4769   -3355.0201   -3820.4769            0    11166.668    16.826296    19.819154    20.528042    6845.7521    11293.157    10176.031    12030.816   -870.38519   -595.58939   -709.47614   -2240.1593 
28768000    259.59919    -3861.668   -3416.7239    -3861.668            0    10960.054    16.852631    19.850173     20.56017    6877.9451    11281.471    9817.0596    11781.632   -768.13849    1416.6713   -3979.0239   -2317.3453 
28769000    269.69154   -3855.0155   -3392.7735   -3855.0155            0    10778.533    16.852311    19.849797     20.55978    6877.5541    9823.0683    12306.625    10205.906   -278.05431    72.491574   -726.87857   -2311.6643 
28770000    266.94045   -3869.0591   -3411.5323   -3869.0591            0    9517.0769    16.824448    19.816977    20.525787    6843.4965    8805.7411     9990.763    9754.7266   -1272.6172   -608.21584    357.78807   -2461.6769 
28771000    269.78968   -3855.0238   -3392.6135   -3855.0238            0    12822.084    16.792779    19.779675    20.487151    6804.9242    13572.953    14008.025    10885.273   -153.40985    615.26048    1969.0387   -2120.1135 
28772000     256.9844   -3787.0774    -3346.615   -3787.0774            0    12518.351    16.762803    19.744367     20.45058    6768.5475    11442.787     13527.03    12585.235   -1539.8718    1223.3648    589.17119   -2110.8995 
28773000     254.6813   -3832.8687   -3396.3536   -3832.8687            0    10692.754    16.793055        19.78    20.487488    6805.2598    10368.716    9550.4548    12159.091    430.40679    754.19065   -472.79409    -2335.122 
28774000    270.60669   -3794.4909   -3330.6803   -3794.4909            0    9497.6003    16.866529    19.866543    20.577126    6894.9757    10711.142    9862.4471    7919.2124    401.55337    1156.2116    734.83314   -2375.6382 
28775000    269.75783    -3815.384   -3353.0283    -3815.384            0    10771.035    16.852723    19.850281    20.560282    6878.0577    9197.7635    11466.739    11648.604   -1850.6934   -726.71316    408.32016    -2272.592 
28776000    271.57003   -3817.4225   -3351.9608   -3817.4225            0    11975.778    16.896518    19.901867    20.613713    6931.8195    14434.802    11366.831    10125.701   -1230.1242    2569.2402    1412.4939   -2141.2877 
28777000    269.65161   -3804.5313   -3342.3577   -3804.5313            0    10990.732    16.925891    19.936464    20.649548    6968.0337    10336.098    10916.013    11720.086   -1149.7879    1959.7518    -1475.562   -2225.4616 
28778000    265.97645   -3811.1935   -3355.3189   -3811.1935            0    11239.759    16.798965    19.786961    20.494697    6812.4469    8696.3079    12323.831    12699.137   -1210.5061    729.79702    1407.6259   -2238.6203 
28779000    271.34344   -3853.5328   -3388.4594   -3853.5328            0    10486.949    16.769856    19.752675    20.459185    6777.0952    11335.661    10508.486    9616.6997   -944.13121   -2286.3847     923.0192    -2351.961 
28780000    282.07799   -3812.1518   -3328.6798   -3812.1518            0    10459.882    16.765204    19.747195    20.453509    6771.4563    9966.0093    9250.4013    12163.236   -902.76022   -169.96231    1358.8058   -2295.7168 
28781000    274.05019   -3809.6449   -3339.9322   -3809.6449            0    11664.037    16.841853    19.837479    20.547022    6864.7582    12206.089    12303.061     10482.96    34.440778    643.45766    533.18461   -2172.1819 
28782000    271.39301   -3841.1477   -3375.9893   -3841.1477            0    11897.694     16.81197    19.802281    20.510565     6828.282    11069.608    12719.813     11903.66   -374.33407    1797.1101    813.04623   -2191.1755 
28783000    264.42252   -3842.8683   -3389.6572   -3842.8683            0    11777.744    16.881114    19.883723     20.59492    6912.8781    10865.859    10983.226    13484.146   -482.54998    2457.2179   -738.23655   -2202.2576 
28784000    259.33406   -3862.8996   -3418.4099   -3862.8996            0    12321.999    16.819685    19.811367    20.519976    6837.6861    12473.924    12532.649    11959.424   -1370.9191   -1366.2815    22.487954   -2189.6523 
28785000    248.23861   -3869.3342   -3443.8617   -3869.3342            0    10894.255    16.767709    19.750146    20.456566    6774.4927    8248.2134    11046.244    13388.306    720.77035    846.92436    1584.0256   -2367.5199 
28786000    257.04119   -3851.7832   -3411.2234   -3851.7832            0    10634.124    16.796554    19.784122    20.491757    6809.5152    9328.8778    12271.368    10302.126    522.40276   -144.95278    682.79805   -2355.1507 
28787000    268.63674   -3846.8761   -3386.4419   -3846.8761            0    12834.094    16.725927    19.700933    20.405592    6723.9765    12776.907     11652.28    14073.094    1.8934936   -131.20108    326.02948   -2127.9012 
28788000    274.05806   -3873.0068   -3403.2807   -3873.0068            0    9168.4641     16.81676    19.807922    20.516408    6834.1193    8239.7978    11133.199    8132.3959    1293.6293    374.37285    1777.7844   -2489.4725 
28789000    279.12143   -3880.6397   -3402.2351   -3880.6397            0    9259.1815    16.843619    19.839558    20.549176    6866.9174    11410.904    9053.4563    7313.1836     42.87371    150.76814   -1712.4886   -2474.9563 
28790000    267.65067   -3863.5638   -3404.8197   -3863.5638            0    10341.857    16.863468    19.862937    20.573391    6891.2218    8632.3426    13605.981    8787.2467    -1156.692   -1469.6816    1322.7285   -2365.4486 
28791000     254.9716   -3814.0576    -3377.045   -3814.0576            0    8016.7985    16.890602    19.894898    20.606494    6924.5402    8115.9204    9374.1651    6560.3101    652.15649    1388.5257    47.726743     -2567.45 
28792000    273.67644   -3839.3171   -3370.2451   -3839.3171            0    12721.576    16.786182    19.771905    20.479102    6796.9073    11865.025    14185.505    12114.198    509.23299    348.81893    13.278374   -2109.2071 
28793000    275.06546   -3828.9008    -3357.448   -3828.9008            0    10150.317    16.877634    19.879624    20.590675    6908.6042    10622.633    8506.4702    11321.847   -398.47368   -911.12791     326.7896   -2334.7537 
28794000    270.89828   -3816.0493   -3351.7389   -3816.0493            0    10974.829    16.763282    19.744932    20.451165    6769.1282    11945.769    9926.3218    11052.397    455.56565   -867.28741   -28.745775   -2268.2951 
28795000    263.90407   -3854.2808   -3401.9583   -3854.2808            0    10312.303    16.781035    19.765842    20.472823     6790.657    9378.0728    10656.099    10902.737    1253.7922    1744.3237    635.68722   -2380.6818 
28796000    277.32982   -3842.2238   -3366.8899   -3842.2238            0    12538.545    16.822887    19.815138    20.523882    6841.5914     13760.61    12146.365    11708.659   -1109.8323     162.5615   -267.94298   -2115.8241 
28797000    261.72927   -3863.2656   -3414.6706   -3863.2656            0    10476.596    16.843882    19.839868    20.549496    6867.2384    11263.235     11171.04    8995.5121    913.09538    111.60487    653.10221   -2365.4225 
28798000    273.09062    -3841.263    -3373.195    -3841.263            0    9557.0261     16.86474    19.864436    20.574944    6892.7821    8769.5906    11320.053    8581.4346    -250.1035    975.03497    2309.8635    -2412.483 
28799000    275.94715    -3824.622   -3351.6581    -3824.622            0    11641.659    16.870576     19.87131    20.582063    6899.9396    11652.835    10707.977    12564.166    -678.1881    414.64008   -451.09759   -2180.1749 
28800000     261.9137   -3815.1082   -3366.1971   -3815.1082            0    11899.758    16.807996      19.7976    20.505716    6823.4409    11229.017    12515.606    11954.651    857.06043    28.067279    414.84433   -2182.0178 
28801000    276.50939   -3826.2104   -3352.2828   -3826.2104            0    8461.5516    16.916223    19.925076    20.637752    6956.0992    9749.7338    8207.5759    7427.3451    1755.7275    1572.6737    86.519351   -2493.8789 
28802000    259.28323   -3853.9369   -3409.5344   -3853.9369            0    10599.419    16.833007    19.827059     20.53623     6853.947    11983.447    10576.715    9238.0939   -236.78096    421.00412   -469.61269   -2350.0399 
28803000    257.44108   -3852.4685   -3411.2233   -3852.4685            0    11811.605    16.875486    19.877093    20.588053    6905.9661    11872.744    12506.121    11055.949   -324.80263   -1645.7168   -783.38274   -2221.6006 
28804000    277.03914   -3846.3215   -3371.4859   -3846.3215            0    11702.264    16.809218    19.799039    20.507207     6824.929    11940.571    12531.326    10634.895    808.63404    412.68628    824.95421   -2206.7058 
28805000    262.70258   -3833.8034   -3383.5402   -3833.8034            0    12933.236    16.753547    19.733465    20.439288    6757.3414    11866.575    12463.133    14469.999    174.04103   -2264.1903    646.30461   -2108.9841 
28806000    277.56332   -3821.0345   -3345.3004   -3821.0345            0    12896.395    16.781614    19.766525     20.47353    6791.3602      12294.1     13552.23    12842.853    190.64728   -1598.4323    978.48135   -2067.9767 
28807000     275.0095   -3864.4676   -3393.1107   -3864.4676            0    11062.369    16.828606    19.821875    20.530861    6848.5724    11490.755    11193.802    10502.548   -2066.6854    1106.5464    621.58124    -2288.208 
28808000    275.13504   -3863.4696   -3391.8975   -3863.4696            0    10692.602    16.846978    19.843515    20.553274    6871.0263    11307.821    8876.9931    11892.992    1595.0447   -904.19805    1090.2827   -2320.4254 
28809000    268.08211   -3838.2278   -3378.7442   -3838.2278            0    9012.3561      16.8714     19.87228    20.583068     6900.951    9854.7329    8066.4236    9115.9119   -168.79817    252.98858   -832.26893    -2471.711 
28810000    263.94834   -3878.1743   -3425.7758   -3878.1743            0    10314.061    16.834405    19.828705    20.537934    6855.6539    9985.3833    9627.4986    11329.302   -276.40596    390.15579   -1259.1264   -2394.5483 
28811000    268.85982   -3857.3944   -3396.5778   -3857.3944            0    9326.2499    16.855719    19.853811    20.563938    6881.7274    7889.1781    9203.0504    10886.521   -7.3710325    1993.8002   -408.77447    -2460.568 
28812000    277.14813   -3835.3126   -3360.2902   -3835.3126            0    10208.139    16.835116    19.829543    20.538802    6856.5232     10435.29    9076.0256    11113.102   -446.40482    1084.6161   -1546.7652   -2339.5237 
28813000    279.40156   -3803.7625   -3324.8778   -3803.7625            0    10335.616    16.803242       19.792    20.499916    6817.6521     11243.87    10281.578    9481.4012    46.865672   -541.29084    1204.9813   -2297.2233 
28814000    275.52497   -3861.6639   -3389.4235   -3861.6639            0    13347.551    16.764364    19.746206    20.452485    6770.4388    13057.256    12239.376     14746.02    -510.4611   -645.47632   -435.37408   -2071.4876 
28815000    257.61429   -3877.1251    -3435.583   -3877.1251            0    10850.561    16.847165    19.843735    20.553502    6871.2551    11404.209    10054.166    11093.309    14.739006    1335.3725   -1052.8437    -2348.246 
28816000    285.47065   -3848.1716   -3358.8847   -3848.1716            0    11507.856    16.812387    19.802771    20.511073    6828.7897    12921.368    10796.217    10805.982   -1029.0468    935.66337   -914.00639   -2212.8071 
28817000    261.27403   -3861.9286   -3414.1139   -3861.9286            0    10274.513    16.852268    19.849746    20.559728    6877.5009    11002.871    10393.908    9426.7602    1260.9834    453.93767   -1911.0824   -2383.5669 
28818000    271.06376   -3823.9705   -3359.3765   -3823.9705            0    11540.554    16.803409    19.792196     20.50012    6817.8554    11493.302    11400.756    11727.603   -1184.3839   -1188.4749    571.39152   -2211.8828 
28819000    262.78834   -3868.2083   -3417.7981   -3868.2083            0    11843.154    16.812066    19.802393    20.510682    6828.3986    8807.1169    14256.483    12465.864   -958.38878   -166.78906    1017.6365   -2238.3953 
28820000    277.50844    -3844.349    -3368.709    -3844.349            0    10802.738    16.848689     19.84553    20.555362    6873.1204      10820.3    12897.683    8690.2316   -133.97278    139.91363    375.92837   -2285.8705 
28821000    269.65138   -3836.5422    -3374.369   -3836.5422            0    11614.901    16.845741    19.842058    20.551765    6869.5135    10425.208    12124.486    12295.008    893.29763   -288.63367   -355.49819   -2210.7324 
28822000    275.88911   -3784.6916   -3311.8272   -3784.6916            0    11602.438    16.920445    19.930049    20.642904    6961.3096    12274.325    11062.985    11470.004   -1212.8271    1940.5673    199.87015   -2133.9064 
28823000    262.84676   -3856.9955   -3406.4851   -3856.9955            0    10788.515    16.867749     19.86798    20.578614    6896.4717    12035.848    7721.3139    12608.383    552.95073   -119.17987    1815.9551   -2321.3982 
28824000    253.53672   -3820.8264   -3386.2732   -3820.8264            0    11881.255    16.838325    19.833323    20.542718     6860.445    12928.004    11406.075    11309.686    1152.2967   -1869.4857    167.19189   -2197.5233 
28825000    262.05139   -3820.8765   -3371.7294   -3820.8765            0    12594.543    16.845058    19.841254    20.550932    6868.6778    13369.531    11843.201    12570.897   -346.25905   -628.37923   -1119.5463    -2110.101 
28826000    267.60019   -3845.8056    -3387.148   -3845.8056            0    9938.5807    16.835474    19.829965    20.539239    6856.9607    10443.359    9113.6479    10258.735     1348.675    467.68261    680.09528   -2393.2727 
28827000    266.33094   -3850.8878   -3394.4057   -3850.8878            0    14453.607    16.748253     19.72723     20.43283    6750.9386    15299.157    13618.781    14442.882    500.00952    1493.2647   -692.64341   -1971.3684 
28828000     276.4601   -3782.3662   -3308.5231   -3782.3662            0    10634.731    16.794971    19.782257    20.489825    6807.5894    10845.724    10723.567    10334.901    51.950613    -1186.774   -14.785096   -2252.6888 
28829000    264.57526   -3820.0053   -3366.5324   -3820.0053            0    11719.075    16.794639    19.781866     20.48942    6807.1857     13446.14    9233.7609    12477.325    24.412845    586.06043   -446.05064   -2203.1116 
28830000    275.78926   -3798.3424   -3325.6491   -3798.3424            0    14230.103    16.771774    19.754935    20.461526    6779.4214    16286.751    14020.647     12382.91    558.52251   -1676.8505    1308.5136   -1918.7059 
28831000    274.60781     -3864.47   -3393.8017     -3864.47            0    11651.323    16.823812    19.816228    20.525011    6842.7204     13387.13    10810.732    10756.108    1475.6953     1896.724    2483.9731   -2231.0688 
28832000    266.72315   -3862.8072   -3405.6528   -3862.8072            0    12424.453    16.733065     19.70934      20.4143    6732.5883    11514.375    13461.836    12297.148   -1707.0399   -1045.3194   -952.39146    -2185.722 
28833000    267.55854   -3843.9609   -3385.3747   -3843.9609            0    9432.7537    16.819879    19.811596    20.520213    6837.9226    7759.4983    10081.275    10457.488    274.76616   -634.46396    -809.9028    -2444.702 
28834000    269.97916   -3802.3623   -3339.6272   -3802.3623            0    11227.683    16.861266    19.860344    20.570705    6888.5229     11346.86    9665.9692     12670.22    189.03451   -400.50715    419.79479   -2211.6713 
28835000    273.42249   -3821.4466   -3352.8098   -3821.4466            0    11817.672    16.777029    19.761125    20.467937    6785.7959    11036.554    10840.257    13576.205   -552.39225   -999.03511   -437.82027   -2183.2872 
28836000     257.0151   -3835.3729   -3394.8578   -3835.3729            0    10588.258    16.803535    19.792344    20.500273    6818.0082    12069.339    9566.4773    10128.959   -545.60023    258.66366    585.34114   -2342.0286 
28837000     264.4332    -3853.973   -3400.7435    -3853.973            0    12280.549    16.765874    19.747985    20.454327    6772.2686    11637.183    11886.354     13318.11   -1264.8537   -570.64337   -467.01772   -2187.8356 
28838000    265.14966   -3803.5299   -3349.0725   -3803.5299            0    11762.761    16.806646    19.796008    20.504068    6821.7958    13641.711    9803.6651    11842.907   -1704.1025    351.92727    524.08532   -2178.8084 
28839000    252.94016   -3867.0718    -3433.541   -3867.0718            0    10522.101    16.828119    19.821301    20.530266    6847.9774     10516.93    12297.967    8751.4062   -100.69424    535.90034   -1895.4515   -2382.6912 
28840000    279.31146   -3879.0859   -3400.3557   -3879.0859            0    10452.348    16.786132    19.771846    20.479042    6796.8469    8965.8773    10993.709    11397.457   -735.04536    -799.2813     565.5705   -2364.2663 
28841000    257.37228   -3872.6614   -3431.5342   -3872.6614            0    11270.062    16.827491    19.820561    20.529499    6847.2102    12025.943    10261.619    11522.625    717.36748    3124.7125   -914.18611   -2306.1109 
28842000    294.40796   -3867.1836   -3362.5784   -3867.1836            0    13729.672    16.746726    19.725431    20.430966    6749.0914    13735.128    15981.383    11472.506   -139.79257   -237.10841   -619.33201   -2011.1864 
28843000    267.72931   -3872.5171   -3413.6382   -3872.5171            0    11663.047     16.78354    19.768793     20.47588     6793.699     8850.551    13318.892    12819.697   -2222.5822    122.36111    787.36995   -2258.0737 
28844000    254.43923    -3833.849   -3397.7489    -3833.849            0    11241.266    16.809233    19.799057    20.507226    6824.9475    11882.105    11978.146    9863.5466    583.67857      1400.53   -1716.2788   -2278.8511 
28845000    265.23725   -3845.5044   -3390.8969   -3845.5044            0    12370.495    16.723008    19.697494     20.40203    6720.4561    12932.922    11949.581    12228.982   -399.11344    788.47932   -120.76272   -2178.4528 
28846000    269.49931   -3819.8507   -3357.9382   -3819.8507            0    11609.613    16.799338    19.787401    20.495153    6812.9009     11453.64    13825.996    9549.2014    206.03549    1585.7298   -151.75414   -2204.4167 
28847000    272.47569   -3841.8563   -3374.8422   -3841.8563            0    10596.813    16.822494    19.814676    20.523403    6841.1123    9964.1248    10781.258    11045.056    1358.4933    1927.4135   -1611.9776   -2317.5918 
28848000    249.03072   -3853.4613   -3426.6312   -3853.4613            0    9122.1759    16.876683    19.878504    20.589514    6907.4362    8520.3638    10040.826    8805.3374     -275.379   -1039.1616    300.17193   -2507.6826 
28849000    258.89262     -3820.24   -3376.5069     -3820.24            0    12885.355    16.813098    19.803608     20.51194    6829.6555    14062.023    12587.549    12006.492   -1046.7458   -646.84929    203.97607   -2093.0802 
28850000    271.74011   -3845.7526   -3379.9993   -3845.7526            0    13127.635    16.766743    19.749008    20.455387    6773.3217    12288.507    14466.602    12627.798    1122.3701    688.75645   -603.29962   -2083.2259 
28851000    257.31674   -3870.0972   -3429.0651   -3870.0972            0     10855.89    16.837777    19.832677    20.542048    6859.7743     12084.07    10152.765    10330.835    -1387.654    658.73256   -662.90871   -2343.0118 
28852000    273.68617   -3831.8419   -3362.7532   -3831.8419            0    9330.4511    16.881632    19.884332    20.595551    6913.5142    7667.6829      9579.04     10744.63   -1109.0754    581.17791   -198.32724   -2421.9963 
28853000    266.67655   -3825.1527   -3368.0782   -3825.1527            0    9798.2484    16.893744    19.898599    20.610328    6928.4056    10649.319    7171.8979    11573.528    214.21072   -1344.3974    240.14936    -2378.027 
28854000    273.75674   -3864.9412   -3395.7315   -3864.9412            0    9958.5412    16.921724    19.931556    20.644464    6962.8884    8817.5988    10139.329    10918.696    1108.0763    672.42746    281.81661   -2384.4756 
28855000    258.38281   -3803.2895   -3360.4302   -3803.2895            0    11414.631    16.853476    19.851168    20.561201    6878.9797    10735.357    14023.365    9485.1712    151.49983   -444.23311   -841.69223   -2215.2817 
28856000    263.50642   -3846.2442   -3394.6032   -3846.2442            0    9222.1283    16.888104    19.891956    20.603448    6921.4695    9122.8614    9619.1657    8924.3579   -771.01555   -1500.9005    1290.4595   -2463.6982 
28857000    266.09711   -3858.0619   -3401.9806   -3858.0619            0    11084.137    16.891378    19.895812    20.607442    6925.4954    12371.456    10963.637    9917.3186    -1589.989    1160.7894    1143.7191   -2282.4689 
28858000    267.44136   -3829.1521   -3370.7668   -3829.1521            0    10518.977    16.888362     19.89226    20.603762    6921.7862    10521.834    9880.6711    11154.426     574.8783   -1200.7323   -1587.2483    -2308.906 
28859000    259.41341   -3829.4198   -3384.7941   -3829.4198            0    10169.384    16.888178    19.892043    20.603537    6921.5595    9854.7729    10568.728    10084.652   -1657.2863    1031.2541    487.82238   -2358.2574 
28860000    253.26786   -3831.7428   -3397.6503   -3831.7428            0    9929.9026    16.860699    19.859676    20.570014    6887.8285    10457.154    8724.7681    10607.785    1100.9048   -822.55192   -973.38548   -2400.1726 
28861000    274.55851   -3833.2307   -3362.6468   -3833.2307            0    12121.152    16.839904    19.835182    20.544643    6862.3744    12785.033    11171.117    12407.306   -345.23009    35.340161    352.12661   -2149.5536 
28862000    264.09548   -3824.6495   -3371.9988   -3824.6495            0    13220.394    16.765705    19.747785     20.45412    6772.0634    13417.963    14009.476    12233.742    1169.8916   -843.33037   -1209.0105   -2066.3052 
28863000     253.5185   -3804.4289   -3369.9068   -3804.4289            0    12223.531    16.790532    19.777029     20.48441    6802.1931    12869.346    12300.837     11500.41    1515.3624    729.41145    1275.1496   -2157.2958 
28864000     275.0289   -3803.9087   -3332.5186   -3803.9087            0    11976.721     16.82056    19.812397    20.521044     6838.753    13998.531    12116.677    9814.9565    -405.8302     915.7698    -550.6804   -2138.0059 
28865000    274.44414   -3840.2101   -3369.8223   -3840.2101            0    10873.016    16.791291    19.777923    20.485336    6803.1159    11430.292     11515.18    9673.5775   -1501.7865    144.15666    1469.6612     -2291.04 
28866000    265.65183   -3875.9292   -3420.6111   -3875.9292            0     12554.99    16.801813    19.790316    20.498172    6815.9126    13439.016    13950.983    10274.973   -1110.4696   -243.65569    682.15012   -2172.6062 
28867000     259.6006   -3892.1178   -3447.1713   -3892.1178            0    11155.773    16.822785    19.815018    20.523758    6841.4672    10266.689    12316.287    10884.342   -117.69199    582.49653    620.13858   -2334.0954 
28868000    261.20085   -3865.7532   -3418.0638   -3865.7532            0    11645.057    16.796056    19.783535    20.491149    6808.9088    10471.096    12955.806     11508.27      -305.77   -93.433176   -26.866025   -2261.6986 
28869000    275.90292   -3853.1065   -3380.2183   -3853.1065            0    10913.085    16.803166     19.79191    20.499823    6817.5593    10672.237    10997.348    11069.669    515.74406    2193.8161    139.99929   -2295.1619 
28870000    249.96128   -3826.7584   -3398.3333   -3826.7584            0    11871.342    16.821825    19.813888    20.522587    6840.2963    11385.165    11570.517    12658.344   -553.49251    38.567329    317.97537   -2214.0636 
28871000    280.89243   -3874.5095   -3393.0695   -3874.5095            0     11832.63    16.799531    19.787629    20.495389    6813.1362    13930.587     8772.279    12795.023     33.69715    86.765021    72.323122   -2217.3486 
28872000     283.9161   -3853.5237   -3366.9012   -3853.5237            0    12012.872     16.84727    19.843859     20.55363     6871.384    10623.447    13903.283    11511.886   -1951.8095   -584.58661   -1335.4164   -2163.0662 
28873000    254.01408   -3856.7055    -3421.334   -3856.7055            0    9604.2737    16.855437    19.853478    20.563593    6881.3811    9815.0704    8887.3115    10110.439    322.68394   -544.58104     186.0087   -2457.4694 
28874000    266.99391   -3807.8334    -3350.215   -3807.8334            0    11602.532    16.827409    19.820465      20.5294    6847.1107    10519.291    11498.005    12790.301   -263.88524   -284.83575    89.789518   -2191.6083 
28875000     277.3671   -3800.1449   -3324.7472   -3800.1449            0    12250.835    16.838422    19.833437    20.542836    6860.5632    12648.314    10128.612     13975.58    511.95642    874.45307   -342.30588   -2098.9987 
28876000    276.98466   -3851.3311   -3376.5889   -3851.3311            0    9944.7196    16.812537    19.802948    20.511256    6828.9721    9823.3569    11622.289    8388.5126   -1524.5874    352.72455    93.194853   -2386.1589 
28877000    272.70143   -3841.2347   -3373.8338   -3841.2347            0    10613.067     16.84098     19.83645    20.545956    6863.6903    10097.837    10988.369    10752.994   -856.12464   -1239.0525   -310.44867    -2311.467 
28878000    267.37643    -3840.432    -3382.158    -3840.432            0    11082.896     16.84677    19.843269     20.55302    6870.7715    14282.373    9093.7624    9872.5535    72.876676     401.9951   -2070.6028   -2271.6168 
28879000    277.95634   -3837.7256    -3361.318   -3837.7256            0    8687.0438    16.907885    19.915256    20.627581    6945.8191    9706.0459    8392.3782    7962.7072    -390.2279   -442.02957   -1424.7428   -2481.3409 
28880000    257.10496    -3837.336   -3396.6669    -3837.336            0    12365.482    16.800247    19.788472    20.496262    6814.0076    12673.926    12433.998    11988.523   -602.43957   -1395.7093    456.26084   -2167.8433 
28881000    259.52362   -3840.2331   -3395.4185   -3840.2331            0    12735.994    16.793366    19.780367    20.487867    6805.6377    12897.369    11930.403    13380.211    318.88794   -1011.3362   -50.271582   -2131.3297 
28882000    268.99426   -3826.9073   -3365.8603   -3826.9073            0    9299.7333    16.809392    19.799244     20.50742    6825.1412    9119.9637    8465.4429    10313.793   -468.75194    453.03735   -299.98379   -2440.1864 
28883000     267.3337   -3838.6711   -3380.4703   -3838.6711            0     8317.333    16.811658    19.801912    20.510183    6827.9006    9019.8692    8788.5214    7143.6083   -387.72106   -87.176321   -1364.4617   -2552.2475 
28884000    253.63637   -3833.8946   -3399.1706   -3833.8946            0    10257.276    16.776004    19.759917    20.466685    6784.5514    9743.2123    11039.094    9989.5215    -1317.159    -79.83107    -1383.032    -2384.257 
28885000    261.05165   -3878.4993   -3431.0657   -3878.4993            0    10250.422    16.799271    19.787322    20.495071    6812.8194    9442.9708    10561.138    10747.157    1.1595549    837.71284   -1080.0821   -2412.6044 
28886000    259.67894   -3813.7267   -3368.6458   -3813.7267            0     9969.744    16.802467    19.791087     20.49897    6816.7087    9624.4016    9260.3459    11024.484    -1843.143    890.17324    682.00706   -2377.5067 
28887000    268.57516   -3840.2148   -3379.8862   -3840.2148            0     11684.38    16.794941    19.782222    20.489789    6807.5533    12815.502    11076.032    11161.606    109.38903   -1239.3778   -50.943667   -2219.8472 
28888000    262.98586   -3809.2147   -3358.4659   -3809.2147            0    10286.292    16.810058    19.800028    20.508231    6825.9516     10797.75    9416.8745    10644.252   -141.25935    2961.0003    719.84282   -2334.4706 
28889000    258.50955   -3894.7127   -3451.6362   -3894.7127            0    10240.788    16.840571    19.835968    20.545457    6863.1902    11019.051    10505.283    9198.0302    513.53576    1301.5407   -388.55385   -2426.6092 
28890000    277.45109   -3864.1087    -3388.567   -3864.1087            0    8450.3645    16.927776    19.938684    20.651847    6970.3614    7207.4592    9567.2308    8576.4036    -763.2784   -1628.2537    1280.4505   -2529.5404 
28891000    255.11146   -3842.8573   -3405.6049   -3842.8573            0    11172.755    16.828834    19.822144    20.531139    6848.8508    10891.404    12623.446    10003.415   -402.10424    1856.9844   -849.07934   -2289.6315 
28892000    268.75661   -3851.5946    -3390.955   -3851.5946            0    10254.829    16.859153    19.857855    20.568127    6885.9337    10647.578    9860.1037    10256.805   -71.946853    165.47992    -427.8566   -2361.1212 
28893000    269.79678   -3858.3448   -3395.9224   -3858.3448            0    11712.105    16.841497    19.837059    20.546587    6864.3219    11880.292    12130.414    11125.609    1453.0411   -1129.8938    42.205735   -2223.4342 
28894000    259.23676   -3815.6141   -3371.2912   -3815.6141            0    11916.051    16.859162    19.857866    20.568138    6885.9451     10216.75    14286.812    11244.592   -291.33734    402.75776    1018.4267   -2174.6283 
28895000    267.26738   -3807.9966   -3349.9094   -3807.9966            0    11242.024    16.874856    19.876352    20.587285    6905.1931    11954.972    11871.642    9899.4581    560.29039    69.252829    1201.6459   -2217.7796 
28896000     267.1909   -3862.2432   -3404.2871   -3862.2432            0    10473.771    16.807274    19.796749    20.504835    6822.5609    10740.184    11956.928    8724.2001   -613.23997   -119.16038    678.69015   -2362.1464 
28897000    260.42899   -3877.3852   -3431.0188   -3877.3852            0    9945.9131    16.843066    19.838908    20.548502    6866.2415    9653.5271    10110.299    10073.913    929.33305    453.29834   -95.500756    -2435.064 
28898000    270.48018   -3882.4325   -3418.8387   -3882.4325            0    11411.918    16.797863    19.785663    20.493353    6811.1065    11895.444    12090.442    10249.867    1211.2055   -763.09376   -256.94968   -2285.2587 
28899000     270.3125   -3814.7028   -3351.3964   -3814.7028            0    9620.0462    16.837228     19.83203    20.541378    6859.1033     9445.257    12109.125    7305.7564   -213.99215    468.28588   -482.33008   -2389.0745 
28900000    257.19511   -3805.5339   -3364.7103   -3805.5339            0    13467.027    16.757595    19.738233    20.444226    6762.2407    12227.992    14001.693    14171.395   -467.24245   -457.37164   -611.17292   -2036.5875 
28901000    264.61734   -3793.7699   -3340.2249   -3793.7699            0    12476.424     16.89184    19.896357    20.608006     6926.064    13307.569    13192.567    10929.135    999.74573   -1752.2079   -128.63103   -2079.9871 
28902000    256.89249   -3856.3001   -3415.9951   -3856.3001            0    12100.436    16.855092    19.853071    20.563172    6880.9584    12817.293    11248.175     12235.84    1504.9767   -1566.9801   -1065.7049   -2201.6956 
28903000    266.64172   -3843.6073   -3386.5925   -3843.6073            0    11111.569    16.857186    19.855538    20.565727    6883.5239    11901.134    9716.4849    11717.088   -542.16572    202.28786   -390.74478   -2271.1117 
28904000    252.35724   -3815.5509   -3383.0192   -3815.5509            0    11025.535    16.796686    19.784278    20.491918    6809.6755    11665.982    10375.437    11035.185   -516.19392    161.50026   -222.84191   -2288.0498 
28905000    273.84349   -3861.0949   -3391.7365   -3861.0949            0    11512.061    16.852924    19.850519    20.560528    6878.3046    11728.969     11408.04    11399.173   -1177.9571    2398.3965   -250.51379    -2236.927 
28906000    238.09871   -3870.0759   -3461.9829   -3870.0759            0    10833.454    16.871033    19.871848    20.582621    6900.5009    9772.4465    10744.582    11983.334     1156.367   -469.43836   -1168.8072   -2371.7395 
28907000    269.92038   -3859.9262   -3397.2919   -3859.9262            0    11079.772    16.830838    19.824504    20.533583    6851.2977    11175.059    11016.169    11048.088    606.23921    856.19208    595.93915   -2290.2105 
28908000    266.15389   -3876.5314   -3420.3527   -3876.5314            0    10665.389    16.869146    19.869625    20.580318    6898.1852    12658.295    9279.6144    10058.256   -205.65084    323.30286   -808.32664   -2347.3831 
28909000    264.28518   -3842.9897   -3390.0139   -3842.9897            0    11122.534     16.80899     19.79877    20.506928    6824.6506    11257.252    11403.332    10707.017   -247.32376    533.14178   -621.25226   -2282.9822 
28910000     281.5757   -3844.5359   -3361.9248   -3844.5359            0     10059.96    16.805444    19.794594    20.502603    6820.3332    9160.7125    12125.904    8893.2644   -1106.4452    238.51356    626.63358    -2361.285 
28911000    258.63054   -3882.4579    -3439.174   -3882.4579            0    9468.3106    16.865923    19.865829    20.576387    6894.2324    9159.5609    8884.7315    10360.639      857.948   -123.28152    1812.2743   -2487.1798 
28912000    255.72464   -3851.5348   -3413.2316   -3851.5348            0    9805.6657    16.838621    19.833671    20.543078    6860.8062    9413.3692     9750.407    10253.221    1615.9085   -135.55251   -359.23829    -2432.098 
28913000    268.32163   -3855.7093   -3395.8152   -3855.7093            0    13278.319     16.80309    19.791821    20.499731    6817.4672     12979.54    11621.852    15233.565    1092.7998     138.4592   -769.99739   -2075.6082 
28914000    263.30661   -3853.7767   -3402.4782   -3853.7767            0    13100.114    16.776633    19.760658    20.467453    6785.3152    12667.816    13602.294    13030.232    1381.7224    632.50877     2023.089    -2106.132 
28915000    261.32744   -3832.6241   -3384.7178   -3832.6241            0    10288.486    16.797972    19.785792    20.493486    6811.2393    10559.189    8979.3885    11326.882   -728.10484   -20.487112   -113.12621   -2362.7116 
28916000    277.49027   -3820.9122   -3345.3034   -3820.9122            0    11733.417    16.829748     19.82322    20.532253     6849.966    11979.478    11185.068    12035.706   -504.74891   -1129.0027   -1513.9771   -2173.1382 
28917000    257.94057   -3862.5442   -3420.4429   -3862.5442            0    9210.6691    16.895808    19.901029    20.612846    6930.9449    9444.8658    10255.636    7931.5056    402.64383    729.69546    374.32377   -2489.4218 
28918000    281.23744   -3836.7004   -3354.6691   -3836.7004            0    10105.592    16.876828    19.878674     20.58969    6907.6135    9344.6398    10128.927    10843.208   -1039.7916   -1513.6196    644.81726   -2336.6271 
28919000    283.07812   -3849.3248   -3364.1386   -3849.3248            0    10979.026    16.891181     19.89558    20.607201    6925.2525    12078.972    10978.729    9879.3756   -330.46617    855.42488   -1299.7835   -2255.2822 
28920000    264.57918   -3836.4469   -3382.9673   -3836.4469            0    9839.1568    16.905078    19.911949    20.624156    6942.3599    8301.6419    10067.615    11148.213   -1299.1723    -1937.222     1005.224   -2386.7802 
28921000    264.00816    -3829.891   -3377.3901    -3829.891            0    10294.682     16.87462    19.876073    20.586997    6904.9028    10194.057    10241.199    10448.791   -137.86158   -266.83339    448.99345   -2340.7061 
28922000    262.31631   -3828.3183   -3378.7171   -3828.3183            0    13709.662    16.761471    19.742799    20.448956    6766.9347    14179.341    14419.148    12530.496   -1622.1036   -1058.8263   -191.27503    -2025.727 
28923000    269.73139   -3855.7888   -3393.4785   -3855.7888            0    13496.731     16.77499    19.758722    20.465448    6783.3209    10622.265    13740.862    16127.067   -527.34779   -721.13427   -305.60835   -2058.2769 
28924000    254.39013   -3828.6268   -3392.6108   -3828.6268            0    11932.421    16.789549    19.775871    20.483211    6800.9989     13151.02    10712.801    11933.441     1839.735    804.20818    315.75249   -2209.0866 
28925000     265.4001   -3823.2793   -3368.3926   -3823.2793            0      13817.2    16.774505    19.758151    20.464857    6782.7332    13392.407    14507.405    13551.787    909.10975   -479.46458   -509.04489   -2001.6062 
28926000    268.16153   -3882.3356   -3422.7159   -3882.3356            0    10901.925    16.827517    19.820592    20.529531    6847.2425    11722.139    9915.2532    11068.383   -1580.7087    204.30167   -281.53712   -2334.0496 
28927000    274.33083   -3836.9261   -3366.7325   -3836.9261            0    10241.344    16.797181    19.784861    20.492522    6810.2774    10173.059    9089.8922     11461.08   -608.12235    128.44408   -379.35508   -2349.5529 
28928000    272.93782   -3823.3102   -3355.5042   -3823.3102            0    11841.574    16.778687    19.763077    20.469959     6787.807    12870.824    10882.699    11771.198    892.59692   -1628.0428   -559.54705   -2183.2689 
28929000    249.27611   -3794.4707     -3367.22   -3794.4707            0    10829.552    16.838188    19.833162    20.542551    6860.2775    9751.7537    10956.657    11780.245    -1815.216    -1491.348   -338.45115   -2283.7221 
28930000    265.08344   -3832.8322   -3378.4883   -3832.8322            0    10302.679     16.86795    19.868217    20.578859    6896.7184    10087.426    10456.139    10364.472   -767.43997    222.19466    1234.4307   -2342.2287 
28931000    287.78827   -3869.7527   -3376.4935   -3869.7527            0    10977.193    16.828985    19.822322    20.531323    6849.0351    12084.034    10107.622    10739.922     65.64507    113.84441    138.18061   -2280.0239 
28932000     271.7267   -3827.2572   -3361.5269   -3827.2572            0    11117.607    16.852993    19.850599    20.560612    6878.3881    10796.139    10070.407    12486.275   -302.72458    1243.8985    657.42086   -2246.2727 
28933000    263.84764   -3865.7317   -3413.5059   -3865.7317            0    12092.113    16.774528    19.758179    20.464885    6782.7613    13115.648    10302.507    12858.185    732.84846    693.57972   -640.76252   -2217.3586 
28934000    262.49255   -3865.8487   -3415.9455   -3865.8487            0    9528.5772    16.782637     19.76773    20.474778    6792.6028     12248.12     7643.496    8694.1161    479.13501   -743.03084   -1992.3885   -2472.0147 
28935000    272.41332   -3827.1288   -3360.2217   -3827.1288            0    12978.074    16.788703    19.774874    20.482178    6799.9704    12559.198    12668.426    13706.599    -260.1697   -1148.5253   -950.00835   -2073.1784 
28936000     269.5965   -3822.7954   -3360.7162   -3822.7954            0    6901.7418    16.930971    19.942448    20.655746    6974.3096    4916.0328    8896.8755     6892.317    1252.7012   -1375.8378   -955.80042   -2658.7183 
28937000    261.37435   -3837.7581   -3389.7714   -3837.7581            0    12038.446    16.789767    19.776128    20.483476    6801.2632    12030.218     12100.71     11984.41   -2528.8312    1616.1057   -1038.6143   -2195.6846 
28938000    291.10968   -3846.7822   -3347.8302   -3846.7822            0    11899.639    16.841233    19.836748    20.546265         6864    12365.779    10859.063    12474.076     829.1432   -1686.2321   -1251.5968   -2156.6239 
28939000    266.47601   -3876.1782   -3419.4475   -3876.1782            0    10536.235    16.815566    19.806516    20.514952    6832.6645    9144.1258    11196.197    11268.382    790.36899    2128.8777   -1378.6599    -2369.539 
28940000    277.93132   -3830.4029   -3354.0381   -3830.4029            0     11781.51    16.788257    19.774349    20.481634    6799.4282    11626.616    11361.231    12356.683    1839.8231   -1094.6901   -996.54377   -2185.7519 
28941000    265.78194   -3833.5204   -3377.9793   -3833.5204            0     12003.54    16.805771    19.794979    20.503002    6820.7312    14081.336    11226.867    10702.416   -196.45985   -1560.8241   -686.99618   -2183.9467 
28942000    263.97631   -3843.4556   -3391.0092   -3843.4556            0    8827.2341    16.871694    19.872627    20.583427     6901.312    7277.8931    7635.4868    11568.322   -161.98394    703.65405   -471.51739   -2502.5609 
28943000    276.73073   -3862.1852   -3387.8782   -3862.1852            0    11348.245    16.806767    19.796151    20.504216    6821.9433    10280.875    9034.3977    14729.463   -886.13178    357.01632    46.924835   -2258.8294 
28944000    278.12042   -3822.3535   -3345.6646   -3822.3535            0    12536.868    16.765813    19.747913    20.454253     6772.195    12714.646    12891.107    12004.851   -333.39095    512.57644   -357.88199   -2107.4544 
28945000    270.67568   -3868.0313   -3404.1025   -3868.0313            0    11195.476    16.793515    19.780542    20.488049    6805.8187    11407.757    11301.853    10876.817    226.95086    469.31544   -1235.1062   -2292.8856 
28946000     269.4272   -3863.7378   -3401.9488   -3863.7378            0    9966.7429    16.819058    19.810629    20.519212    6836.9219    11800.385    9275.7302    8824.1131    740.55624   -104.95844    434.96233   -2408.1699 
28947000    264.89741   -3852.0435   -3398.0184   -3852.0435            0    12683.007    16.832944    19.826985    20.536153    6853.8699    11556.968    13199.205     13292.85    49.440608    559.09033       1190.7   -2130.2673 
28948000     277.8045   -3849.8791   -3373.7317   -3849.8791            0    9457.1486    16.861805    19.860979    20.571363    6889.1842    12587.937    8022.4077    7761.1007   -974.35754   -1112.8473   -1046.2957    -2423.556 
28949000     277.8788   -3828.5752   -3352.3005   -3828.5752            0    12777.819    16.723415    19.697974    20.402527    6720.9472    13591.327    13152.456    11589.675   -254.09029    301.97988   -797.33721   -2099.8426 
28950000    264.20591   -3823.9124   -3371.0725   -3823.9124            0    12876.458    16.783597     19.76886    20.475949    6793.7678     13267.93    12076.111    13285.334   -3441.6932    62.229499   -394.50109   -2095.2713 
28951000    266.28407   -3846.7707   -3390.3689   -3846.7707            0    11107.237    16.829358     19.82276    20.531777    6849.4897    12382.921    8876.8582    12061.932    257.13586    171.33887   -1791.9447   -2280.8361 
28952000     269.1728   -3837.4814   -3376.1284   -3837.4814            0    9364.0048    16.907109    19.914341    20.626633    6944.8623    10910.021    7466.7763    9715.2169    734.13741    542.07629    -37.92642   -2427.7074 
28953000    258.26927   -3827.0413   -3384.3766   -3827.0413            0    12188.538    16.743722    19.721892    20.427301    6745.4601    11081.588     13027.54    12456.487   -1034.3239    1292.4933   -57.773771   -2185.3216 
28954000    256.89131   -3836.2581   -3395.9552   -3836.2581            0    10676.606    16.768975    19.751638     20.45811    6776.0273      9963.22    10883.954    11182.645    -567.2178   -503.75012   -67.240161    -2340.878 
28955000    254.07749   -3841.6163   -3406.1362   -3841.6163            0    10862.407    16.828015    19.821178    20.530139    6847.8499    11318.416    11027.212    10241.593   -1551.0419    1171.2633     1178.514   -2321.3199 
28956000    263.41127   -3855.4708   -3403.9928   -3855.4708            0    10090.318    16.813241    19.803777    20.512114    6829.8299    10027.317    7844.1931    12399.445    837.01511   -1047.9718   -348.58183    -2398.936 
28957000    263.26009   -3845.7077   -3394.4889   -3845.7077            0    8409.3121    16.906673    19.913828    20.626102    6944.3254    7678.5118    8426.9493    9122.4752   -185.78826   -1691.7087   -792.98198   -2542.8286 
28958000    267.87011   -3800.2813   -3341.1611   -3800.2813            0    11019.445    16.811994    19.802308    20.510593    6828.3106    10033.148    12624.466    10400.721   -681.44336    927.33306    376.92508   -2243.8017 
28959000    260.22227   -3808.7543   -3362.7422   -3808.7543            0    11577.818    16.746205    19.724817     20.43033    6748.4613    10428.977    12299.371    12005.107    753.89525   -879.39015    372.66504   -2223.2605 
28960000    274.34629   -3830.1296   -3359.9094   -3830.1296            0    10704.017    16.834018     19.82825    20.537463    6855.1816    11628.018    10245.634      10238.4    472.07383     837.5226   -994.46454   -2289.7669 
28961000     258.9324   -3817.2202   -3373.4189   -3817.2202            0    12722.111    16.775224    19.758998    20.465734    6783.6049    12636.045    12753.186    12777.102    1140.6278     1196.911    2692.0656   -2114.7961 
28962000    269.46286   -3824.4389   -3362.5888   -3824.4389            0    14048.208     16.77995    19.764564    20.471499    6789.3397    12932.234    13958.218    15254.173    151.67218    253.34921    197.38655   -1971.5976 
28963000    283.23394   -3857.8457   -3372.3925   -3857.8457            0     9947.745    16.881623    19.884322     20.59554    6913.5029    10289.865    10459.822    9093.5485   -8.4719178   -567.24474   -2537.0784   -2369.3977 
28964000    251.46716   -3809.0267   -3378.0205   -3809.0267            0    12090.666    16.802793    19.791471    20.499369    6817.1059    12069.987    11703.022     12498.99   -434.20836   -872.17688    1290.9825   -2175.9605 
28965000    254.42906   -3865.7901   -3429.7074   -3865.7901            0    10722.168    16.805693    19.794887    20.502907    6820.6363    9909.2233    10343.774    11913.507   -160.16259   -1217.0625   -1244.0801   -2363.1521 
28966000    273.59959   -3867.6205   -3398.6801   -3867.6205            0    11615.714    16.849086    19.845998    20.555846    6873.6062    12288.388    11500.559    11058.194    1336.6144    481.31781   -191.99422   -2234.2688 
28967000    267.11119   -3855.2616   -3397.4422   -3855.2616            0    11509.034    16.828581    19.821845    20.530829    6848.5408     10221.48    12898.699    11406.924    143.73277    578.96038   -146.97854    -2247.932 
28968000    260.75563   -3810.7712    -3363.845   -3810.7712            0    13457.701    16.775468    19.759285    20.466031    6783.9009    14894.053    12148.705    13330.346   -1322.6765   -727.99587    1854.1253   -2032.3907 
28969000    275.08505   -3849.0696   -3377.5832   -3849.0696            0    10906.491    16.889132    19.893166    20.604701    6922.7325    11095.239    9533.7121    12090.523    878.07497   -135.96247   -1500.7246   -2276.4534 
28970000    262.17107   -3867.1519   -3417.7997   -3867.1519            0    11773.213    16.807082    19.796523    20.504601    6822.3274    12385.683     12045.99    10887.967    588.99154    12.797677    182.97441   -2246.4044 
28971000    275.03123   -3857.6381   -3386.2439   -3857.6381            0    11122.854    16.809295    19.799129      20.5073    6825.0223    9574.3392    12637.796    11156.426    1665.1192    1998.5797    1333.4006   -2279.1201 
28972000    266.65065   -3894.4196   -3437.3895   -3894.4196            0    9920.4614    16.893846    19.898719    20.610453    6928.5313    9613.7513    9118.3385    11029.294   -857.15506    836.35014   -170.00279   -2434.9713 
28973000    259.52385   -3875.1848   -3430.3698   -3875.1848            0    10931.545    16.884486    19.887695    20.599034    6917.0219    10329.321    11964.072    10501.243    1226.6973    500.70693    73.454958    -2327.621 
28974000    271.57484   -3867.4755   -3402.0055   -3867.4755            0    10542.033    16.868061    19.868347    20.578995    6896.8543    10271.582    7735.2226    13619.295   -1971.6905    164.81192   -1612.4335   -2341.6505 
28975000    263.95499    -3868.465   -3416.0552    -3868.465            0    11714.671    16.843353    19.839245    20.548851    6866.5917    12764.927    9961.5987    12417.488   -1083.7846   -235.12894   -248.47779   -2242.9223 
28976000     274.6252   -3874.4281   -3403.7299   -3874.4281            0    10387.235    16.875667    19.877306    20.588274    6906.1881    12330.733    9387.3133    9443.6583   -801.42038   -1744.8156   -560.09548   -2357.5311 
28977000    285.55343   -3821.8799   -3332.4511   -3821.8799            0    9116.9654     16.85705    19.855378    20.565561     6883.357    9255.9998    8570.4219    9524.4744   -962.45517   -450.46269    431.56908    -2417.229 
28978000    272.72019   -3840.0623   -3372.6293   -3840.0623            0    9736.0694    16.846979    19.843516    20.553275    6871.0272     10659.34     10493.21    8055.6579    45.949974   -1025.3883   -346.07497   -2397.0081 
28979000    255.61918   -3835.6902   -3397.5676   -3835.6902            0    10946.572    16.879767    19.882136    20.593277    6911.2236    10980.711    10470.758    11388.248   -340.75882    954.38859    587.79703   -2294.2286 
28980000    268.93474   -3825.9764   -3365.0315   -3825.9764            0    8665.2401    16.913814    19.922239    20.634814    6953.1282    9638.2115    8146.6685    8210.8403   -760.26453   -960.98205    154.19599   -2486.3394 
28981000    271.53807   -3848.2312   -3382.8243   -3848.2312            0    13073.427    16.849123    19.846041     20.55589    6873.6508    14318.044    12426.293    12475.945   -1816.3697   -58.325443   -1186.6916   -2072.2766 
28982000    270.46741   -3860.6453   -3397.0734   -3860.6453            0    11319.844    16.826634    19.819552    20.528454    6846.1642    12021.073    12824.749    9113.7113      991.888    192.72505   -1076.9896   -2266.8516 
28983000    258.86256    -3850.807   -3407.1254    -3850.807            0    9024.3032    16.907979    19.915366    20.627695    6945.9344    8749.1476    8426.0455    9897.7164    698.78336    808.32614   -1761.7832   -2492.9696 
28984000    281.10518   -3844.0207   -3362.2161   -3844.0207            0    10222.555    16.918587     19.92786    20.640636    6959.0158    10133.237     9826.306    10708.123    318.13236   -490.52894   -392.74021   -2324.7279 
28985000    258.53111   -3842.0484    -3398.935   -3842.0484            0    11964.606    16.839241    19.834401    20.543834    6861.5636    11477.002    12322.917      12093.9   -1507.4285    1777.9382   -975.05607   -2201.6503 
28986000    266.35355   -3859.4937   -3402.9728   -3859.4937            0    9499.7634    16.879187    19.881452    20.592568    6910.5106     10216.31    10192.034    8090.9458    1192.4842   -432.81485   -1384.7104    -2445.561 
28987000    262.28937   -3838.9101   -3389.3551   -3838.9101            0    10743.892    16.847695    19.844359    20.554148    6871.9035    10942.714    10951.865    10337.098    -514.2364    146.27623    191.17443   -2312.6058 
28988000    265.98996   -3818.7458   -3362.8481   -3818.7458            0    12096.454    16.800816    19.789142    20.496956    6814.6996    10440.712    12851.988     12996.66   -1027.5318   -419.06021   -741.42589   -2160.6372 
28989000    258.79753   -3826.1911    -3382.621   -3826.1911            0    12068.067    16.815108    19.805976    20.514393    6832.1057    11608.411    13993.839    10601.952   -654.85974   -400.01863    991.72393   -2180.1678 
28990000    265.01407   -3821.4563   -3367.2313   -3821.4563            0    11121.833    16.796605    19.784182    20.491819    6809.5765    10513.564     9329.756     13522.18    874.58475   -867.07609   -2214.0233   -2262.7144 
28991000    270.09326   -3869.1942   -3406.2636   -3869.1942            0    10712.017    16.807648    19.797189    20.505291     6823.016    9328.4957    11686.327    11121.229   -543.10689    257.32141   -330.07395   -2340.3462 
28992000    274.64477    -3860.512   -3389.7803    -3860.512            0    11140.096    16.810661    19.800738    20.508967    6826.6867    12300.345    11541.768    9578.1735    151.84345   -73.177757   -436.08837   -2280.6699 
28993000    269.61723   -3835.1388   -3373.0241   -3835.1388            0    9974.5653     16.86773    19.867957    20.578591    6896.4482    8983.8529    11291.747    9648.0963    1729.5467    1238.7322   -273.33724   -2369.8061 
28994000     270.6363   -3841.4742   -3377.6128   -3841.4742            0    11843.307    16.785318    19.770887    20.478048    6795.8576    11541.377    12778.136    11210.407     2175.578    619.21537    1209.5996   -2203.8154 
28995000    272.75296   -3834.8721   -3367.3829   -3834.8721            0    12986.548    16.806749     19.79613    20.504194    6821.9213    15027.616    12917.934    11014.094    1424.6495    311.38356   -526.83405   -2075.3418 
28996000    275.25336   -3875.5942   -3403.8193   -3875.5942            0    9409.0071    16.817731    19.809066    20.517593    6835.3038    8284.1869    10699.362    9243.4728   -136.28996   -109.97254   -186.23631    -2465.874 
28997000    263.33015   -3840.3366   -3388.9977   -3840.3366            0    11660.397    16.805641    19.794826    20.502843    6820.5729    11322.291    11662.564    11996.336    1252.6144    497.77029   -905.39243   -2229.1257 
28998000    271.56862   -3808.1257   -3342.6663   -3808.1257            0     10973.41    16.764714    19.746619    20.452912    6770.8633    12354.251    10969.509    9596.4696    524.79271    1136.3519     -1237.31   -2259.0849 
28999000    240.60095   -3825.0557   -3412.6739   -3825.0557            0    10621.611    16.865536    19.865373    20.575914    6893.7576    9919.8774    11807.953    10137.003   -710.02723    1211.2126   -704.33227   -2344.7943 
29000000    276.15623   -3804.7809   -3331.4586   -3804.7809            0    11922.191    16.833237    19.827329     20.53651    6854.2271    14167.173    10038.238     11561.16    1233.9571    -1199.453   -396.58143   -2139.6941 
Loop time of 536.805 on 64 procs for 250000 steps with 864 atoms

Performance: 80.476 ns/day, 0.298 hours/ns, 465.719 timesteps/s
99.1% CPU use with 64 MPI tasks x 1 OpenMP threads

MPI task timing breakdown:
Section |  min time  |  avg time  |  max time  |%varavg| %total
---------------------------------------------------------------
Pair    | 22.418     | 28.013     | 32.819     |  47.6 |  5.22
Bond    | 0.27116    | 0.28436    | 0.30642    |   1.7 |  0.05
Kspace  | 220.23     | 231.72     | 243.46     |  38.8 | 43.17
Neigh   | 5.6556     | 6.6199     | 8.3593     |  28.4 |  1.23
Comm    | 122.26     | 137.6      | 151.88     |  63.2 | 25.63
Output  | 1.1035     | 1.105      | 1.1176     |   0.2 |  0.21
Modify  | 120.98     | 127        | 132.03     |  26.1 | 23.66
Other   |            | 4.457      |            |       |  0.83

Nlocal:        13.5000 ave          19 max           9 min
Histogram: 3 6 5 3 14 13 7 7 4 2
Nghost:        2319.75 ave        2366 max        2274 min
Histogram: 2 4 7 9 15 8 6 3 5 5
Neighs:        4495.86 ave        6532 max        2439 min
Histogram: 4 5 3 7 10 11 14 4 3 3

Total # of neighbors = 287735
Ave neighs/atom = 333.02662
Ave special neighs/atom = 2.0000000
Neighbor list builds = 14633
Dangerous builds = 1

unfix		3
unfix		2
unfix		1

write_data	data.final.${pid}
write_data	data.final.0
System init for write_data ...
PPPM initialization ...
  extracting TIP4P info from pair style
  using 12-bit tables for long-range coulomb (../kspace.cpp:340)
  G vector (1/distance) = 0.37495201
  grid = 24 24 24
  stencil order = 5
  estimated absolute RMS force accuracy = 0.0030831176
  estimated relative force accuracy = 9.284717e-06
  using double precision FFTW3
  3d grid and FFT values/proc = 2535 216
Last active /omp style is kspace_style pppm/tip4p/omp
WARNING: Not all mixed pair coeffs generated from mixing. Use write_data with 'pair ij' option to store all pair coeffs. (../write_data.cpp:312)

write_restart   restart.lmp.${pid}
write_restart   restart.lmp.0
System init for write_restart ...
PPPM initialization ...
  extracting TIP4P info from pair style
  using 12-bit tables for long-range coulomb (../kspace.cpp:340)
  G vector (1/distance) = 0.37495201
  grid = 24 24 24
  stencil order = 5
  estimated absolute RMS force accuracy = 0.0030831176
  estimated relative force accuracy = 9.284717e-06
  using double precision FFTW3
  3d grid and FFT values/proc = 2535 216
Last active /omp style is kspace_style pppm/tip4p/omp
Total wall time: 0:09:00
