LAMMPS (30 Jul 2021)
Processor partition = 0
  using 4 OpenMP thread(s) per MPI task
using multi-threaded neighbor list subroutines
variable        pid world 0 1
variable        phase world IceII IceIh

shell cd ${phase}
shell cd IceII
include Restart.lmp
echo both
log log.lammps
#include		in.partitions
include		in.temp
variable        temperature equal 105.10
variable	tempDamp equal 100.0
include		in.pressure
variable        pressure equal 2051.8
variable        pressureDamp equal 1000.0 # This is 1 ps
include		in.seed
variable        seed equal 745823

units		real
atom_style	full
box tilt large
read_restart	restart.lmp.${pid}
read_restart	restart.lmp.0
Reading restart file ...
  restart file = 30 Jul 2021, LAMMPS = 30 Jul 2021
  restoring atom style full from restart
  triclinic box = (-10.565337 -9.2140779 0.032486181) to (12.545337 12.204076 21.827513) with tilt (-9.1160124 1.8455922 2.8951752)
  2 by 2 by 4 MPI processor grid
  restoring pair style lj/cut/tip4p/long/omp from restart
  restoring bond style harmonic/omp from restart
  restoring angle style harmonic/omp from restart
  1296 atoms
  864 bonds
  432 angles
Finding 1-2 1-3 1-4 neighbors ...
  special bond factors lj:    0        0        0       
  special bond factors coul:  0        0        0       
     2 = max # of 1-2 neighbors
     1 = max # of 1-3 neighbors
     1 = max # of 1-4 neighbors
     2 = max # of special neighbors
  special bonds CPU = 0.001 seconds
  read_restart CPU = 0.006 seconds
include 	in.setup
variable	out_freq equal 1000
variable	out_freq2 equal 10000
variable	out_freq3 equal 1000

timestep	2.0

neigh_modify    delay 7 every 1

include		in.tip4p
# This is TIP4P/Ice

# create groups ###
group ox type 2
432 atoms in group ox
group hy type 1
864 atoms in group hy

# set charges - beside manually ###
set group ox charge -1.1794
Setting atom values ...
  432 settings made for charge
set group hy charge 0.5897
Setting atom values ...
  864 settings made for charge

# ### TIP3P Potential Parameters ###
pair_style lj/cut/tip4p/long/omp 2 1 1 1 0.1577 8.5
pair_coeff 1 1*2 0.000 0.000
pair_coeff 2 2 0.21084 3.1668
bond_style  harmonic
bond_coeff  1 450 0.9572
angle_style harmonic
angle_coeff 1 55 104.52
kspace_style pppm/tip4p/omp 1.0e-5
pair_modify tail yes

thermo          ${out_freq}
thermo          1000
thermo_style    custom step temp pe etotal epair emol press lx ly lz vol pxx pyy pzz pxy pxz pyz enthalpy

restart 	${out_freq3} restart.lmp.${pid} restart2.lmp.${pid}
restart 	1000 restart.lmp.${pid} restart2.lmp.${pid}
restart 	1000 restart.lmp.0 restart2.lmp.${pid}
restart 	1000 restart.lmp.0 restart2.lmp.0


include         in.dump
dump            myDump all atom ${out_freq2} dump.water.${pid}
dump            myDump all atom 10000 dump.water.${pid}
dump            myDump all atom 10000 dump.water.0
dump            myDump2 all dcd ${out_freq2} dump.dcd
dump            myDump2 all dcd 10000 dump.dcd
dump_modify     myDump append yes
dump_modify     myDump2 append yes


variable natoms 	equal  "count(all)"                        # NUMBER ATOMS
variable H      	equal  "enthalpy/v_natoms"                 # ENTHALPY-per-atom
variable Vol      	equal  "vol/v_natoms"                 # volume-per-atom
fix AVG all 		ave/time ${out_freq} 1 ${out_freq} v_Vol v_H file vol_enthalpy.dat
fix AVG all 		ave/time 1000 1 ${out_freq} v_Vol v_H file vol_enthalpy.dat
fix AVG all 		ave/time 1000 1 1000 v_Vol v_H file vol_enthalpy.dat


timer           timeout 10:00:00 every 1000
New timer settings: style=normal  mode=nosync  timeout=10:00:00

fix 		1 all shake 1e-6 200 0 b 1 a 1
Finding SHAKE clusters ...
       0 = # of size 2 clusters
       0 = # of size 3 clusters
       0 = # of size 4 clusters
     432 = # of frozen angles
  find clusters CPU = 0.000 seconds
fix             2 all nph tri ${pressure} ${pressure} ${pressureDamp}
fix             2 all nph tri 2051.8 ${pressure} ${pressureDamp}
fix             2 all nph tri 2051.8 2051.8 ${pressureDamp}
fix             2 all nph tri 2051.8 2051.8 1000
fix             3 all temp/csvr ${temperature} ${temperature} ${tempDamp} ${seed}
fix             3 all temp/csvr 105.1 ${temperature} ${tempDamp} ${seed}
fix             3 all temp/csvr 105.1 105.1 ${tempDamp} ${seed}
fix             3 all temp/csvr 105.1 105.1 100 ${seed}
fix             3 all temp/csvr 105.1 105.1 100 745823


run             250000
PPPM initialization ...
  extracting TIP4P info from pair style
  using 12-bit tables for long-range coulomb (../kspace.cpp:340)
  G vector (1/distance) = 0.36707688
  grid = 30 40 32
  stencil order = 5
  estimated absolute RMS force accuracy = 0.0045934842
  estimated relative force accuracy = 1.3833141e-05
  using double precision FFTW3
  3d grid and FFT values/proc = 11832 2400
Last active /omp style is kspace_style pppm/tip4p/omp
Neighbor list info ...
  update every 1 steps, delay 7 steps, check yes
  max neighbors/atom: 2000, page size: 100000
  master list distance cutoff = 10.8154
  ghost atom cutoff = 10.8154
  binsize = 5.4077, bins = 7 5 5
  1 neighbor lists, perpetual/occasional/extra = 1 0 0
  (1) pair lj/cut/tip4p/long/omp, perpetual
      attributes: half, newton on, omp
      pair build: half/bin/newton/tri/omp
      stencil: half/bin/3d/tri
      bin: standard
Setting up Verlet run ...
  Unit style    : real
  Current step  : 27000000
  Time step     : 2
  Walltime left : 9:59:59.96
Per MPI rank memory allocation (min/avg/max) = 12.75 | 12.76 | 12.76 Mbytes
Step Temp PotEng TotEng E_pair E_mol Press Lx Ly Lz Volume Pxx Pyy Pzz Pxy Pxz Pyz Enthalpy 
27000000     113.0663   -6730.9719   -6440.1158   -6730.9719            0    2566.3676    23.110674    21.418154    21.795027    10788.276     2456.208    2872.3255    2370.5694    695.42725    420.37242   -19.641513   -6036.3339 
27001000    102.24894   -6735.9659   -6472.9367   -6735.9659            0     2324.616    23.289454    21.395419    21.600717     10763.37    2302.7188    2605.3439    2065.7854    245.34314   -873.36556    979.83915   -6108.0354 
27002000    102.21573   -6735.5015   -6472.5578   -6735.5015            0    1911.0477    23.292013    21.243537    21.820164    10796.721    2132.3276    2533.7587    1067.0569   -864.08226    57.770033    620.85814   -6171.6459 
27003000    105.57999   -6748.5775   -6476.9794   -6748.5775            0    1820.5078    23.282792    21.372095    21.667135    10781.611    1413.4256    2151.6475    1896.4502    80.310182    404.83368   -73.408914   -6190.7251 
27004000    100.81638   -6748.2577   -6488.9137   -6748.2577            0    2730.5174    23.171437    21.498579     21.57331    10746.809    3146.6367    2820.6945    2224.2211    678.53506   -352.49559   -743.53659   -6060.9565 
27005000     105.2674   -6746.2853   -6475.4914   -6746.2853            0    2497.7476    23.197407     21.40084    21.693485      10769.6    2727.9967    2795.3893    1969.8569   -668.77319    400.47688   -721.73857   -6083.1862 
27006000    105.96609   -6737.7573    -6465.166   -6737.7573            0    1458.7587    23.348186    21.301749    21.685631    10785.505    1575.9128    1815.8649    984.49826    244.36079   -1109.9445   -649.74222   -6235.7097 
27007000    105.07369   -6752.7217    -6482.426   -6752.7217            0    1202.7135    23.261874    21.290524    21.820169    10806.602    1056.8326    1298.9734    1252.3345    211.26046    607.53752    636.69379   -6292.8745 
27008000     111.8497   -6758.2409   -6470.5143   -6758.2409            0    2301.1913    23.182789    21.350425    21.713565    10747.398    2136.1102    2980.3513    1787.1124   -83.504656    581.95491    178.78048   -6109.8261 
27009000    106.34287   -6731.2559   -6457.6954   -6731.2559            0    2594.5384    23.212069     21.42581    21.638606    10761.688    2502.8628    2312.4783    2968.2742   -72.713806    205.92473   -179.50273   -6050.4873 
27010000    108.00222   -6746.5277   -6468.6986   -6746.5277            0    2011.1626    23.331298    21.407067    21.582526    10779.494    1572.4229    2020.8659    2440.1989   -671.69096   -95.446736   -294.93811    -6152.528 
27011000    104.25439    -6739.283   -6471.0949    -6739.283            0    2684.9334    23.372446    21.246013    21.662798    10757.123    1941.9682    3251.6782    2861.1538    -470.9052   -287.56491   -449.45526   -6049.8782 
27012000    107.58282   -6733.8798   -6457.1296   -6733.8798            0    1259.0201    23.335554    21.371899    21.688131    10816.415    36.260234    2295.4447    1445.3553    783.03752    1407.6882   -99.308963   -6258.5238 
27013000     107.5004   -6742.4423   -6465.9041   -6742.4423            0    1783.2454    23.172813    21.423438    21.746649    10795.935    2108.2488    1956.5884    1284.8989    835.93086    305.47537    150.28498   -6185.1363 
27014000    104.74397   -6754.6754   -6485.2279   -6754.6754            0    2235.5624      23.1618     21.50093     21.59328    10753.458    1193.0932     2587.243     2926.351    425.15671     618.7278   -122.04658   -6134.6288 
27015000    108.90916   -6755.2458   -6475.0837   -6755.2458            0    2176.7193    23.256182    21.325919     21.70945    10767.007    2209.8685    2342.8478    1977.4415   -296.54106   -212.71494   -509.71106   -6133.2827 
27016000    106.62226   -6747.2712   -6472.9919   -6747.2712            0     1910.484    23.349939    21.309109    21.647783    10771.209    936.74266    2894.1493    1900.5599    29.225906   -69.960843   -631.88691   -6172.8796 
27017000    100.70186   -6733.7635   -6474.7141   -6733.7635            0    1491.8186    23.314291    21.376378    21.686636    10808.079    1237.6595    1871.4504    1366.3461    301.67602   -282.05742   -503.04047   -6239.5666 
27018000    100.31754   -6746.7185   -6488.6578   -6746.7185            0    2286.7377    23.170938    21.416234    21.694091    10765.351    2456.4537    1521.0405    2882.7189    664.80384   -249.66918    88.368354   -6129.6363 
27019000    101.92261   -6740.9983   -6478.8086   -6740.9983            0    1675.2467    23.197762    21.390557    21.720389     10777.94    2883.1377    458.42769    1684.1745   -1191.1321    18.762077    287.44432   -6215.4846 
27020000    103.90965   -6750.1882    -6482.887   -6750.1882            0    718.75894    23.340437    21.345761    21.724855    10823.744   -10.737661    797.87869    1369.1358   -142.30466     786.0045    486.28934   -6369.4286 
27021000    102.25346    -6749.917   -6486.8762    -6749.917            0    2913.5334    23.255221    21.324927    21.660713    10741.892    3073.7751    2992.3571     2674.468    -267.5887   -564.93702   -749.84517   -6030.4436 
27022000    106.67318   -6742.6232   -6468.2129   -6742.6232            0    2221.3643    23.289521    21.421616    21.598933     10775.69    2104.8385    1642.3702    2916.8842    232.97207   -306.32474   -132.78715   -6119.1203 
27023000    103.74618   -6747.2724   -6480.3917   -6747.2724            0    1854.7425    23.169985    21.439974    21.716803    10788.123    2526.6952    1720.4705    1317.0617   -93.608033   -847.10884    -257.7731   -6188.5781 
27024000    112.33671   -6735.9227   -6446.9434   -6735.9227            0    1642.0625    23.207544    21.393587    21.709703    10778.707    1406.2059    2309.6512    1210.3304   -67.622103    89.366145    -290.0426   -6188.8171 
27025000     109.4617   -6740.8916   -6459.3081   -6740.8916            0     2011.085    23.357003    21.300312    21.679312    10785.706    788.44605    2602.2988    2642.5101    159.71271    212.47734    523.97502   -6142.9675 
27026000    106.70925   -6736.1552   -6461.6521   -6736.1552            0    2134.7811    23.326624    21.236704    21.779259    10789.022    975.20666    3934.5855    1494.5512    374.57771    45.674987   -415.20451   -6125.7511 
27027000    107.25569   -6739.7543   -6463.8456   -6739.7543            0    3141.5103    23.214213    21.459092    21.565041    10742.753     3017.033    3001.9973    3405.5004   -146.05314    -950.6626   -636.01519   -5971.6588 
27028000    100.01755   -6746.2854   -6488.9964   -6746.2854            0    1875.9571    23.196927    21.462378    21.660659    10784.002    2422.6086    1457.8159    1747.4469    211.12768    140.59371   -474.94024   -6193.9578 
27029000    102.79642   -6748.4802   -6484.0427   -6748.4802            0    1879.7651    23.181972     21.39476    21.787162    10805.839    2398.3004     1987.406     1253.589   -52.785622   -605.60997   -275.54729   -6187.8066 
27030000    111.07945   -6744.7573   -6459.0122   -6744.7573            0    1795.4444    23.418791    21.321486    21.581801    10776.299     320.6537    2453.1496    2612.5298   -343.87131    112.47819    149.32144   -6176.8379 
27031000    105.98896   -6736.3015   -6463.6514   -6736.3015            0    1592.1287    23.230419    21.365039    21.787604    10813.598    2391.1706    1334.8752    1050.3404    146.56408    251.96836    56.131384   -6212.5643 
27032000    109.49708   -6749.8725    -6468.198   -6749.8725            0    2451.0129     23.17384    21.503404     21.56609    10746.737    3367.8847    1403.3682    2581.7857    530.04763   -73.866004   -240.30787   -6084.0504 
27033000    104.04902   -6741.9192   -6474.2594   -6741.9192            0     1896.605    23.217322    21.415858    21.664266    10771.882    2786.0621    1257.0387    1646.7141    81.795324   -511.01282   -358.18839   -6176.3087 
27034000    100.63336   -6740.0906   -6481.2174   -6740.0906            0    1093.3189    23.257847    21.337761    21.830307    10833.735    910.11922    1247.9951    1121.8425   -213.92154    179.13597    711.42064   -6308.4742 
27035000    103.98837   -6754.0137   -6486.5099   -6754.0137            0    1971.3628    23.299324    21.358482    21.650205    10773.969    2177.8655    1236.0385    2500.1845   -299.75609   -137.73208    486.23285    -6176.755 
27036000     103.4226   -6748.7413    -6482.693   -6748.7413            0    2400.3412    23.193493    21.373612    21.697717    10756.181     2935.069    1628.0609    2637.8938   -116.27645    716.36511    293.78953   -6106.1566 
27037000    103.74802   -6741.3068   -6474.4214   -6741.3068            0    1653.6307    23.219872    21.497185    21.638307    10801.018    2094.5389     808.7241     2057.629   -546.18695     -379.746    276.02616   -6213.9385 
27038000    106.41972   -6751.6344   -6477.8762   -6751.6344            0    1611.9849    23.306072    21.427999    21.601767    10787.976     1990.838    1490.0639    1355.0529   -399.17184   -233.99568   -177.78574     -6224.26 
27039000    108.24318   -6752.7148   -6474.2658   -6752.7148            0    1958.5258    23.232038    21.335849      21.7437    10777.814    2381.2585    1719.2782    1775.0407   -10.344098     556.8919   -122.19042   -6166.4182 
27040000    102.55209   -6746.2023   -6482.3933   -6746.2023            0    2247.0826    23.293838    21.349604    21.629447    10756.632    1341.0971    2543.7077    2856.4429   -186.63157     159.6502    321.67642   -6129.8835 
27041000    105.33262   -6755.1868   -6484.2251   -6755.1868            0    1302.4844    23.202483    21.365809    21.772105    10793.299      2236.11    442.31942    1229.0239    246.47922   -605.69495    1072.2322    -6279.202 
27042000     107.2081   -6750.2569   -6474.4706   -6750.2569            0    3632.9486    23.126344    21.360351    21.653929    10696.755    3185.8727    3716.6157    3996.3573    928.81836     557.9156    212.32295   -5907.7262 
27043000    104.40271   -6737.1973   -6468.6277   -6737.1973            0    1860.1116    23.253133     21.41147    21.692699    10800.443    1657.2233    2326.1449    1596.9665   -285.49159   -237.46409    -303.9908   -6175.6352 
27044000    106.51261   -6743.0639   -6469.0667   -6743.0639            0    2494.9197    23.361576    21.313759    21.612072    10761.147    1915.2016    2269.7821    3299.7752   -234.81844   -142.66245    100.71277   -6077.5132 
27045000    97.895107   -6754.6087   -6502.7795   -6754.6087            0    1497.9953    23.321342    21.365362    21.673109    10799.036    1035.7604    1778.9772    1679.2483    211.22844   -159.50837   -232.84669   -6266.8559 
27046000    106.22198   -6744.2621   -6471.0125   -6744.2621            0     2198.904    23.222398    21.420716    21.656739    10772.936    2140.6477    1969.9818    2486.0826    221.57842    589.89281   -189.61246   -6125.5378 
27047000     106.5408   -6756.7043   -6482.6346   -6756.7043            0    1978.4648    23.089857     21.43829    21.774949    10778.753    2824.0727    1654.1008    1457.2209   -423.63904    331.28714    143.34542   -6171.6257 
27048000    108.67467   -6745.6296   -6466.0706   -6745.6296            0    2591.5244    23.318139    21.345318    21.589284    10745.701    1094.3192      3522.87    3157.3842    800.81838    890.47073     211.5103   -6059.9398 
27049000    107.46155   -6741.1245   -6464.6862   -6741.1245            0     1736.637    23.296591    21.294706    21.737635    10783.912    1476.1402     2555.108    1178.6627   -673.65014     784.5208   -59.313954   -6191.5613 
27050000    106.58026   -6748.4121   -6474.2408   -6748.4121            0    2061.7443    23.228855    21.347462    21.741199    10780.963    1763.2845    2183.8245    2238.1239    147.56306    257.21052    281.12086   -6150.0743 
27051000    107.79435   -6739.8072   -6462.5128   -6739.8072            0    2135.1939    23.236886    21.485079    21.542484    10755.006    1159.9637    1671.6402    3573.9777    855.81638     454.8968    150.79625   -6127.6061 
27052000    103.21894   -6751.6181   -6486.0936   -6751.6181            0       2283.8    23.153127    21.411985    21.711027    10763.337      2532.05    2119.7118    2199.6382   -277.07022    785.07068   -425.14135   -6127.6004 
27053000    101.19024   -6743.3664   -6483.0607   -6743.3664            0    2248.2687    23.194908     21.36764    21.732329    10770.986    1593.8921    2783.3726    2367.5413   -39.364206   -112.68185    870.48155   -6129.8942 
27054000    109.04885   -6744.0288   -6463.5073   -6744.0288            0    2641.7267    23.336753    21.268291    21.642631    10741.948    2101.4883    3163.3557    2660.3362   -258.71331   -120.65598    410.42043   -6049.6536 
27055000    105.50197   -6740.7284    -6469.331   -6740.7284            0    1636.0578    23.280329    21.309557    21.763668    10796.814    1676.8924    1493.9175    1737.3635    452.54377    309.16217    570.67307   -6211.7166 
27056000    104.53705   -6728.4235   -6459.5083   -6728.4235            0    1537.6527    23.322045    21.406879    21.635946    10801.793    1595.7447    734.53251    2282.6808   -459.63086   -1038.4428    586.69724   -6217.2771 
27057000    108.74449    -6751.108   -6471.3695    -6751.108            0    3062.1374    23.189038    21.407095    21.591537    10718.254    3221.1398    3539.0774     2426.195    52.294051    384.80461   -339.00024   -5992.7123 
27058000    104.55555    -6746.613   -6477.6502    -6746.613            0    2171.5695     23.19088    21.399028    21.733179    10785.357    2523.2736    2522.0384    1469.3965   -224.45577    699.45701   -60.898764   -6136.0767 
27059000    104.05607   -6740.9792   -6473.3013   -6740.9792            0    1653.4641     23.16759    21.425998    21.723495    10783.298    1845.0868    2191.1028     924.2026    450.99451    754.53943    943.08577    -6213.272 
27060000    101.52894   -6752.7444   -6491.5674   -6752.7444            0     1574.161    23.333414    21.332734    21.706865    10804.928    1043.2122    2756.6901    922.58074   -152.05918   -452.18218    220.30319    -6243.513 
27061000     107.6897    -6750.337   -6473.3119    -6750.337            0    3335.9857    23.278825    21.220232     21.69549    10717.183    3027.6499    4285.5363    2694.7709   -391.86639   -183.49005    -311.0805   -5951.9002 
27062000       108.18   -6745.3244    -6467.038   -6745.3244            0    1839.6325    23.297639    21.382425    21.649328     10784.83    2413.1899     1354.733    1750.9747   -104.87973    151.58004    -1037.013   -6177.6901 
27063000    110.44151   -6740.1737   -6456.0696   -6740.1737            0    2239.7299    23.157124     21.51582    21.635823     10779.93    3069.3879    1543.8023    2105.9995   -165.21401   -530.79691   -174.02113   -6103.9523 
27064000    104.23829   -6747.6742   -6479.5275   -6747.6742            0    1849.9243    23.161052    21.457165    21.688082    10778.338    2020.1092    1634.0035      1895.66   -333.68554    696.15313    45.225823   -6188.7361 
27065000    99.260988   -6751.9221   -6496.5792   -6751.9221            0    1301.3704    23.320671    21.307326    21.705352    10785.414    1640.8888    1444.3771    818.84537    260.61759     394.3327   -292.11953   -6291.8812 
27066000    103.42723   -6728.8421   -6462.7818   -6728.8421            0    991.58581    23.302055    21.308996    21.787906    10818.641    1462.1269    737.03505    775.59553   -95.808225   -116.62539    275.01102   -6306.3306 
27067000    99.010217   -6749.1996   -6494.5018   -6749.1996            0    2927.6492     23.25308    21.353221     21.61286    10731.393    2654.1323    3226.2711    2902.5442    281.44041    358.95078    202.91758   -6036.3061 
27068000    103.98608   -6754.1468    -6486.649   -6754.1468            0    1773.3471    23.160238    21.462612    21.668073    10770.749    2173.9691    1889.5588    1256.5133    498.44248     487.4741   -553.66729    -6208.091 
27069000    99.588497   -6752.3399   -6496.1546   -6752.3399            0     2520.222     23.22015    21.413025    21.617646    10748.589    2281.2497    2747.3117    2532.1046     475.2346   -501.74604   -271.61775   -6101.0918 
27070000    103.99275   -6747.1983   -6479.6833   -6747.1983            0    2678.6945    23.211697    21.313885    21.726454     10748.76    3514.2418    1842.4059    2679.4357    2.3959041   -962.98666    599.00331   -6059.7721 
27071000    106.81846    -6746.088    -6471.304    -6746.088            0    2068.6798    23.381974    21.240232    21.652059    10753.248    2111.6846    2205.9053    1888.4494    -343.7823   -67.841379   -225.85079   -6146.8831 
27072000    112.13736   -6742.3578   -6453.8913   -6742.3578            0     1225.892    23.266006    21.401389    21.726477    10818.153    2200.8694    808.89213    667.91431   -492.15231   -296.63615   -10.707215   -6260.4803 
27073000     99.55462   -6740.5515   -6484.4533   -6740.5515            0     2382.413    23.124987    21.489627    21.626359    10747.162    3563.0382    1250.5746    2333.6261   -109.56129   -374.21379    45.022183   -6111.0427 
27074000    107.26941   -6753.1319   -6477.1879   -6753.1319            0     2350.593    23.212507    21.453898    21.603433    10758.483    2347.7879    1744.4453    2959.5458    174.67352    353.09956    144.39081   -6108.3765 
27075000    105.79498   -6749.9803   -6477.8292   -6749.9803            0     2047.188    23.356514    21.190869    21.751943    10766.011    2591.9686    2400.6363    1148.9592    -1060.874   -388.38776   -633.54027   -6156.3977 
27076000    108.77199   -6759.7866   -6479.9773   -6759.7866            0    1427.0315    23.323106    21.368206     21.68055        10805    1912.1851    1029.5326    1339.3769   -218.62268   -206.07075   -4.8520539   -6255.1059 
27077000    102.03245   -6743.5119   -6481.0397   -6743.5119            0    2381.6663    23.099073    21.559926    21.607069    10760.629    2567.6635    1652.9462    2924.3891    797.61225   -705.96121    318.68323   -6107.2783 
27078000    105.78519   -6729.6066   -6457.4806   -6729.6066            0    2322.2765    23.097222    21.487746    21.735655    10787.563    2795.0783    2003.8855    2167.8656    504.54094    38.435183    35.763152   -6092.1272 
27079000    100.86137   -6746.5751   -6487.1154   -6746.5751            0    2176.4175    23.361407    21.306622    21.602262    10752.584    1138.7784    3182.3427    2208.1314    504.99131   -282.58561    406.64066   -6145.8196 
27080000    107.12589   -6735.5014   -6459.9265   -6735.5014            0    2064.6119    23.340312    21.273878    21.740728    10795.118    1976.3597    2530.8102    1686.6658   -143.85665    -148.1657     405.2222   -6134.8829 
27081000    103.87953   -6750.6062   -6483.3824   -6750.6062            0     776.2477    23.324145    21.336669    21.771811     10834.95    211.02813    1905.4617     212.2533   -389.71152    487.98161   -189.45428   -6360.7224 
27082000    109.05034   -6761.5476   -6481.0222   -6761.5476            0    2693.1272    23.234436    21.516343    21.443318    10719.946      2071.95    2358.5539    3648.8778    432.28952    111.18223    180.01454   -6059.9803 
27083000    105.83315   -6750.5734   -6478.3241   -6750.5734            0    1658.1448    23.125448    21.417272    21.821393    10807.787    2315.5354    1246.0394    1412.8595     183.5658    -780.7309    153.52733   -6216.9665 
27084000    111.80414   -6740.6447   -6453.0354   -6740.6447            0    2612.7364    23.310015    21.282602    21.666554    10748.729    2993.1161    2844.1058    2000.9872     545.7748   -540.12566   -207.49253    -6043.465 
27085000    103.35814   -6748.1481   -6482.2656   -6748.1481            0    1875.1459    23.344281    21.328943    21.658594    10784.005    1650.4853    2045.1411    1929.8115   -771.58201    121.09992   -194.23988   -6187.3546 
27086000     107.8108   -6759.3067     -6481.97   -6759.3067            0    2614.3034    23.132324    21.342052    21.756835    10741.159     3271.004    2786.1312    1785.7751    329.26895   -87.360798   -144.95868   -6072.4425 
27087000     104.2684   -6756.5889   -6488.3648   -6756.5889            0    2043.0577    23.228467    21.572255    21.470535    10758.679    2399.1893    596.99822    3132.9855   -548.20091    672.58636     214.5171   -6167.8002 
27088000    102.07781   -6735.6061   -6473.0171   -6735.6061            0    2079.4548     23.21364     21.40663    21.685224    10775.947    2310.4648    2173.1448    1754.7547     464.9154    -1096.904   -776.56883    -6146.218 
27089000    100.16084   -6756.3334   -6498.6758   -6756.3334            0    1318.5029    23.295147    21.367895    21.705419    10804.268    1369.6733    1291.9007    1293.9346   -268.06577    519.13329     635.4561   -6290.9204 
27090000    106.28842   -6753.3236   -6479.9031   -6753.3236            0    2417.0232    23.245697    21.252672    21.748562    10744.511    2363.3363    3094.1182     1793.615   -798.23272   -12.903247    940.21943   -6101.1612 
27091000    102.08227   -6752.0348   -6489.4344   -6752.0348            0    2179.6167    23.224771    21.370656    21.709626    10775.108    1141.9405     3319.508    2077.4017     458.5806    890.35723    371.21101   -6146.9209 
27092000    103.12161   -6738.3897   -6473.1156   -6738.3897            0    2804.2055    23.210382    21.420206    21.599254    10738.526    1922.0375    3835.1984    2655.3808    778.38338    984.30054   -1152.8138   -6033.9479 
27093000    101.27776    -6736.668   -6476.1372    -6736.668            0    2234.4448    23.173424    21.482022    21.677333    10791.237    3008.2213    1289.5878    2405.5253     513.4381   -534.77606     41.13781   -6124.4822 
27094000    106.79318   -6746.1744   -6471.4554   -6746.1744            0    2593.5527    23.291097    21.365936    21.591836    10744.877    2752.3007    2704.6574    2323.7002   -307.36233   -147.75211   -774.48753   -6065.0379 
27095000    101.74423   -6754.8801   -6493.1493   -6754.8801            0    2066.9665    23.293351    21.268304     21.75014    10775.238    2346.2833    1911.9877    1942.6284    254.22275   -245.94207    755.07379   -6168.3342 
27096000    108.40649   -6742.6298   -6463.7607   -6742.6298            0    2339.1459    23.230705    21.361059     21.68285    10759.735    2761.1384    2019.6892    2236.6102    643.32508   -237.74354    -230.2823   -6096.7026 
27097000    104.15685   -6745.8329   -6477.8958   -6745.8329            0    2346.3195    23.159605    21.489076    21.604927    10752.308    2832.5842    2095.5476    2110.8267   -496.13895    59.232263   -104.54992   -6109.9662 
27098000     103.1621   -6759.6005   -6494.2223   -6759.6005            0    1581.0257    23.217719    21.416348    21.699149    10789.658     1220.924    1801.9688    1720.1843    143.92445    -216.2941    608.93472   -6245.4382 
27099000    107.69742    -6749.292    -6472.247    -6749.292            0    2070.9501    23.354937    21.298911    21.656685    10772.788    1994.9611    2180.1005    2037.7886   -598.88419    1010.6992   -606.38914   -6146.8799 
27100000    103.50573   -6754.1416   -6487.8794   -6754.1416            0    2713.3185    23.316442    21.295825    21.669499    10759.836    3847.6548    2457.5869    1834.7137   -195.45128   -1187.4412   -864.34641   -6062.1024 
27101000    105.39805   -6761.4916   -6490.3616   -6761.4916            0    3059.9904    23.165272    21.388771    21.649702    10726.923    4032.2891    1921.2924    3226.3898    -164.9554   -328.52832   -143.88861   -6011.6531 
27102000    101.67801     -6741.79   -6480.2295     -6741.79            0    1576.8919      23.3032    21.416567    21.615298    10787.645    876.11712    1955.4782    1899.0804    165.35328    321.41518    306.89099   -6232.1422 
27103000     107.2309   -6739.9773   -6464.1323   -6739.9773            0    1349.6374    23.229135    21.365256    21.770218    10804.481    875.89618    2102.3391    1070.6771   -74.141476    1110.3596   -693.32897   -6251.4669 
27104000    106.63669   -6747.8657   -6473.5493   -6747.8657            0    2359.5834    23.306707    21.389165    21.591906    10763.803    2163.7336    2698.9517    2216.0649   -807.59973   -6.0443529    -850.8976   -6103.1442 
27105000    105.67051   -6740.9475   -6469.1166   -6740.9475            0    2223.3052    23.258059    21.389662    21.642944    10766.975    2325.8502    2982.4035    1361.6618   -343.69691   -614.98924   -595.43941   -6120.0014 
27106000    101.45125   -6746.9993   -6486.0221   -6746.9993            0    2048.3371    23.202497    21.363318    21.754663    10783.402    2068.2529    2340.1271    1736.6312    229.56469   -145.12256   -374.74927   -6163.8907 
27107000    104.13129   -6746.7772   -6478.9058   -6746.7772            0    2858.7595    23.228568    21.405121      21.5611    10720.401    2382.4829    2818.7638    3375.0318   -448.87155    1076.8817    211.78399     -6031.95 
27108000    99.668875   -6734.4083   -6478.0161   -6734.4083            0    2013.4424    23.183446     21.37196    21.754729    10778.939    2537.0101    1808.5521    1694.7651    133.35168   -333.61706    517.48418   -6161.5035 
27109000    100.76776   -6742.3724   -6483.1535   -6742.3724            0    2443.6971    23.255521    21.334529    21.670153    10751.551    2725.0409    1889.6004    2716.4499    -491.8339    411.20294   -80.509159    -6099.981 
27110000    103.82276   -6750.9978   -6483.9201   -6750.9978            0     1186.757    23.294622    21.431961     21.66482    10816.149    728.78426    1489.5695    1341.9173   -264.30855    997.89628   -661.96331   -6296.7182 
27111000    107.35389   -6750.6105   -6474.4492   -6750.6105            0    2330.9601    23.195915    21.459456    21.611816    10757.751    2720.3831    1337.2808    2935.2164   -152.45085   -504.83572   -667.25459   -6108.7431 
27112000    107.82127   -6753.8319   -6476.4682   -6753.8319            0     1957.169     23.28186    21.402365    21.636482    10781.175    2558.0039    1581.6549    1731.8482   -458.96269   -362.17892    -788.4827   -6168.7379 
27113000    106.03239   -6743.8964   -6471.1345   -6743.8964            0    2808.3269    23.232289    21.316333    21.682414    10737.722    3023.9762    2667.1955     2733.809    590.95709    235.95717    200.22183   -6031.3543 
27114000    106.69991   -6743.4516   -6468.9726   -6743.4516            0    1327.1141    23.275882    21.363286    21.735268    10807.847    1338.1898    936.35332     1706.799    690.45837   -272.26448    1020.7077   -6259.7911 
27115000    109.23162   -6750.7641   -6469.7724   -6750.7641            0    2875.4455    23.195596    21.354486    21.653502     10725.63    2285.6241    3694.9038    2645.8087    19.116947   -156.36689    364.13841   -6019.9886 
27116000    103.19348    -6761.361    -6495.902    -6761.361            0    1223.6836    23.218587    21.398749    21.787148    10824.917    1561.2683    988.04972    1121.7328    400.11914   -124.74158    354.68416   -6302.7187 
27117000    101.25855   -6763.5897   -6503.1083   -6763.5897            0    3401.3484    23.271562    21.397997    21.499886    10706.187    3040.4925    3238.0404    3925.5123   -228.16977   -748.29772   -34.688749    -5972.026 
27118000    104.92572   -6758.2523   -6488.3373   -6758.2523            0    1163.1758    23.241274    21.442154    21.712936    10820.489    1523.8971    1382.6773    582.95299    -24.93498   -1258.6685   -228.28985   -6304.7815 
27119000    103.53899   -6747.4553   -6481.1076   -6747.4553            0    1558.6198    23.280073    21.423654    21.621951    10783.824    1253.7245    1008.7677    2413.3671    799.93032     75.30684     178.3434   -6235.9819 
27120000    105.65537   -6751.7898   -6479.9978   -6751.7898            0     2212.492    23.239972    21.316451    21.727244     10763.54    1379.7376     2816.033    2441.7054    110.85459     712.4082    42.012692   -6132.6914 
27121000    104.43098   -6747.4495   -6478.8072   -6747.4495            0    3160.7232    23.251873    21.276431     21.67003    10720.529    2808.3658     3363.683    3310.1208    199.95435   -555.23221    508.81471   -5984.6346 
27122000     106.5317   -6735.0152   -6460.9689   -6735.0152            0    1588.7703    23.300261    21.431769    21.630311    10801.438    1209.5231    1945.1592    1611.6286   -624.28794    832.36978   -126.71203   -6210.6933 
27123000    102.64137   -6744.4108   -6480.3722   -6744.4108            0    2298.2096    23.201498    21.417391    21.655112    10760.762    2126.4336    2796.0476    1972.1475   -315.89827    283.28248   -477.79534   -6119.7034 
27124000    105.50244    -6744.668   -6473.2694    -6744.668            0    1152.8199    23.277145    21.462501    21.669008    10825.527    1022.4729    1102.8078    1333.1789    701.62751   -839.06192   -461.97493   -6291.2632 
27125000    108.77291   -6742.6947    -6462.883   -6742.6947            0    2877.6371    23.263877    21.308309    21.625262    10719.943    2757.3532    2964.5573    2911.0009   -457.31675    470.97135   -116.04924    -6012.995 
27126000    103.52815   -6745.0799   -6478.7601   -6745.0799            0    1764.9127    23.281857    21.329733    21.731923    10791.981    2285.6456    1324.7285    1684.3639     274.7065    -371.0114    264.07174   -6200.9805 
27127000    103.11274   -6746.7196   -6481.4684   -6746.7196            0    1643.4967    23.236671      21.4022    21.669977    10776.824    1720.0606    2043.2008    1167.2285   -447.31839   -180.85571    50.064214   -6223.1618 
27128000    108.30732   -6754.9808   -6476.3668   -6754.9808            0    2480.7485     23.21366    21.382284    21.666888      10754.6    2734.6771     2053.502    2654.0663    -495.3643    454.99713    341.21342   -6087.2743 
27129000    109.27301   -6740.7291   -6459.6309   -6740.7291            0    1577.1908    23.306996    21.364464    21.731026    10820.779    1034.4442    2455.1893    1241.9388    782.56924   -1373.5835    349.56429   -6210.7345 
27130000    102.29814   -6762.1043   -6498.9485   -6762.1043            0    2221.7886    23.281975    21.292642    21.680217    10747.637    2333.7187     1929.633    2402.0139   -501.17965    5.3892887   -100.16951   -6150.6981 
27131000    102.63363   -6759.6935   -6495.6748   -6759.6935            0    1793.8204    23.266922    21.327006    21.731188    10783.315     1542.585    3023.7593    815.11683    1436.1329   -420.02132    119.56001   -6213.5721 
27132000    110.58935   -6744.3117   -6459.8273   -6744.3117            0    2073.9936    23.050617    21.506338    21.680575    10747.806    2480.0349    1639.7809     2102.165   -279.00143     576.1852   -41.233127   -6134.7377 
27133000    108.03074   -6747.7428   -6469.8403   -6747.7428            0    1486.3364    23.260067    21.446621    21.639419    10794.821    1025.3532    928.64102    2505.0149    98.584675    1087.7906    742.95371   -6235.8443 
27134000     99.05469   -6747.6582    -6492.846   -6747.6582            0    1836.1634    23.243799    21.355778    21.738593    10790.807    1765.2346    2032.8416    1710.4141   -349.24903   -374.94374   -962.51739   -6203.8838 
27135000    105.07492   -6762.1786   -6491.8798   -6762.1786            0    2269.4753    23.319788    21.289364     21.67695    10761.813    1433.8091    3274.0651    2100.5518    415.21374    501.54544   -291.63742   -6135.6856 
27136000    110.24681   -6747.9412    -6464.338   -6747.9412            0    2824.5964    23.219435    21.352107    21.643428    10730.462    2927.1556    2815.3669    2731.2666   -275.64792    86.280221   -340.59995   -6022.3091 
27137000    101.59702   -6740.9645   -6479.6123   -6740.9645            0    1221.6557    23.142053    21.484019    21.718751    10798.222    1918.0781    899.14108    847.74794   -477.36409    134.39376    224.18269   -6287.2248 
27138000    99.581258   -6746.6688   -6490.5021   -6746.6688            0    1698.9239     23.24237    21.437437    21.611554    10768.105    1550.9758    1645.9152    1899.8807    668.07042   -222.08798    274.29093   -6223.7001 
27139000    102.21146   -6747.4058   -6484.4731   -6747.4058            0    1396.2111    23.303162    21.320158    21.743679    10802.849    987.54796    1783.6604    1417.4248   -33.875604   -105.94068    279.60636   -6264.5022 
27140000    102.22531   -6742.6108   -6479.6424   -6742.6108            0    2586.2197    23.312393    21.259545    21.696066    10752.806    3291.0044    1919.6117    2548.0429   -919.75269    565.23658   -248.43633   -6074.0749 
27141000    109.27132   -6766.7333   -6485.6395   -6766.7333            0    2282.3262    23.244638    21.398761    21.620769     10754.31    2119.5476    2306.9039    2420.5269    245.48252   -894.64587   -600.96122   -6127.6782 
27142000    110.79738   -6760.6321   -6475.6126   -6760.6321            0    2276.3512     23.17557    21.385358    21.707028    10758.391    2974.8938     1680.667    2173.4928    367.42158    -864.1754    104.65848   -6118.4528 
27143000    103.85489   -6742.1974    -6475.037   -6742.1974            0    1107.3227    23.278925    21.477074    21.605415    10801.912    225.34982    1238.6604     1857.958    1134.6553    494.95987    573.50368   -6300.5951 
27144000    102.38919   -6745.2141   -6481.8241   -6745.2141            0    933.72064     23.29394    21.326812    21.794541    10827.211    1050.2914    1619.9821    130.88835    551.36305   -485.26061    30.065926   -6334.3861 
27145000    107.01582   -6736.6035   -6461.3118   -6736.6035            0      2298.28    23.279952    21.323362    21.706112    10775.062     2062.942    3072.2715    1759.6264   -1089.8728    121.31234   -450.58778   -6100.1527 
27146000    103.49713   -6749.1404   -6482.9003   -6749.1404            0     2107.014     23.28592    21.415381    21.574579    10758.743    2008.9714    1459.8624    2852.2081    1087.5771    89.188237    15.704557   -6152.2988 
27147000    102.69047   -6751.2442   -6487.0792   -6751.2442            0    2152.4446    23.069063    21.478212    21.773605    10788.434    2855.6824    1364.8524    2236.7989   -145.38807    50.721001   -205.55071   -6148.4174 
27148000    103.61157   -6757.4611   -6490.9267   -6757.4611            0     2311.877    23.287835    21.363658    21.610349    10751.437    1779.6925     2443.408    2712.5304    246.42939     980.7281     264.5263   -6128.4274 
27149000    105.01638   -6733.3398   -6463.1916   -6733.3398            0    1731.2447      23.2627     21.34494    21.768423    10808.913    2688.2542    2275.7323    229.74754   -19.021701   -189.36286    249.17441   -6190.2835 
27150000    103.66674   -6749.2633   -6482.5869   -6749.2633            0    1652.4898    23.300108    21.366133    21.663079      10784.6    1707.4725    1821.5346    1428.4623   -806.54455      390.734   -751.50323   -6222.6795 
27151000    107.16105   -6742.8413    -6467.176   -6742.8413            0    1935.0381    23.237556    21.380423     21.67776    10770.135    2218.6679    1681.5897    1904.8569    177.96032   -406.52789   -279.64984   -6163.2369 
27152000    100.69138   -6752.1954    -6493.173   -6752.1954            0    1166.9228    23.251436    21.402695    21.751201    10824.342    1642.7177    288.88735    1569.1634    -353.3299    588.71257    -437.8594   -6308.9603 
27153000    109.54204   -6747.0935   -6465.3033   -6747.0935            0    1631.6288    23.360466    21.417039     21.55666    10785.056    1465.8708     1083.395    2345.6205    169.58151   -537.09704     345.9263   -6208.6661 
27154000    103.55422   -6742.4646   -6476.0777   -6742.4646            0    2523.7744    23.198309    21.305574    21.784285    10766.955    2738.8993    2902.9776    1929.4462    896.51594   -827.28702   -598.60427    -6079.782 
27155000    103.88555   -6756.8852    -6489.646   -6756.8852            0    2071.4376    23.232467    21.390946    21.668661    10768.554    2352.0845    1735.8285    2126.3997   -698.86425    587.75825   -264.43932   -6164.3302 
27156000     102.4844   -6763.0317   -6499.3969   -6763.0317            0    2022.4028    23.274426    21.396484    21.597556    10755.386    2404.5951    1769.6786    1892.9348   -166.37603    63.600753   -202.17382   -6182.1703 
27157000    99.774939   -6744.8145   -6488.1495   -6744.8145            0    1155.3273    23.244489    21.382438    21.753693    10812.104    1234.4985    1398.6469     832.8365    361.62144    274.62354   -528.57116   -6305.9735 
27158000    106.91056   -6763.9012   -6488.8803   -6763.9012            0    2684.8656    23.331988    21.296881    21.592144    10729.105     1401.289    3569.4013    3083.9065   -353.95975    412.26938   -199.41726   -6068.7713 
27159000    105.48755   -6746.1617   -6474.8014   -6746.1617            0    2645.8123    23.292945    21.293481    21.689378    10757.668    1771.9556    3994.9949    2170.4863    100.67669     348.6351   -339.03943   -6059.7011 
27160000    103.76457   -6747.5741   -6480.6461   -6747.5741            0    2406.1252    23.202592    21.356994    21.686596    10746.524    2868.1841    2727.7762    1622.4154   -359.89049    1296.8388   -223.58507   -6103.5412 
27161000    102.57176   -6754.7659   -6490.9063   -6754.7659            0    469.78093    23.150491    21.566242    21.736198    10852.212    1023.8176   -239.76055    625.28576    504.84637   -10.160287      221.137   -6416.5548 
27162000    106.94958   -6752.6358   -6477.5145   -6752.6358            0    1981.9079    23.280023    21.392162    21.600642    10757.336    1946.3202    1637.4717    2361.9318   -30.854224    -398.1609    410.86596   -6166.5835 
27163000    103.00235   -6744.9996   -6480.0323   -6744.9996            0    1619.4905    23.254213    21.324618    21.781269    10801.053    1620.4874    1755.4441    1482.5399   -552.33795    995.52254   -221.83193   -6224.9265 
27164000    103.56431    -6753.301   -6486.8881    -6753.301            0    2926.6684    23.349454    21.340641    21.503001     10714.78    1679.8025    2690.5653    4409.6375    986.17891   -163.16703    120.59091   -6029.5549 
27165000    104.62484   -6745.4045   -6476.2634   -6745.4045            0    700.62841    23.171195    21.461991    21.817102    10849.645    920.86233    529.81714    651.20575   -153.35475    400.52644   -284.48763   -6365.4024 
27166000    108.59159   -6745.2452   -6465.8999   -6745.2452            0    1945.3134    23.235344    21.392129    21.660939    10766.645     1229.303    2211.0445    2395.5928    217.48442    -304.3994   -342.24896   -6160.4459 
27167000    107.01886   -6756.8562   -6481.5567   -6756.8562            0    1250.5062    23.349919    21.377391    21.654446    10809.041    31.533934    1809.2959    1910.6888   -196.79287    45.596508    651.94275   -6284.4284 
27168000    107.15969   -6742.0122   -6466.3504   -6742.0122            0    1878.4097    23.316334    21.227655    21.781413    10780.734    2973.6286    1734.5565    927.04402   -535.03637   -796.09982   -159.10824   -6171.0157 
27169000    107.82514   -6732.9376    -6455.564   -6732.9376            0    1662.4704    23.282503    21.434515    21.648035    10803.434    2072.0511    626.20079    2289.1594    571.02047    -368.7928    426.59267   -6193.6301 
27170000    104.01674   -6746.4917    -6478.915   -6746.4917            0    1696.3811    23.142247     21.50235    21.689628    10793.034    2908.7643    723.47161    1456.9075    52.118857    142.34749   -324.84221   -6211.8955 
27171000    103.99189   -6747.4596   -6479.9468   -6747.4596            0     1878.528    23.241966    21.473227    21.608567    10784.403      1267.52    1681.0669    2686.9971    397.34335    64.595446    293.29288    -6184.493 
27172000    106.18039   -6748.4598   -6475.3172   -6748.4598            0    2859.5906    23.235511    21.260017    21.767054     10752.65    3055.9841    4094.7234    1428.0643   -878.56535   -172.26979   -187.56639   -6026.8866 
27173000    99.795646   -6742.2345   -6485.5162   -6742.2345            0    2572.5806    23.298887    21.253727    21.719819    10755.398    3159.8997     3049.765    1508.0772    187.18136    415.91631     220.4718   -6081.9904 
27174000    101.65165   -6745.0974   -6483.6047   -6745.0974            0     1851.051    23.201666    21.435007    21.682266    10783.195    2108.6943    1295.7391    2148.7197    454.68804    491.33558    112.78268    -6192.505 
27175000    102.30911   -6739.3829    -6476.199   -6739.3829            0    1775.3498    23.123724    21.517404    21.710357     10802.26    2405.1951    1111.1819    1809.6726   -474.45783   -125.78749     104.4135   -6196.5106 
27176000    103.36556   -6753.3829   -6487.4813   -6753.3829            0    2011.7588    23.256901    21.374295    21.652838    10763.623    2221.7949    1909.1062    1904.3753    691.36993   -456.18585   -166.09719   -6171.6826 
27177000    108.67553   -6740.6426   -6461.0814   -6740.6426            0    1661.8514     23.30579    21.244715    21.847865    10817.421    1803.7407    1764.8382    1416.9754     206.5618    215.66038    81.311544   -6198.9061 
27178000     105.6755   -6739.0638     -6467.22   -6739.0638            0    3126.3528    23.329751    21.282102     21.58387    10716.524    3125.2155     3188.708    3065.1349    171.64868   -634.50613    27.923879   -5978.6038 
27179000    103.16919   -6744.0733   -6478.6768   -6744.0733            0    1742.5655    23.237989     21.41499    21.697093    10797.369    1587.7437    1544.1731    2095.7796   -130.92355    154.40137    282.31998   -6204.2776 
27180000     105.3075   -6744.2065   -6473.3094   -6744.2065            0    3054.2829    23.145519    21.389067    21.638534    10712.395    3365.8585    2793.7187    3003.2713    370.40102     685.6066    430.30571   -5996.1409 
27181000     103.9408   -6748.3877   -6481.0063   -6748.3877            0    1648.5675    23.306435    21.338632    21.689114    10786.592    2153.0128    1507.4302    1285.2595    743.48412    728.06084    97.440103   -6221.6679 
27182000    107.41485   -6746.1765   -6469.8584   -6746.1765            0    2651.2197    23.222442    21.303896    21.761053    10765.813     3134.518    3334.1138    1485.0274   -143.80525   -402.61076   -96.245055   -6053.5948 
27183000    102.07168   -6750.4398   -6487.8667   -6750.4398            0    1622.3272    23.448566    21.353714    21.600731    10815.788   -211.58866      2437.24    2641.3303   -400.69107   -432.52657    564.18106   -6231.9654 
27184000     103.2888   -6749.3011    -6483.597   -6749.3011            0    2464.7622    23.184677    21.399989    21.679686    10756.416    2827.6656    1848.7001     2717.921   -558.98433     693.5897    279.23981   -6096.9466 
27185000    106.01898   -6741.0529   -6468.3255   -6741.0529            0    2309.5671     23.15686    21.440818     21.68584    10767.064    2537.0486    1589.7927    2801.8599    1209.6131   -982.27115   -161.59266   -6105.6621 
27186000    105.44595   -6738.2384   -6466.9852   -6738.2384            0    1995.7186    23.252704    21.410628    21.625199    10766.213     1740.509    1626.5195    2620.1274    148.28112   -1041.4762    1061.2005    -6153.629 
27187000    103.25861   -6757.9984    -6492.372   -6757.9984            0    1888.5748     23.29239    21.269509    21.734245     10767.53    1368.7388    2186.7517    2110.2339   -26.867343   -421.37378   -383.51297   -6195.8027 
27188000    106.82973   -6740.7274   -6465.9144   -6740.7274            0    1795.2612    23.313517    21.311837    21.658525    10761.122    1682.8166    2265.8142    1437.1528    577.01098    6.5311618   -214.81275   -6184.1663 
27189000    102.29266   -6759.5685   -6496.4269   -6759.5685            0    1604.6322    23.230565     21.47105    21.611409    10779.438    2165.1007    1104.0122    1544.7838   -618.70763    284.94392   -224.84304   -6244.1673 
27190000    113.50871    -6746.442   -6454.4477    -6746.442            0    2444.7929    23.184392    21.427714    21.688383    10774.539    3264.4457    1796.5957    2273.3373    740.32844    -919.0924   -528.36818   -6070.2837 
27191000    107.46928   -6741.1752    -6464.717   -6741.1752            0    1761.6055    23.294898    21.369011    21.684732     10794.42    1724.0815    1905.4677    1655.2674     292.2027    233.45912   -204.82822   -6187.3953 
27192000    103.83015   -6739.5706   -6472.4739   -6739.5706            0    1459.0314    23.312043    21.321809    21.709126    10790.628    1851.3999    1395.4016    1130.2927   -99.807665    11.930149     506.5285   -6242.8657 
27193000    103.94321   -6751.5278   -6484.1402   -6751.5278            0    2116.1942    23.207754     21.34862    21.750974    10776.597    2559.4719    1766.0087     2023.102    -259.7269   -345.52266    333.42287   -6151.5473 
27194000    107.49216   -6751.1817   -6474.6646   -6751.1817            0    1910.3535    23.262533    21.431533    21.569239    10753.381    1108.7365    1733.4978    2888.8263    1599.7277     41.79422    485.10851   -6175.0695 
27195000    107.33707   -6745.9925   -6469.8744   -6745.9925            0    2339.5205    23.135108     21.38617    21.767294    10769.834    3131.5958    2309.4426    1577.5232    519.28239   -888.74996    157.70324    -6102.413 
27196000    102.44043   -6745.7898    -6482.268   -6745.7898            0    2603.0126    23.192625    21.370311    21.688103    10749.353    1845.7852    3942.4514     2020.801   -509.29013    332.32134    170.95938   -6074.1982 
27197000    102.75904    -6740.162   -6475.8206    -6740.162            0    1248.4354    23.340811    21.466415    21.573252    10809.139    576.55291    1586.2801    1582.4733    158.66844   -147.51997   -109.28522    -6279.017 
27198000    103.48443   -6735.2185   -6469.0111   -6735.2185            0     2098.043    23.233754    21.314808     21.77714    10784.541    2361.2399    2518.0729    1414.8163    204.11451   -868.55251   -628.26192   -6139.0278 
27199000    106.81728   -6746.2595   -6471.4786   -6746.2595            0    2065.7834    23.265453    21.371015    21.647062    10763.056    2054.5747    1046.6737    3096.1018   -616.48464     441.4848    511.31273   -6147.2164 
27200000    105.69351   -6757.4192   -6485.5291   -6757.4192            0    1793.9693    23.304226    21.358452    21.635093    10768.699    2274.0959    1258.0511    1849.7609    523.39538    341.51961    977.18991   -6203.7855 
27201000     107.2421   -6750.3975   -6474.5237   -6750.3975            0    2582.0259    23.120885    21.275929    21.845333    10746.119    3489.6388    2659.2328    1597.2061   -496.15541    126.95006   -644.46279   -6069.8657 
27202000    105.68391   -6749.7264    -6477.861   -6749.7264            0    2212.3488    23.322158    21.379108    21.593711    10766.774    1589.7674    2875.4998    2171.7793    242.46765    308.11312   -421.04889   -6130.4728 
27203000    100.88611    -6756.328   -6496.8046    -6756.328            0    2527.4239    23.231035    21.381818    21.653877    10755.952    2873.6791    2309.8222    2398.7703   -705.34853    350.97009   -242.36312   -6100.3414 
27204000    105.33046   -6753.7496   -6482.7934   -6753.7496            0    1981.8254    23.243864    21.333965    21.774766    10797.753    2033.1214    2490.9194    1421.4355   -892.55137   -126.36214   -30.080454   -6170.7072 
27205000    105.06362   -6755.8118    -6485.542   -6755.8118            0    2415.8783    23.269119    21.415229    21.568196    10747.723    3188.0373    1301.7049    2757.8926     77.70392   -578.91186   -149.59203   -6106.8663 
27206000    100.47507   -6752.1132   -6493.6472   -6752.1132            0    1592.4616    23.194578     21.41247    21.754015    10804.201    1694.0133    1832.3587    1251.0128     327.4897    269.08168   -107.32777   -6242.7259 
27207000    101.56899   -6752.3617   -6491.0817   -6752.3617            0    2540.4976    23.177997    21.368895    21.704812    10750.137    3065.8567    2324.1284    2231.5077   -635.52503   -976.67792   -247.03531   -6092.7832 
27208000     104.3518   -6744.6722   -6476.2335   -6744.6722            0    1583.4287    23.372934    21.340474    21.635036    10791.329     1334.593    1340.2682    2075.4248    555.53082   -1133.9496    543.51172   -6227.0328 
27209000    106.42832   -6743.8821   -6470.1017   -6743.8821            0    2116.4633    23.295159    21.252891    21.768424    10777.318    2566.8406    2355.5077    1427.0415    935.50642   -475.22052   -721.95605   -6137.4442 
27210000    105.40375   -6751.2223   -6480.0775   -6751.2223            0    2596.0873    23.199298    21.397749    21.663661    10754.118    3328.0828    1765.0436    2695.1353   -745.52086   -10.191008     429.8021    -6072.913 
27211000    106.61572   -6742.6441   -6468.3816   -6742.6441            0    2975.8845    23.165715     21.45337     21.58642    10728.076    3892.6899    2645.3196    2389.6442   -346.99354    348.06166   -259.35342   -6002.7807 
27212000    103.60482   -6752.3926   -6485.8755   -6752.3926            0    1654.5363    23.144262    21.410825    21.796139     10800.81    2353.0573      1837.33    773.22178    538.69401   -154.42834   -158.30868   -6225.2551 
27213000    104.79432   -6750.1443   -6480.5673   -6750.1443            0    1917.0487    23.419009     21.26223    21.606379    10758.688    447.11989    2476.4796    2827.5464    406.91298    101.30863    323.80335   -6179.7739 
27214000    106.07238    -6749.203   -6476.3382    -6749.203            0    2093.9067    23.400126    21.277579    21.642301    10775.659    1095.4156    2862.2988    2324.0057    504.27781   -291.79986    119.07502   -6147.2767 
27215000    101.05885   -6756.1919   -6496.2242   -6756.1919            0    2552.9736    23.164157    21.348784     21.74282    10752.403    2740.8219    2994.1793    1923.9197    679.73629   -314.76187   -845.78777   -6095.8854 
27216000    104.03401   -6745.9455   -6478.3244   -6745.9455            0    2292.9456    23.260696    21.460971     21.54336    10754.383    2778.4468    1774.0906    2326.2993    391.51971   -760.99607   -748.63781    -6118.695 
27217000    104.67433   -6748.7953   -6479.5269   -6748.7953            0    1614.6501    23.206814    21.453471    21.698008    10802.716    1855.2222    1223.9456    1764.7824   -176.51305   -358.83025     5.273079   -6225.1444 
27218000    103.46399    -6736.126   -6469.9712    -6736.126            0    2049.3973    23.218953    21.330266     21.75615    10775.091     2380.522    2747.6029    1020.0668   -35.825111   -451.51562    72.380684   -6147.9214 
27219000    102.24551   -6743.3462   -6480.3258   -6743.3462            0    2232.1904    23.321479    21.304095    21.626954    10745.201     2613.601    1727.8678    2355.1024     248.7226   -288.52747   -34.553184   -6130.5243 
27220000    100.69468   -6753.8959   -6494.8649   -6753.8959            0    2338.2124    23.230758    21.311291    21.722931    10754.533    2603.0017    2388.4077    2023.2278     53.50344   -82.338761    581.77288   -6128.1307 
27221000    105.29552   -6753.3411   -6482.4748   -6753.3411            0    1893.7378    23.210179    21.417234    21.706468    10790.238      2400.22    1443.0934       1837.9    103.31689   -1000.4041   -60.411296   -6184.4676 
27222000    106.01549   -6760.5892   -6487.8709   -6760.5892            0    1870.9196    23.255857    21.471669    21.569744    10770.681     1337.023     1917.044    2358.6917    318.70132    436.31923   -187.67106   -6193.9881 
27223000    104.63354   -6757.2653   -6488.1019   -6757.2653            0     1965.608    23.148601      21.3726    21.818373    10794.548     2563.864    2335.2804    997.67953   -203.86367    121.60566    54.295474   -6178.6613 
27224000    109.17898   -6746.5669   -6465.7106   -6746.5669            0    2021.9213    23.278324    21.380968     21.64689    10773.941    2371.9207    1903.4637    1790.3794   -232.67983   -175.35592    534.44707   -6148.0124 
27225000     104.7738   -6752.0724   -6482.5481   -6752.0724            0     2028.554    23.323234    21.320687     21.67533    10778.434    2201.6167    2550.5493    1333.4959   -632.05053    310.83406    128.41088   -6163.6749 
27226000    107.85188   -6756.6321   -6479.1897   -6756.6321            0    2419.5411    23.207208    21.333284     21.70388    10745.286      3456.85    1459.7817    2341.9915   -115.34955    952.05516    41.453816   -6100.0259 
27227000    108.80678   -6734.5734   -6454.6746   -6734.5734            0    2146.7201    23.278304    21.474018    21.575775    10785.271    2347.7825    1086.1723    3006.2056   -803.86738    565.89062   -139.87067   -6117.0124 
27228000    107.10066   -6732.6578   -6457.1479   -6732.6578            0     2593.908    23.098277    21.440228    21.743961    10768.313    3184.2287    3056.3047    1541.1906   -131.99962   -720.02417    99.616876   -6049.7882 
27229000    105.96788    -6745.594    -6472.998    -6745.594            0    1712.3177    23.323713    21.374366    21.643775    10790.062    1414.8512    1895.5419      1826.56    -120.4408      653.921    -2.160186   -6203.5443 
27230000    109.54255   -6744.5313   -6462.7397   -6744.5313            0    1833.7038    23.340511    21.361194    21.641493    10790.041     1334.027    1290.1706    2876.9136    40.979631    333.45964   -22.422351    -6174.185 
27231000    106.37688   -6738.2828   -6464.6347   -6738.2828            0    2000.4133    23.261813      21.3707    21.709986    10792.495     1576.013    2453.1082    1972.1187    459.74581   -605.04274   -389.47409   -6149.7747 
27232000    108.36526   -6748.5487   -6469.7856   -6748.5487            0     2074.512    23.183104    21.472689    21.683307    10794.028    1661.0229    2513.1124    2049.4009    216.33599    -40.52231    293.76652   -6143.2163 
27233000    102.54045   -6748.4952   -6484.7161   -6748.4952            0    2466.4214    23.177075    21.423138    21.654993     10752.26    2414.4045    2265.5549    2719.3047    430.69351    121.67882    274.27369   -6097.9549 
27234000    105.38254   -6748.0614   -6476.9712   -6748.0614            0    1995.9831    23.219065    21.370479    21.728429    10781.702    2361.3136    1801.9042    1824.7316    151.54041   -374.77166    428.10266   -6163.1227 
27235000    106.41439   -6755.7895   -6482.0449   -6755.7895            0    2442.2578    23.267548    21.225408    21.774572     10753.66    1783.9297    3427.5662    2115.2776    557.45727   -35.797156    280.13733    -6099.023 
27236000    105.99545   -6754.4766   -6481.8098   -6754.4766            0    2139.4176    23.362004    21.385914    21.541019    10762.277    1539.8701    1775.0069    3103.3757   -334.01462    532.83621    387.82791   -6146.0137 
27237000    101.05616   -6748.1679   -6488.2071   -6748.1679            0    1473.7754    23.171783    21.461955    21.733153    10808.153    1143.3945    1125.9074    2152.0244    453.94506    229.93766    139.38202    -6255.902 
27238000    105.12013   -6737.0556   -6466.6404   -6737.0556            0    2197.8007    23.188221    21.529577    21.594505    10780.681    1515.4478    2116.6614     2961.293    38.721737    1092.4082    390.36697   -6121.0908 
27239000    103.56949   -6746.5487   -6480.1225   -6746.5487            0     2160.868    23.360098    21.240058    21.698931    10766.355     1749.901    2248.7973    2483.9056    71.050278    52.276111    736.82265   -6140.8311 
27240000    105.22546   -6741.1253   -6470.4392   -6741.1253            0    2621.7835    23.262104    21.260475    21.751625    10757.557    2975.6214    2749.0119     2140.717    -181.1472    25.162244    -21.76356    -6059.113 
27241000    103.97878   -6751.9387   -6484.4596   -6751.9387            0      1331.32    23.240654    21.510858    21.599289    10798.055    1484.0317    314.71041    2195.2179   -235.06222  -0.32529985    667.87991   -6274.8052 
27242000     100.7286   -6743.0462    -6483.928   -6743.0462            0      2237.07    23.062414    21.561708    21.653713    10767.634    3322.9713    1070.0042    2318.2345   -187.76386   -23.399702   -51.707593     -6132.63 
27243000    99.855335   -6729.1765   -6472.3047   -6729.1765            0    1758.1694    23.190727    21.389437    21.790359    10808.816    761.62017    3035.4317    1477.4564    33.025476    404.87962   -189.53925   -6195.1548 
27244000    103.73712   -6746.2529   -6479.3954   -6746.2529            0    1317.7783    23.397615    21.328177    21.625153    10791.567    515.84177    1150.0064    2287.4868    468.95242    527.87938    463.18468   -6271.9983 
27245000    108.81039   -6737.9768   -6458.0687   -6737.9768            0     1820.923    23.294835    21.303322    21.767354     10802.21    1594.2132     2673.741    1194.8149   -411.58402   -453.38618   -600.58039    -6171.202 
27246000    102.04194   -6748.1762   -6485.6796   -6748.1762            0     3155.023    23.180054    21.422965    21.592694    10722.619    3531.5723    2512.3066    3421.1899    282.75032   -335.79542    222.35988   -5992.3021 
27247000     104.2502   -6742.8406   -6474.6634   -6742.8406            0    2187.4296    23.162119    21.444446    21.667574    10762.259    2747.2683    1625.0722    2189.9485   -859.65802    862.08156    276.54067    -6131.332 
27248000    105.28174   -6744.2949   -6473.4641   -6744.2949            0    725.03259    23.284478    21.393451    21.755859    10837.363    669.74821     1476.553    28.796533    853.69774   -276.60282   -208.74938   -6358.8713 
27249000    102.68013   -6746.6332   -6482.4948   -6746.6332            0    2414.2584    23.326641    21.330752    21.617932    10756.538     2014.537    2530.0151     2698.223    640.62294   -120.36101    451.73733   -6103.7627 
27250000    105.12347   -6723.7814   -6453.3576   -6723.7814            0    2756.1813    23.232631     21.27467    21.764823    10757.624    3385.5357    2924.0544    1958.9538   -332.55248   -808.98281    11.401834   -6020.9433 
Loop time of 545.59 on 64 procs for 250000 steps with 1296 atoms

Performance: 79.180 ns/day, 0.303 hours/ns, 458.219 timesteps/s
394.8% CPU use with 16 MPI tasks x 4 OpenMP threads

MPI task timing breakdown:
Section |  min time  |  avg time  |  max time  |%varavg| %total
---------------------------------------------------------------
Pair    | 38.32      | 48.442     | 55.263     |  74.2 |  8.88
Bond    | 1.4747     | 1.7109     | 2.0634     |   9.5 |  0.31
Kspace  | 286.76     | 296.64     | 308.14     |  36.1 | 54.37
Neigh   | 1.0091     | 1.0571     | 1.1233     |   3.3 |  0.19
Comm    | 53.928     | 59.124     | 63.982     |  31.5 | 10.84
Output  | 0.47548    | 0.47681    | 0.47838    |   0.1 |  0.09
Modify  | 125.83     | 131.01     | 133.78     |  16.0 | 24.01
Other   |            | 7.12       |            |       |  1.31

Nlocal:        81.0000 ave          97 max          66 min
Histogram: 2 0 1 3 4 2 0 1 1 2
Nghost:        3643.00 ave        3689 max        3609 min
Histogram: 3 1 2 2 3 1 1 1 0 2
Neighs:        25978.1 ave       30989 max       21081 min
Histogram: 2 0 1 3 4 2 0 1 1 2

Total # of neighbors = 415649
Ave neighs/atom = 320.71682
Ave special neighs/atom = 2.0000000
Neighbor list builds = 2684
Dangerous builds = 0

unfix		3
unfix		2
unfix		1

write_data	data.final.${pid}
write_data	data.final.0
System init for write_data ...
PPPM initialization ...
  extracting TIP4P info from pair style
  using 12-bit tables for long-range coulomb (../kspace.cpp:340)
  G vector (1/distance) = 0.36814533
  grid = 30 40 32
  stencil order = 5
  estimated absolute RMS force accuracy = 0.0043408536
  estimated relative force accuracy = 1.3072352e-05
  using double precision FFTW3
  3d grid and FFT values/proc = 11832 2400
Last active /omp style is kspace_style pppm/tip4p/omp
WARNING: Not all mixed pair coeffs generated from mixing. Use write_data with 'pair ij' option to store all pair coeffs. (../write_data.cpp:312)

write_restart   restart.lmp.${pid}
write_restart   restart.lmp.0
System init for write_restart ...
PPPM initialization ...
  extracting TIP4P info from pair style
  using 12-bit tables for long-range coulomb (../kspace.cpp:340)
  G vector (1/distance) = 0.36814533
  grid = 30 40 32
  stencil order = 5
  estimated absolute RMS force accuracy = 0.0043408536
  estimated relative force accuracy = 1.3072352e-05
  using double precision FFTW3
  3d grid and FFT values/proc = 11832 2400
Last active /omp style is kspace_style pppm/tip4p/omp
Total wall time: 0:09:05
