LAMMPS (30 Jul 2021)
  using 1 OpenMP thread(s) per MPI task
package omp 0
using multi-threaded neighbor list subroutines
echo both

include		in.partitions
variable        pid world 0
include		in.temp
variable        temperature equal 260.27
variable	tempDamp equal 100.0
include		in.pressure
variable        pressure equal 8375.0
variable        pressureDamp equal 1000.0 # This is 1 ps
include		in.seed
variable        seed world 745823

units		real
atom_style	full

read_restart	restart.lmp.${pid}
read_restart	restart.lmp.0
Reading restart file ...
  restart file = 30 Jul 2021, LAMMPS = 30 Jul 2021
  restoring atom style full from restart
  orthogonal box = (0.099103271 -0.0021354601 0.040740058) to (19.900898 20.002136 20.659258)
  4 by 4 by 4 MPI processor grid
  restoring pair style lj/cut/tip4p/long/omp from restart
  restoring bond style harmonic/omp from restart
  restoring angle style harmonic/omp from restart
  972 atoms
  648 bonds
  324 angles
Finding 1-2 1-3 1-4 neighbors ...
  special bond factors lj:    0        0        0       
  special bond factors coul:  0        0        0       
     2 = max # of 1-2 neighbors
     1 = max # of 1-3 neighbors
     1 = max # of 1-4 neighbors
     2 = max # of special neighbors
  special bonds CPU = 1.692 seconds
  read_restart CPU = 2.023 seconds
include 	in.setup
variable	out_freq equal 1000
variable	out_freq2 equal 10000
variable	out_freq3 equal 1000

timestep	2.0

neigh_modify    delay 7 every 1

include		in.tip4p
# This is TIP4P/Ice

# create groups ###
group ox type 2
324 atoms in group ox
group hy type 1
648 atoms in group hy

# set charges - beside manually ###
set group ox charge -1.1794
Setting atom values ...
  324 settings made for charge
set group hy charge 0.5897
Setting atom values ...
  648 settings made for charge

# ### TIP3P Potential Parameters ###
pair_style lj/cut/tip4p/long/omp 2 1 1 1 0.1577 8.5
pair_coeff 1 1*2 0.000 0.000
pair_coeff 2 2 0.21084 3.1668
bond_style  harmonic
bond_coeff  1 450 0.9572
angle_style harmonic
angle_coeff 1 55 104.52
kspace_style pppm/tip4p/omp 1.0e-5
pair_modify tail yes

thermo          ${out_freq}
thermo          1000
thermo_style    custom step temp pe etotal epair emol press lx ly lz vol pxx pyy pzz pxy pxz pyz enthalpy

restart 	${out_freq3} restart.lmp.${pid} restart2.lmp.${pid}
restart 	1000 restart.lmp.${pid} restart2.lmp.${pid}
restart 	1000 restart.lmp.0 restart2.lmp.${pid}
restart 	1000 restart.lmp.0 restart2.lmp.0


include         in.dump
dump            myDump all atom ${out_freq2} dump.water.${pid}
dump            myDump all atom 10000 dump.water.${pid}
dump            myDump all atom 10000 dump.water.0
dump            myDump2 all dcd ${out_freq2} dump.dcd
dump            myDump2 all dcd 10000 dump.dcd
dump_modify     myDump append yes
dump_modify     myDump2 append yes


variable natoms 	equal  "count(all)"                        # NUMBER ATOMS
variable H      	equal  "enthalpy/v_natoms"                 # ENTHALPY-per-atom
variable Vol      	equal  "vol/v_natoms"                 # volume-per-atom
fix AVG all 		ave/time ${out_freq} 1 ${out_freq} v_Vol v_H file vol_enthalpy.dat
fix AVG all 		ave/time 1000 1 ${out_freq} v_Vol v_H file vol_enthalpy.dat
fix AVG all 		ave/time 1000 1 1000 v_Vol v_H file vol_enthalpy.dat


timer           timeout 02:55:00 every 1000
New timer settings: style=normal  mode=nosync  timeout=02:55:00

fix 		1 all shake 1e-6 200 0 b 1 a 1
       0 = # of size 2 clusters
       0 = # of size 3 clusters
       0 = # of size 4 clusters
     324 = # of frozen angles
  find clusters CPU = 0.553 seconds
fix             2 all nph aniso ${pressure} ${pressure} ${pressureDamp}
fix             2 all nph aniso 8375 ${pressure} ${pressureDamp}
fix             2 all nph aniso 8375 8375 ${pressureDamp}
fix             2 all nph aniso 8375 8375 1000
fix             3 all temp/csvr ${temperature} ${temperature} ${tempDamp} ${seed}
fix             3 all temp/csvr 260.27 ${temperature} ${tempDamp} ${seed}
fix             3 all temp/csvr 260.27 260.27 ${tempDamp} ${seed}
fix             3 all temp/csvr 260.27 260.27 100 ${seed}
fix             3 all temp/csvr 260.27 260.27 100 745823


run             250000
PPPM initialization ...
  extracting TIP4P info from pair style
  using 12-bit tables for long-range coulomb (../kspace.cpp:340)
  G vector (1/distance) = 0.37170757
  grid = 24 24 24
  stencil order = 5
  estimated absolute RMS force accuracy = 0.0035707911
  estimated relative force accuracy = 1.0753331e-05
  using double precision FFTW3
  3d grid and FFT values/proc = 2197 216
Last active /omp style is kspace_style pppm/tip4p/omp
Neighbor list info ...
  update every 1 steps, delay 7 steps, check yes
  max neighbors/atom: 2000, page size: 100000
  master list distance cutoff = 10.8154
  ghost atom cutoff = 10.8154
  binsize = 5.4077, bins = 4 4 4
  1 neighbor lists, perpetual/occasional/extra = 1 0 0
  (1) pair lj/cut/tip4p/long/omp, perpetual
      attributes: half, newton on, omp
      pair build: half/bin/newton/omp
      stencil: half/bin/3d
      bin: standard
Per MPI rank memory allocation (min/avg/max) = 9.223 | 9.225 | 9.228 Mbytes
Step Temp PotEng TotEng E_pair E_mol Press Lx Ly Lz Volume Pxx Pyy Pzz Pxy Pxz Pyz Enthalpy 
17500000    264.21169   -4676.9146   -4167.3601   -4676.9146            0     7237.162    19.801794    20.004272    20.618518    8167.4172    7464.7839    7810.6973    6436.0048    309.57485    330.02075   -451.85762   -3305.3171 
17501000     248.6322   -4682.5811    -4203.073   -4682.5811            0    7123.4044    20.065972    19.684455    20.567028    8123.7239    6598.7899    7717.1825    7054.2408    1335.5644    850.30576    909.68106   -3359.1192 
17502000    264.68331    -4714.405    -4203.941    -4714.405            0    7724.0071    19.997452    19.960681    20.439604    8158.7289    7923.7145    7888.9258    7359.3812    923.30595    773.58121   -234.56925   -3284.8869 
17503000    260.22299     -4712.78   -4210.9181     -4712.78            0    9460.3869    19.801959    19.882047    20.527381    8081.7016    9679.3655    10263.281    8438.5145    -212.3529    644.77607    802.09817   -3095.8854 
17504000    251.26816   -4723.4899   -4238.8981   -4723.4899            0    6360.4074    19.920874    19.763424    20.671905    8138.6259    5474.3934    8082.7599    5524.0688    477.16488   -448.11768   -1500.9503   -3483.9591 
17505000    251.24734   -4676.3475   -4191.7959   -4676.3475            0    8571.3531    20.044646    19.896665    20.261837    8080.8584      9826.56    6870.6618    9016.8375   -253.81841     1337.011    635.43629   -3181.6531 
17506000    263.66904   -4686.8475   -4178.3396   -4686.8475            0    9412.6216    19.813212     20.00909    20.375812    8077.8757    9820.0801    8362.4389    10055.346    597.24917    140.68637   -401.17466   -3069.4619 
17507000    271.00629   -4715.2721   -4192.6136   -4715.2721            0    6674.5466    19.760606    19.840225    20.674912    8105.7001    6413.7244    6573.7245     7036.191   -474.72483    363.94063   -600.87372   -3403.5933 
17508000    258.17627   -4696.9893   -4199.0747   -4696.9893            0     6912.954    19.812757     19.89819    20.706918    8163.4537    6530.8461    7180.2985    7027.7174    508.25627   -579.25322    327.98877   -3376.0488 
17509000    268.11004    -4675.424   -4158.3512    -4675.424            0    9913.0178     19.86272    19.840622    20.454293    8060.8061    10766.924     9102.354    9869.7756   -325.31247    1485.5462     396.1641   -2992.9908 
17510000    267.01508   -4706.4691    -4191.508   -4706.4691            0    9158.9647    20.073788    19.798326    20.432353     8120.377     6675.402    10536.788    10264.704   -130.23052    -489.1664   -1030.6159   -3106.8359 
17511000    266.57111   -4725.1011   -4210.9963   -4725.1011            0    7552.3036    19.653614    20.068827    20.668297    8152.0927    7345.4956    7112.0851    8199.3301   -240.23111   -103.94628    482.62157   -3313.1036 
17512000    272.87878   -4686.6919   -4160.4222   -4686.6919            0    7357.9372    20.069918    19.705508    20.626172    8157.4021    6486.3521    8949.5391    6637.9203   -292.55769   -607.35773   -1952.2773    -3285.068 
17513000    268.52202   -4676.3633    -4158.496   -4676.3633            0    8351.5513    19.848572    19.934043    20.457964    8094.4446    8066.8921    9170.1729    7817.5889    237.83298   -232.83193    -213.9013   -3172.6023 
17514000    261.79282   -4721.8571   -4216.9676   -4721.8571            0    9039.4448     20.11387      19.7722    20.414552    8118.7747    6976.5559    8635.5361    11506.242    145.43262    1223.9606   -782.41332   -3146.6612 
17515000    264.10813   -4704.4597    -4195.105   -4704.4597            0     7740.161    19.745014     20.02548    20.505424    8107.9138    8483.1472    7018.1804    7719.1554    490.98012   -199.36254    691.09408    -3279.865 
17516000    250.72142   -4677.7363    -4194.199   -4677.7363            0    9745.1268    20.087429    19.724757    20.404301    8084.5851     9007.216     10598.14    9630.0246   -326.56455   -2086.2248   -704.08694   -3045.1961 
17517000    266.76041   -4717.9255   -4203.4556   -4717.9255            0    9244.8311     19.91835    20.094071    20.255323    8107.0056    10013.361    8742.8508    8978.2813    46.856535    489.12288    692.03777   -3110.4174 
17518000    250.96477   -4716.0724   -4232.0657   -4716.0724            0    7865.4388    19.930756    19.824318    20.637996    8154.3537    7491.0034    9593.5393    6511.7736   -1298.3274    1155.1525    77.868644   -3296.6851 
17519000    241.32505   -4660.4835   -4195.0678   -4660.4835            0    9244.5652    19.826985    19.891578    20.396898    8044.3328    7284.7824    10522.248     9926.665     585.8034   -354.85953    389.47302   -3110.5107 
17520000    267.69917     -4727.45   -4211.1696     -4727.45            0    7848.4953    19.895153    19.684347    20.630438    8079.3559    7778.8289    8062.3305    7704.3265   -270.47084   -527.70114    -724.3122   -3286.3883 
17521000    245.70722   -4697.1063   -4223.2392   -4697.1063            0    7440.5205    19.633078     20.06135    20.549905    8093.9098    9419.2381    4039.2161    8863.1071     445.8729    119.32219   -1558.1959     -3344.95 
17522000    266.20722   -4713.3775   -4199.9745   -4713.3775            0    6489.8741    19.846061    20.071535    20.394943    8124.1403    6446.5518    6979.4302    6043.6404    247.79347    721.26215   -106.29453   -3431.0396 
17523000    248.04811   -4704.0685   -4225.6868   -4704.0685            0    7889.8245    20.030772    19.756683    20.475257    8102.9113    7796.6056    8058.8088     7814.059    384.52411   -829.45529    710.70797   -3293.3254 
17524000    276.02709   -4671.6397   -4139.2982   -4671.6397            0    8208.4894    19.846512    19.937929    20.511621    8116.4147     9717.749    6305.8029    8601.9162    195.53937    440.00879     508.6086   -3167.6628 
17525000    267.20248   -4689.2871   -4173.9647   -4689.2871            0    8161.4062    19.823645    19.848134    20.591853    8102.1193    7212.3079     8640.686    8631.2246    23.024982     408.6204    528.84662   -3209.6039 
17526000    266.94739   -4680.9097   -4166.0792   -4680.9097            0    7254.3668    19.664353    20.063464    20.621381    8135.8571     7894.698    7433.5526    6434.8497    96.442227   -683.29707   -849.92252   -3305.3259 
17527000    280.71568   -4704.6158    -4163.232   -4704.6158            0    8677.3299    20.154804    19.653685    20.409995    8084.7291    8811.6486    8865.1793    8355.1617    347.67616    812.99746   -1190.8837   -3140.1099 
17528000    265.23659   -4723.9846   -4212.4535   -4723.9846            0    9517.0496     19.83165    19.993146    20.389015    8084.1847    8002.0254    12120.619     8428.504   -333.25483   -457.86393   -1733.5967   -3090.3977 
17529000    273.46107   -4712.9585   -4185.5658   -4712.9585            0    10466.646    19.934596    19.671206    20.479075    8030.6141    10122.639    10867.963    10409.335    663.28349    1987.9201    427.78797   -2959.7303 
17530000    255.91404   -4662.4104   -4168.8586   -4662.4104            0    9635.9268    19.680855     20.22589    20.209013    8044.4564    10260.272    8287.8956    10359.613   -344.28434    1050.4735   -264.30938   -3038.3703 
17531000    262.27984   -4670.1434   -4164.3146   -4670.1434            0    8904.5101    20.052616    19.768559    20.447853    8105.7601    9836.6661    8857.9605    8018.9036   -277.49932   -837.41231   -710.58152   -3111.6751 
17532000    258.52064   -4678.1672   -4179.5884   -4678.1672            0    7419.9065    19.752406    19.942579    20.660251    8138.3607    7520.2015    7922.9211     6816.597    461.36433   -1091.9807    666.36739   -3298.9224 
17533000    263.24311   -4692.5351   -4184.8487   -4692.5351            0    7521.7029    19.866543     20.13125    20.161263    8063.2621    8316.1892    5462.3844    8786.5352    773.05349   -450.67829   -339.67119   -3300.3385 
17534000    254.53708   -4709.7211   -4218.8249   -4709.7211            0    9926.0106    19.828885    19.847562    20.479613    8059.8548    11162.017     8920.073    9695.9421   -757.24085    824.95419    17.297583   -3052.0748 
17535000    249.60099   -4733.6163   -4252.2398   -4733.6163            0    8587.0887    19.940483    19.848611    20.493147    8111.0008    9575.0379    7899.5564    8286.6719   -855.64864    158.12307   -635.56491   -3236.4677 
17536000    244.35916   -4697.0442    -4225.777   -4697.0442            0    8146.6175     19.80858    20.023221    20.390068    8087.3449    7327.8394    8532.8348    8579.1784   -243.73508    -84.46866    1514.2747   -3264.9191 
17537000    260.87042   -4702.0949   -4198.9843   -4702.0949            0    10329.019    19.845313    19.724184    20.564207    8049.5011    11189.655    9777.3404    10020.061    1489.1267   -246.66299    933.28932   -2986.4224 
17538000    262.16299   -4684.6818   -4179.0785   -4684.6818            0    10306.678    19.886549    19.758359    20.569937    8082.4542    9467.7394    11672.043    9780.2527   -103.60412   -1203.4353    649.59109   -2964.1859 
17539000    248.65807   -4710.3098   -4230.7518   -4710.3098            0    7888.8364    20.124713    19.879123    20.377069    8152.0837    9793.7898    4532.1539    9340.5655    276.96863   -129.93436   -1446.9693   -3292.8497 
17540000    250.70315   -4687.9541    -4204.452   -4687.9541            0    8131.2748    19.853128     19.92528    20.518608    8116.7332    8900.3221    6720.9426    8772.5599   -525.87727   -637.14141    797.09998   -3241.9187 
17541000    262.63536    -4694.108   -4187.5936    -4694.108            0    8343.6241    19.884335    19.851529     20.52532    8102.0511    7260.5336    9094.7209    8675.6179    404.85129   -1025.7983   -29.951159   -3201.7101 
17542000    265.93917   -4725.9803   -4213.0942   -4725.9803            0    9338.1729     19.76807    19.772091     20.73861    8105.8116    10257.855    9394.0305    8362.6332    435.36959    129.37687   -860.83313   -3109.1826 
17543000    272.60787   -4696.1773   -4170.4301   -4696.1773            0    8414.3519    19.809065    19.968514    20.439263     8084.906    8104.5985    8040.8691    9097.5881    181.39641    323.51357    1035.9503   -3178.2933 
17544000    255.22113   -4716.0693   -4223.8538   -4716.0693            0    8447.8586    20.009793    19.894242     20.29271    8078.1151    7719.2637     7953.946    9670.3662    -550.5163   -349.33241   -534.16413    -3228.603 
17545000    259.64043   -4743.6753   -4242.9369   -4743.6753            0     6309.954    19.733882    19.906265    20.773112     8160.258    5854.7414    7265.8982    5809.2223   -575.78109    923.56326    -613.6307   -3491.9956 
17546000    256.89565   -4712.6061   -4217.1612   -4712.6061            0    7301.7242    19.888127     19.77259    20.583748    8094.3489    7176.9164    7673.6088    7054.6475   -17.089942    783.36177   -114.95393   -3355.2089 
17547000    262.30983   -4707.3777   -4201.4911   -4707.3777            0    9371.7619    19.990025    19.839693    20.478342    8121.6279     9909.646    8899.8549    9305.7849    626.34756   -84.773793    616.45724    -3091.447 
17548000     243.8754   -4696.1618   -4225.8276   -4696.1618            0    8442.0708    20.012672    19.785008    20.437849     8092.384    7201.9055    9563.6005    8560.7063    400.65765   -252.93584    1215.8453   -3229.5019 
17549000    265.43254   -4696.8536   -4184.9446   -4696.8536            0    9231.7782    19.734291    19.986057    20.558307    8108.4158     10727.55    8839.7957    8127.9889   -132.48031   -207.97427    84.292353   -3093.2598 
17550000    258.78207   -4720.8384   -4221.7554   -4720.8384            0    8924.7254    19.905191    19.856905    20.420964    8071.4979    8537.9879    8726.6598    9509.5285     527.8928    1029.1869     76.21844   -3171.1857 
17551000    273.28998   -4653.5598   -4126.4971   -4653.5598            0    8907.5008    19.972382    19.917339    20.352316    8096.0844     7301.786    9641.8789    9778.8376   -688.82663     345.8695    -83.28915    -3074.761 
17552000    248.27127   -4705.0868   -4226.2747   -4705.0868            0    7545.6326    19.824995    19.950198    20.625666    8157.7106    7293.0229    7276.8846    8066.9903   -96.695996   -1336.8351   -1180.9791   -3328.5569 
17553000    254.38441   -4726.6469   -4236.0452   -4726.6469            0     8161.921    19.976962    19.772306    20.497215    8096.2075    8123.9335    8449.2105     7912.619    78.042919    339.59688    70.910754   -3272.3273 
17554000    270.85469   -4692.3237   -4169.9576   -4692.3237            0    7189.1755    20.050673    19.948526    20.298528    8119.0333     6823.275    6897.7714    7846.4801    811.76576   -285.92793   -27.493629   -3318.7034 
17555000    259.80673   -4698.6731    -4197.614   -4698.6731            0    7699.5973    19.945453    19.906106    20.558333    8162.4043    6321.8963    9407.4136    7369.4819    819.63441   -936.34059   -706.72143   -3281.0517 
17556000    263.61094   -4661.6921   -4153.2963   -4661.6921            0    8146.4963    19.693392    19.835602    20.771234    8113.8732     6744.112    9617.5197    8077.8571    874.86129    1019.9774    645.25675   -3189.3008 
17557000    249.26748    -4711.141   -4230.4077    -4711.141            0    5699.3937    19.802593    19.824412    20.713525    8131.6072    6503.3951    4688.2553    5906.5306   -1.0738139   -1264.5438    1177.6042     -3554.51 
17558000    258.99871   -4708.0319   -4208.5311   -4708.0319            0    7197.3218    20.067918     19.67395     20.62227     8141.986    6871.1933    8198.6918    6522.0803      135.488   -54.280616   -1120.0188    -3353.903 
17559000    256.81355   -4696.9593   -4201.6727   -4696.9593            0    8605.4632    20.099653    19.722533    20.495633    8124.7985    7151.7442    9573.9708    9090.6747    1045.7372   -113.17041    506.48533   -3181.9955 
17560000    257.34329   -4711.0428   -4214.7346   -4711.0428            0     6902.013    19.729765    20.057306    20.727791    8202.5244      6033.72    7725.3525    6946.9667    180.38673    1637.3985   -958.10597   -3389.0785 
17561000    256.09078   -4677.7203   -4183.8277   -4677.7203            0      8578.79    19.900119    19.652887    20.666676    8082.6293    7575.0883     10580.17    7581.1119   -197.18253   -620.98681   -1620.1933   -3172.5869 
17562000    267.60144   -4676.1078   -4160.0159   -4676.1078            0    9591.7372    19.932917     19.79277    20.659782    8150.8554    8057.1655    11761.668    8956.3785   -720.49595     1240.178    38.856828   -3019.8282 
17563000    268.33571    -4678.934    -4161.426    -4678.934            0    8453.3435    19.987927    19.805014    20.381401    8068.2052    8522.2199    9068.2646    7769.5459    58.299026   -729.07354   -1073.7543   -3166.7507 
17564000     265.2479   -4708.8413   -4197.2884   -4708.8413            0     10717.97    19.688422    19.930778    20.592886    8080.7633    11141.427    11338.287     9674.197   -202.78789   -960.77223    1813.3464   -2934.1794 
17565000    268.73959   -4730.8425   -4212.5556   -4730.8425            0    7089.9883    19.814057    19.896181    20.647971     8139.927    8933.7083    5759.8426     6576.414    91.603278     1386.329   -804.03782   -3370.8854 
17566000    273.00621   -4674.1093   -4147.5938   -4674.1093            0    8420.5131     19.86541    19.903883    20.491369    8102.2627    6654.7009     9266.066    9340.7724   -133.59349   -1595.0252   -907.57895   -3152.5991 
17567000    254.39031   -4708.6442   -4218.0311   -4708.6442            0    7442.0001    19.987401     19.65164    20.644292    8108.7723    7239.6726    8082.2686     7004.059   -746.75756    663.75117   -268.14455   -3337.9542 
17568000    253.98626   -4698.5239     -4208.69   -4698.5239            0    6802.2128    19.877907    20.061705    20.499913    8175.0519     8241.132    5434.0123     6731.494   -537.36206    1299.0479   -862.11572   -3397.6979 
17569000    249.86042   -4711.7191   -4229.8423   -4711.7191            0    9216.5818    19.999312     19.80547    20.428426    8091.6134    10100.629    7502.9636    10046.152    271.71933   -1119.4344     1551.797    -3142.213 
17570000    250.44212   -4676.4137    -4193.415   -4676.4137            0    7682.7312    19.933917    19.880908    20.580218    8156.0302    8554.6425    6203.7726    8289.7786   -200.75182    406.72392    537.73674   -3279.5746 
17571000    250.86902   -4669.7198   -4185.8978   -4669.7198            0    7297.4777    19.794912    19.887486    20.650276    8129.4155    6038.3889    8680.0601    7173.9841   -175.84939    520.73319    27.440303   -3320.7148 
17572000    270.76518   -4663.2817   -4141.0883   -4663.2817            0    10251.978    19.902268    19.805585    20.473169    8070.0328    11498.769    10535.081    8722.0838    857.31392    175.69828   -484.92503   -2934.5007 
17573000     238.8282   -4699.7416   -4239.1413   -4699.7416            0    7822.3569    19.946777    20.071287    20.316746    8133.9615    6156.4503    8615.6684    8694.9522    418.37147   -389.08354    826.95359   -3311.2104 
17574000    261.05742   -4732.2535   -4228.7823   -4732.2535            0    6881.5367    20.018008    19.877094    20.480088    8149.0233    5368.9673    7076.9666    8198.6762    -683.3696    813.30967    525.43306    -3410.945 
17575000    256.22985   -4705.2646   -4211.1038   -4705.2646            0     7960.245    19.852023    19.829917    20.629469    8121.0787    8740.1062     8114.533    7026.0959   -680.17932   -97.247898    453.39966   -3268.3114 
17576000    262.71962   -4711.4598   -4204.7829   -4711.4598            0    7855.3396    19.788261    19.732519    20.783472    8115.3692    7888.5245     8414.594    7262.9002    390.25627    1743.7293   -150.29977   -3275.0694 
17577000    249.60926   -4719.5641   -4238.1717   -4719.5641            0    7779.9864    19.755147    20.036823     20.42543    8085.0058    8863.7338    7537.8332    6938.3923   -498.01945   -545.82053   -623.00665   -3320.8217 
17578000     274.2071   -4690.2338   -4161.4023   -4690.2338            0    7915.9526      20.1011    19.773909    20.459926    8132.3564    8162.9476    6925.5162    8659.3938   -215.66061   -246.47348   -11.054461   -3222.5539 
17579000    257.16325   -4721.4047   -4225.4437   -4721.4047            0    8583.2228    19.849455    19.897949    20.478416    8088.2259    8978.6157    7344.4898    9426.5629   -161.51685    649.54074    -2316.764   -3212.9798 
17580000    266.74254   -4684.6284   -4170.1929   -4684.6284            0    9341.9132     20.04641    19.672789    20.573762    8113.6497    8782.1901    10385.856    8857.6933    769.66357    -835.8109   -315.69422   -3064.7713 
17581000    271.63302   -4721.1494   -4197.2822   -4721.1494            0    8404.1674     19.78168    20.048883    20.571825    8158.7975    7796.3888    9441.2198    7974.8937   -245.81068    276.15578    1280.3749   -3197.2897 
17582000    256.03623   -4723.3469   -4229.5595   -4723.3469            0     8707.707    20.117373    19.936586    20.225682    8111.9497    8244.1925    8160.9124    9718.0161   -792.74182    986.00084    -1039.835   -3199.3989 
17583000    268.90327   -4694.8167   -4176.2141   -4694.8167            0    8839.6085    19.991287    19.770961    20.429497    8074.6966    9966.9979    7393.1493    9158.6784    29.745466    652.47283    361.68211   -3135.2515 
17584000    265.16061   -4677.3777   -4165.9932   -4677.3777            0    8396.0543    19.733329    19.896664    20.758022    8150.1683    7761.2176    8998.9333     8428.012   -472.70067    971.58251   -487.93196   -3168.0227 
17585000    251.81937   -4701.6499   -4215.9951   -4701.6499            0    10121.904     20.14646    19.775325    20.233544    8061.1004    10609.386     9349.657    10406.668    168.64137    -48.91458   -38.711738   -3026.0349 
17586000    246.08594   -4689.3556   -4214.7582   -4689.3556            0    8523.8018    20.101825    19.678245    20.448741    8088.8805    8522.5708    8271.7467    8777.0878    -526.9421   -483.74787    160.46712   -3209.2221 
17587000    256.19492   -4712.8157   -4218.7222   -4712.8157            0    6876.6072    19.979691    19.849007    20.554968     8151.628    5060.4871    8486.5767    7082.7577     181.3594    485.67598   -381.35871   -3401.2096 
17588000    263.52308   -4711.9418   -4203.7153   -4711.9418            0    7635.2585    19.865894     20.06068     20.53609    8184.1113    9758.5589    6534.5465      6612.67   -676.03097    535.39465   -125.81672   -3292.3948 
17589000    246.61226   -4725.5027   -4249.8902   -4725.5027            0    8001.4711    19.976673    19.753518    20.533911    8102.8778    8003.7067    7557.3456    8443.3611    57.710936    8.4809863   -590.38867   -3304.3391 
17590000    259.30531   -4709.7133   -4209.6212   -4709.7133            0      9272.27    19.638464    20.182306    20.397754    8084.6393    9545.0122    8872.2587    9399.5392   -41.648349    643.21331    723.99761   -3116.3633 
17591000    255.96092   -4710.4169   -4216.7747   -4710.4169            0    7662.5722    20.048244    19.946961    20.381853    8150.7344     7506.115    6823.1796    8658.4221    535.75168   -356.08862   -1607.3435    -3305.924 
17592000    259.55496    -4720.945   -4220.3714    -4720.945            0    7389.6188    19.758122    20.077446    20.527521    8143.1162    8619.3724    7202.1946    6347.2893   -278.75092   -496.05956   -472.90913   -3342.7877 
17593000    274.74281   -4705.9616    -4176.097   -4705.9616            0    7184.6113    19.930162    19.779502    20.555715    8103.2412    7514.5836    6530.7721    7508.4781    214.60143    1169.1282    359.89627   -3327.0379 
17594000    253.94197   -4690.0896   -4200.3412   -4690.0896            0    8185.2859    20.092903    19.761678    20.409425    8103.9598    8568.6087    9693.0127    6294.2362    329.79443    1786.0782   -792.62831   -3232.9391 
17595000    248.38159   -4724.5448     -4245.52   -4724.5448            0    6724.2697    19.846693    20.089371    20.390045    8129.6656     6130.973    5997.6372    8044.1988   -16.471008    1446.3404   -731.84283   -3448.2716 
17596000    261.88995   -4694.8072   -4189.7304   -4694.8072            0    7241.2912    19.839593    19.921559    20.646925       8160.4    8639.1123    6285.0414    6799.7197     724.2875    698.26238   -1282.8437   -3327.9367 
17597000      265.537   -4705.1926   -4193.0821   -4705.1926            0    9412.9394    19.903188    19.840904    20.421606    8064.4357    8571.7491    9799.1335    9867.9357    50.499297   -409.29112   -1089.7654    -3086.012 
17598000    261.61623   -4707.6511   -4203.1022   -4707.6511            0    7930.5375    20.023561    19.938902    20.252969    8085.9541    8464.4104    6305.4326    9021.7695   -192.36612   -541.50958    462.71778   -3267.8909 
17599000    263.08376   -4726.6061   -4219.2269   -4726.6061            0    8035.8968    19.987054    19.859719    20.486468    8131.8431    7067.9953    8570.4261    8469.2692   -4.0261168    527.45905   -554.77687    -3266.213 
17600000    264.82258   -4707.1585   -4196.4259   -4707.1585            0    9360.0109    19.743852    19.847018    20.511518    8037.5735    9820.3241    8039.8434    10219.865    234.25388    1581.8601    1841.4415   -3099.2476 
17601000    243.53378   -4710.4281   -4240.7527   -4710.4281            0    8653.8094    20.095021    19.786417    20.476258    8141.5331    8389.3836    10054.093     7517.952   -337.46601   -512.65605    558.09216   -3213.2348 
17602000    257.44821   -4699.5194   -4203.0089   -4699.5194            0     7246.258    19.929802    20.028841    20.477021    8173.8296    6737.8983    7960.1921    7040.6837   -178.10508   -731.94687    484.20266   -3339.2048 
17603000    258.31994   -4676.2578   -4178.0661   -4676.2578            0    7515.3026    20.117186    19.772871    20.379587    8106.4804    9273.3945    5369.7052    7902.8083     869.4449    1031.4008   -793.20745   -3289.5716 
17604000    258.88372   -4691.8941    -4192.615   -4691.8941            0    8169.1904     19.99501     19.55808    20.785242    8128.3602    8056.7918     10157.44    6293.3391       447.34    429.11974    -1343.138   -3224.2082 
17605000    275.73973   -4691.3866   -4159.5993   -4691.3866            0    7353.2513     19.82531    20.021805    20.527904     8148.315    8196.3576    6691.6691    7171.7272   -834.50515    791.54329    30.883048   -3285.7771 
17606000       253.52   -4721.4524   -4232.5178   -4721.4524            0    8606.7258    20.218478    19.878509    20.282005    8151.6054    7951.1152    7856.1714    10012.891   -716.46629    1008.5383    147.79606   -3209.3261 
17607000    257.88949   -4696.8912   -4199.5296   -4696.8912            0    7749.2572    19.899875    19.959201    20.473269    8131.6872    7657.2157    8273.7585    7316.7974   -105.58986    327.01508    1929.8727   -3280.5273 
17608000    266.43975    -4686.208   -4172.3565    -4686.208            0    10053.998    19.869802    19.786385    20.631243    8111.2049    10819.138    9678.1627    9664.6933    704.80831    504.33989   -650.53765   -2983.0328 
17609000    262.32645   -4686.1653   -4180.2467   -4686.1653            0    9508.9059    19.926878    19.566782    20.580422    8024.4068    9763.4585     9648.406    9114.8532   -231.23453    2335.3255   -931.66783   -3067.4409 
17610000    262.08923   -4679.2023   -4173.7412   -4679.2023            0    7932.0634    19.809464    19.844517     20.61773    8105.0203    8583.7076    8538.7184     6673.764    412.22954    1386.4289    142.08495   -3236.1443 
17611000    272.61318   -4691.6499   -4165.8924   -4691.6499            0    8768.2952    19.713736    19.818904    20.696108    8086.0653    7385.4455    10620.511    8298.9289    274.87734    108.10128   -463.00771    -3131.874 
17612000    251.36589   -4673.5513    -4188.771   -4673.5513            0    7904.4271    20.052786    19.890826    20.380323    8129.0277    5548.7871    9450.7036    8713.7904    343.68733   -1499.6144   -504.94899   -3251.6733 
17613000    256.66513   -4723.1641   -4228.1638   -4723.1641            0    8034.0176    20.023834    20.060227    20.191094    8110.4126    7399.0918     8466.635    8236.3262    989.79928    842.63418   -561.77818   -3277.8837 
17614000    257.09841   -4680.5321   -4184.6962   -4680.5321            0    10645.297    19.887416    19.788891    20.514454    8073.4614     10659.34    10002.474    11274.076    160.83484    1015.4897    1834.1248   -2931.2854 
17615000    258.55194   -4693.0107   -4194.3715   -4693.0107            0    10536.346    19.623832    19.948525    20.524815    8034.7775    10618.541    10727.104    10263.393    1333.9959    1005.9644    1980.4448   -2959.7332 
17616000    245.40267   -4685.0568   -4211.7771   -4685.0568            0    9609.5731    19.646719    19.809734    20.525845    7988.5825    9909.0521    10058.198    8861.4695    115.74738   -841.74983   -302.28465   -3092.2111 
17617000    244.81994   -4699.5978   -4227.4419   -4699.5978            0    7124.3176    20.106274    19.642246    20.620004    8143.5077    5497.5892    9227.8885     6647.475    -602.0612   -705.28499    61.983269   -3381.3245 
17618000     256.3527   -4714.2778   -4219.8801   -4714.2778            0     8772.735    19.916155    19.874356      20.5493    8133.8395    9168.7474    7153.4871    9995.9705   -51.205221   -49.452348    429.94985   -3179.2257 
17619000    242.33978   -4690.9085   -4223.5358   -4690.9085            0    8954.6732    19.833382    19.786842    20.689858    8119.5276     10449.54    7133.5592    9280.9206    30.521838    1620.4136    396.61119   -3163.1683 
17620000     248.3524   -4672.8494   -4193.8809   -4672.8494            0    6821.3563     19.72317    19.887071    20.689898    8115.3248    6588.7363    6997.3919    6877.9409    85.229577    855.66433   -722.42381   -3386.5482 
17621000    248.62433   -4706.9878   -4227.4948   -4706.9878            0    8827.0672    19.920128    19.883684    20.369534    8068.0779    8728.0589    8155.9786    9597.1641   -16.729486    11.542164    1222.5317   -3188.8611 
17622000    270.44745   -4685.5881   -4164.0074   -4685.5881            0    8204.0986     19.66337    19.952822    20.648895    8101.3818    6727.7202    9502.5627    8382.0131   -208.85508   -748.02124    1323.9919   -3194.6903 
17623000     265.1457   -4705.3597    -4194.004   -4705.3597            0     8435.405    19.941591     19.73479    20.512896    8072.7086    7852.8376    10441.033    7012.3438     67.48955   -601.84595   -1198.0674   -3200.8854 
17624000     264.1132   -4692.7037   -4183.3392   -4692.7037            0    9927.9212    20.008553     20.00925    20.119751    8055.0657    9300.5801    10328.641    10154.543    300.79288    1037.3313   -447.21283   -3017.0579 
17625000    279.14531   -4714.4865   -4176.1313   -4714.4865            0    7836.5796    19.949925    19.934347    20.452289    8133.6446    8791.6332    6560.1115     8157.994    438.40315   -809.82738    -530.6768   -3246.5495 
17626000     248.0978     -4712.01   -4233.5325     -4712.01            0    9779.3572    19.722918    19.719803    20.836536    8103.9967    9086.6061    10272.258    9979.2075    22.357633   -1002.1651   -301.01828   -3077.7252 
17627000    250.12688   -4684.7947    -4202.404   -4684.7947            0    8764.9924    19.793723    19.861139    20.624607    8108.0669    6716.4447    11125.999    8452.5339    425.72499   -468.25006    572.60848   -3165.9626 
17628000    257.41419   -4712.3216   -4215.8766   -4712.3216            0    7616.7032    19.856886    19.939534    20.573135    8145.6665    7493.2668    8100.7504    7256.0924    336.81336    261.75149    -847.1542   -3311.0413 
17629000    275.66013   -4683.4305   -4151.7968   -4683.4305            0    8503.8423    19.926718    19.711326    20.589394    8087.1443    6659.1923     11051.52    7800.8147   -255.85965    -1570.456   -792.53386   -3148.8306 
17630000    242.41916    -4706.589   -4239.0633    -4706.589            0    8208.6887    19.978984    19.907436    20.285058    8067.9834    7959.4561    6882.2901      9784.32    545.13398   -111.57195   -430.30674   -3273.2022 
17631000     256.9949   -4735.8946   -4240.2583   -4735.8946            0     9574.324    19.791026    19.895084    20.416746     8038.974    7568.8916      10965.1     10188.98   -433.26824    444.56667    -615.1171   -3117.7628 
17632000    270.11961   -4694.2405   -4173.2921   -4694.2405            0    7475.2963    19.789213    19.903221    20.725351     8163.075    8392.8329     7520.563     6512.493    257.93339    33.408441    121.64586   -3283.3576 
17633000    268.84094   -4701.2683    -4182.786   -4701.2683            0     6629.296    19.913019    20.032737    20.512743    8182.7852    5876.1969    6347.4349    7664.2562   -529.33923   -562.43508     72.08339   -3391.6622 
17634000    255.80064   -4708.4705   -4215.1374   -4708.4705            0    11088.878    19.800255    19.750868    20.540113     8032.668    14033.845    10183.488    9049.3008    571.06172    834.03151   -252.16794    -2916.095 
17635000    261.65438   -4713.4908   -4208.8683   -4713.4908            0    9723.2238     19.97376    19.993983    20.322548    8115.9112    8402.3493    9739.8432    11027.479   -441.11953   -33.134389     1999.293   -3058.0057 
17636000    259.10614   -4692.1087   -4192.4007   -4692.1087            0    9127.0144    19.833465    19.901005    20.490672    8087.7887    9491.2894    9538.7697    8350.9841   -614.92298    130.36094   -1428.8258   -3115.8502 
17637000    256.62464   -4717.5854   -4222.6632   -4717.5854            0    6911.6126    19.874804    19.762998    20.665085      8116.95    7506.0447    7513.8445    5714.9485    370.97491    170.99146    674.77875   -3404.4845 
17638000      258.841   -4710.0557   -4210.8591   -4710.0557            0    8006.0963    19.705755    19.797596    20.707516     8078.552    8824.3292    8534.0943    6659.8654    90.383441   -1023.2422   -545.41126   -3267.6017 
17639000    249.06219   -4740.4229   -4260.0855   -4740.4229            0    9368.7015     19.68067    19.951128    20.685678    8122.2639    10298.168    9367.6062    8440.3303    442.71184    597.55218    1121.4926    -3150.317 
17640000    266.79677   -4705.4019   -4190.8619   -4705.4019            0    5664.7452    19.992905    20.001277    20.460492     8181.816    6634.6155    3910.4147    6449.2053   -48.175202    1776.1308    549.82664   -3514.9253 
17641000    263.03028   -4717.1133   -4209.8373   -4717.1133            0    7609.5338    20.151925    19.900086    20.254592    8122.5986    5746.1379    8683.8814    8398.5822   -75.177958    769.09517   -334.03718   -3308.4137 
17642000    259.14882   -4695.0312   -4195.2409   -4695.0312            0     10651.79    19.770578       19.952    20.335329     8021.526    9821.9333    10072.641    12060.797    57.734169   -547.89101     701.9393   -2949.1334 
17643000    262.47877    -4711.121   -4204.9086    -4711.121            0    7265.8215    19.963526    19.802787    20.558196    8127.3426    5995.3047     8954.053    6848.1067    88.018762   -1431.4964     852.3925   -3343.6984 
17644000    262.99211   -4703.0741   -4195.8717   -4703.0741            0    7701.7665    19.909587    20.003217     20.50031    8164.3671    8227.4505    7108.0725    7769.7766    648.81005    548.41923    1115.2212   -3278.8307 
17645000     254.5781   -4694.2529   -4203.2777   -4694.2529            0    9345.7983    20.028872    19.836979    20.319199     8073.068    9417.4897    10114.559     8505.346   -133.53808     -274.755   -1191.2012   -3102.9275 
17646000    254.31952   -4716.0932   -4225.6166   -4716.0932            0    7731.3992     19.76347     19.93741    20.476342    8068.3421    6364.3555     9654.699    7175.1432   -95.738377   -651.28229    723.74534   -3315.8745 
17647000    251.70463   -4712.6292   -4227.1957   -4712.6292            0    7624.5329    20.157913    19.790186    20.280973     8090.665    5203.4521    9790.8284    7879.3181    -249.4742   -721.74413    -325.4606   -3327.5462 
17648000    259.01519   -4727.9476    -4228.415   -4727.9476            0    8409.8428    19.831577    20.051941    20.420606    8120.4911    9260.7443    6904.0316    9064.7524    125.02439    318.70564    -1938.765   -3232.4455 
17649000    277.04115   -4711.3917   -4177.0945   -4711.3917            0    9101.7206    19.948304    19.797656    20.470995    8084.6032    8745.2601    9049.0452    9510.8567   -368.32752    301.93649    216.26442   -3103.9503 
17650000     246.5812   -4690.0113   -4214.4587   -4690.0113            0    8819.5665    19.792244    19.786049    20.676774     8097.238    9240.1011    8737.4584    8481.1401   -228.86754   -1088.5435   -1452.3339   -3172.9569 
17651000    265.32751   -4661.3116   -4149.6052   -4661.3116            0     9126.163    19.836225    19.908533    20.374628    8046.1473    9614.4611    7558.1867    10205.841   -487.79635    100.72247    765.86395   -3078.6974 
17652000    263.47332   -4691.1576   -4183.0271   -4691.1576            0    9458.5024    19.910424    20.037129     20.27582    8088.9924    12351.498    7531.9468     8492.062   -478.01174   -1444.2485    174.45625   -3067.2108 
17653000    256.73767   -4704.9323   -4209.7921   -4704.9323            0    7895.7077    19.913366    19.789531    20.647724    8136.7762    9434.3547     6741.362    7511.4063    374.93034   -1010.7518     11.45917   -3272.8359 
17654000    259.65023   -4702.7279   -4201.9706   -4702.7279            0    9472.8735    19.841071    19.917816    20.458666    8085.0768    11703.431    6950.8178    9764.3717    551.52212    1339.2433   -455.24942   -3084.9999 
17655000    254.30008   -4690.0703   -4199.6312   -4690.0703            0    9590.3958    19.691095    20.074631    20.394014    8061.5801    9835.0975    9922.3024    9013.7875   -280.75764   -133.67069   -159.64315   -3072.0895 
17656000    252.30716   -4715.2342   -4228.6386   -4715.2342            0    7870.1036    19.716308    19.871649    20.682893    8103.4655    9577.9473    6392.4782    7639.8853   -565.28202    361.54343   -484.79293    -3298.544 
17657000     265.8824   -4706.8291   -4194.0525   -4706.8291            0    9336.2196    19.926891    19.615182    20.720491    8099.0098    9766.5539    9372.9757    8869.1292    517.44937    517.95192    953.45701   -3091.2979 
17658000    251.22887    -4715.395    -4230.879    -4715.395            0    8506.7689    19.760207    20.109714    20.364078    8092.1165    8011.9782    8316.6276    9191.7008    244.34179    619.42971   -256.28965   -3226.9508 
17659000    254.71122   -4717.5194   -4226.2874   -4717.5194            0    8237.2054     19.90742    19.829508     20.60805     8135.117    7454.5243    8863.1019    8393.9899   -537.54017    1565.6365    200.55154   -3249.0061 
17660000    272.87412   -4722.5794   -4196.3187   -4722.5794            0    7299.3518    19.879604    19.830185    20.659292     8144.228    8755.3549    6207.3673    6935.3331    128.91054    432.91198    496.29703   -3329.3367 
17661000    267.17056   -4732.9925   -4217.7316   -4732.9925            0    7158.2355    20.059576    19.891392    20.309747    8103.8509    7238.2898    5776.1484    8460.2684    186.77084    469.12743    1926.2439   -3371.7259 
17662000    259.38884   -4697.5552    -4197.302   -4697.5552            0    9871.4911    19.822903    20.020244    20.374183    8085.6851    10774.937    8062.0977    10777.439    40.879588   -268.58161   -1224.5472   -3033.2417 
17663000    265.65907     -4698.64   -4186.2942     -4698.64            0    9135.0649    19.844625    19.715213    20.599056    8059.1954    9636.6449     9283.259    8485.2909    94.949349    255.30777   -2143.6684   -3112.6034 
17664000     258.3368   -4710.6753   -4212.4511   -4710.6753            0    8544.8665    19.713519    19.870124    20.564249    8055.2229     9453.995    7494.6843    8685.9203    887.41353   -683.76452    472.64226   -3208.6244 
17665000    260.54935   -4708.8936   -4206.4022   -4708.8936            0     9970.192    19.699228    19.874557    20.593534    8062.6453    10799.109      8904.24    10207.227    1084.1818   -374.11669   -185.32237   -3034.0531 
17666000    272.94621   -4715.7424   -4189.3426   -4715.7424            0     7368.334    19.784079    19.968784    20.611942    8143.0362    9650.7511    5589.2503    6865.0005   -423.82906   -670.49562    824.09158   -3314.2953 
17667000    262.32456   -4700.2006   -4194.2856   -4700.2006            0    8883.7299     19.68231    19.989144    20.531531    8077.7723    11657.128    7589.8287    7404.2328    -369.1005   -382.31456   -214.08433   -3147.7287 
17668000    267.21945   -4693.7848   -4178.4296   -4693.7848            0    7769.4062     19.81492    19.853966    20.803224    8184.0869    6786.2509    9804.7328    6717.2349    84.082368   -1909.4645   -114.36809   -3251.1004 
17669000    275.34522   -4687.4718   -4156.4454   -4687.4718            0    11115.966    19.767503    19.990327    20.243444    7999.3762    11053.849    10575.704    11718.345     605.8773   -279.80646     329.9331   -2859.6268 
17670000    263.60258   -4696.1957   -4187.8159   -4696.1957            0    10128.914    19.768357    20.012729    20.436524     8085.073    10899.276    8824.8699    10662.595    392.35674   -494.15972   -543.13776   -2993.4905 
17671000    262.24339   -4692.9228   -4187.1644   -4692.9228            0    6632.2436    20.254558    19.801092    20.259715     8125.409    3353.1185    8484.8769    8058.7354   -77.998607   -629.27682    383.83065   -3401.2385 
17672000    265.20592   -4723.6775   -4212.2056   -4723.6775            0    8370.6124     19.74537    20.035129    20.536195    8124.1398    9935.0494    7326.7652    7850.0225    512.89406    69.170161    621.30305   -3220.4367 
17673000     259.1384   -4730.5905   -4230.8203   -4730.5905            0    9474.2898    20.054063    19.873613    20.285317    8084.6455    8469.9687    10034.495    9918.4057    289.45732   -935.89939    243.32395   -3113.7422 
17674000    257.02935   -4696.0889   -4200.3862   -4696.0889            0    9189.5654     19.85642     19.99235    20.203123    8020.1652    10617.623    6214.7679    10736.305    154.92943    1541.8197    138.02316   -3125.5205 
17675000    258.10272   -4706.1801   -4208.4073   -4706.1801            0    8749.2527    19.776175    19.854527     20.62957    8100.1302    9082.4961    9254.1972    7911.0647   -358.09049    153.77598    1350.1876   -3174.8398 
17676000    251.97698   -4709.0788     -4223.12   -4709.0788            0     11522.54    19.823505    19.587644    20.603658    8000.3131    12528.044    11345.945    10693.631    636.43111   -1011.8591   -11.163269   -2878.7119 
17677000    266.10364   -4706.5326   -4193.3293   -4706.5326            0    8247.6344    19.799667    19.735773    20.689913    8084.8262      9228.71    7869.1849    7645.0083    -33.08352    1755.5795     1195.722   -3220.8599 
17678000    249.71252   -4685.3897   -4203.7981   -4685.3897            0    6265.4786    20.140964    19.881143    20.410123    8172.7314    6035.8128    6812.2974    5948.3256    172.61673    945.89283    123.14295     -3457.01 
17679000    276.00748   -4713.2797    -4180.976   -4713.2797            0    6999.8284    19.933742    20.026331    20.456907    8166.3916    7787.5196    6019.8982    7192.0673   -666.36799   -575.15257    -105.4188   -3347.3074 
17680000    265.37024   -4688.4017   -4176.6129   -4688.4017            0    8627.8104    19.761318    19.875034    20.542646    8068.2652     8871.729    10931.171    6080.5307   -378.95281    316.19787    536.80272   -3161.4012 
17681000    260.90719   -4711.5763   -4208.3949   -4711.5763            0     10100.19    19.822412    19.785168    20.551399    8060.0483    10240.165    10344.857    9715.5474   -633.06817   -678.83627    979.72063   -3021.1424 
17682000    262.74568   -4696.4751    -4189.748   -4696.4751            0    8928.7201    19.734419    19.924753    20.439181    8036.7561    9373.0755    7579.5004    9833.5843    312.59732   -220.43501     1258.566   -3143.2319 
17683000    252.60413   -4723.9897   -4236.8214   -4723.9897            0    7402.9708    20.089574    19.909606     20.33325    8132.8019    6785.8275    6826.8907    8596.1941   -68.620635   -272.32206   -724.53669   -3358.7656 
17684000    257.20327   -4721.9365   -4225.8984   -4721.9365            0    7510.1532     20.10714    19.884825    20.325753    8126.7838    7439.0087    7386.5326    7704.9182    426.15134    98.216797    469.66188    -3335.789 
17685000    259.43137   -4677.7659   -4177.4307   -4677.7659            0     9097.228    19.784671    19.994625    20.534747    8123.2804    9032.2455    7829.1808    10430.258    342.60883   -233.89006   -1593.8044   -3099.6847 
17686000      279.454   -4711.7495   -4172.7989   -4711.7495            0     7955.795     19.81806    19.808618    20.564177    8072.8459    8637.6108    7721.6349    7508.1393    29.141927   -214.40982   -1093.5653   -3236.1299 
17687000     270.5218    -4741.262    -4219.538    -4741.262            0    7781.5123    19.966957    20.018504     20.47036    8182.1789    9261.6777    6186.0627    7896.7965    704.33632    401.46767    44.898683   -3290.9804 
17688000    258.09194   -4678.2839   -4180.5319   -4678.2839            0    9531.5753    20.133339    20.017458     20.02795    8071.6296    11245.619     7464.715    9884.3919    480.20616   -1640.0241   -89.915998   -3058.5088 
17689000    254.08951   -4723.0132   -4232.9802   -4723.0132            0    7233.2847    19.733614    19.988076    20.609084    8128.9845    8497.7777    6108.4503    7093.6261    111.74332   -124.40813   -374.36703   -3375.4533 
17690000    259.57921   -4659.8346   -4159.2143   -4659.8346            0      8923.66     19.93426     19.74126    20.623202    8115.7953     6106.547    11198.668    9465.7653   -323.41263    294.46635   -276.68478    -3103.005 
17691000     254.2314    -4684.161   -4193.8543    -4684.161            0    9108.1337    19.998219    19.904547    20.392648    8117.4052    9026.1349    8284.4565     10013.81    -172.6879    507.73189    419.15454   -3115.5968 
17692000     253.6277    -4673.793   -4184.6506    -4673.793            0    7995.6039    19.728592    19.877593    20.616955    8085.0816     7742.331    9872.5766     6371.904   -173.75827   -487.87712    383.63042    -3241.868 
17693000    266.61514   -4700.1699   -4185.9801   -4700.1699            0    8615.4745    19.899645    19.578971    20.747906    8083.6867    7047.7812    10140.822    8657.8205   -959.11174   -449.92125    623.48631   -3170.2822 
17694000    277.13351   -4717.5101   -4183.0348   -4717.5101            0     6645.383    19.709112     20.03888    20.635308    8149.8844    8152.2336    5527.6953    6256.2201    141.85808    306.42073    582.42127   -3393.1798 
17695000     268.0932   -4713.4318   -4196.3915   -4713.4318            0    8940.1555    19.979188    20.021463    20.261549    8104.8742    8595.1504    7668.5561     10556.76   -678.12863    578.15232   -871.99303   -3139.6537 
17696000    261.24249   -4713.4813   -4209.6532   -4713.4813            0    6534.4342    19.832794    19.886851    20.694469     8162.143     5602.336    8166.9941    5833.9726   -103.10363   -1420.5777    1367.4079   -3431.8171 
17697000    253.61191   -4691.3126   -4202.2007   -4691.3126            0    8653.6395    19.786481    19.988176     20.49727    8106.5815    10383.877    7110.9825    8466.0595     42.31182   -1562.6971    1710.1058    -3179.114 
17698000     267.9731   -4715.4035   -4198.5949   -4715.4035            0    7017.9516    20.326823    19.841488    20.281826     8179.953     6132.777    6177.6634    8743.4145   -755.35441   -64.307516   -823.73896   -3361.3798 
17699000    269.11793   -4699.5094   -4180.4929   -4699.5094            0    6652.0673    19.968537    20.004678    20.514415    8194.7739    6341.0238    7209.6498    6405.5282   -69.535611     355.4612   -150.15808   -3385.4885 
17700000    258.15404   -4697.9194   -4200.0476   -4697.9194            0    8268.5536    19.848948    19.790246    20.499148    8052.3843    6871.8992    9910.0513    8023.7102    39.276746    439.16195    1023.2308   -3229.0237 
17701000    248.29667      -4678.9    -4200.039      -4678.9            0    8334.4369    19.711449    19.840395    20.676656    8086.2872    8779.9084    6460.9054     9762.497   -313.37584    543.23164    646.97906   -3217.1572 
17702000    258.18712   -4693.1484   -4195.2128   -4693.1484            0    7621.2605    19.941816     19.69955    20.661462    8116.7477    9228.1338    6979.2394    6656.4084    -165.7306   -182.73677   -507.76422   -3293.0504 
17703000    258.50701   -4723.1693   -4224.6168   -4723.1693            0    9486.9925    20.121291    19.709519    20.369532     8078.169    8598.1066    10743.588     9119.283   -531.43952   -793.15823   -1136.3356    -3106.937 
17704000    248.13995   -4705.7473   -4227.1885   -4705.7473            0    9431.7587    19.755337    20.040982    20.443008    8093.7209    10147.482    8080.2078    10067.587    816.81307   -384.68249     240.5713   -3113.8767 
17705000    255.83019   -4737.0652   -4243.6751   -4737.0652            0    9047.7889    19.979821    19.842918     20.42857     8099.069    8662.5635    9639.8222    8840.9811    -795.2243    683.02629    68.620511   -3174.9809 
17706000    256.47626   -4727.8218   -4233.1858   -4727.8218            0     8933.859    19.956738    19.854819    20.432366    8096.0675    8335.6393    9841.8187     8624.119   -933.14703    -1088.506    1927.1242   -3178.3397 
17707000    272.95899   -4731.2404    -4204.816   -4731.2404            0    7813.7752     19.81609    19.806473    20.678641    8116.0943    10096.363    6115.2039     7229.759    571.15606    124.86445   -686.98525   -3279.9392 
17708000    265.88128   -4708.7075   -4195.9331   -4708.7075            0    7761.9006    19.910124    19.935535    20.449897    8116.9523    6372.0507    6478.0708     10435.58    -93.26586    1255.5324    145.25122   -3277.0993 
17709000      268.907   -4715.9881   -4197.3784   -4715.9881            0    9720.9507    19.750753    19.801284    20.537098    8031.8591     10786.62     9134.141    9242.0913     277.8891   -1890.6786     727.2175   -3058.7009 
17710000     262.3108   -4678.5707   -4172.6823   -4678.5707            0    8951.1142    19.755224    20.044883    20.482126    8110.7408     7712.297    9494.6231    9646.4225   -711.86981    1243.7506   -156.17314   -3113.8833 
17711000    258.18551   -4703.9046   -4205.9721   -4703.9046            0     9302.605    19.860982    19.868063    20.637719    8143.6285     9550.416    9319.3805    9038.0186   -522.81231   -255.77886   -611.64355   -3101.1346 
17712000    261.62239   -4701.8688    -4197.308   -4701.8688            0     8085.376     19.98651    19.864323    20.408455    8102.5343    7370.0733    7578.4063    9307.6483    785.44047    668.80599   -903.37955   -3241.8821 
17713000    263.34129   -4692.7561   -4184.8802   -4692.7561            0    6299.7764    19.777137    20.084682    20.553074     8164.041    6462.6535    5224.6655    7212.0102   -20.937942    1088.6571    788.74047   -3434.8026 
17714000    268.92005   -4717.6899   -4199.0549   -4717.6899            0    7262.4505    19.993522    19.912604     20.47049    8149.7745    4703.5084    9173.6942    7910.1491   -1156.5624   -688.31431    195.36775   -3335.8684 
17715000     249.4563    -4731.072   -4249.9745    -4731.072            0      9325.62    19.930833    19.771876    20.491779    8075.1946    10177.101    8091.2989      9708.46    533.04286    530.43192   -53.866966   -3151.7109 
17716000    259.85869   -4717.9914   -4216.8321   -4717.9914            0    9108.2721    19.634729    19.985676    20.570061    8071.9661    11422.432    7007.2582    8895.1256    504.10674   -1122.8646    1802.4475    -3144.594 
17717000    250.15122   -4716.8009   -4234.3633   -4716.8009            0    8762.2414    19.863169    19.790826    20.501427    8059.2854    7161.9199    10756.967    8367.8377    550.41415    1042.2603   -670.15334   -3204.4809 
17718000    253.75051    -4676.931   -4187.5517    -4676.931            0    8296.6778    20.035121    20.060332    20.213702    8124.1132    6515.2304    9142.2689    9232.5343    10.318973    1394.1306    753.43112   -3204.5459 
17719000    256.39947   -4684.4152   -4189.9272   -4684.4152            0     7962.316    19.920202    19.893105    20.612548    8168.2305    8013.1629    9583.2199    6290.5652   -206.29178   -109.19005   -562.66755   -3241.4143 
17720000    252.29951   -4714.0271   -4227.4463   -4714.0271            0    9119.7627     19.97067    19.664988    20.560439    8074.5567    7490.3572    12692.632    7176.2993   -683.59944    622.55465   -767.22335    -3153.511 
17721000    254.40149   -4700.4961   -4209.8615   -4700.4961            0    8727.7152    19.976705    19.930048    20.424655    8131.8045    10146.911    6988.4992    9047.7358   -140.14391    1490.5465    396.19759   -3174.8066 
17722000    257.42173   -4718.1073   -4221.6478   -4718.1073            0    9993.3348    19.859016    19.930823    20.371773    8063.2812    10287.244     9288.148    10404.612    123.25513    263.31802   -252.27862   -3046.4848 
17723000    254.90088   -4711.6566   -4220.0589   -4711.6566            0    9525.8816    19.782646    19.954886    20.478837    8084.2348    8972.4073    9142.4115    10462.826    -12.86757    -1919.996   -1145.1165   -3096.9548 
17724000    251.55668   -4696.9499   -4211.8017   -4696.9499            0    7285.1685    19.874686    19.810695    20.753019    8171.1141     5783.606     8470.274    7601.6254   -711.62508    836.44233   -553.49336   -3343.6477 
17725000    265.88999   -4735.6263   -4222.8351   -4735.6263            0    9788.3226    19.743665    19.856222    20.563295    8061.5232     11273.68    7749.0505    10342.238   -64.999891    1379.0456   -655.49649   -3072.0314 
17726000    261.13805   -4712.6866     -4209.06   -4712.6866            0    8773.7658     20.14346    19.716582    20.408533    8105.4565     8871.444    10331.161    7118.6924   -585.09548   -108.86982   -1133.4023   -3171.9151 
17727000     278.5758   -4677.3933   -4140.1364   -4677.3933            0    7575.3847     19.84385    20.111105    20.475203      8171.28    6042.7135    8935.3302    7748.1105   -605.33788    -214.9445    67.216325   -3237.3798 
17728000     272.7761   -4707.1739   -4181.1022   -4707.1739            0    9297.5116    19.993875    19.817407    20.478846    8114.2672    10945.267    7489.3601    9457.9076    -184.8005    1254.8399   -274.62342   -3080.8508 
17729000    276.47564   -4727.3919   -4194.1854   -4727.3919            0    7201.7607    19.940305    20.076183    20.394553    8164.4536    8432.5358    5150.5838    8022.1624    666.84761   -709.45016    83.802528   -3336.6704 
17730000     270.0049   -4690.2686   -4169.5414   -4690.2686            0    7426.5162    20.094265    19.677504    20.544589    8123.4328    6428.4819    8588.0848    7262.9818    625.22745    200.97782    310.85306   -3289.7077 
17731000    265.17939   -4694.0118   -4182.5911   -4694.0118            0    8340.6507     19.65602    20.001159    20.804386    8179.1025    9336.3664    9069.8813    6615.7046    265.27384    18.204851   -515.07294   -3187.6864 
17732000     261.6633   -4701.1571   -4196.5174   -4701.1571            0    8742.6048    19.808595    19.788238    20.679254    8105.7959    8668.6935    8775.9924    8783.1286    42.358599    1439.8549    38.905594   -3163.0129 
17733000    253.42687   -4707.7207   -4218.9657   -4707.7207            0    9167.9855    19.979394    19.917994    20.349133    8097.9261    7695.7985    9893.3886    9914.7694   -92.071797   -229.51819   -18.708068   -3136.2271 
17734000    266.06976   -4706.9519    -4193.814   -4706.9519            0     8034.781    19.853875     20.26848    20.314536    8174.7289    9354.8423    5901.6181    8847.8825    -559.2216    570.74192   -967.78742   -3235.9071 
17735000    248.25718   -4706.9678    -4228.183   -4706.9678            0    8245.1108    19.871174    19.879522    20.501446    8098.6749    10377.779    7608.6068    6748.9468    136.36593    95.603614   -325.84104   -3254.3458 
17736000    244.80293   -4692.8611   -4220.7381   -4692.8611            0    7762.5494    19.863702    19.787025    20.616786    8103.2952    7385.2274    9842.3684    6060.0525   -146.41533   -395.29623    688.45185   -3303.3736 
17737000     259.4443   -4701.1542    -4200.794   -4701.1542            0    8735.7204    20.027788    19.892386    20.336368    8102.0189    9953.8869    7136.1383    9117.1361    309.74991    768.24715   -276.52349   -3168.5845 
17738000    261.67242   -4692.4317   -4187.7745   -4692.4317            0     8733.125    19.892373    20.015894    20.308024    8085.9169    8252.0358    9144.6038    8802.7354    257.15435   -565.55036    21.358803   -3157.9224 
17739000    257.68538   -4706.6735   -4209.7056   -4706.6735            0    8153.0073     19.78905    19.771891    20.643608    8077.1613    7477.8406    8702.1948    8278.9866    6.1107629    259.75542    759.53801   -3249.3048 
17740000    262.87714   -4686.6342   -4179.6536   -4686.6342            0    8767.0212    19.640875     20.07023    20.522057    8089.7308    10584.697    7419.5773    8296.7893   -249.21117   -497.32697     304.5364   -3145.3167 
17741000    252.02012   -4699.3226   -4213.2806   -4699.3226            0    8497.9217    19.829884    19.849749    20.588546    8104.0269    9475.4787    8225.3769    7792.9096   -718.02937    292.70432   -531.96362   -3208.9204 
17742000    263.57544   -4692.9278   -4184.6004   -4692.9278            0    8040.9281     20.02361    19.908601    20.362536    8117.3631    7450.4577    9248.2537     7424.073     302.7996   -597.64132   -296.34128   -3232.6878 
17743000    268.96231   -4696.7188   -4178.0023   -4696.7188            0    7596.5162    19.893305    20.021981    20.600873     8205.397    8764.0637    6760.7615    7264.7234   -62.523254    334.79566    609.57532   -3268.9478 
17744000    267.06428   -4705.3459     -4190.29   -4705.3459            0    8516.4943    19.764331    19.745698    20.813523    8122.6961    8631.6207    10021.333    6896.5293    733.54849    884.21965    130.72367   -3181.4159 
17745000    276.64208   -4691.2732   -4157.7457   -4691.2732            0    9817.1971    20.024265    19.825446    20.329933    8070.7796    9433.0383    8751.0253    11267.528   -600.78951   -396.37304   -375.14652   -3002.2219 
17746000    268.75522   -4702.1723   -4183.8553   -4702.1723            0    6087.9501    19.738053    20.028593    20.627511    8154.5796    6473.8339    5472.3613     6317.655    295.93897    1801.6394    358.99099   -3459.8386 
17747000    267.58804   -4725.0864   -4209.0204   -4725.0864            0    7198.5772    19.985115    19.845843    20.412554    8096.0568    7737.0494    7645.4218    6213.2603    254.62558   -447.44673   -55.006099   -3359.0651 
17748000    263.84245   -4681.1529   -4172.3105   -4681.1529            0    8387.7483    19.978995    20.085839    20.212281    8111.0847    7988.0659    6947.3634    10227.815    91.075235    300.91258    727.33951   -3180.1083 
17749000    257.21421   -4725.5027   -4229.4434   -4725.5027            0     8457.257    19.859931    19.923143      20.4342    8085.2456    8030.7715    8724.7159    8616.2834    401.55277    359.36982    536.90379   -3232.2059 
17750000    270.18151   -4673.0751   -4152.0073   -4673.0751            0    7332.4977    20.049144     19.94361      20.2943    8114.7232    7082.7084     7863.776    7051.0088   -97.309316    2161.5406   -420.14914   -3284.2435 
Loop time of 502.906 on 64 procs for 250000 steps with 972 atoms

Performance: 85.901 ns/day, 0.279 hours/ns, 497.110 timesteps/s
99.2% CPU use with 64 MPI tasks x 1 OpenMP threads

MPI task timing breakdown:
Section |  min time  |  avg time  |  max time  |%varavg| %total
---------------------------------------------------------------
Pair    | 21.014     | 28.896     | 37.864     |  78.8 |  5.75
Bond    | 0.27167    | 0.27982    | 0.29332    |   1.0 |  0.06
Kspace  | 195.95     | 210.32     | 228.12     |  51.9 | 41.82
Neigh   | 3.062      | 3.7001     | 4.9362     |  26.0 |  0.74
Comm    | 109.26     | 126.14     | 137.89     |  65.0 | 25.08
Output  | 1.0786     | 1.0795     | 1.0848     |   0.1 |  0.21
Modify  | 124.88     | 127.01     | 130.37     |  12.1 | 25.26
Other   |            | 5.481      |            |       |  1.09

Nlocal:        15.1875 ave          19 max          10 min
Histogram: 1 3 4 5 13 10 9 8 5 6
Nghost:        2266.66 ave        2286 max        2240 min
Histogram: 2 4 3 6 6 12 8 7 12 4
Neighs:        4840.66 ave        6605 max        3035 min
Histogram: 3 2 7 11 14 6 4 10 4 3

Total # of neighbors = 309802
Ave neighs/atom = 318.72634
Ave special neighs/atom = 2.0000000
Neighbor list builds = 7857
Dangerous builds = 0

unfix		3
unfix		2
unfix		1

write_data	data.final.${pid}
write_data	data.final.0
System init for write_data ...
PPPM initialization ...
  extracting TIP4P info from pair style
  using 12-bit tables for long-range coulomb (../kspace.cpp:340)
  G vector (1/distance) = 0.37195675
  grid = 24 24 24
  stencil order = 5
  estimated absolute RMS force accuracy = 0.0035346584
  estimated relative force accuracy = 1.0644519e-05
  using double precision FFTW3
  3d grid and FFT values/proc = 2197 216
Last active /omp style is kspace_style pppm/tip4p/omp
WARNING: Not all mixed pair coeffs generated from mixing. Use write_data with 'pair ij' option to store all pair coeffs. (../write_data.cpp:312)

write_restart   restart.lmp.${pid}
write_restart   restart.lmp.0
System init for write_restart ...
PPPM initialization ...
  extracting TIP4P info from pair style
  using 12-bit tables for long-range coulomb (../kspace.cpp:340)
  G vector (1/distance) = 0.37195675
  grid = 24 24 24
  stencil order = 5
  estimated absolute RMS force accuracy = 0.0035346584
  estimated relative force accuracy = 1.0644519e-05
  using double precision FFTW3
  3d grid and FFT values/proc = 2197 216
Last active /omp style is kspace_style pppm/tip4p/omp
Total wall time: 0:08:26
