LAMMPS (30 Jul 2021)
  using 1 OpenMP thread(s) per MPI task
package omp 0
using multi-threaded neighbor list subroutines
echo both

include		in.partitions
variable        pid world 0
include		in.temp
variable        temperature equal 269.16
variable	tempDamp equal 100.0
include		in.pressure
variable        pressure equal 11125.0
variable        pressureDamp equal 1000.0 # This is 1 ps
include		in.seed
variable        seed world 745823

units		real
atom_style	full
read_restart	restart.lmp.${pid}
read_restart	restart.lmp.0
Reading restart file ...
  restart file = 30 Jul 2021, LAMMPS = 30 Jul 2021
  restoring atom style full from restart
  orthogonal box = (0.68651591 1.9001563 0.83754781) to (17.521056 21.729021 21.375648)
  4 by 4 by 4 MPI processor grid
  restoring pair style lj/cut/tip4p/long/omp from restart
  restoring bond style harmonic/omp from restart
  restoring angle style harmonic/omp from restart
  864 atoms
  576 bonds
  288 angles
Finding 1-2 1-3 1-4 neighbors ...
  special bond factors lj:    0        0        0       
  special bond factors coul:  0        0        0       
     2 = max # of 1-2 neighbors
     1 = max # of 1-3 neighbors
     1 = max # of 1-4 neighbors
     2 = max # of special neighbors
  special bonds CPU = 0.061 seconds
  read_restart CPU = 0.285 seconds
include 	in.setup
variable	out_freq equal 1000
variable	out_freq2 equal 10000
variable	out_freq3 equal 1000

timestep	2.0

neigh_modify    delay 7 every 1

include		in.tip4p
# This is TIP4P/Ice

# create groups ###
group ox type 2
288 atoms in group ox
group hy type 1
576 atoms in group hy

# set charges - beside manually ###
set group ox charge -1.1794
Setting atom values ...
  288 settings made for charge
set group hy charge 0.5897
Setting atom values ...
  576 settings made for charge

# ### TIP3P Potential Parameters ###
pair_style lj/cut/tip4p/long/omp 2 1 1 1 0.1577 8.5
pair_coeff 1 1*2 0.000 0.000
pair_coeff 2 2 0.21084 3.1668
bond_style  harmonic
bond_coeff  1 450 0.9572
angle_style harmonic
angle_coeff 1 55 104.52
kspace_style pppm/tip4p/omp 1.0e-5
pair_modify tail yes

thermo          ${out_freq}
thermo          1000
thermo_style    custom step temp pe etotal epair emol press lx ly lz vol pxx pyy pzz pxy pxz pyz enthalpy

restart 	${out_freq3} restart.lmp.${pid} restart2.lmp.${pid}
restart 	1000 restart.lmp.${pid} restart2.lmp.${pid}
restart 	1000 restart.lmp.0 restart2.lmp.${pid}
restart 	1000 restart.lmp.0 restart2.lmp.0


include         in.dump
dump            myDump all atom ${out_freq2} dump.water.${pid}
dump            myDump all atom 10000 dump.water.${pid}
dump            myDump all atom 10000 dump.water.0
dump            myDump2 all dcd ${out_freq2} dump.dcd
dump            myDump2 all dcd 10000 dump.dcd
dump_modify     myDump append yes
dump_modify     myDump2 append yes


variable natoms 	equal  "count(all)"                        # NUMBER ATOMS
variable H      	equal  "enthalpy/v_natoms"                 # ENTHALPY-per-atom
variable Vol      	equal  "vol/v_natoms"                 # volume-per-atom
fix AVG all 		ave/time ${out_freq} 1 ${out_freq} v_Vol v_H file vol_enthalpy.dat
fix AVG all 		ave/time 1000 1 ${out_freq} v_Vol v_H file vol_enthalpy.dat
fix AVG all 		ave/time 1000 1 1000 v_Vol v_H file vol_enthalpy.dat


timer           timeout 23:50:00 every 1000
New timer settings: style=normal  mode=nosync  timeout=23:50:00

fix 		1 all shake 1e-6 200 0 b 1 a 1
       0 = # of size 2 clusters
       0 = # of size 3 clusters
       0 = # of size 4 clusters
     288 = # of frozen angles
  find clusters CPU = 0.140 seconds
fix             2 all nph iso ${pressure} ${pressure} ${pressureDamp}
fix             2 all nph iso 11125 ${pressure} ${pressureDamp}
fix             2 all nph iso 11125 11125 ${pressureDamp}
fix             2 all nph iso 11125 11125 1000
fix             3 all temp/csvr ${temperature} ${temperature} ${tempDamp} ${seed}
fix             3 all temp/csvr 269.16 ${temperature} ${tempDamp} ${seed}
fix             3 all temp/csvr 269.16 269.16 ${tempDamp} ${seed}
fix             3 all temp/csvr 269.16 269.16 100 ${seed}
fix             3 all temp/csvr 269.16 269.16 100 745823

run             250000
PPPM initialization ...
  extracting TIP4P info from pair style
  using 12-bit tables for long-range coulomb (../kspace.cpp:340)
  G vector (1/distance) = 0.37494564
  grid = 24 24 24
  stencil order = 5
  estimated absolute RMS force accuracy = 0.0030838277
  estimated relative force accuracy = 9.2868554e-06
  using double precision FFTW3
  3d grid and FFT values/proc = 2535 216
Last active /omp style is kspace_style pppm/tip4p/omp
Neighbor list info ...
  update every 1 steps, delay 7 steps, check yes
  max neighbors/atom: 2000, page size: 100000
  master list distance cutoff = 10.8154
  ghost atom cutoff = 10.8154
  binsize = 5.4077, bins = 4 4 4
  1 neighbor lists, perpetual/occasional/extra = 1 0 0
  (1) pair lj/cut/tip4p/long/omp, perpetual
      attributes: half, newton on, omp
      pair build: half/bin/newton/omp
      stencil: half/bin/3d
      bin: standard
Per MPI rank memory allocation (min/avg/max) = 9.238 | 9.241 | 9.245 Mbytes
Step Temp PotEng TotEng E_pair E_mol Press Lx Ly Lz Volume Pxx Pyy Pzz Pxy Pxz Pyz Enthalpy 
16500000      277.452   -3823.4091   -3347.8658   -3823.4091            0    11790.912    16.834541    19.828865      20.5381    6855.8198    10370.341    12198.138    12804.256   -296.73285    675.84973   -1332.0712   -2168.9504 
16501000    272.18308   -3832.6733   -3366.1608   -3832.6733            0    12175.257    16.822375    19.814535    20.523258    6840.9669    11861.061    12727.747    11936.961    2300.5442   -129.57862    193.90308   -2151.4539 
16502000    263.54339   -3807.8346   -3356.1302   -3807.8346            0    11262.682    16.845398    19.841653    20.551346    6869.0928     11163.56    11198.495    11425.992    24.492953   -1132.1696    1904.7996   -2227.8497 
16503000    269.18432   -3812.3786   -3351.0058   -3812.3786            0    11998.159    16.800408    19.788661    20.496458    6814.2026    11053.524    11911.477    13029.476    1916.9563    515.59671    1359.2269   -2158.6509 
16504000    258.93296   -3863.0397   -3419.2375   -3863.0397            0     8151.956    16.888591    19.892529    20.604042    6922.0678    8268.0203    7929.7094    8258.1384   -219.66193    919.58836   -410.19945   -2596.2873 
16505000    255.17066   -3819.5292   -3382.1754   -3819.5292            0    9805.5621    16.843188    19.839051     20.54865    6866.3905    9991.0023    9696.8847    9728.7992    829.86348   -1289.4353    865.55961   -2400.2537 
16506000    275.06693   -3824.3068   -3352.8515   -3824.3068            0     10930.66    16.778713    19.763108    20.469991     6787.839    10669.456    12020.744    10101.781    49.598426     961.2624    779.96479   -2270.7853 
16507000    269.98015   -3821.1642   -3358.4275   -3821.1642            0    12038.228    16.810309    19.800323    20.508538    6826.2576    12928.926    11746.834    11438.924    236.61731   -649.52366   -227.53473   -2159.9742 
16508000     272.0308   -3828.8939   -3362.6424   -3828.8939            0     9955.484    16.880974    19.883558    20.594749    6912.7066    10049.267     10952.87    8864.3151   -990.94895     1050.513    22.847171    -2358.983 
16509000     272.9774   -3807.3266   -3339.4527   -3807.3266            0    11902.289    16.818911    19.810455    20.519032    6836.7418    12429.498    11531.662    11745.708   -101.92385     1122.421    365.99023   -2152.7127 
16510000    264.22301   -3844.0343   -3391.1651   -3844.0343            0    11623.979    16.841654    19.837243    20.546778    6864.5137    11683.695    13208.517    9979.7234    2331.9597    499.44371    1701.9459   -2227.4666 
16511000    274.91569   -3859.8372   -3388.6411   -3859.8372            0    11810.368    16.848791     19.84565    20.555485    6873.2445    11134.389    10985.222    13311.493   -49.937546    1667.9413   -968.24645   -2204.7791 
16512000     266.7332   -3789.9732   -3332.8016   -3789.9732            0    10811.022     16.86734    19.867498    20.578115      6895.97    10678.138    10696.616    11058.311    1032.2379   -417.42984   -656.84997   -2245.5301 
16513000     269.1658   -3795.0435   -3333.7026   -3795.0435            0     11109.88    16.824941    19.817558    20.526389    6844.0983    11176.257     10164.78    11988.603   -153.18039    681.20977    542.58943   -2224.7793 
16514000    251.56972    -3817.604   -3386.4222    -3817.604            0    11041.393    16.791751    19.778465    20.485897     6803.675    10460.769    10497.618    12165.793   -1150.0734    912.19471    489.81486   -2290.8441 
16515000    268.85436   -3818.4931    -3357.686   -3818.4931            0    11067.821    16.786702    19.772518    20.479737    6797.5393     10048.06    10365.723    12789.679    698.20248   -558.82738       359.43    -2260.476 
16516000    264.90254   -3832.7662   -3378.7323   -3832.7662            0    13751.129    16.764716    19.746621    20.452915    6770.8658    14025.778    14030.795    13196.813   -272.98096   -971.58214    43.369122   -2020.8615 
16517000     272.7825   -3853.1563   -3385.6165   -3853.1563            0    9818.4663    16.806873    19.796276    20.504346    6822.0725    11032.824    8050.7971    10371.778   -248.98942    -480.0351     114.2817   -2408.7485 
16518000    265.45079   -3896.5494   -3441.5759   -3896.5494            0    9840.8344    16.808512    19.798207    20.506345    6824.0685    9198.1385    9826.0645      10498.3   -24.459108   -158.88911    297.30088   -2462.1959 
16519000    265.26367   -3854.8899    -3400.237   -3854.8899            0    12095.732    16.790616    19.777128    20.484512    6802.2954    11385.225    12647.319    12254.651    839.19858   -604.31226    1117.1751    -2200.286 
16520000    248.58633   -3842.0379   -3415.9694   -3842.0379            0     10768.55    16.808796    19.798541    20.506692    6824.4145    10845.866    11209.384    10250.399    391.08885   -132.25432    1036.3859   -2344.2071 
16521000    270.74551    -3861.749   -3397.7004    -3861.749            0    12505.125    16.781572    19.766476    20.473479    6791.3097    12352.406    12432.385    12730.583   -296.60898    1405.4641    641.67047   -2159.1393 
16522000    275.71087    -3836.729     -3364.17    -3836.729            0     11097.18    16.803944    19.792826    20.500772    6818.5064    8319.9819    11318.091    13653.468    -978.8901   -777.31764     363.0122   -2260.6562 
16523000    245.15949   -3830.2718   -3410.0768   -3830.2718            0    12189.799    16.814612    19.805392    20.513788    6831.5016    10685.552    13249.045      12634.8    395.98194    321.49963   -162.86682   -2195.6017 
16524000    268.96035   -3783.3762   -3322.3873   -3783.3762            0    12939.726    16.838738    19.833809    20.543221    6860.9493    11551.366    14106.905    13160.907   -971.36328    730.94828    1114.3084   -2027.6395 
16525000    267.47289    -3817.079   -3358.6397    -3817.079            0    9544.6142    16.914184    19.922675    20.635265    6953.5846    8860.0195    9581.7035     10192.12    -398.1045    712.24446    2227.6785   -2390.7117 
16526000    279.56832   -3825.7109   -3346.5403   -3825.7109            0    11509.448    16.851289    19.848593    20.558533    6876.3027    12493.527    11862.285    10172.532    1146.4493   -1.4457998    843.80853   -2192.3289 
16527000    283.70065    -3824.034   -3337.7808    -3824.034            0    10554.282    16.838184    19.833157    20.542546    6860.2726    10647.863     11550.53     9464.453     181.4238     804.4542   -333.90315   -2281.8245 
16528000    271.95385   -3842.5542   -3376.4346   -3842.5542            0    12052.404    16.786703    19.772518    20.479738    6797.5401    11404.778    10298.032    14454.401    565.64413   -1041.7592    146.39539   -2181.6178 
16529000     253.1246   -3830.3146   -3396.4677   -3830.3146            0      12555.2    16.819711    19.811398    20.520008    6837.7178    11089.099    14221.547    12354.954   -722.98675    576.15459    27.461817   -2144.4494 
16530000    274.47508   -3807.1386   -3336.6977   -3807.1386            0     12558.33    16.836043    19.830635    20.539933    6857.6555    12387.302    11984.849     13302.84    752.38212   -1136.2181    1529.9975   -2080.7156 
16531000    274.15244   -3774.2626   -3304.3747   -3774.2626            0    11793.038    16.866555    19.866574    20.577158    6895.0082    10325.196    12348.005    12705.913    493.75853    912.75754    158.03575   -2118.5066 
16532000    264.19439   -3807.2855   -3354.4654   -3807.2855            0    11254.696    16.887893    19.891707     20.60319    6921.2095    12975.209    11075.554    9713.3231    1093.3007    363.05288   -383.60237   -2218.4306 
16533000    275.21529   -3832.1669   -3360.4573   -3832.1669            0    11038.656    16.883614    19.886667     20.59797    6915.9501    8964.2503    11689.619    12462.097    177.08124   -1202.6359   -620.97962    -2247.076 
16534000    251.94471    -3806.248   -3374.4234    -3806.248            0    12663.497    16.787614    19.773592     20.48085    6798.6477    13012.556     12950.94    12026.996    960.25075    626.67298    1322.3224   -2118.8211 
16535000    271.48532   -3864.2972   -3398.9806   -3864.2972            0    12542.968    16.770171    19.753046    20.459569    6777.4771    12055.367    13487.379    12086.157   -931.59288   -417.42868   -87.736546   -2159.2017 
16536000    257.72871   -3828.5311   -3386.7929   -3828.5311            0    11464.806    16.828651    19.821928    20.530915    6848.6268    11640.342    12476.672    10277.403    997.29449    1195.5577   -1419.7575   -2241.6859 
16537000    279.78694   -3836.4405   -3356.8953   -3836.4405            0    9498.8859    16.832999    19.827049    20.536219    6853.9361    9775.1833    8754.8702    9966.6043    431.86497   -1970.2238    1065.1974   -2407.4092 
16538000    274.63568   -3829.5926   -3358.8765   -3829.5926            0    11444.009    16.787524    19.773485     20.48074    6798.5376    13381.401    10605.541    10345.084   -435.73121    36.968703    104.69656   -2224.2065 
16539000    281.31853   -3855.6985   -3373.5281   -3855.6985            0    9202.9684    16.843493    19.839409    20.549022    6866.7627    10774.117     9207.396    7627.3926   -298.23613   -240.69594    1087.1522   -2451.8997 
16540000    258.51089   -3824.7093   -3381.6305   -3824.7093            0    9663.0771    16.846405     19.84284    20.552575    6870.3256    7828.2277    12023.895    9137.1084   -951.96368    -757.1724   -1211.3034   -2413.4225 
16541000    268.99964   -3817.4814   -3356.4252   -3817.4814            0    10928.104    16.850386    19.847529    20.557431     6875.197    10566.939    10346.387    11870.986   -372.13799    593.10563    -1491.199   -2260.6894 
16542000    273.77754   -3836.4658   -3367.2205   -3836.4658            0    10029.171    16.786343    19.772095    20.479299    6797.1031    10281.121    10611.258    9195.1322   -200.35249    710.08584   -162.03576   -2373.0411 
16543000    272.92237   -3822.8646    -3355.085   -3822.8646            0    12063.557    16.781803    19.766747    20.473761    6791.5899    13371.315    12263.752    10555.604   -633.03734    103.85874    -2133.188   -2160.2094 
16544000    275.54814   -3849.5817   -3377.3016   -3849.5817            0    10678.623    16.833156    19.827235    20.536411    6854.1288     11032.68    10349.894    10653.294   -732.13509    1254.1469   -64.888292   -2309.8617 
16545000    261.70859   -3878.4808   -3429.9213   -3878.4808            0    11849.466    16.729054    19.704615    20.409406     6727.748    12371.261    10350.982    12826.156    -2193.646    773.13304   -642.44049   -2267.2836 
16546000    264.80366   -3838.2006   -3384.3362   -3838.2006            0    13150.849    16.778498    19.762855    20.469729    6787.5782    12717.611    14397.242    12337.693   -423.84274    3140.1958    860.92431   -2082.5354 
16547000     261.6269    -3848.128   -3399.7085    -3848.128            0    10935.813     16.80396    19.792846    20.500792    6818.5266    10683.068    13198.673    8925.6992   -1307.4475    1845.6147    1111.0718   -2312.2379 
16548000    280.08305   -3872.9988    -3392.946   -3872.9988            0    10585.742    16.828613    19.821883    20.530868      6848.58    10753.174    10663.963    10340.088    1088.5806    1604.0708    54.682513   -2335.6473 
16549000    272.78949   -3870.5416   -3402.9897   -3870.5416            0    11216.446    16.843343    19.839233    20.548839    6866.5795     10563.29    12601.971    10484.077   -1169.6601    1709.5201   -877.48204   -2279.7522 
16550000    264.70316   -3860.8598   -3407.1676   -3860.8598            0    11150.083    16.843027    19.838861    20.548453    6866.1931    12451.837    11292.957    9705.4537   -1278.6507   -39.862253    60.878499   -2290.6387 
16551000    274.43107   -3848.1778   -3377.8123   -3848.1778            0    9858.5685    16.808902    19.798666    20.506821    6824.5432    12852.131    10057.642     6665.933    587.35307   -519.70224    357.47365   -2396.5992 
16552000    265.66455     -3866.47   -3411.1301     -3866.47            0    12067.805      16.7727    19.756026    20.462655    6780.5444    12596.681    10983.611    12623.123   -242.83198     393.4951   -121.48604   -2217.7776 
16553000    269.87114   -3864.8563   -3402.3064   -3864.8563            0    13365.038    16.772253    19.755498    20.462109    6780.0012    13929.151    13309.229    12856.733   -1033.6237    315.78633   -14.655936     -2080.78 
16554000    278.16174   -3853.1149   -3376.3552   -3853.1149            0    11716.184     16.82311    19.815401    20.524155     6841.864    13705.294    9811.1704    11632.087   -178.43658    1152.6413    63.161789    -2207.296 
16555000    271.09327   -3858.5166    -3393.872   -3858.5166            0    11663.808    16.851325    19.848635    20.558577    6876.3461    13397.781    11868.158    9725.4854    365.74015   -462.68997   -638.09112   -2224.1734 
16556000    270.03298   -3795.6332   -3332.8059   -3795.6332            0    11367.702      16.8062    19.795483    20.503524    6821.2527    11959.287    13340.092     8803.729    330.70486    89.248998    1692.5224   -2201.9358 
16557000    279.09187   -3846.1165   -3367.7626   -3846.1165            0    12880.243    16.780625     19.76536    20.472324    6790.1603    14035.728    13217.923    11387.076    981.02284    2140.8795    665.84697   -2092.2641 
16558000    274.78401   -3841.1346   -3370.1642   -3841.1346            0     10754.79    16.836253    19.830882    20.540189     6857.912    11152.013    13121.306    7991.0495    2099.0541     998.0228   -205.54456   -2294.5174 
16559000    264.86971   -3840.0695   -3386.0919   -3840.0695            0    10691.248    16.874342    19.875745    20.586657    6904.5614    11156.318     11525.94    9391.4871   -48.934417    1135.9136   -97.828271   -2309.5265 
16560000    264.24184   -3857.6937   -3404.7922   -3857.6937            0    10227.414      16.8355    19.829995    20.539271    6856.9919     9577.381     11143.81    9961.0501   -242.81857    221.26185     1308.347   -2382.0284 
16561000    274.82033   -3847.8446   -3376.8119   -3847.8446            0    10385.496     16.83688    19.831621    20.540954    6858.6786    10377.569    10788.699    9990.2201    2133.8778   -717.94244    317.59728   -2337.9841 
16562000    270.16815   -3818.4123   -3355.3534   -3818.4123            0     10088.25    16.875003    19.876525    20.587465    6905.3738    9309.9952     11085.84    9868.9145   -159.06789    496.45347     770.6736    -2339.388 
16563000    272.24272   -3807.8961   -3341.2814   -3807.8961            0    10895.158    16.870616    19.871357    20.582112    6899.9892    9440.2862    11604.471    11640.717   -1455.8818    1483.0795   -1745.4762   -2244.9096 
16564000    267.20037   -3831.8733   -3373.9011   -3831.8733            0    11752.897    16.818147    19.809555      20.5181    6835.8102    10414.265    12915.277     11929.15   -804.97355   -152.03956   -190.84373   -2202.2162 
16565000    257.93915   -3853.0476   -3410.9487   -3853.0476            0    11108.075    16.817914    19.809281    20.517816    6835.5263    9745.3462    12597.045    10981.835    1474.6384   -559.50249    1927.2514   -2303.5942 
16566000    285.10023   -3850.0058   -3361.3537   -3850.0058            0    11161.517    16.860911    19.859926    20.570272     6888.088    12413.106      9874.72    11196.725   -931.35398    -1218.484   -1562.2903   -2240.1157 
16567000    262.88158   -3873.5155   -3422.9454   -3873.5155            0    9679.7316    16.854493    19.852366    20.562442     6880.225    9412.7126    10340.474    9286.0079   -916.40359   -1272.3099   -1240.3768   -2451.6713 
16568000      286.568   -3879.2817   -3388.1139   -3879.2817            0    10642.672    16.833118    19.827189    20.536364    6854.0817    10928.365    11771.962    9227.6889   -597.02101   -3035.1619    1325.2511   -2324.2751 
16569000    257.00949   -3866.0794   -3425.5739   -3866.0794            0    10723.663    16.858165    19.856692    20.566922    6884.7235    12139.279    9433.2804    10598.431    958.59085   -601.97858     815.4496    -2348.847 
16570000    256.55937    -3818.836    -3379.102    -3818.836            0     11013.62    16.852843    19.850423    20.560429    6878.2052    10476.261    11882.134    10682.467    577.24872   -121.34438    115.05042   -2274.3085 
16571000    265.78028   -3822.1483     -3366.61   -3822.1483            0    13249.068    16.823288    19.815611    20.524372    6842.0808    12842.549     11473.12    15431.536   -872.60418    2370.1903     2147.308   -2044.5553 
16572000    288.65057   -3817.0638   -3322.3266   -3817.0638            0     12067.07    16.848475    19.845278      20.5551    6872.8577     11452.93    12112.398    12635.881     1296.936   -324.97741    20.242413    -2112.801 
16573000    266.51428   -3883.8961   -3427.0997   -3883.8961            0    10990.059     16.74981    19.729064    20.434729     6752.821    13673.559    10573.249    8723.3695    3.5024984    1064.5192    89.479243   -2344.7661 
16574000    284.48552   -3876.8726   -3389.2741   -3876.8726            0    10790.681    16.782779    19.767897    20.474951    6792.7747    9077.5986    11834.441    11460.004    1314.3206    44.880584   -2080.9494   -2320.2883 
16575000    273.36907   -3835.5825   -3367.0373   -3835.5825            0     10941.05     16.73569    19.712432    20.417502    6735.7573    10667.682    9916.6032    12238.863    666.40884   -721.08751   -148.08778    -2292.253 
16576000    268.39059   -3849.1638   -3389.1515   -3849.1638            0    10745.178    16.820565    19.812404     20.52105    6838.7597    9161.5435    11653.971    11420.021   -73.051667    781.72038   -1123.6762   -2317.4672 
16577000    261.46295   -3841.9984   -3393.8598   -3841.9984            0    13588.319    16.753825    19.733793    20.439628    6757.6785    13216.053    13729.491    13819.414    284.66174    1018.2153    107.64582   -2054.6792 
16578000    278.38137    -3826.166   -3349.0299    -3826.166            0    11144.035    16.808844    19.798598     20.50675    6824.4731    11927.606    12579.876    8924.6228   -2205.1803    675.48842    2473.4167    -2239.887 
16579000    252.39384   -3823.3959   -3390.8015   -3823.3959            0    10747.951    16.776198    19.760146    20.466923    6784.7876    9845.2654    11444.164    10954.423    659.34387    403.10928     1975.659   -2327.3007 
16580000    270.20757    -3807.862   -3344.7355    -3807.862            0    11136.616    16.853807    19.851559    20.561605    6879.3855    9630.4894    11870.756    11908.604    178.06975   -1914.3454    1253.4952   -2227.4123 
16581000    269.02573   -3843.4322   -3382.3313   -3843.4322            0    10964.661     16.79381     19.78089    20.488409    6806.1776    10524.473    10717.024    11652.484    -35.02083    410.59964    1475.0978   -2293.9668 
16582000    268.95059   -3853.6857   -3392.7136   -3853.6857            0    13558.453     16.72682    19.701985    20.406681    6725.0534    12872.119    16261.748    11541.493    1312.7644   -301.05005   -205.29394   -2062.9275 
16583000    253.37408   -3794.3101   -3360.0355   -3794.3101            0    11452.367    16.735305    19.711979    20.417033    6735.2928    11675.422    11210.237     11471.44   -104.51841    16.734861    914.29846   -2235.1001 
16584000    288.17188   -3814.4786   -3320.5619   -3814.4786            0    11444.265    16.794694    19.781932    20.489488    6807.2532    11802.681    10285.182     12244.93    97.567728    329.95004     1659.301   -2184.4119 
16585000    267.22219   -3813.9229   -3355.9132   -3813.9229            0    12487.142     16.74539    19.723857    20.429336    6747.4762    13588.309     12627.96    11245.158      1500.95    117.50166   -940.27875   -2127.1158 
16586000    261.45093   -3806.2822   -3358.1643   -3806.2822            0    9875.8925    16.854038     19.85183    20.561887    6879.6681    10563.486    8675.5518     10388.64   -1015.7949   -629.52503   -1121.7416   -2367.2873 
16587000    264.56489   -3855.6976   -3402.2424   -3855.6976            0    11429.932    16.809097    19.798896    20.507059    6824.7817    10587.039    11886.566    11816.192   -2161.6703    790.20057    852.18804   -2264.5933 
16588000    284.14213   -3856.8045   -3369.7946   -3856.8045            0    9802.8422    16.878051    19.880114    20.591182    6909.1155    9837.3495    10633.155    8938.0227    25.848263   -126.61694   -59.044693    -2382.037 
16589000    250.25288   -3868.4194   -3439.4946   -3868.4194            0    12502.362    16.795613    19.783013    20.490608    6808.3698    13229.004    13878.946    10399.136    123.20314   -1403.0861    325.55892   -2198.0964 
16590000    263.72081   -3855.3778   -3403.3694   -3855.3778            0     9911.089    16.810834    19.800942    20.509179    6826.8979    11027.977    8986.4727    9718.8171   -1587.9993    224.58366    817.35691   -2416.5886 
16591000    245.46659   -3841.3006   -3420.5793   -3841.3006            0    9275.0495    16.870104    19.870754    20.581487    6899.3609    10085.473    10932.686    6806.9895    1136.0084    423.09216    1054.2989   -2487.3229 
16592000    273.63219   -3811.7664   -3342.7701   -3811.7664            0    12965.254    16.841096    19.836587    20.546098     6863.832    12089.051     14773.17     12033.54    1881.0778    150.03067    714.63037    -2044.923 
16593000    281.05169    -3856.871    -3375.158    -3856.871            0    10589.873    16.826093    19.818915    20.527794    6845.5039    11248.124    12740.599    7780.8956    921.64467    -1283.227    -1319.217   -2317.9217 
16594000    268.19581   -3819.0496   -3359.3712   -3819.0496            0    11570.047      16.8119    19.802197    20.510478    6828.1956    13680.877    9140.1879    11889.078    -119.9393   -2397.5993   -295.59776   -2207.2001 
16595000    256.89132   -3806.6204   -3366.3175   -3806.6204            0    10638.733    16.870022    19.870657    20.581387    6899.2602    12454.594    9173.1164    10288.488    2858.4437   -761.28294    512.60217   -2295.8627 
16596000    268.03733   -3790.9499   -3331.5431   -3790.9499            0    11673.517    16.833299    19.827403    20.536585    6854.3029    13077.419    11283.578    10659.553   -104.50484    1161.1471   -360.94457   -2164.6236 
16597000    282.04825   -3855.7052   -3372.2841   -3855.7052            0    11691.501    16.836917    19.831665       20.541    6858.7241    11495.942    10528.091    13050.469   -696.61461    1179.7293    2390.4628    -2202.813 
16598000    270.37284   -3868.1111   -3404.7013   -3868.1111            0     10404.21    16.849757    19.846788    20.556664    6874.4267    9340.2101    9684.7132    12187.706   -1161.3952    516.92053   -1468.0224   -2361.6121 
16599000    271.45108   -3830.7576   -3365.4997   -3830.7576            0    10712.979    16.802827    19.791511     20.49941    6817.1473    10703.049    10640.066    10795.821   -1458.4735   -949.35895    239.98225   -2300.4036 
16600000    273.00547   -3869.2028   -3401.2807   -3869.2028            0    12441.437    16.771888    19.755069    20.461664     6779.559    14864.907    11175.996    11283.407    1795.0543    839.94631   -685.73188   -2171.1596 
16601000    263.76274   -3863.2845   -3411.2042   -3863.2845            0    11438.493    16.774941    19.758664    20.465388    6783.2616    13357.313    12835.778    8122.3864   -334.68811    792.14466   -1377.8348   -2279.6294 
16602000    278.03789   -3836.6407   -3360.0933   -3836.6407            0    11843.123    16.806636    19.795997    20.504056    6821.7838    11918.393    11356.894    12254.083   -366.12982   -485.51538   -240.10888   -2181.8362 
16603000    264.58215   -3830.6356   -3377.1509   -3830.6356            0    10652.812    16.890587     19.89488    20.606476    6924.5217    9009.1402    9739.1361    13210.161   -1363.2029     530.8669   -1406.0501   -2301.3548 
16604000    270.35977   -3843.6684    -3380.281   -3843.6684            0    12778.322    16.798542    19.786463    20.494181    6811.9323    12462.598    12292.515    13579.855   -182.14099   -1372.9979   -327.30225    -2110.818 
16605000    289.35383   -3829.8565   -3333.9139   -3829.8565            0    12167.086    16.830948    19.824633    20.533717    6851.4313      11528.9    10767.089     14205.27   -556.44505    1491.3171    1847.4188   -2118.1653 
16606000     272.6813   -3843.0918   -3375.7254   -3843.0918            0    10474.987    16.782018       19.767    20.474023    6791.8507     11341.49    10646.182    9437.2871   -733.96527   -2109.1866     819.6492   -2338.1552 
16607000    252.68282   -3819.7722   -3386.6825   -3819.7722            0    10519.976    16.793769    19.780842    20.488359    6806.1282    9801.7936    10847.653    10910.483   -859.48559    -1370.268   -1898.9373   -2342.4654 
16608000    271.95214   -3826.6096    -3360.493   -3826.6096            0    10837.871    16.791919    19.778662    20.486102    6803.8788    11312.334    11268.012    9933.2687    87.024338    50.780501   -644.68297   -2285.0771 
16609000    269.12347   -3850.0052   -3388.7367   -3850.0052            0    9205.4063    16.838814    19.833899    20.543314    6861.0423     10141.19    9250.3521    8224.6767    1696.7012    1721.8559     2730.161   -2467.6322 
16610000    265.49693   -3839.0683   -3384.0156   -3839.0683            0    11465.121    16.860238    19.859134    20.569451    6887.2637    10930.844    11847.032    11617.487   -270.47892    384.31933    827.23905   -2232.4168 
16611000    273.19005   -3874.9655   -3406.7271   -3874.9655            0    10447.944    16.815752    19.806735    20.515179    6832.8911    8988.9556    10359.004    11995.871    1039.7854    1629.4264    516.54505   -2365.5822 
16612000    276.23562   -3866.8036   -3393.3452   -3866.8036            0     8618.075    16.798637    19.786576    20.494298    6812.0485    9675.9621    8878.1381    7300.1249   -254.94187    2102.7131   -671.16813   -2537.1676 
16613000    265.47259   -3835.0817   -3380.0708   -3835.0817            0    9237.5457     16.76414    19.745943    20.452212    6770.1678    8620.7616    10403.691    8688.1849    385.40622    213.02324    223.03517   -2467.9929 
16614000    266.94533   -3801.4448   -3343.9097   -3801.4448            0    10559.954    16.834637    19.828978    20.538217    6855.9371    11305.724    10422.976     9951.164    -1137.438   -577.37494    1296.3858   -2288.0535 
16615000    281.41758   -3829.0994   -3346.7593   -3829.0994            0    11899.457    16.820429    19.812243    20.520884    6838.5931    11709.425    13270.528    10718.417   -1091.0345   -80.423191    716.24822   -2159.9805 
16616000    277.73563   -3840.1178   -3364.0885   -3840.1178            0    12058.357    16.799517    19.787612    20.495372    6813.1191    12273.292    12815.014    11086.766    1229.7473   -476.90806   -135.74843   -2165.9417 
16617000    258.82897   -3838.9123   -3395.2883   -3838.9123            0    10716.709     16.83981    19.835072    20.544529    6862.2602    11051.901    10396.769    10701.457    1630.1893   -2166.7068   -716.42521   -2322.7705 
16618000    257.40425   -3814.8496   -3373.6676   -3814.8496            0    12682.585    16.793977    19.781086    20.488612    6806.3806    11488.407    13426.738     13132.61     255.2706    501.59534    1626.0946   -2114.7424 
16619000    272.45172    -3845.723     -3378.75    -3845.723            0     10706.37    16.877514    19.879482    20.590528    6908.4564    11871.974    10295.885    9951.2493   -2803.7589   -1268.7365   -138.92981   -2300.0539 
16620000    277.05535   -3873.7057   -3398.8423   -3873.7057            0    11804.891    16.775141    19.758901    20.465633    6783.5049    12378.944    12540.334    10495.396    361.19445   -252.93371    476.76969    -2230.979 
16621000    280.65902   -3869.6734   -3388.6335   -3869.6734            0    13153.962    16.808476    19.798164    20.506301    6824.0249    13854.844    12537.783     13069.26    16.816527    729.43331   -1109.4655   -2079.5327 
16622000    271.22377   -3808.7854   -3343.9172   -3808.7854            0    11492.279    16.811047    19.801193    20.509438    6827.1571    11330.393    9536.9962    13609.448    443.34157    1905.0795    121.33089   -2199.6645 
16623000     260.1733   -3845.9367   -3400.0085   -3845.9367            0     10267.61    16.812625    19.803051    20.511363    6829.0794    10762.425    10466.878    9573.5259    -200.7161    1909.4754    957.53871   -2377.4047 
16624000    276.40666   -3802.8706    -3329.119   -3802.8706            0    11403.111    16.831684    19.825501    20.534616     6852.331    12742.735    11476.135    9990.4621    172.65285   -735.05644    134.76421    -2189.558 
16625000     292.7781   -3808.2501   -3306.4384   -3808.2501            0    12002.942    16.826133    19.818963    20.527844    6845.5536    11713.787    10938.132    13356.907     679.1264    176.65823    437.26749   -2108.1202 
16626000    270.15641   -3822.1832   -3359.1444   -3822.1832            0    12091.511    16.796614    19.784192     20.49183    6809.5874    11884.865    10490.842    13898.824    1499.3397   -272.89451   -984.70072   -2158.3262 
16627000    273.62359   -3825.5139   -3356.5324   -3825.5139            0    11959.856    16.777964    19.762226    20.469077    6786.9303    12370.258    13579.672    9929.6368    1277.8638    541.30538    -1371.608   -2172.7409 
16628000    274.75946   -3827.6112   -3356.6829   -3827.6112            0     13059.95    16.776249    19.760205    20.466985    6784.8489    12636.822    13712.724    12830.305   -1848.8835     -107.978   -2539.2615      -2064.4 
16629000    281.42576   -3837.7432   -3355.3891   -3837.7432            0    9563.7396    16.811675    19.801932    20.510204    6827.9216    9374.3998    8734.0209    10582.798   -265.38867   -64.865249   -142.55036   -2403.0488 
16630000     268.1957   -3874.3029   -3414.6246   -3874.3029            0    11490.604    16.835598    19.830111     20.53939     6857.112    12110.802    9961.1194    12399.891   -1200.0842    -202.9853   -2896.4287   -2265.5189 
16631000    263.41512   -3844.0627   -3392.5782   -3844.0627            0    13811.004    16.774538    19.758189    20.464897    6782.7726     12217.41    15595.176    13620.425    1214.0863    -1042.306    464.40629   -2026.3968 
16632000    265.44855   -3803.7698   -3348.8001   -3803.7698            0     9835.489    16.885047    19.888356    20.599718    6917.7115    10568.406    9897.0015    9041.0596    528.86001    565.82419   -815.18367     -2356.52 
16633000    254.57784   -3804.0827    -3367.745   -3804.0827            0    10633.392    16.803722    19.792565    20.500502    6818.2368    11482.529    8343.7607    12073.887    -1492.696    1454.5969    -221.4139   -2310.3925 
16634000    259.36252   -3859.6732   -3415.1347   -3859.6732            0    10532.132    16.820393    19.812202    20.520841    6838.5501     10134.36    10797.261    10664.775     -273.472   -567.71515   -869.87461   -2364.7311 
16635000    274.69977   -3858.4979   -3387.6719   -3858.4979            0    11156.611    16.781986    19.766963    20.473984    6791.8125     12838.16    9905.0046     10726.67   -995.97448    1225.2031   -1171.5676   -2282.5915 
16636000    272.88182   -3850.8251    -3383.115   -3850.8251            0    9979.0965    16.805489    19.794646    20.502657    6820.3876     9401.935    10021.437    10513.918   -342.13577   -92.846044   -1553.8531   -2390.5107 
16637000    267.60469     -3843.27   -3384.6047     -3843.27            0    10559.507    16.830055    19.823582    20.532628    6850.3409    10313.492    9707.9583    11657.069    578.51898   -552.65857    1139.3978   -2329.6552 
16638000    268.80865   -3818.3965   -3357.6676   -3818.3965            0    10722.008    16.822365    19.814524    20.523246    6840.9554    9859.1588    13436.307    8870.5585   -1284.4749    -513.7702   -2314.8854   -2287.9509 
16639000    258.31438   -3866.3197   -3423.5777   -3866.3197            0    10071.305    16.746134    19.724734    20.430245    6748.3762    9476.8929    9251.8174    11485.204    735.15938    -967.6187    635.20619   -2432.3786 
16640000    269.30436   -3843.6795    -3382.101   -3843.6795            0     9406.151     16.83716     19.83195    20.541295      6859.02    7814.9424    11735.573    8667.9373   -751.99647    172.97431   -1234.6768   -2441.1871 
16641000     258.0708   -3840.9092   -3398.5847   -3840.9092            0    9594.4116    16.762783    19.744344    20.450556    6768.5232    11827.968    8284.6175    8670.6488     451.1491   -598.13473   -592.21266   -2451.5014 
16642000    256.43675   -3814.1989   -3374.6751   -3814.1989            0    10433.413    16.803095    19.791827    20.499737    6817.4734    10471.357    9738.5562    11090.327    1036.4791   -196.69679    889.27564    -2337.324 
16643000    266.92941   -3846.3977   -3388.8899   -3846.3977            0    10412.949    16.786133    19.771847    20.479043    6796.8481    10049.821     10299.36    10889.665    2003.2429    486.14113   -958.56317   -2356.7057 
16644000    258.80583   -3833.3328   -3389.7484   -3833.3328            0    11265.366    16.798854    19.786832    20.494563    6812.3129    10840.101    12727.169    10228.829   -91.578607    127.33095    2118.2384   -2270.5276 
16645000    280.05581   -3851.6601    -3371.654   -3851.6601            0    10696.209    16.859017    19.857695    20.567962    6885.7675    10315.075    12502.469     9271.085     1133.841    982.57987   -161.93728   -2297.5208 
16646000    264.74748   -3868.3691    -3414.601   -3868.3691            0    9075.5762    16.861942    19.861141     20.57153     6889.352    9943.2752    9030.1353     8253.318   -968.12504   -209.02674    69.350124   -2502.7403 
16647000    251.17761    -3855.048   -3424.5381    -3855.048            0    10905.449    16.870216    19.870886    20.581624    6899.4985    11567.959     11144.43    10003.958    1411.6936   -2289.1816   -727.99575   -2327.2089 
16648000    268.04185   -3887.1326   -3427.7181   -3887.1326            0    11329.332    16.809449    19.799311    20.507489    6825.2106    10549.476    12195.076    11243.443   -1531.0119   -853.68852     146.6638   -2300.0112 
16649000    272.33717    -3794.059   -3327.2824    -3794.059            0    9499.3894    16.927503    19.938363    20.651515    6970.0248    9895.3304    9142.9225    9459.9152    174.44304   -1376.4629    426.40541   -2361.6632 
16650000    265.02765   -3824.9402   -3370.6919   -3824.9402            0    12947.597    16.799286    19.787339    20.495089    6812.8376    14513.405    13995.054    10334.331    16.673885   -584.13455   -1802.2428   -2084.2414 
16651000    277.47985    -3826.172   -3350.5811    -3826.172            0    11318.737    16.855678    19.853762    20.563888    6881.6765     8985.734    13387.622    11582.853    470.73351   -931.90077    1203.7222   -2214.6079 
16652000    257.39498   -3823.2175   -3382.0513   -3823.2175            0    10239.549    16.770956     19.75397    20.460527    6778.4285    10289.302    10114.308    10315.037    -1962.115    -217.0223   -2883.7426   -2369.8061 
16653000    264.87323   -3831.5547   -3377.5711   -3831.5547            0    10017.486    16.819235    19.810837    20.519428    6837.1375    10634.267    9364.5043    10053.687   -243.63471    2485.4381   -1350.7346   -2378.7011 
16654000    256.10349   -3852.4719   -3413.5192   -3852.4719            0    11852.997    16.792692    19.779574    20.487046    6804.8192    11697.647    10243.632    13617.711    9.2759728    2115.3151   -1114.4102   -2237.2124 
16655000    272.27739   -3856.8952   -3390.2211   -3856.8952            0    10786.232    16.780533    19.765251    20.472211    6790.0479    8925.8924    12323.357    11109.447   -212.30036    276.09195    574.47374    -2322.105 
16656000    246.23353   -3866.5742   -3444.5383   -3866.5742            0    11001.544    16.868655    19.869048     20.57972    6897.5836    12771.733    11895.944    8336.9545    1325.1763    2343.5872    406.85646    -2337.847 
16657000    273.44845   -3848.0283    -3379.347   -3848.0283            0    11230.676    16.755839    19.736165    20.442084    6760.1152    11352.874    10913.353    11425.802   -847.20753    1046.5285    561.85031    -2272.122 
16658000    268.97438   -3860.9993   -3399.9865   -3860.9993            0    8762.9748    16.872374    19.873428    20.584257     6902.147    8679.4486    9125.3297    8484.1459    -13.65054   -301.62196    632.87871    -2517.899 
16659000     261.1742   -3807.3945   -3359.7508   -3807.3945            0    11175.493    16.778936    19.763371    20.470263    6788.1098    10681.807    12413.728    10430.945    364.51683   -1024.3605   -864.79487   -2253.4036 
16660000    265.48232   -3801.0526    -3346.025   -3801.0526            0    12693.791    16.777273    19.761411    20.468233    6786.0908    11277.724    13048.378    13755.272   -1142.3987    -517.2822    34.478675   -2089.7437 
16661000    253.93296   -3850.9201   -3415.6877   -3850.9201            0    10781.655    16.821346    19.813324    20.522003    6839.7122    10712.117    10627.992    11004.857    1909.2151    1446.5796   -989.43376   -2340.2156 
16662000    267.93439   -3864.0431   -3404.8127   -3864.0431            0    10039.293    16.861639    19.860783     20.57116    6888.9802    10404.802    7164.7364     12548.34    2323.3286    184.66419   -942.79108   -2396.1779 
16663000    265.11804   -3810.4832     -3356.08   -3810.4832            0    10590.436    16.785478    19.771076    20.478244    6796.0529    13287.765    9317.2924    9166.2499    -385.1403   -544.42246   -1127.8462   -2306.4252 
16664000    273.67081   -3855.8368   -3386.7744   -3855.8368            0    9315.0696    16.842168    19.837849    20.547406    6865.1429    8636.4067    9350.4468    9958.3555    585.71524    536.49734    1596.6624   -2454.1396 
16665000     265.0135   -3816.1528   -3361.9287   -3816.1528            0    13472.206    16.755916    19.736255    20.442178    6760.2085    13637.991    14511.019    12267.607   -322.11578   -1141.5228    2067.1554   -2033.6944 
16666000     265.1068    -3795.439    -3341.055    -3795.439            0    12273.041    16.728454     19.70391    20.408675    6727.0249    12325.114    11704.505    12789.503   -895.19347    1505.5405     642.9101   -2136.9868 
16667000     270.7183   -3887.9532   -3423.9513   -3887.9532            0    10731.263    16.768419    19.750983    20.457432    6775.3532    11215.619    11412.755    9565.4164    66.724179    390.99509    1404.0256   -2363.5782 
16668000    283.90663   -3815.4522    -3328.846   -3815.4522            0    12480.454    16.813459    19.804034    20.512381    6830.0962    11134.473    14130.977     12175.91   -2663.8673     879.1462    887.28352   -2085.6686 
16669000    283.95658   -3818.7992   -3332.1073   -3818.7992            0     12218.69    16.813317    19.803867    20.512208    6829.9232    10611.446    15617.172    10427.451   -672.87357   -361.97746    1247.4914   -2115.0351 
16670000    274.96502   -3852.4214   -3381.1408   -3852.4214            0    11883.485    16.809543    19.799422    20.507604    6825.3251    11736.944    12703.436    11210.076   -272.15036    1055.5968   -1776.1007   -2198.2543 
16671000    270.49784   -3828.0417   -3364.4176   -3828.0417            0    12730.348    16.829467    19.822889     20.53191    6849.6226     13178.86    12261.239    12750.946    198.43122   -23.887133   -257.08057    -2092.723 
16672000    266.06689   -3833.6002   -3377.5706   -3833.6002            0    10725.309    16.859311    19.858041     20.56832    6886.1273     10515.22    10594.517    11066.191   -986.06713     257.9854   -1524.7944   -2300.4589 
16673000    262.15783   -3848.2964   -3398.9668   -3848.2964            0    12431.546    16.873964    19.875301    20.586197    6904.0984    13620.019    11174.412    12500.207    659.73841   -1325.4369   -124.51725   -2147.2445 
16674000    259.63649   -3852.5674   -3407.5594   -3852.5674            0    11045.341    16.874388      19.8758    20.586714    6904.6181    10401.372    12550.951      10183.7     1130.396    -1171.969   -364.73382   -2295.3292 
16675000    267.26601   -3832.6451   -3374.5603   -3832.6451            0     12460.31    16.806742    19.796123    20.504187    6821.9137    13003.663    13120.301    11256.967     341.4347    490.55373    1740.1265   -2134.8764 
16676000    269.15831   -3870.8201    -3409.492   -3870.8201            0    11737.293    16.742062    19.719938    20.425277     6743.455    12408.908     12088.21     10714.76    895.35191    100.50088       2152.7   -2255.1718 
16677000    268.88612   -3831.5946    -3370.733   -3831.5946            0    12063.917    16.789432    19.775733    20.483068    6800.8562    11801.655    11983.203    12406.892   -311.79297     485.1546   -1007.8797   -2174.1913 
16678000    267.52422    -3839.748   -3381.2207    -3839.748            0      12767.5    16.802384    19.790989    20.498869    6816.6076    11591.497    13434.451    13276.552   -1760.1112    603.68273   -895.53882   -2111.9622 
16679000    269.76291   -3859.2075   -3396.8431   -3859.2075            0    10566.356    16.821743    19.813791    20.522487    6840.1959    10494.989    10726.583    10477.496   -148.21322   -1200.4344    391.78658   -2342.7726 
16680000    268.13269   -3876.1952    -3416.625   -3876.1952            0    9451.1653    16.837698    19.832584    20.541952    6859.6777    9451.8889    8464.0388    10437.568   -1053.8508   -322.92039    1443.7874   -2471.1175 
16681000      283.065   -3860.8704   -3375.7067   -3860.8704            0    11076.072    16.787325    19.773252    20.480497    6798.2964    11716.679     12276.86    9234.6772   -1984.1297    766.99441    564.98369   -2277.5564 
16682000    272.98226   -3816.3423     -3348.46   -3816.3423            0      11662.6    16.845118    19.841324    20.551005    6868.7513    11996.129    11616.706    11374.965    324.84735    1068.2595    477.66641   -2180.1744 
16683000    269.23482   -3870.0994   -3408.6401   -3870.0994            0    9953.3405    16.843623    19.839563     20.54918    6866.9219    9214.8892    9368.6724     11276.46    667.76333    1055.8232   -542.86426   -2411.8428 
16684000    272.56792   -3851.1151    -3383.943   -3851.1151            0    12611.478    16.750313    19.729656    20.435343    6753.4293    14181.823    11630.399    12022.213    -506.7968   -796.85976    -45.85205   -2141.8153 
16685000    288.27047   -3857.1239   -3363.0382   -3857.1239            0    11176.793    16.829128     19.82249    20.531497    6849.2088    13131.171    10121.537    10277.669    469.75374   -654.76639   -819.04313   -2246.6031 
16686000    267.50202   -3805.8426   -3347.3533   -3805.8426            0    12017.951    16.767671    19.750101    20.456519    6774.4461    13334.121     11297.96    11421.773    1669.3952   -609.96042   -262.93432   -2159.9996 
16687000    267.49619   -3857.7281   -3399.2488   -3857.7281            0    13858.712    16.755452     19.73571    20.441613    6759.6477    15456.888     13628.89    12490.357   -1149.9955   -829.44488   -1180.7654    -2033.022 
16688000    282.31205   -3831.5769   -3347.7037   -3831.5769            0    12584.451    16.787896    19.773924    20.481194    6798.9899    13608.465    14025.109    10119.778    382.48854    1236.4618   -372.78465   -2099.8762 
16689000    266.39785   -3863.5255   -3406.9287   -3863.5255            0    12808.603    16.773263    19.756688    20.463342    6781.2265    12165.023    12168.643    14092.144    1239.0361    -100.4654   -211.15687   -2140.1933 
16690000    290.30585   -3823.4134   -3325.8391   -3823.4134            0    12373.605    16.775714    19.759576    20.466332    6784.2003     12755.89    10829.748    13535.177    943.39799   -37.397553    378.59836   -2101.5872 
16691000    263.36166   -3808.7054   -3357.3125   -3808.7054            0    11623.387     16.81722    19.808463    20.516969    6834.6798    11431.716    11367.394    12071.051    1538.6715   -620.23938    1674.7001   -2198.7306 
16692000    266.43783   -3807.9007   -3351.2354   -3807.9007            0    11066.925    16.827364    19.820412    20.529344    6847.0552    12036.411    10035.414    11128.951    1237.9658    220.62789    791.80575   -2246.1223 
16693000    271.18452   -3815.0275   -3350.2265   -3815.0275            0    13261.322     16.80868    19.798405     20.50655    6824.2735    15438.187    10689.505    13656.274    2044.1504   -811.31533   -1046.6932    -2030.393 
16694000    278.78129   -3810.3533   -3332.5318   -3810.3533            0    12818.435    16.775261    19.759041    20.465779    6783.6498    11166.293    14690.304    12598.708    225.22484   -553.94246   -318.66036    -2064.371 
16695000    282.28162     -3862.39   -3378.5689     -3862.39            0    11428.875    16.789606    19.775938     20.48328    6801.0673    10912.188     12028.93    11345.506    373.18222     1456.103    234.38987   -2244.9778 
16696000    264.67382   -3821.9531   -3368.3113   -3821.9531            0    10180.488    16.818101    19.809502    20.518044    6835.7547     9068.527    9541.8939    11931.044   -1397.5269   -1179.0611   -1781.2251   -2353.3932 
16697000    258.45016   -3809.2364   -3366.2616   -3809.2364            0    9337.6421    16.903907     19.91057    20.622727    6940.9173    8810.6096    9597.5121    9604.8046    1208.1126   -334.96792    1843.0215    -2421.048 
16698000    283.35486   -3824.9663   -3339.3058   -3824.9663            0    10497.782    16.826764    19.819705    20.528613    6846.3231    8648.0627    10416.876    12428.408    588.03587    914.71091    445.30175   -2291.1379 
16699000    280.82135   -3802.5563   -3321.2382   -3802.5563            0    9991.0203     16.82408    19.816544    20.525339     6843.048    11807.989    8518.9583     9646.114    17.596145    464.85484   -632.75804    -2324.146 
16700000     261.5226   -3808.3355   -3360.0947   -3808.3355            0    12263.555     16.78659    19.772386    20.479601    6797.4036    13947.695    11862.337    10980.633   -509.97502   -479.50052    256.96931   -2144.3697 
16701000    270.53948   -3833.4738   -3369.7784   -3833.4738            0    10034.464    16.850406    19.847553    20.557457    6875.2222    9608.8333     11895.73    8598.8292   -870.27064    927.21431   -572.94318   -2363.6421 
16702000     262.2175   -3808.0382   -3358.6064   -3808.0382            0    9814.2562    16.847132    19.843697    20.553462    6871.2152    9800.6762    11736.351    7905.7413   -1399.8781   -1207.7802    386.58798   -2375.1235 
16703000    268.19506   -3846.0615   -3386.3844   -3846.0615            0    12756.817    16.788273    19.774368    20.481654    6799.4485    13369.381    10935.749    13965.319   -1954.3783    207.24975   -883.52528   -2121.3804 
16704000    259.60957   -3837.0228   -3392.0609   -3837.0228            0    9195.9284    16.828308    19.821524    20.530497    6848.2085    7849.9594    10379.788    9358.0374   -2509.0921    1695.8591    354.92193   -2473.6258 
16705000    274.36294   -3889.0487      -3418.8   -3889.0487            0    12833.089    16.759862    19.740903    20.446992    6764.9858    12621.511    11691.356      14186.4    107.16923    -1626.301   -1687.4078   -2152.6826 
16706000    278.12577   -3874.2144   -3397.5164   -3874.2144            0     11380.04    16.788903     19.77511    20.482422    6800.2135    11743.783    10768.668    11627.668   -201.42895    1174.2857   -961.72029   -2268.9107 
16707000    249.36776   -3808.3418    -3380.934   -3808.3418            0    10335.443    16.825777    19.818543    20.527409    6845.1186    10337.706    12245.814    8422.8071    2857.1352    -1548.227    2943.1443   -2349.1567 
16708000    283.29372   -3845.0753   -3359.5196   -3845.0753            0     11644.89    16.775104    19.758857    20.465588    6783.4599    12335.033    7995.0362    14604.601    268.75671  -0.77748606    -44.03568   -2207.4929 
16709000    261.61543   -3840.1549    -3391.755   -3840.1549            0    11058.744    16.817507    19.808801    20.517319    6835.0298    10879.821    11421.221     10875.19    436.65578   -1629.6139     11.23241   -2289.3984 
16710000    278.24407   -3826.2102   -3349.3094   -3826.2102            0    11221.585    16.805936    19.795173    20.503202    6820.9316    11855.548    10747.106    11062.102   -474.18078    1217.4017    2202.2541   -2233.0277 
16711000    265.62954   -3837.4074   -3382.1275   -3837.4074            0    10867.304    16.759237    19.740167     20.44623    6764.2289    11138.835    10335.861    11127.216    586.34481     141.2972    1718.5242   -2310.0751 
16712000    273.72741   -3858.2864    -3389.127   -3858.2864            0    9755.6941    16.834817    19.829191    20.538437    6856.1576    9427.7932    10920.426    8918.8634    1299.8992    1693.2297    1835.1935   -2413.6549 
16713000    270.82445   -3837.8902   -3373.7063   -3837.8902            0    11241.392    16.812466    19.802864    20.511169    6828.8855    10408.692    12404.718    10910.766    2106.3841    3482.8237   -255.61244   -2254.1504 
16714000    260.71894   -3843.4137   -3396.5503   -3843.4137            0    11570.264     16.78579    19.771443    20.478624    6796.4311    11358.402    10693.791      12658.6    219.43712      17.3115   -1608.5682   -2249.7176 
16715000    257.14869   -3889.2642   -3448.5201   -3889.2642            0    11291.705    16.778421    19.762764    20.469634    6787.4845    9969.7435    13398.474    10506.899   -1345.6204    1298.8487   -1438.5356   -2330.7712 
16716000    269.48099    -3843.187   -3381.3058    -3843.187            0    11689.388    16.724356    19.699083    20.403676    6722.0823     12461.54    11458.457    11148.169    294.19694   -106.59901    210.24209   -2235.3404 
16717000    262.50586   -3870.8079   -3420.8818   -3870.8079            0    10880.793    16.774324    19.757938    20.464637    6782.5141    9420.0043     13609.02    9613.3548    72.750309    1134.8192   -61.049766   -2344.5972 
16718000    270.60651   -3855.5948   -3391.7845   -3855.5948            0    10281.092    16.882043    19.884817    20.596053    6914.0197    8787.2154    14008.091      8047.97    1906.6872    285.57668    -198.8593    -2355.102 
16719000    267.04182   -3837.8202   -3380.1197   -3837.8202            0    9859.9208    16.811106    19.801263    20.509511    6827.2292    10799.396    9808.7526    8971.6139     1082.192    636.43475   -292.19689   -2398.3857 
16720000    260.47148   -3882.5768   -3436.1376   -3882.5768            0    8991.6843    16.836658     19.83136    20.540684    6858.4075     10438.21    7588.7946    8948.0487    902.13152    1241.3784    1280.2099   -2536.7638 
16721000    264.29438   -3863.6756   -3410.6841   -3863.6756            0    8837.5732    16.907062    19.914286    20.626576    6944.8042    7676.0932    10231.815    8604.8109   -351.40043    1137.4847     76.38416   -2515.5895 
16722000    261.05586   -3846.5913   -3399.1505   -3846.5913            0    10812.269    16.813474    19.804052    20.512399    6830.1146    9295.2258    11702.105    11439.476    1350.2311    1806.1447   -995.92243    -2322.138 
16723000    280.67723   -3859.4707   -3378.3995   -3859.4707            0    11240.866    16.755775    19.736089    20.442006    6760.0379    10703.898    11784.296    11234.405    604.62362   -139.92434   -677.93781   -2270.1825 
16724000    273.33591   -3850.8957   -3382.4074   -3850.8957            0    10735.139    16.847839    19.844529    20.554324    6872.0797    11838.847    11189.735    9176.8358   -159.68625    98.741182   -1509.1565   -2306.5077 
16725000    270.62968   -3841.3108   -3377.4608   -3841.3108            0    11203.936    16.742982    19.721021    20.426399    6744.5664    12258.829    11013.976    10339.002   -1286.1522   -1419.4386    157.02421   -2275.4127 
16726000     265.9104   -3830.0089   -3374.2475   -3830.0089            0     12383.38    16.825399    19.818097    20.526947    6844.6571    13592.782    11141.324    12416.033    2491.2331    798.87701    432.52878   -2138.1101 
16727000    291.22394   -3828.6142   -3329.4663   -3828.6142            0    11913.901    16.792695    19.779577    20.487049    6804.8229    12411.598    11804.554    11525.551   -1031.0599   -509.58399    851.28688   -2147.1145 
16728000    267.22976   -3815.7055   -3357.6829   -3815.7055            0    12234.071    16.813875    19.804524    20.512888    6830.6027    12571.716    12201.452    11929.046   -526.56841    1141.5493    393.12537   -2138.9573 
16729000    274.84418   -3856.6289   -3385.5554   -3856.6289            0    11338.636    16.866909    19.866991     20.57759    6895.4419    11709.255    11849.895    10456.759   -503.44187   -382.35813    385.51977   -2245.3087 
16730000     275.3715   -3799.1185   -3327.1412   -3799.1185            0    11938.785     16.84568    19.841986    20.551691    6869.4388    12567.828    12117.162    11131.364    -208.1736    506.35321     116.6624   -2131.0693 
16731000    280.49758   -3853.8541   -3373.0909   -3853.8541            0    11085.701     16.80687    19.796272    20.504342    6822.0686    10002.343    11313.192    11941.568   -813.78245    210.40394   -467.54211   -2270.1426 
16732000    269.90148   -3857.3391   -3394.7372   -3857.3391            0      12320.5    16.831203    19.824934    20.534028    6851.7431    12426.252    9970.5531    14564.694    956.90751   -1021.1227     817.9866   -2163.6034 
16733000    276.14547   -3870.9624   -3397.6585   -3870.9624            0    9861.0804    16.822951    19.815214    20.523961    6841.6703    7973.6858    11410.968    10198.587    440.92687    80.502687    953.72666   -2413.7323 
16734000     269.8034   -3832.6027   -3370.1689   -3832.6027            0    10639.242    16.832163    19.826065      20.5352    6852.9154    8709.4184    11078.819    12129.488   -580.10197   -642.22702    1668.0429   -2306.8539 
16735000    258.38597   -3846.8769   -3404.0122   -3846.8769            0    10909.389    16.834259    19.828534    20.537757    6855.4764    10199.283    12162.679    10366.206    902.13988   -569.97241   -42.731712   -2313.2904 
16736000    259.92452   -3811.7638   -3366.2621   -3811.7638            0    12467.946    16.805997    19.795245    20.503277     6821.006    11875.889    12860.395    12667.555    44.466744   -462.82792   -428.32159   -2125.9835 
16737000    267.98358   -3837.2706   -3377.9559   -3837.2706            0    9008.2122    16.846048    19.842419    20.552139    6869.8884    10055.068      8597.89    8371.6788    262.61689    1644.0745   -409.30371   -2475.4206 
16738000    272.39952   -3821.8039   -3354.9205   -3821.8039            0    12532.723    16.835437    19.829921    20.539194    6856.9152    12186.676    12665.692    12745.802   -992.07827   -1085.3118    919.09343   -2101.6347 
16739000    270.43843   -3846.7587   -3383.2365   -3846.7587            0    9971.5549    16.805387    19.794527    20.502533    6820.2638    8753.1658    11582.349    9579.1499    2171.4281    533.89642    232.15709   -2391.4003 
16740000    263.30256    -3814.934   -3363.6424    -3814.934            0    10834.555    16.828172    19.821364    20.530331     6848.042    11699.172    11027.654    9776.8387   -905.37078    1882.3904    -502.9575   -2281.5774 
16741000     255.9586   -3828.2161   -3389.5119   -3828.2161            0     11527.67    16.808405    19.798081    20.506215     6823.939    10786.319    12795.733     11000.96    -319.0078    633.26735   -289.88428   -2242.2764 
16742000    263.99465   -3811.1797   -3358.7019   -3811.1797            0    11618.695    16.840816    19.836256    20.545756    6863.4892    11913.286    13415.284    9527.5148   -507.09364    108.33126   -1429.7699    -2195.706 
16743000    277.90909   -3836.3928   -3360.0661   -3836.3928            0    10715.469     16.85602    19.854165    20.564305     6882.096    11156.068    11973.391    9016.9475   -2075.6976    807.40502   -530.63445   -2284.5726 
16744000     267.0935   -3801.6127   -3343.8236   -3801.6127            0    11625.564    16.784515    19.769942    20.477069    6794.8833    11164.888    13581.627    10130.176    149.00429    772.21038   -518.89547    -2191.772 
16745000    288.68709   -3826.5228    -3331.723   -3826.5228            0    11653.572    16.869369    19.869889    20.580591    6898.4597    11874.414    11530.108    11556.194    10.396477    363.11986   -1840.1044   -2159.2926 
16746000    270.63327   -3813.3728   -3349.5167   -3813.3728            0    12478.161    16.801752    19.790245    20.498098    6815.8388    12707.607     10942.23    13784.646   -849.57129   -830.53973   -160.62802   -2109.1623 
16747000    262.98103   -3824.3213   -3373.5808   -3824.3213            0     10155.93     16.85625    19.854436    20.564586    6882.3774    11013.387    11222.401    8232.0018   -950.96321   -917.07561   -1042.7092   -2354.2056 
16748000    287.63384   -3828.1779   -3335.1833   -3828.1779            0    13680.671    16.787497    19.773455    20.480708    6798.5057    13292.596    13425.306    14324.111    48.902501   -1.6646215   -709.05683   -1978.7553 
16749000    254.43342   -3838.9398   -3402.8496   -3838.9398            0    12755.415    16.724802    19.699607    20.404219    6722.6193    13697.643     12362.11    12206.493     2473.744    493.11492   -816.50031   -2152.2767 
16750000    276.58575   -3813.2262   -3339.1677   -3813.2262            0    11032.288    16.754015    19.734017    20.439859    6757.9081    9886.3013     11694.58    11515.982    702.89658    232.27558   -1556.0146   -2251.8567 
Loop time of 448.382 on 64 procs for 250000 steps with 864 atoms

Performance: 96.346 ns/day, 0.249 hours/ns, 557.560 timesteps/s
99.1% CPU use with 64 MPI tasks x 1 OpenMP threads

MPI task timing breakdown:
Section |  min time  |  avg time  |  max time  |%varavg| %total
---------------------------------------------------------------
Pair    | 22.615     | 27.67      | 32.186     |  48.3 |  6.17
Bond    | 0.28462    | 0.29735    | 0.3119     |   0.9 |  0.07
Kspace  | 188.73     | 198.79     | 208.33     |  28.6 | 44.33
Neigh   | 5.4831     | 6.5021     | 7.4074     |  20.6 |  1.45
Comm    | 94.88      | 103.56     | 113.56     |  43.8 | 23.10
Output  | 1.4546     | 1.4569     | 1.4686     |   0.3 |  0.32
Modify  | 102.95     | 105.48     | 108.4      |  14.1 | 23.52
Other   |            | 4.629      |            |       |  1.03

Nlocal:        13.5000 ave          19 max          10 min
Histogram: 4 8 11 9 12 8 8 2 1 1
Nghost:        2328.81 ave        2362 max        2288 min
Histogram: 2 3 2 10 11 8 9 10 5 4
Neighs:        4558.97 ave        6287 max        2864 min
Histogram: 3 2 13 10 7 6 7 6 5 5

Total # of neighbors = 291774
Ave neighs/atom = 337.70139
Ave special neighs/atom = 2.0000000
Neighbor list builds = 14853
Dangerous builds = 0

unfix		3
unfix		2
unfix		1

write_data	data.final.${pid}
write_data	data.final.0
System init for write_data ...
PPPM initialization ...
  extracting TIP4P info from pair style
  using 12-bit tables for long-range coulomb (../kspace.cpp:340)
  G vector (1/distance) = 0.37533936
  grid = 24 24 24
  stencil order = 5
  estimated absolute RMS force accuracy = 0.0030401892
  estimated relative force accuracy = 9.1554396e-06
  using double precision FFTW3
  3d grid and FFT values/proc = 2535 216
Last active /omp style is kspace_style pppm/tip4p/omp
WARNING: Not all mixed pair coeffs generated from mixing. Use write_data with 'pair ij' option to store all pair coeffs. (../write_data.cpp:312)

write_restart   restart.lmp.${pid}
write_restart   restart.lmp.0
System init for write_restart ...
PPPM initialization ...
  extracting TIP4P info from pair style
  using 12-bit tables for long-range coulomb (../kspace.cpp:340)
  G vector (1/distance) = 0.37533936
  grid = 24 24 24
  stencil order = 5
  estimated absolute RMS force accuracy = 0.0030401892
  estimated relative force accuracy = 9.1554396e-06
  using double precision FFTW3
  3d grid and FFT values/proc = 2535 216
Last active /omp style is kspace_style pppm/tip4p/omp
Total wall time: 0:07:29
