LAMMPS (30 Jul 2021)
Processor partition = 0
  using 2 OpenMP thread(s) per MPI task
using multi-threaded neighbor list subroutines
variable        pid world 0 1
variable        phase world IceV IceIII

shell cd ${phase}
shell cd IceV
include Restart.lmp
echo both
log log.lammps
#include		in.partitions
include		in.temp
variable        temperature equal 206.47
variable	tempDamp equal 100.0
include		in.pressure
variable        pressure equal 7553.5
variable        pressureDamp equal 1000.0 # This is 1 ps
include		in.seed
variable        seed equal 745823

units		real
atom_style	full
read_restart    restart.lmp.${pid}
read_restart    restart.lmp.0
Reading restart file ...
  restart file = 30 Jul 2021, LAMMPS = 30 Jul 2021
  restoring atom style full from restart
  triclinic box = (-3.2152285 -0.17112854 0.066403473) to (14.825227 22.751128 19.163595) with tilt (-0.17324943 -6.4336954 0.35350809)
  2 by 4 by 4 MPI processor grid
  restoring pair style lj/cut/tip4p/long/omp from restart
  restoring bond style harmonic/omp from restart
  restoring angle style harmonic/omp from restart
  1008 atoms
  672 bonds
  336 angles
Finding 1-2 1-3 1-4 neighbors ...
  special bond factors lj:    0        0        0       
  special bond factors coul:  0        0        0       
     2 = max # of 1-2 neighbors
     1 = max # of 1-3 neighbors
     1 = max # of 1-4 neighbors
     2 = max # of special neighbors
  special bonds CPU = 0.002 seconds
  read_restart CPU = 0.009 seconds

include 	in.setup
variable	out_freq equal 1000
variable	out_freq2 equal 10000
variable	out_freq3 equal 1000

timestep	2.0

neigh_modify    delay 7 every 1

include		in.tip4p
# This is TIP4P/Ice

# create groups ###
group ox type 2
336 atoms in group ox
group hy type 1
672 atoms in group hy

# set charges - beside manually ###
set group ox charge -1.1794
Setting atom values ...
  336 settings made for charge
set group hy charge 0.5897
Setting atom values ...
  672 settings made for charge

# ### TIP3P Potential Parameters ###
pair_style lj/cut/tip4p/long/omp 2 1 1 1 0.1577 8.5
pair_coeff 1 1*2 0.000 0.000
pair_coeff 2 2 0.21084 3.1668
bond_style  harmonic
bond_coeff  1 450 0.9572
angle_style harmonic
angle_coeff 1 55 104.52
kspace_style pppm/tip4p/omp 1.0e-5
pair_modify tail yes

thermo          ${out_freq}
thermo          1000
thermo_style    custom step temp pe etotal epair emol press lx ly lz vol pxx pyy pzz pxy pxz pyz enthalpy

restart 	${out_freq3} restart.lmp.${pid} restart2.lmp.${pid}
restart 	1000 restart.lmp.${pid} restart2.lmp.${pid}
restart 	1000 restart.lmp.0 restart2.lmp.${pid}
restart 	1000 restart.lmp.0 restart2.lmp.0


include         in.dump
dump            myDump all atom ${out_freq2} dump.water.${pid}
dump            myDump all atom 10000 dump.water.${pid}
dump            myDump all atom 10000 dump.water.0
dump            myDump2 all dcd ${out_freq2} dump.dcd
dump            myDump2 all dcd 10000 dump.dcd
dump_modify     myDump append yes
dump_modify     myDump2 append yes


variable natoms 	equal  "count(all)"                        # NUMBER ATOMS
variable H      	equal  "enthalpy/v_natoms"                 # ENTHALPY-per-atom
variable Vol      	equal  "vol/v_natoms"                 # volume-per-atom
fix AVG all 		ave/time ${out_freq} 1 ${out_freq} v_Vol v_H file vol_enthalpy.dat
fix AVG all 		ave/time 1000 1 ${out_freq} v_Vol v_H file vol_enthalpy.dat
fix AVG all 		ave/time 1000 1 1000 v_Vol v_H file vol_enthalpy.dat



fix 		1 all shake 1e-6 200 0 b 1 a 1
Finding SHAKE clusters ...
       0 = # of size 2 clusters
       0 = # of size 3 clusters
       0 = # of size 4 clusters
     336 = # of frozen angles
  find clusters CPU = 0.000 seconds
fix             2 all nph tri ${pressure} ${pressure} ${pressureDamp}
fix             2 all nph tri 7553.5 ${pressure} ${pressureDamp}
fix             2 all nph tri 7553.5 7553.5 ${pressureDamp}
fix             2 all nph tri 7553.5 7553.5 1000
fix             3 all temp/csvr ${temperature} ${temperature} ${tempDamp} ${seed}
fix             3 all temp/csvr 206.47 ${temperature} ${tempDamp} ${seed}
fix             3 all temp/csvr 206.47 206.47 ${tempDamp} ${seed}
fix             3 all temp/csvr 206.47 206.47 100 ${seed}
fix             3 all temp/csvr 206.47 206.47 100 745823


run             250000
PPPM initialization ...
  extracting TIP4P info from pair style
  using 12-bit tables for long-range coulomb (../kspace.cpp:340)
  G vector (1/distance) = 0.37912803
  grid = 24 27 32
  stencil order = 5
  estimated absolute RMS force accuracy = 0.002473125
  estimated relative force accuracy = 7.4477425e-06
  using double precision FFTW3
  3d grid and FFT values/proc = 5355 672
Last active /omp style is kspace_style pppm/tip4p/omp
Neighbor list info ...
  update every 1 steps, delay 7 steps, check yes
  max neighbors/atom: 2000, page size: 100000
  master list distance cutoff = 10.8154
  ghost atom cutoff = 10.8154
  binsize = 5.4077, bins = 5 5 4
  1 neighbor lists, perpetual/occasional/extra = 1 0 0
  (1) pair lj/cut/tip4p/long/omp, perpetual
      attributes: half, newton on, omp
      pair build: half/bin/newton/tri/omp
      stencil: half/bin/3d/tri
      bin: standard
Setting up Verlet run ...
  Unit style    : real
  Current step  : 11000000
  Time step     : 2
Per MPI rank memory allocation (min/avg/max) = 10.31 | 10.32 | 10.33 Mbytes
Step Temp PotEng TotEng E_pair E_mol Press Lx Ly Lz Volume Pxx Pyy Pzz Pxy Pxz Pyz Enthalpy 
11000000    219.03675   -4942.8481   -4504.7476   -4942.8481            0    6857.4628    18.040456    22.922256    19.097191    7897.2223    7778.5247     6229.029    6564.8347    499.19095   -196.77196    240.97559   -3714.9538 
11001000    203.65342    -4956.741    -4549.409    -4956.741            0     6840.047    17.949409    22.876664    19.310684    7929.4034    6928.9112     6844.419    6746.8107    329.26285    33.442595   -779.61027   -3758.4109 
11002000    205.10341   -4951.3106   -4541.0784   -4951.3106            0    5596.2916    17.944383    22.591731    19.619861    7953.7869    4373.1545    7142.4278    5273.2927   -348.68956    333.33583   -953.80472   -3891.9208 
11003000     193.0981    -4926.347    -4540.127    -4926.347            0    8356.0552    17.969112    22.681658       19.329    7877.9061    9077.5686    7946.4117    8044.1853    232.63801    314.73156   -1004.6678   -3580.0899 
11004000     200.3402   -4968.5931   -4567.8879   -4968.5931            0    8251.1789     18.09194    22.462828    19.351342    7864.3105    7966.0348    9330.8998     7456.602    752.86838   -472.34822    2.3138466   -3621.5363 
11005000    207.24484   -4952.1771   -4537.6618   -4952.1771            0    6284.1204    18.015192    22.550358    19.532856    7935.2038    6092.0169    7149.2797    5611.0644   -2096.7326    94.359224   -1048.9428   -3810.4206 
11006000    214.20976   -4952.6021   -4524.1562   -4952.6021            0    7181.9229     17.95958    22.787542    19.384814    7933.3259    7509.2341    7087.4979    6949.0367    185.90302    335.29486   -1273.0547   -3693.2118 
11007000    201.99158   -4946.5948   -4542.5867   -4946.5948            0    8927.6793    17.859599    22.867015    19.275969    7872.2231     10472.99    8220.3601    8089.6878    1239.4849    612.97443    709.41648    -3517.615 
11008000    208.20133   -4945.7048   -4529.2764   -4945.7048            0    6627.8968    17.856801    23.182904    19.047218    7885.0243    6284.2898    5393.2641    8206.1366    487.50338   -736.62729   -846.88746   -3767.1015 
11009000    212.16242   -4932.8639   -4508.5129   -4932.8639            0    7170.4518    17.860704    22.995242     19.18918    7881.2113    7149.8811     6774.559    7586.9151    145.90238    157.14877    1107.4131   -3684.3456 
11010000    201.56233    -4930.316   -4527.1665    -4930.316            0    6138.2147    17.964937    23.036536    19.193691    7943.3077    6430.9967    5317.2725    6666.3748   -646.90015   -843.21215   -374.99946    -3816.085 
11011000    198.56444   -4937.0503   -4539.8969   -4937.0503            0    8254.8692    17.887511    22.740418    19.336888    7865.6561    9193.4895     8365.489    7205.6291   -52.639145   -1057.7455    837.46697     -3592.96 
11012000    207.46019   -4910.1276   -4495.1815   -4910.1276            0    7605.7272    18.028384    22.641319    19.321252    7886.6722    7282.9948    8864.0326    6670.1543   -660.62086    551.97305   -356.20493   -3620.3782 
11013000    211.84843   -4935.4194   -4511.6964   -4935.4194            0    6315.7565    17.985685    22.793995    19.359943    7936.9113    7032.4739    6097.3417    5817.4538    263.02872   -374.18222   -37.898374   -3780.6368 
11014000     208.2147   -4957.0782   -4540.6231   -4957.0782            0    8160.9891    17.923586    22.894813    19.263328    7904.8444     8937.433    7273.0572     8272.477   -1534.3022    303.33937   -1105.9759   -3599.7913 
11015000    208.59556    -4953.206   -4535.9891    -4953.206            0    6632.9861     17.78058    23.191013    19.207821    7920.3389    7765.6414    5153.2276    6980.0892     526.2212   -414.97495    2431.5722   -3769.8128 
11016000    202.83592     -4939.51   -4533.8131     -4939.51            0     6681.625    17.926847     22.95227    19.286567    7935.6862    7517.8249    6453.7706    6073.2795   -780.86663    191.72242    -851.7605    -3760.523 
11017000    206.66141   -4948.9916   -4535.6433   -4948.9916            0    8566.1051    17.943327    22.851371    19.209273    7876.3708    9010.3022    8066.4794    8621.5337   -917.78691    544.69289   -495.25436   -3551.6651 
11018000    196.58222   -4950.9067    -4557.718   -4950.9067            0    6609.7412    17.924579    23.040391    19.194937    7927.3036    6419.8981    7116.4399    6292.8856    134.39383   -382.18149   -317.54955   -3793.5553 
11019000    201.61938   -4942.0114   -4538.7477   -4942.0114            0    7544.2922    18.112742    22.700559    19.226949    7905.5322    6694.3819    8497.4613    7441.0336    505.28099   -409.82826    659.91152   -3668.9355 
11020000    204.21753   -4945.9151   -4537.4548   -4945.9151            0    8579.2523    17.932593    22.640786     19.44661    7895.4793    8173.5435    9185.3418    8378.8715   -826.13266    555.75061   -619.91543   -3549.5757 
11021000    209.59906   -4977.5423   -4558.3183   -4977.5423            0    6573.7613    17.989583    22.790949    19.331495    7925.9068    5183.2935     6343.703    8194.2873    1139.6377   -756.48508    1343.3976   -3798.4492 
11022000    204.30507   -4946.5204    -4537.885   -4946.5204            0    4875.4471    18.112424    22.952807     19.17724    7972.5725    3984.0562    5548.4081     5093.877   -1472.4602    -105.5877   -1490.9926    -3971.008 
11023000    201.97141   -4966.7656   -4562.7978   -4966.7656            0    5999.0725    17.975902    22.774531    19.414203    7948.0337    6222.5499    7224.9227    4549.7448   -1389.0375    1071.6269    -1643.579   -3867.4218 
11024000    211.38502   -4924.1395   -4501.3434   -4924.1395            0     6561.642    17.900435     22.87516    19.386112    7938.1345    7285.9484    6717.4431    5681.5346    1322.2149   -620.44462    502.32971   -3741.7051 
11025000    212.15708   -4934.2454    -4509.905   -4934.2454            0    6998.5186    18.033331    22.786292    19.258901     7913.728    5576.8526    7803.9887    7614.7146    2131.8809   -364.34557   -1024.1981   -3702.1807 
11026000    205.91721   -4933.5726   -4521.7127   -4933.5726            0    7127.8974    17.934458    22.833468    19.278945     7894.841    7176.0437    7504.2485    6703.4001   -206.09975    604.91081    -1844.843   -3701.0198 
11027000    215.04469    -4941.709   -4511.5931    -4941.709            0    7561.7175    17.835923    22.848705    19.384603    7899.7635    8478.3937    7695.4789    6511.2798    1051.8559   -327.97014   -870.53084    -3640.408 
11028000    203.68519   -4958.4085    -4551.013   -4958.4085            0    6957.9401    17.818012     23.04356    19.239463    7899.5391    6844.6144    6243.3433    7785.8626   -1382.1446    271.43023    774.70438   -3749.4118 
11029000    194.02953    -4926.134    -4538.051    -4926.134            0    6866.8017    17.930894    22.901363    19.253261    7906.1957     7365.411    6409.9985    6824.9956    355.19138   -620.68499    2353.8986    -3746.283 
11030000    218.87504   -4954.5999   -4516.8227   -4954.5999            0    7095.0699    17.917986    22.820912    19.385685    7926.8992    6550.7581    7314.8717    7419.5799    -1510.389   -11.542868   -913.65908   -3696.5923 
11031000    207.71588   -4934.8343   -4519.3768   -4934.8343            0    6458.0127    18.003155    22.666737    19.461807    7941.8335    5823.0169    8133.9509    5417.0702   -1613.9102    1138.4969   -1948.1583   -3771.3872 
11032000    203.41564   -4938.0711   -4531.2147   -4938.0711            0    6779.4061    18.053552    22.775117    19.269793    7923.1947    5984.3433    6520.5751    7833.2998    1766.1046    157.30606   -1631.9604    -3747.843 
11033000     211.2672   -4944.5042   -4521.9437   -4944.5042            0    8809.7974    17.935885    22.825357    19.149626    7839.7221    8429.3487    7757.5221    10242.521    719.20382   -1939.4808   -1708.8478   -3514.6817 
11034000    203.44619   -4957.5078   -4550.5903   -4957.5078            0    9307.8188    17.724517    22.796517    19.337542     7813.474    8764.2574     9544.324     9614.875   -519.49104   -540.71609    425.51491   -3489.9503 
11035000    200.24887   -4969.7962   -4569.2737   -4969.7962            0    6897.3491    17.912711    23.022636    19.120956    7885.4404    6450.2615    6021.6807    8220.1049    545.00265   -1282.1687    1040.3352   -3776.0712 
11036000    198.01924   -4947.0483   -4550.9854   -4947.0483            0    8520.3846    17.860537    22.907964    19.210648    7860.0084    8473.5816    7838.5235    9249.0488    620.75288    567.99981   -22.824796   -3574.2923 
11037000    214.02244   -4957.2692   -4529.1979   -4957.2692            0    8730.9072    18.045525    22.752231    19.161909     7867.419    7552.5192     9347.913    9292.2894    1482.6229   -47.984866    1520.6601    -3527.429 
11038000    200.60374   -4947.5752    -4546.343   -4947.5752            0    8336.9858    18.068191    22.558453    19.362673    7892.0404    8492.7986    8754.7865    7763.3723    1526.0749     87.48245    1193.9044   -3586.7783 
11039000    203.11804   -4952.2055   -4545.9443   -4952.2055            0    6224.9224    18.000377    22.691491    19.427373    7935.2155    6265.1683    6501.3654    5908.2334    511.02094    958.73646    231.18697   -3825.5528 
11040000    212.27969   -4951.7876    -4527.202   -4951.7876            0    7145.2085    18.238567    22.666904    19.124563    7906.3209    5037.9884    7018.8134    9378.8239   -177.60238     1166.668   -1943.7173   -3703.3196 
11041000    208.61782   -4947.5403   -4530.2789   -4947.5403            0     8143.612    18.066872    22.671077    19.260715    7889.1013    7827.4866     8134.888    8468.4615    609.56377   -351.66163    -570.1214   -3593.3201 
11042000    205.35579   -4952.0674   -4541.3304   -4952.0674            0    7313.3954     17.91598    22.741285    19.430133    7916.4659    8011.4527    7125.9089    6802.8246   -1219.1642    926.34412   -1141.5341   -3696.9731 
11043000    205.04221   -4928.1581   -4518.0483   -4928.1581            0    7604.1257    17.963438    22.747082    19.293336    7883.5619    7545.3046    7471.2708    7795.8017    138.55367   -669.80105    593.03165   -3643.7741 
11044000    195.65622   -4953.7027   -4562.3661   -4953.7027            0    6905.5983    18.076466    22.914245    19.052933    7891.8884     6247.779    6082.3795    8386.6364    -942.0074   -620.22311    249.10442   -3767.5656 
11045000    206.65933    -4974.398   -4561.0538    -4974.398            0    8060.3919    17.922809    22.939748    19.141522     7869.936    7419.8669    7705.3634    9055.9454   -1128.0688    476.72292   -1162.9075   -3635.9228 
11046000    212.12162   -4983.1945   -4558.9251   -4983.1945            0    7210.5262    17.863799    22.870884       19.327    7896.2558     7633.863    7217.0044     6780.711    504.33193    690.27687    667.18588   -3728.5696 
11047000    207.39946   -4945.3046   -4530.4801   -4945.3046            0    8842.7341    17.941101    22.858991    19.137007    7848.3823    9549.9085    7888.4083    9089.8857   -468.55918   -295.02149    129.87005   -3518.3354 
11048000    205.22084   -4959.9404   -4549.4733   -4959.9404            0    9293.7816     17.96117    22.760791     19.15796    7831.9741    10340.043    9001.4815    8539.8208   -682.38204    667.10691   -1300.8114   -3487.9255 
11049000     213.9604   -4941.7402   -4513.7929   -4941.7402            0    9041.3222    17.752552    22.976146    19.215092    7837.5521    9752.4632    9443.1685    7928.3349    -1234.494    413.87461   -2706.3026   -3480.3458 
11050000    202.06348   -4961.0608   -4556.9088   -4961.0608            0     8374.203    17.895354    22.955419    19.178593     7878.477    7887.3714    8145.1216    9090.1159   -112.37862   -34.598652    1389.0912   -3594.7171 
11051000    227.90865    -4948.181   -4492.3355    -4948.181            0    6781.9894    18.007001    22.771536    19.322557    7923.1577    6057.1932    6715.4072    7573.3679   -591.81539    394.04398   -2086.6487    -3708.669 
11052000    211.06267   -4976.0745   -4553.9231   -4976.0745            0    7252.3644    17.988512     22.65877    19.325379    7876.9775     6519.124    8852.3892      6385.58    689.03998     133.7402   -530.33624   -3720.7886 
11053000    198.04934    -4958.916   -4562.7929    -4958.916            0    8189.6723    18.107894    22.596987    19.254054    7878.4477     7334.514    8103.2652    9131.2376   -954.73246    220.83192   -443.27369   -3621.8071 
11054000    209.37601   -4936.6568   -4517.8789   -4936.6568            0    5744.1345    18.129905    22.768927    19.234479    7939.9639    4988.0418    6430.5376    5813.8242   -289.06495   -63.309087    1730.9781   -3852.7298 
11055000    216.75349   -4960.5868   -4527.0531   -4960.5868            0    6111.9775    17.874216    23.061338    19.278187    7946.5331    7409.1048    5422.9651    5503.8625    1513.1357   -40.878553    1468.6383   -3818.7235 
11056000    221.99971   -4941.2851   -4497.2582   -4941.2851            0     8069.443    17.764221    23.185862    19.122141     7876.004    9785.7843    6573.7184    7848.8263    266.47485   -1069.8186   -476.44694   -3570.3743 
11057000    191.13028   -4950.6112    -4568.327   -4950.6112            0    6651.9589    17.734209    23.087671    19.352364    7923.6623     8053.133    6204.2384    5698.5053   -1195.0406    475.16983   -1314.1091   -3799.6367 
11058000    209.40622   -4959.5981   -4540.7598   -4959.5981            0    8136.5618    17.937313    22.867196    19.217125    7882.4048    8300.5366    8236.1979     7872.951    1141.2701   -524.98868    -121.8463   -3605.4068 
11059000    204.47469    -4949.504   -4540.5294    -4949.504            0    8048.1499    18.022394    22.635158    19.313816    7878.8726    7727.3586    8490.7697    7926.3215    207.40363   -128.79417   -1238.5205   -3615.7545 
11060000    206.17168   -4958.3131   -4545.9442   -4958.3131            0     6674.917    17.986141    22.729872    19.428579    7942.8439    7298.8619     7418.017    5307.8721    449.60577    1302.0762   -1280.4916   -3772.7337 
11061000     209.5932   -4942.7177   -4523.5054   -4942.7177            0    5755.2329    17.949954     23.07818    19.206693    7956.4158    6073.1702    5817.8495     5374.679     264.7081    1548.8487     37.26846   -3855.6903 
11062000    215.76562   -4931.4684   -4499.9105   -4931.4684            0    7928.1732    17.798826    23.132183     19.21424    7910.9965    9041.5033    6762.9661    7980.0501    299.83587   -63.628665    1048.9833   -3585.2073 
11063000    221.25887   -4956.2538   -4513.7087   -4956.2538            0    7572.1326    17.869348    22.949937    19.284145    7908.4355    6001.7644    8437.4264    8277.2071     697.9821     1440.137    119.89498    -3640.366 
11064000    201.09725   -4944.8628   -4542.6435   -4944.8628            0    8046.1162    18.045801    22.814054      19.2245    7914.6861    8055.9087    8106.6281    7975.8118    1054.9835   -19.362732    599.95465   -3613.8998 
11065000    204.93956   -4968.1366   -4558.2322   -4968.1366            0    7892.9309     18.03487    22.522865    19.450634    7900.7881    8091.7772    8101.3804    7485.6351   -891.66798   -237.80287    -1164.733   -3648.7701 
11066000    210.35504   -4929.6819   -4508.9459   -4929.6819            0    7660.5036    18.023474    22.549944    19.434877    7898.8847    9276.3439     8257.185    5447.9819    906.00208    82.792015    477.13975   -3626.4778 
11067000    206.64931   -4961.2636   -4547.9395   -4961.2636            0    8851.9712    18.018062    22.733839    19.181035    7856.9301    8737.6179    8623.4902    9194.8054   -46.924772   -305.64001   -585.83001    -3533.634 
11068000    206.66594   -4947.1925   -4533.8351   -4947.1925            0    7444.6739     17.80612    22.974909    19.262924    7880.3465      8300.49    7122.0371    6911.4946    21.761043     76.03972   -2136.5171   -3678.2427 
11069000     201.2168   -4970.3288   -4567.8703   -4970.3288            0    5352.6699    17.741651    23.190157    19.252471    7921.0768    4579.9007    4563.8758    6914.2332    695.28547   -523.87425   -464.96621   -3949.5257 
11070000    209.10495    -4951.024   -4532.7882    -4951.024            0    7698.0513    17.948528    22.916291    19.236898    7912.3997    7749.8179    8272.1917    7072.1443   -432.07179    562.54792    843.59309   -3644.4775 
11071000    211.33233   -4961.8232   -4539.1324   -4961.8232            0    5576.8045    18.004019    22.986233    19.181383    7938.1115     6949.725    4366.3532    5414.3355   -1179.8358   -1581.8626   -1369.0339   -3893.5101 
11072000    219.10692     -4932.52   -4494.2791     -4932.52            0     6567.285    18.116352    22.587169    19.397394    7937.3579    6518.2121    7432.8084    5750.8345    842.77376     128.0164    737.57926   -3734.0619 
11073000    194.18937   -4960.9461   -4572.5434   -4960.9461            0    8035.5951    18.008514    22.655124    19.310686    7878.4725    6357.6289    8622.3701    9126.7865    243.90127     4.439763    1271.8662    -3649.258 
11074000     209.8412   -4994.5383     -4574.83   -4994.5383            0    8229.0078    17.962368    22.723254    19.311372    7882.1964    10581.828    7449.8933     6655.302    1489.2035    67.944611    -107.0411   -3628.8747 
11075000    206.91217   -4959.5846   -4545.7347   -4959.5846            0    7657.1173    17.989003     22.92948    19.155951    7901.4173    8149.3777    7394.4666    7427.5077    459.63618    1020.7637    1167.3542    -3663.374 
11076000    221.13134   -4968.4974   -4526.2074   -4968.4974            0    6947.2004    17.883738    22.811206    19.241262     7849.466    7630.9779    6894.9577    6315.6654   -662.07023   -286.86507   -338.27181   -3730.9168 
11077000      194.595    -4964.305   -4575.0909    -4964.305            0    7472.1996    17.904768    22.883863    19.214283     7872.673    5221.1102    8048.4722    9147.0166    -1305.477      301.234    782.44947   -3717.1714 
11078000     216.9845   -4930.0489   -4496.0531   -4930.0489            0    7143.3521    17.917452    23.166191    19.020876    7895.1684    6997.1986    6250.5182    8182.3396    603.51755   -596.29986    925.58072   -3673.5465 
11079000    216.58964   -4982.2054   -4548.9994   -4982.2054            0    7589.8784    17.840197    23.019791    19.102243    7844.8631    7509.8811    7599.8032    7659.9508   -273.31483   -1228.1568   -448.07009   -3680.6469 
11080000    211.44882   -4931.6605   -4508.7367   -4931.6605            0    7489.4764    17.822732    22.865215    19.330642    7877.6351     7797.114    8203.5824    6467.7328   -333.35028    643.48023     1059.573   -3648.2915 
11081000    207.90473   -4945.6636   -4529.8284   -4945.6636            0     9282.429    18.049015    22.540514     19.30422    7853.6148    9037.4178    9897.1844    8912.6847   -133.13781    557.62575    211.99493   -3466.6477 
11082000    196.94532   -4955.0422   -4561.1272   -4955.0422            0    6595.7659    18.181388    22.439676    19.394573    7912.6841    6385.4236    7223.9663    6177.9076   -249.08046     590.7902    586.99795   -3799.9865 
11083000    204.72425   -4934.4589   -4524.9851   -4934.4589            0    6756.8952    17.971428    22.758643    19.369283    7922.1395    6906.4641    7013.0785    6351.1431     987.8089    1105.8466    -578.3707   -3744.3185 
11084000    212.68083   -4939.8668   -4514.4789   -4939.8668            0    6150.7119    17.971263    22.832721    19.367891    7947.2813    7849.4658      5031.09    5571.5799    -25.68932   -819.04246   -2222.1616   -3801.5933 
11085000     212.5064    -4964.081   -4539.0419    -4964.081            0    9767.3574    17.857665    22.946176    19.105772     7828.879    10103.047    8828.1056     10370.92    210.48698   -1092.1367   -1058.8903   -3423.8425 
11086000    202.11009   -4950.4806   -4546.2355   -4950.4806            0    8175.9638    17.811626    22.797708      19.3541    7859.0083    8076.8006    9015.2578    7435.8331    1583.8717    575.57075    43.544474   -3609.1427 
11087000    199.53682    -4953.037   -4553.9387    -4953.037            0    6732.8359    17.950107    22.811447    19.331021    7915.4328    7527.8005    7160.1095    5510.5976   -1680.1102   -578.16001   -340.33762   -3776.7105 
11088000    204.81688   -4948.1045   -4538.4454   -4948.1045            0    7085.6334      18.1232    22.494945    19.444811    7927.2682     7540.114    7601.9281     6114.858   -271.16699   -334.96264    584.22156   -3719.2677 
11089000     194.2473   -4958.3013   -4569.7827   -4958.3013            0    9457.2269    17.982482    22.522569    19.300917     7817.097    7192.7165    11135.124     10043.84     696.7615    1255.3394    1121.4104   -3491.6178 
11090000    199.53657   -4949.5394   -4550.4416   -4949.5394            0    8482.0324    17.935702    22.959521    19.150684    7886.1579    7496.5306    8608.3361    9341.2305   -507.19204    1401.1137    1484.3479   -3574.9101 
11091000    203.60308   -4951.6889   -4544.4576   -4951.6889            0    8021.4975    17.732268     23.13012     19.18601    7869.1323    8832.6563    7049.7805    8182.0558    558.26162     1193.488    277.29128   -3623.8847 
11092000    207.54592   -4960.3568   -4545.2393   -4960.3568            0    7708.3198    17.772809    23.081435    19.180814    7868.3909    8210.9099     7178.246    7735.8034   -637.36692    290.51749   -641.71668    -3660.691 
11093000    219.88444   -4951.3761     -4511.58   -4951.3761            0     8778.342    18.014485    22.757606    19.182394    7864.1399    9015.6674    8428.2784    8891.0802   -771.25209    426.81824   -157.43069   -3504.7883 
11094000    212.12199   -4966.7243   -4542.4542   -4966.7243            0    8130.8942    17.971901     22.73468    19.254188    7866.9805    9335.7802    8135.8376    6921.0649    888.45153   -421.75913    87.469465   -3609.5817 
11095000    194.59264   -4952.8917   -4563.6824   -4952.8917            0    7984.5328    17.876016    22.730976    19.340414    7858.7701    7850.3325    7746.6229    8356.6431   -1010.8929    5.3988496    -1432.885   -3648.5583 
11096000    211.78756   -4953.4206   -4529.8193   -4953.4206            0    7450.5447    17.971057    22.858064    19.194268    7884.6902    9319.0659     6192.699    6839.8694   -634.94502    -931.5233    -245.8935   -3673.0803 
11097000    204.72355    -4949.593   -4540.1206    -4949.593            0    7287.5516    17.895821    22.697934    19.422105    7889.2232     9333.593    6212.8523    6316.2097   -538.98907    415.19702    462.99929   -3701.6424 
11098000    214.56512   -4968.4672   -4539.3105   -4968.4672            0    6960.2324    17.979892    22.785625     19.33053     7919.391    6133.5668    7544.2375     7202.893   -873.39216    826.01724   -895.23703   -3735.4301 
11099000    209.54245     -4963.59   -4544.4792     -4963.59            0    6851.3212    17.904931     23.04725    19.192928    7920.1424    6812.2552    6715.6372    7026.0713    187.49701    319.51522   -463.62489   -3753.1026 
11100000    205.85423   -4954.1106   -4542.3767   -4954.1106            0    7108.9627    17.845502     23.04209    19.181453    7887.3684    7975.6654    6329.3883    7021.8345     918.3394   -196.50742    376.75592   -3724.6386 
11101000    197.62935   -4960.8323   -4565.5491   -4960.8323            0    7808.4084    18.002399    23.103103    18.946969    7880.2581     7241.406    7275.6727    8908.1466    -545.4791    -162.3834    212.69333    -3668.164 
11102000    205.06436   -4949.2046   -4539.0505   -4949.2046            0    6945.6012    17.934409    22.816733    19.387598    7933.4947    6820.6695    7958.2212     6057.913   -272.69201    116.41259   -195.57785   -3735.4314 
11103000    215.99071   -4955.3117   -4523.3036   -4955.3117            0    7449.2161    17.994947    22.707221    19.340432    7902.7951    7806.8859    7419.7933    7120.9693    505.28592    254.34498    487.92117   -3664.7505 
11104000    204.07812   -4927.1704   -4518.9889   -4927.1704            0    7392.8198    18.113884    22.610667    19.274287    7894.1122    7968.7125      7963.01     6246.737    1372.5148    196.30603    1063.0548   -3667.8719 
11105000    214.61307   -4931.9884   -4502.7358   -4931.9884            0    5464.6633    17.853331    22.931057    19.394307    7939.9472     7815.619     4982.233     3596.138   -444.64874   -77.101357    -1785.963   -3869.9497 
11106000    197.72932   -4966.8211    -4571.338   -4966.8211            0    5873.9909     17.90523    22.913957    19.353003    7940.1433    6520.2753    6459.7689    4641.9285   -1314.7401    652.53957      161.792   -3891.1366 
11107000    202.99353   -4939.8329   -4533.8207   -4939.8329            0    6129.6065    17.964262    22.986811    19.183472    7921.6439    5663.4134    6100.5984    6624.8076    794.79361    149.52909   -367.71481   -3825.6731 
11108000    208.92147   -4938.3613   -4520.4926   -4938.3613            0     8072.851    17.908107    22.949826    19.160775    7874.8473    6339.3034    7548.5448    10330.705   -375.98858    498.36548   -3171.1718   -3593.3533 
11109000    201.19496   -4948.8463   -4546.4315   -4948.8463            0    8065.0515    17.890074    22.848435    19.244296    7866.3023    8471.3988    7279.3403    8444.4156   -221.12199   -362.64248     900.4382    -3621.193 
11110000    200.27812   -4916.8734   -4516.2924   -4916.8734            0    8227.8385    17.963159    22.857789    19.197179    7882.3251    9084.1843    7802.2973    7797.0338    107.73045    728.29274    596.29715   -3570.4561 
11111000    209.32056   -4922.3317   -4503.6647   -4922.3317            0    7362.5645    17.993663    22.979049    19.128468    7909.1868    7882.2687     6875.359    7330.0659   -231.81347   -1000.2683    139.00238   -3654.4122 
11112000    203.62407   -4934.3182   -4527.0449   -4934.3182            0    7597.5434    17.972022    22.941715    19.129323    7887.1922    7309.7278     7213.689    8269.2135   -427.82942   -1483.9176     84.23132   -3653.1252 
11113000    204.40069   -4959.5225   -4550.6959   -4959.5225            0    8044.6012    17.929821    22.859141    19.182941    7862.3264    7802.7955    7892.0376    8438.9706    199.11538   -100.50692   -43.445439     -3628.27 
11114000      204.842   -4929.0144   -4519.3051   -4929.0144            0    7640.3774    17.865066    22.748862    19.362831    7869.2465    7901.3545    7630.6564    7389.1213     -376.839   -1040.0872   -1943.1538    -3642.458 
11115000    199.46669   -4934.3113   -4535.3533   -4934.3113            0    8492.3353    18.001312    22.651638    19.304738    7871.6845     7884.516    8583.3131    9009.1769    614.33199   -345.16846   -904.66081   -3560.4294 
11116000     205.7294   -4973.5402    -4562.056   -4973.5402            0    6436.3831    18.161781    22.594898    19.270246    7907.8074    4430.1596    7343.9135    7535.0761    356.18027   -127.45208    308.88877   -3819.7656 
11117000    203.05738   -4962.1256   -4555.9857   -4962.1256            0    8826.0726    17.802155     22.90241    19.245782    7846.7412    11110.567    8310.7287    7056.9219    1453.2852    585.50512    1833.9568   -3545.9594 
11118000    194.48231   -4944.2967   -4555.3081   -4944.2967            0    8107.0186    17.827464    23.133905    19.109599     7881.159    9936.9835    6968.9069    7415.1654   -110.69393   -226.33071   -104.17004   -3623.4985 
11119000    208.63497   -4972.3104   -4555.0147   -4972.3104            0    7216.5675    17.847342    22.989427    19.189482    7873.4478    6882.2739    7609.4168    7158.0119    125.21732   -303.91994    42.216604   -3726.3639 
11120000    200.34488   -4945.5524   -4544.8379   -4945.5524            0    7976.8737    17.900327    22.757091    19.386486    7897.2666    8608.8001    6584.7054    8737.1155   -885.68272   -583.64465    469.96242   -3626.1132 
11121000    212.68798   -4978.7561   -4553.3539   -4978.7561            0    7871.5651    18.104396    22.497536     19.33661    7875.8841    7572.7239    7915.3364    8126.6351    -549.8882   -1136.7752   -1085.2336   -3649.2126 
11122000    210.24546   -4930.4865   -4509.9696   -4930.4865            0    7630.9903    18.002607     22.49393    19.466355    7882.8885    9165.7797    7443.3929    6283.7984   -1137.0333   -824.95121    -555.8994   -3632.6817 
11123000    195.56587   -4931.2468   -4540.0909   -4931.2468            0    7143.1987    17.932688     22.75392    19.368726    7903.1951    6357.3509    8375.3534    6696.8918   -200.36491     553.3037    364.43198   -3716.7659 
11124000    212.73661   -4947.0161   -4521.5166   -4947.0161            0    7011.4203    17.844058    23.027134    19.175513    7879.1708    6427.8063    6928.8043    7677.6504    1127.8493   -123.48754    2381.5138   -3715.8369 
11125000    206.22457   -4924.0669   -4511.5923   -4924.0669            0    9043.3024    17.879481    22.986605    19.053042    7830.5825    9812.6558    8570.0778    8747.1737   -43.556296    299.33963   -1150.8332    -3478.838 
11126000    210.83815   -4972.7686   -4551.0663   -4972.7686            0    7418.4151    17.808798    22.822823    19.331172     7857.098    6958.4832    8019.8456    7276.9165   -1013.2115    597.48132   -435.36176   -3701.0071 
11127000    197.22996   -4944.2887   -4549.8044   -4944.2887            0    7597.1262     18.09153    22.829218    19.093826    7886.0458    6970.7148    6900.1689     8920.495    707.21814   -880.77446    1200.0266   -3676.0597 
11128000    209.87691   -4978.0399   -4558.2601   -4978.0399            0    6020.1266    17.881374    22.855098    19.394948     7926.338    7588.2491     5615.397    4856.7337      240.915    463.56313     1656.311   -3862.3485 
11129000    221.23178   -4946.6102   -4504.1193   -4946.6102            0    7811.9208    17.904198    22.924211     19.28213    7914.1502     6402.439    8388.4275    8644.8959   -672.63458     516.5455    659.70252   -3602.4693 
11130000    193.94617   -4948.8429   -4560.9266   -4948.8429            0    8301.5304     18.00388    22.814037    19.154444    7867.5189    7863.1196    7512.7327     9528.739    828.39662   -948.84748    621.93192   -3608.4115 
11131000    204.45387   -4981.0268   -4572.0938   -4981.0268            0    7647.1448    17.910351    22.804614    19.272905    7871.7992    8212.1324    8359.6753    6369.6267   -165.64944   -1116.1116    73.303427   -3694.1854 
11132000    215.02665   -4947.8007   -4517.7209   -4947.8007            0    6594.8009    17.706589    22.965873    19.449405    7909.0474     10124.82    4988.9068    4670.6763    56.285005   -613.35093   -16.891052   -3757.0413 
11133000    211.52119   -4946.1122   -4523.0437   -4946.1122            0    5916.4871    18.011059     22.88923    19.197098    7914.1814    4519.5448    6947.0917    6282.8248   -1444.0903    438.29326   -2189.0779   -3840.1615 
11134000    201.49434   -4963.4784   -4560.4648   -4963.4784            0    6786.5276    17.957998     22.89921    19.227603    7906.8513    7550.8356    5282.2539    7526.4932    369.14354   -611.25412   -951.83908   -3777.8878 
11135000     206.7525   -4959.4208   -4545.8903   -4959.4208            0    7577.6562    17.659952    23.095028    19.282796    7864.6249    8126.5797    6608.6203    7997.7686   -344.31075   -318.92715   -1243.6261   -3676.7521 
11136000    210.15662    -4943.159   -4522.8198    -4943.159            0     6954.628     17.86073    22.864204     19.35232    7902.9338    7600.1522    7089.1223    6174.6094   -173.62068    396.97476   -1055.7886   -3721.2559 
11137000    203.81251   -4955.6272    -4547.977   -4955.6272            0    6867.0711    17.964845    22.736293    19.396173    7922.4445    8070.0918    6287.7264    6243.3951    -589.3278    -1131.735   -747.84192   -3754.5506 
11138000    211.09763   -4957.8588   -4535.6375   -4957.8588            0    7815.6424    18.172863    22.465258    19.287246    7874.1737     6813.377    8134.4227    8499.1275    1587.3397    131.87746    279.72577   -3638.1145 
11139000    199.94446   -4960.4253   -4560.5117   -4960.4253            0    8205.5204    17.898136    22.482171    19.499243      7846.28    10101.995    7516.6926    6997.8733    656.17568   -473.31755    158.33298   -3621.5544 
11140000    209.17338   -4944.0355   -4525.6629   -4944.0355            0    6335.1262    18.076766    22.700519    19.328444    7931.4651    5868.3414    6382.4061     6754.631    508.27964   -1534.5064   -540.47033   -3792.8644 
11141000    198.58887   -4945.7986   -4548.5963   -4945.7986            0    6869.6115    18.266202     22.53976    19.260721    7929.9433    5618.7844    7880.4928    7109.5573    841.48507   -513.31049    1404.7776   -3754.1251 
11142000    198.47874   -4935.5952   -4538.6132   -4935.5952            0    7998.8604    17.939025    22.781002    19.263892    7872.5546    8008.2602    8547.7838    7440.5373     -577.259    1051.7118   -2012.4021    -3620.239 
11143000    200.81625   -4956.8444   -4555.1871   -4956.8444            0    7036.2336    17.844968    22.978804    19.287519    7908.9631    6918.6265    5974.6383     8215.436   -926.64703   -284.54476    1108.6656   -3743.5989 
11144000    206.06386   -4954.1262    -4541.973   -4954.1262            0    5615.8073    17.964934    23.017858    19.224272    7949.5117    5859.5933    5470.7574    5517.0713    670.23245    155.92021    2621.1465   -3890.9017 
11145000    201.15614   -4946.9555   -4544.6184   -4946.9555            0    6617.8993    17.948483    22.970027    19.201342    7916.2743    5710.8523    6751.4468    7391.3988    501.59125    867.66703    343.88241    -3780.577 
11146000    206.37872   -4967.0784   -4554.2955   -4967.0784            0     6874.479    18.013348    22.775813    19.299361    7917.9227    7037.1149    7659.8398    5926.4822    748.98174   -48.783337   -1593.4328   -3760.4665 
11147000    199.37372   -4970.3641    -4571.592   -4970.3641            0    7118.7942    18.081319    22.693054    19.267961    7906.0365    6617.4334    7020.2221     7718.727    640.53181   -529.37008    1395.3312   -3750.7848 
11148000    196.39177   -4947.6427   -4554.8349   -4947.6427            0    6447.3767    17.994001    22.597632    19.461763    7913.5775    5376.4654    6682.7545    7282.9102    1148.0745   -64.927671   -94.525836    -3810.734 
11149000    216.49293   -4955.4289   -4522.4163   -4955.4289            0     6630.425    17.984909    22.886623    19.226132    7913.7416     6108.168    7021.0292    6762.0777   -1752.8751   -838.49002    579.12525   -3757.1738 
11150000    208.53812   -4967.9043   -4550.8023   -4967.9043            0    6579.9631    18.009268      22.8667    19.135079    7880.0656    5796.0298    5850.5236     8093.336   -1563.4362   -592.74115    -833.7211   -3794.6154 
11151000     215.4133   -4935.0166   -4504.1634   -4935.0166            0    8080.6581    17.852379    22.751744    19.477725    7911.3215      9746.35    8106.3589    6389.2655    -998.2226    146.91875   -604.55722   -3571.8291 
11152000      205.334    -4947.492   -4536.7986    -4947.492            0    8644.3307    17.856041    22.873992    19.326928    7893.8698     7654.067     9399.415      8879.51   -203.41428    364.22058    2572.7886   -3541.6288 
11153000     207.6748   -4945.6098   -4530.2345   -4945.6098            0    7641.1644    18.099059    22.886013    19.097812     7910.606    6403.8985    7770.9564    8748.6382   -294.47883    131.74502    861.17477   -3648.6881 
11154000    207.46768   -4957.6917   -4542.7307   -4957.6917            0    8100.8815    17.979763    22.853814    19.147481    7867.8181    8406.0074    7752.0068    8144.6302   -600.34038    1273.8445   -999.36169   -3613.2027 
11155000    207.59916   -4963.9418   -4548.7178   -4963.9418            0    8506.3966    17.857105    22.824398    19.287977    7861.3487    9198.5585    8681.3689    7639.2625   -213.06342    1081.9435    347.95399    -3573.462 
11156000    196.78183   -4956.3188   -4562.7308   -4956.3188            0    8442.1927    17.852819    22.836957    19.273373    7857.8325    9722.7676    8346.9857    7256.8247    874.94933    1186.3464    2655.7468   -3595.2688 
11157000    205.53001   -4953.3464    -4542.261   -4953.3464            0    7186.5487    18.063737    22.874761    19.110852     7896.674    6388.5968    6850.0017    8321.0475   -439.61622   -1106.4677   -1209.1253   -3714.6229 
11158000    200.93625    -4959.694   -4557.7967    -4959.694            0    7303.6462     17.96177    22.765912    19.211895    7856.0526    5472.6779    8107.7395    8330.5213    380.23738   -432.10773    1256.4234   -3720.9999 
11159000    208.57234   -4973.1076   -4555.9372   -4973.1076            0    6207.5035    17.855866    22.760415    19.464469    7910.4951    6822.4276    6634.8978    5165.1852    887.36536    338.44096    761.78426   -3839.7995 
11160000    206.76488   -4945.4737   -4531.9184   -4945.4737            0    8077.7247    17.970994    22.923981    19.147852    7888.2777    7510.7564    7385.4001    9337.0176     884.5957   -249.18944    1920.0942   -3602.6372 
11161000    191.92653    -4943.142   -4559.2652    -4943.142            0     7285.293    17.914316    22.928167    19.236962    7901.4367    8066.4796    5545.5708    8243.8286    40.239773   -2148.6928   -1440.8967   -3719.7492 
11162000    206.00783   -4944.5343   -4532.4931   -4944.5343            0    8748.3256     17.77805    22.829527    19.393631    7871.1858    10226.269     8044.124    7974.5838   -1699.6457   -1340.9559   -208.50999   -3528.2451 
11163000    204.76459   -4954.0478   -4544.4933   -4954.0478            0    8752.8503    17.864482    22.976978    19.148864    7860.0686     9238.384    9189.9695    7830.1974    818.26764    359.62206    2019.0245    -3541.145 
11164000    203.47171   -4959.8669   -4552.8983   -4959.8669            0    6061.7419    17.960675    22.992731    19.136409    7902.6666    4639.7977    6377.7968    7167.6312   -29.159342   -536.15023     177.4943   -3854.2687 
11165000    200.65495   -4940.6002   -4539.2655   -4940.6002            0    8991.2523    17.906044    22.672612    19.313912    7841.0001    9871.5422    9461.4289    7640.7858   -198.00917   -591.42457    2258.7784   -3511.0893 
11166000    219.53464   -4942.8023   -4503.7059   -4942.8023            0    8050.2487    18.010654     22.57274    19.376913    7877.6802    8189.7438    8152.4762    7808.5263   -634.18858    208.72891   -549.33032   -3578.8299 
11167000    204.37818   -4964.4574   -4555.6758   -4964.4574            0    6890.2392    18.052829    22.770035    19.264621    7918.9832     4619.634    7038.3445    9012.7392    1385.9113   -797.19572   -811.31694   -3759.9204 
11168000    205.06133   -4938.0523   -4527.9043   -4938.0523            0    6232.3106    18.023737    22.887405    19.269799    7949.1116    5603.2423    6835.1078    6258.5818    668.20032    266.18341    207.08785   -3805.3948 
11169000    214.13883   -4930.1022   -4501.7981   -4930.1022            0    8337.7222    17.761506    23.245275    19.065016    7871.3944    9534.8901    6787.1282    8691.1483   -27.147736    1098.5691   -2112.7916   -3544.6592 
11170000    210.77508   -4955.5942    -4534.018   -4955.5942            0     7884.936    17.819644    23.001438    19.222203    7878.7477    9192.9738    6668.6809    7793.1533   -536.41669   -417.72869   -412.10845   -3628.0116 
11171000    202.40212   -4927.4143   -4522.5851   -4927.4143            0    8721.2461    17.832345    22.783728    19.398653    7881.4264    9407.4573    9395.3568    7360.9241     608.7872   -35.069401    673.50258   -3520.1431 
11172000    196.64965   -4945.5646    -4552.241   -4945.5646            0    7478.0653    18.119951    22.579149    19.253318    7877.1692    5177.1331    8950.1542    8306.9086   -286.35246   -1903.4764    149.39308   -3693.1576 
11173000    204.38771   -4963.1885   -4554.3878   -4963.1885            0    8538.8615    18.052922    22.576643    19.219238    7833.2691    7506.5104    8785.7028    9324.3714    163.64094   -1251.8471    2643.9929   -3578.9066 
11174000    204.53866   -4959.5389   -4550.4363   -4959.5389            0    7391.4312    17.910221     22.73764    19.385782    7894.5915    8125.2259     6941.852    7107.2156    887.91294   -328.37471    1836.9205   -3699.4275 
11175000    203.88592   -4954.0846   -4546.2876   -4954.0846            0    7903.1156    17.909202    22.862014    19.207255    7864.2264    7550.2556    7741.9577    8417.1336    -2689.558   -245.60726   -1327.9177    -3639.866 
11176000    204.73013   -4954.6884   -4545.2029   -4954.6884            0    8356.1528    17.832764    22.829252    19.282057    7849.8925    7921.2391    8578.3666    8568.8526   -212.60181    304.28266    789.52145   -3588.5685 
11177000    203.98984   -4931.7477   -4523.7429   -4931.7477            0    7712.2201    18.065412    22.747242    19.222396    7899.2185     7915.989    6500.4559    8720.2152    861.91148    14.300904    544.47303   -3635.2797 
11178000    204.38161   -4945.2203   -4536.4318   -4945.2203            0    6784.6018     18.15915    22.651423    19.273781    7927.8957    5604.3563    7645.3488    7104.1004    148.43135    620.17987   -1179.9752   -3751.9946 
11179000     205.3009   -4936.2688   -4525.6416   -4936.2688            0    5823.0052    18.028511    22.568158    19.450872    7913.9818     4600.247     7630.174    5238.5944    1712.8386    42.428473    821.30359    -3853.566 
11180000    207.77426    -4938.669   -4523.0948    -4938.669            0    8615.4203    17.844952     22.89112    19.207941    7846.2695    10139.285    6797.6731    8909.3025    1007.0422   -218.12815    291.15074    -3537.234 
11181000    200.09627   -4944.1491   -4543.9319   -4944.1491            0    8799.2332    17.882668    23.059006    19.021026    7843.4443    8086.6044    8850.0415    9461.0539   -8.6434356   -905.36784    861.02799      -3537.4 
11182000     208.1287   -4945.6231     -4529.34   -4945.6231            0     8996.934    17.886268    22.813518    19.251231    7855.4397    8384.7877    9764.3782    8841.6361   -541.60042    -413.3216   -1248.6147   -3498.6195 
11183000    196.64217   -4954.7397    -4561.431   -4954.7397            0    9072.6399    17.850173    22.770778    19.340083     7861.015    10682.116    8191.6813    8344.1226   -1555.8071    47.023855   -44.218984   -3521.2997 
11184000    201.99207   -4973.2696   -4569.2605   -4973.2696            0    7172.4756    18.000337    22.763672    19.291284    7904.6762    5427.3358    8286.1653    7803.9256    241.77807    594.48914   -235.49846   -3742.4061 
11185000    214.49383   -4946.7801   -4517.7659   -4946.7801            0    7416.4432    17.907107    22.875393    19.271053    7894.0422     10954.12    6454.3442    4840.8655    1546.6199    79.221464   -193.72597   -3663.9367 
11186000    211.10408   -4948.8433   -4526.6091   -4948.8433            0    8595.1688    17.734263    22.978807    19.309125    7868.7042    10213.267    8623.0003    6949.2393    363.17684    497.13285   -913.24265   -3540.2535 
11187000    202.86546   -4954.9128   -4549.1569   -4954.9128            0    7469.8576    17.954966    23.002187    19.027803    7858.5488    6607.7034    7125.2994      8676.57     1203.395    833.88325   -356.11444   -3693.0449 
11188000    208.83397   -4941.6538     -4523.96   -4941.6538            0    7376.8233    18.057183    22.877036    19.148941    7910.3282    8336.3315    6838.2809    6955.8573    -564.4599   -1062.5563   -1040.8084     -3672.94 
11189000    198.84582   -4971.6534   -4573.9372   -4971.6534            0    5717.8616    17.953159     22.71843    19.436807    7927.6439    6658.4418    5317.9689    5177.1742    159.54919    36.993007   -673.36132   -3912.8577 
11190000    214.76022   -4935.8143   -4506.2674   -4935.8143            0    6607.0182    18.008052    22.854752    19.349072    7963.4895    7066.6888    6862.2653    5892.1005   -1914.7795   -123.60753   -823.22636   -3738.9327 
11191000    209.52226   -4948.8538   -4529.7834   -4948.8538            0    5946.7437    18.015652    22.907845    19.262102     7949.465    4397.8184     6136.417    7305.9957    1158.0547    1239.0865    2656.5722   -3840.3489 
11192000    207.59019   -4945.8778   -4530.6718   -4945.8778            0    8592.3725    17.987395    22.840078    19.189099    7883.5246    9404.1215    8155.0627    8217.9334    802.39008   -462.92806   -93.400662     -3542.78 
11193000    207.26223   -4965.1961   -4550.6461   -4965.1961            0    7020.1166    17.942104    22.827826    19.286009    7899.1485    7680.9556    7691.5839    5687.8104    294.25215    1525.9952   -860.28719   -3741.9218 
11194000    203.86919   -4941.6756    -4533.912   -4941.6756            0    7408.9032    17.891996    22.980488    19.241139    7911.3174    7440.2774    6766.5779    8019.8544    566.39745    960.89217    850.65605   -3679.0843 
11195000    200.39037   -4938.0732   -4537.2677   -4938.0732            0    8164.5195     18.06209    22.742497     19.23443    7901.0617    7685.4386    8981.8171    7826.3029    117.77214    1314.8827     1266.761   -3596.4792 
11196000    210.66488   -4971.7847   -4550.4289   -4971.7847            0    5965.1739    18.038972    22.728486    19.377435    7944.7196    7032.0965     6131.001    4732.4243    577.65725   -156.66921    1322.8229   -3859.2706 
11197000    210.97592   -4962.3501   -4540.3722   -4962.3501            0    5986.0912    18.015517    22.750891    19.351507     7931.584     5953.776    5131.9227     6872.575    477.25667   -1739.1905   -901.42025    -3847.937 
11198000    201.07976   -4942.9767   -4540.7923   -4942.9767            0    5551.9362    17.812988    23.022011    19.390695    7951.9459    5309.7609    6293.8584    5052.1893    1657.2875    6.5465725    771.48493   -3896.9289 
11199000    214.88252   -4958.0831   -4528.2915   -4958.0831            0    6833.3513    17.883851    23.090405    19.152862    7909.0857    6643.1606    6657.8974    7198.9958   -500.46269    330.69953     242.1636   -3740.0925 
11200000    201.89382    -4946.953   -4543.1404    -4946.953            0    8839.7747    17.857511    22.936359    19.198882    7863.5987    9143.4587    8543.0375    8832.8279   -213.08065    17.055886    1319.8822   -3529.3727 
11201000    206.36372   -4950.5383   -4537.7854   -4950.5383            0    8857.7843    17.941376    22.756442    19.277915    7870.8233    8067.4497    9863.0216    8642.8816    1192.8659      105.043    1568.8962   -3521.0191 
11202000    209.69961   -4964.4467   -4545.0215   -4964.4467            0    7280.2334    17.992425    22.722432    19.288017    7885.5521    8358.2697    7648.7615    5833.6691   -1223.1096   -486.07535   -1985.8266   -3707.7751 
11203000    202.65727   -4970.7781   -4565.4386   -4970.7781            0       7751.9    18.022791    22.861776    19.122624    7879.1528    7815.3072    8200.1952    7240.1976   -532.23477    942.73041    497.65202   -3674.6727 
11204000    197.87759   -4965.2805   -4569.5009   -4965.2805            0    8250.6135    17.959496    22.909815    19.150464    7879.4342    7642.5967    7903.1821    9206.0617   -737.00726    584.72099   -622.91426   -3621.3943 
11205000    209.55505   -4987.0741   -4567.9381   -4987.0741            0    7677.0138    17.862616    22.814977    19.324137    7875.2655    9066.7286    7190.0169    6774.2959    979.87104   -156.71746    724.92155   -3686.2126 
11206000    200.75932   -4959.9083   -4558.3649   -4959.9083            0    5935.6601    18.083741    22.842938    19.194108    7928.8128    5855.3101    5873.1715    6078.4988    1024.9225    249.40704   -339.13925   -3872.0031 
11207000    205.08622   -4951.9261   -4541.7283   -4951.9261            0    5482.5188    18.110122    22.815555    19.262629    7959.1735    4557.1023    5584.2471    6306.2071    705.70344     154.4677    1018.4274   -3905.3374 
11208000    210.36873    -4947.901   -4527.1376    -4947.901            0    6903.9388    17.968148    22.810654    19.313899    7916.0952    7219.1309     6653.198    6839.4875   -1008.8171   -67.796389    627.54731   -3730.0908 
11209000    211.82229   -4962.4102   -4538.7395   -4962.4102            0     6411.426    17.972472    22.807569    19.310231    7915.4259    6075.8822    6782.8739    6375.5218   -868.87834   -153.07514    508.02484   -3798.6149 
11210000    213.74307   -4957.8257   -4530.3131   -4957.8257            0    6101.7602     18.00396    22.953038    19.228827    7946.2278    4709.4201    7050.1607    6545.6997   -1299.1876   -550.71039    500.17462   -3823.1949 
11211000    203.07416   -4940.0868   -4533.9134   -4940.0868            0    6971.9063     17.90254    22.875602    19.277975    7894.9355    6894.3491    6256.4795    7764.8903    155.32416   -679.20288   -1851.6879   -3731.1714 
11212000    205.80855   -4951.9356   -4540.2931   -4951.9356            0    7698.9982    17.803047    22.863964    19.379908    7888.5574    8777.5484    7090.0414    7229.4048    219.00007   -704.75588    178.45149   -3654.5502 
11213000     197.1193   -4939.7732   -4545.5103   -4939.7732            0    7397.7101    17.823204    22.937575    19.375089    7920.9444    8768.7384    7023.3191     6401.073    547.72347   -441.71858   -169.82424   -3690.9353 
11214000    208.39494   -4952.1534   -4535.3378   -4952.1534            0    9189.6278    17.824389    22.821225    19.252282    7831.3355    9419.3478    9262.5114    8887.0242    2248.3772   -958.58195    2394.1484   -3485.7721 
11215000    199.83863   -4964.4644   -4564.7624   -4964.4644            0    10062.173    17.827597    22.865407    19.176393     7816.974    12077.381    10399.049    7710.0884   -681.64959   -727.94117    750.97762   -3417.6491 
11216000    206.92017   -4967.6327   -4553.7668   -4967.6327            0    7232.5249    17.920705    22.772337     19.40762    7920.1786    9660.3021    6478.6633    5558.6094   -1061.7941    484.15382    2381.9302   -3718.3546 
11217000    201.48178   -4977.3256   -4574.3371   -4977.3256            0    7750.5316     17.96531    22.797629    19.269382    7892.0924    5900.9329    7270.3233    10080.339    1344.5366   -508.63658    626.33804   -3682.2659 
11218000    214.44787   -4958.3622     -4529.44   -4958.3622            0    7884.0845    18.073472    22.734567    19.204496    7890.9849    7095.3153    7610.5902    8946.3481   -441.11025    564.97727   -724.91103   -3622.1244 
11219000    205.55797   -4954.3102   -4543.1689   -4954.3102            0    7013.8493    18.122596    22.676452    19.227621    7901.7093    5493.9551    8562.5158    6985.0771    1075.5654    937.59731    706.70633   -3734.9046 
11220000     200.3544   -4953.0381   -4552.3046   -4953.0381            0    11107.137    17.668938    22.864035    19.278072    7788.0174    13962.955    10827.688    8530.7675   -84.866599    1481.4381     442.0266   -3290.7533 
11221000    206.36859   -4965.2052   -4552.4426   -4965.2052            0    7711.0213    17.920877    22.885477    19.219538    7882.4674    6892.2334    7513.9632    8726.8673   -741.71764    185.54583    305.72017   -3666.0013 
11222000     189.3299   -4953.9711   -4575.2879   -4953.9711            0    8160.5904     17.99578    22.903235    19.057249    7854.6657    7808.9995    6902.3872    9770.3846   -634.31719    898.12171    877.81103   -3640.4739 
11223000    195.69711   -4965.4162   -4573.9978   -4965.4162            0    6674.6521    17.839294    23.053811     19.23521    7910.7442    7980.7882    6111.9888    5931.1792    -252.0574    89.269086   -884.96162   -3803.9426 
11224000    202.06338   -4948.3854   -4544.2336   -4948.3854            0    6920.6076    17.806951    22.789392    19.474772    7903.0489    8211.7365    7406.3369    5143.7493    -370.6458   -581.26867     736.9531   -3746.5792 
11225000    204.83791   -4964.9346   -4555.2335   -4964.9346            0    7911.0372    18.071782    22.610733    19.269108    7873.6707    7690.7906     9552.417    6489.9038   -452.79898    625.54678   -779.47735   -3646.8137 
11226000    206.26629   -4958.2238   -4545.6657   -4958.2238            0    8185.7808    17.935379    22.541627      19.4491    7863.1279    9173.2083    8684.2268    6699.9073   -100.35718    36.865368    808.81799   -3606.9559 
11227000    229.37497   -4945.6557   -4486.8774   -4945.6557            0    8594.4216    17.776599    22.756565     19.43603    7862.5414     10808.86     7944.442    7029.9627      293.428   -622.70111    210.95708     -3501.38 
11228000      215.155   -4948.3149   -4517.9783   -4948.3149            0    7719.4517    17.943415    23.075463    19.056919    7890.5671    8768.7839    6934.1055    7455.4657   -1652.4033    542.66893    489.77459    -3629.656 
11229000    215.01433   -4957.8076   -4527.7524   -4957.8076            0     6846.538    17.864387    23.006878    19.227389    7902.5297    7134.8241    5686.0365    7718.7535   -357.03645   -1582.6666    563.89426   -3738.6869 
11230000    224.22223   -4953.0047   -4504.5326   -4953.0047            0    7237.9749    17.852501    22.980339    19.239534    7893.1447    8477.6955    6496.5779    6739.6513   -1136.5855   -395.85049   -2539.1088   -3671.3445 
11231000    217.85448   -4953.9388    -4518.203   -4953.9388            0    8287.4665    17.842799    22.866522    19.250418    7854.2234    8907.6592    7902.1184    8052.6219    754.04297   -809.64173    581.91647   -3568.9085 
11232000    201.52672   -4938.7801   -4535.7018   -4938.7801            0    8712.3004    17.992582    22.865424    19.092269    7854.7124    10240.168    7091.6878    8805.0453   -61.684433   -578.21935   -777.92484   -3537.6823 
11233000    203.11533   -4961.6944   -4555.4386   -4961.6944            0    6570.3767    17.931894    22.829026     19.26022    7884.5114    6765.9654    6563.4318    6381.7329   -1037.6239   -255.35736   -679.23529   -3799.9274 
11234000    211.21111   -4947.6452   -4525.1969   -4947.6452            0    7203.2995    17.933583    22.839742    19.296237    7903.7079    8224.0388     6410.444    6975.4157    394.33099    746.75607    698.14907   -3694.8907 
11235000    209.52103   -4979.6289    -4560.561   -4979.6289            0    8462.2735    18.041186    22.696047    19.174393    7851.2164    6611.6124    9663.5328    9111.6752     42.64256    480.59782    1361.7752   -3591.6142 
11236000    204.68707   -4956.9808   -4547.5814   -4956.9808            0    7907.7528    17.995123    22.814094    19.162192    7866.8928    7948.6359    7512.7768    8261.8457    616.00661   -1123.3652   -364.77871   -3640.3205 
11237000    198.49009   -4948.8379   -4551.8332   -4948.8379            0    7026.0305     17.86983    22.852155    19.353069     7903.099    8877.6536    7190.6385    5009.7994   -119.37407   -339.28939    333.49079   -3742.0228 
11238000    209.93044   -4941.8445   -4521.9577   -4941.8445            0    8809.2463    17.946938    22.897513    19.143597    7866.8747    6769.7644    8864.4661    10793.508   -639.95407     490.2694   -763.44806   -3511.2702 
11239000    209.61764   -4961.9907   -4542.7296   -4961.9907            0    6148.2053    18.020698    22.951165    19.111966    7904.6327    3177.7779    7574.1689     7692.669   -1094.7562    258.32817    -676.2959   -3833.9586 
11240000    215.90068   -4959.6865   -4527.8585   -4959.6865            0    8539.1674    17.852573    22.808108    19.277147    7849.3347    8593.7643    8524.1133    8499.6247   -554.84446     501.1741   -1076.6586   -3550.3416 
11241000    196.81209    -4950.999   -4557.3505    -4950.999            0    7434.6575    17.927456    22.611106    19.504844    7906.4759    6655.2691    7857.6952    7791.0081   -307.97533   -123.23862    409.04313   -3700.0762 
11242000    205.42412   -4962.3622   -4551.4885   -4962.3622            0     6991.858    18.023574    22.703211    19.319012    7905.2043    9250.7123     5852.753    5872.1089   -207.60049   -1370.8744    68.574137   -3745.4021 
11243000    216.31181   -4943.0091   -4510.3587   -4943.0091            0    9994.2698    17.998525    22.703704    19.154761     7827.271    11073.968    9407.5617    9501.2793    1240.7794     -221.321    1393.4882   -3369.4857 
11244000    208.16511   -4943.9518   -4527.5959   -4943.9518            0    7320.8672    17.852458    22.985605    19.253384    7900.6172    7283.8218    7907.7133    6771.0665   -1454.9888    854.29489    47.219637    -3684.068 
11245000    212.02101   -4938.3166   -4514.2484   -4938.3166            0    5969.0832    17.679439    23.448645    19.137974    7933.8176    5863.3316    4852.1803    7191.7377   -612.40443   -431.45538    88.168445   -3823.5861 
11246000    195.68618   -4935.2503   -4543.8537   -4935.2503            0     7676.512    17.844473    23.196285    19.071115    7894.0207    8732.3948      5445.52    8851.6212    22.402858   -1297.6749    826.07201   -3660.0861 
11247000    207.18726   -4955.5596   -4541.1595   -4955.5596            0     7020.435     17.89871    22.786742    19.357781    7895.1349    6739.0739    7289.5617    7032.6695    -1733.136   -510.70296   -324.59787   -3732.8094 
11248000    208.96415   -4942.6847   -4524.7306   -4942.6847            0     7496.426    18.115223    22.561845    19.402864    7930.1998    6368.1761    7946.0276    8175.0743    947.91199    430.51051   -2442.7014   -3657.7402 
11249000    202.76446   -4965.3652   -4559.8113   -4965.3652            0    5327.4827     18.13278    22.583257    19.460732    7969.1158    4920.6219    6597.0498    4464.7765   -873.06398   -963.34819    801.55681   -3940.6439 
11250000    208.63431   -4928.8984    -4511.604   -4928.8984            0    7037.2283    17.998666    22.557725    19.512098    7922.0867     6867.669    9067.6474    5176.3684    1970.7814     924.6586    1123.7485   -3698.5543 
Loop time of 426.145 on 64 procs for 250000 steps with 1008 atoms

Performance: 101.374 ns/day, 0.237 hours/ns, 586.655 timesteps/s
194.8% CPU use with 32 MPI tasks x 2 OpenMP threads

MPI task timing breakdown:
Section |  min time  |  avg time  |  max time  |%varavg| %total
---------------------------------------------------------------
Pair    | 36.179     | 39.928     | 42.883     |  22.8 |  9.37
Bond    | 0.89438    | 1.2162     | 1.4339     |   8.9 |  0.29
Kspace  | 207.25     | 212.39     | 217.54     |  15.9 | 49.84
Neigh   | 2.5044     | 2.6249     | 2.7916     |   4.7 |  0.62
Comm    | 68.053     | 71.499     | 75.086     |  23.4 | 16.78
Output  | 0.57148    | 0.57273    | 0.57442    |   0.1 |  0.13
Modify  | 83.559     | 85.003     | 86.923     |   8.4 | 19.95
Other   |            | 12.91      |            |       |  3.03

Nlocal:        31.5000 ave          35 max          26 min
Histogram: 1 1 3 2 1 6 5 6 6 1
Nghost:        2922.12 ave        2958 max        2898 min
Histogram: 4 4 4 4 5 5 1 3 1 1
Neighs:        10560.8 ave       11725 max        8710 min
Histogram: 2 1 2 2 1 6 5 5 5 3

Total # of neighbors = 337944
Ave neighs/atom = 335.26190
Ave special neighs/atom = 2.0000000
Neighbor list builds = 6057
Dangerous builds = 0

unfix		3
unfix		2
unfix		1

write_data	data.final.${pid}
write_data	data.final.0
System init for write_data ...
PPPM initialization ...
  extracting TIP4P info from pair style
  using 12-bit tables for long-range coulomb (../kspace.cpp:340)
  G vector (1/distance) = 0.38083996
  grid = 24 27 36
  stencil order = 5
  estimated absolute RMS force accuracy = 0.0022477699
  estimated relative force accuracy = 6.7690923e-06
  using double precision FFTW3
  3d grid and FFT values/proc = 5670 1296
Last active /omp style is kspace_style pppm/tip4p/omp
WARNING: Not all mixed pair coeffs generated from mixing. Use write_data with 'pair ij' option to store all pair coeffs. (../write_data.cpp:312)

write_restart   restart.lmp.${pid}
write_restart   restart.lmp.0
System init for write_restart ...
PPPM initialization ...
  extracting TIP4P info from pair style
  using 12-bit tables for long-range coulomb (../kspace.cpp:340)
  G vector (1/distance) = 0.38083996
  grid = 24 27 36
  stencil order = 5
  estimated absolute RMS force accuracy = 0.0022477699
  estimated relative force accuracy = 6.7690923e-06
  using double precision FFTW3
  3d grid and FFT values/proc = 5670 1296
Last active /omp style is kspace_style pppm/tip4p/omp
Total wall time: 0:07:06
