LAMMPS (30 Jul 2021)
  using 1 OpenMP thread(s) per MPI task
package omp 0
using multi-threaded neighbor list subroutines
echo both

include		in.partitions
variable        pid world 0
include		in.temp
variable        temperature equal 258.32
variable	tempDamp equal 100.0
include		in.pressure
variable        pressure equal 9125.0
variable        pressureDamp equal 1000.0 # This is 1 ps
include		in.seed
variable        seed world 745823

units		real
atom_style	full
read_restart	restart.lmp.${pid}
read_restart	restart.lmp.0
Reading restart file ...
  restart file = 30 Jul 2021, LAMMPS = 30 Jul 2021
  restoring atom style full from restart
  orthogonal box = (0.64488555 1.8511213 0.78675887) to (17.562687 21.778057 21.426437)
  4 by 4 by 4 MPI processor grid
  restoring pair style lj/cut/tip4p/long/omp from restart
  restoring bond style harmonic/omp from restart
  restoring angle style harmonic/omp from restart
  864 atoms
  576 bonds
  288 angles
Finding 1-2 1-3 1-4 neighbors ...
  special bond factors lj:    0        0        0       
  special bond factors coul:  0        0        0       
     2 = max # of 1-2 neighbors
     1 = max # of 1-3 neighbors
     1 = max # of 1-4 neighbors
     2 = max # of special neighbors
  special bonds CPU = 1.718 seconds
  read_restart CPU = 2.066 seconds
include 	in.setup
variable	out_freq equal 1000
variable	out_freq2 equal 10000
variable	out_freq3 equal 1000

timestep	2.0

neigh_modify    delay 7 every 1

include		in.tip4p
# This is TIP4P/Ice

# create groups ###
group ox type 2
288 atoms in group ox
group hy type 1
576 atoms in group hy

# set charges - beside manually ###
set group ox charge -1.1794
Setting atom values ...
  288 settings made for charge
set group hy charge 0.5897
Setting atom values ...
  576 settings made for charge

# ### TIP3P Potential Parameters ###
pair_style lj/cut/tip4p/long/omp 2 1 1 1 0.1577 8.5
pair_coeff 1 1*2 0.000 0.000
pair_coeff 2 2 0.21084 3.1668
bond_style  harmonic
bond_coeff  1 450 0.9572
angle_style harmonic
angle_coeff 1 55 104.52
kspace_style pppm/tip4p/omp 1.0e-5
pair_modify tail yes

thermo          ${out_freq}
thermo          1000
thermo_style    custom step temp pe etotal epair emol press lx ly lz vol pxx pyy pzz pxy pxz pyz enthalpy

restart 	${out_freq3} restart.lmp.${pid} restart2.lmp.${pid}
restart 	1000 restart.lmp.${pid} restart2.lmp.${pid}
restart 	1000 restart.lmp.0 restart2.lmp.${pid}
restart 	1000 restart.lmp.0 restart2.lmp.0


include         in.dump
dump            myDump all atom ${out_freq2} dump.water.${pid}
dump            myDump all atom 10000 dump.water.${pid}
dump            myDump all atom 10000 dump.water.0
dump            myDump2 all dcd ${out_freq2} dump.dcd
dump            myDump2 all dcd 10000 dump.dcd
dump_modify     myDump append yes
dump_modify     myDump2 append yes


variable natoms 	equal  "count(all)"                        # NUMBER ATOMS
variable H      	equal  "enthalpy/v_natoms"                 # ENTHALPY-per-atom
variable Vol      	equal  "vol/v_natoms"                 # volume-per-atom
fix AVG all 		ave/time ${out_freq} 1 ${out_freq} v_Vol v_H file vol_enthalpy.dat
fix AVG all 		ave/time 1000 1 ${out_freq} v_Vol v_H file vol_enthalpy.dat
fix AVG all 		ave/time 1000 1 1000 v_Vol v_H file vol_enthalpy.dat


timer           timeout 23:50:00 every 1000
New timer settings: style=normal  mode=nosync  timeout=23:50:00

fix 		1 all shake 1e-6 200 0 b 1 a 1
       0 = # of size 2 clusters
       0 = # of size 3 clusters
       0 = # of size 4 clusters
     288 = # of frozen angles
  find clusters CPU = 1.545 seconds
fix             2 all nph iso ${pressure} ${pressure} ${pressureDamp}
fix             2 all nph iso 9125 ${pressure} ${pressureDamp}
fix             2 all nph iso 9125 9125 ${pressureDamp}
fix             2 all nph iso 9125 9125 1000
fix             3 all temp/csvr ${temperature} ${temperature} ${tempDamp} ${seed}
fix             3 all temp/csvr 258.32 ${temperature} ${tempDamp} ${seed}
fix             3 all temp/csvr 258.32 258.32 ${tempDamp} ${seed}
fix             3 all temp/csvr 258.32 258.32 100 ${seed}
fix             3 all temp/csvr 258.32 258.32 100 745823

run             250000
PPPM initialization ...
  extracting TIP4P info from pair style
  using 12-bit tables for long-range coulomb (../kspace.cpp:340)
  G vector (1/distance) = 0.37453971
  grid = 24 24 24
  stencil order = 5
  estimated absolute RMS force accuracy = 0.0031294164
  estimated relative force accuracy = 9.4241446e-06
  using double precision FFTW3
  3d grid and FFT values/proc = 2535 216
Last active /omp style is kspace_style pppm/tip4p/omp
Neighbor list info ...
  update every 1 steps, delay 7 steps, check yes
  max neighbors/atom: 2000, page size: 100000
  master list distance cutoff = 10.8154
  ghost atom cutoff = 10.8154
  binsize = 5.4077, bins = 4 4 4
  1 neighbor lists, perpetual/occasional/extra = 1 0 0
  (1) pair lj/cut/tip4p/long/omp, perpetual
      attributes: half, newton on, omp
      pair build: half/bin/newton/omp
      stencil: half/bin/3d
      bin: standard
Per MPI rank memory allocation (min/avg/max) = 9.237 | 9.240 | 9.242 Mbytes
Step Temp PotEng TotEng E_pair E_mol Press Lx Ly Lz Volume Pxx Pyy Pzz Pxy Pxz Pyz Enthalpy 
20500000    263.10262   -3849.4518   -3398.5029   -3849.4518            0    7310.7921    16.917801    19.926935    20.639678    6958.0468     6744.265    6814.5757    8373.5357    1786.4868   -1409.4066    586.72108   -2656.6331 
20501000    272.64276   -3917.6838   -3450.3835   -3917.6838            0    7587.5798    16.970834      19.9894    20.704377    7023.6866    5668.4785    9424.8028     7669.458    880.10442   -1939.8208   -1189.5832   -2673.1629 
20502000    269.36463   -3874.8256   -3413.1438   -3874.8256            0    9447.8765    16.868187    19.868497    20.579149    6897.0098    7913.0229     8611.046    11819.561    1223.6456    788.88511   -856.23459   -2462.8215 
20503000    258.57615    -3871.383   -3428.1924    -3871.383            0    7815.8491    16.929062    19.940199    20.653416      6971.95     6143.454    7322.4879    9981.6055   -928.48268    -823.5532    77.174557   -2633.4867 
20504000     232.1478   -3871.2247   -3473.3313   -3871.2247            0    8023.5965    16.914686    19.923266    20.635877    6954.2037    6668.3915    9487.3842    7915.0138    559.07387    1251.5581    144.39068   -2659.5788 
20505000    262.73424   -3867.9608   -3417.6433   -3867.9608            0    8510.9726    16.881141    19.883754    20.594952    6912.9109    8033.5395    9630.5844    7868.7938   -952.20539    964.62693   -1052.6181   -2559.5865 
20506000     255.1313   -3847.3759   -3410.0896   -3847.3759            0    9582.5682    16.889964    19.894147    20.605717    6923.7567    10338.078    10537.212    7872.4146   -186.49433    1068.0989    505.13905   -2442.4813 
20507000    252.57924   -3860.0339   -3427.1217   -3860.0339            0    9040.8258    16.892835    19.897528    20.609219    6927.2875    9245.1566    8343.9058     9533.415    245.44827    -1136.829   -601.06647   -2513.7507 
20508000    258.67719   -3843.6413   -3400.2775   -3843.6413            0    12402.468    16.782641    19.767734    20.474783    6792.6069    12548.597    12002.072    12656.734   -77.061089   -619.70068    257.18834   -2171.6493 
20509000    265.93147   -3850.6445   -3394.8471   -3850.6445            0    9507.1092    16.863217    19.862642    20.573085    6890.9142    8283.7541    10762.328    9475.2454    255.97582    742.70606   -839.02224    -2439.412 
20510000    266.70739   -3877.9332   -3420.8058   -3877.9332            0    9922.8915    16.864035    19.863605    20.574083     6891.917    9631.5155    8190.4644    11946.695    1986.6149   -455.96777   -752.17825   -2423.4407 
20511000    253.87265   -3873.0255   -3437.8964   -3873.0255            0     7818.053    16.927898    19.938828    20.651996    6970.5118    7971.5221    8410.3062    7072.3309   -1351.6683   -857.52489   -169.64778   -2643.1306 
20512000    263.27613   -3842.8059   -3391.5596   -3842.8059            0    8920.8507     16.94993    19.964779    20.678875    6997.7647    9601.5241    8306.7316    8854.2962    33.054731    1038.2674    943.40573   -2481.1402 
20513000    264.05312   -3831.0545   -3378.4765   -3831.0545            0     10603.75    16.891145    19.895538    20.607158    6925.2092    8916.9831    11528.616    11365.649    1458.6956    910.78436    1534.1113   -2307.5289 
20514000    247.51726   -3863.5525   -3439.3164   -3863.5525            0    8532.9701    16.953212    19.968644    20.682879    7001.8299    7865.4198    8577.2352    9156.2554   -1201.8069   -337.96876    121.56957   -2567.9763 
20515000    274.92325   -3893.0137   -3421.8046   -3893.0137            0     11512.61    16.931359    19.942905    20.656219    6974.7888     11666.45    11116.869    11754.512   -440.31946   -1359.4901   -457.78679   -2250.7403 
20516000     251.7721   -3837.0798    -3405.551   -3837.0798            0    8912.9284    16.973277    19.992278    20.707358    7026.7207    9661.8198    8354.5995    8722.3659     722.0855    896.43918   -1109.3438   -2492.1763 
20517000    257.41494   -3873.7865   -3432.5861   -3873.7865            0    8273.7218    17.013517    20.039676    20.756451    7076.8158    8683.4004    8231.8984    7905.8665    626.41589   -181.63596    134.91674    -2578.671 
20518000    240.95913   -3861.6552   -3448.6595   -3861.6552            0    12260.711    16.833126    19.827199    20.536374    6854.0916    13157.228     13582.37    10042.534    -75.47321   -339.21625    1503.5458   -2223.0801 
20519000    260.64044   -3871.8489   -3425.1201   -3871.8489            0    9798.3663    16.906584    19.913723    20.625993    6944.2154    10449.833    12624.605     6320.661   -706.24173    361.23083   -418.98452   -2432.7979 
20520000    246.92813   -3869.1036   -3445.8772   -3869.1036            0    10856.222    16.899129    19.904941    20.616898     6935.033    10521.929    10839.222    11207.515    1936.8114   -1016.8261    670.11981   -2347.8752 
20521000    254.54705   -3878.4004   -3442.1155   -3878.4004            0    9609.3006     16.90125     19.90744    20.619485    6937.6445     7575.577    11099.777    10152.547    631.55929    2124.1019    1644.4708   -2469.8615 
20522000    275.70332   -3888.0968   -3415.5507   -3888.0968            0    8843.5497    16.975574    19.994984     20.71016    7029.5735    7449.3111    9714.1557    9367.1823   -84.694143   -829.14475    -927.4527   -2508.9178 
20523000    246.29473   -3878.2877   -3456.1469   -3878.2877            0    9033.7805    16.929401    19.940599     20.65383    6972.3696    9888.3869    9034.8784    8178.0762    184.86677   -859.73157   -919.05562   -2537.5482 
20524000     262.9171   -3810.9798   -3360.3489   -3810.9798            0    8539.3411    16.913641    19.922035    20.634602    6952.9147    8437.7579    9345.4205     7834.845    482.66218   -560.04388   -1994.1123   -2494.4501 
20525000    266.77419   -3888.7447   -3431.5028   -3888.7447            0    8353.4625    16.991575    20.013831    20.729682    7049.4706    7786.5574    7958.6092     9315.221   -1554.5765   -666.91144    121.72283   -2572.6892 
20526000    266.79875    -3862.822   -3405.5381    -3862.822            0    8119.7428    16.953804    19.969342    20.683602    7002.5642     7832.725    8390.6118    8135.8915    586.83561   -943.98739    1087.0874   -2576.3076 
20527000    265.28152    -3864.903   -3410.2196    -3864.903            0    7715.9497    16.928719    19.939795    20.652998    6971.5269    7371.0947    8353.8102    7422.9444   -561.59673     655.8398   -958.99094   -2625.7192 
20528000    265.43067   -3905.8643   -3450.9252   -3905.8643            0    9982.3487    16.922747     19.93276    20.645711    6964.1505    8246.9247    10841.629    10858.492      1446.67    1841.6288    1436.7735   -2437.0681 
20529000      244.474    -3876.695   -3457.6749    -3876.695            0    8106.1088     16.96575    19.983413    20.698176    7017.3771     7581.351    6855.5931    9881.3823    1360.8987    1217.4284    -459.8202   -2628.0856 
20530000    273.96158   -3876.1705   -3406.6097   -3876.1705            0    8732.3335    16.902584    19.909011    20.621113    6939.2878    8292.8941    8675.9715     9228.135   -381.96215    116.88342    225.47972   -2522.8767 
20531000    260.19856   -3850.8674   -3404.8959   -3850.8674            0    8359.3059    16.902397    19.908791    20.620885    6939.0573    6510.1039    10264.778    8303.0359    989.01959   -2004.5239    906.70302   -2558.9423 
20532000    259.57445   -3858.5648   -3413.6631   -3858.5648            0    9863.4289    16.864331    19.863954    20.574444    6892.2801    11734.529    9494.3698    8361.3878    -521.4868     1093.374    1291.4776   -2422.2224 
20533000    263.91717   -3876.5649   -3424.2199   -3876.5649            0      8097.68    16.894307    19.899262    20.611015    6929.0979    8429.5765    8720.0276     7143.436    1475.8967   -321.97753    825.49257   -2605.9187 
20534000    243.19723   -3889.9068   -3473.0751   -3889.9068            0    8534.0068    16.926624    19.937327    20.650441    6968.9379    7997.3189     9647.956    7956.7455    606.41046   -33.326379    -1096.595   -2605.7229 
20535000    247.51625   -3902.2503   -3478.0159   -3902.2503            0     9166.083    16.908576    19.916069    20.628423    6946.6698    8675.3836    9559.4684    9263.3969    999.31784    749.45455    387.11679   -2549.3995 
20536000    256.35349   -3916.1714   -3476.7903   -3916.1714            0    7667.6953    16.969508    19.987839     20.70276    7022.0403    7559.2526    6467.4306    8976.4025   -281.61733   -734.60759   -1016.6109   -2691.5473 
20537000    253.98261   -3885.3165    -3449.999   -3885.3165            0    7196.7705    17.040281      20.0712    20.789103     7110.266     7585.294    5565.9571    8439.0603   -12.404002    1060.0101   -833.55439   -2703.7232 
20538000    254.22827   -3873.9836    -3438.245   -3873.9836            0    7986.2131    16.903572    19.910175    20.622318    6940.5045    7869.7155    6566.7936    9522.1304    1022.6554    85.599125   -218.09433   -2629.8794 
20539000    258.68408   -3872.0051   -3428.6295   -3872.0051            0    7478.9925    16.932034      19.9437    20.657042     6975.623    6235.8145    8908.3546    7292.8086    -321.3351   -704.22915   -599.41844   -2667.7743 
20540000    259.47263   -3874.2739   -3429.5467   -3874.2739            0    9377.1973    16.866102     19.86604    20.576605     6894.452    9801.1936    9493.6028    8836.7955    678.70258    431.39235    244.83698   -2486.6835 
20541000    258.42319    -3861.313   -3418.3845    -3861.313            0    10092.327    16.895521    19.900692    20.612497    6930.5928    11461.838    8651.6433    10163.501    287.56588    672.24232   -233.59506   -2398.2965 
20542000    257.09725   -3870.3384   -3429.6826   -3870.3384            0    9680.8585    16.890748     19.89507    20.606673    6924.7201    10946.613    11433.169    6662.7931   -233.31534   -41.415878     94.20382   -2452.0133 
20543000    272.18163   -3886.0621   -3419.5521   -3886.0621            0    8246.1112    16.984262    20.005217     20.72076    7040.3724    9421.6543    6906.2489    8410.4304   -606.88189   -1324.4779   -58.237925   -2572.8694 
20544000     271.5069   -3890.8382   -3425.4846   -3890.8382            0    11885.931     16.88285    19.885767    20.597037    6915.0108    12970.783     12640.29    10046.721    1390.6112   -805.98798   -698.27298   -2226.8082 
20545000    249.84562   -3896.6254   -3468.3985   -3896.6254            0    8861.1983    16.936279    19.948699    20.662221    6980.8705    7811.5201    9811.0969    8960.9778   -830.38808   -733.81069    996.42737   -2566.2502 
20546000    261.22063    -3870.453   -3422.7297    -3870.453            0    6688.2379    17.012578     20.03857    20.755306    7075.6444    7963.9283    8040.6044     4060.181    813.24966   -1076.3611    906.96228   -2732.5637 
20547000    258.23411   -3878.6266   -3436.0222   -3878.6266            0    10853.856    16.861356     19.86045    20.570815    6888.6335    10912.021    10289.833    11359.715    316.00494   -1204.2237    1381.7656   -2345.6041 
20548000    260.84586   -3881.6647   -3434.5838   -3881.6647            0    10392.054     16.89074     19.89506    20.606663    6924.7103    11357.689    8868.3705    10950.103   -281.40262   -1192.6487    939.87666   -2385.0924 
20549000    264.81399   -3871.5643   -3417.6822   -3871.5643            0    8810.5491    16.937106    19.949674     20.66323    6981.8936    8841.0284    8534.0509    9056.5678    733.95547   -1066.5929   -80.309911    -2520.559 
20550000    254.02659   -3874.0921   -3438.6992   -3874.0921            0    9876.6365    16.912515    19.920709    20.633229    6951.5264    11030.864    8180.5195    10418.526   -1330.7421    1484.8185    152.47032   -2437.3971 
20551000    267.93019   -3872.5025   -3413.2794   -3872.5025            0    7799.2436    16.971558    19.990254    20.705262    7024.5863    6093.4971    7848.8096     9455.424     780.8045    1829.4255    2303.5415    -2614.275 
20552000    257.21636   -3883.6873   -3442.8272   -3883.6873            0    10580.801    16.847932    19.844638    20.554437    6872.1934    9989.0454    10107.739    11645.618    921.50629     2164.852    795.77463   -2382.3782 
20553000    251.45958    -3900.217   -3469.2239    -3900.217            0    9090.6721    16.916021    19.924838    20.637506    6955.8501    9046.0538    9776.3264    8449.6362   -317.57082    768.00505   -1572.5642   -2547.0303 
20554000    271.42871   -3877.0834   -3411.8639   -3877.0834            0    8977.6911    16.880839    19.883398    20.594584    6912.5397    9027.5081    7910.1025    9995.4627   -576.79842   -227.70345    1141.2993   -2506.8022 
20555000     263.4333   -3891.9771   -3440.4614   -3891.9771            0     8895.332    16.991537    20.013786    20.729635     7049.423    9224.0558     8611.154    8850.7863   -1489.6696    342.84312    1.6658077   -2525.9448 
20556000    271.99225    -3854.286   -3388.1006    -3854.286            0    7966.6748    16.923825    19.934031    20.647028    6965.4825     7629.787    6662.6762    9607.5611     958.3538   -911.93401   -266.61626   -2578.8106 
20557000    252.32783    -3881.702   -3449.2208    -3881.702            0    9130.9828    16.949059    19.963752    20.677812    6996.6851    7938.4439    9220.3041      10234.2    697.67322   -1237.5745    -1461.401   -2517.5001 
20558000    249.58285   -3869.2872   -3441.5107   -3869.2872            0    8807.2977    16.924368     19.93467    20.647689    6966.1522    6389.4072    12551.251    7481.2348   -262.93986    609.57359   -479.94615   -2546.7405 
20559000    259.71217    -3871.204   -3426.0662    -3871.204            0    12722.499      16.8463    19.842716    20.552446    6870.1965    14255.372    13636.616     10275.51    191.37639   -826.56977    56.400459   -2151.3384 
20560000    255.45217   -3895.5372   -3457.7009   -3895.5372            0    9123.5473    16.872373    19.873427    20.584255    6902.1451    9332.1677    10498.873    7539.6011   -19.114151   -190.17514   -388.63924   -2539.3182 
20561000    249.27366   -3882.7657   -3455.5192   -3882.7657            0    8881.0143    16.946861    19.961164    20.675131    6993.9638    10949.066    8694.6797    6999.2967    292.82465   -347.03416   -1995.5957   -2549.6576 
20562000    257.54789   -3877.9677   -3436.5394   -3877.9677            0     9576.073    16.987116    20.008579    20.724242     7043.922    9653.1059    10422.366    8652.7473    610.61771    -521.9038   -2171.5971    -2452.805 
20563000    266.78778   -3863.9407   -3406.6756   -3863.9407            0    8600.6101    16.942178    19.955648    20.669418    6988.1677    8217.5193    10759.402    6824.9087   -963.75218   -675.58844    307.13781   -2530.1422 
20564000    265.86353   -3907.1752   -3451.4942   -3907.1752            0    8875.8597    16.938085    19.950827    20.664424    6983.1041    8278.9876    9924.0232    8424.5684    26.274388     2722.202   -1121.3419   -2547.5642 
20565000    251.77587   -3899.3686   -3467.8334   -3899.3686            0    8921.0857     16.88254    19.885403     20.59666    6914.6306    8351.2563    10474.812    7937.1883   -200.25945    1528.4414     110.9185   -2568.2062 
20566000    276.57453   -3872.1192   -3398.0799   -3872.1192            0    9406.8445    16.946993    19.961319    20.675292    6994.1271    9260.7807    9812.3654    9147.3873     434.8063    -698.0228    688.29384   -2438.5614 
20567000    249.73303   -3900.6893   -3472.6555   -3900.6893            0    9002.2288    16.929545    19.940768    20.654005     6972.547     9064.496    8673.9511    9268.2392    1268.7895   -115.73354   -613.83339   -2557.2418 
20568000    259.62108   -3887.0358   -3442.0541   -3887.0358            0     10642.19     16.90357    19.910173    20.622316    6940.5021    11223.211    9872.0217    10831.338    1028.2178    770.67238     1324.375   -2364.8505 
20569000    245.66301   -3912.6643   -3491.6063   -3912.6643            0    10705.876     16.87444    19.875862    20.586778    6904.6825    9191.1446    11565.006    11361.477   -1366.0695   -58.775576   -505.60248   -2413.5491 
20570000    251.74899   -3881.1373   -3449.6482   -3881.1373            0    9494.5723    16.982151    20.002731    20.718185    7037.7477    10042.388    7592.8997    10848.429   -2086.0028     826.3971    682.40149   -2475.1411 
20571000    249.30646   -3877.9893   -3450.6865   -3877.9893            0    8244.2501    16.937746    19.950428    20.664011    6982.6853    7786.6142    9070.2728    7875.8632   -694.31546   -960.84275   -400.14853   -2611.1308 
20572000    274.43988    -3864.676   -3394.2954    -3864.676            0    8122.1898    16.957316    19.973478    20.687886    7006.9161    8740.6078    8866.1039    6759.8578    1115.6441    788.18881   -1037.3471   -2564.2995 
20573000    249.16092   -3899.8387   -3472.7854   -3899.8387            0    10424.354    16.797474    19.785206    20.492879    6810.6338    8839.2416    11825.429    10608.393    39.463959   -657.73875   -575.56878   -2437.3748 
20574000      275.458   -3931.3556     -3459.23   -3931.3556            0    7591.7781    16.918111      19.9273    20.640056    6958.4286     6321.962    8176.1395    8277.2327   -1609.6303    786.00743    360.74383   -2688.8046 
20575000     251.1811   -3875.6301   -3445.1143   -3875.6301            0    8210.2894    16.917018    19.926013    20.638722    6957.0803    9412.7044    7221.2772    7996.8866   -705.04427    454.57199    380.33706   -2612.0829 
20576000    258.23774   -3897.1185   -3454.5078   -3897.1185            0    8919.8236    16.890825    19.895161    20.606767    6924.8152    8369.3438    7500.1684    10889.959    109.75269    469.84398    976.86948    -2553.683 
20577000    258.25688   -3895.7869   -3453.1434   -3895.7869            0    10331.668    16.902057     19.90839     20.62047    6938.6386    10295.351    9255.3305    11444.322    -1002.814   -989.26114   -136.27126   -2407.6517 
20578000    276.41576   -3881.9994   -3408.2323   -3881.9994            0    7404.7643    17.004195    20.028696    20.745078    7065.1898    8753.7272    8243.6823    5216.8833   -453.02446   -874.09011   -982.32902   -2645.2561 
20579000    254.45278    -3893.633   -3457.5097    -3893.633            0    9490.5652    16.892714    19.897385    20.609071    6927.1381    8712.1995    10290.006    9469.4899    1142.6855    227.98048    -345.4864   -2498.7234 
20580000    269.63897   -3884.2515   -3422.0996   -3884.2515            0    8166.5434    16.942274    19.955761    20.669535    6988.2865    8181.1516    7555.3405     8763.138    44.623068    784.87668     77.81509   -2589.7901 
20581000    256.38697   -3881.8974   -3442.4589   -3881.8974            0    10087.719    16.912286    19.920439    20.632949    6951.2435     9022.277    9589.4431    11651.436   -883.97798    -680.1398   -733.63639   -2419.7987 
20582000    253.14945   -3915.1238   -3481.2343   -3915.1238            0    9814.4671    16.905275    19.912181    20.624396    6942.6025       9108.4    9385.6868    10949.315    652.56536    1441.1108    -477.1375   -2487.5123 
20583000    253.19781   -3913.5944    -3479.622   -3913.5944            0    9535.4948    16.896653    19.902025    20.613877    6931.9855    9380.8259    10756.098    8469.5606    -1009.713    1111.9452    29.043079   -2515.6226 
20584000    264.54495    -3847.979    -3394.558    -3847.979            0    10118.134    16.925928    19.936507    20.649592    6968.0787    9780.4678    10940.808     9633.127    544.08949   -146.98881   -1609.5785   -2366.3301 
20585000    259.98008   -3891.7748   -3446.1779   -3891.7748            0    8702.7889    16.873369      19.8746    20.585471    6903.3676    8358.0996    10216.654    7533.6131    1251.2142     1184.497   -1842.2059   -2569.9938 
20586000    252.12437   -3852.2134   -3420.0809   -3852.2134            0    9855.5561    16.833356     19.82747    20.536655    6854.3728    11901.626    8768.9077    8896.1351   -2683.5541     138.1219    -1073.934   -2434.8801 
20587000    254.05255   -3852.7088   -3417.2715   -3852.7088            0    10073.455    16.823477    19.815834    20.524603     6842.312    11546.483    9284.9572    9388.9252   -4.5847327    384.91726    388.45429   -2412.0605 
20588000    272.87061   -3858.2462   -3390.5554   -3858.2462            0    9895.8892    16.907376    19.914656     20.62696    6945.1919    9914.5985    9483.3931    10289.676   -324.66756    1658.5661   -1367.1088   -2388.2156 
20589000    247.88978   -3890.9826    -3466.108   -3890.9826            0    9958.8466    16.860933    19.859951    20.570298    6888.1147    10174.217    8350.4677    11351.855   -1206.8042     707.4191    1748.9789   -2465.6813 
20590000    250.35655   -3867.9351   -3438.8326   -3867.9351            0    9409.0534     16.89623    19.901527    20.613361    6931.4646    10656.291    9623.8597    7947.0093    95.411514    -810.1062     123.7207   -2487.6873 
20591000    252.37126   -3905.3199   -3472.7642   -3905.3199            0     8996.635    16.924669    19.935024    20.648057     6966.524    9485.1332    8401.8446    9102.9272    1331.5794   -680.81777   -761.47592   -2558.7097 
20592000    262.85454   -3879.8719   -3429.3482   -3879.8719            0    8755.5565     16.98169    20.002188    20.717623     7037.175    9491.2031    7804.4158    8971.0506   -1613.4452   -370.63471   -682.39659   -2530.7656 
20593000    262.79692   -3930.5974   -3480.1725   -3930.5974            0    8111.4798    16.958149    19.974459    20.688902    7007.9487    10211.122    7725.4734    6397.8437    1308.4941   -787.14279   -2135.6312   -2651.1489 
20594000    260.42185   -3909.6551    -3463.301   -3909.6551            0    9097.3229    16.954672    19.970364     20.68466    7003.6387    8450.0242    9924.2878    8917.6567   -105.37655   -1168.3399    1240.0392   -2534.0923 
20595000     260.0189   -3930.6045    -3484.941   -3930.6045            0    9396.3643    16.902149    19.908498    20.620582    6938.7514    9563.7297    9648.3242    8977.0392   -514.82645    1256.6323    214.44511     -2534.08 
20596000    262.31199   -3889.0954   -3439.5016   -3889.0954            0    9203.7658     16.90277    19.909231     20.62134    6939.5172    9832.6997    9991.9115    7786.6861    924.96299   -1277.8715   -1096.0467   -2508.0277 
20597000    264.31059    -3908.146   -3455.1267    -3908.146            0    10081.556    16.914104     19.92258    20.635167     6953.486    10964.386    10279.144    9001.1362   -1024.1768    522.66321    39.944424   -2432.7616 
20598000    251.10483   -3930.5099   -3500.1248   -3930.5099            0    8636.8589    16.931119    19.942621    20.655925    6974.4915    8105.8096    8926.1324    8878.6346    293.92455   -810.76817    495.50676   -2621.6198 
20599000    263.79538   -3908.7766   -3456.6404   -3908.7766            0     8697.258    16.875354    19.876938    20.587892    6905.8042    9117.0212    9893.3609     7081.392   -790.71425    203.46857   -481.29679   -2580.7041 
20600000    252.69512   -3909.0985   -3475.9877   -3909.0985            0    8050.2195    16.936353    19.948787    20.662312    6980.9626    7833.4701    8362.7027    7954.4858   -1145.8578   -1202.4352    386.48581   -2656.3934 
20601000    250.13104   -3925.4141   -3496.6981   -3925.4141            0    8375.9785      16.9186    19.927877    20.640653    6959.0329    7297.8294    8968.6941    8861.4119     1096.467    32.615492    594.05266    -2646.617 
20602000    273.88136   -3913.8919   -3444.4686   -3913.8919            0    9203.6771     16.89752    19.903047    20.614935    6933.0529    7507.0644    10416.899    9687.0679   -1403.8229   -221.06792   -919.75784   -2513.8714 
20603000    256.36902   -3880.2859   -3440.8782   -3880.2859            0    9053.4143    16.953479    19.968958    20.683204    7002.1603     8861.632    9607.5406    8691.0704   -1227.5558    460.89447   -14.081185   -2516.3496 
20604000    269.48279   -3925.4842   -3463.5999   -3925.4842            0    5779.5352    16.949171    19.963884    20.677949     6996.824    6153.1416    3968.3349    7217.1291   -396.77837     665.8088    216.19794   -2873.8475 
20605000    257.04631   -3870.7199   -3430.1513   -3870.7199            0    8564.4277    16.945359    19.959395    20.673298    6992.1046    9107.8383    8183.9777     8401.467   -109.89063   -673.48733   -687.85402   -2556.8137 
20606000    246.03962   -3909.7429   -3488.0395   -3909.7429            0    7617.6901    16.939568    19.952573    20.666233    6984.9378    6706.3458    7183.7952    8962.9291   -241.22304    2205.6962    2144.0699   -2712.0394 
20607000    260.57873   -3912.4064   -3465.7834   -3912.4064            0    9970.1528     16.87735    19.879289    20.590328    6908.2553    9310.3644    7056.4464    13543.648   -1132.3756     1296.239    1922.5979   -2461.2923 
20608000    257.11924   -3909.4304   -3468.7368   -3909.4304            0    9164.7947    16.983335    20.004125    20.719629    7039.2194    9709.6611    8106.9705    9677.7526   -955.46728   -321.62182    1767.9969   -2527.8809 
20609000    268.60856   -3928.9018   -3468.5159   -3928.9018            0    10410.489    16.929836    19.941111     20.65436    6972.9065    9954.6667    9593.8556    11682.944   -1687.7674    549.21694    1604.3969   -2409.8453 
20610000    264.04256   -3934.4847   -3481.9247   -3934.4847            0    6579.9853    17.013282    20.039399    20.756164    7076.5222    6159.1982    7022.9009    6557.8569   -394.73584   -79.129624    1987.9025   -2802.8451 
20611000    264.32166   -3901.6793    -3448.641   -3901.6793            0    8205.1123      17.0199    20.047194    20.764238    7084.7834    7775.8868    7751.9263    9087.5237   -68.597651    564.60069    1837.8997   -2600.8536 
20612000    253.21614   -3876.0633   -3442.0595   -3876.0633            0    8199.8088    16.962596    19.979698    20.694328    7013.4637    8418.0659    7347.5348    8833.8258   -1431.5744   -396.25015    552.83079   -2603.3488 
20613000    256.99516   -3896.3685   -3455.8876   -3896.3685            0    10665.078    16.896641    19.902012    20.613863    6931.9711    10355.467    11464.245    10175.522    822.29315   -385.06911   -663.41825   -2377.6941 
20614000     275.2163   -3858.8264   -3387.1151   -3858.8264            0    9894.9258    16.838571    19.833613    20.543018    6860.7456    9133.5843    9263.7357    11287.457   -185.94118   -1074.2994    258.28303   -2397.0591 
20615000    282.17761   -3898.7942   -3415.1514   -3898.7942            0    10532.052    16.892744    19.897421    20.609108    6927.1753    8899.9496    11298.926     11397.28   -719.90964   -634.82637    385.47411    -2351.143 
20616000    257.20145   -3891.8854   -3451.0509   -3891.8854            0    10515.956     16.86063    19.859595    20.569929    6887.7436    9781.3354    12132.442     9634.092    508.51487   -827.95992    279.37955    -2394.716 
20617000     249.4115   -3917.6933   -3490.2106   -3917.6933            0    8072.8182     16.89657    19.901928    20.613776    6931.8836    8861.3689     7635.763    7721.3227   -1136.5274   -248.68711   -739.51005   -2674.0937 
20618000    251.83805   -3895.7218     -3464.08   -3895.7218            0    8673.4102     16.93689     19.94942    20.662967    6981.6267    9755.4021    8939.2362    7325.5923    -1179.503     131.0938    1356.5391   -2580.9545 
20619000    263.78357   -3885.5263   -3433.4103   -3885.5263            0    7989.5409    16.902313    19.908692    20.620782     6938.954    9046.8941    4739.0727    10182.656   -1823.7389   -745.52734    1450.1382   -2624.8885 
20620000    257.89489   -3872.1951   -3430.1721   -3872.1951            0    10982.897    16.848757     19.84561    20.555444    6873.2032    11165.454    11196.461    10586.776    932.71826   -1124.5222     1071.442   -2329.2616 
20621000    257.32097   -3888.2081   -3447.1687   -3888.2081            0    8533.0003    16.929219    19.940384    20.653608    6972.1443    7148.7792    8836.3145    9613.9073    558.64306   -630.80679    527.05075   -2579.5198 
20622000    257.60597   -3838.8771   -3397.3493   -3838.8771            0    10515.976    16.868752    19.869162    20.579838    6897.7025    10751.462     7834.305     12962.16    363.85756   -105.27865   -321.78436   -2339.4851 
20623000    253.35078   -3904.1339   -3469.8994   -3904.1339            0    7844.9014    16.914257    19.922761    20.635355    6953.6751    8953.1983    7921.6076    6659.8983    1041.0128   -629.85753   -2001.6102   -2674.3305 
20624000    261.45073   -3882.2781   -3434.1605   -3882.2781            0    8587.0257    16.914625    19.923194    20.635803    6954.1289    8807.9162    8990.8895    7962.2714   -965.56231   -2075.2086    95.542987   -2563.2743 
20625000    279.48984   -3884.3819   -3405.3459   -3884.3819            0    10634.939    16.863051    19.862446    20.572882    6890.7109    10820.331    11507.167    9577.3184    1508.9067   -2321.2393    31.918795   -2336.5988 
20626000    261.75293    -3878.329   -3429.6935    -3878.329            0    7648.6325    16.918861    19.928184    20.640971    6959.3549    5798.3427    7454.7029    9692.8521    109.93595   -117.51005    2028.7958   -2653.3951 
20627000    265.35692   -3879.7706   -3424.9579   -3879.7706            0    9171.4815    16.901609    19.907863    20.619923    6938.0867     8429.199    8889.9097    10195.336    21.021954   -194.38868   -1155.1679   -2496.9427 
20628000    249.66952   -3850.0556   -3422.1306   -3850.0556            0    10400.962    16.920315    19.929896    20.642745    6961.1492    10246.956    11526.076    9429.8526   -198.73622   -1256.5899    523.49917   -2366.2122 
20629000    265.77284   -3866.0065    -3410.481   -3866.0065            0    8975.8248    16.961215    19.978071    20.692643    7011.7506     7131.562    9192.3959    10603.516    976.97523    1122.1609   -492.68971   -2492.6204 
20630000    254.67261   -3886.9078   -3450.4077   -3886.9078            0    9509.5335    16.903563    19.910165    20.622308    6940.4938    9288.8208    8487.8286    10751.951   -1017.6788   -1079.2501    720.65812   -2487.8529 
20631000    258.89164   -3925.5359   -3481.8045   -3925.5359            0    10471.897    16.884688    19.887933     20.59928    6917.2702    9840.0108    10831.747    10743.934   -1515.9073   -559.54091   -176.94266    -2425.386 
20632000    252.03722   -3852.7204   -3420.7373   -3852.7204            0    7668.8372    16.940091    19.953189    20.666871    6985.5848    8785.9736    9125.7781      5094.76    2226.5951    823.91996    1540.5837   -2639.4546 
20633000    261.01437   -3899.6496   -3452.2799   -3899.6496            0    7086.7401    16.944199    19.958028    20.671883    6990.6682    8296.1298    6465.0124    6499.0779    538.86987   -330.53589    1035.2854   -2729.7745 
20634000    252.04873   -3909.6952   -3477.6923   -3909.6952            0    9982.5259    16.887879    19.891691    20.603173    6921.1927    10423.332    10176.879    9347.3672     -731.257   -513.02784    539.81906   -2470.0711 
20635000    241.05106   -3878.5762   -3465.4229   -3878.5762            0    9494.8054    16.885531    19.888925    20.600308    6918.3053     9382.417    9445.1487    9656.8504    1293.7813    -782.7462    158.71553   -2507.4314 
20636000    249.44142   -3867.4739   -3439.9398   -3867.4739            0    7517.6664    16.917447    19.926518    20.639246    6957.6103    8994.9492     8238.011    5320.0391    -548.5257   -1325.7955    -697.1134   -2677.1251 
20637000    241.72353   -3888.5429   -3474.2371   -3888.5429            0    7993.3514    16.895425    19.900579     20.61238    6930.4748    7008.6786    9314.9047    7656.4709    707.49381    1261.1723   -1668.0752   -2666.3182 
20638000    260.03335   -3882.8066   -3437.1183   -3882.8066            0    7566.1364    16.918704    19.927998    20.640779    6959.1602    5572.4896    8207.0161    8918.9035   -307.09486    1066.7422   -599.14572   -2669.2144 
20639000    254.61366   -3924.2865   -3487.8874   -3924.2865            0    10117.128    16.846625    19.843099    20.552844    6870.5949    10238.929    11287.471    8824.9829   -53.395607    817.90646    473.70034   -2474.1454 
20640000    253.59571    -3882.521   -3447.8666    -3882.521            0    9145.6193    16.882805    19.885714    20.596982    6914.9552     8665.084    9146.6876    9625.0864   -369.73145    106.74532     1173.525   -2525.5535 
20641000    257.00299    -3876.798   -3436.3036    -3876.798            0    8646.0391    16.862366     19.86164    20.572048     6889.872    10581.579     6301.921     9054.617    1239.4701    181.10091    53.012341   -2567.5348 
20642000    249.71595   -3869.7574   -3441.7528   -3869.7574            0    8958.8962    16.915572    19.924309    20.636958    6955.2962    7965.8243    8858.6525    10052.212   -298.00135    533.63561    268.11729   -2532.9995 
20643000     248.0573   -3877.0944   -3451.9326   -3877.0944            0    7814.8538    16.908675    19.916186    20.628544    6946.7928    7103.1158    7549.9924    8791.4532   -563.51365   -136.69081   -268.83477   -2660.1954 
20644000    262.41236   -3897.2475   -3447.4817   -3897.2475            0    9220.1977    16.863393     19.86285    20.573301     6891.131     8679.962    7921.3167    11059.314    1817.7762    429.74244    403.67932   -2520.8512 
20645000    263.48526   -3895.8344   -3444.2297   -3895.8344            0    9245.4362    16.939639    19.952658     20.66632    6985.0267    9066.2538    8814.3388    9855.7159    54.799573   -614.62243    1870.0864   -2502.4022 
20646000    257.47699   -3904.7776   -3463.4708   -3904.7776            0    7628.1323    16.945761    19.959868    20.673789    6992.6025     7752.697    8701.1297    6430.5703   -111.83005    1694.4221     474.9653   -2685.5544 
20647000    243.33053   -3884.5295   -3467.4693   -3884.5295            0    9771.1261    16.840588    19.835988    20.545478    6863.2105    10765.722    8655.1468    9892.5098   -1853.5767    240.43956   -1046.7177   -2489.4491 
20648000    245.35463   -3885.0672   -3464.5378   -3885.0672            0    9998.4869    16.877988     19.88004    20.591105     6909.038    12391.862    9309.9879    8293.6109   -901.43185    828.15667    1138.9837   -2457.0779 
20649000    259.48048   -3829.9231   -3385.1825   -3829.9231            0    11839.019    16.882981    19.885921    20.597197    6915.1714    14154.145    12596.707    8766.2065   -266.10931    996.84281    1274.0083   -2191.2093 
20650000    258.13942   -3885.1437   -3442.7016   -3885.1437            0    10047.277    16.872683    19.873792    20.584634    6902.5256     10687.75    7739.3058    11714.775    877.12616   -197.28282    -180.0464   -2431.2798 
20651000    268.76825   -3883.8713   -3423.2117   -3883.8713            0    9924.8852    16.957406    19.973585    20.687996    7007.0282    8776.5782    11794.878    9203.1989    1191.2328    396.72838   -305.70083   -2408.9845 
20652000    253.86492   -3901.4421   -3466.3264   -3901.4421            0    11645.505     16.87178    19.872728    20.583532     6901.417    13009.805    9971.2932    11955.419     1282.705   -948.02075    135.48386   -2294.2052 
20653000    252.97968   -3878.6535   -3445.0549   -3878.6535            0    7852.7334     16.94353     19.95724    20.671067    6989.8404     8657.229    7193.1777    7707.7934    635.64467   -661.30487   -549.54671     -2644.55 
20654000      255.284   -3886.7828   -3449.2348   -3886.7828            0    10702.774    16.883668    19.886731    20.598036    6916.0167    9793.7562    10078.675    12235.891     -869.732    172.93409     351.0021   -2369.7208 
20655000    262.12773   -3894.4922   -3445.2143   -3894.4922            0    8963.3161    16.877523    19.879493    20.590539     6908.468    8912.4815    8789.8479     9187.619   -644.41301    1357.5358    2.5820565    -2542.134 
20656000    238.72866   -3883.6479   -3474.4751   -3883.6479            0    9982.5085    16.903523    19.910117    20.622259    6940.4444    9512.6693    11801.597    8633.2592    -2065.203     149.2423    -1181.841    -2464.053 
20657000    252.38219   -3865.1422   -3432.5678   -3865.1422            0     9716.427    16.915655    19.924408     20.63706    6955.3996    8263.2626    10891.202    9994.8164     -2185.09   -670.21904   -1512.1959    -2446.959 
20658000     254.6806    -3865.205   -3428.6912    -3865.205            0     10560.23    16.837342    19.832165    20.541518    6859.2428      8852.74    11963.959    10863.992    1097.0903   -1459.0098     -1671.95   -2372.2983 
20659000    255.87109    -3869.613   -3431.0587    -3869.613            0    12176.533    16.864089     19.86367     20.57415    6891.9841    13618.519    10942.599     11968.48    243.15943   -1186.0134    765.69739   -2207.1647 
20660000    258.27813   -3823.8943   -3381.2144   -3823.8943            0     10574.78     16.90507    19.911939    20.624146    6942.3501    9261.0627    8863.2756    13600.002   -591.43182   -1524.5967   -462.05183   -2310.5491 
20661000     258.9745   -3932.6982   -3488.8248   -3932.6982            0    8011.6332    16.912941    19.921211    20.633749     6952.052    8853.3952    8613.8457    6567.6588    387.85058    -1070.272     734.2161   -2676.5369 
20662000    251.05568   -3892.1811   -3461.8803   -3892.1811            0    8282.6998    16.974215    19.993383    20.708502    7027.8854    10454.137    4554.7163    9839.2455    72.442231   -2212.2269   -1221.9676   -2612.9491 
20663000    265.40446   -3906.7994   -3451.9052   -3906.7994            0    9821.1347    16.917131    19.926145     20.63886    6957.2192    10205.005    9554.6054    9703.7942    1193.2208   -994.71512    494.17885   -2455.4146 
20664000    260.10552   -3888.0676   -3442.2557   -3888.0676            0    12043.343     16.87075    19.871515    20.582276    6900.1536    13898.956    11786.918    10444.155   -1097.2519   -1586.4391     529.8623   -2230.3141 
20665000    257.48671   -3891.4494    -3450.126   -3891.4494            0     8741.943    16.928176    19.939156    20.652335    6970.8558    8108.8713     9177.726    8939.2318   -1210.4008   -274.28779    520.30115   -2561.3958 
20666000    254.44104    -3855.155   -3419.0518    -3855.155            0    9212.5056     16.93442     19.94651    20.659953    6978.5724    11043.783    8557.3891     8036.345   -635.77692    278.13216    -414.5959    -2481.446 
20667000    248.41757    -3890.218   -3464.4388    -3890.218            0    9785.0808    16.867636    19.867847    20.578476    6896.3334    9849.5127    9138.2171    10367.513   -241.76492    822.58808    507.52165    -2480.295 
20668000    269.17913   -3860.9197   -3399.5559   -3860.9197            0    7222.8142    17.018071     20.04504    20.762007       7082.5    6772.5102    8042.7747    6853.1575   -245.81889   -1857.2924    106.72897   -2653.5042 
20669000    260.37832    -3858.366   -3412.0865    -3858.366            0    9728.8557    16.914929    19.923552    20.636173    6954.5029    9944.5378     9614.824    9627.2055   -698.34667    660.65356    688.22819   -2425.3442 
20670000    251.06652    -3870.655   -3440.3356    -3870.655            0    9255.3676    16.948506    19.963102    20.677138    6996.0013     8516.732     8634.547    10614.824   -2079.5945    126.05696    152.78858    -2496.015 
20671000    255.69497   -3894.1898   -3455.9374   -3894.1898            0    7218.9593    16.981243    20.001662    20.717077    7036.6192    7222.4031    6600.6941    7833.7808   -802.44406    1249.9537   -566.10684   -2715.1142 
20672000    245.88132   -3888.4592   -3467.0271   -3888.4592            0    7982.5272    17.012543    20.038528    20.755262    7075.6002    7184.7236    8006.4565    8756.4014    1474.4215   -679.10563   -1519.1117   -2643.3071 
20673000    264.61163   -3907.0207   -3453.4854   -3907.0207            0    9147.3547    16.921757    19.931595    20.644504    6962.9287    8754.6747    10145.199    8542.1905   -1228.1002   -896.08339   -138.78315   -2524.5974 
20674000    245.86622    -3897.609   -3476.2028    -3897.609            0     7746.904    16.996157    20.019228    20.735272    7055.1751    6613.2228    8252.7944    8374.6948   -417.23272   -544.35385    344.79995   -2679.1045 
20675000    260.93342   -3884.1386   -3436.9076   -3884.1386            0    10482.695    16.916607    19.925528    20.638221    6956.5731     10168.58    10304.234    10975.271    824.99805   -319.87396   -933.96568   -2373.3912 
20676000    264.62577   -3918.3714   -3464.8119   -3918.3714            0    10892.312    16.902271    19.908643    20.620731    6938.9025    12434.223     11155.84    9086.8721   -210.87518   -46.975216    139.38036   -2362.5451 
20677000    261.39486   -3861.1588    -3413.137   -3861.1588            0    9420.2573     16.92259    19.932576     20.64552    6963.9573    9183.1327    9418.3463    9659.2929   -1712.0912    352.19325   -990.04431   -2456.3952 
20678000     270.6882   -3914.9526   -3451.0023   -3914.9526            0    8371.3088    16.998715    20.022241    20.738393    7058.3612    8376.7368    9423.6234    7313.5662    548.15836     1619.509   -692.51623   -2589.2684 
20679000    257.05515   -3870.1008    -3429.517   -3870.1008            0    7909.8272    16.972707    19.991607    20.706663    7026.0124    8575.1609    7060.5821    8093.7386   -749.81954    592.47884    693.84677   -2619.0193 
20680000    247.91809   -3861.9087   -3436.9856   -3861.9087            0    9673.8324    17.003269    20.027605    20.743948     7064.035    10240.663    10146.736    8634.0978    1867.4914    183.32649     3.265415   -2440.3709 
20681000    259.96521    -3857.668   -3412.0966    -3857.668            0    8684.7006    17.020971    20.048456    20.765545    7086.1217    9806.9725     7771.268    8475.8613   -756.40983   -529.23889   -1245.5666   -2514.5865 
20682000    266.49155   -3850.5312   -3393.7738   -3850.5312            0    9267.8818    16.955321    19.971129    20.685452    7004.4436    10934.021    7041.0436    9828.5813    59.499059   -1446.1839   -325.84332   -2447.0353 
20683000    259.87551   -3900.4618    -3455.044   -3900.4618            0    9888.1827    16.895377    19.900522     20.61232    6930.4146    9543.5134    11313.444    8807.5905     65.40412   -801.51667    -1496.017   -2455.6159 
20684000    261.90909   -3925.8173   -3476.9141   -3925.8173            0    7600.7656    16.976382    19.995935    20.711146    7030.5774     8565.645    5609.6051    8627.0468    511.38294    277.21729    690.47042    -2697.579 
20685000    255.61407   -3857.9643   -3419.8505   -3857.9643            0    8390.4315    16.962047     19.97905    20.693657    7012.7822    8555.2191    6816.5999    9799.4753    252.43692   -1208.1879   -119.93961   -2561.7256 
20686000    270.48256      -3886.7   -3423.1021      -3886.7            0    8399.9362    16.960854    19.977646    20.692202    7011.3031    9650.5194    9062.8798    6486.4095   -445.66171   -390.50866    958.15071   -2564.1863 
20687000    254.03679    -3898.459   -3463.0487    -3898.459            0    8970.6122    16.918001    19.927171    20.639922    6958.2934    8473.0152    7784.4361    10654.385   -966.87843    551.00982   -2022.5252   -2552.7148 
20688000    260.82894   -3870.1705   -3423.1187   -3870.1705            0    9456.3508    16.935379    19.947639    20.661122    6979.7572    10529.908    8627.7618    9211.3826    617.33211   -382.67638   -1026.3104   -2460.5321 
20689000    251.88566   -3909.3881   -3477.6647   -3909.3881            0    7881.9302    16.941228    19.954528    20.668258    6986.9916     7506.071    8691.8654    7447.8543    297.54593   -1469.4874     434.1495   -2674.5109 
20690000     282.0818   -3880.6337   -3397.1551   -3880.6337            0    8920.6422    16.935635    19.947941    20.661435    6980.0743    8468.1661    9009.4876     9284.273   -420.35047   -795.08592   -1808.0052   -2489.0585 
20691000    259.15167   -3895.5722   -3451.3951   -3895.5722            0    7459.5489    16.986988    20.008428    20.724086     7043.763    7266.2511    7360.6182    7751.7774    678.33835    424.82733    2648.1493   -2685.1051 
20692000     248.7442   -3866.7788   -3440.4398   -3866.7788            0    9369.9099    16.943685    19.957423    20.671256    6990.0323    10108.346    10140.827    7860.5568   -310.49128    447.52232    1265.9796   -2485.2482 
20693000    248.65075   -3866.7406   -3440.5617   -3866.7406            0    8521.9334    16.988778    20.010536    20.726269    7045.9896     7106.999    8256.5186    10202.283   -1401.8858    982.67292   -522.65006   -2564.8603 
20694000    255.16284   -3851.8596   -3414.5192   -3851.8596            0     8677.992    16.955902    19.971812     20.68616     7005.163    7633.9294    8806.4031    9593.6434   -883.88064   -463.78917    534.90379   -2527.9485 
20695000    264.56451   -3912.8205    -3459.366   -3912.8205            0    8288.1722    17.027344    20.055962     20.77332    7094.0837    7951.1087     7224.923     9688.485    184.92162    -1473.845   -393.37128   -2601.8722 
20696000    249.56734   -3887.2396   -3459.4897   -3887.2396            0    7340.8029    16.999674    20.023371    20.739563    7059.5558    8424.4925    7843.9229    5753.9934    955.72062    22.028269    53.338907   -2703.7072 
20697000    258.06627   -3894.6397    -3452.323   -3894.6397            0    9905.4853    16.938014    19.950743    20.664338    6983.0163    10951.958    9211.0395    9553.4588   -703.12584    250.11738    109.33959   -2443.5471 
20698000    251.16018   -3876.4983   -3446.0183   -3876.4983            0    9281.9812    16.969991    19.988408    20.703349    7022.6403    8460.8708    8973.5299    10411.543    1477.3083    1339.3855    623.99073   -2495.3763 
20699000    264.87517   -3869.0609   -3415.0739   -3869.0609            0    9243.5326    16.974735    19.993996    20.709137    7028.5319    9353.8218    9067.3286    9309.4473    169.84026    280.04543    -866.1084   -2467.5755 
20700000    259.01465   -3888.3213    -3444.379   -3888.3213            0     6512.728    17.001309    20.025296    20.741557    7061.5922    6457.1126    6837.0957    6243.9755    1200.6472    139.03187    393.59832   -2773.6587 
20701000    250.08656   -3867.4828    -3438.843   -3867.4828            0    8986.8262    16.968643     19.98682    20.701705    7020.9666    8938.3203    8420.6206    9601.5378    1236.2132   -189.41173     1281.545   -2518.6495 
20702000    262.55786   -3847.4805   -3397.4653   -3847.4805            0    9330.8123    16.931095    19.942594    20.655897    6974.4626     7456.132    10931.948    9604.3563   -471.34106   -1406.5096    435.15431   -2448.3781 
20703000     251.3063   -3875.2299   -3444.4994   -3875.2299            0    8573.8184    16.954959    19.970703    20.685011    7003.9953    7760.1119    8900.8706    9060.4728   -1209.2681    1077.6199   -408.99486   -2568.7174 
20704000    255.62996   -3888.5421   -3450.4011   -3888.5421            0    9009.9657    16.952299    19.967569    20.681766    7000.6994    8362.5256    8982.4054    9684.9661   -272.98396    1832.4221    1007.1849   -2530.5015 
20705000    253.24928   -3914.2336    -3480.173   -3914.2336            0    9702.0163     16.93391    19.945909    20.659331    6977.9415    9590.8171     10122.39    9392.8417    1629.3773    638.99851   -323.44052   -2492.8364 
20706000    265.54509   -3908.4663   -3453.3312   -3908.4663            0    8753.9387    16.935321    19.947571    20.661052    6979.6864    9865.1652    8156.8861    8239.7646    -572.9435    1947.5479   -594.81917    -2562.254 
20707000    263.53933   -3887.0449   -3435.3475   -3887.0449            0     7432.954    16.946246    19.960439     20.67438    6993.2025    8126.4598    7260.0941     6912.308    780.76137    645.61942    878.99357   -2677.2703 
20708000    269.92853   -3869.5324   -3406.8842   -3869.5324            0    9400.4893    16.870971    19.871775    20.582545    6900.4245    11158.905    8821.1468    8221.4157    322.73958   -381.99074     447.8671   -2460.8602 
20709000    264.38811   -3885.7667   -3432.6145   -3885.7667            0    9611.5161    16.865992    19.865911    20.576471    6894.3177    10907.189     8665.766    9261.5936     903.7575   -1146.9006    1173.4103   -2466.2097 
20710000    265.56499   -3851.4053    -3396.236   -3851.4053            0    10551.383    16.874967    19.876482     20.58742    6905.3292    10993.045    10271.285     10389.82    1700.3478   -394.99633     1420.354   -2333.6364 
20711000     247.0365   -3873.6136   -3450.2015   -3873.6136            0    6895.5563    16.934354    19.946433    20.659873     6978.491    7406.8153    6271.6065    7008.2471    1073.4067   -919.18654   -1251.0131   -2748.4123 
20712000     257.7502   -3872.9902   -3431.2152   -3872.9902            0    8735.4465    16.916469    19.925366    20.638052    6956.4027    10971.925    10241.797    4992.6177    594.10511    763.07179    1592.2373   -2544.9867 
20713000    274.88054   -3856.1768    -3385.041   -3856.1768            0    10763.286    16.860759    19.859747    20.570086    6887.9015    10995.959    10044.717    11249.181   -557.06299   -396.81863    686.07361   -2303.8369 
20714000    260.24361   -3887.7925   -3441.7438   -3887.7925            0    6963.9242    16.946493    19.960731    20.674682    6993.5089    7610.8016    6286.1451    6994.8258    -1823.707   -60.653965   -211.31228   -2731.4713 
20715000    249.55725   -3934.9895   -3507.2569   -3934.9895            0     8160.076    16.908628     19.91613    20.628486    6946.7339    8324.0857    8025.8872     8130.255    520.01695    1521.2101   -1519.1622   -2680.5515 
20716000    257.17645   -3907.0374   -3466.2457   -3907.0374            0    10095.511    16.877948    19.879993    20.591057    6908.9891    9587.4129     10741.72    9957.3997    517.12263    1947.4119    312.14411   -2449.0168 
20717000    254.27207   -3895.5214   -3459.7078   -3895.5214            0    8804.0585    16.835669    19.830194    20.539477    6857.1984    9751.5087    9396.1059     7264.561    1116.0989   -365.31192    491.09828   -2579.2561 
20718000     260.4805   -3869.6198   -3423.1652   -3869.6198            0    10121.844    16.885308    19.888662    20.600036    6918.0314    11851.435    10431.119    8082.9778   -1214.6773    3094.5719    -432.8633   -2401.9481 
20719000    265.31507   -3869.0512   -3414.3102   -3869.0512            0    10112.043    16.889809    19.893965    20.605528    6923.5661    9743.1011    10848.874    9744.1535    101.57611   -854.12105    335.59944   -2393.2658 
20720000    256.03726   -3890.0463   -3451.2072   -3890.0463            0    10037.691    16.875781    19.877441    20.588413    6906.3285    10291.048    8498.1299    11323.894   -408.40589   -556.32996    685.68074   -2440.1938 
20721000    256.20476   -3861.8147   -3422.6885   -3861.8147            0    10454.015    16.856623    19.854875     20.56504    6882.8338    11306.968    9492.3131    10562.764   -1493.3797   -3072.0148    24.855335   -2373.3242 
20722000    248.11464    -3874.882    -3449.622    -3874.882            0    10256.606    16.862012    19.861223    20.571616    6889.4382     8137.636    11040.442    11591.739   -1750.2651   -202.85592    431.60939   -2419.0855 
20723000    252.37169   -3891.5144    -3458.958   -3891.5144            0    7770.9818    16.933272    19.945157    20.658552    6977.1527    6476.6683    9454.7075    7381.5695   -798.33267   -429.68442    900.23842   -2668.2247 
20724000    252.09755   -3862.1072   -3430.0206   -3862.1072            0    11137.264    16.888286     19.89217    20.603669    6921.6924    11714.317    10664.051    11033.423   -158.72823   -348.20407   -779.87042   -2305.7608 
20725000    254.43582   -3872.0282   -3435.9339   -3872.0282            0    10886.899    16.919675    19.929142    20.641964    6960.3588     11970.44    10851.375    9838.8825   -1435.0399    156.90134    -455.7187   -2330.8081 
20726000    262.46487   -3880.6059   -3430.7501   -3880.6059            0      10505.6    16.893221    19.897983     20.60969    6927.7624    9975.7685    12014.046    9526.9849   -182.38012    451.93005   -276.45121   -2369.3241 
20727000    270.71337   -3843.4927   -3379.4992   -3843.4927            0    7422.5665    16.949833    19.964664    20.678756    6997.6438    9635.8833    6354.1866    6277.6295     -1220.27   -1507.1677   -1147.8033   -2622.0007 
20728000    279.67613   -3857.2128   -3377.8575   -3857.2128            0     10117.56    16.814985    19.805831    20.514243    6831.9558     8606.202    10800.021    10946.457    1166.0901   -413.05912   -171.43725   -2369.7735 
20729000    263.20167    -3856.468   -3405.3493    -3856.468            0    9165.8875    16.877393    19.879339     20.59038    6908.3073    7631.3947    10549.262    9317.0052    994.09337    1172.5281   -779.22469   -2481.8809 
20730000     258.2936   -3824.1262   -3381.4198   -3824.1262            0    7885.0711    16.905995    19.913029    20.625274    6943.4892    8320.5536    6687.5017     8647.158    331.12127   -2522.2623    367.90114   -2582.9486 
20731000    256.04798   -3830.1722   -3391.3147   -3830.1722            0    8853.9414    16.935809    19.948146    20.661648    6980.2896      7443.19    10166.403    8952.2313    10.048996   -86.592511   -873.43054   -2489.9802 
20732000    246.01966   -3831.1561   -3409.4869   -3831.1561            0    8470.4204    16.938733     19.95159    20.665215    6983.9056    7991.6299    8639.2082    8780.4231   -556.63876    960.80155   -66.668645   -2546.7483 
20733000    248.80143   -3849.8131    -3423.376   -3849.8131            0      8648.19    16.896636    19.902006    20.613857    6931.9647    10753.701    7513.8568    7677.0123    1333.4232    1368.3345   -613.28918    -2549.082 
20734000    264.06984   -3841.4803   -3388.8736   -3841.4803            0    11582.028    16.875598    19.877225     20.58819    6906.1035    11600.772    12300.134    10845.179    713.33049     802.9264    1465.6813   -2222.3498 
20735000    253.44451    -3897.472   -3463.0768    -3897.472            0     8834.583    16.898169    19.903811    20.615727     6933.852    8959.0672    9991.0656    7553.6161    1247.8696   -109.06666    -814.8066   -2569.6962 
20736000    248.17226   -3846.8763   -3421.5176   -3846.8763            0    8912.5488    16.948791    19.963437    20.677486    6996.3541    8579.9042    9646.6663     8511.076    346.43563    -632.8391   -685.42707   -2512.1288 
20737000    254.60646   -3870.1919   -3433.8052   -3870.1919            0    9774.1949     16.90085    19.906969    20.618998    6937.1527     9190.335    9625.3271    10506.923     537.9101   -1032.0389    1683.3747   -2444.9376 
20738000    260.31469   -3836.1487   -3389.9782   -3836.1487            0    8649.7833    16.937639    19.950301     20.66388    6982.5521    8501.5972    6374.7013    11073.051   -530.19814    -2242.763   -722.79522   -2509.1417 
20739000    257.67607   -3849.0585   -3407.4105   -3849.0585            0    10768.479     16.90313    19.909654    20.621779    6939.9599    12509.779    10987.304    8808.3538   -127.66401    33.151643   -798.85311   -2317.5091 
20740000     250.7945   -3848.2658   -3418.4126   -3848.2658            0    8813.9868    16.931862    19.943497    20.656832    6975.4103    9532.3421    9480.0317    7429.5865    579.56728    -1165.397    76.504857   -2521.7727 
20741000    252.95723   -3888.2585   -3454.6984   -3888.2585            0     10761.56    16.949247    19.963974    20.678041     6996.918    11488.299    10801.692    9994.6888   -90.131695    -496.8616   -1331.6883    -2356.558 
20742000     260.0021   -3874.3519   -3428.7172   -3874.3519            0    8545.3325    16.980521    20.000811    20.716196    7035.7216    7053.5083    9317.9869    9264.5022   -1505.6743    106.95091   -378.34253   -2551.8911 
20743000    273.37539   -3871.9239   -3403.3678   -3871.9239            0    9808.0757     16.94223    19.955709    20.669481    6988.2322    10661.821    10299.502    8462.9049   -352.81757   -634.47892   -797.55063    -2403.766 
20744000     258.1144   -3847.4674   -3405.0682   -3847.4674            0     8410.537    16.990978    20.013127    20.728953     7048.727     9059.736    6935.1233    9236.7518     1065.145   -702.40175   -416.15868    -2540.478 
20745000    267.91347   -3848.1102   -3388.9157   -3848.1102            0    9290.4738    16.935247    19.947484    20.660962    6979.5943    6051.7017    10143.892    11675.828    688.52849    -1136.716   -1015.3328   -2443.2363 
20746000    247.72872   -3862.6144   -3438.0159   -3862.6144            0    9473.3761    16.934271    19.946335    20.659772    6978.3884    11276.464     8356.303    8787.3611    688.31464    1457.5859   -343.18227   -2473.8854 
20747000     247.8893   -3865.8983   -3441.0245   -3865.8983            0    9576.1729    16.838635    19.833688    20.543096    6860.8239    9593.3292    9698.0318    9437.1577     766.4257     1682.757    1957.8343   -2482.8511 
20748000    259.93861   -3853.3495   -3407.8236   -3853.3495            0    9953.2205    16.959617    19.976188    20.690693    7009.7688    9479.7429    7796.7635    12583.155    74.793694    1368.3878   -419.77056    -2390.303 
20749000      233.511   -3864.4562   -3464.2263   -3864.4562            0    9613.4872    16.954003    19.969576    20.683844    7002.8106    10498.872     8821.076    9520.5141   -137.65657   -1151.7858   -177.15699   -2482.4123 
20750000    258.77295   -3852.3165   -3408.7885   -3852.3165            0     8992.286    16.914965    19.923594    20.636218    6954.5477      9011.49    9151.9164    8813.4516    248.71328   -2210.4449    977.49001   -2496.7464 
Loop time of 506.24 on 64 procs for 250000 steps with 864 atoms

Performance: 85.335 ns/day, 0.281 hours/ns, 493.837 timesteps/s
99.1% CPU use with 64 MPI tasks x 1 OpenMP threads

MPI task timing breakdown:
Section |  min time  |  avg time  |  max time  |%varavg| %total
---------------------------------------------------------------
Pair    | 21.739     | 26.904     | 31.638     |  46.8 |  5.31
Bond    | 0.26963    | 0.27765    | 0.294      |   0.9 |  0.05
Kspace  | 213.59     | 224.91     | 241.66     |  59.8 | 44.43
Neigh   | 5.2959     | 6.2495     | 7.8517     |  36.9 |  1.23
Comm    | 105.02     | 121.91     | 135.15     |  82.8 | 24.08
Output  | 1.1275     | 1.1291     | 1.1383     |   0.2 |  0.22
Modify  | 115.86     | 120.24     | 124.55     |  21.2 | 23.75
Other   |            | 4.625      |            |       |  0.91

Nlocal:        13.5000 ave          18 max           9 min
Histogram: 1 3 9 10 9 12 5 10 4 1
Nghost:        2285.14 ave        2322 max        2252 min
Histogram: 4 6 8 4 8 12 10 5 6 1
Neighs:        4434.22 ave        6290 max        2570 min
Histogram: 2 3 6 11 10 13 7 6 4 2

Total # of neighbors = 283790
Ave neighs/atom = 328.46065
Ave special neighs/atom = 2.0000000
Neighbor list builds = 13709
Dangerous builds = 0

unfix		3
unfix		2
unfix		1

write_data	data.final.${pid}
write_data	data.final.0
System init for write_data ...
PPPM initialization ...
  extracting TIP4P info from pair style
  using 12-bit tables for long-range coulomb (../kspace.cpp:340)
  G vector (1/distance) = 0.37455352
  grid = 24 24 24
  stencil order = 5
  estimated absolute RMS force accuracy = 0.0031278555
  estimated relative force accuracy = 9.4194439e-06
  using double precision FFTW3
  3d grid and FFT values/proc = 2535 216
Last active /omp style is kspace_style pppm/tip4p/omp
WARNING: Not all mixed pair coeffs generated from mixing. Use write_data with 'pair ij' option to store all pair coeffs. (../write_data.cpp:312)

write_restart   restart.lmp.${pid}
write_restart   restart.lmp.0
System init for write_restart ...
PPPM initialization ...
  extracting TIP4P info from pair style
  using 12-bit tables for long-range coulomb (../kspace.cpp:340)
  G vector (1/distance) = 0.37455352
  grid = 24 24 24
  stencil order = 5
  estimated absolute RMS force accuracy = 0.0031278555
  estimated relative force accuracy = 9.4194439e-06
  using double precision FFTW3
  3d grid and FFT values/proc = 2535 216
Last active /omp style is kspace_style pppm/tip4p/omp
Total wall time: 0:08:31
