LAMMPS (30 Jul 2021)
  using 1 OpenMP thread(s) per MPI task
package omp 0
using multi-threaded neighbor list subroutines
echo both

include		in.partitions
variable        pid world 0
include		in.temp
variable        temperature equal 263.83
variable	tempDamp equal 100.0
include		in.pressure
variable        pressure equal 5375.0
variable        pressureDamp equal 1000.0 # This is 1 ps
include		in.seed
variable        seed world 745823

units		real
atom_style	full
read_restart	restart.lmp.${pid}
read_restart	restart.lmp.0
Reading restart file ...
  restart file = 30 Jul 2021, LAMMPS = 30 Jul 2021
  restoring atom style full from restart
  orthogonal box = (0.50171194 1.6824817 0.61208740) to (17.705860 21.946696 21.601108)
  4 by 4 by 4 MPI processor grid
  restoring pair style lj/cut/tip4p/long/omp from restart
  restoring bond style harmonic/omp from restart
  restoring angle style harmonic/omp from restart
  864 atoms
  576 bonds
  288 angles
Finding 1-2 1-3 1-4 neighbors ...
  special bond factors lj:    0        0        0       
  special bond factors coul:  0        0        0       
     2 = max # of 1-2 neighbors
     1 = max # of 1-3 neighbors
     1 = max # of 1-4 neighbors
     2 = max # of special neighbors
  special bonds CPU = 1.690 seconds
  read_restart CPU = 2.050 seconds
include 	in.setup
variable	out_freq equal 1000
variable	out_freq2 equal 10000
variable	out_freq3 equal 1000

timestep	2.0

neigh_modify    delay 7 every 1

include		in.tip4p
# This is TIP4P/Ice

# create groups ###
group ox type 2
288 atoms in group ox
group hy type 1
576 atoms in group hy

# set charges - beside manually ###
set group ox charge -1.1794
Setting atom values ...
  288 settings made for charge
set group hy charge 0.5897
Setting atom values ...
  576 settings made for charge

# ### TIP3P Potential Parameters ###
pair_style lj/cut/tip4p/long/omp 2 1 1 1 0.1577 8.5
pair_coeff 1 1*2 0.000 0.000
pair_coeff 2 2 0.21084 3.1668
bond_style  harmonic
bond_coeff  1 450 0.9572
angle_style harmonic
angle_coeff 1 55 104.52
kspace_style pppm/tip4p/omp 1.0e-5
pair_modify tail yes

thermo          ${out_freq}
thermo          1000
thermo_style    custom step temp pe etotal epair emol press lx ly lz vol pxx pyy pzz pxy pxz pyz enthalpy

restart 	${out_freq3} restart.lmp.${pid} restart2.lmp.${pid}
restart 	1000 restart.lmp.${pid} restart2.lmp.${pid}
restart 	1000 restart.lmp.0 restart2.lmp.${pid}
restart 	1000 restart.lmp.0 restart2.lmp.0


include         in.dump
dump            myDump all atom ${out_freq2} dump.water.${pid}
dump            myDump all atom 10000 dump.water.${pid}
dump            myDump all atom 10000 dump.water.0
dump            myDump2 all dcd ${out_freq2} dump.dcd
dump            myDump2 all dcd 10000 dump.dcd
dump_modify     myDump append yes
dump_modify     myDump2 append yes


variable natoms 	equal  "count(all)"                        # NUMBER ATOMS
variable H      	equal  "enthalpy/v_natoms"                 # ENTHALPY-per-atom
variable Vol      	equal  "vol/v_natoms"                 # volume-per-atom
fix AVG all 		ave/time ${out_freq} 1 ${out_freq} v_Vol v_H file vol_enthalpy.dat
fix AVG all 		ave/time 1000 1 ${out_freq} v_Vol v_H file vol_enthalpy.dat
fix AVG all 		ave/time 1000 1 1000 v_Vol v_H file vol_enthalpy.dat


timer           timeout 23:50:00 every 1000
New timer settings: style=normal  mode=nosync  timeout=23:50:00

fix 		1 all shake 1e-6 200 0 b 1 a 1
       0 = # of size 2 clusters
       0 = # of size 3 clusters
       0 = # of size 4 clusters
     288 = # of frozen angles
  find clusters CPU = 0.448 seconds
fix             2 all nph iso ${pressure} ${pressure} ${pressureDamp}
fix             2 all nph iso 5375 ${pressure} ${pressureDamp}
fix             2 all nph iso 5375 5375 ${pressureDamp}
fix             2 all nph iso 5375 5375 1000
fix             3 all temp/csvr ${temperature} ${temperature} ${tempDamp} ${seed}
fix             3 all temp/csvr 263.83 ${temperature} ${tempDamp} ${seed}
fix             3 all temp/csvr 263.83 263.83 ${tempDamp} ${seed}
fix             3 all temp/csvr 263.83 263.83 100 ${seed}
fix             3 all temp/csvr 263.83 263.83 100 745823

run             250000
PPPM initialization ...
  extracting TIP4P info from pair style
  using 12-bit tables for long-range coulomb (../kspace.cpp:340)
  G vector (1/distance) = 0.37471615
  grid = 24 24 25
  stencil order = 5
  estimated absolute RMS force accuracy = 0.0030218502
  estimated relative force accuracy = 9.1002122e-06
  using double precision FFTW3
  3d grid and FFT values/proc = 2730 288
Last active /omp style is kspace_style pppm/tip4p/omp
Neighbor list info ...
  update every 1 steps, delay 7 steps, check yes
  max neighbors/atom: 2000, page size: 100000
  master list distance cutoff = 10.8154
  ghost atom cutoff = 10.8154
  binsize = 5.4077, bins = 4 4 4
  1 neighbor lists, perpetual/occasional/extra = 1 0 0
  (1) pair lj/cut/tip4p/long/omp, perpetual
      attributes: half, newton on, omp
      pair build: half/bin/newton/omp
      stencil: half/bin/3d
      bin: standard
Per MPI rank memory allocation (min/avg/max) = 9.240 | 9.244 | 9.250 Mbytes
Step Temp PotEng TotEng E_pair E_mol Press Lx Ly Lz Volume Pxx Pyy Pzz Pxy Pxz Pyz Enthalpy 
 5750000    272.68426   -3856.7817   -3389.4103   -3856.7817            0      4749.49    17.204149    20.264214    20.989021    7317.3721    4765.5289    5423.3489    4059.5922   -1845.4258   -1590.5291    1008.4849   -2882.5619 
 5751000    266.42494   -3861.9529   -3405.3096   -3861.9529            0     4574.886    17.239744    20.306141    21.032448    7362.8853    5268.2792    5110.5832    3345.7955   -1456.7609    -407.6648   -515.55811   -2914.0578 
 5752000    263.28562   -3849.5652   -3398.3027   -3849.5652            0    6451.0018    17.193532     20.25171    20.976069    7303.8342    8062.8161    4820.2213    6469.9679     1251.159    734.87803   -864.87335   -2711.1489 
 5753000    267.09387   -3851.1827   -3393.3929   -3851.1827            0    6353.0979    17.182588    20.238819    20.962717    7289.8959    5974.5691    6656.4317     6428.293   -456.25043   -1134.3137   -386.99112   -2717.9592 
 5754000    253.07475   -3892.7794   -3459.0179   -3892.7794            0    3323.7595    17.241038    20.307665    21.034026    7364.5432    3186.6949    3646.8609    3137.7227   -253.94078   -687.32338   -1393.0722   -3102.0318 
 5755000    276.04567   -3860.6987   -3387.5659   -3860.6987            0    4766.7081    17.228682    20.293111    21.018951    7348.7205    3555.9887    4739.1953    6004.9403    171.03774    523.42646    1112.3736   -2876.7009 
 5756000    266.73835   -3850.8415   -3393.6611   -3850.8415            0    4428.1355    17.233441    20.298717    21.024758    7354.8122    3057.8268    5324.3165    4902.2631   -326.74819   -114.16509   -118.42231   -2918.6887 
 5757000    265.21507   -3836.0684   -3381.4988   -3836.0684            0     5622.896    17.175396    20.230347    20.953942    7280.7452     4482.246    7203.4491    5182.9928    1192.0387    784.35081   -1852.6218   -2784.4473 
 5758000    264.57686   -3846.0244   -3392.5487   -3846.0244            0    4977.4962    17.202277     20.26201    20.986738    7314.9847    6324.9106    4394.4655    4213.1124    260.10847     -209.883    675.20427   -2861.5417 
 5759000    267.56458   -3818.8306   -3360.2341   -3818.8306            0    4562.7039    17.284644    20.359028    21.087225    7420.5639    6457.1682    4649.8412    2581.1024   -562.30239    330.23431   -909.65151   -2866.4522 
 5760000    270.24308   -3864.5564    -3401.369   -3864.5564            0    5867.9026    17.209217    20.270185    20.995205    7323.8417     4387.373    5984.0467    7232.2882   -921.45806   -726.84846    1015.8301   -2774.6141 
 5761000    279.14068   -3874.5035   -3396.0659   -3874.5035            0    7547.4482     17.21845     20.28106    21.006469    7335.6359     7211.627    7762.5536     7668.164    188.41965    369.80111    184.49165   -2588.6193 
 5762000    284.08261   -3856.5731   -3369.6652   -3856.5731            0    5645.8594    17.294741    20.370921    21.099544    7433.5761    5974.1864     6823.907    4139.4847   -781.02646    513.62116    2366.1238   -2757.5915 
 5763000    269.88871   -3832.0568   -3369.4768   -3832.0568            0     5873.314    17.316246     20.39625    21.125779    7461.3395    7348.1629    5173.8544    5097.9247   -85.024681   -689.83432    81.699511   -2730.3663 
 5764000    251.16135   -3848.5734   -3418.0915   -3848.5734            0    6771.0635    17.181306    20.237309    20.961153    7288.2642     7004.073    6556.9343    6752.1831   -12.241947    1088.4061   -1430.2155   -2698.3825 
 5765000     251.9924    -3824.092   -3392.1856    -3824.092            0    4951.2058    17.253107    20.321881     21.04875    7380.0194    4868.6794    5444.5962    4540.3417   -1101.5188    136.59238    324.81442   -2859.2873 
 5766000    265.15836   -3843.4311   -3388.9587   -3843.4311            0    4568.2372    17.299417    20.376428    21.105248    7439.6069    4803.5028    5111.7972    3789.4118   -1442.6383     585.0351    663.59979   -2893.3094 
 5767000    260.36518   -3842.4559   -3396.1989   -3842.4559            0    5578.8113      17.2695     20.34119     21.06875    7401.0767    7157.0074    5812.6623    3766.7641    316.75047   -128.59813    21.576262   -2794.0382 
 5768000    258.52934   -3886.3741   -3443.2637   -3886.3741            0    3178.0988    17.298194    20.374988    21.103757    7438.0296    2912.6303    4052.1224    2569.5438   -1668.1592    975.72707    400.15438   -3098.5162 
 5769000    257.06123   -3843.1212   -3402.5271   -3843.1212            0    5802.2574      17.2392      20.3055    21.031783    7362.1877    5159.5658     6151.332    6095.8743   -1345.8464   -1684.7847    275.52705    -2779.539 
 5770000    265.29805   -3868.0902   -3413.3784   -3868.0902            0    7065.5202     17.23043    20.295171    21.021084    7350.9581    7721.6419    7764.7439    5710.1746   -1344.8076   -413.42318    427.09204    -2655.911 
 5771000    258.00367   -3867.3037   -3425.0943   -3867.3037            0    5651.6259     17.24452    20.311767    21.038274    7369.0063    5631.6695    6220.7206    5102.4876    587.85457   -796.59765   -449.14561   -2817.7174 
 5772000    264.92263   -3867.8919   -3413.8235   -3867.8919            0    4699.5438    17.269656    20.341374     21.06894     7401.277    4240.8756    5285.6773    4572.0786    -293.2004   -471.12696   -396.53622   -2906.5546 
 5773000    259.97611   -3897.5647   -3451.9745   -3897.5647            0    4449.9854    17.360545    20.448429    21.179825    7518.7507    3787.5874    4928.5917     4633.777    29.619827    1179.2224     1313.299   -2964.0191 
 5774000    272.89717   -3810.2177   -3342.4813   -3810.2177            0    5726.4846    17.283435    20.357603     21.08575    7419.0062    5076.4418    6886.4625    5216.5495    1775.4113   -438.97752   -228.64773   -2722.8837 
 5775000    263.90445   -3846.2155   -3393.8923   -3846.2155            0    7216.4765    17.228817     20.29327    21.019116    7348.8932    6294.7057    8531.4746    6823.2493    1143.5827   -913.89608   -173.38796   -2620.4587 
 5776000      270.279   -3839.9919    -3376.743   -3839.9919            0    6007.7085     17.30997    20.388858    21.118123    7453.2304    7575.0868    5701.5028    4746.5359    -793.2662    888.38718   -720.66561   -2723.7188 
 5777000    266.76486   -3840.4313   -3383.2055   -3840.4313            0    4669.5635    17.289662    20.364938    21.093347    7427.0283    5603.9418     3583.139    4821.6097   -420.35676   -654.20232   -535.98715    -2877.419 
 5778000    255.75013   -3873.8456   -3435.4986   -3873.8456            0    6028.9212    17.210309    20.271471    20.996537    7325.2358    6188.5028     4531.143    7367.1177   -430.28549   -279.77798   -48.102502   -2791.4227 
 5779000    259.47833   -3868.4591   -3423.7222   -3868.4591            0    4416.2523    17.250684    20.319027    21.045795    7376.9114    4022.0097    4951.1414    4275.6058   -736.59732   -938.83363    484.08623    -2948.601 
 5780000    248.90002   -3756.8413   -3330.2352   -3756.8413            0    5384.5346    17.253334    20.322149    21.049027    7380.3113    6888.8991    3693.8973    5570.8073    951.45294    1142.3528    222.15983   -2750.6747 
 5781000    264.39549   -3803.7323   -3350.5675   -3803.7323            0    6237.9645    17.276363    20.349273    21.077122    7409.9032    7370.3947    6771.9685    4571.5302    1122.4172   -1450.4204   -118.81625   -2676.4566 
 5782000    257.07999   -3837.3667   -3396.7404   -3837.3667            0    4997.3536    17.276869     20.34987     21.07774    7410.5547    6059.8903    5277.8522    3654.3182   -8.4327604   -372.75604   -1583.1172   -2856.6497 
 5783000    265.38152    -3845.661   -3390.8062    -3845.661            0     5556.976    17.194532    20.252887    20.977288     7305.108    5168.0474    6164.4289    5338.4517   -183.89739   -505.00709   -820.79569   -2798.7798 
 5784000    262.66575   -3907.5525   -3457.3524   -3907.5525            0    3853.9005    17.251988    20.320563    21.047385    7378.5845    4094.8974    3725.9758    3740.8283   -259.78656    264.01999    670.07002   -3042.6377 
 5785000    250.74012   -3884.2129   -3454.4529   -3884.2129            0    6148.9277    17.197358    20.256217    20.980737    7308.7114    4611.4043    7082.9051    6752.4739     -251.871    159.62833    1726.7833   -2799.0383 
 5786000    263.40863   -3884.9461   -3433.4727   -3884.9461            0     6793.218    17.235099     20.30067    21.026781    7356.9353    4888.2846    8935.6738    6555.6955    438.49888   -170.66531    1053.9353   -2704.6056 
 5787000    268.76855   -3850.4539   -3389.7938   -3850.4539            0    4350.4265    17.239582     20.30595    21.032249    7362.6772     2354.941    5144.0893    5552.2492    -817.7807    317.35483    428.57154   -2922.6577 
 5788000    261.89961   -3842.4824   -3393.5954   -3842.4824            0    4550.0899    17.241294    20.307967    21.034338    7364.8708    3396.3591    5567.3566     4686.554   -1077.3139    2425.6858   -200.70801   -2904.8744 
 5789000    277.48167   -3868.9452   -3393.3512   -3868.9452            0     5014.619    17.262684    20.333161    21.060434    7392.3159    5683.1617    2979.6265    6381.0688     -773.058    153.19908     1670.976   -2852.7284 
 5790000    266.23795   -3854.1365   -3397.8138   -3854.1365            0     5948.314     17.16938    20.223262    20.946603    7273.0976    6761.8908    7087.9942    3995.0569   -359.99412    195.21428   -688.69549   -2766.8722 
 5791000    251.91637   -3836.4602   -3404.6841   -3836.4602            0    4238.3222     17.24281    20.309752    21.036188     7366.814    4255.2517    5572.9768    2886.7381      -902.07   -1131.7293   -401.25681   -2949.3297 
 5792000    268.08614   -3868.9536   -3409.4631   -3868.9536            0    4753.6192    17.191318    20.249102    20.973368    7301.0128    3678.6344    5259.0106    5323.2126   -1307.8713    1383.6757   -2225.2322   -2903.3083 
 5793000    273.64743   -3859.3041   -3390.2817   -3859.3041            0     5190.947    17.165526    20.218723    20.941902    7268.2015    5316.9112    3991.5772    6264.3525   -81.181591   -354.28448    980.58883   -2840.0452 
 5794000    275.63806   -3867.9025   -3395.4682   -3867.9025            0    6253.5525    17.168345    20.222043    20.945341     7271.783    5470.7643    4652.8904    8637.0028    63.562297     839.2506    273.38765   -2732.2696 
 5795000    251.52523    -3874.668   -3443.5623    -3874.668            0    4889.9637    17.245283    20.312666    21.039205    7369.9847    7349.5434    4445.7334    2874.6145   -1175.4646    416.71736    18.006937   -2917.9711 
 5796000    268.69652   -3852.4555   -3391.9188   -3852.4555            0    5128.6626    17.205168    20.265416    20.990265    7318.6734    5010.9432    6001.8062    4373.2383   -996.06043   -14.691039   -882.97398   -2844.5093 
 5797000    267.55874   -3863.7568   -3405.1703   -3863.7568            0    6536.3377    17.186942    20.243948    20.968029     7295.439    7389.8915      7197.68    5021.4416    935.11672   -188.28637   -1419.6778   -2709.7269 
 5798000    280.04707   -3860.1615   -3380.1704   -3860.1615            0    5921.4616    17.198655    20.257743    20.982319    7310.3643     5957.238    4466.2952    7340.8515   -312.07192    15.188015    1987.8192   -2748.8587 
 5799000    275.75928   -3847.1469   -3374.5049   -3847.1469            0    6284.2558    17.240536    20.307074    21.033413    7363.8994    5381.2693    6842.6051     6628.893    479.12297    445.09397   -687.90981   -2699.6077 
 5800000    261.67322    -3883.459     -3434.96    -3883.459            0    5351.3033    17.222987    20.286404    21.012004    7341.4364    6219.5044    3624.0549    6210.3507   -456.57895   -2040.4736   -135.50483   -2862.0103 
 5801000    252.73018   -3830.8834   -3397.7125   -3830.8834            0    6476.2206    17.282343    20.356318    21.084419    7417.6012    6391.1273    5701.1022    7336.4324   -919.39839   -342.97319   -922.77577   -2697.1273 
 5802000    263.17055   -3887.0239   -3435.9586   -3887.0239            0    5459.2345    17.212273    20.273785    20.998933    7327.7442    4371.6662    4809.3342     7196.703   -624.52379   -262.88941   -238.55837   -2852.5431 
 5803000    252.96584   -3860.2994   -3426.7246   -3860.2994            0    4214.3892    17.235104    20.300676    21.026786    7356.9415    4124.9814    4778.1096    3740.0766    1199.2422    123.24736   -563.73701   -2974.5482 
 5804000    261.08355   -3853.7916   -3406.3033   -3853.7916            0    3621.1862    17.333941    20.417092    21.147367    7484.2364    3174.6873    3622.6889    4066.1824   -1020.0298    1787.7725    804.44824   -3011.0512 
 5805000    267.26796   -3874.5346   -3416.4465   -3874.5346            0    6197.9314    17.255075    20.324199    21.051151     7382.546    5127.4068    6312.4527    7153.9346   -1282.0828    1949.2227   -39.954259   -2749.1347 
 5806000     271.6002   -3830.7939   -3365.2805   -3830.7939            0    6117.8096    17.214558    20.276475     21.00172    7330.6618    5126.5287    6623.2725    6603.6276   -1813.6627   -602.76408   -1292.8157   -2711.2243 
 5807000    272.29806   -3890.1399   -3423.4303   -3890.1399            0    6821.7663    17.233614    20.298921    21.024969    7355.0336    6241.3018    7848.2222    6375.7748   -860.54016    1156.4198   -336.43924   -2691.6893 
 5808000    258.41167   -3867.2972   -3424.3885   -3867.2972            0    3034.5628    17.389619    20.482674    21.215294    7556.5884    1735.5132    3288.7701    4079.4053    21.427044    550.44064   -916.42668   -3089.9642 
 5809000     262.5014   -3858.2513   -3408.3329   -3858.2513            0     6366.687    17.269729    20.341459    21.069029    7401.3704    8059.8755     5968.997    5071.1885   -220.28155    1522.8795    47.662664   -2721.1038 
 5810000     242.2769   -3861.0283    -3445.774   -3861.0283            0    4985.8855    17.218333    20.280922    21.006326    7335.4858    4251.6369    4324.9218    6381.0977   -84.527705   -60.054398    2123.1494   -2912.3813 
 5811000    253.03263   -3848.9988   -3415.3096   -3848.9988            0    3394.7356    17.314997     20.39478    21.124256    7459.7259    3078.4491    4392.1576       2713.6    868.78739    -712.5067   -735.12174   -3045.9879 
 5812000    264.30996   -3818.5395   -3365.5213   -3818.5395            0    4415.4846    17.296095    20.372516    21.101196    7435.3225    5861.2028     4132.392    3252.8588    677.47672   -582.01323   -1459.0672   -2886.7214 
 5813000    270.43866   -3807.2295   -3343.7069   -3807.2295            0    5406.7708    17.298322    20.375138    21.103912    7438.1942    5356.3894    5570.5953    5293.3278   -1127.0859    285.05533    1352.9023   -2757.1888 
 5814000    264.62127   -3848.4163   -3394.8645   -3848.4163            0      5206.68    17.308886    20.387582    21.116801    7451.8306     5913.347    3883.0582    5823.6347    1142.0895     421.2295    733.67236   -2829.0165 
 5815000    244.14071   -3844.5403   -3426.0915   -3844.5403            0    4449.4848    17.289527    20.364779    21.093182    7426.8542    3625.9216    4594.1046    5128.4284    491.88165   -381.42285    -169.4497   -2944.1542 
 5816000    270.63958   -3836.1904   -3372.3234   -3836.1904            0    3520.3775    17.266876    20.338099    21.065548    7397.7031    3986.2461    2310.6334    4264.2529    807.79807    660.59356   -822.74915   -2992.5172 
 5817000     272.2542   -3895.1418   -3428.5074   -3895.1418            0    2714.0487    17.244829     20.31213    21.038651     7369.402      2547.97     3964.885    1629.2913     1246.402   -399.69595    851.02396   -3136.8145 
 5818000    260.88919   -3850.6988   -3403.5437   -3850.6988            0    5337.9201    17.278829    20.352179    21.080131    7413.0773    5776.6056    5494.4226    4742.7322   -43.302466   -1352.2481   -1276.3494   -2826.4498 
 5819000    247.88389   -3886.6274   -3461.7629   -3886.6274            0    5536.7814    17.296087    20.372505    21.101185    7435.3112    6440.5023     5636.176     4533.666    600.87062    418.92743   -393.62638   -2861.3743 
 5820000    266.85906   -3884.1737   -3426.7864   -3884.1737            0     3430.188    17.360837    20.448773    21.180181    7519.1301    2695.8168    4577.7112    3017.0361   -1310.7465   -1105.2619    609.23097   -3050.6361 
 5821000     261.4266   -3854.3615   -3406.2852   -3854.3615            0    5506.5936    17.289202    20.364396    21.092786    7426.4353    7007.6106    4512.1403      5000.03    298.06886   -790.15167   -274.88579   -2809.8829 
 5822000    276.04145   -3817.2075   -3344.0819   -3817.2075            0    6859.0948    17.257853    20.327471     21.05454    7386.1121    8458.7932     7464.524    4653.9673   -7.7481436    174.71576    1705.1864    -2605.228 
 5823000    255.48748   -3884.6709   -3446.7741   -3884.6709            0    6003.3476    17.204716    20.264883    20.989713     7318.096    5500.6671    6815.4378    5693.9379    476.51002   -506.66492   -7.9164189   -2806.0553 
 5824000     258.8939   -3857.1272   -3413.3919   -3857.1272            0    4961.6722    17.232926     20.29811    21.024129    7354.1529     4298.184    5061.4468    5525.3858    169.40347   -778.98784    480.25813   -2881.2388 
 5825000    265.37969    -3872.911   -3418.0593    -3872.911            0    6455.2581    17.196098    20.254732    20.979199    7307.1045    6374.7513    5984.8379     7006.185    1549.6835   -502.07902   -374.53208   -2730.1443 
 5826000    257.05446   -3819.0841   -3378.5016   -3819.0841            0    6933.8657    17.197739    20.256665    20.981201    7309.1964    8350.2631    5241.5475    7209.7866    254.32933   -265.29013   -855.67713   -2639.3714 
 5827000    263.11746   -3865.4035   -3414.4291   -3865.4035            0    6504.4992    17.156811    20.208457    20.931269    7257.1361    6510.7045    7683.3808    5319.4124   -252.68883   -332.01194    852.11495   -2726.0067 
 5828000    268.21403   -3806.2608   -3346.5512   -3806.2608            0    5612.9683    17.168328    20.222023     20.94532    7271.7613    4720.1025    6532.6739    5586.1287   -412.07757    184.82312    172.22601   -2751.2893 
 5829000    257.78215   -3832.9606   -3391.1308   -3832.9606            0    4388.7432    17.301981    20.379448    21.108376    7442.9152    3746.7949    3803.1624    5616.2725    472.66105    818.20278   -1047.3775   -2914.7446 
 5830000    276.12413   -3843.9543    -3370.687   -3843.9543            0    4567.0278    17.273879    20.346347    21.074092    7406.7072    5557.4949    4243.3691    3900.2194    1321.6681    1097.7346    1074.6388   -2877.3602 
 5831000    263.66429   -3851.6046   -3399.6931   -3851.6046            0    4953.3007    17.279934     20.35348    21.081479    7414.4994    5100.0497    5272.0725      4487.78    619.65661   -940.23326    1032.1425   -2864.0785 
 5832000     264.3815   -3876.3423   -3423.2014   -3876.3423            0    4772.6942    17.285519    20.360058    21.088293     7421.691    6014.8925    2273.5191    6029.6711    175.88266   -1395.8269   -658.43167   -2906.6157 
 5833000    253.77038   -3848.8904   -3413.9367   -3848.8904            0    4908.7519     17.24269    20.309612    21.036042     7366.661    5506.8285     5176.419    4043.0083   -1047.1685    1062.5559    745.63327    -2886.564 
 5834000    277.04804   -3817.7115   -3342.8607   -3817.7115            0    5463.6203    17.253559    20.322413    21.049302       7380.6    4639.0587    7890.8652    3860.9371   -371.93291   -441.36081    26.115521   -2754.7649 
 5835000    273.88234   -3873.5272   -3404.1022   -3873.5272            0    6931.1367    17.190958    20.248678    20.972929    7300.5544    5538.9386    6923.9648    8330.5067   -1192.2869    -654.6333   -449.65222   -2666.1365 
 5836000    260.61852   -3844.9895   -3398.2983   -3844.9895            0    5733.8279    17.253133    20.321912    21.048782    7380.0536    5970.9742    5945.0746    5285.4348    220.51937   -301.16226    -571.9937   -2781.1634 
 5837000     257.1454   -3832.1877   -3391.4493   -3832.1877            0    4126.8285    17.310612    20.389614    21.118906    7454.0589    3439.7836    3225.7381    5714.9638   -1543.8886    121.29805   -1316.1381   -2942.8226 
 5838000    270.89995   -3818.9668   -3354.6535   -3818.9668            0    5017.0554    17.279534    20.353009    21.080992     7413.985    7599.2071    4183.6205    3268.3385    720.32157   -130.47703   -571.36745   -2812.1826 
 5839000     255.5176   -3884.6312   -3446.6828   -3884.6312            0    5225.3344    17.209735    20.270794    20.995836    7324.5024    7567.0564    4457.1038    3651.8428    488.64443     1421.073   -139.11521   -2888.5108 
 5840000    256.68217   -3856.5297   -3416.5853   -3856.5297            0    5835.2107    17.294457    20.370586    21.099197      7433.21    6259.8067    6283.7215    4962.1038    64.176433   -907.49985   -452.79442   -2784.0149 
 5841000    252.91481   -3864.5636   -3431.0763   -3864.5636            0    4998.7603    17.236273    20.302052    21.028212    7358.4382    3362.5543    7623.4671    4010.2594   -10.694656   -239.84894    10.948065    -2894.633 
 5842000    277.18826   -3862.4857   -3387.3945   -3862.4857            0    6187.5498    17.225946    20.289889    21.015614    7345.2206    5065.4775    6704.4637    6792.7082    13.150333    498.91173    845.24209   -2724.5687 
 5843000    256.68893   -3875.8543   -3435.8982   -3875.8543            0    3218.7339    17.320715    20.401515    21.131232    7467.1189     3462.546    2928.4967     3265.159   -25.420713    891.41664   -127.02152   -3085.3772 
 5844000    255.31594   -3878.2306   -3440.6278   -3878.2306            0    4265.4668    17.327036    20.408959    21.138943     7475.296    5602.9255    2703.0071    4490.4679   -721.63847    294.68555   -1205.3367   -2975.6086 
 5845000    259.87447   -3873.6225   -3428.2065   -3873.6225            0    6171.3739    17.221553    20.284714    21.010254    7339.6019    5566.2095     5492.891    7455.0212   -149.11203    3088.1751    1084.5691   -2767.6192 
 5846000    253.86932   -3826.8021   -3391.6787   -3826.8021            0    5048.9139     17.35698     20.44423    21.175476    7514.1198      3488.33    5294.1655     6364.246   -841.51447   -299.42928    351.29873   -2838.3898 
 5847000    256.93313    -3827.641   -3387.2664    -3827.641            0     6621.564    17.260437    20.330515    21.057693    7389.4302    6565.4641    7027.1027    6272.1252    220.36959   -1130.4845   -592.75753   -2673.6786 
 5848000    252.23758   -3850.2012   -3417.8746   -3850.2012            0    5780.6455    17.257372    20.326904    21.053953     7385.494    4162.9206    6691.4144    6487.6014   -564.74474    452.60544     350.2966   -2795.2421 
 5849000     266.7958   -3842.0264   -3384.7475   -3842.0264            0    2732.4494    17.328674    20.410889    21.140942    7477.4167    2753.8606    2055.7017    3387.7857   -1068.7662     992.4788    397.95966   -3086.7727 
 5850000    259.98652   -3850.3837   -3404.7756   -3850.3837            0    6897.6433    17.196703    20.255444    20.979937    7307.8753     8117.242     6702.555    5873.1328    721.79813   -500.04761    433.76513   -2669.6396 
 5851000    259.64552   -3908.9909   -3463.9674   -3908.9909            0    5318.3069    17.229158    20.293673    21.019533    7349.3305    5141.7635    4873.8339    5939.3232    -1906.007    454.25241   -184.86472   -2893.9383 
 5852000      275.661   -3858.6862   -3386.2126   -3858.6862            0    6278.8943    17.190679    20.248349    20.972588    7300.1987    6269.7257    6189.8546    6377.1026   -867.60567    1065.3958      251.985   -2717.7244 
 5853000    261.46739   -3852.4502   -3404.3041   -3852.4502            0    4460.2503    17.250319    20.318597    21.045349     7376.443    4292.7723    4663.4291    4424.5496    481.45621   -1684.8788   -672.88355   -2924.4799 
 5854000    259.58357    -3848.801   -3403.8836    -3848.801            0    4412.9587    17.198303    20.257329    20.981889    7309.9155    4455.1724    3725.5673    5058.1362    37.068639    1199.6431   -1647.5369   -2933.4286 
 5855000    272.53704    -3871.277   -3404.1578    -3871.277            0     4586.061    17.281157     20.35492    21.082971    7416.0735    6189.3919    2811.3938    4757.3975   -469.38312    662.23236    617.53349   -2908.1486 
 5856000    259.06067   -3881.9328   -3437.9117   -3881.9328            0     3577.917    17.254866    20.323953    21.050896    7382.2772    2796.7661    3725.4551      4211.53    58.022045    158.07053   -275.60043   -3052.7027 
 5857000    258.05127   -3872.7347   -3430.4436   -3872.7347            0    4658.8484    17.243426    20.310478    21.036939    7367.6036    4907.8112    4785.7673    4282.9667     897.4251   -374.04805    326.04969   -2929.8553 
 5858000    260.99954   -3839.6888   -3392.3445   -3839.6888            0    4646.6999     17.19157    20.249398    20.973675    7301.3334     3983.319    5637.9324    4318.8485   -221.17901    228.42095     325.7402   -2897.5525 
 5859000    262.28815   -3867.3837   -3417.8308   -3867.3837            0    4372.3714     17.26364    20.334288    21.061601    7393.5449    5352.0089    4536.5986    3228.5068   -1445.0797   -644.45887    205.53651   -2946.3699 
 5860000    277.32798   -3907.6581   -3432.3275   -3907.6581            0    3716.8916    17.284248    20.358561    21.086742    7420.0534    2774.0816     3720.674    4655.9191    863.83677    698.05808   -997.01994   -3030.1083 
 5861000    270.57094   -3857.2827   -3393.5333   -3857.2827            0     6210.779    17.186352    20.243252    20.967309    7294.6871    6607.6543    4743.0054    7281.6773   -381.54906   -106.91912    391.25687   -2732.7963 
 5862000    269.06255   -3857.1398   -3395.9758   -3857.1398            0    5569.9591    17.166796    20.220218    20.943451    7269.8142    3693.6761    5887.0564    7129.1447   -1696.3199   -267.72371     918.5591   -2805.4333 
 5863000    256.21339    -3843.902    -3404.761    -3843.902            0     5009.104    17.227202    20.291368    21.017146    7346.8272    3925.4423    7596.9356    3504.9341   -3593.9948    771.55174    715.46614   -2868.0559 
 5864000    264.50541   -3808.3397   -3354.9865   -3808.3397            0    5761.3566     17.26795    20.339365    21.066859    7399.0843    7189.0432    4496.2369    5598.7897   -71.181683    1269.6901    393.15602   -2733.2897 
 5865000    264.71886   -3800.9852   -3347.2661   -3800.9852            0    5294.9532    17.251236    20.319678    21.046468    7377.6197    5480.3529    6243.4863    4161.0204    117.33936    807.51584    346.55337   -2777.5555 
 5866000    261.52915   -3861.9328   -3413.6808   -3861.9328            0    4718.4255    17.256214    20.325541    21.052541    7384.0079    5879.5689    3683.8684    4591.8394    321.11394   -45.312634   -510.91162   -2905.5621 
 5867000    256.91545   -3866.4559   -3426.1116   -3866.4559            0    4266.5498    17.250749    20.319104    21.045874    7376.9948    5134.0077    3846.3211    3819.3205   -1487.8223    699.72188   -618.63409    -2967.091 
 5868000    264.17583   -3872.0521   -3419.2638   -3872.0521            0    6181.1724    17.215315    20.277367    21.002644    7331.6294      6084.88    3020.9924    9437.6446    1642.1575   -1827.1058    -1623.189   -2758.3463 
 5869000    262.21191   -3834.0498   -3384.6275   -3834.0498            0    5430.7787    17.249346    20.317451    21.044162    7375.1949    4257.5153    5996.4171    6038.4037   -410.22936    175.41415    1215.2181   -2800.4949 
 5870000    251.46623   -3844.4347   -3413.4302   -3844.4347            0    8286.3922    17.218233    20.280805    21.006205    7335.3588    8227.0127     9173.318    7458.8458    302.21808   -1481.9585   -1873.2416   -2526.9629 
 5871000    255.51476    -3861.364   -3423.4205    -3861.364            0    4912.1531    17.262846    20.333352    21.060632    7392.5245    6106.5386    5290.4661    3339.4544    714.98751   -858.56686   -615.27695   -2893.8295 
 5872000    266.79418   -3830.6434   -3373.3673   -3830.6434            0     4938.885    17.267723    20.339096    21.066581    7398.7914    6998.9639    3414.8584    4402.8327     2055.573   -784.33982   -137.89512   -2840.4429 
 5873000    261.02436   -3875.4137   -3428.0268   -3875.4137            0    4412.5572    17.215353    20.277412    21.002691    7331.6784    4850.5152    3808.3916    4578.7647   -2068.8626    187.00968   -1759.4858   -2956.2141 
 5874000    267.85523   -3852.4462   -3393.3515   -3852.4462            0    4686.3113    17.281054    20.354799    21.082845    7415.9408    6274.5479     4601.035     3183.351   -131.71922   -1072.0519   -84.963876   -2886.5087 
 5875000     282.7556   -3846.9273   -3362.2939   -3846.9273            0    6451.2441    17.179073    20.234679     20.95843    7285.4235    5605.3952    8017.7451    5730.5919   -983.86856    857.90767    1734.3007   -2676.8464 
 5876000    262.20755   -3872.4387   -3423.0239   -3872.4387            0    6899.9966    17.243357    20.310397    21.036855    7367.5154    7242.5478    7383.1555    6074.2866    1283.0881   -836.80146    1055.1069   -2681.6355 
 5877000    268.63979   -3877.3965   -3416.9571   -3877.3965            0    7629.8389    17.129741    20.176572    20.898244    7222.8392    7166.9205    8484.9977    7237.5984   -132.39811   -390.46989    649.75723   -2613.2474 
 5878000    273.18838   -3898.8856   -3430.6501   -3898.8856            0    5189.0435    17.280252    20.353854    21.081867    7414.9081    5909.8718    5679.3685    3977.8902   -257.47528   -511.90464   -928.72836    -2869.513 
 5879000    285.99779   -3897.7051   -3407.5147   -3897.7051            0    4472.4524     17.26663    20.337809    21.065248    7397.3865    4387.0547    4016.3809    5013.9216   -341.35612   -200.81421    498.48809   -2925.0118 
 5880000     250.7315   -3897.4493   -3467.7041   -3897.4493            0    6164.6149    17.293238     20.36915     21.09771     7431.638    6709.3355    6324.4197    5460.0894    1360.4536    -318.2585   -2037.7807   -2799.5658 
 5881000    256.28073   -3914.6138   -3475.3574   -3914.6138            0    6616.7797    17.213286    20.274977    21.000168    7329.0369     7206.969    5372.0571    7271.3129    643.56112    99.226851    448.46489    -2768.113 
 5882000    275.22852   -3862.7231   -3390.9908   -3862.7231            0     6039.614    17.309894    20.388769    21.118031    7453.1326    6260.1069    5688.1123    6170.6226   -229.12519    1912.1084    944.89777   -2734.5072 
 5883000    250.73021   -3839.3379   -3409.5949   -3839.3379            0    5162.9406    17.227963    20.292265    21.018074    7347.8007    4690.0081    6395.4736    4403.3402    527.84778    489.33187    761.94618   -2856.3334 
 5884000    265.99261   -3936.0167   -3480.1145   -3936.0167            0    5436.0537    17.233649    20.298962    21.025011     7355.078    4386.4182    6482.9549    5438.7881   -261.75279   -556.10464    1120.1193   -2897.0093 
 5885000    258.54469   -3930.0653   -3486.9286   -3930.0653            0    2977.0987     17.27214    20.344299     21.07197     7404.471    2184.0935    3205.2481    3541.9545   -1124.0461   -1245.1346   -115.57836   -3165.4418 
 5886000    256.35768   -3861.4691   -3422.0808   -3861.4691            0    4972.4679     17.23887    20.305112    21.031382    7361.7659    4753.9632    5999.2689    4164.1715    489.98943    -191.3758   -836.27716   -2888.2178 
 5887000    250.82266   -3863.7776   -3433.8762   -3863.7776            0    5895.4877    17.230138    20.294826    21.020728     7350.584    6342.0773    6431.4992    4912.8866   -75.861502    41.399868    592.23292   -2801.8756 
 5888000    260.60029   -3854.9879   -3408.3279   -3854.9879            0    8347.6435    17.152127     20.20294    20.925555    7251.1939    8589.0803    8967.3158    7486.5345    342.55053    1579.7997   -72.992637   -2525.5544 
 5889000    247.96211   -3902.9795    -3477.981   -3902.9795            0    3810.5946    17.249181    20.317256     21.04396    7374.9827    3723.6037    2902.5004    4805.6798   -37.649301    98.721177    1169.2256   -3068.1265 
 5890000    271.87345   -3882.2956   -3416.3138   -3882.2956            0    5034.4773    17.172006    20.226355    20.949808     7276.436    4595.5748    4294.7078    6213.1492    562.17243   -9.6510273   -801.29486   -2882.0583 
 5891000    255.81747   -3898.4333   -3459.9709   -3898.4333            0    3805.7226    17.279247     20.35267    21.080641    7413.6145    3306.6136     3456.766    4653.7882   -690.33605   -805.59868    774.24912   -3048.4963 
 5892000    251.77362    -3863.198   -3431.6666    -3863.198            0    5661.2308    17.184728     20.24134    20.965328      7292.62    3815.7884    5774.2532    7393.6507   -1840.1235   -1393.6251    2604.1394   -2829.5642 
 5893000     256.5829   -3876.7743        -3437   -3876.7743            0    5902.4348    17.202284    20.262019    20.986747    7314.9935    7488.5145      2843.43    7375.3599    77.672536   -1484.6336    1515.3013   -2807.3184 
 5894000    263.12051   -3880.9751   -3429.9955   -3880.9751            0    6610.5486    17.199361    20.258575     20.98318    7311.2647    6237.2517    7578.8785    6015.5157   -1003.7733    998.61718   -803.55087   -2725.1306 
 5895000    258.86432   -3831.5399   -3387.8553   -3831.5399            0    4930.7396    17.291355    20.366932    21.095412    7429.2101    4644.5735    4951.6876    5195.9577   -1060.3232     1425.893   -1215.6783   -2853.6224 
 5896000       253.14   -3873.3285   -3439.4552   -3873.3285            0    5163.5689     17.26937    20.341036    21.068591    7400.9087    6845.6722    4166.6364    4478.3982    806.89477   -324.48727    1159.2786   -2882.1271 
 5897000    244.30363   -3892.0485   -3473.3204   -3892.0485            0    5502.6106    17.221913    20.285138    21.010693    7340.0623    5652.1092     5314.749    5540.9737    1572.9997   -1849.1916    310.68468   -2884.2809 
 5898000    257.72081    -3907.746   -3466.0214    -3907.746            0    5911.8033    17.181755    20.237838    20.961701    7288.8358    6728.1711    3804.5876    7202.6512    985.59473    -47.86155   -128.08345   -2837.5955 
 5899000    257.02672   -3848.8508   -3408.3158   -3848.8508            0    4753.1505    17.243655    20.310748    21.037219    7367.8972    5112.7968    5379.8232    3766.8315   -231.10156   -233.63139   -44.502339   -2897.5745 
 5900000    261.16227   -3908.1695   -3460.5463   -3908.1695            0    3837.1061    17.275079    20.347761    21.075555    7408.2508    5086.5065    3233.5138    3191.2981      1440.64   -635.34172    436.29835   -3045.9787 
 5901000     268.9486   -3870.0006   -3409.0319   -3870.0006            0    5750.1239    17.210217    20.271363    20.996425    7325.1184    4871.4365    7363.1706    5015.7647    173.68197   -755.44587   -302.28331     -2794.75 
 5902000    260.80825   -3897.6339   -3450.6175   -3897.6339            0    3294.5829     17.19548    20.254004    20.978445    7306.3163    3813.8604    2658.9477    3410.9407    661.04791    1008.9373    -448.7641   -3099.5628 
 5903000    264.44324    -3868.316   -3415.0693    -3868.316            0    4667.0502    17.186736    20.243705    20.967778    7295.1765    3322.8668    4551.0424    6127.2414    492.41218   -711.33812     147.1329   -2918.5294 
 5904000    255.09844   -3862.0198   -3424.7898   -3862.0198            0    5752.7479    17.110674    20.154114    20.874983    7198.7477    5904.3804    4373.3631    6980.5004    1480.2908    48.918594    1124.0792   -2820.8297 
 5905000    254.84046   -3837.2856   -3400.4977   -3837.2856            0    6732.9815    17.132578    20.179914    20.901705    7226.4291     7033.265    7117.3152    6048.3643   -1458.5808   -316.99285    246.56483   -2690.9084 
 5906000    246.13738   -3852.7376   -3430.8666   -3852.7376            0    4682.7434    17.190497    20.248135    20.972366    7299.9666    2612.4651    5339.2432     6096.522     165.1975    31.116464   -501.97465   -2932.3299 
 5907000     265.3358   -3864.3693   -3409.5928   -3864.3693            0    5501.8853    17.226823    20.290922    21.016684    7346.3425    6089.6903    5860.4948    4555.4708    1655.7669    390.80507    109.97775    -2820.127 
 5908000    262.59724   -3890.8841   -3440.8015   -3890.8841            0    4600.3992    17.258195    20.327874    21.054958    7386.5513    5289.8064    4572.5713      3938.82   -354.02097   -107.23173    293.00061   -2945.2222 
 5909000    256.29846   -3864.8667   -3425.5799   -3864.8667            0    5334.9096     17.20895     20.26987    20.994878    7323.4999    3887.2607     5253.971    6863.4971   -217.76257   -4.1269734   -982.20117    -2855.781 
 5910000    262.84679   -3825.4439   -3374.9335   -3825.4439            0    6471.8304    17.164184    20.217142    20.940265    7266.4969    6075.2674    4842.3062    8497.9176   -126.44878    -303.6935   -105.89292   -2689.0851 
 5911000    250.51398   -3858.5841   -3429.2117   -3858.5841            0    6820.3346    17.159081    20.211131    20.934039     7260.018    7734.4017         5576     7150.602   -412.73387    647.22776    218.29865   -2707.0752 
 5912000    255.04761   -3829.4989    -3392.356   -3829.4989            0    4787.0986    17.156368    20.207935    20.930729     7256.574    4793.8176    5794.7922     3772.686   -1746.3495   -2006.9484   -573.72544   -2885.7389 
 5913000    263.13067   -3843.6352   -3392.6383   -3843.6352            0    6659.1953    17.151394    20.202077    20.924661    7250.2649    7260.3628    7743.5838    4973.6392   -883.02897     474.5707    38.537658   -2688.5104 
 5914000    250.62452   -3841.5961   -3412.0342   -3841.5961            0    7719.6707    17.131531     20.17868    20.900428     7225.104    9015.0948    7649.8247    6494.0925    381.87818   -1180.6331   -439.85305   -2598.6069 
 5915000    258.98585   -3848.1064   -3404.2135   -3848.1064            0    4336.1524    17.219953     20.28283    21.008303     7337.557    6253.5548    4296.0739    2458.8286    74.657882   -1387.5461   -429.70736   -2940.1986 
 5916000    274.22189   -3872.1593   -3402.1524   -3872.1593            0    5597.8423    17.195024    20.253467    20.977889    7305.7357    6029.3956    3905.0072    6859.1239   -1003.6633   -184.53466   -898.28574    -2805.721 
 5917000    259.58732   -3896.5226   -3451.5989   -3896.5226            0    4394.1712    17.198895    20.258026    20.982611    7310.6705     4310.742    4848.6402    4023.1314   -1024.6024   -956.89881    481.85507   -2983.0984 
 5918000     276.0356   -3838.9945   -3365.8789   -3838.9945            0    7158.0961    17.202717    20.262529    20.987275     7315.546     8816.513    6878.5417    5779.2335   -840.86847   -293.15279    522.09583   -2602.1835 
 5919000     266.3547   -3812.6386   -3356.1158   -3812.6386            0    5295.2397    17.210932    20.272205    20.997297    7326.0314     5814.825    5588.3283    4482.5658   -659.53448    1113.1462    6.3624602   -2790.3583 
 5920000    270.36057   -3836.2898   -3372.9011   -3836.2898            0    4421.5644    17.233508    20.298796    21.024839    7354.8978    4074.9122    5548.2205    3641.5604    697.08715    436.75539    865.39805    -2898.628 
 5921000    263.70964   -3862.2365   -3410.2472   -3862.2365            0    4966.9884    17.230942    20.295773    21.021709    7351.6128    3628.6968    6761.0186    4511.2497   -1595.4709   -260.75047   -2454.3318   -2877.7079 
 5922000    267.49193   -3861.9934   -3403.5214   -3861.9934            0    5681.2426    17.196439    20.255134    20.979616    7307.5399      7204.98    5107.3444    4731.4034   -436.10845    -1113.886    48.350175   -2798.0545 
 5923000     266.2979   -3879.6898   -3423.2643   -3879.6898            0    6901.1252    17.287575    20.362479    21.090801     7424.339    6262.6385    7782.9379    6657.7993    621.93675   -309.07867   -1075.8906   -2676.0355 
 5924000     259.4041   -3849.5896   -3404.9798   -3849.5896            0    5495.5248    17.237604     20.30362    21.029836    7360.1433    6334.7819     3146.534    7005.2586     1770.304    2474.9502    373.32776   -2815.0894 
 5925000    261.65485   -3851.7277   -3403.2602   -3851.7277            0    4704.0946    17.237771    20.303817     21.03004     7360.357    3656.7961    6178.2603    4277.2275   -430.41343    377.71693    1380.4616   -2898.3074 
 5926000    265.15303   -3871.7904   -3417.3272   -3871.7904            0    3695.1762    17.281244    20.355023    21.083078    7416.1863    3768.9654    4521.8308    2794.7325    491.04284   -598.52383    744.58572   -3017.6663 
 5927000    268.16449   -3851.0292   -3391.4044   -3851.0292            0    7224.8051      17.2332    20.298433    21.024464    7354.5038    8256.7846     6303.642    7113.9888   -259.57077   -249.07708   -838.78833    -2616.487 
 5928000    265.03272   -3858.5339   -3404.2768   -3858.5339            0    5003.9779    17.290529    20.365959    21.094405    7428.1459    2508.6778    8179.9429     4323.313   -326.74845   -1546.7782   -969.84612   -2862.1865 
 5929000    267.09529   -3885.1979   -3427.4058   -3885.1979            0    6206.6566    17.201571    20.261179    20.985876    7314.0837     5484.284    6192.7432    6942.9426   -355.57291   -521.54043    1535.5301   -2765.3516 
 5930000    256.09481   -3882.3055   -3443.3677   -3882.3055            0    3534.6086    17.254699    20.323756    21.050692    7382.0627    2397.3848    3062.6835    5143.7574   -859.46567    63.040305   -100.26126   -3062.8325 
 5931000    266.47584   -3862.1093   -3405.3789   -3862.1093            0     4910.437    17.253088    20.321859    21.048727    7379.9958    3486.5011    5150.7185    6094.0913    187.27723   -1135.6088    1021.6407   -2876.8701 
 5932000    275.41284   -3847.7974   -3375.7492   -3847.7974            0    6561.9382     17.17016    20.224181    20.947555    7274.0894    6635.4708    7635.8255    5414.5185   -300.61973   -1346.0431    69.943519   -2679.6251 
 5933000    263.61708   -3873.2306   -3421.3999   -3873.2306            0    4099.0528    17.316085    20.396061    21.125583    7461.1319    3953.6964    5045.0427    3298.4192   -1154.0719   -1236.2275    299.31918   -2975.3699 
 5934000    262.61274   -3887.9831   -3437.8738   -3887.9831            0    5875.4878    17.272467    20.344685     21.07237     7404.892    4846.8344    6200.5759    6579.0531   -890.47493    129.63763   -699.45524   -2803.3637 
 5935000    273.43009   -3868.3008   -3399.6509   -3868.3008            0    7012.7707    17.130773    20.177787    20.899502    7224.1447    6732.6913    6688.4509    7617.1699   -1248.8272   -1056.0373   -459.24762   -2660.8083 
 5936000    273.22512   -3869.4211   -3401.1226   -3869.4211            0    5168.1127    17.229252    20.293783    21.019647    7349.4502    3974.2983    5142.9809     6387.059   -2432.3277    1026.0206    755.28789   -2847.1826 
 5937000    260.39979   -3887.7783   -3441.4619   -3887.7783            0     5898.521    17.221427    20.284566      21.0101    7339.4408    6097.2192     6604.609    4993.7347   -773.24915    -173.4845    542.35189   -2810.0948 
 5938000    271.58968    -3863.579   -3398.0836    -3863.579            0    4455.3306    17.233962    20.299331    21.025393    7355.4792    6127.2654    4782.0787    2456.6477    1506.2732    55.829978    -641.9448   -2920.1509 
 5939000    244.10431   -3890.9563   -3472.5698   -3890.9563            0    4655.5456    17.278952    20.352324    21.080282    7413.2358    4840.3295    5262.8485    3863.4587    835.61864   -2100.1611   -728.64695   -2969.2381 
 5940000    280.87141   -3859.1002   -3377.6962   -3859.1002            0    5282.5722    17.255347     20.32452    21.051483    7382.8951    5124.4274     5165.738    5557.5513   -259.85217    -859.5679   -1631.2934   -2808.9114 
 5941000    267.83091   -3876.7735   -3417.7205   -3876.7735            0    5156.5387    17.183421      20.2398    20.963733    7290.9554    6685.8935    5130.2184    3653.5043   -238.13798   -1560.7254   -219.53641     -2869.42 
 5942000    265.68709   -3882.6207   -3427.2421   -3882.6207            0    4390.5988    17.253807    20.322705    21.049604    7380.9178     4319.491    4817.0478    4035.2575    272.73613   -211.47504   -1856.4256   -2954.6243 
 5943000    266.28504   -3878.0328   -3421.6293   -3878.0328            0    2988.2268    17.258017    20.327664     21.05474    7386.3225    1693.1001    3963.5572    3308.0231    148.49364    1121.3381   -417.08797   -3099.7318 
 5944000    267.49274    -3865.086   -3406.6126    -3865.086            0    4591.7942    17.289001     20.36416    21.092541    7426.1771    4130.3231    4771.9277    4873.1317   -714.90981    714.62022   -588.49343   -2909.3067 
 5945000    262.07357   -3864.3831    -3415.198   -3864.3831            0    3298.5722    17.272827    20.345108    21.072808     7405.354    3099.0506     5080.791    1715.8751     932.7951   -236.12384    653.32558   -3058.9539 
 5946000    259.09377   -3873.0543   -3428.9764   -3873.0543            0    4190.4313    17.311628    20.390811    21.120146    7455.3722    4749.1073    4874.1136    2948.0732    307.64294    303.44539   -189.60677   -2973.3552 
 5947000    271.32165   -3876.1063   -3411.0703   -3876.1063            0    6506.0696    17.237285    20.303245    21.029447    7359.7348    5866.6714    5351.5833    8299.9541     -147.781   -132.24394   -409.78555   -2712.7466 
 5948000    250.33053   -3823.5317   -3394.4737   -3823.5317            0    4641.9842    17.300168    20.377313    21.106164    7440.5756     4527.193    5870.0521    3528.7075   -524.16231    538.45523    43.958135   -2890.7573 
 5949000    267.35263   -3837.6311   -3379.3978   -3837.6311            0    6133.9302     17.22987    20.294511    21.020402    7350.2417    5633.4641    5512.3332    7255.9932    813.72198    492.86696    53.110093   -2721.8667 
 5950000    260.62693   -3864.8377    -3418.132   -3864.8377            0    6945.3933    17.246495    20.314093    21.040684    7371.5384    6205.6474    6507.0455    8123.4869   -148.63803   -462.00607   -640.14221   -2671.4583 
 5951000    256.61277   -3841.1792   -3401.3537   -3841.1792            0     4907.995    17.349533    20.435458    21.166389    7504.4509    4553.1202    6563.5053    3607.3595    262.54222    1321.7581   -1061.9413   -2864.1996 
 5952000    249.73316    -3817.811   -3389.7769    -3817.811            0    5806.5004    17.255455    20.324647    21.051615    7383.0337    5526.3773    4587.0239    7306.0999    1798.8435    1769.5198   -228.14628    -2764.568 
 5953000    256.32082   -3847.1175   -3407.7924   -3847.1175            0    5143.2229    17.261701    20.332003    21.059235    7391.0534    4483.9541    4829.7667    6115.9478   -448.98669   -446.81573   -2205.1781   -2853.3996 
 5954000    253.22953   -3866.2277   -3432.2009   -3866.2277            0    3730.3321    17.277893    20.351075    21.078989    7411.8718    3634.7503     4812.762    2743.4842    101.55554    174.25012   -708.01294   -3028.9724 
 5955000    246.90763   -3870.1087   -3446.9175   -3870.1087            0    6581.9629    17.228023    20.292335    21.018147    7347.8771    6389.3408    6128.1333    7228.4147    133.61426   -339.09911    335.16721   -2741.5861 
 5956000     256.9897   -3864.9367   -3424.4652   -3864.9367            0    5501.1078    17.301056    20.378358    21.107247    7441.7213    7786.6752    4923.5277    3793.1205    753.46866   -1511.9187   -203.51182   -2827.4306 
 5957000    267.03867     -3886.35   -3428.6548     -3886.35            0    6279.6251     17.26129    20.331519    21.058733    7390.5252    7113.8792    6287.2152    5437.7809    237.90128    1000.6212   -983.61335   -2751.8166 
 5958000    279.22663   -3879.7037   -3401.1188   -3879.7037            0    5900.7865    17.272674    20.344928    21.072621    7405.1573    3987.6984    6474.1133    7240.5479   -624.41063   -1129.4658    1843.0443   -2763.8538 
 5959000    269.88956   -3884.3254    -3421.744   -3884.3254            0    3839.4164    17.340033    20.424268      21.1548    7492.1305    3138.0676    2490.6413    5889.5403   -266.55011   -1285.0433   -584.76899     -3002.23 
 5960000    263.76576   -3826.8201   -3374.7346   -3826.8201            0     6371.833    17.245728    20.313189    21.039748    7370.5546     5674.609    5295.7122    8145.1778   -1572.2372   -798.48976    1690.0454   -2689.8137 
 5961000    267.79578   -3898.6792   -3439.6864   -3898.6792            0    6378.3603    17.249635    20.317791    21.044514    7375.5653    8116.1145    4939.1112    6079.8553   -294.64763    454.66284    54.454331   -2753.5977 
 5962000    271.31976   -3883.6952   -3418.6624   -3883.6952            0    7133.5206    17.271614     20.34368    21.071329    7403.7951    7994.2007    5307.4755    8098.8856    132.54462    1190.1709   -1803.1554    -2648.408 
 5963000    268.90081   -3850.7068     -3389.82   -3850.7068            0    5193.9904    17.239643    20.306022    21.032324    7362.7559    2519.9269    6605.1039    6456.9402   -578.35185    783.08445    2094.3557   -2832.0984 
 5964000    266.24353   -3888.8898   -3432.5575   -3888.8898            0    5969.0414    17.214179    20.276029    21.001258    7330.1785    4980.4556    6382.5526     6544.116   -44.305632   -2665.8742    141.40254   -2794.4483 
 5965000    239.30351   -3909.8081     -3499.65   -3909.8081            0    4903.5245    17.257373    20.326906    21.053955    7385.4956    4275.5183     5415.136    5019.9191    657.18344    569.48922    407.68129    -2971.492 
 5966000    244.86368   -3851.4306   -3431.7426   -3851.4306            0    6004.2616    17.266966    20.338205    21.065658    7397.8188    6040.7537    6316.7546    5655.2765   -518.48555    43.491747    -782.1766   -2783.9452 
 5967000    259.94522   -3892.1702    -3446.633   -3892.1702            0    2782.2471    17.337236    20.420974    21.151387    7488.5055    2814.7359    2332.7445    3199.2609   -202.30999    866.45959    386.39084   -3142.7777 
 5968000    261.32757   -3871.4447   -3423.5382   -3871.4447            0    4141.7568     17.38344    20.475396    21.207757    7548.5369    4277.2285    4743.7555    3404.2863    530.55116    444.41405   -1221.4916   -2967.5819 
 5969000    271.58594    -3834.096    -3368.607    -3834.096            0    5891.5155    17.236268    20.302047    21.028207    7358.4326    5493.2766    4697.1479    7484.1218   -544.33285    271.91541   -958.81204   -2736.3579 
 5970000    251.39305   -3860.6967   -3429.8176   -3860.6967            0     8226.811    17.175731    20.230743    20.954352    7281.1722    9059.2619    8904.9417    6716.2293    630.11116   -333.46806   -1866.2052   -2556.2255 
 5971000    277.01109    -3888.402   -3413.6145    -3888.402            0    3710.5943    17.197965    20.256931    20.981477    7309.4845    2727.6232    4856.6845    3547.4753    43.913655    -1305.368   -84.474631   -3018.0602 
 5972000    258.68375    -3877.955   -3434.5799    -3877.955            0    4786.9272     17.22694     20.29106    21.016826    7346.4918    5810.8721    4244.1885     4305.721    544.39842    283.86775   -391.99349   -2921.7035 
 5973000    254.05648   -3865.0032   -3429.5591   -3865.0032            0    5114.8133    17.236892    20.302782    21.028968     7359.232    7061.3706    3740.9131    4542.1561    881.58331   -1604.7391   -1815.0218   -2880.6023 
 5974000    259.37364   -3849.9333   -3405.3758   -3849.9333            0    5662.1715    17.290777    20.366252    21.094708    7428.4663     5389.076    3817.9289    7779.5096    483.64803   -497.10849   -1088.3915   -2791.9556 
 5975000    257.97779   -3828.6282   -3386.4631   -3828.6282            0    5719.9949    17.213118    20.274779    20.999963    7328.8224     5003.007    5166.2488     6990.729   -1151.2879   -431.57357    573.59554   -2775.0908 
 5976000    254.26706   -3845.0498   -3409.2447   -3845.0498            0    4550.5185    17.296793    20.373337    21.102047    7436.2216    4389.6905    4223.9762    5037.8887   -669.10796   -1976.8603   -83.739791   -2915.7425 
 5977000    271.39166   -3824.3262   -3359.1702   -3824.3262            0    5943.7178    17.263198    20.333767    21.061062    7392.9772    5526.4177    5940.4678    6364.2679    1510.6504    172.07002     400.6222   -2718.3246 
 5978000    265.60057   -3846.0675   -3390.8372   -3846.0675            0    5227.8221     17.27365    20.346078    21.073813    7406.4132    5800.2572    5369.0613    4514.1478   -38.996778    -470.3743    4.0911468   -2826.1543 
 5979000    274.77408   -3862.9293    -3391.976   -3862.9293            0    4117.1207    17.338466    20.422422    21.152888    7490.0994    3475.3017     4820.159    4055.9012   -483.01023    140.67351   -515.14848   -2942.2406 
 5980000    259.84438   -3813.0092   -3367.6449   -3813.0092            0    2631.7719    17.352902    20.439426    21.170499    7508.8235    3336.3215    3949.1364    609.85773   -572.24702     400.8441    214.93672   -3079.4435 
 5981000    264.04573   -3823.0024   -3370.4371   -3823.0024            0    4004.4406    17.251019    20.319422    21.046203     7377.341    5380.7603    3878.6644    2753.8972    734.25741    1461.0543    521.47421   -2939.5955 
 5982000       274.14   -3879.1086    -3409.242   -3879.1086            0    4632.6872    17.248365    20.316296    21.042965    7373.9368    4500.2082    3976.3848    5421.4687   -406.72511   -184.89962   -1163.9782   -2911.0368 
 5983000    264.20158   -3879.9298   -3427.0973   -3879.9298            0    4292.0965    17.236206    20.301973    21.028131    7358.3525    4526.3501    3597.5383     4752.401   -291.78694   -400.90822    890.18391   -2966.4951 
 5984000    275.97153   -3882.3932   -3409.3875   -3882.3932            0     2970.821     17.29677     20.37331    21.102019     7436.192    1363.2439     3164.664     4384.555    472.76701   -715.89442    483.75336   -3087.2042 
 5985000    256.35726   -3882.0615   -3442.6739   -3882.0615            0    6555.7654    17.239195    20.305495    21.031778    7362.1823    7317.3067    5044.0104     7305.979    38.058337   -193.58035   -500.82969   -2738.7822 
 5986000    258.41653   -3863.5681    -3420.651   -3863.5681            0    5933.0591    17.235605    20.301266    21.027398    7357.5832    6562.0445    5338.8742    5898.2587   -281.48172   -301.31563    1415.2608   -2784.0171 
 5987000    256.02186    -3854.666   -3415.8533    -3854.666            0      5822.67     17.22967    20.294276    21.020158    7349.9858    6695.7906    4900.4965    5871.7229   -394.17568    262.45943    917.33772   -2791.7097 
 5988000    277.29112   -3878.5655    -3403.298   -3878.5655            0    6039.0796    17.320904    20.401737    21.131462    7467.3623    3639.2614    6727.9521    7750.0252   -1118.9982   -732.96565   -654.13771   -2745.6192 
 5989000    264.73051   -3843.7051   -3389.9661   -3843.7051            0     6850.671    17.187651    20.244782    20.968894    7296.3416    7443.9267    6726.8093    6381.2769   -667.73072    186.91427   -1387.1274   -2660.9885 
 5990000    275.14763   -3880.6971   -3409.1035   -3880.6971            0    4996.3292    17.170833    20.224974    20.948377     7274.945    5476.5572    5199.3002    4313.1302   -234.97061   -1430.9609   -1063.0041   -2879.0049 
 5991000     265.5636   -3891.1005   -3435.9336   -3891.1005            0    6379.4619    17.160529    20.212836    20.935805    7261.8555    5707.4195    6222.7378    7208.2282   -361.03554   -639.19949   -2150.9351   -2760.3057 
 5992000    244.31596   -3843.8974   -3425.1482   -3843.8974            0    4479.6215    17.203683    20.263666    20.988453    7316.7778    4880.7095    4621.8256    3936.3294   -1143.2646     271.8913   -464.58697   -2947.1381 
 5993000    258.45736   -3832.0607   -3389.0737   -3832.0607            0    7649.2874    17.171665    20.225953    20.949391    7276.0016    7440.8761    8038.8084    7468.1776    1887.4807     1657.871    196.68216   -2577.3847 
 5994000     260.3902   -3873.1139    -3426.814   -3873.1139            0    3121.0927    17.312276    20.391574    21.120936    7456.2093    4339.7722    2422.9213    2600.5847   -236.27509   -686.35997    1092.0003   -3087.4227 
 5995000    268.61253   -3876.9761   -3416.5835   -3876.9761            0    4373.0594    17.312856    20.392257    21.121644    7456.9586    2734.6955    3076.1884    7308.2941   -1228.1126    1120.3623   -315.43182   -2941.0041 
 5996000    264.41633   -3867.6727   -3414.4722   -3867.6727            0    4809.4093    17.311305     20.39043    21.119751    7454.9543    5259.8957    3368.6402    5799.6919    176.22446   -93.990834    743.90095   -2891.5794 
 5997000    255.62528   -3851.1485   -3413.0155   -3851.1485            0    5257.2127    17.250872    20.319248    21.046023    7377.1518    5288.2611    5974.4964    4508.8807   -1799.4209    153.36065    93.307988   -2847.4015 
 5998000     281.5748   -3877.1003   -3394.4907   -3877.1003            0    5795.4686    17.248061    20.315937    21.042594    7373.5461    6297.1887    6031.4843    5057.7329   -1225.1896    1040.8582    305.06547   -2771.2715 
 5999000    262.03204   -3879.5211   -3430.4072   -3879.5211            0    4673.9539    17.217326    20.279736    21.005098    7334.1997    5724.8588    4766.6946    3530.3084    900.11986    679.53526   -482.62409   -2930.4727 
 6000000    274.54162   -3828.6242   -3358.0692   -3828.6242            0    4095.9914    17.320292    20.401016    21.130715     7466.571    3962.9293    4684.8885    3640.1564    1510.5428   -1009.3858    46.928934   -2912.0474 
Loop time of 496.814 on 64 procs for 250000 steps with 864 atoms

Performance: 86.954 ns/day, 0.276 hours/ns, 503.206 timesteps/s
99.2% CPU use with 64 MPI tasks x 1 OpenMP threads

MPI task timing breakdown:
Section |  min time  |  avg time  |  max time  |%varavg| %total
---------------------------------------------------------------
Pair    | 20.414     | 25.653     | 30.26      |  48.2 |  5.16
Bond    | 0.27232    | 0.28058    | 0.29345    |   0.9 |  0.06
Kspace  | 212.7      | 227.73     | 239.49     |  52.6 | 45.84
Neigh   | 5.2006     | 6.636      | 7.8317     |  36.6 |  1.34
Comm    | 106.25     | 117.86     | 131.79     |  77.8 | 23.72
Output  | 1.1621     | 1.165      | 1.1767     |   0.4 |  0.23
Modify  | 107.74     | 111.36     | 115.94     |  18.8 | 22.42
Other   |            | 6.126      |            |       |  1.23

Nlocal:        13.5000 ave          21 max          10 min
Histogram: 17 9 7 10 11 3 2 2 2 1
Nghost:        2146.86 ave        2185 max        2088 min
Histogram: 1 1 2 7 6 12 11 12 9 3
Neighs:        4135.48 ave        6498 max        2734 min
Histogram: 5 11 14 8 9 7 4 2 2 2

Total # of neighbors = 264671
Ave neighs/atom = 306.33218
Ave special neighs/atom = 2.0000000
Neighbor list builds = 14379
Dangerous builds = 0

unfix		3
unfix		2
unfix		1

write_data	data.final.${pid}
write_data	data.final.0
System init for write_data ...
PPPM initialization ...
  extracting TIP4P info from pair style
  using 12-bit tables for long-range coulomb (../kspace.cpp:340)
  G vector (1/distance) = 0.37416312
  grid = 24 24 25
  stencil order = 5
  estimated absolute RMS force accuracy = 0.0030828217
  estimated relative force accuracy = 9.2838261e-06
  using double precision FFTW3
  3d grid and FFT values/proc = 2730 288
Last active /omp style is kspace_style pppm/tip4p/omp
WARNING: Not all mixed pair coeffs generated from mixing. Use write_data with 'pair ij' option to store all pair coeffs. (../write_data.cpp:312)

write_restart   restart.lmp.${pid}
write_restart   restart.lmp.0
System init for write_restart ...
PPPM initialization ...
  extracting TIP4P info from pair style
  using 12-bit tables for long-range coulomb (../kspace.cpp:340)
  G vector (1/distance) = 0.37416312
  grid = 24 24 25
  stencil order = 5
  estimated absolute RMS force accuracy = 0.0030828217
  estimated relative force accuracy = 9.2838261e-06
  using double precision FFTW3
  3d grid and FFT values/proc = 2730 288
Last active /omp style is kspace_style pppm/tip4p/omp
Total wall time: 0:08:20
