LAMMPS (7 Jan 2022)
  using 1 OpenMP thread(s) per MPI task
package omp 0
using multi-threaded neighbor list subroutines
echo both

include		in.partitions
variable        pid world 0
include		in.temp
variable        temperature equal 235
variable	tempDamp equal 100.0
include		in.pressure
variable        pressure equal 2000
variable        pressureDamp equal 1000.0 # This is 1 ps
include		in.seed
variable        seed world 745823

units		real
atom_style	full
include		in.box
box tilt large
read_data       iceII.data
Reading data file ...
  triclinic box = (-10.680001 -9.239317 0.00055) to (35.999999 12.229315 21.859449) with tilt (-9.157151 -12.209534 -18.481617)
WARNING: Triclinic box skew is large (../domain.cpp:219)
  6 by 2 by 4 MPI processor grid
  reading atoms ...
  2592 atoms
  scanning bonds ...
  2 = max bonds/atom
  scanning angles ...
  1 = max angles/atom
  reading bonds ...
  1728 bonds
  reading angles ...
  864 angles
Finding 1-2 1-3 1-4 neighbors ...
  special bond factors lj:    0        0        0       
  special bond factors coul:  0        0        0       
     2 = max # of 1-2 neighbors
     1 = max # of 1-3 neighbors
     1 = max # of 1-4 neighbors
     2 = max # of special neighbors
  special bonds CPU = 0.007 seconds
  read_data CPU = 0.036 seconds
include 	in.setup
variable	out_freq equal 500
variable	out_freq2 equal 500

timestep	2.0

neigh_modify    delay 7 every 1

include		in.tip4p
# This is TIP4P/Ice

# create groups ###
group ox type 2
864 atoms in group ox
group hy type 1
1728 atoms in group hy

# set charges - beside manually ###
set group ox charge -1.1794
Setting atom values ...
  864 settings made for charge
set group hy charge 0.5897
Setting atom values ...
  1728 settings made for charge

# ### TIP3P Potential Parameters ###
pair_style lj/cut/tip4p/long 2 1 1 1 0.1577 8.5
pair_coeff 1 1*2 0.000 0.000
pair_coeff 2 2 0.21084 3.1668
bond_style  harmonic
bond_coeff  1 450 0.9572
angle_style harmonic
angle_coeff 1 55 104.52
kspace_style pppm/tip4p 1.0e-5
pair_modify tail yes

thermo          ${out_freq}
thermo          500
thermo_style 	custom step temp pe etotal epair emol press lx ly lz xy xz yz vol pxx pyy pzz pxy pxz pyz cella cellb cellc cellalpha cellbeta cellgamma

restart 	${out_freq} restart.lmp.${pid} restart2.lmp.${pid}
restart 	500 restart.lmp.${pid} restart2.lmp.${pid}
restart 	500 restart.lmp.0 restart2.lmp.${pid}
restart 	500 restart.lmp.0 restart2.lmp.0


include         in.dump
dump            myDump all atom ${out_freq2} dump.water.${pid}
dump            myDump all atom 500 dump.water.${pid}
dump            myDump all atom 500 dump.water.0
dump            myDump2 all dcd ${out_freq2} dump.dcd
dump            myDump2 all dcd 500 dump.dcd
dump_modify     myDump append yes
dump_modify     myDump2 append yes


timer           timeout 05:00:00 every 1000
New timer settings: style=normal  mode=nosync  timeout=05:00:00

fix 		1 all shake 1e-6 200 0 b 1 a 1
       0 = # of size 2 clusters
       0 = # of size 3 clusters
       0 = # of size 4 clusters
     864 = # of frozen angles
  find clusters CPU = 0.002 seconds
fix             2 all nph tri ${pressure} ${pressure} ${pressureDamp}
fix             2 all nph tri 2000 ${pressure} ${pressureDamp}
fix             2 all nph tri 2000 2000 ${pressureDamp}
fix             2 all nph tri 2000 2000 1000
fix             3 all temp/csvr ${temperature} ${temperature} ${tempDamp} ${seed}
fix             3 all temp/csvr 235 ${temperature} ${tempDamp} ${seed}
fix             3 all temp/csvr 235 235 ${tempDamp} ${seed}
fix             3 all temp/csvr 235 235 100 ${seed}
fix             3 all temp/csvr 235 235 100 745823
velocity 	all create ${temperature} ${seed} dist gaussian
velocity 	all create 235 ${seed} dist gaussian
velocity 	all create 235 745823 dist gaussian

run             500000
PPPM initialization ...
  extracting TIP4P info from pair style
  using 12-bit tables for long-range coulomb (../kspace.cpp:340)
  G vector (1/distance) = 0.38122501
  grid = 50 40 64
  stencil order = 5
  estimated absolute RMS force accuracy = 0.0021221078
  estimated relative force accuracy = 6.3906647e-06
  using single precision MKL FFT
  3d grid and FFT values/proc = 14229 4000
  generated 0 of 1 mixed pair_coeff terms from geometric mixing rule
Last active /omp style is kspace_style pppm/tip4p/omp
Neighbor list info ...
  update every 1 steps, delay 7 steps, check yes
  max neighbors/atom: 2000, page size: 100000
  master list distance cutoff = 10.8154
  ghost atom cutoff = 10.8154
  binsize = 5.4077, bins = 13 8 5
  1 neighbor lists, perpetual/occasional/extra = 1 0 0
  (1) pair lj/cut/tip4p/long/omp, perpetual
      attributes: half, newton on, omp
      pair build: half/bin/newton/tri/omp
      stencil: half/bin/3d/tri
      bin: standard
Per MPI rank memory allocation (min/avg/max) = 9.904 | 9.969 | 10.06 Mbytes
Step Temp PotEng TotEng E_pair E_mol Press Lx Ly Lz Xy Xz Yz Volume Pxx Pyy Pzz Pxy Pxz Pyz Cella Cellb Cellc CellAlpha CellBeta CellGamma 
       0          235   -13868.516   -12658.769   -13868.516            0   -1008.2477        46.68    21.468632    21.858899    -9.157151   -12.209534   -18.481617    21906.021    -4900.156   -3314.6719    5190.0847    1993.0236    3818.2139    1659.2219        46.68    23.339999    31.119999        113.1    113.10001    113.10001 
     500    235.93453   -12707.114   -11492.556   -12707.114            0    1672.8222    46.953058    21.565658    21.957353   -9.2068424   -21.534453     2.929001    22233.437    1179.8476    2209.7465    1628.8724   -26.571882    467.92261    66.379662    46.953058    23.448743    30.893965    68.845769    134.19032    113.11868 
    1000    236.08184   -12720.263   -11504.947   -12720.263            0    1026.2873    47.123517    21.558123    21.907606   -9.4019096   -21.711873    2.9222666    22255.818     641.3852    692.21387    1745.2628    1085.5306   -819.66916    725.39178    47.123517    23.519111    30.982064    68.493832     134.4903    113.56294 
    1500    240.79857   -12718.169   -11478.572   -12718.169            0    1076.0019    47.128951    21.727303    21.678624   -9.1356849   -21.581963     2.857128    22198.586    101.89487    716.48768    2409.6232   -207.84171    665.11093    490.61063    47.128951     23.56982    30.723071    69.022363    134.62532    112.80531 
    2000    233.78182   -12705.432   -11501.956   -12705.432            0    1137.8903    47.022085    21.693417    21.806124   -9.3156673   -21.642265    3.0037346    22243.766    1246.7006    914.06434    1252.9059    120.44628    -594.0794   -882.18035    47.022085    23.609024    30.869355    68.527964     134.5147    113.23983 
    2500    243.30345   -12731.778   -11479.286   -12731.778            0    1578.6382    47.114139    21.524132    21.869652    -9.329841   -21.593416    2.8175893    22177.816    1720.5619     2102.736    912.61682   -20.845434   -647.30541    -181.8897    47.114139    23.459203    30.862536     68.77544    134.40008    113.43478 
    3000    234.83679   -12720.586   -11511.679   -12720.586            0    1972.0408    46.992316    21.543526    21.889015   -9.1077256   -21.494148    2.9902792    22160.005    1726.2451    2365.7913     1824.086   -292.36105   -164.83717   -618.41255    46.992316    23.389616    30.823192    68.844883    134.21373    112.91666 
    3500    235.79551   -12756.193   -11542.351   -12756.193            0    1587.4581    46.695678    21.588866    21.971926   -9.3121046   -21.450171    2.8513097    22150.046    1988.8392    1681.9031    1091.6321    493.67559    268.92823    116.97804    46.695678     23.51158    30.838375    68.875953    134.07246    113.33239 
    4000    236.18325   -12763.159   -11547.321   -12763.159            0     1281.214     46.76714    21.529196    22.081601   -9.0875443   -21.394066    2.8941018    22233.057    1719.0416    2267.0274   -142.42705    104.72897   -740.53837    -294.0761     46.76714    23.368563    30.881694    69.160891    133.85018    112.88477 
    4500    235.32197   -12731.157   -11519.753   -12731.157            0    1931.4577     46.96747    21.487058    21.988878    -9.318078   -21.545768    3.0575745    22191.016    2396.6451      2165.44    1232.2879   -166.32917    654.58367    348.90048     46.96747    23.420509    30.936704    68.422319    134.14262    113.44445 
    5000    238.16042   -12729.148   -11503.131   -12729.148            0    1677.7386    46.926162    21.590981    21.871541    -9.244112   -21.569509    2.8075049    22159.849    1539.5387    1703.4031     1790.274   -255.15362    -6.120404    595.54746    46.926162    23.486679    30.846234    68.967897    134.36759    113.17804 
    5500    234.11998   -12745.443   -11540.226   -12745.443            0    1728.1835    46.919042    21.620214    21.807241   -9.2097467   -21.531152    3.0221945    22121.259    2322.9844    700.99429    2160.5718   -484.47437   -232.96239   -317.96639    46.919042    23.500066    30.794154    68.634987    134.36254    113.07296 
    6000    241.51555   -12696.041   -11452.753   -12696.041            0    2207.3375    47.179472    21.569238     21.74268   -9.3198206   -21.772327      2.82358    22125.901    1114.7959    2234.7687    3272.4478   -10.785208    286.64883    554.03178    47.179472    23.496619    30.899045    68.692556    134.79949    113.36862 
    6500    232.76159   -12733.526   -11535.302   -12733.526            0    1933.8425    47.018108    21.567188    21.818359   -9.1918347   -21.534678    2.8204417    22124.873    1933.7241       1689.2    2178.6034   -676.80453     134.4838     250.7241    47.018108    23.444263    30.785354    68.989478    134.38774    113.08348 
    7000    234.61842   -12728.684   -11520.901   -12728.684            0    2130.0677    46.891437    21.650089    21.776266   -9.3692649   -21.694306     3.122938    22107.348    2558.9278    1592.4123    2238.8631     412.5315     42.65336   -642.10037    46.891437    23.590453    30.896624    68.183538    134.60038    113.40097 
    7500    238.02353    -12718.98   -11493.668    -12718.98            0    2574.1096    46.813403    21.547741    21.906386   -9.1238665   -21.375641    2.7755216    22097.477    3343.6686    2345.1951    2033.4652   -711.35437   -160.98108   -60.937037    46.813403    23.399788    30.732902    69.245855    134.06943    112.94905 
    8000    235.64044   -12736.588   -11523.544   -12736.588            0    1709.6303     46.90647    21.548013    21.903635   -9.2370082   -21.543191    2.9527262    22138.907    1734.5726    1785.8123    1608.5058    20.712175  -0.74079486   -13.426189     46.90647    23.444385    30.864168    68.719161    134.26677    113.20341 
    8500    229.49135   -12728.885   -11547.496   -12728.885            0    1765.6266    46.790152    21.489866    22.109715   -9.2578204   -21.521022    2.9305338    22231.631    2573.1799    2138.3263    585.37351    887.37385   -611.50893   -341.31055    46.790152    23.399179    30.993256     68.80353    133.97764    113.30635 
    9000     240.7497   -12702.854   -11463.509   -12702.854            0    2088.7118    46.760052    21.589997    21.980335    -9.110845   -21.324091    2.9189499    22190.233    2299.4781    2381.5519    1585.1054    389.62485    9.7771602   -79.877344    46.760052    23.433639    30.763164    69.088878    133.88154    112.87944 
    9500    240.68825   -12730.207   -11491.178   -12730.207            0    3136.1918    46.716177    21.538762    21.930638   -9.2786853   -21.574882    3.0608396    22066.796    3398.7256    3406.4318    2603.4181    458.74716   -42.977842   -708.40222    46.716177     23.45234    30.915969    68.467649    134.25521     113.3059 
   10000    235.43989   -12707.299   -11495.288   -12707.299            0    2458.0681    46.888269    21.490725    21.918272   -9.1320705   -21.338527    2.6934697     22086.23     2581.033    3253.4763    1539.6949   -550.57236   -784.66584   -54.482046    46.888269    23.350503    30.708275    69.360711    134.01755    113.02213 
   10500    232.46883   -12650.353   -11453.637   -12650.353            0    1836.3769    47.116109     21.56138    21.856057   -9.3226749    -21.71032    3.0352439    22203.313    2197.8352    1547.8932    1763.4023   -31.008969    530.95448   -660.16198    47.116109    23.490538    30.955418    68.386689    134.53473    113.38261 
   11000    233.76583   -12713.876   -11510.482   -12713.876            0    1635.5366    47.078685    21.595083    21.835089   -9.3534815     -21.6204    2.8704965    22199.039    1337.8857    1820.6783    1748.0459  -0.68789839   -53.742537    75.049531    47.078685    23.533704     30.86183    68.667167    134.47152    113.41889 
   11500     234.9868   -12718.016   -11508.337   -12718.016            0     1876.089    46.849588    21.674841    21.835957   -9.0362929   -21.489694    2.7430785    22173.484    2387.2448     831.9657    2409.0567   -81.757248    438.49417    800.57971    46.849588    23.483043    30.759396    69.442431    134.31786    112.63137 
   12000     243.3795   -12703.715   -11450.832   -12703.715            0    1719.1607    46.987726    21.581775    21.876138   -9.3575032   -21.561395    3.0790932    22184.122     2244.004    1432.6366    1480.8414    388.44996    -92.82718   -1003.7085    46.987726    23.523093    30.869726    68.323692    134.30391    113.44076 
   12500     238.7491    -12710.09   -11481.044    -12710.09            0    2049.3778    46.902464    21.519769    21.941353   -9.1967459    -21.47728    2.8577662     22146.07    1793.6559    2621.7457    1732.7319   -598.72745     306.6556    76.044757    46.902464    23.402577    30.836073    68.965499    134.14675    113.14005 
   13000    234.57282   -12683.848     -11476.3   -12683.848            0    1326.5447    46.905474    21.560075    22.001353   -9.3077174   -21.597916    2.9163101    22249.651    1193.2748    1849.0045    937.35478     473.7737    572.33808   -97.285654    46.905474    23.483408    30.968281    68.722656    134.22042    113.35038 
   13500    230.81768   -12732.259   -11544.042   -12732.259            0    2074.8305    46.721814    21.727633    21.850557   -9.1252853    -21.30945    3.0881178    22181.689    2428.2517    1465.5414    2330.6984   -63.949919   -217.26981   -289.77846    46.721814    23.566095    30.676961     68.78973    133.99855    112.78169 
   14000    228.99199   -12730.392   -11551.574   -12730.392            0    2159.1804    46.835756    21.534807    21.897297   -9.2417357   -21.659014    2.7199898    22085.591    1999.4949    2721.3394    1756.7069    438.58449     845.3189    532.26486    46.835756    23.434112    30.919296    69.077903    134.46726    113.22676 
   14500    232.06642   -12737.612   -11542.967   -12737.612            0    2350.0269    47.246092    21.467579    21.818517   -9.3776226   -21.651937    3.0466761    22129.632    1636.2667    2901.0943    2512.7196    -178.1088    497.94475   -128.77264    47.246092    23.426411    30.889097    68.223961    134.50386    113.59701 
   15000    240.51475   -12731.431   -11493.295   -12731.431            0     2244.555    46.912666     21.55452     21.85866   -9.0743632   -21.510402    2.8407416    22103.039    1781.5179    2881.5317    2070.6153    -5.666916   -88.968498    201.76566    46.912666    23.386778    30.798835    69.145053    134.30006    112.83089 
   15500    234.90154   -12704.252   -11495.012   -12704.252            0    2450.2427    46.792182     21.59328    21.869195   -9.3537706   -21.558257    2.8540245    22096.562    3108.9493    1894.5139    2347.2649    463.48769    960.62829    255.41779    46.792182    23.532165    30.840972    68.729874    134.34791    113.42128 
   16000    232.85834   -12670.167   -11471.445   -12670.167            0    2332.4445    46.714885    21.633053    21.936508   -8.9160821   -21.292466    3.1554824    22168.719    3022.1507     2420.258    1554.9248   -1199.7126   -305.28234   -1322.1615    46.714885    23.398408    30.733314    68.965697    133.85327    112.39905 
   16500    238.54984    -12683.88   -11455.859    -12683.88            0    2400.0072    46.980773     21.43664    21.970695   -9.3172018   -21.552621    2.8361518    22126.905    1775.4649    3236.0212    2188.5355   -365.72535    46.479092   -67.752357    46.980773    23.373913    30.907453    68.769379    134.21299    113.49165 
   17000    238.67228   -12723.193   -11494.542   -12723.193            0    2391.3571    46.951798    21.455723    21.933897   -9.2987808   -21.650372    2.9053209    22095.875    2274.3032    3466.4918    1433.2763      157.915    443.96296   -413.82386    46.951798    23.384084    30.956023    68.639826    134.37819    113.43162 
   17500    229.61229    -12700.19   -11518.179    -12700.19            0     1896.232    46.904413    21.719432    21.765097     -9.03086   -21.412752    3.0563183    22172.914    1469.7779    1199.5086    3019.4095   -712.53118    210.77238   -225.35625    46.904413    23.522121    30.684955    68.906782    134.25282    112.57736 
   18000    229.77519   -12723.667   -11540.817   -12723.667            0    1604.9689     46.94287    21.638426    21.804853   -9.3650522   -21.627286    2.8401632    22148.711    1065.6131    759.12317    2990.1703    154.30104    103.71719    702.31612     46.94287    23.578076    30.842465    68.713627    134.52479    113.40283 
   18500    235.31497   -12727.144   -11515.776   -12727.144            0    1204.5303    47.197399    21.529117    21.858296    -9.269623   -21.726879    2.8533622    22210.615    592.03964    845.66259    2175.8886   -263.87694    108.01862    797.84401    47.197399    23.439897    30.951317    68.759905    134.58523    113.29488 
   19000    233.10652   -12712.957   -11512.958   -12712.957            0    2106.3252     47.24316    21.510726    21.836621   -9.2110095    -21.48725    3.0245914    22191.131    1565.5639    1942.7485     2810.663    113.14112   -450.54294    -355.9049     47.24316    23.399872    30.784543    68.588054    134.26583    113.18087 
   19500    234.95931   -12714.415   -11504.877   -12714.415            0    1829.2562    46.788699    21.623511    21.915603   -9.2487331    -21.63852    2.8563547    22172.804    1874.4451    1762.0129    1851.3105    438.87561    797.33465    676.49857    46.788699    23.518403    30.930212    68.898216    134.39426     113.1572 
   20000     235.9891   -12735.341   -11520.503   -12735.341            0    1619.5653    46.709073    21.653212    21.937767   -9.2099888   -21.319623    2.9018819    22187.889     3134.719     385.4307    1338.5463   -227.54604   -832.83694    304.58227    46.709073    23.530522    30.728046    68.993915    133.93297    113.04202 
   20500    238.54844   -12724.768   -11496.754   -12724.768            0    1742.3079    46.934676    21.430684    22.085913   -9.1018257   -21.549655    3.0413663    22214.944    1396.5911    2437.6576     1392.675   -262.75639    602.77344   -67.491665    46.934676    23.283416    31.006856    68.779013    134.02694    113.01142 
   21000     235.1348   -12730.646   -11520.205   -12730.646            0    2209.4978     46.92586    21.469924    21.980562   -9.3258911   -21.563329    2.8412727    22145.298    1622.1024    2555.0729    2451.3183    223.56982   -444.16382    327.31302     46.92586    23.407903    30.922404     68.77071    134.21372    113.47868 
   21500    227.96434   -12734.074   -11560.546   -12734.074            0     2276.352    46.604104    21.682505    21.947677   -8.9699477   -21.203325    2.9804255     22177.99    4096.0515    1580.1311    1152.8734   -1818.7261   -207.80471   -839.44549    46.604104    23.464675    30.662101    69.257509    133.75021    112.47464 
   22000    238.21719   -12684.462   -11458.153   -12684.462            0    1471.5506    46.759656     21.65876    21.946265   -9.3635873   -21.585255    2.9199144    22226.215     1323.906    1345.9468    1744.7991    21.750369    42.921031    -43.82796    46.759656    23.596158    30.920668    68.672537    134.27357    113.37995 
   22500     230.5859    -12678.24   -11491.216    -12678.24            0    1847.9431    47.103944    21.511954    21.896624   -9.2504879   -21.548997    2.8362586    22187.803    1991.9549    1473.8426     2078.032    403.88636   -929.74598     839.5305    47.103944    23.416569    30.852322    68.877002    134.30328    113.26849 
   23000    227.61858    -12727.12   -11555.372    -12727.12            0     1303.711    47.268773    21.497622    21.851072   -9.1802128   -21.675417    3.0317751    22204.321    586.96208    1733.3005    1590.8704   -112.04178     112.3658   -310.69017    47.268773    23.375715    30.927087    68.568003    134.49568    113.12412 
   23500    231.31052   -12691.714    -11500.96   -12691.714            0    2251.0712    46.769472    21.628468    21.885907   -9.3074917   -21.516737    2.8134272    22138.734    3159.5025    1483.2476    2110.4634    902.83697    173.27529    578.69475    46.769472    23.546126    30.820095    68.911043    134.27795    113.28391 
   24000    235.03209   -12632.569   -11422.657   -12632.569            0     2099.181    46.781956    21.746561    21.837634   -9.1484228   -21.502535    2.9646019    22216.444    2341.9998    1562.1659    2393.3772   -505.42187    785.77065    330.25015    46.781956     23.59251    30.790098    68.927318    134.29548     112.8157 
   24500    223.03269   -12688.824   -11540.683   -12688.824            0    1391.3646    47.216782    21.546681    21.852815   -9.2875869    -21.60016     2.984697    22232.287    985.73697    2322.9658     865.3909   -91.570305   -831.30555   -479.78175    47.216782    23.463135    30.871036    68.546295    134.40215    113.31821 
   25000    236.41527    -12710.04   -11493.008    -12710.04            0    1348.0789    47.151664    21.524517    21.889529   -9.2786337   -21.693016    2.8315711    22216.051    1243.5456    1609.6689    1191.0222   -381.06742    1055.0204    120.85792    47.151664    23.439238    30.947637    68.807518    134.50397    113.31956 
   25500    232.88235   -12728.099   -11529.254   -12728.099            0     1458.695    46.967019     21.68995    21.803737   -9.1033737   -21.315233    2.9676507    22211.734    866.75147    1869.3187    1640.0147   -415.13633   -220.86915    89.289567    46.967019    23.522869    30.635748    68.986866    134.08808    112.76802 
   26000    239.54845   -12703.273   -11470.111   -12703.273            0    2322.0037    46.677722    21.632094     21.96192   -9.3135805    -21.59334    2.9058056     22175.76    2862.6662    2264.0984    1839.2464    105.67088    153.14792     63.67199    46.677722    23.551864    30.936095    68.758721    134.26662    113.29403 
   26500    232.39841   -12771.214    -11574.86   -12771.214            0    1560.5882    46.982275    21.470837    21.979365   -9.2254925    -21.55427    2.8802461    22171.657    970.79703    2167.6349    1543.3326    246.80796   -29.391732    61.558746    46.982275    23.368923    30.918843    68.850869    134.19672    113.25201 
   27000    238.70731    -12728.58   -11499.748    -12728.58            0    1963.9168    47.134986    21.515893    21.880886   -9.1446153     -21.5157     3.161548     22190.53    1043.2134    2186.9688    2661.5682   -285.72178    933.07741    142.86833    47.134986    23.378572    30.849537    68.461657    134.22197    113.02631 
   27500    229.32377   -12675.175   -11494.649   -12675.175            0    1407.8675    46.921899    21.585172    21.902604   -9.3150458   -21.613312    2.7033333    22183.335    1204.8024    2038.4348    980.36547    224.07043    359.97121    479.03987    46.921899    23.509354    30.889599    69.047651    134.40258    113.34253 
   28000    231.64256   -12729.147   -11536.683   -12729.147            0    1806.1558    46.903156    21.651498    21.847142   -9.2377605   -21.586327    2.9858588    22186.288    1525.9536    1299.0807    2593.4332    590.48155    883.97512    286.21088    46.903156    23.539829    30.857454     68.68311     134.3909    113.10585 
   28500    235.28685   -12700.491   -11489.268   -12700.491            0    1220.1255    47.292172    21.624482    21.728073   -9.1152906   -21.572142    2.9707767     22220.62   -211.55747    1066.5374    2805.3965   -649.44495    -332.0846    361.18934    47.292172    23.467142    30.761859    68.815013    134.52839    112.85671 
   29000    233.62743   -12758.231    -11555.55   -12758.231            0    1448.1122    47.161628    21.510561    21.858804   -9.4169917    -21.72206    2.7877125    22175.169    924.14014    1538.0727    1882.1237    655.43108    543.24198    685.46135    47.161628    23.481567    30.942311    68.649813    134.58914    113.64306 
   29500    237.52112   -12709.674   -11486.949   -12709.674            0    1875.3975    46.848158    21.645619     21.85123   -9.2043202   -21.489698    3.0066118    22158.402    1269.0897    1737.9551    2619.1476    142.78327    190.09683   -357.47431    46.848158    23.521317    30.794855    68.720183    134.25349    113.03655 
   30000     229.4444   -12639.654   -11458.506   -12639.654            0    1920.3514    46.727564    21.641383    21.992957   -9.1322661   -21.387486    2.8658411    22240.358    2278.8274    2465.5776    1016.6491    456.50752   -317.37386   -930.14766    46.727564    23.489311    30.811162    69.171682    133.95931    112.87885 
   30500    231.39379   -12732.388   -11541.205   -12732.388            0    1985.8062    46.884333    21.509008    21.966481   -9.2635931   -21.515282    2.9211693     22151.78    1916.4732    2579.1289    1461.8166    168.59661    321.62522    241.36327    46.884333    23.419043    30.886354    68.751838    134.15446    113.30079 
   31000    238.21414   -12665.839   -11439.546   -12665.839            0      1644.02    46.927076    21.523666    22.036179   -9.1056631   -21.546357    3.0600796    22257.481    2507.8477    1936.0679    488.14436    -902.1726   -262.73778   -592.49016    46.927076    23.370522    30.970999    68.773584    134.08259    112.93096 
   31500    237.86853   -12737.149   -11512.635   -12737.149            0    1873.1464    46.747865    21.605282    21.987169   -9.2360522   -21.322152     2.920874    22207.059    2480.1477    1709.4349    1429.8565    231.36081   -1127.9659   -541.08014    46.747865    23.496656    30.766886    68.917814    133.86986    113.14625 
   32000    238.46106   -12699.998   -11472.434   -12699.998            0    2148.1355    46.819844    21.611821    21.912018   -9.2100458   -21.640738    2.8851007    22171.941    2714.9671    1530.5952    2198.8441   -312.10502    438.03441    345.65503    46.819844    23.492462    30.931891    68.894343    134.39696    113.08166 
   32500    239.05889   -12707.866   -11477.224   -12707.866            0     2870.135    47.115762    21.563142    21.767352   -9.1798575   -21.355882    3.0886737    22114.843    3029.7706    1844.5449    3736.0895   -323.77085   -808.21408   -562.17324    47.115762    23.435846    30.650142    68.552866    134.16786    113.06042 
   33000    241.33652    -12718.77   -11476.403    -12718.77            0    2474.2399    47.061851     21.50704    21.855643   -9.2749942   -21.852629    2.7720257    22121.431    2393.7138    2061.6262    2967.3798    401.11634    331.06826    338.99607    47.061851    23.421748    31.030479    68.844245    134.76746    113.32831 
   33500    231.93911   -12727.248   -11533.258   -12727.248            0    2097.8319    46.996417    21.631197    21.808097   -9.2299747   -21.408226    2.9601513    22169.866    1694.6291    2103.7852    2495.0814    161.43457   -133.94899    123.62671    46.996417    23.518102    30.702894    68.756641    134.20843    113.10782 
   34000    240.11149    -12769.73    -11533.67    -12769.73            0    830.75445    46.934981    21.652614    21.882299   -9.1337527   -21.618815    2.9949342    22238.215    1336.5016    558.12732    597.63448   -108.57788   -101.04449   -43.617473    46.934981    23.500237    30.905951    68.828583    134.38717    112.87154 
   34500    236.26124    -12774.54   -11558.301    -12774.54            0    1232.6879    46.974925    21.490923     21.93383   -9.3476986   -21.586505    2.8269163    22142.958    1466.0998    1892.6361     339.3277    349.73614   -117.40202    36.985425    46.974925    23.435854     30.90407    68.746891    134.30681    113.50713 
   35000     228.1279   -12732.415   -11558.044   -12732.415            0    2123.8449    46.820452    21.562718    21.908602   -9.1334681   -21.459179    2.9798274    22118.404    3163.9731    760.02003    2447.5415   -612.88145   -496.85919   -565.74671    46.820452    23.417324    30.811728    68.857261    134.14379    112.95639 
   35500     240.8568   -12722.569   -11482.673   -12722.569            0    2080.2338    46.773515    21.677925    21.827245   -9.3128284   -21.614625    2.9595683    22131.794     1964.709    1733.9679    2542.0244     619.8877    347.23686    126.62098    46.773515    23.593668    30.860649    68.618762    134.45865    113.24834 
   36000    240.23003   -12757.144   -11520.473   -12757.144            0    1717.7574    47.066012    21.572063    21.793354   -9.2426209   -21.506472    2.7161315    22127.032    1684.7204    818.40986    2650.1421   -137.30062    -103.3201      1044.45    47.066012    23.468701     30.73851     69.09826    134.39964    113.19287 
   36500    234.98494    -12703.72   -11494.051    -12703.72            0    1987.7501    47.171064    21.517976    21.830106   -9.2414238   -21.758521    3.0549399    22158.121    1212.1449    2269.4392    2481.6662    -131.9097    337.11213   -549.58578    47.171064    23.418523    30.972882    68.416932    134.62811    113.24229 
   37000    243.91574   -12759.358   -11503.714   -12759.358            0     1427.501    47.063193    21.551337    21.853858   -9.3395303   -21.459006    2.6560069    22165.816    1552.1252    1298.9259    1431.4518   -107.08932   -286.35127    343.44763    47.063193    23.488017    30.743038    69.094945    134.26771    113.43007 
   37500    237.06592   -12734.687   -11514.305   -12734.687            0    2335.4129    46.701021     21.61997    21.881053    -9.149992    -21.55051     3.000149    22092.746    3214.9272    2003.4191    1787.8924   -620.04089    275.40855   -900.48092    46.701021    23.476487    30.857833    68.793454    134.29722    112.93903 
   38000     239.5535   -12702.026   -11468.838   -12702.026            0    2380.4592    46.831041    21.563732    21.863359   -9.2199431   -21.394586    3.0240106    22078.757    2630.5788    2078.3825    2432.4164   -48.442161   -1042.1708   -164.40573    46.831041    23.452119    30.738891    68.648733    134.10778    113.14996 
   38500    241.97469   -12733.972   -11488.321   -12733.972            0    2202.7103    46.824519    21.410659    22.012545   -9.2538506   -21.642122    2.6746805    22068.541    2440.3971    2143.7201    2024.0137    379.49713    335.68049    1054.1304    46.824519    23.324881    30.985278    69.124173    134.30395    113.37437 
   39000    232.40751    -12738.09   -11541.689    -12738.09            0    1853.1939    46.919483    21.547273    21.910134   -9.2495475   -21.498293    3.0997992    22150.859    2066.9986    1761.7428    1730.8404   -186.66854    -79.62981   -1000.5974    46.919483    23.448648    30.851893    68.457278    134.17262    113.23228 
   39500    243.48718   -12726.101   -11472.664   -12726.101            0    3315.3948    46.652782    21.631194    21.837843   -9.0627419   -21.338253    2.8450953    22037.777    3156.0404     3175.825    3614.3191    730.61432     164.2841    391.31135    46.652782    23.452971    30.664425    69.238947    134.09606    112.73204 
   40000    233.83856   -12723.719   -11519.951   -12723.719            0    3339.5665     46.98313    21.506858    21.795199   -9.3923201   -21.655641    2.8952819    22023.167    3000.0896    2949.6223    4068.9877      1318.71    356.49354    418.68318     46.98313    23.468289    30.860657    68.480632    134.56543    113.59151 
   40500     232.9623   -12748.419   -11549.162   -12748.419            0    2586.1066    47.112927    21.518477    21.777445   -9.2019629   -21.529841    2.9296829     22077.94    2556.8268    2905.8381     2295.655   -362.82064   -324.83575   -260.43378    47.112927    23.403439    30.763195    68.731507    134.41554    113.15304 
   41000     225.5345   -12724.413   -11563.393   -12724.413            0    2743.9716    46.841812    21.565687    21.804899   -9.2211805   -21.672203    2.8117224    22026.783    3608.7669     2232.889    2390.2589    33.944933    675.54474    193.97146    46.841812    23.454403    30.871407    68.915523    134.58892    113.15086 
   41500    236.82067   -12675.023   -11455.904   -12675.023            0    2581.3963    46.799934     21.60051    21.928517   -9.2209463   -21.454604    2.9361786    22167.591    2383.2716    1953.8576    3407.0597     112.1661    117.47605   -130.92131    46.799934    23.486334    30.818518    68.841955    134.11969    113.11694 
   42000      235.323   -12736.856   -11525.446   -12736.856            0    1521.8633    47.008903     21.52051    21.947189   -9.0846821   -21.542382     3.009087    22202.996    1480.2039    1140.9524    1944.4335   -1201.9563     314.4296   -175.99198    47.008903    23.359448    30.899966    68.847676    134.20001    112.88658 
   42500    235.69812   -12735.267   -11521.926   -12735.267            0     1989.297    46.872389     21.51877    21.923688    -9.516918   -21.517879    2.7923518    22113.025     2124.025    2029.7328    1814.1332    312.87958   -198.49231    521.09998    46.872389    23.529326    30.845818    68.595666    134.23435    113.85795 
   43000    243.29621   -12732.129   -11479.674   -12732.129            0    1558.6488     46.65858     21.66164    21.927001   -9.0042169   -21.463233    2.9462808    22161.651    1755.0438    1500.7465    1420.1562   -33.434078    94.715112   -345.86536     46.65858    23.458529    30.824411    69.174172    134.13141    112.57147 
   43500    238.37193   -12693.505     -11466.4   -12693.505            0    2500.5098    46.921523    21.473016    21.933843   -9.3145561   -21.376983     3.026385    22099.369    2362.3075    3742.2343    1396.9876    267.57509   -289.75324   -931.57344    46.921523    23.406225    30.777067    68.492784    133.99336    113.45022 
   44000    240.29396   -12750.598   -11513.598   -12750.598            0     2414.649     46.98392    21.391342    21.945958   -9.1410314    -21.67249    2.8379384    22056.766    2037.4274    3171.8765    2034.6429   -48.937308    -447.4065   -219.46173     46.98392    23.262587    30.973792    68.948786    134.40327    113.13818 
   44500    241.98138   -12742.171   -11496.485   -12742.171            0    2088.5479    46.815431    21.640139    21.832296   -9.2837889   -21.464516    2.9897743    22118.134    1877.2941    1728.8667    2659.4828    685.57891   -37.096756   -102.71035    46.815431    23.547491    30.762207    68.628512    134.24725    113.21971 
   45000    231.98639   -12726.533     -11532.3   -12726.533            0      2851.07    46.842218    21.657647    21.746604    -9.183859   -21.556106    2.8562741     22061.76     2734.024    1943.8611    3875.3249   -182.75847    288.76406   -231.53323    46.842218     23.52439    30.752866    68.951651    134.50297    112.97922 
   45500    234.34547   -12724.746   -11518.369   -12724.746            0    2304.0263    47.141994      21.4606    21.834367   -9.2443232   -21.612065    2.8911198    22089.731    2064.9367     2073.191     2773.951   -132.88344   -584.22655    381.90732    47.141994    23.366961    30.857406    68.707332     134.4579    113.30434 
   46000    229.22635   -12666.396   -11486.371   -12666.396            0     1782.784    46.946243    21.501793    21.993537   -9.2865805    -21.60741    3.0465598    22200.901    2359.4336    2022.1574    966.76097    215.26336    149.43371   -184.38411    46.946243    23.421522    30.981888    68.481633    134.22043    113.35942 
   46500    239.76961   -12731.658   -11497.358   -12731.658            0    2035.4882    46.577497    21.634983     21.97061   -9.0416186   -21.302273    2.7708739    22139.858    2468.7707    1245.5102    2392.1838   -616.69075   -190.26887    1374.2993    46.577497    23.448313    30.727387    69.480596    133.88925    112.68086 
   47000    232.52658   -12724.096   -11527.082   -12724.096            0     1719.105    46.761051      21.6534    21.899444   -9.3388332   -21.457667    3.1158515    22173.969    1936.8474    1366.7925    1853.6751   -358.52015    148.43067   -234.30768    46.761051    23.581424    30.817619    68.371705    134.12924    113.32992 
   47500    234.65869   -12695.967   -11487.977   -12695.967            0    1752.4515    47.105187    21.499615    21.897796   -9.2183133   -21.672621    2.8183515    22176.849    1952.8992    1841.7514    1462.7039   -582.24633    541.93349    131.28196    47.105187    23.392536    30.937988     68.91338    134.46859    113.20803 
   48000    231.81154   -12724.283   -11530.949   -12724.283            0    1760.8643    47.151698     21.55214    21.771292   -9.2208897    -21.36197    2.7831753    22124.422    1454.7803    1475.6071    2352.2055   -500.50573   -1348.6582    68.528644    47.151698    23.441833    30.627912    69.028997    134.22417    113.16323 
   48500    234.34936   -12717.646   -11511.248   -12717.646            0    1491.0236    46.917958    21.593016    21.868361   -9.3101459   -21.770866    3.0600285    22154.842    1462.8997    1704.9636    1305.2076     696.9867    29.861072   -920.15006    46.917958    23.514616    31.009025    68.371133    134.59425      113.324 
   49000    237.44974   -12699.245   -11476.887   -12699.245            0     1885.186    46.913788    21.627557    21.805769   -9.1907987   -21.381791    2.8695655    22124.801     2139.073    1816.1572    1700.3279   -106.40713   -378.95198   -234.80896    46.913788    23.499404    30.674206    68.978148    134.19167    113.02344 
   49500    241.77723   -12722.529   -11477.894   -12722.529            0    2161.3359    46.968141    21.512731     21.88182    -9.235768   -21.701589    2.8794422    22109.675     1810.708    2425.6596    2247.6401    -295.4253    797.50785    32.410874    46.968141    23.411472    30.952613    68.772382    134.51717    113.23464 
   50000    232.49717   -12677.907   -11481.044   -12677.907            0    2682.5924    46.978486    21.504893    21.920006    -9.356158   -21.597709    2.9750469    22145.066    3916.4324    2226.7791    1904.5657    519.60815   -948.18131   -157.95651    46.978486    23.452039    30.915993    68.472778    134.31426    113.51247 
   50500    233.14141   -12732.199    -11532.02   -12732.199            0    2693.3348    46.610136     21.58603    21.950462   -8.8880791   -21.302571    2.8195543     22084.97    3559.3052     2381.541    2139.1583   -1080.5231   -702.79354   -50.428551    46.610136    23.344263    30.717621    69.578874    133.90755    112.37949 
   51000    238.95301   -12732.898   -11502.802   -12732.898            0    1788.4886    46.821844    21.580613    21.938801   -9.4232889   -21.513201    3.1219224    22167.932    1553.9312    1626.0508    2185.4839   -116.13417    600.73644    82.816703    46.821844    23.548274     30.88487    68.199346    134.15175    113.58874 
   51500    236.95634   -12701.339   -11481.522   -12701.339            0    2265.9386    46.915708    21.517828    21.937863   -9.0871255   -21.447534    2.8341355    22146.802     1790.465    2592.7187    2414.6321   -590.56801   -292.85739    516.18413    46.915708    23.357928    30.810694    69.172776    134.11548    112.89467 
   52000    236.40651   -12747.075   -11530.087   -12747.075            0    2033.4182    46.881993    21.558985    21.914567   -9.2346603   -21.633989    2.9243127    22149.671    2597.1101    1978.0914     1525.053    93.658517    141.63338   -124.28052    46.881993    23.453545    30.932658    68.759658    134.37808    113.18758 
   52500    237.72925   -12678.742   -11454.945   -12678.742            0     2607.466    46.799894    21.755288    21.738984   -9.2460018   -21.468904    3.0080661    22133.442    2952.8921    1231.1378    3638.3681   -202.42386   -383.28611      362.687    46.799894    23.638551    30.700908     68.67268    134.37024     113.0255 
   53000    230.63076     -12718.3   -11531.045     -12718.3            0    1784.5977    47.047671    21.559712    21.826971   -9.1661263   -21.638389    2.7607295    22139.844    1558.3024     1711.327    2084.1637   -178.13732    418.53482     948.3783    47.047671    23.427314    30.858681    69.103224    134.52409     113.0328 
   53500    235.19398   -12715.796   -11505.051   -12715.796            0    2075.3148    47.213281    21.516158    21.828973   -9.3866631   -21.604351    3.1250067    22174.927    670.10751    3148.8985    2406.9382    1025.5364    547.76952   -303.66028    47.213281     23.47455    30.870985    68.122734    134.41313    113.56977 
   54000    238.69709   -12700.481   -11471.702   -12700.481            0    1716.5317    46.917769    21.597869    21.952675   -9.0738949   -21.592104    2.7193947    22245.169    1687.8482     2756.094    705.65275   -583.25307    264.79809    267.38153    46.917769    23.426556    30.911713    69.411011    134.30749     112.7887 
   54500    231.66021   -12728.404    -11535.85   -12728.404            0    1421.4207    46.861135     21.60286    21.938201   -9.3734714   -21.503981    2.9682344    22208.798    1846.5602    1211.5176    1206.1841    632.13147   -11.806181   -127.75399    46.861135     23.54879    30.862862    68.557401    134.16756      113.456 
   55000     241.0719   -12722.122   -11481.118   -12722.122            0    1575.7544    46.969837    21.545364    21.928161   -9.0222669   -21.556973     3.027641     22190.91    2098.1162    1456.0849    1173.0621   -605.22217    123.53033   -86.419385    46.969837    23.358168    30.898446    68.908211    134.24051    112.72183 
   55500    226.70544   -12695.973   -11528.925   -12695.973            0    2008.4762     47.15353    21.479889    21.850151   -9.5207798   -21.564433    2.7778167    22130.982    1818.1689    1640.5317    2566.7279    453.35083   -289.56969      167.128     47.15353    23.495337     30.82483    68.538883    134.39331    113.90491 
   56000    229.68119   -12667.523   -11485.157   -12667.523            0    1806.7935    46.925474    21.671664    21.817969   -9.1492401   -21.690433    3.0111674    22187.852    2109.5065    657.49329    2653.3806   -678.96742    401.40797   -61.941213    46.925474     23.52381    30.912227     68.73709    134.56179    112.88827 
   56500    229.74172   -12721.767   -11539.089   -12721.767            0    1679.6093      46.9351    21.736739    21.755384   -9.2085812   -21.408568    2.8490766    22195.191    407.96966    2075.0509    2555.8074    59.451096   -207.85047   -200.10523      46.9351    23.606859    30.655191    69.022807    134.29612    112.95952 
   57000    232.65498   -12722.503   -11524.828   -12722.503            0    1292.7023    47.230149    21.485508    21.846014   -9.3590722   -21.901935    2.8711229    22168.543     564.8242     1726.214    1587.0686    330.27991    459.92468    268.21404    47.230149    23.435428     31.06745    68.514591    134.82794    113.53791 
   57500    240.08716   -12747.361   -11511.426   -12747.361            0    1752.2085    47.027636    21.543363    21.885109   -9.2118664      -21.471    2.9207875    22172.535    1564.5209     2263.855    1428.2496   -747.34701   -468.00203    90.457482    47.027636    23.430215    30.797611    68.819994    134.19995    113.15138 
   58000    229.71466   -12698.086   -11515.547   -12698.086            0    2484.7929    46.768319    21.616832    21.931519   -9.2369172   -21.436606     2.930221    22172.391    3185.1547    2125.0492    2144.1746    -519.7641   -290.60638    283.59252    46.768319    23.507617    30.807561    68.846047    134.09283    113.13712 
   58500    247.67802   -12701.606   -11426.595   -12701.606            0     2084.888    46.598906    21.617886    22.005467   -9.1869561   -21.483385    2.9014482    22167.644    2484.1961    1907.4482    1863.0196   -583.44379    651.63375    263.27723    46.598906    23.489001    30.890044    68.994349    134.06542    113.02404 
   59000    237.29159   -12748.956   -11527.412   -12748.956            0    2513.8527     47.03172    21.425309    21.927028   -9.2265343   -21.459507    2.9780105     22095.19    1708.7362    2702.7831    3130.0389    159.37341   -272.11391   -252.69353     47.03172    23.327512    30.824885     68.64873     134.1209    113.29851 
   59500     236.3489   -12692.104   -11475.413   -12692.104            0    1525.0955    47.090596    21.508428    21.888377   -9.1263462   -21.608236    2.8431921    22169.527    670.79165    1651.2522    2253.2425   -125.55217    -80.62238    126.82321    47.090596    23.364561     30.88852    69.023479    134.39136    112.99223 
   60000    236.39678   -12754.173   -11537.236   -12754.173            0    2327.9756    46.861937    21.644029    21.760782   -9.4993111   -21.527193    2.9399119    22071.551      2990.23    1440.7624    2552.9344     733.1575   -198.70553    -406.9654    46.861937    23.636854    30.750525    68.352913    134.43177    113.69611 
   60500    227.36384    -12711.54   -11541.103    -12711.54            0    2334.8152    46.912085    21.622278    21.795113   -8.9157583   -21.574539    2.9485513    22107.788    2465.5266    2094.9995    2443.9196   -1193.4063   -119.22564   -377.65147    46.912085    23.388323    30.808791    69.180454    134.44884    112.40838 
   61000    228.07386   -12703.657   -11529.565   -12703.657            0    2354.8127    47.021054    21.498102    21.895674   -9.3850222   -21.512871    2.8676926    22133.536    1983.2547    2688.2678    2392.9155    -156.8857    140.07919   -560.52405    47.021054    23.457345    30.829334    68.627296    134.25118    113.58373 
   61500    235.66524   -12649.423   -11436.252   -12649.423            0    1819.4283    46.828096    21.613529    21.998697   -9.0987971   -21.612532    2.9539403     22265.33    1942.9185    1737.0106    1778.3558    283.90556      239.838   -563.93538    46.828096    23.450645    30.980154    68.988413    134.23677    112.82997 
   62000    234.08473   -12704.101   -11499.066   -12704.101            0    1493.9979    46.808333    21.653339    21.940578   -9.3657535   -21.249209    2.9630078    22238.021    1843.9095    1729.8344    908.24972    1250.8593   -694.52905   -180.37908    46.808333    23.592042    30.687087    68.683818     133.8242    113.39001 
   62500     239.6431   -12761.512   -11527.863   -12761.512            0    1719.5858     46.93665    21.445067    21.994022   -9.2131929   -21.714271    2.8602469    22138.294    2381.5688    1605.3225    1171.8662    306.37396   -275.35942    453.85013     46.93665     23.34039     31.03913    68.849916     134.3931    113.24924 
   63000    239.47649   -12673.074   -11440.282   -12673.074            0    2586.2729    47.021341    21.495172    21.917371   -9.1967212   -21.439754    2.9749243    22152.585    2056.8083    3337.5629    2364.4474   -777.69172   -246.59531   -445.62952    47.021341    23.379951    30.803967    68.741822    134.10746    113.16369 
   63500    230.46976   -12735.471   -11549.045   -12735.471            0    3256.5568    46.642118    21.581194    21.843592   -9.3170381   -21.555524    2.9807517    21987.598    3019.3961    3767.1373    2983.1369    1169.9313    271.03593   -33.295821    46.642118    23.506491    30.832904    68.539803    134.35547    113.35083 
   64000    241.25093   -12708.015   -11466.089   -12708.015            0     2967.393    46.680826    21.584908    21.897504   -9.1679786   -21.421747    2.8632504    22063.954    4476.5757    2295.4783    2130.1251   -307.54833   -872.04067     57.88483    46.680826    23.451227    30.766705    69.031592    134.12802    113.01288 
   64500    232.23385   -12757.124   -11561.617   -12757.124            0    2445.8664    47.001724     21.47089    21.896961   -9.1979021   -21.391554    2.9712201    22097.731    2665.0524    3067.8013    1604.7454    21.699918   -715.43657   -172.60503    47.001724    23.358093    30.755546    68.734599    134.06985    113.18978 
   65000    233.45642   -12754.921    -11553.12   -12754.921            0    2168.6811    46.826017    21.451507     21.97407   -9.3126629   -21.809568    2.9539159    22072.704    2298.3699    2436.5906    1771.0827    198.64014    331.21013   -484.82057    46.826017    23.385741    31.100525     68.50749    134.52822    113.46693 
   65500     234.3366    -12737.72   -11531.388    -12737.72            0    1690.7917    46.814746    21.659398    21.866948   -9.1899102   -21.306109     2.910804    22172.631    1482.4307    1228.2551    2361.6893   -354.83245    91.774473   -214.23489    46.814746    23.528366    30.668983    68.978532    134.00427    112.99113 
   66000    234.34483   -12656.974     -11450.6   -12656.974            0    2650.9877    46.858247    21.569372    21.909178   -9.1508977   -21.764737    2.9367488    22143.671    2776.3898    3202.6164    1973.9569   -1440.6389    1603.0627    -54.91078    46.858247    23.430253    31.021611    68.828238    134.55545    112.98929 
   66500    242.88767   -12695.028   -11444.676   -12695.028            0    1673.9869    47.178756    21.450459     21.94222    -9.413878   -21.402067    2.8185471    22205.657    1451.8456    1487.3001    2082.8151    145.78041   -537.99365    254.06303    47.178756     23.42527    30.780736    68.698776     134.0517    113.69504 
   67000    230.01652   -12738.029   -11553.937   -12738.029            0    2134.4572    46.881304    21.533881    21.934402   -9.1032216   -21.612143    2.9492434    22143.578     1368.201    2591.1129    2444.0576   -413.35761    493.82392   -142.91756    46.881304    23.378979    30.933812    68.908598     134.3194     112.9157 
   67500    233.71246   -12715.204   -11512.085   -12715.204            0    2154.0671    46.731556    21.718524     21.82969   -9.4220636   -21.366017    2.9818068    22155.834    3209.5092    796.68716    2456.0049    121.67238    115.04076    34.062207    46.731556    23.674238     30.69093    68.518785     134.1203    113.45246 
   68000    230.13337   -12729.304    -11544.61   -12729.304            0    1877.6829    46.948962    21.578632     21.87242   -9.0779071   -21.679759    2.8888421    22158.826    1701.4476    1953.4984    1978.1028   -649.00405    300.49549    4.6606426    46.948962    23.410377    30.931539    69.030249    134.49885    112.81599 
   68500    235.75037   -12700.817   -11487.208   -12700.817            0    1779.7333    47.165793    21.502627    21.847573   -9.3613699    -21.63066     2.951371    22157.556    136.54219    3352.5317     1850.126    311.36982    32.755166   -1347.0639    47.165793    23.452041    30.885474    68.458509    134.45514    113.52635 
   69000    234.90644    -12752.69   -11543.424    -12752.69            0    1940.1605    47.093392    21.613172    21.711522   -9.1293011   -21.602414    2.7807042    22098.803    1423.7512    1651.4224    2745.3077   -71.228501    13.916677    315.37089    47.093392    23.462168    30.753647    69.107526    134.62263    112.89896 
   69500     232.3813   -12719.743   -11523.477   -12719.743            0    2234.7837    46.982641    21.654747    21.768961   -9.3747383   -21.615646    2.9506103     22147.68    1302.3426    2724.8403    2677.1683    119.93845    471.37322   -261.35837    46.982641    23.596902    30.819311     68.49989    134.53678    113.40867 
   70000    233.20213   -12745.703   -11545.211   -12745.703            0    1591.6181    46.940626     21.57276    21.886498   -9.2106895   -21.511361    2.9200482    22163.118    1715.7403     1354.407    1704.7071    208.50475   -391.88457   -270.68869    46.940626    23.456785    30.826679    68.830667    134.25207    113.12051 
   70500    233.32938    -12732.66   -11531.514    -12732.66            0    3010.4051    46.843708     21.44113    21.985889   -9.1600289   -21.481861    2.8781986    22082.231    3645.8596    2797.9108    2587.4451   -164.31999   -335.91567   -218.26138    46.843708    23.315835    30.872863    68.955358    134.09235    113.13303 
   71000    226.60892   -12705.778   -11539.228   -12705.778            0    2993.6953    46.745472    21.503986    22.004534    -9.310366   -21.422652    3.0055434    22119.265    3552.3054     3387.943    2040.8376    312.58096   -863.55015   -638.06323    46.745472    23.432976    30.857136    68.578654     133.9677    113.41068 
   71500     237.9045   -12734.932   -11510.233   -12734.932            0    2462.9037    46.553787    21.622179    21.978866   -8.9516601   -21.310346    2.9018177    22123.802    4123.4782     1504.539    1760.6938    878.13755   -790.74968    215.77664    46.553787    23.401941    30.750967    69.373632    133.86787    112.48973 
   72000    241.24295   -12684.329   -11442.444   -12684.329            0    2621.8314    46.824029    21.547689    21.929622   -9.4421424   -21.464362    3.0035262    22125.884    2967.4875     2362.276    2535.7306    1279.9259   -704.45337   -81.073336    46.824029    23.525666    30.832585    68.368831     134.1196    113.66291 
   72500    233.49813   -12759.934   -11557.918   -12759.934            0    2530.4919     47.07188    21.442417    21.869837   -9.1073005   -21.664585    2.8430982    22073.989    2482.3478    2314.7417    2794.3862   -187.32642    179.56638    632.83846     47.07188    23.296356    30.914838     68.98542    134.48984    113.01253 
   73000    239.50359   -12776.842   -11543.911   -12776.842            0    2235.9554    46.949337    21.610281    21.767534   -9.2876265    -21.40481    2.9266976    22085.087    2111.4967    1721.0994    2875.2701   -135.70899    135.38409   -119.75158    46.949337     23.52157    30.668502     68.69935    134.26206    113.25698 
   73500    238.88736   -12687.957   -11458.199   -12687.957            0    2351.3236      46.6995    21.723514    21.797655   -9.1639478   -21.573766    3.0223778    22113.225    2625.9661    1888.3648    2539.6399    340.14203    -129.4512   -174.18602      46.6995    23.577299    30.817201    68.748731    134.43149    112.87219 
   74000    238.64918   -12692.298   -11463.766   -12692.298            0    2376.6301     47.10441    21.487308    21.837772   -9.2862806   -21.430494    2.7003717    22103.035    1493.1471    2931.0165    2705.7267    212.11488    141.26391    1047.6711     47.10441    23.408105    30.715572    69.053841    134.24339     113.3728 
   74500    242.37343   -12723.408   -11475.704   -12723.408            0    2641.8063     47.09879      21.4541    21.845827   -9.2171099   -21.711469    3.0136825    22074.382    2275.1906    2307.9996    3342.2287   -159.10155   -663.01151   -449.68902     47.09879    23.350236    30.946896    68.505735    134.55325    113.24933 
   75000    232.50416   -12669.761   -11472.862   -12669.761            0    2425.9693    46.817627    21.614057    21.896138   -9.2448928   -21.301504     2.831076    22157.115    1653.2466    2808.0068    2816.6547   -33.083361     461.4716    22.152712    46.817627    23.508201    30.679145    69.028753    133.97399    113.15765 
   75500    237.69472   -12719.958   -11496.339   -12719.958            0    1496.9155     46.72037    21.717964    21.880074   -9.2181085   -21.749098    3.0796153    22201.083    1967.2712    1183.3673    1340.1079   -184.90648    983.88075   -35.616118     46.72037    23.593293     31.00395    68.560747    134.54703    112.99861 
   76000    235.16133   -12733.218   -11522.641   -12733.218            0    2021.2283    47.029472    21.523372    21.862375   -9.2296165     -21.4161     2.942622    22129.814     1195.075    2934.8831    1933.7268   -571.24294    161.06319   -354.25818    47.029472    23.418825    30.745272    68.746963    134.15211    113.21054 
   76500    227.40296   -12755.254   -11584.615   -12755.254            0    2422.1155    46.881885    21.461283    21.916629   -9.1947982   -21.786284    2.8894799    22051.315    1325.5206    3666.8564    2273.9695   -93.422824    979.82397    50.739846    46.881885     23.34804    31.037556    68.776646    134.58229    113.19206 
   77000    234.55865   -12785.787   -11578.313   -12785.787            0    2205.2707     46.75787    21.690718    21.761956   -9.2972558   -21.318811    2.9830482    22071.232    2658.1026    1582.8383    2374.8711    333.91177   -321.93392    40.096146     46.75787    23.599284    30.610015     68.65679    134.14409    113.20134 
   77500    237.97939    -12721.67   -11496.585    -12721.67            0    2503.0964    46.977397    21.530818    21.827087   -9.1254021   -21.569543    2.7853536    22077.265    2048.4172    2794.1986    2666.6734      -338.61    798.36945    353.22405    46.977397    23.384805    30.812742    69.120926    134.42863    112.96868 
   78000    244.16553   -12719.386   -11462.456   -12719.386            0      2534.66    47.148323    21.470965    21.877604   -9.4201744   -21.646115    2.9744197    22147.136    2449.9781    2266.8708    2887.1312    473.50144    129.10514   -295.07387    47.148323    23.446578    30.919752      68.3237    134.43294    113.68899 
   78500    231.52539    -12714.87    -11523.01    -12714.87            0    2161.7338    46.855567    21.570176    21.867942   -9.0964503   -21.448858    2.9107821    22101.554    2480.5159     2046.228    1958.4574   -847.57616   -297.92524    -327.7175    46.855567    23.409783    30.769028    69.020152     134.1942    112.86584 
   79000    235.88224   -12771.131   -11556.843   -12771.131            0    2162.2752    46.422858     21.69956    21.965704   -9.3502773   -21.397603    2.9344332    22127.275    3461.0311    1553.2392    1472.5554    1155.6672   -515.85456   -107.09703    46.422858    23.628343    30.805202    68.755107    133.99615    113.31107 
   79500    235.57058   -12706.525   -11493.841   -12706.525            0    2043.9227    46.812896    21.510531    22.026901   -9.1073866   -21.384571    2.9288203    22180.434    2739.7172    2737.9738    654.07705   -53.334542   -753.52076   -568.45424    46.812896    23.359097    30.839297    69.034278    133.90141    112.94741 
   80000    231.65084     -12717.3   -11524.794     -12717.3            0    1777.1314    47.022006    21.449069    22.002038   -9.2437107    -21.64149    2.9531431    22190.778    2081.5074    1941.6288    1308.2579   -222.10153    118.02332    360.25731    47.022006    23.356129    31.002659    68.669519    134.27098    113.31415 
   80500    235.84698    -12732.65   -11518.543    -12732.65            0    1629.1939    46.659456    21.701505    21.924432   -9.2973334   -21.222661    3.0009612     22200.25    2386.0444    731.67678    1769.8605    449.93287   -861.92117       334.01    46.659456    23.609229    30.660852    68.743357    133.80249     113.1912 
   81000    233.74806   -12703.307   -11500.005   -12703.307            0    1642.1781    46.770759    21.663757    21.903279   -9.1131785   -21.619545    2.9181882    22193.068    2080.5096     1369.523    1476.5017     25.39825    51.734722   -267.79267    46.770759    23.502519    30.913981     69.01122     134.3745    112.81477 
   81500    232.48949   -12730.489   -11533.666   -12730.489            0    1484.7971    47.140133    21.541217     21.84275   -9.4589944    -21.53734    2.8732533    22180.348    1306.2085    1713.3449     1434.838     806.2811   -519.57283    175.58231    47.140133    23.526508    30.809387    68.503297    134.35093    113.70683 
   82000     235.5817   -12701.652   -11488.911   -12701.652            0    2206.9371    47.213204    21.488038    21.827167   -9.0605448    -21.74862    2.8784482    22144.078    2233.3525    2787.2804    1600.1784   -1380.0923    122.95691    379.48714    47.213204    23.320146    30.946941    68.976443    134.64976    112.86298 
   82500    239.67594   -12675.289   -11441.471   -12675.289            0    1308.2603     46.99578    21.722572    21.839514   -9.4041843   -21.476583    2.9886837    22295.287    1524.7956    1105.7397    1294.2457    454.96281   -271.92334   -258.16256     46.99578    23.670843    30.775643    68.508382    134.25424    113.40886 
   83000    229.53332   -12737.016   -11555.411   -12737.016            0    2019.6529    46.790292    21.622841    21.871775   -9.1790334   -21.562306    2.9156683    22128.528     2067.421     1553.925    2437.6128    108.68392    177.43871    7.1885574    46.790292    23.490464    30.851397    68.893935     134.3395    113.00153 
   83500    236.57088   -12717.686   -11499.852   -12717.686            0    2771.7908    46.871893    21.548683    21.871232   -9.0803442   -21.314077    3.0201252    22090.547    2256.9218    3271.7314    2786.7194    432.86842   -787.41925    243.43268    46.871893     23.38372    30.688138     68.87568    133.99041    112.84995 
   84000    239.50761   -12656.569   -11423.618   -12656.569            0    2574.3687    47.061117    21.403694    21.960209    -9.332752   -21.757667    2.9136238    22120.117    2894.8603    2465.2264    2363.0194   -546.11783     694.8569    95.135296    47.061117    23.349912     31.05054    68.525665    134.48462    113.55887 
   84500    236.76312   -12754.015   -11535.192   -12754.015            0    2194.5886      46.8696    21.590058    21.856901   -9.0773679   -21.395799    2.8818686    22117.377    2201.8774    2157.8612    2224.0272    50.398769    63.563194   -99.759954      46.8696      23.4207    30.721482     69.12066    134.14241    112.80393 
   85000    236.68603   -12748.545   -11530.119   -12748.545            0    1674.0332    46.574982    21.699961    21.933454   -9.3539523   -21.466776    3.0009654      22167.6    2352.7282    1141.3643    1528.0072   -228.03148    636.13383   -275.39193    46.574982    23.630166    30.836742    68.596403    134.11835    113.31887 
   85500    240.23883   -12680.625   -11443.909   -12680.625            0    2020.9756    46.813248    21.541641      22.0491    -9.134275   -21.533344    2.8951154    22235.066    2511.8024    1652.4361    1898.6884    -79.01694   -470.02097    183.97916    46.813248    23.398232     30.95528    69.043078    134.07724    112.97834 
   86000    237.06179   -12679.913   -11459.552   -12679.913            0    2237.8094    46.972526    21.528397      21.9386   -9.2917095   -21.470263    2.9927071     22185.26    2449.2007    2419.0971    1845.1303    392.51844   -17.378474   -434.15278    46.972526     23.44798    30.842027    68.595672    134.11786    113.34515 
   86500    240.18095   -12757.691   -11521.274   -12757.691            0    2177.9003    46.961998    21.479833    21.938532   -9.1648298   -21.816376    2.8598347    22130.184    1968.8899    2777.5967    1787.2143   -407.59298    864.98339    240.97925    46.961998    23.353315    31.071403    68.887205    134.59869    113.10656 
   87000     235.2112   -12719.321   -11508.487   -12719.321            0    2315.9291    46.992657    21.620635    21.761948   -9.2771031   -21.418992    2.9034472    22110.381    2016.7988    2023.7283    2907.2601   -214.30907    50.264268    483.09635    46.992657    23.526932    30.672229    68.755385    134.29227    113.22347 
   87500    227.75357   -12698.144   -11525.701   -12698.144            0    2638.4158    46.828948    21.612794    21.815229   -9.1914106   -21.640505    3.0530738     22079.29     3642.881    1853.1432    2419.2233   -203.39583    273.77384   -243.81677    46.828948    23.486058    30.879393    68.577026    134.49181     113.0389 
   88000    250.57949   -12748.962   -11459.014   -12748.962            0    2130.7712    46.956473    21.601592    21.794145   -9.2191065   -21.387258    2.7520021    22106.555    1816.6583    2489.2074     2086.448   -61.253424   -76.561893    600.50011    46.956473    23.486607     30.65898    69.122078     134.2336    113.11177 
   88500    242.88745   -12738.626   -11488.276   -12738.626            0    1462.6549    47.162364    21.515717    21.844959   -9.2660887    -21.76147    3.0618576     22166.78    1210.5137    2074.9088    1102.5423   -367.18602     841.0609   -923.07506    47.162364    23.426192    30.986107    68.374093    134.61164     113.2999 
   89000    227.48244   -12720.311   -11549.263   -12720.311            0     2272.307    46.861601    21.537406    21.880694   -9.2045624   -21.552807    2.8188592    22083.688    2546.4735    2427.8896    1842.5578   -382.65791    179.35438    386.15422    46.861601    23.421866    30.842086    68.981519    134.33174    113.14068 
   89500    233.41201   -12733.504   -11531.932   -12733.504            0    2288.5095    46.661009    21.639387    21.901635    -9.211787   -21.351769    2.9301723    22114.424    2307.1822    2431.5376    2126.8088    57.878976    630.97889   -547.72769    46.661009    23.518506    30.727277    68.905106    134.01765    113.05923 
   90000    235.46709   -12754.512    -11542.36   -12754.512            0    1648.1991    46.885972    21.579029    21.892411   -9.1824041   -21.613672    3.0228222    22149.729    1212.2212    2389.5026    1342.8734    296.32001    546.91361   -447.94412    46.885972    23.451461     30.91223    68.669391    134.36244    113.05094 
   90500    232.99051   -12691.535   -11492.132   -12691.535            0     2674.144    46.983322    21.424305    21.928748     -9.28152   -21.351861    2.7514231    22073.149    2604.9869    2996.2986    2421.1465    521.88544   -151.31646    776.27474    46.983322    23.348393    30.730153    69.000328    134.01271    113.42341 
   91000    233.77561   -12726.517   -11523.073   -12726.517            0    3575.0901     46.93875     21.48002    21.842713   -9.1413852   -21.712965    3.0220903    22022.812    3591.8139     3485.848    3647.6084    357.96999    686.07786   -742.51791     46.93875    23.344297    30.946566    68.616634    134.55773    113.05345 
   91500    240.13066   -12743.385   -11507.227   -12743.385            0    2770.7154    46.866329    21.590709    21.826223   -9.3240751   -21.324096    2.8354588    22085.459    2499.4756    2963.6021    2849.0686    239.35973    -103.0994    437.59138    46.866329    23.518017    30.645406    68.849679    134.09366    113.35739 
   92000    235.18218   -12727.919   -11517.235   -12727.919            0    2259.9189     46.79814    21.646941    21.823621    -9.055706   -21.723441    2.9175497    22108.126    1926.1315    1864.9019    2988.7233    110.71738    460.74615    589.38454     46.79814    23.464779    30.930413    69.018389    134.61446    112.70134 
   92500    229.05413   -12703.036   -11523.897   -12703.036            0    1908.0262    46.991415    21.553574    21.842708   -9.3015324    -21.51991    2.9249626    22123.015    1814.6451     2482.337    1427.0964   -175.40786   -182.08091   -368.77402    46.991415    23.474988    30.802042    68.652985    134.31896    113.34281 
   93000    239.85757    -12748.44   -11513.687    -12748.44            0    1543.6094    46.972603    21.526272    21.880762   -9.1482936   -21.539575    2.8033941    22124.623    1786.0469    1195.7864    1648.9949   -525.38005   -52.891635    682.34069    46.972603    23.389563    30.831478    69.088025    134.31662    113.02465 
   93500    226.39421   -12696.373   -11530.927   -12696.373            0      1823.21    46.812307     21.64169    21.856151    -9.458986   -21.605408    2.9603694     22142.41    1581.0361    2333.4776    1555.1164    312.55611    391.69561   -270.62354    46.812307    23.618534    30.874727     68.40081    134.40907    113.60881 
   94000    236.16524   -12728.849   -11513.104   -12728.849            0    1645.8151    47.014754    21.643714    21.812007    -9.050976   -21.494676    2.9131482    22195.329    1647.1703    1762.8609    1527.4141   -114.88173   -193.67036    -164.5432    47.014754    23.459977    30.761521    69.086915    134.32697    112.69372 
   94500    229.15949   -12697.453   -11517.772   -12697.453            0    2406.3518    47.121067    21.471834    21.878022   -9.4378235   -21.824333    2.9111143    22135.651    2124.4294    2907.7352    2186.8908    591.58115    435.92892   -717.85129    47.121067     23.45447    31.039071    68.358969    134.67823    113.72762 
   95000    235.11785   -12709.342   -11498.988   -12709.342            0    2334.8039    46.980392    21.567781    21.863275   -9.0988391   -21.367562    2.8900934    22153.244    2286.8729    2371.1452    2346.3935    -223.1708   -261.99939   -143.63053    46.980392    23.408504    30.707135    69.072118      134.095    112.87351 
   95500    235.99233   -12729.674   -11514.819   -12729.674            0    1743.0854    46.803619    21.612899    21.944931   -9.2118951   -21.533273    3.0117538    22198.656    2058.2296    954.25128    2216.7752   -218.56645    119.27446    188.16728    46.803619    23.494178    30.892273    68.715979    134.19032    113.08477 
   96000    227.53348   -12694.067   -11522.757   -12694.067            0    2194.7955    46.629963    21.614483    21.978931   -9.3691054   -21.342485    2.8253767    22152.181    2639.7703    1640.4489    2304.1671    603.73102    39.603489    603.65407    46.629963    23.557717     30.76618    68.890661    133.92368    113.43501 
   96500    236.27489   -12741.476   -11525.166   -12741.476            0    1628.1909    47.087323    21.515475    21.852573   -9.1193762   -21.617913    2.9545191    22138.975    1971.5308    1004.6847    1908.3573   -662.86678   -71.221419    80.746072    47.087323    23.368327    30.880386    68.821019    134.43127    112.96975 
   97000    237.36312   -12734.688   -11512.776   -12734.688            0    1564.2259    47.050214    21.559078    21.863291   -9.3947494    -21.57578    2.9701742    22177.231    1722.3812      1299.14    1671.1565    117.74338    -231.8745   -363.72197    47.050214    23.517125    30.860002    68.436414    134.35887    113.54602 
   97500    239.23767   -12732.393   -11500.831   -12732.393            0    1588.7854    46.822251     21.59211    21.855082   -8.9720193   -21.517665    2.7215878    22095.295    2123.4528    1443.7864    1199.1169   -521.78279    -329.9935    626.59066    46.822251    23.381966    30.790608    69.526193     134.3339    112.56401 
   98000    234.70871   -12754.163   -11545.916   -12754.163            0    2038.8484     46.90074    21.602374    21.860179   -9.3486928   -21.407562    3.1745417     22148.02    2414.4866    1612.3929    2089.6656   -81.535884   -738.27879   -602.85515     46.90074    23.538493    30.760833    68.215646    134.10183    113.40114 
   98500     232.5681   -12748.829   -11551.601   -12748.829            0    1329.7593    46.820157    21.516344    22.020892   -9.1339938   -21.586578    2.7265831    22183.816    1292.5402    1771.9751    924.76253    489.53075    160.35545    493.35518    46.820157    23.374835    30.956974     69.29506     134.2115    113.00191 
   99000    235.85857   -12697.873   -11483.706   -12697.873            0    1744.8402    46.906313    21.597398    21.951425   -9.2634723    -21.49407    2.9521835    22237.985    2264.9401    1453.2326    1516.3478    440.23147    -357.3682    440.25723    46.906313    23.500202    30.863821    68.750788    134.14019    113.21527 
   99500     238.0204     -12669.9   -11444.605     -12669.9            0    1721.9995    46.856458    21.630317    21.905208   -9.3014349   -21.499841    2.9857179    22201.368    1928.1957    1509.0359     1728.767    72.946136   -694.88145   -635.01512    46.856458    23.545431     30.83822    68.631807    134.20132     113.2686 
  100000    240.46158   -12785.156   -11547.293   -12785.156            0    1436.0372    47.037627    21.568296    21.838249   -9.1322576   -21.611933     2.708668    22155.373    948.17592      825.161    2534.7747    -462.3423   -517.10101    620.88007    47.037627    23.421988    30.843502     69.26344    134.48291    112.94834 
  100500    230.77773   -12737.273   -11549.262   -12737.273            0    1859.5109    47.104084    21.565487    21.827964   -9.4299347   -21.622471    3.0551413    22173.337    2272.8211    1396.6992    1909.0123    557.30319   -330.57621   -171.91985    47.104084    23.537075    30.875964    68.208491    134.45116     113.6183 
  101000    232.83297    -12727.35   -11528.759    -12727.35            0    2528.1545    46.967157    21.584423    21.771043    -9.045916   -21.542776    2.6744023    22070.589    2399.0588    2782.5109    2402.8937   -1263.8241    322.35494    117.07797    46.967157    23.403331    30.744461    69.447506    134.48354     112.7383 
  101500    228.50711    -12708.53   -11532.208    -12708.53            0    2269.6764    46.882697    21.656673    21.815112    -9.385192   -21.495512    2.9913365     22149.39    1499.1693     2621.584     2688.276    452.57352    59.460778    346.77914    46.882697    23.602824     30.77181    68.471892    134.31043     113.4301 
  102000    237.34446   -12669.329   -11447.513   -12669.329            0    2364.4462    46.891482    21.556333    21.936153   -9.0671043   -21.583227    3.0261378    22173.248     2011.121    3025.3581    2056.8596    -614.2387    323.28134   -362.25889    46.891482    23.385634     30.92229    68.848809    134.26539    112.81277 
  102500    235.73032    -12769.13   -11555.624    -12769.13            0    1847.8115    46.957839    21.423964    22.034633   -9.3573558   -21.363898    2.6844291    22167.348    1657.8012    2673.4987    1212.1345   -383.96889    260.05004    568.92942    46.957839     23.37833    30.808235    69.058958    133.90364    113.59429 
  103000    234.68938   -12751.563   -11543.415   -12751.563            0    1378.9826    46.837406    21.603957    21.938826   -9.2035422   -21.614587    3.0481837    22199.312    1997.3232    917.17888    1222.4457    268.75852    816.54785   -561.19954    46.837406    23.482677    30.948245       68.633    134.29964    113.07458 
  103500    231.25424   -12690.217   -11499.753   -12690.217            0    1614.2147     46.87614    21.610282    21.927412   -9.2069102   -21.338825    2.8331655    22212.613    906.57264    1918.8641    2017.2075    83.114169   -543.18968    977.32048     46.87614    23.489817    30.727572    69.082835    133.98357    113.07609 
  104000    238.40634   -12732.627   -11505.345   -12732.627            0    1703.0278    47.067505    21.490247    21.957656   -9.3005532   -21.951798    3.0688458        22210    655.59946    2496.8677    1956.6162    840.50137     1016.335   -182.45877    47.067505    23.416468    31.199967    68.301712    134.71526    113.40201 
  104500    226.62085   -12724.595   -11557.983   -12724.595            0    2248.7459    47.011316    21.510288    21.899008   -9.1834803   -21.348573    2.9217479    22144.867    2327.1982    2555.9177    1863.1219   -238.03292   -823.98276   -509.12805    47.011316    23.388647    30.722381    68.880824    134.01819     113.1193 
  105000    234.20796   -12689.028   -11483.358   -12689.028            0    1940.2661     46.71619       21.675    21.925039   -9.2909362   -21.689762     2.880334    22200.711    2450.1728    1696.1869    1674.4387    819.82939   -309.58954   -47.823613     46.71619    23.582347    30.974981    68.817149    134.44585    113.20228 
  105500    240.97119   -12677.445   -11436.959   -12677.445            0    1281.5514    47.078479    21.625831    21.850876   -9.2669831    -21.51598    2.9403971    22246.623    1498.0264    923.22464    1423.4033    198.15583    -134.3329    -182.0053    47.078479    23.527719     30.80656    68.726357    134.30054    113.19584 
  106000    239.57837   -12758.765   -11525.449   -12758.765            0    2057.6407    47.039927    21.531833    21.825941   -9.2207893   -21.522898    2.8737143    22106.532    1834.6206    2583.4058    1754.8957   -387.64685   -418.42624    25.699338    47.039927    23.423125    30.787417    68.838054    134.35332    113.18254 
  106500    234.97434   -12696.598   -11486.984   -12696.598            0    2630.0035    46.919038    21.543294    21.832591   -9.2482938   -21.891505    2.9950007    22068.178    2783.0227    2413.4092    2693.5786    92.401838    1090.6881    158.75605    46.919038    23.444497    31.062357    68.493244    134.81015     113.2333 
  107000    236.41788   -12715.141   -11498.095   -12715.141            0    2583.3394    46.720368    21.623717    21.888977   -9.1460726   -21.137543    2.8733073    22113.733    2930.0973     3019.603    1800.3179    68.569523   -337.25852   -369.87119    46.720368    23.478411    30.564341    69.146048    133.75494    112.92666 
  107500    241.06175   -12707.131   -11466.179   -12707.131            0    2947.0316    46.727315    21.546914    21.928345    -9.162584   -21.579038    2.9465812    22078.103    2730.0897    3509.0321    2601.9729   -248.00775    728.38062   -837.88301    46.727315     23.41415    30.906141    68.840495    134.28373    113.03708 
  108000    237.28118   -12713.759   -11492.269   -12713.759            0    3544.8178    47.035912    21.428561    21.862316    -9.362522   -21.396692    2.9935284    22035.289    2599.0054    4476.0238     3559.424    226.91135    29.284291   -580.50556    47.035912    23.384611    30.736632    68.410351    134.11733    113.60138 
  108500    236.70278   -12704.735   -11486.222   -12704.735            0    2768.5119    46.873208    21.564377    21.829611   -9.0868642   -21.680441    2.8582625    22065.186    3170.5979    2758.0512    2376.8867   -438.28327    734.51563     -625.788    46.873208    23.400715    30.898917    69.040439    134.56009    112.84974 
  109000    231.39084   -12746.029   -11554.862   -12746.029            0     2316.893     46.87973    21.622374     21.79848    -9.371689   -21.426569    2.8898863    22096.052    2366.3042    1086.4249    3497.9498   -43.790215    403.64369    729.32929     46.87973    23.565984    30.702167    68.660272    134.25753    113.43314 
  109500    234.25807   -12749.904   -11543.977   -12749.904            0    2064.0388    46.918848    21.567786    21.840076   -8.7725006   -21.697303    2.8914291    22100.752    2358.4735    1434.6476    2398.9955   -1772.7312    827.48844    201.99539    46.918848    23.283603    30.921226    69.451829    134.56324    112.13359 
  110000    240.46777   -12737.257   -11499.363   -12737.257            0    1617.9364    47.024161    21.516837    21.880016   -9.4266832   -21.517408    2.9524406    22138.445    1936.9348    1256.1746    1660.6997   -452.86514    14.425062   -174.68877    47.024161    23.491203    30.829383    68.420244    134.26287    113.65858 
  110500    237.64753   -12757.984   -11534.608   -12757.984            0    2603.1222    46.638938    21.572326    21.971905   -9.0484409   -21.388468    2.8860086    22106.162     2373.747    2383.4543    3052.1653    174.72044   -338.71823    558.17335    46.638938    23.393151    30.798705    69.204833     133.9842    112.75545 
  111000    228.14453   -12689.631   -11515.175   -12689.631            0     2041.625    46.777803    21.614279    21.892491   -9.2022792   -21.576731    2.9644823    22134.807     1739.578    2029.8939    2355.4031    715.69887    625.97017    53.698568    46.777803    23.491679    30.880813    68.775216    134.32359    113.06188 
  111500    239.93285   -12724.012   -11488.871   -12724.012            0    1681.4164     47.10547    21.496898    21.899501    -9.352048   -21.528161    2.9185072    22175.905    1878.3558    1867.4678    1298.4255    227.41171   -1045.8627    30.985312     47.10547    23.443068    30.847488    68.582381    134.25798    113.51105 
  112000    231.85147   -12717.764   -11524.225   -12717.764            0    2398.6907    47.031493    21.431337    21.909075   -8.9382731    -21.81587     2.898303    22083.203    2347.2056    2532.2724    2316.5943   -229.94742    175.27461     -163.563    47.031493    23.220571    31.053822    69.110937    134.62938    112.63934 
  112500    233.11777   -12709.543   -11509.486   -12709.543            0    2112.4066     46.84016     21.61744    21.906054   -9.2947271   -21.333835     2.983027    22181.289    2552.7565    2206.9142    1577.5491   -75.125552   -26.560074    -375.4588     46.84016    23.530951    30.723056     68.68573    133.97876    113.26598 
  113000    241.72357   -12729.435   -11485.077   -12729.435            0    2066.1526    46.696691      21.6458    21.933503   -9.0805293   -21.660013    2.9008953    22170.105    2850.2097    1869.6688    1478.5792   -1605.7228    503.99307   -274.28624    46.696691    23.473318    30.962072    69.082647    134.39219    112.75831 
  113500    227.16932   -12679.089   -11509.653   -12679.089            0    1902.5959    47.078876     21.55812    21.877831   -9.3617055   -21.356465    2.9081832    22204.512    1620.1311    2225.3551    1862.3015   -367.56601    208.09434   -152.57231    47.078876    23.503065     30.71149     68.66353    134.05831     113.4731 
  114000    236.29397   -12681.415   -11465.007   -12681.415            0    1993.3142    47.149117     21.43693    21.935161   -9.1509187   -21.851161    2.9311165    22170.576    468.95771    3116.0683    2394.9167   -261.42465    63.806135   -160.60315    47.149117    23.308395    31.100096    68.744621    134.63658    113.11649 
  114500    236.50213    -12720.48   -11503.001    -12720.48            0    1618.1443     46.90146    21.627876    21.864375   -9.3914886   -21.317045    2.8345425    22178.762    1759.4952    952.30779      2142.63    334.33729    -77.24072    243.40536     46.90146    23.578912    30.667604    68.799147    134.03517    113.47197 
  115000    238.80809   -12686.449   -11457.099   -12686.449            0     2319.765    46.654419    21.672778    21.866607    -9.090663   -21.495278    3.0070404    22110.001    2535.8858    1949.5565    2473.8528   -600.29542     698.1868    280.48472    46.654419    23.502116    30.809703    68.907972    134.24107    112.75565 
  115500    234.27993   -12706.144   -11500.104   -12706.144            0    1936.2629    47.015739    21.499886    21.914191   -9.3133971   -21.526926    2.8341403    22151.588    1150.6151    2523.4585     2134.715    710.75869    673.83449    449.48754    47.015739    23.430418    30.849192    68.796867     134.2517    113.42147 
  116000    225.75925   -12717.189   -11555.012   -12717.189            0     2644.974    47.255523    21.326402    21.939024   -9.3491077   -21.765481    2.9477435    22109.935    1947.7199    3080.2603     2906.942    327.44298    194.04097    79.924467    47.255523    23.285645    31.044261    68.379485    134.51623    113.67177 
  116500    237.89874   -12707.847   -11483.178   -12707.847            0    1375.9179    46.889544    21.642788    21.907616   -9.1460848   -21.499868    2.9458082    22232.297    938.53093    1582.5246    1606.6981    49.436652    208.23622    311.10184    46.889544    23.495982    30.836111    68.936568     134.2052    112.90857 
  117000    236.26657   -12721.375   -11505.108   -12721.375            0    1566.7455      46.8545    21.649398    21.885221   -9.3980286   -21.438853    2.8583541     22199.75     2305.631    1283.8326    1110.7731    220.84205   -247.41926   -781.92081      46.8545    23.601258    30.769425    68.736189     134.1675    113.46572 
  117500    233.43441   -12750.991   -11549.303   -12750.991            0     1384.501    47.021371    21.568024    21.885319   -9.0679052   -21.732514    3.0465537    22195.172    1494.3946    1142.1405     1516.968   -220.34364    -203.7637   -342.59387    47.021371    23.396721    30.992755    68.753201    134.52438    112.80348 
  118000    239.07089   -12781.095   -11550.392   -12781.095            0    1736.1934    46.966756     21.52758    21.869204   -9.2664154    -21.34294     2.859679    22111.528    1638.8166    2248.6914    1321.0721     1.821275   -200.64664    301.30073    46.966756    23.437218    30.691382    68.867434     134.0595    113.28917 
  118500    232.11592   -12727.198   -11532.298   -12727.198            0    2591.0939    46.718784    21.537184    21.920795   -9.2594239    -21.69783    2.8314341    22056.507    3075.5709    3341.7733    1355.9375     207.3826    238.04181     274.3779    46.718784    23.443277    30.973119    68.858319    134.47014    113.26419 
  119000    238.69903    -12715.09   -11486.301    -12715.09            0    2238.2866    46.917101    21.624808    21.795032   -9.1835187   -21.261458     3.076071    22112.659    3115.0139     1081.311    2518.5349   -486.98935   -124.59243    -324.8333    46.917101    23.494028    30.602863    68.648464    134.00761    113.00972 
  119500    241.83772   -12745.801   -11500.855   -12745.801            0    2660.5776    46.863211    21.508785     21.88412   -9.1802604   -21.569486    2.8043859    22058.552    3016.8641    2587.0297     2377.839    -367.7133   -220.38841    123.23956    46.863211       23.386    30.854854    69.021747    134.35187    113.11349 
  120000    238.22964    -12720.79   -11494.418    -12720.79            0    3185.4928    46.907689     21.51959    21.855353   -9.2504624   -21.648956     2.912934    22061.542    3114.6188    2670.5469    3771.3127    329.15732    536.63346    1038.3596    46.907689    23.423574    30.900144    68.697474    134.47598    113.26105 
  120500    238.42488   -12679.012   -11451.634   -12679.012            0    2505.0554    46.909127     21.65018    21.797162   -9.1135932   -21.209124    2.9624927    22137.003    2632.8874    2216.5743    2665.7046   -630.33828   -608.26644   -428.59407    46.909127    23.490166    30.556825    68.983007    133.95458    112.82855 
  121000    236.47856   -12709.302   -11491.944   -12709.302            0    2301.0654    46.836711    21.591812    21.864879   -9.2865641   -21.750657    2.8503019    22111.723    2490.0321    1865.5571     2547.607   -191.73549    459.88854    397.00189    46.836711    23.504183    30.972379    68.776662    134.60859    113.27237 
  121500    228.09704   -12722.716   -11548.505   -12722.716            0     1950.861    47.039151    21.594408    21.795982    -9.198751   -21.347849    3.0436778     22139.98    1309.8637    1852.1102    2690.6093   -948.29214     286.0176   -360.92881    47.039151    23.472015     30.66039    68.641695    134.12835    113.07296 
  122000    239.26213   -12718.064   -11486.377   -12718.064            0    1472.1572    47.012699    21.563701    21.918542    -9.212688   -21.640748    2.8794854    22220.312    1325.2837    1710.2262    1380.9617   -572.06789   -529.46095   -269.08419    47.012699    23.449239    30.935997    68.873675    134.38954    113.13369 
  122500     234.3226   -12678.197   -11471.937   -12678.197            0    1251.8029    46.971431    21.618241    21.905672   -9.3642103   -21.622939     2.891413     22243.89    266.09039    1953.0897    1536.2285    649.66103    300.30006    434.71432    46.971431    23.559219    30.915534     68.66483    134.38048    113.42045 
  123000     221.3855   -12709.601    -11569.94   -12709.601            0    983.22743    46.983221    21.638463    21.955053   -9.0663373   -21.371211    2.9061966    22320.488    1590.7465    1040.9547    317.98104   -147.37391   -595.95689   -241.66681    46.983221    23.461064    30.776599    69.179743    133.97927    112.73328 
  123500    227.94812   -12700.146   -11526.702   -12700.146            0    1845.9696    47.019643    21.508628    21.948875   -9.4098873   -21.749647    2.9213512    22197.512    1732.5636    1297.3455    2507.9997    758.18913    742.35658    449.49056    47.019643    23.476947    31.037631    68.462982    134.48728    113.62907 
  124000    236.41417   -12705.127   -11488.101   -12705.127            0    2075.1669    46.976442    21.614884    21.847765   -9.1598211     -21.4181    2.9428688    22184.009    1678.5463    2079.9049    2467.0493    1.1711874   -605.41587   -563.82121    46.976442    23.475637    30.736303    68.896724    134.17354    112.96596 
  124500    232.80025   -12680.333    -11481.91   -12680.333            0    2161.3105    46.836725    21.686029    21.820777   -9.0698186   -21.515693    3.0273722     22163.42    2453.8558    1088.9196    2941.1561   -442.68766   -62.425461   -21.566749    46.836725    23.506286    30.793446    68.881742    134.32361     112.6963 
  125000    241.10452   -12676.877   -11435.705   -12676.877            0    2587.3207     47.00193    21.517309    21.865382   -9.4289366   -21.664203    2.7864289    22113.665    1652.8098    3401.0277    2708.1245    676.29093    812.96476    745.97145     47.00193    23.492539    30.906259    68.659144    134.50447    113.66315 
  125500    231.67196   -12719.347   -11526.732   -12719.347            0    2058.9996    47.120263    21.494353    21.838426   -9.0299681   -21.489915    2.9670075    22118.386    1557.8012    2423.9388    2195.2588   -600.72533   -635.17904   -680.28386    47.120263    23.314106     30.78208    68.945088    134.27722    112.78771 
  126000    239.98834    -12738.52   -11503.094    -12738.52            0    2773.2052    46.777267    21.616394    21.804717   -9.3527446   -21.574818    2.9971465    22047.967    3146.8875     2106.823    3065.9052     102.0592    307.77657    99.287596    46.777267    23.552969     30.82047    68.455621    134.42828    113.39664 
  126500    229.39987   -12707.993   -11527.075   -12707.993            0    2549.8303    46.670735    21.627254    21.873233   -9.1381565   -21.418731    2.8111406    22077.963    3124.7748    2124.3527    2400.3633   -911.45876    20.273077     179.1124    46.670735    23.478587    30.742525    69.182002    134.16391     112.9055 
  127000    236.78218   -12723.539   -11504.618   -12723.539            0    2233.5427    46.923999    21.445073    21.995342   -9.2202216   -21.454029    3.1555261    22133.661    2867.4514    2693.8977     1139.279   -272.72761   -390.31603   -728.27141    46.923999    23.343171     30.88734    68.394832    133.99453    113.26509 
  127500    238.56073   -12716.275   -11488.198   -12716.275            0    2699.3271    46.989796    21.433623    21.956181   -9.2429575   -21.590306    2.8011282    22113.422    2455.6567    3243.9986    2398.3261     -334.695   -143.91004    313.67953    46.989796    23.341646    30.920244    68.919032     134.2874    113.32746 
  128000    237.36267   -12756.215   -11534.306   -12756.215            0    2336.5058    46.848728    21.614686    21.804196   -9.1192994   -21.476572    2.9567606    22079.377    2060.7927    1902.3483    3046.3764    97.268273    1160.2556    292.22817    46.848728    23.459673    30.747497    68.892711    134.30534    112.87502 
  128500    237.51953   -12754.589   -11531.872   -12754.589            0    2256.5055    46.825257    21.671549    21.744206    -9.252904   -21.507147    3.0282623    22065.495    2329.7395    1783.3287    2656.4483    60.857613   -228.10522   -620.97797    46.825257    23.564216    30.733341    68.567336    134.41084    113.12059 
  129000     236.4084   -12704.671   -11487.674   -12704.671            0     2489.791    46.984526    21.509551    21.869559   -9.2063321   -21.540102    2.7737178    22101.727    2036.7986    2103.9221    3328.6523   -22.458863    399.83304    451.09165    46.984526    23.396951    30.821212    69.039178    134.33663    113.17147 
  129500    239.68048   -12729.879   -11496.037   -12729.879            0    1625.3941    47.339974    21.439586    21.840697   -9.4033369   -21.775473    3.0495283    22167.204    765.96626    1719.9187    2390.2973   -153.49505    454.55104    139.82968    47.339974    23.411079    30.991723    68.140714    134.63776    113.68211 
  130000    232.13817   -12707.052   -11512.037   -12707.052            0    2431.3934    46.821013    21.608642    21.851914   -9.1043499   -21.421177    2.8097743    22108.423    2202.4592    2419.6618    2672.0591   -510.65147    507.22352    400.76929    46.821013    23.448296    30.728941    69.210882    134.19488    112.84711 
  130500    237.59303   -12700.562   -11477.467   -12700.562            0    1985.7705    46.674402    21.699017    21.867842   -9.2803363   -21.423093    2.9088586    22147.502    2137.2922    1845.8828    1974.1365    512.44347    692.08753       -175.5    46.674402    23.600253     30.75082    68.843001    134.16024    113.15565 
  131000    220.23953   -12689.162     -11555.4   -12689.162            0    2577.7006    46.962431    21.499557    21.873464   -9.2336521   -21.650545    2.9276541    22085.013    2358.7202    3942.3298    1432.0519    210.77281   -315.58555   -1235.6995    46.962431    23.398531    30.915461     68.69239    134.45224    113.24261 
  131500    227.10752   -12721.953   -11552.835   -12721.953            0     2599.776    47.118904     21.41219    21.904037   -9.1822836   -21.427294    2.8587931    22099.397    1861.1772    3298.1339     2640.017   -222.75376   -967.26724     308.8092    47.118904    23.297987    30.774802    68.912843    134.12779    113.21132 
  132000    229.99975   -12737.286    -11553.28   -12737.286            0    2113.9701    46.813583    21.524397    21.944604   -9.2747296    -21.73123    3.0118128    22112.132    2129.2392    2582.0356    1630.6354    229.62594    364.82299   -51.156656    46.813583    23.437582    31.030356     68.51431    134.45281    113.31091 
  132500    234.85412   -12666.328   -11457.332   -12666.328            0    2161.5902    46.612725    21.721664    21.905148   -8.9979627    -21.04801    2.8290198    22179.092    2843.6357    2310.9025    1330.2324   -243.51428   -872.32865   -442.54616    46.612725    23.511572    30.509959    69.532103    133.62009    112.50125 
  133000    228.07367   -12712.391     -11538.3   -12712.391            0    1771.4511    46.953438    21.546489     21.93179   -9.2711657   -21.660725    2.9630565    22187.991     1411.955    2198.2944    1704.1038    486.24088    359.89482    18.905389    46.953438    23.456464    30.967243    68.631876    134.38467    113.28156 
  133500    225.11475   -12727.405   -11568.546   -12727.405            0    1855.1796    47.185294    21.449919    21.886462   -9.4169444   -21.595501    2.8047798    22151.742     1265.635    2523.3358    1776.5681    139.21655    205.48971   -123.06663    47.185294    23.426008    30.874741    68.632261    134.38332    113.70244 
  134000    231.74748   -12727.667   -11534.664   -12727.667            0    1926.2624    46.904579    21.584719    21.881737   -9.0043419   -21.497524    2.9643564    22153.556     2311.447    1725.0523    1742.2879   -430.50798   -173.34234   -611.41767    46.904579    23.387567    30.817874    69.062969    134.23211    112.64408 
  134500    235.00631   -12664.465   -11454.686   -12664.465            0    2314.4959    46.753515    21.625967    21.930934   -9.4223776   -21.522911     2.973819    22174.148    1635.4275    2645.1564    2662.9038    866.01342    265.01622   -446.56945    46.753515    23.589482     30.87143    68.482455    134.20111    113.54263 
  135000    230.51134   -12745.843   -11559.203   -12745.843            0    1814.0011    46.699429    21.617581    21.998039   -8.9121742    -21.29945    2.8086931    22207.651    2880.3688    792.77939     1768.855   -947.03503   -135.35892    711.21227    46.699429    23.382614     30.74848    69.606353    133.84416    112.40464 
  135500    230.95032   -12740.593   -11551.694   -12740.593            0    1932.6433    46.995328    21.475845    21.932734   -9.3673289   -21.617173    3.0235494    22135.928    1768.1606    2294.6365    1735.1329    1145.8789    -109.1566    131.60031    46.995328     23.42987    30.943317    68.354185    134.31523    113.56586 
  136000    236.64504   -12720.901   -11502.686   -12720.901            0    899.10299    47.096141    21.586252     21.88379   -9.2849608   -21.630545    2.8630337    22247.699    397.16482    834.29388    1465.8503    711.42223    5.1218491     951.5227    47.096141    23.498442    30.902714    68.796479    134.42349    113.27414 
  136500    237.94706   -12720.892   -11495.974   -12720.892            0    1341.1843     46.82722    21.704688    21.876031   -9.1186531    -21.42299      2.91478    22234.146    1241.5529    985.38207    1796.6178    731.96108   -221.43259    584.27354     46.82722    23.542373    30.757132    69.074529    134.14855    112.78843 
  137000    239.20541   -12728.084   -11496.688   -12728.084            0    1451.1413    47.065595    21.548558    21.906572   -9.4517477   -21.719095    2.9670051    22217.551    889.29926    1775.7398     1688.385    366.72661    1132.1005   -546.82728    47.065595    23.530318    30.990646    68.334545    134.49343    113.68348 
  137500    245.88491   -12738.762   -11472.981   -12738.762            0    1485.0404    47.122907    21.528017    21.888549   -8.9582143   -21.385398    2.7975245    22205.117    1734.3354    1383.5762    1337.2095   -572.94636   -604.95498    128.64288    47.122907    23.317485    30.728977    69.425822    134.10184    112.59312 
  138000    237.77103   -12740.554   -11516.542   -12740.554            0    1850.6644     46.99513    21.573561    21.863885   -9.3680714   -21.641107    2.9897447    22166.751    2955.1312    1095.2657    1501.5964    232.94769    93.065314   -141.30033     46.99513    23.519764    30.908018    68.431616    134.44127    113.47234 
  138500    228.78139   -12691.935   -11514.201   -12691.935            0    2076.7936    46.847448    21.647069     21.87054   -9.2667634   -21.633096    2.8346588    22179.133    2266.4187    1419.0955    2544.8666   -139.07839    761.65602     598.4837    46.847448    23.547155    30.892502    68.903532    134.44868    113.17499 
  139000    224.26917   -12761.014   -11606.508   -12761.014            0    1919.3532    46.933901    21.596922    21.880285   -9.0866941   -21.310761    3.0173482    22178.465    2225.1876    1011.1855    2521.6864    -597.5643   -404.82719   -113.94149    46.933901    23.430643    30.692015    68.906492    133.97482    112.81845 
  139500    236.88474    -12718.14   -11498.691    -12718.14            0    1938.1294    46.962394    21.471037    21.984739   -9.3106254   -21.659349    2.8992459      22167.9    1870.3424    2519.0283    1425.0175    -415.7976    17.315722   -367.88586    46.962394    23.402845    30.997771    68.666395    134.32592    113.44332 
  140000    229.74345   -12697.899   -11515.212   -12697.899            0    2335.1591    46.800047    21.509787    22.024292   -9.0981426   -21.335989     2.835966    22170.953     3132.204    2098.6204     1774.653   -286.92994   -593.79546   -1.0966997    46.800047     23.35481    30.795074    69.223747    133.85516    112.92724 
  140500    233.83868   -12664.865   -11461.096   -12664.865            0    2095.8117    46.614795    21.649377    21.952012   -9.2239169   -21.484722    3.0836174     22153.56     2885.001    2054.4475    1347.9866    209.26327    21.553539   -464.92416    46.614795     23.53245    30.870582    68.611592    134.10385    113.07688 
  141000    234.78661   -12732.315   -11523.667   -12732.315            0    2410.1975    46.911813    21.534864    21.853847   -9.2652867   -21.490727    2.7644451     22077.62    1933.3407    3244.6661    2052.5859    84.469269   -174.70812   -150.75963    46.911813    23.443462    30.774732    68.991552    134.29267    113.27959 
  141500    229.43487   -12693.653   -11512.555   -12693.653            0    2147.8445    47.277447    21.469396    21.847319   -9.1960778   -21.647742    2.9390331    22175.427    1314.7641    2882.5721    2246.1972   -439.23784    197.90888   -893.93284    47.277447    23.356001    30.896083    68.695889    134.48022    113.18711 
  142000     241.4262   -12752.059   -11509.231   -12752.059            0    2233.5286    47.085193    21.547236    21.820328   -9.3641122     -21.7074    2.9139799     22137.94    2061.9538    1250.4502    3388.1818   -105.28116   -514.46773    530.59007    47.085193    23.494041    30.916488    68.512768    134.59816    113.48906 
  142500    244.54548   -12752.073   -11493.187   -12752.073            0    1760.8772    46.673882    21.737629    21.824161   -9.1511945   -21.370266    2.8269708    22142.348    2445.4175    764.69935    2072.5149    784.78937   -382.03269    710.47003    46.673882    23.585353      30.6753    69.191566    134.15968    112.83031 
  143000    231.88584   -12726.503   -11532.787   -12726.503            0    2335.1733    46.879584    21.597136     21.85341    -9.253464   -21.540981    3.0317812    22125.807    1872.7904    2163.8296    2968.8998    146.47104   -129.91502   -339.65092    46.879584    23.496018    30.834673    68.561249    134.31447     113.1931 
  143500    234.90521   -12685.788   -11476.529   -12685.788            0    2157.3891    47.319086    21.364803    21.914403   -9.3080082    -21.65277    2.7820794    22154.649    1082.3033     3516.811    1873.0531    290.68737    149.73306    98.376221    47.319086    23.304374    30.932563    68.774371    134.42694    113.54132 
  144000    230.50054   -12707.524    -11520.94   -12707.524            0    2080.9155     46.95975     21.56977    21.884069   -9.2496656   -21.625254    2.9209241    22166.615    1683.6772    2042.4094    2516.6599   -124.88485    440.35601    689.35197     46.95975     23.46937    30.904626    68.737342    134.40628    113.21088 
  144500    237.09999   -12713.479   -11492.921   -12713.479            0    2038.8508     46.76854    21.769358    21.728758   -9.3339302   -21.433876    2.9485676    22122.507    1870.1393    1623.0829    2623.3302    375.91936    386.20272   -270.74006     46.76854    23.686013    30.663399    68.664123    134.34725    113.20794 
  145000    233.59086   -12710.119   -11507.626   -12710.119            0    2078.3705     46.97396     21.58085    21.833374   -9.1023734   -21.616897    2.8416705     22133.32    2130.4997    2359.4448    1745.1671   -401.02527    27.182971   -174.96254     46.97396    23.421919    30.855495    69.076405    134.47396    112.86905 
  145500    232.72695   -12734.651   -11536.606   -12734.651            0    1551.4423    47.189427    21.492452    21.883665   -9.4488316   -21.637066    2.9621469    22194.774    1360.0723    1529.3436    1764.9112    272.33715    197.48299    258.12357    47.189427    23.477775    30.916529    68.323138    134.41532    113.73197 
  146000     232.8057   -12729.116   -11530.665   -12729.116            0     1195.371    46.885214    21.575223    21.972473   -8.9536566   -21.571778    2.8584402    22226.451    1751.2525    500.20099    1334.6596   -813.62097    275.79985    352.51149    46.885214    23.359328     30.92413    69.344148    134.23245    112.53831 
  146500    238.07223   -12724.438   -11498.876   -12724.438            0    2126.1364    46.757411    21.662177    21.915178   -9.3586391   -21.396079    2.9292877    22197.168    2355.4691    1414.2137    2608.7263    639.53274   -313.84996    311.82371    46.757411    23.597331    30.767645    68.703381    134.05977    113.36563 
  147000    232.89516   -12719.184   -11520.273   -12719.184            0    2382.5236    46.946297    21.515377    21.897207   -9.2134752   -21.601661    2.9171072    22117.653    2571.0397    2913.0528    1663.4781    220.37161   -644.36362   -448.87655    46.946297    23.405118    30.897071    68.776172    134.35878    113.18194 
  147500    234.15718    -12694.79   -11489.382    -12694.79            0    2542.1482     47.20031     21.37938    21.895472   -9.1694696   -21.371444    2.8782378    22095.013      2449.53    2832.4458    2344.4689   -1047.1374   -935.91979    376.99512     47.20031    23.262783    30.731654    68.888259    134.06079    113.21416 
  148000    233.24143   -12715.503   -11514.809   -12715.503            0    2475.6521    46.836055    21.542937    21.885069   -9.2694848   -21.685572    2.9531517    22081.733    2609.9859    2703.3842    2113.5862    169.49511    2.0218048   -138.48294    46.836055    23.452537    30.950629    68.618628    134.47921    113.28122 
  148500    237.42237   -12708.752   -11486.535   -12708.752            0    2911.7862    46.659354     21.65794    21.835004   -9.1613887   -21.255463    2.8966844    22065.265    3406.0949    2613.7639    2715.4997    287.93015    126.03296    158.61671    46.659354    23.515897    30.609686    69.041991    133.97968    112.92854 
  149000    243.93506   -12712.254   -11456.511   -12712.254            0    2744.5305    46.791354     21.53556    21.924561   -9.1815188   -21.513757    3.0612737    22092.898    2440.3127     3278.218    2515.0608    597.38683    538.26534   -309.52046    46.791354    23.411122    30.869071    68.619906    134.18167     113.0906 
  149500      233.037   -12710.389   -11510.747   -12710.389            0    2109.2957    46.986083    21.384964    22.020619   -9.3488078   -21.619601    2.7698881    22126.224    1811.5328    3703.8984    812.45573    246.16616    164.60173   -2.0221535    46.986083    23.339171    30.983659    68.812847    134.24871    113.61338 
  150000    234.60851   -12741.643   -11533.911   -12741.643            0    2308.2791    46.902286    21.537015    21.928611    -9.162635   -21.415728    2.9394744    22150.862    2376.7474    2857.9435    1690.1465   -226.52174    -273.1998   -456.97399    46.902286    23.405062    30.791847    68.892529    134.06707    113.04668 
  150500    242.57635   -12731.855   -11483.106   -12731.855            0     2769.385    46.493517    21.667043    21.873335   -9.2289739   -21.656042    3.0111649    22034.695    3286.5052    2192.5802    2829.0696    356.36485     338.4002   -1426.8343    46.493517    23.550684    30.927238    68.655304     134.4451    113.07135 
  151000    230.66883   -12722.776   -11535.325   -12722.776            0    2776.5943    46.896731    21.551349    21.879316   -9.1922921   -21.406088    2.8001226    22113.159    1878.0735    3883.2307    2568.4788    514.54957   -132.97202   -29.788239    46.896731    23.429872    30.737042    69.082351    134.14099    113.09969 
  151500    234.48812   -12716.395   -11509.283   -12716.395            0    1793.8695    47.055903    21.518575    21.911621   -9.1765842   -21.667167      3.11635    22187.181    1443.3292    1342.5053     2595.774   -165.11784   -75.281459   -498.36566    47.055903    23.393562    30.972519    68.471205     134.3918     113.0958 
  152000    230.21697   -12737.813   -11552.688   -12737.813            0    1297.1476     47.02869    21.573951    21.849273   -9.3077434   -21.525562    2.7488072    22168.155    1344.6972     589.9369    1956.8088    628.82802   -596.37567    364.70246     47.02869    23.496158    30.794423    68.969488    134.34751    113.33703 
  152500    230.21288   -12725.507   -11540.404   -12725.507            0    1662.1094    46.966618    21.678535    21.770549    -9.168194    -21.65272    2.9357037    22166.064    1393.0381    1142.8882    2450.4018   -225.24526    354.50965    234.12614    46.966618    23.537516    30.845023    68.832742    134.58642    112.92427 
  153000    233.73827   -12737.297   -11534.046   -12737.297            0    1388.1001    47.185659    21.607501    21.749113   -9.3673506   -21.698792    2.9719625    22174.616    1320.8165    1609.3716    1234.1122   -193.91311    253.82651   -737.48459    47.185659    23.550613    30.865742    68.409791    134.66865    113.43785 
  153500    231.76816   -12722.383   -11529.273   -12722.383            0    1561.5598    47.138004    21.561267    21.821723   -9.1732854   -21.640433    2.7739158    22178.619    1093.3939    1935.0157    1656.2698    457.39022   -722.83041   -46.370117    47.138004    23.431547    30.857585    69.067185    134.53142    113.04743 
  154000    241.78666   -12743.514   -11498.831   -12743.514            0    1787.7611    46.877382    21.634143    21.885367   -9.3012491   -21.520058    3.0185351    22195.088    1655.5055    2169.2512    1538.5266   -162.75186    248.06466    16.627405    46.877382    23.548872    30.841429    68.560695    134.24793     113.2645 
  154500    231.12989   -12765.768   -11575.944   -12765.768            0    1747.0989     46.65424    21.608837    21.978623   -9.1589695   -21.403902    2.8848539    22157.614    1677.5326    2298.3873     1265.377    673.20967   -366.72712   -375.45779     46.65424    23.469737    30.814109    69.067478    133.99644     112.9698 
  155000    238.70164   -12719.861   -11491.058   -12719.861            0    1653.4531    46.921417    21.522428    21.964311   -9.2130648   -21.498259    3.0174134    22180.941    2340.7226    1475.9316    1143.7051   -462.10422   -234.07331   -48.163426    46.921417    23.411438     30.88221    68.667897    134.11792    113.17422 
  155500    237.34532   -12733.657   -11511.836   -12733.657            0    2188.9357    47.087556    21.394354    21.903691   -9.1958487   -21.663077    2.9066408     22065.95    1780.4079    2573.3799    2213.0193     199.0459   -553.62078    374.89809    47.087556     23.28695    30.943645    68.730431    134.43355    113.25929 
  156000    233.56612   -12791.025    -11588.66   -12791.025            0    3143.2549    46.691906    21.552597    21.818013   -9.1995384   -21.421944    2.8317961    21956.161    3701.9037     2428.391      3299.47   -155.92195   -575.72434    331.99555    46.691906    23.433863    30.707401    68.980768    134.23597    113.11479 
  156500    234.38339   -12747.289   -11540.716   -12747.289            0    2993.0343      46.6809     21.68267    21.715772    -9.174903   -21.460598    3.0288968    21979.978    3469.0055    1742.2541    3767.8432    557.76305   -241.19905   -327.81398      46.6809    23.543938    30.680715    68.684605    134.38544    112.93539 
  157000     233.2829    -12736.69   -11535.782    -12736.69            0    2464.2885    46.946239    21.557419    21.806604   -9.1906105   -21.507244    2.7884719     22069.15    1901.7609    2802.2755    2688.8291   -19.795174   -512.83612    73.292639    46.946239    23.434796     30.75492    69.043545    134.37173    113.09009 
  157500    229.15355   -12719.071   -11539.421   -12719.071            0    2183.0681    47.234797    21.391831    21.873699   -9.3592581   -21.699326    2.9808053    22102.034     1592.583    2275.2268    2681.3944    742.00852   -138.08248    328.74633    47.234797     23.34965    30.954881     68.33354    134.50717    113.63012 
  158000    232.60283    -12733.27   -11535.863    -12733.27            0    1606.5432    46.871364    21.586926    21.922966   -9.1860304   -21.527574     2.928972    22181.847    1967.7193    1175.9781    1675.9323    184.18127   -78.275409    662.14884    46.871364    23.460147    30.864734    68.873711    134.22528    113.05154 
  158500    229.01151   -12690.256   -11511.337   -12690.256            0      1337.37    46.694009    21.781174    21.886965   -9.2509318   -21.304105    2.7520574    22260.146    2254.8603    688.43934    1068.8105    632.34364   -672.25587    565.28631    46.694009    23.664304    30.667213    69.257565    134.00226    113.01197 
  159000    244.81159    -12739.96   -11479.704    -12739.96            0    1409.9318    47.017758    21.601614    21.895172   -9.2131648   -21.725794    3.0611086    22238.039    1662.9368    930.66254    1636.1962    408.50007    195.48893   -94.105343    47.017758    23.484296    30.996437    68.542194    134.50027    113.09842 
  159500    236.36856   -12717.201   -11500.409   -12717.201            0    1623.1633     47.14934    21.475594     21.90999   -9.2165839    -21.49578    2.8508668    22185.182    1141.9263    2539.6203    1187.9432   -1.0174486   -754.47084    94.786811     47.14934    23.369779    30.826023    68.899917    134.21284    113.22734 
  160000    235.17432   -12725.613   -11514.969   -12725.613            0    2557.1345    46.815217    21.503647    21.939229   -9.3966265   -21.742746    2.7985542    22086.176     2203.857    3181.4909    2286.0558    904.01928    543.88477    604.03233    46.815217    23.467071    31.014653    68.691131    134.51111    113.60428 
  160500    244.45669   -12677.796   -11419.368   -12677.796            0    2712.2878    46.697525    21.660693    21.874243    -9.140517   -21.314013    3.0024162    22125.814    2849.0965    1885.3151    3402.4519    315.96488    -1322.061    1.1907091    46.697525     23.51031    30.688502    68.889855    133.98959    112.87908 
  161000    230.24947   -12763.378   -11578.087   -12763.378            0    2502.5499    46.775183    21.491254     21.93153   -9.1112824   -21.422808    2.8877318    22046.832    2489.6994    2274.5604    2743.3899    410.46088   -173.02731    504.49056    46.775183    23.342867    30.793956    69.030011    134.08161    112.97466 
  161500    238.23836   -12682.049   -11455.632   -12682.049            0    2877.5241    47.073895    21.412094    21.911763   -9.4486519   -21.725754    2.8558006    22085.975    2676.6659    3120.3125    2835.5939    878.83348   -22.013471    535.86156    47.073895    23.404162    30.988535    68.447447    134.51452    113.81074 
  162000    227.73255   -12724.477   -11552.142   -12724.477            0    2451.2793    46.845612    21.599102    21.816094   -9.0532277   -21.324604    2.8840445    22074.029    2825.7657    2640.0409    1888.0314   -111.85737   -1334.3725    423.39061    46.845612    23.419696    30.643081    69.156764     134.0992    112.74091 
  162500    229.41851   -12714.053   -11533.039   -12714.053            0     2576.475    46.723593    21.628557    21.858206   -9.3070727   -21.545246    2.9797454    22089.114    1950.7619    2577.0217    3201.6414    1172.3566    855.04153     275.6239    46.723593    23.546042     30.83598    68.596067    134.32318    113.28289 
  163000    231.28285   -12745.191    -11554.58   -12745.191            0    2322.2806    46.874632    21.504703    21.942024    -9.226933   -21.401417    2.7545996     22118.11    2180.1731    2976.7297     1809.939    894.59826   -676.94122    586.08748    46.874632     23.40061    30.774354    69.116567    134.06151    113.22252 
  163500    234.76651   -12757.805    -11549.26   -12757.805            0    2028.8217    47.073392    21.469293    21.923036   -9.1134107   -21.647028    3.0468683    22156.132    1706.4207    2673.6391    1706.4054   -598.95881   -433.30347   -568.44553    47.073392    23.323482    30.959599    68.666452    134.36305    113.00053 
  164000    231.11504   -12721.806   -11532.059   -12721.806            0    2542.6081    46.838321    21.525223    21.919644   -9.4103171   -21.519362     2.928425    22099.501    2056.9709    3000.4659    2570.3876    757.87728    100.35708   -630.45687    46.838321    23.492324    30.856594    68.511484    134.21871    113.61381 
  164500    245.94217   -12725.568   -11459.493   -12725.568            0    1947.0653    46.761694    21.614064    21.897437   -8.9128392   -21.399523     2.771029    22131.964    2110.3288    1927.8583    1803.0089   -1089.9343    368.72939    481.66742    46.761694    23.379616    30.742738    69.592656    134.11365    112.40944 
  165000    237.50124   -12684.731   -11462.109   -12684.731            0    1950.2994    47.002408    21.581246    21.855927   -9.4700505   -21.621566     3.071885    22170.008    2301.3173    1400.6873    2148.8935      407.264    54.409348    32.488283    47.002408    23.567605    30.896766    68.146076    134.41098    113.69231 
  165500    227.66531    -12721.67   -11549.682    -12721.67            0    2146.1808    47.012294    21.547939    21.846263   -9.1278459   -21.601588    2.7228288    22130.658    1639.8272    2030.4935    2768.2219     434.9377    468.61877    633.63947    47.012294    23.401522    30.843177    69.239127    134.45657    112.95783 
  166000    237.37718   -12724.019   -11502.035   -12724.019            0    1359.0292    46.994463    21.631358    21.833885   -9.2009862   -21.410132    3.2196366    22195.324    1411.3262    713.22902    1952.5323    28.368982   -291.65938   -706.54426    46.994463    23.506888    30.748632    68.352479    134.13054    113.04267 
  166500    230.06906   -12762.758   -11578.395   -12762.758            0     1707.597    46.948577    21.609215    21.854218   -9.2804747   -21.612081    2.8569788    22171.583     1415.177    2002.5946    1705.0195    424.66669   -231.91757   -104.80911    46.948577    23.517767    30.868288    68.818207    134.43813    113.24199 
  167000    235.12076   -12770.679    -11560.31   -12770.679            0    617.89108    46.963892    21.614197    21.929512   -9.1149038   -21.528085    2.9054529    22260.359    463.28043    1113.2457    277.14708     168.5455   -223.91572   -296.69106    46.963892    23.457514    30.867517    69.038976    134.22157     112.8656 
  167500    229.91079    -12731.51   -11547.962    -12731.51            0     1179.112    47.030296    21.628954    21.911592   -9.4253663   -21.539134    3.1089656    22288.825    1004.7059    761.40445    1771.2256    994.48203   -559.95159   -328.83693    47.030296    23.593414    30.882322    68.227769    134.22344    113.54639 
  168000    240.28271   -12692.914   -11455.972   -12692.914            0    896.72312    46.924498    21.586575    21.968934   -9.1183734   -21.631081    2.6318556    22253.194    1075.3681    1047.5767    567.22452    224.11277    19.168403    695.22352    46.924498    23.433415    30.942921    69.490025    134.35195    112.89966 
  168500    237.03093   -12717.213   -11497.011   -12717.213            0     966.8822    47.028999    21.604304    21.926957   -9.2858099   -21.506758     3.113087     22278.42    950.95346    854.10063    1095.5925    388.42444   -450.40998   -369.67161    47.028999    23.515362    30.871077    68.423279    134.15994    113.25866 
  169000    233.87894   -12705.096    -11501.12   -12705.096            0    1436.0617    46.822686    21.542436    22.046997   -9.1886549   -21.655335    2.8631854    22238.248     1508.787    1594.8584    1204.5397   -683.72218    1056.1756    524.58211    46.822686    23.420246    31.035809    68.984986    134.24702    113.10006 
  169500    248.02116   -12756.725   -11479.947   -12756.725            0    1658.4475    46.919335    21.530466    21.950123   -9.2887458   -21.412862    2.8125553    22173.908    1376.0395    1463.4297    2135.8734    15.561232    699.44836    384.95982    46.919335    23.448705    30.793328     68.94136    134.05698     113.3365 
  170000    236.17215   -12752.714   -11536.933   -12752.714            0    2853.4697    46.799789    21.594086    21.855523   -9.1294983    -21.57427    3.0946365    22087.162    3566.8421    2258.9962    2734.5707    -755.8693    576.62485   -526.97439    46.799789    23.444664    30.865673    68.621227    134.34466    112.91756 
  170500    234.79056   -12789.371   -11580.703   -12789.371            0    3070.2028    46.863952    21.528968    21.803673   -9.2480258   -21.364389     2.759413    21998.434    3730.6763    2475.3436    3004.5884   -562.00434    -393.9108   -62.451807    46.863952    23.431228    30.650475    69.033011    134.18943    113.24652 
  171000    234.24944    -12731.91   -11526.027    -12731.91            0    3042.2765    46.956676    21.498023    21.817056   -9.2181699    -21.67014    2.9451703    22023.788    2535.4771    3323.2551    3268.0972    330.92996   -88.579418   -160.48942    46.956676    23.391016    30.890984    68.648979    134.54777    113.20924 
  171500    232.43765   -12702.504   -11505.948   -12702.504            0    3021.8717    46.881185    21.552292    21.845673   -9.1599337    -21.40768    3.0010103    22072.802    3048.6921    3321.9278     2694.995   -242.84974   -265.01657   -642.47606    46.881185    23.418063    30.733178    68.756769    134.15212    113.02596 
  172000    238.06896   -12728.765    -11503.22   -12728.765            0    2894.8234    46.674969    21.569578    21.836468   -9.2435448   -21.507316     2.679115    21984.068     3150.074    1966.5655    3567.8307    246.26185    311.99261    534.60676    46.674969    23.466781    30.766436    69.182357    134.35094    113.19733 
  172500     237.3045   -12695.003   -11473.393   -12695.003            0    2754.3875    46.887804    21.557242    21.853009   -9.2697881    -21.55061    2.8945802    22088.404    2513.4183    2306.4626    3443.2816    470.51792    -512.4413    716.78332    46.887804    23.465798    30.827932     68.75167    134.35173    113.26809 
  173000    237.98801   -12765.289    -11540.16   -12765.289            0    2285.4927    46.944282    21.566226    21.808644   -9.1145921   -21.446328    3.0628429     22079.31    1867.0879    2386.0891    2603.3011   -257.83774   -593.21963   -480.59928    46.944282    23.413199    30.739924    68.692367    134.24038    112.91051 
  173500    235.89612   -12694.413   -11480.054   -12694.413            0    3709.2454    46.763477      21.4196    21.975473   -9.3372563   -21.610101    2.6808467    22011.842    3154.1593    3918.5839     4054.993    142.96033    896.86561    456.04371    46.763477    23.366292     30.93711    68.987885    134.30815     113.5534 
  174000    236.75892   -12752.733   -11533.931   -12752.733            0    3253.6862    46.758738    21.575055    21.831927    -9.161915   -21.420549    3.0063549    22024.536    3502.3552    3571.3119    2687.3915     281.8909     345.5005   -552.58615    46.758738    23.439788      30.7329    68.747861    134.18607    113.00866 
  174500    235.13935   -12701.013   -11490.548   -12701.013            0    2295.1885    46.974425    21.612795    21.842306    -9.158308   -21.554795    3.0218245    22175.371    1744.1132     2843.041    2298.4114    258.86594   -531.78501   -729.40256    46.974425    23.473123    30.835482    68.717633    134.34889    112.96455 
  175000    234.58347   -12739.233    -11531.63   -12739.233            0    1858.8987    47.084562    21.415783    21.949457   -9.4170018    -21.67125    2.6391959    22132.796    1882.8965    2408.3333    1285.4664    457.76467    263.48396     271.5384    47.084562    23.394779    30.957828    68.910989      134.429    113.73617 
  175500    233.83978   -12751.309   -11547.535   -12751.309            0    1666.2634    46.992005    21.607666    21.836331    -9.145173   -21.617776    3.1593474    22172.339    931.19072     1919.377    2148.2224   -529.44414    358.93206   -427.17719    46.992005    23.463279    30.889077    68.471163    134.41511     112.9399 
  176000    231.88152   -12749.199   -11555.506   -12749.199            0     1787.095    46.718826    21.677664    21.867497   -9.3163633   -21.395846    2.8429058    22146.418     2257.385    720.09033    2383.8097    881.78033   -19.975077    742.91616    46.718826    23.594825    30.725426    68.902086     134.1354    113.25648 
  176500    237.91611   -12709.824   -11485.066   -12709.824            0    1496.7906    46.857821    21.607813    21.941072   -9.1796563   -21.592438     2.785942    22215.226     1787.542    1916.5748    786.25498   -128.34516    280.14886    344.70383    46.857821    23.476875    30.909634    69.139025    134.31211    113.01726 
  177000    224.81102   -12698.768   -11541.472   -12698.768            0    2007.4017    47.068826    21.519161    21.905196   -9.3015238   -21.436894    3.2067406    22187.371    2697.3464    1839.1087    1485.7501   -766.21058   -464.87322   -683.90724    47.068826    23.443392    30.816574    68.190663    134.07734    113.37612 
  177500    236.90703   -12734.633   -11515.069   -12734.633            0     1726.399    46.857992    21.500627    22.002451   -9.1831168   -21.625397    2.6953589    22166.946    1329.1697    2276.9347    1573.0925    388.66639    515.83219    525.41949    46.857992    23.379619    30.968219    69.247899    134.29152    113.12778 
  178000    240.89124   -12713.094   -11473.019   -12713.094            0    1470.6004    46.852839    21.669863    21.889055   -9.2679238   -21.469065     2.969927     22223.84    2568.4661    1328.9948    514.34048   -68.752372     211.0212    132.37691    46.852839    23.568568    30.803765    68.732951     134.1838    113.15578 
  178500    227.38358   -12762.827   -11592.288   -12762.827            0      1444.13    46.838041    21.673946    21.837477   -9.1289176    -21.52079    3.0668682    22168.646    1497.9647    840.03736    1994.3879    238.22361     374.3981   -82.997446    46.838041    23.518016    30.812749    68.725377    134.30181    112.84049 
  179000    237.12801   -12734.725   -11514.024   -12734.725            0    1596.1209    47.155688    21.482047    21.889388   -9.3570231   -21.665649    2.7323983    22173.965     1341.024    2058.3188    1389.0199    -205.7116   -315.20729    125.84011    47.155688    23.431436    30.919438    68.848237    134.48423    113.53669 
  179500    234.63771   -12693.734   -11485.852   -12693.734            0    1547.2159    47.254085    21.523373    21.872668   -9.3111206   -21.711631    3.0753858    22245.975    853.51431    1578.9235    2209.2099    219.45614   -94.383298    51.619567    47.254085    23.451067    30.972028    68.317387    134.50791    113.39355 
  180000    236.59939   -12747.341   -11529.361   -12747.341            0     1356.078    46.776827    21.719781    21.869889   -9.1471685   -21.416056    2.8214642    22219.423    1187.8852    1076.2065    1804.1422    44.466433   -395.86406    185.78485    46.776827    23.567341    30.739229    69.206472    134.16293    112.83813 
  180500    237.54973   -12715.187   -11492.315   -12715.187            0    1433.5674    46.767404    21.625851     21.95653   -9.2438957   -21.445448    2.8426924    22206.503    2425.0103    870.04289    1005.6489   -346.50807     99.88156   -146.12089    46.767404    23.518653    30.823325    69.006271    134.08732    113.14412 
  181000     236.9161   -12753.668   -11534.057   -12753.668            0    1742.5707    46.949841    21.508267    21.911793   -9.2076575   -21.622839    2.9934837    22126.742    1725.0779     1616.286    1886.3482   -6.6096551    279.41284   -536.81552    46.949841    23.396293    30.929513    68.647412    134.35488     113.1757 
  181500    231.19848   -12726.523   -11536.346   -12726.523            0    2501.1663    47.139562    21.451967     21.83429   -9.3388411    -21.43524    2.7785876    22079.627    2410.8966     2355.196    2737.4062   -385.55924    176.52629    1217.2604    47.139562    23.396599    30.723383    68.813462    134.24156    113.52529 
  182000    239.50185   -12724.046   -11491.124   -12724.046            0    3025.3582     46.86885     21.60389    21.764009   -9.2026244   -21.620321    3.0110653    22037.135    2615.3997    2658.7361    3801.9387   -793.53164    548.87915   -477.71937     46.86885    23.482256    30.824939    68.608303    134.53867    113.07258 
  182500    238.05769   -12715.774   -11490.287   -12715.774            0    2838.5557    46.830989    21.583625    21.817839   -9.2839182   -21.472152    2.7517898     22053.09    2322.6611    2801.2966    3391.7093   -173.67857   -28.276432   -116.77803    46.830989    23.495617    30.735058    69.004438    134.31646    113.27433 
  183000    239.23499   -12736.644   -11505.096   -12736.644            0    2864.5968    46.904137    21.503638    21.835411   -9.1395448   -21.601512    3.0688765    22023.404    3250.2907    2697.6984    2645.8013   -268.47488    94.192657   -1128.8415    46.904137     23.36531     30.86792    68.578087    134.41133    113.02662 
  183500    236.06347   -12701.227   -11486.006   -12701.227            0    2838.9411    46.869683    21.512406    21.884841   -9.3348374   -21.508837     2.937229     22066.04    2481.3675    3378.8811    2656.5746    542.55661    544.01082   -202.45102    46.869683    23.450433    30.825374    68.582081    134.24789    113.45738 
  184000    231.55764   -12697.288   -11505.262   -12697.288            0    2852.9758    46.691946    21.514828    21.961139    -9.053523   -21.348309     2.783601    22061.483    3676.5417    2268.8157    2613.5699   -220.61203   -278.79217    740.49716    46.691946     23.34211    30.753705    69.349314    133.96114    112.82155 
  184500    241.48072   -12723.761   -11480.652   -12723.761            0    1826.7582    46.739164    21.611963    21.908615    -9.277051   -21.422068    3.1614697    22130.442    796.79236    3151.9552    1531.5271    829.80775    -179.7353   -1487.5087    46.739164    23.518942    30.804015    68.369282    134.06158    113.23169 
  185000    230.77611   -12701.582   -11513.579   -12701.582            0    2111.2628    46.759779    21.533065    21.985861   -9.1092088   -21.478103    2.8327226    22137.154    2614.4642    1771.4471     1947.877   -347.95473    270.25748     97.28877    46.759779     23.38056    30.866022    69.167936    134.09494    112.92999 
  185500    237.43471   -12715.931    -11493.65   -12715.931            0    1503.5496    47.043975    21.506917    21.924465   -9.3891059   -21.582374    2.8226468    22182.536    1464.3744    2006.7295    1039.5448    12.768786   -409.01069    6.8479033    47.043975    23.467058    30.894148    68.700816    134.31407    113.58426 
  186000    244.46375   -12748.339   -11489.874   -12748.339            0    1592.4563    46.990853    21.605695    21.861968   -9.1905936   -21.504079    3.0796045    22195.801    1949.5829     1420.351     1407.435   -392.62991   -547.85542   -394.47042    46.990853    23.479205    30.819718    68.588161    134.24578    113.04385 
  186500     234.5086   -12742.506   -11535.289   -12742.506            0    1487.9336    46.959438     21.65541     21.81389   -9.1474913   -21.641428    2.6884342     22183.11    1158.0756    783.45774    2522.2676   -298.77871    467.17052    829.27635    46.959438    23.508156    30.845176    69.310588    134.55669    112.89975 
  187000    236.33976   -12756.719   -11540.075   -12756.719            0    2086.3557    47.135346    21.570306    21.785577   -9.4638301   -21.674177    3.1141347    22149.915    1860.3619    1436.8528    2961.8525    564.37498    529.43809    959.99743    47.135346    23.555088    30.888171    68.022107    134.56342    113.68915 
  187500     239.6765   -12725.046   -11491.225   -12725.046            0    1810.8517    46.893025    21.548041    21.947427   -9.1101083   -21.454038    2.8161701     22176.84    2126.7927    1583.5107    1722.2516    58.511006   -500.82221    349.05612    46.893025    23.394703    30.820385    69.192566    134.11486    112.91773 
  188000    241.04555   -12733.955   -11493.086   -12733.955            0    1887.2635    46.801286    21.592194    21.932867   -9.4065495   -21.570774    3.0586034    22164.093    2485.4021    1523.8802    1652.5083   -52.609042    776.03688   -376.48095    46.801286    23.552198    30.914463    68.322477     134.2473    113.54015 
  188500    237.21833   -12709.262   -11488.095   -12709.262            0    2374.6396    46.816974    21.565825     21.95229   -9.0962379   -21.443935    2.9530997    22164.056    1953.0411    2833.9024    2336.9754   -369.14114    302.33898   -148.36684    46.816974    23.405691    30.829632    68.987169    134.07206     112.8695 
  189000    236.78677   -12806.099   -11587.154   -12806.099            0    1915.0411    46.846888    21.480742    21.934272   -9.2964202   -21.365916    2.7198391    22072.587    1558.5525     2444.889    1741.6819    292.16611   -39.628673    242.64416    46.846888    23.406104     30.74105     69.06866    134.02951    113.40196 
  189500    234.57443   -12725.422   -11517.866   -12725.422            0    1853.8056    46.870827    21.571486    21.864553   -9.1421254   -21.661545     3.191439    22106.667    1730.6764    1872.7795    1957.9608    -23.61542    326.77359   -773.84676    46.870827    23.428774    30.942955    68.399769    134.43083    112.96752 
  190000    238.19673   -12674.982   -11448.779   -12674.982            0    2267.7616    46.957437    21.563325     21.87852   -9.2784176   -21.416498    2.7601866    22153.281    1357.6162    2738.1168    2707.5518    23.211503    220.09975    471.42007    46.957437    23.474796    30.740114    69.031866    134.16248    113.28158 
  190500    241.79818   -12692.189   -11447.446   -12692.189            0    2518.8058    46.867357    21.618737    21.839013   -9.1601739   -21.647501    2.9113161    22127.573    2710.7453    2280.6507    2565.0213   -112.84475   -40.025432    -302.6402    46.867357    23.479322    30.887417    68.886574    134.49538    112.96308 
  191000    231.19519   -12695.819   -11505.659   -12695.819            0    2240.1165    46.918518    21.675169    21.794682   -9.2588819   -21.429827    3.1845807    22164.469    1558.9028    2867.6716    2293.7753    424.31241     485.7828   -1344.4394    46.918518    23.569893    30.730884    68.331817    134.21386     113.1305 
  191500    235.66276    -12734.32   -11521.161    -12734.32            0    2179.2589    46.881978    21.496796    21.946046   -9.2197241   -21.523349     2.711506    22117.495    1544.7425    2774.7415    2218.2928    551.22205   -832.33466    885.74845    46.881978    23.390501    30.858317     69.16477    134.22592    113.21393 
  192000    238.69459   -12711.842   -11483.076   -12711.842            0    1829.4905    47.022387    21.619133    21.788634   -9.3231912    -21.71102    3.1568844    22149.961    1120.0085    1711.3568    2657.1063    684.59538    116.92943    29.223528    47.022387    23.543764    30.920525    68.173323     134.6002    113.32799 
  192500    235.53351   -12694.138   -11481.645   -12694.138            0    1881.9031    46.973596    21.685868    21.757228    -9.196887   -21.514328    2.8548061    22163.287     1807.491     1115.491    2722.7272    656.09595    -629.6563    298.12375    46.973596    23.555458    30.730981    68.969682     134.4339     112.9816 
  193000    232.28896   -12706.365   -11510.575   -12706.365            0    2017.3368    47.077975    21.479554    21.908611   -9.2583985   -21.646653    2.7612723    22154.293    1492.4132    2737.6331     1821.964    398.96981   -626.28855    98.409387    47.077975    23.389938    30.922313    68.955267    134.42969    113.31764 
  193500    226.89165   -12640.161   -11472.154   -12640.161            0    2958.3784    46.930673    21.580423    21.848221   -9.2792896   -21.454014    3.2287792    22127.523      3853.05     1935.099    3086.9862   -242.12983   -598.25676   -842.85059    46.930673    23.490846    30.790331     68.18725    134.16904    113.26705 
  194000    236.25562   -12717.245   -11501.035   -12717.245            0     2171.697     46.64953    21.638421    21.904781   -9.1712457   -21.468688    2.7412466    22111.172    3309.6809    1818.6271    1386.7831   -236.07167   -153.49195    529.87051     46.64953    23.501766    30.793481    69.266083    134.20142    112.96921 
  194500     235.0399   -12717.993    -11508.04   -12717.993            0    1986.1881     46.92205    21.579162    21.879961   -9.2966086   -21.475202    2.9298006    22154.303    1770.0955    2517.4355    1671.0333    578.06612   -557.48937    -86.57051     46.92205    23.496535    30.797739    68.699489    134.21062    113.30706 
  195000    243.02508   -12711.687   -11460.628   -12711.687            0    2073.0776    47.165466     21.34896    22.002888   -9.0076143   -21.777834    3.0039677    22155.449    1278.4586    3244.9749    1695.7991    93.103287   -14.387972    38.750084    47.165466    23.171431    31.103456     68.82806    134.44097    112.87599 
  195500    234.62436   -12673.349   -11465.536   -12673.349            0     2081.854    46.794371    21.539451    21.967841   -9.3368784   -21.375155    2.7910628    22141.937    2437.6963    2487.7333    1320.1325    78.715955   -777.87296    154.50349    46.794371    23.476057    30.777806    68.935478    133.98731    113.43567 
  196000    238.85511   -12708.565   -11478.973   -12708.565            0    2533.2825    46.654958    21.612288    21.914814   -9.1568555   -21.536939    3.0253714    22097.153     2305.431    2610.4378    2683.9788    275.78617    740.29495   -37.282074    46.654958    23.472089    30.874774    68.755205    134.23139    112.96176 
  196500    234.21121   -12665.813   -11460.127   -12665.813            0    2283.7262    46.884758     21.54601     21.90598   -9.1888313   -21.305462    2.9237849    22128.972    2810.5412    2148.3258    1892.3116   -730.49234   -357.91868   -364.91013    46.884758    23.423603    30.697609    68.907431    133.95101    113.09703 
  197000    240.94551   -12743.252   -11502.899   -12743.252            0    1743.8712    46.971003    21.532499    21.926251   -9.3030065   -21.681751    2.8873893    22176.278    1070.2607    2531.3956    1629.9574   -140.03353    292.92339   -275.53437    46.971003    23.456224    30.970887     68.70079    134.43252    113.36651 
  197500    225.86706   -12716.591    -11553.86   -12716.591            0    1449.1412    46.993622     21.67855     21.81003   -9.1360842   -21.526197    3.0083633    22219.046    1896.4578    1028.3156    1422.6501   -1338.0071    731.20306    152.29003    46.993622    23.525041    30.791311    68.805663    134.35482    112.85223 
  198000    233.82792   -12712.893    -11509.18   -12712.893            0    1475.6627    47.061215    21.570923    21.898459   -9.3630908   -21.671258    2.7585742    22230.305    413.05656    2089.6167    1924.3148   -225.00091    688.11575    746.01666    47.061215    23.515361    30.932114    68.852666    134.47573    113.46377 
  198500    235.64438   -12706.659   -11493.595   -12706.659            0    2260.5421    46.943193    21.586965    21.855015    -9.156464   -21.580148    3.0344944    22147.022    2629.8094     2399.796    1752.0208   -645.69665     321.4266    254.60737    46.943193    23.448623    30.863451    68.681603    134.36395    112.98502 
  199000    240.36658   -12705.413   -11468.039   -12705.413            0    1591.7514    46.846212    21.569773    21.973146   -9.2694977   -21.288897     2.852832    22203.032    2222.3382    1604.6446    948.27144   -233.52924    189.03626    10.890517    46.846212    23.477195     30.72743    68.970401    133.85458    113.25536 
  199500    240.58473   -12690.292   -11451.795   -12690.292            0    2160.0572     46.78136    21.500192    22.016354   -9.1887887   -21.754297     2.895776     22144.23    2478.8541    2488.9386     1512.379    196.87571     505.4276   -104.89414     46.78136    23.381447    31.086248    68.858189    134.41132    113.14098 
  200000    233.07395   -12739.358   -11539.526   -12739.358            0    2165.2614    46.932086    21.585384    21.823683   -9.2864919   -21.326914    2.9971491    22108.419    1953.5391    2442.1606    2100.0844    247.86309   -74.311476   -256.94565    46.932086    23.498249    30.660941    68.611874    134.07287     113.2784 
  200500    233.32693   -12765.407   -11564.273   -12765.407            0    2774.0942    46.788821    21.568584    21.855485   -8.9798058    -21.76995    2.8752004     22055.87    2911.2282    2099.8526    3311.2019   -668.70895    53.945879    430.10823    46.788821    23.363234    30.981603    69.160478    134.64189    112.60378 
  201000    240.41387   -12669.583   -11431.966   -12669.583            0    3183.1086    47.085319    21.528222    21.766388   -9.4056524   -21.445546    2.9486076    22063.787    2217.1559    3802.4564    3529.7137   -575.96956   -97.906707   -230.71614    47.085319    23.493204    30.698231     68.42595    134.31417    113.60045 
  201500    235.43671   -12701.523   -11489.528   -12701.523            0    2243.8521    46.949538    21.589382    21.801411   -9.1084817   -21.617131    2.8546302    22098.162    1808.5325    1701.1835    3221.8401   -332.32941    382.58229    693.78242    46.949538    23.432154    30.834248    69.033676    134.51334     112.8747 
  202000    234.52088   -12719.286   -11512.006   -12719.286            0    2440.8628    46.984542    21.594067    21.766074   -9.3156697   -21.640355    2.9809069    22083.584    1499.3574    2244.6152    3578.6156    521.07755    297.69484    505.92712    46.984542    23.517769    30.837522    68.485842     134.5679    113.33534 
  202500    230.88649   -12729.453   -11540.882   -12729.453            0    2327.5025    46.949131    21.578944    21.800957   -9.2222396   -21.425246    2.8923279    22086.825    2828.1806    1668.2737    2486.0533    405.59374   -1323.6716   -494.15698    46.949131    23.467009    30.703232    68.847166    134.25215    113.14051 
  203000    224.67582    -12769.34   -11612.741    -12769.34            0    2621.6522    46.812982    21.504847    21.928019   -9.1215132   -21.567366    2.9839037    22075.068    2795.4434    1908.5727    3160.9406   -707.27878    396.80799    87.057852    46.812982    23.359376    30.901342     68.81177    134.26218    112.98475 
  203500    234.36432   -12679.146   -11472.671   -12679.146            0    1819.8493    46.776035    21.518417    22.051492   -9.2943548   -21.309441    2.9649464    22195.847    2496.8845    2202.4714    760.19198   -286.05504    209.25864   -612.24926    46.776035    23.439866    30.808302    68.739226    133.76313    113.36075 
  204000    237.89312   -12728.557   -11503.916   -12728.557            0    1743.7099      46.7159    21.498962    22.072025   -9.0607161   -21.511181    2.9082987    22167.892    3011.5699    2295.9071   -76.347348   -273.69993   -161.01611     136.7129      46.7159     23.33028    30.957445    69.118718     134.0163    112.85294 
  204500    237.05675    -12751.94   -11531.605    -12751.94            0    2076.0326    46.760182    21.614353     21.89681   -9.3477778   -21.294296    2.9128221     22130.91    1666.1619    1357.0812    3204.8545    278.72788    33.804176    629.92483    46.760182    23.549123    30.682273    68.738351    133.94966    113.38752 
  205000    231.92763   -12741.166   -11547.235   -12741.166            0    2196.2781    46.973373    21.560226    21.831214   -9.1676291   -21.707718    2.9571863    22109.705    2222.3994    1835.9208    2530.5139   -75.543475    283.98151    19.536429    46.973373    23.428376    30.928496    68.737977    134.57706    113.03569 
  205500    235.77926   -12701.082   -11487.324   -12701.082            0    1157.7171    47.372784    21.531072    21.811542   -9.4148343     -21.5156    2.8863024    22247.485    666.07296    1535.6633     1271.415    -557.1442   -336.72757   -45.167872    47.372784    23.499493    30.773286    68.527826    134.36004    113.61819 
  206000    231.25034   -12803.033   -11612.589   -12803.033            0    1994.2132    46.957538    21.600482     21.80762   -9.1642237   -21.736479    2.8700329    22119.589    2791.9168    1127.1839    2063.5388   -305.50204    1092.2596    1013.2193    46.957538    23.464097    30.923841    68.901831    134.66043    112.98958 
  206500    237.19971   -12707.359   -11486.288   -12707.359            0    2492.0167    46.822659    21.624659    21.833759   -9.2535103   -21.389298    2.9376354    22107.206    2632.8891    1829.7159     3013.445   -1032.4331    27.787216    564.91454    46.822659    23.521338    30.705779    68.776908    134.15395     113.1668 
  207000    235.00175   -12725.287   -11515.531   -12725.287            0    2229.3073    46.630488     21.61417    21.963602   -9.1189835   -21.501565    2.7978321    22136.659    2809.1977    2005.8911    1872.8329    472.86202   -166.19033    437.36637    46.630488    23.459075    30.863327    69.247493    134.16047     112.8748 
  207500    231.97758   -12723.512   -11529.324   -12723.512            0    2590.3566    46.913322    21.442892    21.982034    -9.242743   -21.396337    3.0228758    22112.988    3395.2786    2374.7769    2001.0142   -745.83786   -416.41895   -199.27284    46.913322    23.350073    30.824517    68.603569    133.95823    113.31797 
  208000    228.42545   -12699.851   -11523.949   -12699.851            0    2286.3525    47.059476    21.455839    21.918953   -9.2460146   -21.571492     2.958898    22131.579    1893.6311    3301.9102    1663.5162    299.05052   -903.84886   -823.22738    47.059476    23.363258    30.895385    68.637358    134.28363    113.31277 
  208500    239.90704   -12756.405   -11521.397   -12756.405            0    1819.2179    46.648321    21.705567    21.858636   -9.2131745   -21.487503    2.8318694    22132.486    1929.9519    1689.5674    1838.1343   -335.03072    651.07744     436.9863    46.648321    23.579953    30.782011    69.057635    134.27108    112.99935 
  209000    232.56497   -12682.984   -11485.772   -12682.984            0    2448.1711     46.81361    21.681168    21.840351   -9.2615369   -21.474049    3.0432848    22167.383    2434.0493    1552.1364    3358.3277   -126.49895     158.8672    140.02263     46.81361    23.576452    30.779819    68.593109    134.24008     113.1307 
  209500     235.5499   -12705.298    -11492.72   -12705.298            0    2240.0139    47.124107     21.42158     21.93397   -9.0572831   -21.638209    2.7115715    22141.746    1974.3049     2430.942    2314.7948   -542.98731    702.30598     1018.774    47.124107    23.257654    30.929982    69.317514    134.39387    112.91918 
  210000    239.76368   -12741.627   -11507.358   -12741.627            0    2376.2598    47.147828    21.470369    21.848408   -9.4769285   -21.606012    3.0951351    22116.734    2317.1784    1978.1102    2833.4909    930.81721   -382.26889    126.81563    47.147828    23.468893    30.882884     68.02538    134.39582    113.81646 
  210500    236.93637   -12703.532   -11483.817   -12703.532            0    1632.1873    46.781628    21.665472    21.893747   -9.0773652   -21.512125    2.8574079    22190.321    1474.0363     1297.704    2124.8217   -85.457341    661.94861    693.25479    46.781628    23.490237    30.826489    69.196623     134.2544    112.73263 
  211000     237.1101   -12705.519   -11484.909   -12705.519            0    1270.9235    46.726051     21.61681    22.005051   -9.4019941   -21.351252    2.9106811    22226.601    1442.3291    1532.7699    837.67156    380.42984   -309.25234    288.54685    46.726051     23.57295    30.798868    68.705399    133.88776     113.5061 
  211500    229.17118   -12724.763   -11545.022   -12724.763            0    1496.4895    46.997943    21.527479     21.95654    -9.090634    -21.63963    3.0623331    22214.469    658.01259    2174.8274    1656.6286   -363.71354    1001.5944    92.913833    46.997943    23.368183    30.979689    68.727986     134.3076    112.89338 
  212000    231.63006   -12713.614   -11521.215   -12713.614            0    1471.4379    47.083632    21.518865    21.942872   -9.3254682    -21.45266    2.7699256    22232.218    1062.1662    2563.5104    788.63715   -500.78158    374.16285   -579.50605    47.083632    23.452631     30.81199    68.940784    134.12642     113.4301 
  212500    238.32313   -12704.601   -11477.747   -12704.601            0    730.42927    46.871263    21.703111    21.899816   -9.1766964   -21.716552    3.0854042    22277.636    856.23009    895.69641    439.36132   -168.49684    868.31371   -1052.3362    46.871263    23.563463     30.99565    68.620565    134.47775    112.92003 
  213000    232.53481   -12741.013   -11543.957   -12741.013            0    1367.9767    46.950404    21.655605    21.819903   -9.2066571   -21.498325    2.9434514    22185.154    1182.0326    1611.6993    1310.1982   -319.84996     259.6474   -613.69129    46.950404     23.53142    30.772553    68.816153     134.3164    113.03227 
  213500    236.48733   -12718.097   -11500.694   -12718.097            0    1197.1215    47.098573    21.590441    21.859025   -9.3533583   -21.693573    2.8099995    22227.982    654.48727      1132.44    1804.4372   -23.837165    180.05466    223.31077    47.098573    23.529396    30.924492    68.762298    134.54758    113.42311 
  214000    231.97823   -12722.537   -11528.346   -12722.537            0    1758.2445     47.04451     21.61474     21.82949   -9.1274281    -21.49032    3.0584252    22197.423    1988.8633    1505.5642    1780.3061   -637.34908   -9.7800776   -104.28152     47.04451    23.462884    30.784972    68.710172    134.27303    112.89326 
  214500    236.54451   -12740.153   -11522.455   -12740.153            0    1777.7125    46.927558    21.573214    21.896747    -9.329576   -21.557439    2.8410441     22167.79     1061.729    1891.5817    2379.8268    986.71066    149.96533     539.4843    46.927558    23.504139    30.858746    68.789584    134.31354    113.38661 
  215000    227.48198   -12743.234   -11572.189   -12743.234            0     2696.243    46.701074    21.561398    21.913735   -9.1482869   -21.577457    2.8955924    22065.826    3808.3876    2330.4458    1949.8957   -262.18377   -204.75532    89.124417    46.701074    23.421892     30.88985    68.953251    134.30911    112.99103 
  215500    246.05909   -12732.015   -11465.337   -12732.015            0     1955.409    46.824724     21.57017    21.926222   -9.2597051   -21.313794    3.0683707    22145.862    3209.7082    1688.9836    967.53503   -406.01997   -749.10301   -218.80238    46.824724    23.473695    30.731936    68.572231     133.9109    113.23302 
  216000    238.39911    -12746.45   -11519.205    -12746.45            0    1902.3014    46.664397    21.455626     22.10979   -9.1290115   -21.676658    2.7294321    22136.629    2576.0713    2151.2895    979.54338   -246.76145    370.20817     487.4129    46.664397    23.317005    31.083278     69.27798    134.21667    113.04894 
  216500    231.72548   -12720.953   -11528.063   -12720.953            0    1936.3157    46.852797    21.580696    21.871744   -9.2953289   -21.371633    2.9999554     22114.87    2024.7778    1755.9883    2028.1811   -347.37595   -312.45463   -324.13862    46.852797    23.497438    30.726529    68.603548    134.07053    113.30272 
  217000    236.23296   -12689.388   -11473.294   -12689.388            0    1848.2158    46.991956    21.613766    21.852299   -9.0806306   -21.647459    3.0067879    22194.793      1168.88    1980.5806     2395.187    405.01137   -297.25007   -199.80857    46.991956    23.443821    30.905925    68.838635    134.46157    112.78883 
  217500    235.42477   -12696.827   -11484.893   -12696.827            0    1908.1523    47.095331    21.545951    21.805314   -9.5860131   -21.626083    2.7377598    22126.151    1815.1871    1324.7456    2584.5243     376.2034    529.40378    128.57344    47.095331    23.582189    30.832685    68.515947    134.53953    113.98477 
  218000    233.78317   -12683.635   -11480.152   -12683.635            0    1908.8558    46.969352    21.554351    21.867998   -9.0402289   -21.591992    2.9443293    22139.028    1878.8402    1770.1445    2077.5829   -191.62678    156.95171   -289.43838    46.969352    23.373399    30.872197    68.994422    134.37883    112.75393 
  218500    231.21666    -12716.82   -11526.549    -12716.82            0    1437.9311    46.981824    21.555883     21.90542   -9.3018297   -21.471642    2.9099385    22184.379     1198.822    1956.4294     1158.542    294.39797   -580.00171    81.373018    46.981824    23.477226    30.811469    68.726556    134.17656    113.34124 
  219000    229.28776   -12731.574   -11551.233   -12731.574            0    1905.6652    46.904341    21.557122    21.883684   -9.3584464   -21.539935    2.8013328    22127.087    1573.9076    2140.2343    2002.8536    308.98243   -262.74873    26.971896    46.904341    23.500851    30.833616    68.805939    134.31368    113.46678 
  219500    227.35219   -12733.908   -11563.531   -12733.908            0    2065.4267    46.828355    21.579734     21.92128   -8.9904916   -21.482029    3.0661951    22152.405    2381.4869    2567.7891     1247.004   -190.45846   -275.79953   -285.77795    46.828355    23.377635    30.845123    68.924441    134.14273    112.61746 
  220000     229.0261    -12685.12   -11506.126    -12685.12            0    2323.3826    46.943783    21.488583    21.975134    -9.503137   -21.508876    2.7984417    22167.535    1530.8494    2555.4564     2883.842    1402.5501     417.1059    308.52965    46.943783    23.496144    30.876683    68.614891    134.15532    113.85699 
  220500     237.1872   -12734.395   -11513.389   -12734.395            0     2840.941    46.825757      21.5328    21.897655   -9.0289105   -21.545927    2.9231011    22079.179    2560.2794    3527.0511    2435.4924    101.95352    324.87307   -165.20676    46.825757    23.349148    30.859015    69.062733    134.28319    112.74877 
  221000    234.29601    -12697.47   -11491.348    -12697.47            0    1703.2207    46.943406    21.562278    21.912713   -9.4122534   -21.408622    3.1229414    22180.196    1777.3967    1645.6637    1686.6016    393.00715    -303.9504   -416.11654    46.943406    23.527055    30.793649    68.217793    134.04543    113.58198 
  221500    231.52443   -12700.218   -11508.362   -12700.218            0     2451.241    46.741685    21.550857     21.97322   -8.9889668   -21.623088    2.6711247    22134.138      2946.13    1765.2744    2642.3187   -146.82366    556.50293    1220.2096    46.741685    23.350395    30.943743     69.59374    134.32977    112.64125 
  222000    235.06045   -12762.749   -11552.691   -12762.749            0     1772.746    46.930189    21.599252    21.832109   -9.3031886   -21.417493    3.0150677     22130.27    1651.1226    2017.5526    1649.5627    212.30334     126.8285   -423.92317    46.930189     23.51759    30.731753    68.543424    134.18021    113.30242 
  222500    237.51295   -12710.563    -11487.88   -12710.563            0    2018.7539    46.991627    21.592183    21.771198   -9.1637002   -21.760903    2.8803692    22090.185    1429.8392     1997.949    2628.4736   -423.21189    323.69432     215.8269    46.991627    23.456252    30.916314    68.854172     134.7379    112.99632 
  223000    241.58434   -12733.971   -11490.329   -12733.971            0    2173.7481    47.113278    21.514933    21.808996   -9.2984301   -21.506425    2.8088214    22106.449    1575.8023    2544.8106    2400.6315   -199.35324    133.42562   -102.43219    47.113278    23.438284    30.757895    68.824889    134.36417    113.37327 
  223500    239.18435   -12695.739   -11464.452   -12695.739            0    1498.6607    46.925005    21.647144     21.85051   -9.2382353   -21.676147    3.0152786    22195.581    993.74758    1186.6107    2315.6239    242.97798    148.50863   -128.04755    46.925005    23.536012    30.925588    68.605033     134.5003    113.11107 
  224000    242.35279   -12744.278    -11496.68   -12744.278            0    1189.6354    46.905804    21.628189    21.918609   -9.0861397   -21.200841    2.6509091    22236.157    1544.3404    657.52043    1367.0453   -343.70629   -242.03927     826.2701    46.905804    23.459251    30.609287      69.6282    133.83848    112.78759 
  224500    233.22384   -12724.199   -11523.595   -12724.199            0    2074.0456    46.960007    21.447562    21.977134   -9.2336201   -21.635689    3.0230423    22134.877     1650.066    3354.3172    1217.7537   -482.40906    358.64878   -1322.4715    46.960007    23.350752    30.987679    68.549556      134.283    113.29288 
  225000    243.19222   -12701.308   -11449.389   -12701.308            0    2480.9876    46.753915    21.485447    21.998656   -9.2527103    -21.48964    2.8735503    22098.282    3568.0025    2752.7999    1122.1604   -379.21638    171.46091   -392.51552    46.753915    23.393099    30.886935    68.860521    134.08715    113.29913 
  225500    239.07305   -12725.696   -11494.982   -12725.696            0    2430.8284    46.530812    21.663695      21.9301   -9.0895026   -21.278278    2.8682976    22106.183    3163.8698    2185.8423    1942.7731   -386.02413   -126.15395    176.46396    46.530812    23.493291     30.69074    69.242041    133.89291    112.76161 
  226000    229.60048   -12746.191    -11564.24   -12746.191            0    1901.1624    46.771722    21.584576    21.942284   -9.2164905   -21.587089    2.9627756    22151.784    2146.9241    1724.0111    1832.5519   -352.79856    321.00111    -636.7562    46.771722     23.46993      30.9232    68.761647    134.27374    113.12221 
  226500    229.40686   -12693.667   -11512.713   -12693.667            0    1681.8258    47.262245    21.431448     21.92178   -9.3071275   -21.501351    2.8468201    22204.535    1814.8338    1553.5608    1677.0826    492.09933    -1172.432    604.93919    47.262245    23.365136    30.837914    68.751786    134.20579    113.47407 
  227000    237.06561   -12707.145   -11486.765   -12707.145            0    1543.5059    46.977275    21.589713    21.897213   -9.1252021   -21.648989    3.0228058    22208.721    1803.5088    1124.1185    1702.8903    527.58544    57.791237   -409.64048    46.977275    23.438964     30.94033    68.752587    134.40304    112.91205 
  227500     237.1051   -12712.593   -11492.009   -12712.593            0    1594.5179    46.794933    21.709953     21.83922   -9.2494948   -21.394597    2.8887697    22186.808    1378.3701    1071.3274    2333.8563    89.615477    90.254213   -233.17584    46.794933    23.598203    30.708717    68.923288    134.16241    113.07636 
  228000    240.59497   -12700.321   -11461.772   -12700.321            0    1596.5788    46.970565    21.634627    21.835159   -9.1747041   -21.789826    2.8618695    22188.684    1986.1355    940.17281    1863.4281    -140.9161    433.06899    95.680215    46.970565    23.499623    30.980009    68.921396    134.69649    112.98059 
  228500    238.29387     -12695.2   -11468.496     -12695.2            0    1314.0235    47.197718    21.545893    21.792172   -9.3113359   -21.561099    3.0146748     22160.83    799.36704    1900.0187    1242.6849    155.10841   -717.77175   -695.61897    47.197718    23.471823    30.803701    68.437885    134.42312    113.37221 
  229000    236.08563   -12716.531   -11501.195   -12716.531            0    2120.6267    46.961619    21.524496    21.883363     -9.17511   -21.653824    2.8324017    22120.255    1932.0815    2036.9462    2392.8524   -210.90926    168.38254    127.21819    46.961619    23.398431    30.915889    68.965648    134.45998    113.08679 
  229500      231.833    -12703.99   -11510.547    -12703.99            0    1746.9742    46.717967    21.616892    21.994146   -9.2656407   -21.376716    2.9143533    22211.828     2145.613    1191.5778    1903.7318    -181.6332    107.12773    127.93681    46.717967    23.518974    30.809088    68.881758    133.93521    113.20141 
  230000    235.77115   -12743.467    -11529.75   -12743.467            0    1952.1194    46.702336    21.593495    21.951995    -9.109857   -21.441257    3.0808859    22137.856    2661.5152    2261.0352    933.80786   -764.89549   -276.08123   -622.60958    46.702336    23.436479    30.840063    68.759354    134.04638    112.87389 
  230500    235.03224   -12726.371   -11516.458   -12726.371            0    2330.6308    46.739598    21.534803    21.977371   -9.2329674   -21.465624    2.7704152     22120.84    2767.4797    2268.2146    1956.1981    563.56986   -373.68625    819.01701    46.739598    23.430652    30.845632     69.09785    134.09936    113.20706 
  231000    233.61934   -12658.951   -11456.312   -12658.951            0    2154.6145    47.119885    21.431228    21.977834   -9.3560404   -21.612857    2.8969336     22194.03    2179.7473    2281.3283     2002.768    348.80793   -45.917054   -307.85223    47.119885    23.384461    30.960185    68.588994    134.27361    113.58421 
  231500    227.90717   -12714.053   -11540.819   -12714.053            0    1377.4691    47.030832     21.60093    21.878219   -9.1832087   -21.538063    2.9399581    22226.295    1033.8864    1792.9101    1305.6108    94.151542   -670.89221   -122.06674    47.030832     23.47193    30.841335    68.841398    134.29482    113.03181 
  232000    229.19107   -12683.554   -11503.711   -12683.554            0    1205.4713    46.940105    21.654938     21.90868    -9.356761   -21.549607    2.8418286    22269.847    897.45563    1434.2716    1284.6867   -195.51155    181.34821    29.597937    46.940105    23.589941    30.861818    68.808343    134.28766    113.36842 
  232500    234.23517   -12709.535   -11503.725   -12709.535            0    603.65606    47.017942    21.672783    21.906204    -9.110047   -21.654454    3.0461921    22322.634    1132.3012   -222.98174    901.64873   -444.15156    159.11346   -62.102579    47.017942    23.509626     30.95281    68.787978    134.39458    112.79921 
  233000    229.57852   -12707.139   -11525.301   -12707.139            0    1287.9293    47.248442    21.501792    21.926482   -9.3518844   -21.588854    2.9222917    22275.687    394.15819    1446.9359    2022.6938     513.2281     161.2168     505.0581    47.248442     23.44749    30.909368    68.575579    134.30331    113.50591 
  233500    238.10226   -12713.215   -11487.498   -12713.215            0    1475.6217    46.915942    21.534585    21.983627   -9.2203721   -21.699663    2.8188211    22210.395    1830.0924    1758.2149    838.55784    336.82132    923.76813    128.92513    46.915942     23.42549    31.017752    68.967158      134.394    113.17895 
  234000     233.6279   -12727.229   -11524.546   -12727.229            0    1112.7983     46.78591     21.75073    21.898962   -9.2828282    -21.28822    3.1877456     22284.99    1729.2733    393.12124    1216.0003    -84.56414   -351.09477    -696.7979     46.78591    23.648788    30.706914    68.431774    133.88962    113.11194 
  234500    227.88224   -12764.909   -11591.803   -12764.909            0    1695.3001    46.881414    21.555495    21.958447   -9.1765942   -21.579202    2.8232927    22190.155    1362.1029    2328.3254    1395.4721    389.07325   -230.01899    193.18869    46.881414    23.427532    30.916118    69.057665    134.26612     113.0604 
  235000    226.77658   -12713.636   -11546.222   -12713.636            0    1362.8897    47.057873    21.451656    21.982419   -9.3851551   -21.659751    2.8616343    22190.577    538.66564    2381.8223    1168.1811    611.55138   -79.982978    218.71222    47.057873    23.414839    30.992911    68.610343    134.33573     113.6295 
  235500    249.60269   -12681.992   -11397.073   -12681.992            0    983.09052    47.090499    21.637791    21.927131   -9.1427132   -21.450965    3.0197217    22342.307    1053.9185    624.59904     1270.754   -291.64517   -389.28696   -302.91105    47.090499    23.490066    30.823071    68.831322    134.10206    112.90574 
  236000    233.38652   -12756.393   -11554.953   -12756.393            0     896.5146    46.856029    21.670766    21.895767    -9.217043   -21.590559    2.8010481    22233.094    1014.5588    635.02938    1039.9557    54.004946   -142.45962     448.8219    46.856029    23.549437    30.877544    69.074663     134.3654    113.04109 
  236500    233.48396    -12711.06   -11509.118    -12711.06            0    879.39387    47.015887    21.664456      21.8922   -9.3940908   -21.520299     2.945669    22298.816     346.3529    219.70695    2072.1218   -551.35232   -92.733951    52.240219    47.015887    23.613504    30.839401    68.577429    134.25223    113.44241 
  237000    226.38863   -12711.698   -11546.282   -12711.698            0    1315.9874    47.169462    21.541932    21.892273   -9.0034512   -21.675597     2.969263    22245.206   -60.727745    1853.4564    2155.2335   -932.70714    26.817142    722.04022    47.169462     23.34774    30.950277    68.986806    134.45398    112.68249 
  237500    230.93121   -12757.578   -11568.777   -12757.578            0    1372.6741    46.968752    21.564905    21.906641    -9.414546   -21.423812    2.8665851    22188.726    1606.5088    911.35023    1600.1633   -199.64297   -627.68684    433.86713    46.968752    23.530381    30.774957    68.660419    134.11848    113.58454 
  238000    235.61063   -12688.419   -11475.529   -12688.419            0    1200.4316    46.708951    21.669919    21.991134   -8.9385906   -21.603818    2.9843549    22258.967    1221.4666    1101.7686    1278.0596   -459.87983    645.36499   -830.57237    46.708951     23.44107    30.971621    69.202707    134.22964    112.41558 
  238500    234.16744   -12738.309   -11532.848   -12738.309            0    1527.3988    46.930888    21.560429    21.946136   -9.4119201   -21.364599    2.9306378    22206.199    2204.5442    2268.0782    109.57415    781.98047   -664.66418   -271.89985    46.930888    23.525227    30.767964     68.58628    133.97768    113.58304 
  239000    238.27955   -12742.287   -11515.658   -12742.287            0    1834.2071    46.958868    21.491348    21.912105   -9.2231835   -21.730737    2.8670154    22113.901    2375.0552    2044.2199    1083.3461   -1014.7062    229.63959   -53.440832    46.958868    23.386859    30.993306    68.806438    134.51877    113.22698 
  239500    241.86891    -12692.73   -11447.623    -12692.73            0     2377.447    47.027192    21.656488    21.770025   -9.1617681   -21.222549    3.0248378    22171.547    2227.3519    1796.1585    3108.8305    -479.2875   -992.89236   -397.02784    47.027192    23.514708    30.552908    68.788289    133.99665    112.93077 
  240000    230.78667     -12718.4   -11530.343     -12718.4            0    1707.4708    46.802817    21.640628    21.868877   -9.2227025   -21.650733     2.881357    22149.725    1790.2147    1163.5553    2168.6424    898.57304   -200.35533   -256.69883    46.802817    23.523924    30.907997    68.875747    134.46631    113.08251 
  240500    235.26578   -12736.777   -11525.662   -12736.777            0     1440.731    47.055026    21.554506    21.913935   -9.3573268   -21.584996    2.7884963    22226.161    1095.0588    1362.6158    1864.5183    693.67739   -537.66444    1258.0745    47.055026    23.498006    30.885406    68.830893    134.33671    113.46682 
  241000    229.03757   -12701.286   -11522.233   -12701.286            0    1009.6748    47.212137    21.579072    21.822242   -9.0578019   -21.573256    3.0923838    22232.371    1080.5568    981.27635    967.19119    236.72716   -528.04394   -437.53507    47.212137    23.402994    30.841181    68.704171    134.38651     112.7702 
  241500    237.40004   -12674.302     -11452.2   -12674.302            0    2079.3532     46.94748    21.536354     21.93639   -9.3713682   -21.630634    2.8360015    22179.392    1525.6546    2407.3929    2305.0121    321.78153   -561.10311   -344.45335     46.94748    23.486956    30.937557    68.713805    134.36051    113.51587 
  242000    235.92608   -12720.702   -11506.188   -12720.702            0    2278.9764    46.731553    21.609727    21.924576   -9.1308277   -21.330348    2.9642254    22140.667    2917.9785    2637.4484    1281.5023   -508.63266   -344.03236   -1182.7266    46.731553    23.459589    30.732026    68.961635     133.9536    112.90567 
  242500    237.05143   -12688.782   -11468.474   -12688.782            0     2208.716     46.71469     21.55364    22.006628   -9.1810184   -21.565943    3.0567738    22157.849    3088.8593    2145.3634    1391.9253   -580.08068   -259.21319   -553.02675     46.71469    23.427558    30.963292    68.667651     134.1469    113.07213 
  243000    239.31426   -12708.792   -11476.836   -12708.792            0    1988.5276    47.028932    21.516965    21.912106   -9.2482855   -21.493187    2.8381285    22173.295     1992.368    2942.1336    1031.0811   -422.41202   -209.92988    152.42615    47.028932    23.420303    30.824543    68.903904    134.20879    113.25869 
  243500    227.50033    -12702.11   -11530.971    -12702.11            0    2158.3104    47.020543    21.546744    21.853832   -9.1389646   -21.650075    2.9392168    22140.983    2667.2027    1964.2542    1843.4743   -419.39506   -746.28407    81.053363    47.020543    23.404762    30.902342     68.83054    134.47489    112.98403 
  244000    239.23104   -12730.321   -11498.793   -12730.321            0    2040.0067    46.861258    21.739289    21.733103   -9.3567541   -21.388555    2.9844587    22140.173    2552.8085    1330.3855    2236.8262    289.80374   -117.77412   -260.37611    46.861258    23.667394    30.638293    68.563938    134.27467    113.28741 
  244500    241.00619   -12714.878   -11474.212   -12714.878            0    1706.0504    46.878542    21.623481    21.864161   -9.0945924    -21.59726    2.8117815    22163.203    1466.6332    1945.4623    1706.0556    633.07225    352.91966    693.16879    46.878542    23.458188    30.860805    69.187879    134.41322    112.81107 
  245000    237.94466   -12708.476   -11483.571   -12708.476            0    1886.1327    47.148888    21.582638    21.804941   -9.5108978   -21.521098    3.1684598     22188.65    1018.0136    2345.7653    2294.6192    1043.9208   -302.43399   -348.29663    47.148888    23.585322    30.800199    67.919824     134.3254    113.78182 
  245500    242.01077   -12666.102   -11420.265   -12666.102            0    2179.9218    47.063164    21.512487    21.906323   -9.0077194   -21.698423    2.7103677    22178.963    1660.2053    2015.7331    2863.8271   -440.06321    74.703378     633.7112    47.063164    23.322223    30.952458    69.419284    134.50924    112.72006 
  246000    236.73723   -12740.399   -11521.709   -12740.399            0    2567.1389     46.87469    21.583995    21.860309    -9.396992   -21.447996    2.9256285    22117.016    2299.4325    2765.6633     2636.321   -189.57072    108.61527   -199.42051     46.87469    23.540864    30.764411    68.562434    134.20032    113.52679 
  246500    232.14839   -12733.216   -11538.148   -12733.216            0     1854.519    46.784297    21.672486    21.917047   -9.0477464   -21.503011    3.0648456    22222.396    2384.4121    1775.7921    1403.3527   -953.64508    673.86333   -916.66998    46.784297     23.48528    30.856599    68.891897    134.17635    112.65937 
  247000    237.62547   -12696.817   -11473.555   -12696.817            0    1906.5737     46.87458    21.572131    21.919353   -9.3433402   -21.476108    2.7652622    22164.512    2160.3211    1815.5253    1743.8746    36.602539   -275.67364    649.56287     46.87458    23.508612    30.811166    68.937682    134.18869    113.41844 
  247500    233.75187    -12764.07   -11560.748    -12764.07            0    1729.8498     47.10572    21.459877     21.91459   -9.2392129   -21.647829    3.1124912    22153.085    1439.1813    1909.5479    1840.8202   -428.30115    87.918482   -245.50859     47.10572    23.364275    30.960706     68.35649    134.36312    113.29354 
  248000    233.69928   -12751.922   -11548.871   -12751.922            0    1713.8224    46.844095    21.542644    21.924193   -9.1072975   -21.341146    2.8471742    22124.705    1191.9779     2362.729    1586.7604     140.6453    8.3269914    327.02394    46.844095    23.388638    30.728182    69.158728    133.98848    112.91654 
  248500    230.46989   -12665.715   -11479.289   -12665.715            0    1796.6967    46.786801    21.676666    21.862601   -9.3567246    -21.54072    2.8990046    22172.654    2744.7444    1017.0759    1628.2697    43.887701   -887.85671     498.2275    46.786801    23.609874    30.828236    68.700115    134.32548    113.34742 
  249000    237.80618   -12745.678   -11521.486   -12745.678            0    2046.5289    46.981596    21.654073    21.738565   -8.9945861    -21.47073    2.9168654    22115.576    1957.2328    1332.7027    2849.6513   -793.52185   -494.27148    60.047599    46.981596    23.447845    30.693087    69.138963     134.3893    112.55683 
  249500    230.47595   -12739.622   -11553.164   -12739.622            0    1973.1406    47.181028    21.425039     21.86703   -9.4210529   -21.667923    2.8646768    22104.405    1437.9073    2416.5354     2064.979    1020.4947    130.84429    624.05103    47.181028    23.404883    30.917184    68.474009    134.49424    113.73613 
  250000    236.09342   -12698.283   -11482.907   -12698.283            0    2201.1081    47.012211    21.501734    21.921471    -9.140078   -21.636467    2.9202229    22159.189    2574.7362    1705.1275    2323.4604   -262.01536   -146.66549   -89.173246    47.012211    23.363767    30.938896    68.872346    134.37319    113.02965 
  250500    231.96858   -12684.559   -11490.417   -12684.559            0    2525.4823    46.518219    21.810298    21.807424   -9.2466817   -21.325088    2.9863845    22125.294    3409.4857    1480.6925    2686.2688   -191.65637    475.84616    280.99246    46.518219    23.689453    30.647049    68.818916    134.09327    112.97497 
  251000    234.69228     -12694.7   -11486.537     -12694.7            0    1918.2703    46.883478    21.580705    21.885359   -9.2769742   -21.638484    2.9132672    22143.136      3165.57    1761.9292    827.31168       71.629   -158.18962     175.3223    46.883478    23.490191    30.914076    68.714808    134.42345    113.26159 
  251500    234.42182    -12688.53    -11481.76    -12688.53            0     2629.034    47.418682     21.42667    21.796852   -9.2253248   -21.564988    2.8426224    22146.134    1091.6947    3301.5128    3493.8944    -83.44076   -317.67627    94.657348    47.418682    23.328283    30.793375     68.79345    134.45209    113.29446 
  252000    228.57856   -12762.368   -11585.678   -12762.368            0    2250.9256    46.932223     21.57357    21.794579    -9.285209   -21.708641     2.930333    22066.915    2151.6411    1760.9946    2840.1409   -88.032591    254.70919    308.39108    46.932223    23.486891    30.900738    68.602271     134.6302    113.28692 
  252500    238.75451   -12739.534   -11510.459   -12739.534            0    2293.2183    46.741521    21.664924    21.823784   -9.1776099   -21.280803    2.9255158    22099.888    2572.2201    1661.1789    2646.2557   -817.80938   -8.4367214    158.84546    46.741521    23.528652    30.622031    68.958628    134.02329     112.9583 
  253000    232.95127   -12716.463   -11517.263   -12716.463            0    2086.5248    46.856462    21.506401    21.964284   -9.1565381   -21.699329    2.9018056    22133.714    1772.3477    1958.9611    2528.2656   -630.40019    729.04805    93.863274    46.856462    23.374505    31.011468     68.88776     134.4045     113.0623 
  253500    245.58618   -12754.603    -11490.36   -12754.603            0    1913.5519     47.07456    21.444476    21.988216   -9.2998352   -21.376999    2.8842231    22196.869    1898.0822    2670.3649    1172.2085   -17.868689   -366.31926   -123.14937     47.07456    23.374185    30.802215    68.775076    133.94826    113.44495 
  254000    231.16117   -12708.589   -11518.604   -12708.589            0    2098.2874    46.856373    21.554326     21.97578   -9.1498923   -21.522074    2.9171924    22194.604    2389.0418    2110.6952    1795.1252    -39.18897    62.416003    224.80704    46.856373    23.416009    30.897323    68.955338    134.15227    113.00141 
  254500    237.49537   -12719.394   -11496.801   -12719.394            0    2766.2807    46.567636    21.723389    21.875573    -9.361636    -21.29341    2.9454245    22129.481    4245.7099    2209.6025    1843.5297    799.84669   -336.70059    67.020388    46.567636    23.654722    30.669619     68.71748    133.97015     113.3135 
  255000    238.44344   -12737.309   -11509.836   -12737.309            0    2572.7961    47.075179    21.502223    21.824359   -9.1283959    -21.68162     2.837947    22091.074    1539.1654    3036.2063    3143.0165    440.93322    -341.8808    432.74048    47.075179    23.359649    30.894162     68.97323    134.57185    113.00281 
  255500     237.2171   -12729.939   -11508.779   -12729.939            0    2500.3063    47.170989    21.468123    21.805121    -9.361291   -21.608186    3.0021469    22081.448    1162.7345    3655.3688    2682.8157   -3.8374895   -187.35853   -409.26639    47.170989    23.420377    30.844608    68.331689    134.47113    113.55987 
  256000    244.66265   -12701.183   -11441.695   -12701.183            0    2701.3557    46.750095    21.649987    21.795702   -9.0604494   -21.475397    2.7273855    22060.279    3216.0851    2202.8162    2685.1656    246.48352   -266.06793    556.95534    46.750095     23.46942    30.719439    69.403545    134.35337    112.70915 
  256500    235.64136   -12714.611   -11501.562   -12714.611            0    2965.4642    46.793823    21.631351    21.826857   -9.2749064   -21.524965    3.0745992    22093.442    2970.2079    2330.5319    3595.6527    386.28804   -186.50024    181.36549    46.793823    23.535914     30.80891    68.466543    134.31962    113.20827 
  257000    234.94411   -12709.428   -11499.968   -12709.428            0    1548.7438    47.025102    21.555618    21.869487   -9.1845826   -21.471733    2.7361712    22168.118    1043.3423    1924.1324    1678.7566   -340.38736      -226.26     704.4705    47.025102    23.430775    30.770058    69.185665    134.25177    113.07826 
  257500    225.91355   -12740.422   -11577.451   -12740.422            0    1564.3616    47.245152    21.455587    21.828234   -9.3355014   -21.888033    2.9982631    22126.679    767.12512    2152.3753    1773.5845   -82.381654    692.28424   -80.579571    47.245152    23.398585    31.057163    68.302322    134.81064    113.51425 
  258000    233.66094   -12714.816   -11511.962   -12714.816            0    1424.4283    46.980512    21.637023    21.839287   -9.2463655   -21.486408    2.9428288    22200.038    1178.1266    2287.3329    807.82538   -237.14367   -481.00353   -405.45426    46.980512    23.529897    30.777921    68.761278    134.27565    113.13896 
  258500    229.39687   -12703.604   -11522.701   -12703.604            0    1798.7469    46.705595    21.670896    21.856508   -9.1576292   -21.643388    2.8544076     22122.11    2275.7035    1720.8208    1399.7164    76.576844    540.99016   -463.81769    46.705595    23.526366    30.891598    69.032957    134.47707    112.90782 
  259000     235.1502   -12719.858   -11509.338   -12719.858            0    2187.6327     47.03565    21.519327    21.863347   -9.2832844   -21.387042    3.0684324    22129.544    2253.7259    2119.5498    2189.6224    -709.0789    51.668762   -358.55487     47.03565    23.436314    30.738034    68.452963    134.08975    113.33502 
  259500    233.55756   -12752.604   -11550.283   -12752.604            0    2078.1867    46.927244    21.452925    21.991053   -9.1627443   -21.586451    2.8128194    22138.978    1710.0594    2593.8496     1930.651    386.53645    285.90975    907.89663    46.927244    23.327749    30.943387     69.04674    134.23566    113.12778 
  260000     227.4651   -12746.483   -11575.525   -12746.483            0    2262.3315    46.690387     21.54512    21.975355   -9.3294014   -21.366889    3.0194464    22106.108    3274.9119    2133.6213    1378.4613    154.35819   -339.53692   -597.31027    46.690387    23.478286    30.798981    68.553224    133.92794    113.41343 
  260500      230.078   -12726.839    -11542.43   -12726.839            0    3006.5722    46.628002    21.667347    21.848304   -9.0516403   -21.362444    2.9829386    22073.452    3029.6273    3312.4202    2677.6689   -190.82945   -22.110223     -697.162    46.628002    23.482038    30.701796    69.031029    134.09135    112.67297 
  261000    238.05825   -12729.683   -11504.193   -12729.683            0    2033.8134    46.960216    21.545784    21.849554   -9.3838209   -21.598745    2.8549793    22107.262    1508.0085    2270.4426    2322.9892      1321.03   -313.90322    138.86199    46.960216    23.500572    30.855465    68.632952     134.4268    113.53454 
  261500    240.79754   -12719.332    -11479.74   -12719.332            0     1602.948    47.384644    21.489761    21.790776   -9.2207288   -21.775531    2.9883477    22189.213    511.90815    1961.4183    2335.5176   -42.884389    702.20152    369.03523    47.384644    23.384432    30.950636    68.521687    134.71307    113.22298 
  262000    241.68483   -12727.451   -11483.292   -12727.451            0    1845.6642    46.987152    21.605745    21.844834   -9.2191737   -21.476233    2.8952523     22176.71    2444.0759    650.27948    2442.6374    570.99523   -1019.1531   -16.778412    46.987152    23.490453    30.770243    68.871193    134.26313    113.10795 
  262500    231.55791   -12740.167    -11548.14   -12740.167            0    2082.5334    46.665146    21.708582    21.805171   -9.3730421     -21.6265    2.8701396    22089.383     2484.504     1210.479    2552.6172    628.67652    247.52786    852.12835    46.665146    23.645643    30.844914     68.69357    134.51827    113.35308 
  263000    239.58345   -12700.854   -11467.512   -12700.854            0    2512.1074    46.931367    21.566875    21.851768   -9.0353842   -21.339901    2.9368795     22117.55    2879.1584    2122.5545    2534.6092   -1157.4081   -526.60099    420.91503    46.931367    23.383076     30.68414    69.083098    134.06469    112.73112 
  263500    231.44169     -12666.4    -11474.97     -12666.4            0    2528.1409    47.095579    21.456331    21.918477   -9.3600867   -21.696262    2.9292408    22148.584    2195.9899     2755.655    2632.7779   -258.42257    158.57602    561.26769    47.095579    23.409087    30.979475    68.487898    134.45454     113.5687 
  264000    234.37618   -12700.319   -11493.783   -12700.319            0    2658.1416    46.781981    21.586635     21.88839   -9.0896247   -21.459963    2.8285524    22104.331    3160.7632    1954.4882    2859.1735   -706.71306    269.56971    407.73555    46.781981    23.422299    30.783638    69.193076    134.19659    112.83482 
  264500    232.11142   -12709.854   -11514.977   -12709.854            0     2221.987    46.625547    21.623473    21.954625   -9.1859691   -21.329008     3.024006    22134.791    3342.8013    1678.8933    1644.2665   -954.06071    56.241072   -779.90914    46.625547    23.493757    30.758361    68.800293    133.90285     113.0165 
  265000    224.89262   -12704.696   -11546.981   -12704.696            0    2196.7294    46.800271    21.570555    21.974292   -9.2139401   -21.578142    2.9757211    22183.219    2017.4454    2572.0453    2000.6976    290.12452   -254.34388    367.80243    46.800271    23.456034    30.940921    68.752729    134.21863    113.12992 
  265500     233.1714   -12700.974    -11500.64   -12700.974            0    2425.2611     47.01929    21.495297    21.888811   -9.1410574   -21.328899    2.8194133    22122.881    2729.2976    2030.8342    2515.6517   -175.70427   -972.03952    18.341059     47.01929    23.358226    30.691873    69.115005    134.02215    113.03804 
  266000    232.74519    -12726.33   -11528.191    -12726.33            0    2472.9545    47.081978    21.548691     21.78807   -9.3090729   -21.792463    3.0494562    22105.196    1997.9876     2872.777    2548.0988    140.96746   -68.680901   -541.03666    47.081978    23.473494    30.966605    68.315901     134.7279    113.36443 
  266500    238.57977   -12720.085    -11491.91   -12720.085            0    2261.0585    46.943316    21.615682    21.790368    -9.250097    -21.47899    2.8129152    22110.944    1690.2158    2161.2378    2931.7218   -61.008811    290.75742    454.74702    46.943316    23.511742    30.725879    68.949527      134.351    113.16775 
  267000     233.7745   -12660.854   -11457.416   -12660.854            0    2589.0462    46.887635    21.591473    21.844127   -9.1961204   -21.562917    2.8682043    22114.407    2809.1329    2803.8567    2154.1489   -343.91644    300.89711    185.26749    46.887635    23.468284    30.827778    68.919079    134.38401    113.06986 
  267500    235.22078    -12702.98   -11492.097    -12702.98            0    1450.4718    47.004733    21.596227      21.8966   -9.3072037   -21.506247    3.0458672    22227.783    1576.7612    1378.2936    1396.3607   -196.28239   -23.339934   -513.96222    47.004733      23.5164    30.842456    68.490012    134.21027    113.31432 
  268000    234.77696   -12733.305   -11524.706   -12733.305            0    2558.2488    46.871068    21.441297    21.996566   -9.1606891   -21.682309    2.6574903    22106.031    1552.1105    3568.5536    2554.0824    21.429655    941.90776    1249.0308    46.871068    23.316248    31.000544    69.290888    134.38025    113.13436 
  268500    238.49811   -12741.296   -11513.542   -12741.296            0     2201.152    46.884147    21.569333    21.953564    -9.247892    -21.41073    3.0355778    22200.756    2148.1494    2484.5095    1970.7971     37.40168   -285.93557   -475.04722    46.884147    23.468269    30.815468    68.633536    134.01165    113.20732 
  269000    231.64019   -12768.974   -11576.523   -12768.974            0    1902.3509    46.784687    21.625065    21.926043   -9.1937827   -21.534595    3.0026434    22183.058    2296.4146    1821.6719    1588.9663    388.47864    286.05592   -673.81068    46.784687    23.498279    30.878892    68.755812    134.21788    113.03252 
  269500    238.43293   -12650.185   -11422.766   -12650.185            0    1998.2394    46.925808    21.552959    21.965048   -9.2407945   -21.450137    2.6589456    22215.231     1522.323    2424.8044    2047.5909    656.30588   -595.41948    1140.8297    46.925808    23.450423    30.816257    69.292851    134.11219    113.20715 
  270000    239.35708   -12749.428   -11517.251   -12749.428            0    2404.6867    47.155166    21.452719    21.864756    -9.170757   -21.613299    3.1031447     22118.53    2226.0785    3029.3875    1958.5942   -1094.1717   -325.15581   -654.12614    47.155166    23.330708    30.900352    68.452111    134.38302    113.14607 
  270500     240.2139   -12783.583   -11546.996   -12783.583            0    1556.4388    47.030792    21.552827     21.81559   -9.2715761   -21.670261    2.8009878    22113.298    1415.9388    974.88121    2278.4963    480.41918    137.01351    1133.4196    47.030792    23.462448    30.876621    68.858439    134.57433    113.27637 
  271000    235.77248   -12755.744   -11542.021   -12755.744            0     1923.962    46.844497    21.670368    21.812567   -9.2346153   -21.437172    2.9314136    22142.755    2210.9862    1979.0424    1581.8574    45.230692     189.8358     341.1791    46.844497    23.555954    30.723503     68.81924    134.24637     113.0808 
  271500     233.0675   -12689.315   -11489.517   -12689.315            0    1279.5506     46.89425    21.639525    21.906665   -9.1877853   -21.666657    2.9570589     22230.21    1513.1102    234.55669    2090.9849    523.18985    185.40833    338.77559     46.89425    23.509241    30.953032    68.807588     134.4258    113.00528 
  272000    234.08161    -12677.37   -11472.351    -12677.37            0    623.60092    47.270976    21.437534     22.01393   -9.3833489   -21.571106    2.8223104    22308.326    199.32831    1359.6401    311.83434    669.70429   -96.596414    40.732433    47.270976    23.401177    30.949817    68.714988    134.18444    113.63931 
  272500    237.08011   -12736.359   -11515.904   -12736.359            0    1215.0028    46.931572    21.571906    21.977593    -9.150756   -21.630907    3.0055537    22250.192    1720.7231    1379.4922    544.79296   -478.35305    166.03212   -618.67305    46.931572     23.43253    30.982964     68.78037    134.27915    112.98655 
  273000    234.76739   -12712.459    -11503.91   -12712.459            0    1513.9452    46.581199    21.788031    21.939338   -9.2573806    -21.21554    2.8744093    22266.511    2003.4789    1012.6259    1525.7309   -48.085212   -34.099657    244.36901    46.581199    23.673136     30.65446    69.087505    133.79551    113.01985 
  273500    232.12643   -12730.537   -11535.583   -12730.537            0    1823.1289    46.901965    21.569242    21.935337   -9.1754441   -21.645725    2.9458957    22190.661    2416.4148    1350.6871    1702.2847   -627.19093    588.33459   -122.05832    46.901965    23.439731    30.957628    68.821919    134.36325    113.04465 
  274000    232.39653   -12687.973   -11491.628   -12687.973            0    1395.7079    47.458465    21.390695    21.897474   -9.3943897   -21.504084    2.9374186    22229.649    384.06698    2108.2578    1694.7989    151.79683   -818.03513   -221.52212    47.458465    23.362713    30.831047    68.426331    134.22529    113.71018 
  274500     232.6578   -12725.618   -11527.929   -12725.618            0    1359.8705    46.825684    21.651372    21.911561   -9.1737046    -21.67342    2.8773081    22214.824    1686.0979    842.43227    1551.0812   -1034.1082    906.19095   -131.92451    46.825684     23.51465    30.953716    68.976436    134.44209    112.96241 
  275000    237.15477   -12724.311   -11503.471   -12724.311            0    1386.0391    46.811327    21.711389    21.858184   -9.2400498   -21.396183    2.9513423    22215.323    1567.8131    1019.4556    1570.8487   -386.23418    427.38595   -518.39615    46.811327    23.595825    30.729258     68.83627    134.12935    113.05389 
  275500    232.37569   -12770.846   -11574.609   -12770.846            0    1474.0677    47.140481    21.438252    21.908726   -9.2389546   -21.755889     2.863148    22141.167    574.84141    2080.6811    1766.6805   -695.88379    491.37738   -307.99686    47.140481    23.344313    31.008202    68.747767     134.5569    113.31394 
  276000    234.65759   -12694.978   -11486.994   -12694.978            0    2509.6713    47.250667    21.440637    21.845729   -9.2805779   -21.619023    2.8940085    22131.568    1777.1281    2946.7418    2805.1441    276.00882   -67.445496    454.50692    47.250667    23.363006     30.87059    68.640403    134.45199    113.40537 
  276500    231.45568   -12767.125   -11575.623   -12767.125            0    1930.8447    46.840121    21.671521    21.809456   -9.2607674   -21.582416    2.9426133    22138.706    2500.1287    1253.2275    2039.1777   -465.85508    26.962833    343.00082    46.840121    23.567279    30.823887    68.720131    134.44183     113.1382 
  277000    234.47383   -12690.664   -11483.626   -12690.664            0    1223.5166    46.611024    21.788034    21.892624   -9.1279629   -21.407313     2.905665     22233.33    1406.6838    1029.3521    1234.5139   -431.77087   -15.182133    728.52796    46.611024    23.622831     30.75716    69.140653    134.10781    112.73095 
  277500    228.05842   -12729.945   -11555.933   -12729.945            0    1428.5823     47.03564     21.53536    21.920275   -9.2549931   -21.566939    2.8984457    22203.692    1242.6542    612.62408    2430.4685    238.56559    -737.3355    165.04425     47.03564    23.439851    30.887413    68.782508    134.28626      113.256 
  278000    232.09544   -12715.521   -11520.726   -12715.521            0    1689.8712    47.190756    21.439242    21.945187   -9.2757288   -21.698156    2.9329639    22202.693    1183.2445    2174.5652    1711.8039   -425.98188    289.22449    19.183625    47.190756      23.3598    31.000057    68.606854    134.42213    113.39581 
  278500    240.16186   -12703.439    -11467.12   -12703.439            0     1449.484    46.902116    21.667415    21.838724   -9.2285381   -21.392805    2.7893742     22193.55    1809.5916    356.01206    2182.8483   -172.26528   -567.07014    861.63242    46.902116    23.550855    30.697924    69.103843    134.17731    113.07002 
  279000    246.03591    -12753.56   -11487.002    -12753.56            0    1466.5362    46.769971    21.699138    21.865917   -9.1398253   -21.614374    3.0019801     22191.02    1245.3135    1012.7547    2141.5403    492.52601    39.716464    624.76533    46.769971    23.545467     30.89193    68.828812     134.4011    112.84116 
  279500    233.63333   -12732.405   -11529.694   -12732.405            0    1734.4122    47.165585    21.531937    21.826461   -9.3668816     -21.4934    2.8452655     22166.22    1402.6142    1692.8459    2107.7766    383.16749   -605.40626    37.018856    47.165585    23.481115    30.764528    68.684436    134.31817    113.51013 
  280000    244.75032   -12693.635   -11433.695   -12693.635            0    2113.6555    47.115407    21.491285    21.869049   -9.0959178   -21.804243    2.8495514    22143.956    2678.6041    1618.7824    2043.5799   -444.07827   -97.132023    11.619631    47.115407    23.336903    31.012905     68.98278    134.67383     112.9399 
  280500    243.99066   -12707.618   -11451.589   -12707.618            0     1954.751    46.876692    21.614621    21.877632   -9.2919989   -21.473861    3.0237629    22166.897    2073.7456    1702.6964    2087.8111   -1237.1426     498.8742   -457.13143    46.876692    23.527284     30.80423     68.56163     134.1954    113.26259 
  281000    238.28492   -12759.432   -11532.775   -12759.432            0     1825.728    46.735394    21.563509     21.97204   -9.0989071   -21.492366    2.8232996    22142.963    1172.6657    3033.8212    1270.6973    442.62689    326.36105    119.58022    46.735394    23.404595    30.865245    69.207459    134.13322    112.87773 
  281500    237.03654   -12748.018   -11527.788   -12748.018            0    2374.5235     46.79126    21.449966     22.04612    -9.335794   -21.370035     3.087008    22127.051    2346.2883    3424.5063     1352.776    177.30363    241.77989   -609.90251     46.79126    23.393548    30.858377    68.401865     133.8299     113.5204 
  282000    240.82747   -12749.204   -11509.458   -12749.204            0    1965.3594    46.807555     21.54047    21.952579   -9.1153164   -21.490829     2.938484    22133.836    2604.3398    1505.6298    1786.1087   -323.57273   -228.35375    71.615683    46.807555    23.389759    30.861078    68.956619    134.13675     112.9367 
  282500    238.52163   -12738.697   -11510.821   -12738.697            0    2878.3277    46.734126    21.623994    21.840438   -9.2924488   -21.375322    2.8191316    22071.476    3972.7971    2274.8945    2387.2915    65.942776   -195.39877   -268.45957    46.734126    23.536072    30.689683    68.937489    134.14676    113.25458 
  283000    228.18008   -12687.001   -11512.362   -12687.001            0    2041.5934    47.094667    21.606666    21.809023   -9.1593859    -21.66183    3.0669542    22191.962    2061.3281    1142.3304    2921.1217   -388.28507   -286.28743    -179.8542    47.094667    23.467901    30.891335    68.586711    134.52551    112.97281 
  283500    232.66516   -12732.999   -11535.271   -12732.999            0    1492.3051    47.252228    21.513455    21.789281   -9.2796965    -21.64648    2.8003659    22150.084    783.71021    1536.3367    2156.8685   -181.50169   -147.59162    369.56376    47.252228    23.429501    30.841286     68.81617    134.57698    113.33265 
  284000    236.72237   -12696.611   -11477.998   -12696.611            0    1483.7688    46.939617    21.724815    21.765297   -9.2522565   -21.583291    2.9144375     22195.26    892.97292    1049.6073    2508.7263    192.25982   -27.276824    580.11392    46.939617    23.612959    30.790592    68.792554    134.50491    113.06839 
  284500    237.71361   -12702.801   -11479.085   -12702.801            0    2015.7936    46.788318    21.717848    21.810306   -9.1405147   -21.494319     2.948607    22162.358    1520.0921    1484.5936     3042.695   -168.75099    242.89075    447.62416    46.788318    23.562978    30.763444    68.937896    134.32254    112.82504 
  285000     238.7842   -12761.032   -11531.805   -12761.032            0    1763.1839    47.094675    21.440624    21.955605   -9.3156115     -21.5967    2.8525667    22169.436    2258.9314    2280.7938    749.82645    173.09816    272.23667     -348.764    47.094675    23.376932    30.929002    68.724878    134.28813    113.48418 
  285500    233.63424   -12734.628   -11531.912   -12734.628            0    1795.1978    46.942122    21.449784    22.014372   -9.1777822   -21.581066    2.9625236    22166.235     1316.312    3388.8559    680.42564   -321.64739    6.4712629   -665.54983    46.942122    23.330772    30.970172    68.773029    134.17354    113.16477 
  286000    234.77452   -12736.976    -11528.39   -12736.976            0     2787.811     46.46969    21.694394    21.945129   -9.1704852   -21.181322    2.9640692    22123.581    3471.3983    2311.4526    2580.5823    391.19433    20.461441    208.44547     46.46969    23.553015    30.643478    69.008848     133.7266    112.91437 
  286500     239.8589   -12709.075   -11474.316   -12709.075            0    2341.7259    46.701216    21.614638    21.949256   -9.1721252   -21.607726    2.8942976    22156.235    2022.6523    2916.9158    2085.6096   -227.42857    1011.1489    494.38859    46.701216    23.480214    30.936073    68.963273    134.30388    112.99384 
  287000    235.99206   -12720.194    -11505.34   -12720.194            0    1909.5125    47.158667     21.44638    21.919266   -9.3280969   -21.390498    2.9025474    22168.766    2480.7463     1740.871    1506.9202    733.56883    -1840.313   -450.44251    47.158667    23.387189    30.764141    68.663472    134.05162    113.50662 
  287500    241.74906   -12666.031   -11421.541   -12666.031            0    1460.4077    47.026015    21.471732    22.029009   -9.1193465   -21.817798    2.9228442    22243.351    1610.9907    1730.4439    1039.7885   -343.45276      -23.075   -12.779681    47.026015    23.328046    31.142199    68.883962    134.47406    113.01161 
  288000    224.02164   -12719.097   -11565.866   -12719.097            0    2009.2223    46.638047    21.668547    21.893829   -9.2383745   -21.227458    2.9692056    22125.438    3228.0086    795.64605    2004.0122   -546.10502   -98.373435    86.089518    46.638047    23.555753    30.639205    68.846787    133.85376    113.09095 
  288500    240.03643   -12701.735   -11466.062   -12701.735            0    2393.9223    46.661965    21.641464     21.92284   -9.0876861   -21.498738    2.9567328    22138.412    2638.4002    2123.5201    2419.8466   -75.539545   -30.095306   -992.44282    46.661965     23.47209    30.847186    69.009643    134.18227    112.77851 
  289000    242.12532   -12696.594   -11450.167   -12696.594            0    2382.9611    47.192913    21.421658     21.89311   -9.4142362   -21.598876    2.9258749    22132.849    2391.7419    2731.7358    2025.4055    200.49183   -106.31348   -189.20316    47.192913    23.399044    30.893049    68.407789    134.35885    113.72418 
  289500    232.41532   -12714.557   -11518.116   -12714.557            0    1902.2685    47.120217    21.527008    21.814202   -9.1965526   -21.594837    2.9268933    22127.395    875.31352     2302.423    2529.0689   -572.11642    95.344954    170.20221    47.120217    23.409157    30.834447     68.75047    134.45491    113.13266 
  290000    238.42575   -12698.506   -11471.124   -12698.506            0    3011.2535    46.747015    21.691363    21.780837   -9.1895198   -21.515605    2.8890851     22085.91    3500.5624    2141.7987    3391.3995   -796.18557     644.1258    305.08497    46.747015    23.557642    30.751796    68.934731    134.39922    112.95989 
  290500    235.31609    -12728.83   -11517.456    -12728.83            0    3407.1853    46.658353    21.581795    21.866689   -9.3367749   -21.501087    2.9729725    22019.123     4095.218    3138.4027    2987.9352    545.62035   -605.48185   -993.04839    46.658353    23.514873    30.810508    68.552616     134.2547    113.39441 
  291000    234.11124   -12682.678   -11477.506   -12682.678            0    2812.2983    46.970035    21.426853    21.947346   -9.0408109   -21.466025    2.8739883    22088.249     2329.615    4222.8422    1884.4377   -636.75085    -451.4083   -558.65272    46.970035    23.256102    30.834008    69.113553    134.12134    112.87675 
  291500    239.17437     -12692.8   -11461.564     -12692.8            0    1863.9315    47.014039    21.485603    21.986227   -9.3332737   -21.580306    3.0510902    22208.837    1790.0543    1747.5498    2054.1903    291.52485   -16.243252    94.089722    47.014039    23.425224    30.958245    68.399653    134.19302    113.47996 
  292000    229.11758   -12703.506   -11524.041   -12703.506            0    1437.2883    46.583323    21.672087    21.960652   -9.0917958   -21.366877    2.7318302    22170.548    1741.4077    1332.7814    1237.6758   -72.597806    308.95963  -0.22574407    46.583323    23.501917    30.761609    69.476058      133.995    112.75885 
  292500    235.05194   -12709.364   -11499.349   -12709.364            0    1487.4085    46.935448    21.660191    21.833441   -9.2270431   -21.521757    3.0310778    22196.548    1822.7784    995.77893    1643.6683   -157.28696   -472.09756   -170.54051    46.935448    23.543624    30.807022    68.634993    134.31472    113.07356 
  293000    231.15007   -12733.926   -11543.998   -12733.926            0    1611.9406    47.088733    21.544436    21.860935   -9.3351472   -21.681112    2.9465562    22177.923    1104.3741    1535.0724    2196.3753    392.45414   -251.56495   -4.5903132    47.088733    23.479943    30.929812     68.52425    134.50551    113.42696 
  293500     230.7452   -12693.511   -11505.668   -12693.511            0     1794.238     47.20216    21.473513    21.930069   -9.1562911   -21.546646    2.7178466    22228.235     1197.285    1413.1069    2772.3222   -168.31734    129.96977    1345.6936     47.20216    23.344152    30.863774    69.217136    134.27644    113.09337 
  294000    241.18471   -12726.029   -11484.444   -12726.029            0    1935.4759    46.867189    21.655545    21.840348   -9.2178786   -21.545098    3.0697927    22166.523    1775.6748    1933.4427    2097.3102   -1141.6956    499.69814   -424.53565    46.867189    23.535758    30.832056    68.574288    134.32992    113.05747 
  294500    233.02244   -12650.844   -11451.277   -12650.844            0    1670.0731    46.720838     21.69976    21.929879   -9.2420564   -21.471422    2.7312317     22233.19    2292.4483    800.83437    1916.9367    655.90869    325.38208    892.84088    46.720838     23.58591    30.812355    69.230557    134.17439    113.06944 
  295000    238.08812   -12680.559   -11454.915   -12680.559            0    1819.3471    47.146055    21.520945    21.868151   -9.2372172   -21.610542    3.0083576     22188.03    2336.9426    2166.0721    955.02655    9.7495495    57.878416    24.957195    47.146055    23.419591    30.891452    68.566965    134.39202    113.22997 
  295500    242.29756   -12756.214   -11508.901   -12756.214            0    1940.7857    47.166009    21.464771    21.878125   -9.2168691   -21.639508    2.9389004    22149.579    1201.0031    1969.5684    2651.7857   -186.52752    362.34216   -16.976923    47.166009    23.359946    30.912098    68.680766     134.4297    113.23845 
  296000    235.51962   -12678.409   -11465.987   -12678.409            0     2046.712    46.767449    21.681988    21.875613   -9.2286389   -21.508236    2.7891442    22182.118    2674.8263    1322.0528     2143.257    500.00758   -117.15759    326.99336    46.767449    23.564303    30.804642    69.098867     134.2839    113.05636 
  296500    233.98149   -12741.194    -11536.69   -12741.194            0    1889.5383     46.66324    21.756862    21.808031   -9.1649612   -21.347379    3.1977186    22140.508    2738.8642    1129.6873    1800.0633   -745.50102    380.57713   -558.34216     46.66324    23.608421    30.684299    68.523472    134.08384      112.843 
  297000    237.30343   -12733.558   -11511.954   -12733.558            0    1637.0712     47.01693    21.524719    21.903094   -9.1875455   -21.549206    2.8619591    22166.506    1476.0368    1629.7236    1805.4533   -335.86262     22.52577   -463.58291     47.01693    23.403515    30.859434    68.934812    134.29094    113.11458 
  297500    235.33451   -12687.466   -11475.997   -12687.466            0    2033.3417    47.073538    21.411021    21.984039   -9.3685334   -21.617474    2.8772022    22157.549    1759.1305    3032.7836    1308.1111    177.48731    26.846138   -283.74873    47.073538    23.370949    30.965973    68.594471     134.2751     113.6321 
  298000    226.10388   -12738.647   -11574.696   -12738.647            0    1604.0594    46.686804    21.656254    21.975726   -9.0722402    -21.40576    3.0865354    22218.806    2927.7236    685.02047     1199.434   -784.14237     -452.842    264.05958    46.686804    23.479754    30.832869    68.864201    133.96759    112.72979 
  298500    232.67186   -12689.753   -11491.991   -12689.753            0     2172.591    46.723992    21.643411    21.952284    -9.236308   -21.420868    2.8328978     22199.61    3389.2801     524.3883    2604.1047     14.27398   -35.324726    938.70777    46.723992    23.531822      30.8023     69.05029    134.06156    113.11033 
  299000    230.25227   -12704.957   -11519.651   -12704.957            0    1541.4741    47.090309    21.526319    21.934473   -9.3190585   -21.766148    3.0365059    22234.559    991.55685    1702.8508    1930.0146    485.61401    121.09056   -889.20955    47.090309    23.456924    31.050067    68.392782    134.50742    113.40849 
  299500    223.60743   -12704.854   -11553.754   -12704.854            0    2467.4111    47.091465    21.541506    21.807443   -9.1314505   -21.454473    2.8468027     22121.93    2937.7175    1920.8561    2543.6595    -35.32342    -208.4455    186.78094    47.091465    23.397006    30.723986    69.032239    134.29055     112.9721 
  300000    239.50956   -12664.001   -11431.039   -12664.001            0    1765.4598    46.924716     21.63024    21.933127    -9.359536   -21.665877    2.9990205    22261.968    1734.8946    1667.7668    1893.7179    241.48083    200.01835   -323.40307    46.924716    23.568373    30.975255    68.492166     134.3835    113.39843 
  300500    235.28583   -12725.489    -11514.27   -12725.489            0    1820.7773    46.691431    21.686593    21.872293   -9.0618583   -21.300556    2.8776257    22147.404     1745.716    1460.9342    2255.6816   -307.36025    159.17595    392.05395    46.691431    23.503736    30.665805    69.244104    133.99558    112.67787 
  301000    239.13114   -12719.452   -11488.439   -12719.452            0    2392.1551    47.061862    21.479675    21.895015   -9.2270489   -21.509865    2.9134643     22133.09    2391.3831    2287.4545    2497.6279   -63.499647   -661.74832   -297.15816    47.061862    23.377657     30.83106    68.765118    134.24026    113.24697 
  301500    229.90648   -12724.841   -11541.315   -12724.841            0    2835.6678    46.893887    21.524298    21.897565   -9.3099885   -21.781932    3.0740788    22102.483    1891.5923    3749.0678    2866.3432    279.79821    765.21131    128.04094    46.893887    23.451467     31.03878     68.31555    134.56879    113.39012 
  302000    231.44633   -12710.416   -11518.963   -12710.416            0    1946.9889    46.742098    21.603552    21.928449   -9.0905523   -21.112671    2.7789896    22143.246    2372.5048    2175.9253    1292.5366   -64.915419   -972.55108   -25.242321    46.742098    23.438251    30.566723    69.409245    133.68616    112.82086 
  302500    227.33653   -12733.389   -11563.092   -12733.389            0    1709.3848    46.806112    21.565714    21.938673    -9.221439   -21.627423    2.9859142    22145.055    1627.2661    1539.3708    1961.5176    608.98161   -260.78507    281.11064    46.806112    23.454529    30.951034    68.688984    134.32781    113.15142 
  303000    237.54641   -12733.151   -11510.295   -12733.151            0    975.96226    46.924527    21.494638    22.021471   -9.3616259   -21.482799      2.85999    22211.421    1897.0209     227.0349    803.83099   -317.86147   -231.41787    611.43849    46.924527    23.444818    30.897174    68.746096    134.05111    113.53472 
  303500    236.21994   -12677.961   -11461.934   -12677.961            0    1413.1532    46.985043    21.577541      21.9088   -9.0267234   -21.439844    2.9529659    22211.617      1676.36    1716.5078    846.59191    89.656034   -1041.0188   -161.41252    46.985043    23.389571    30.795818    69.075258    134.12239    112.70145 
  304000    234.85521   -12728.109   -11519.107   -12728.109            0    2601.0636    46.829253    21.501465    21.881233   -9.3843377    -21.63037    2.9274435     22032.16    2411.5158     3684.643     1707.032    567.22978    374.94183   -511.24459    46.829253    23.460153    30.906815    68.483962    134.41558    113.57892 
  304500    229.89484   -12712.521   -11529.055   -12712.521            0    2562.7518      46.6722    21.573871    21.933328   -9.0754044   -21.364905       2.7589    22084.668    2671.7279    3473.2845     1543.243   -417.28341    492.46634    479.20584      46.6722    23.405018    30.743155    69.378755     134.0231    112.81486 
  305000    246.29326   -12715.389   -11447.506   -12715.389            0    2148.4258    46.981345    21.521136    21.909423   -9.3162377   -21.568935     3.209116    22152.441    1793.3384    2459.1377    2192.8012   -16.803918    81.457912   -827.84075    46.981345    23.451047    30.911814    68.132287    134.24733     113.4072 
  305500    233.16876   -12676.665   -11476.345   -12676.665            0    2579.2386    46.790921    21.502482    21.994836   -9.1720433   -21.508749    2.7617745    22129.464     2821.503    3304.5609    1611.6518    196.65015   -489.68893    27.926288    46.790921    23.376978    30.887319    69.178062    134.13583    113.10103 
  306000    235.25601   -12725.756   -11514.691   -12725.756            0    2914.4517    46.742239    21.575605    21.907087   -9.1641018   -21.312324     3.002516    22093.124    3817.7902    2267.9834    2657.5815   -318.81739   -1107.3516   -103.51674    46.742239     23.44115    30.710759    68.820699    133.94514    113.01305 
  306500    232.57616   -12734.591   -11537.322   -12734.591            0    2531.6805    46.876177    21.552197     21.85329   -9.2588632   -21.609386    3.0439962    22078.043    2544.7708    3126.0559    1924.2149   -435.53291    343.49874   -302.66536    46.876177    23.456848    30.883617    68.484883    134.40325    113.24845 
  307000    234.45463     -12698.4   -11491.461     -12698.4            0    2447.4136    47.014988    21.524737    21.846879   -9.1812732   -21.509384    2.6193594    22108.719    2226.8156    2041.8183    3073.6069   -38.487263   -98.816723     599.2919    47.014988     23.40107    30.770128    69.355824     134.3496    113.10044 
  307500      230.376    -12712.56   -11526.617    -12712.56            0    1744.2883    46.992964    21.589629    21.861928   -9.2505371   -21.561738    3.1427996    22180.253     1618.109    1149.7625    2464.9935   -168.13238   -204.58871   -75.407664    46.992964    23.487966    30.866319    68.363955    134.31097    113.19374 
  308000    235.54832   -12734.554   -11521.985   -12734.554            0    2675.0751    46.802454    21.574343    21.917739   -9.1532996   -21.486036    2.8416353    22131.046    2521.7566    2592.1064    2911.3624   -139.91202    1010.4047    964.05701    46.802454    23.435767    30.823885    69.076765    134.19144    112.98995 
  308500    236.64715   -12702.588   -11484.362   -12702.588            0     1478.815    46.820303    21.594678    21.977919   -9.2878252   -21.512717     2.798671    22221.201    2149.2726    928.92213    1358.2503    242.54162   -1105.6923   -10.090745    46.820303    23.507314    30.881361      68.9924    134.15682    113.27244 
  309000    233.76562    -12718.42   -11515.028    -12718.42            0    2741.1754    46.941158    21.558888    21.860472   -9.1234358   -21.562729    3.1357681    22122.779    2212.8664    3594.0104    2416.6493      -540.74    219.23579   -812.59881    46.941158    23.409885    30.865265    68.541453    134.31545    112.93744 
  309500      235.943   -12715.763   -11501.161   -12715.763            0    2467.7399    46.895665    21.559219    21.892433   -9.2711265   -21.477181    2.7117436    22133.992    2403.6725    2573.6319    2425.9154    753.99885   -608.12124     486.1854    46.895665    23.468143    30.788008    69.114922    134.23338    113.26919 
  310000    239.30726   -12710.315   -11478.395   -12710.315            0    2535.4055     47.00082    21.546056    21.873047   -9.3072485   -21.735449    2.9321047    22150.448    2676.5832     1679.408    3250.2254   -108.73651   -770.41982    483.31208     47.00082    23.470352    30.975106    68.582365    134.56412    113.36289 
  310500    247.11966    -12692.07   -11419.933    -12692.07            0    2239.6565    46.977988    21.594547     21.84004    -9.157989   -21.412783    3.0322023    22156.029    2602.0386    2108.2375    2008.6935   -129.78732   -565.78806   -98.846548    46.977988    23.456198    30.735791    68.726186    134.16065    112.98122 
  311000    234.52317    -12711.69   -11504.398    -12711.69            0    3049.8881    46.756925     21.56649    21.836411   -9.3226528   -21.600698    2.7623488     22019.46    3253.4223    2825.8569    3070.3851    287.03714   -141.90008    825.09447    46.756925    23.495219    30.839092     68.89096     134.4617    113.37762 
  311500      235.672   -12725.011   -11511.804   -12725.011            0    2582.5981    46.769463    21.605335    21.856763   -9.1833284   -21.468813    2.9939178    22085.601    2806.9368    2610.2016     2330.656   -432.96181   -784.66413    284.55671    46.769463    23.476031    30.782975    68.756845    134.22077    113.02788 
  312000    237.18412   -12730.722   -11509.731   -12730.722            0    2197.7101    46.869339    21.560221    21.897298   -9.1332944   -21.385792    2.8831437    22127.511    2178.5519    2351.7974     2062.781   -242.65769   -302.48722    443.87104    46.869339    23.414957    30.743394    69.041693    134.07683    112.95838 
  312500    243.83626   -12735.924    -11480.69   -12735.924            0    2607.4574    46.963792    21.417898    21.937916   -9.4367934   -21.767404     2.947578    22066.597    1985.8732    2902.6356    2933.8635    967.60055    590.33682    234.72235    46.963792    23.404688     31.04481    68.309369    134.52021    113.77844 
  313000    237.60614   -12730.201   -11507.038   -12730.201            0    2576.3501    46.873839      21.5656    21.870822   -9.0963725   -21.346331    2.8219272    22108.393    2689.8838    2577.4142    2461.7522       194.73    20.796639    329.53036    46.873839    23.405535    30.691399    69.205108    134.06828    112.87002 
  313500    234.42386   -12714.371   -11507.591   -12714.371            0    3077.8746    46.638625    21.577308    21.878292   -9.1850184   -21.555547     2.992597    22016.913    2913.3826     3586.274    2733.9672   -328.25248   -311.70755   -837.52404    46.638625    23.450902     30.85866    68.726455    134.30879    113.05846 
  314000    230.25651   -12661.793   -11476.465   -12661.793            0    2269.4561    46.963714    21.518142    21.923912   -9.3674026   -21.455251    2.8497332    22155.688    2029.5657    2846.9969    1931.8058    261.88748    170.81637    82.618975    46.963714    23.468674    30.807576     68.72844     134.1411    113.52474 
  314500    238.75805   -12674.899   -11445.806   -12674.899            0    1262.3795    47.109122    21.471053    21.960884   -8.9534117     -21.7502    2.9504332    22213.049    917.45321    1659.9143     1209.771   -1380.0296    314.13206   -24.172165    47.109122    23.263054    31.049262    69.064732    134.46763     112.6361 
  315000    231.52191   -12695.246   -11503.403   -12695.246            0    1210.1135    46.962626    21.630726    21.914819   -9.4421092    -21.51154    2.9080955    22261.855    1922.3649    707.07678    1000.8988     28.82915    125.32259     372.7655    46.962626    23.601732    30.845788    68.567612    134.21797    113.58193 
  315500    234.39229   -12732.164   -11525.546   -12732.164            0    1470.2387    46.832168    21.677651    21.897273   -9.0771565   -21.536158    2.8779273    22230.361    2023.3959    954.78942    1432.5308   -246.05008   -332.46253   -160.08734    46.832168     23.50139    30.847676     69.16328    134.27838    112.72069 
  316000    233.95892   -12682.604   -11478.217   -12682.604            0    1380.8009    47.077372    21.555569    21.932785   -9.4990595   -21.483315    3.0867366    22256.941    1153.3573    1977.5215    1011.5238    910.61477   -1007.6209   -308.07307    47.077372    23.555778    30.856245    68.142121    134.12602    113.78202 
  316500    237.09367   -12711.421   -11490.896   -12711.421            0     2049.116    46.967121    21.498167    21.934804   -9.1537706   -21.709235    2.7432613    22147.725    2200.4575    1415.6723    2531.2184    344.27906    1.5002038    1322.6117    46.967121    23.365845    30.983092    69.147658    134.48159    113.06397 
  317000    229.09805   -12725.012   -11545.647   -12725.012            0    2225.2144    46.935812     21.62639    21.778898   -9.1987511   -21.385886    3.0975433    22106.718    2265.5479    2595.6197    1814.4756   -973.76579    -211.2961   -1272.3446    46.935812    23.501442    30.680145    68.546573    134.19156     113.0424 
  317500    232.22195   -12770.854   -11575.408   -12770.854            0    2531.2547    46.678818    21.639531    21.831517   -9.3191401   -21.595045    2.8697252    22052.184    2250.6028    2749.9868    2593.1744    1148.1365    702.79211    918.38316    46.678818    23.560893    30.841473    68.751675    134.44265     113.2993 
  318000    238.58163    -12712.57   -11484.386    -12712.57            0    2795.2653    46.931173     21.52589    21.918604   -9.1310339   -21.492713    2.8173361    22142.946    2469.9174    2473.5898    3442.2888    137.67713    144.85826    302.42507    46.931173    23.382466    30.826924    69.120741    134.20326     112.9861 
  318500    243.52917   -12737.728   -11484.074   -12737.728            0    2108.6045    47.116367    21.535295     21.86058   -9.3680481   -21.516888    3.2624374    22181.162    1870.6605    2493.9889    1961.1641    574.63438   -701.29857   -1110.8767    47.116367     23.48466    30.846473    67.961038    134.23059    113.50948 
  319000    230.82589   -12688.581   -11500.322   -12688.581            0    1493.5599    46.808354    21.599378    21.954988   -9.1806494   -21.590235    2.7279643    22197.181    1365.8782    1578.4906     1536.311    359.08124    577.45694    121.70327    46.808354      23.4695    30.912806    69.242087    134.30067    113.02755 
  319500    236.43355   -12707.985   -11490.858   -12707.985            0     2054.378    46.866417    21.616271    21.891233   -9.2955213    -21.39515    2.8986614    22177.509    1030.7639    3122.7356    2009.6344    444.90927    370.16436    246.79803    46.866417    23.530191    30.747045    68.807832    134.09452    113.26888 
  320000    236.34855   -12699.765   -11483.076   -12699.765            0    1375.9301    47.123177    21.551701    21.853999   -9.0082904   -21.684459    2.9668762    22194.586    1124.1019    1179.3184    1824.3698   -578.84724    186.93002    10.759751    47.123177     23.35862      30.9292    68.968277    134.51532     112.6842 
  320500    235.83399   -12742.783   -11528.742   -12742.783            0    2223.6928    47.073084    21.504228    21.874484   -9.3624402    -21.51587    2.7937041    22142.891    1154.4294    3218.9672    2297.6818      757.901   -21.570032    -141.0763    47.073084    23.453935    30.809585     68.78253    134.29477    113.52719 
  321000    232.35342   -12725.719   -11529.596   -12725.719            0    2022.3604    47.039294    21.562283     21.84166   -9.1244979   -21.739992     3.022963     22153.44    1916.4425    2153.2005    1997.4382   -548.22408   -137.42103   -165.54489    47.039294    23.413426    30.964878    68.683579    134.59457    112.93659 
  321500    233.73952    -12743.25   -11539.992    -12743.25            0    1520.6915    46.713667    21.756678     21.80901   -9.2664653   -21.209926    2.8284912    22165.243    1572.4671    962.07307    2027.5344    231.05514   -276.55671     617.8027    46.713667    23.647841    30.553138    69.071918    133.96334    113.06982 
  322000    242.96635   -12774.576   -11523.819   -12774.576            0    1800.1496    46.932367    21.565573    21.892255   -9.2864738   -21.697212    2.8690759    22157.663    1899.5254    1238.6828    2262.2404   -213.74595    541.91504    651.67533    46.932367    23.480045    30.955959    68.756197    134.49972    113.29747 
  322500    241.94038   -12737.397   -11491.922   -12737.397            0    2306.8994    47.063755    21.509261     21.86437   -9.0839874   -21.277239    3.0451432    22133.446    1771.8004    3903.8993    1244.9986   -727.87021   -610.53807   -794.64743    47.063755    23.348815    30.660145    68.808424    133.94524    112.89575 
  323000    237.43686   -12712.342    -11490.05   -12712.342            0    1975.6578    46.839794    21.566662    21.910919   -9.2468846   -21.671319    2.8682772    22133.928    2590.9526    1405.1659    1930.8549    341.99695    50.644047    213.86255    46.839794    23.465417    30.950953    68.832849    134.44166    113.20763 
  323500    235.54439   -12704.423   -11491.873   -12704.423            0     1897.709    46.866695    21.613231    21.915715   -9.3076858   -21.544011    2.9014704     22199.32    1920.8859    2168.2893    1603.9518    510.67491   -578.14505   -291.66706    46.866695    23.532207    30.868455     68.75347    134.26114    113.29901 
  324000    230.32888   -12717.903   -11532.202   -12717.903            0    926.46243    47.179001    21.636863    21.799464   -9.0550079   -21.510464    2.9923417    22253.014    433.75563    783.76047    1561.8712    -174.1008     147.8578   -271.47178    47.179001    23.455213    30.771266    68.925878    134.35034    112.70927 
  324500        235.8   -12757.683   -11543.818   -12757.683            0    1347.2847    46.961265     21.57043     21.90399   -9.4019883   -21.701926    2.7940687    22188.187    1022.8889    1368.3295    1650.6356    752.30652   -41.415883    635.74551    46.961265    23.530424    30.960704    68.727408    134.50333    113.55113 
  325000    236.34988   -12698.071   -11481.375   -12698.071            0    2096.9069    46.901015    21.555385    21.892991   -9.1817632   -21.458917    2.8906841    22133.145    1981.7568    1850.5615    2458.4025   -287.63378     50.89197    336.08118    46.901015    23.429456    30.791951    68.931928    134.17883    113.07214 
  325500    229.68519   -12730.369   -11547.982   -12730.369            0    2489.9627    46.574868    21.579775    21.991577   -9.2666177    -21.46518    3.1624333    22103.187    3165.6906     2430.747    1873.4505    96.755281   -97.441061   -1487.6386    46.574868    23.485248    30.893112    68.394231    134.01295    113.23927 
  326000    239.83311   -12754.314   -11519.687   -12754.314            0     2319.972    46.766389     21.52315    21.951237   -9.1796133   -21.391142    2.7363591    22095.237     3026.309    2045.3247    1888.2822   -42.924571     -781.636    745.79172    46.766389    23.398959    30.772154    69.236806    134.03886    113.09822 
  326500    229.83528   -12681.316   -11498.156   -12681.316            0    2847.0161    47.041832     21.60448    21.743906   -9.1980265   -21.615308    3.1266662    22098.643    2908.1605    2624.4107    3008.4771    459.88671      133.637   -500.36722    47.041832    23.480997    30.818745    68.402295    134.53693     113.0617 
  327000    233.59582   -12651.024   -11448.506   -12651.024            0    2456.7555    47.104031     21.54452    21.799955   -9.3900614   -21.673016    2.8068534    22123.329    1120.1766    3105.7379    3144.3518   -288.12744    184.38225    349.14001    47.104031    23.501906    30.868043    68.661018     134.5972    113.54972 
  327500    232.48119   -12746.408   -11549.627   -12746.408            0    1315.7588    47.001405    21.539899    21.887304   -9.1942698   -21.622475    2.8592959    22158.827    1408.7032     873.1861    1665.3869    121.08389    199.84803    256.45482    47.001405    23.420116    30.899208    68.910571    134.40891    113.11513 
  328000    225.30879   -12639.384   -11479.526   -12639.384            0    1481.5948    46.937209    21.617875    21.921261   -9.2634176   -21.421936    3.1709971    22243.124    1373.3733    1744.3761    1327.0351    64.600348   -1062.8743   -1066.9185    46.937209    23.519001    30.813897    68.382461    134.04345    113.19549 
  328500    234.98133   -12758.907   -11549.256   -12758.907            0    1217.7691    46.673277    21.589619    22.057072   -9.1956253   -21.502797    2.6510164    22225.992    2323.5929     1548.676   -218.96159     97.00913   -100.23823    138.44651    46.673277    23.466384    30.917837    69.425772    134.06563    113.07052 
  329000    231.60329    -12693.19   -11500.929    -12693.19            0    1409.9845    46.878348    21.573268     21.99369   -9.2471538   -21.495769    3.0203408    22242.641    1748.4225    1844.3215    637.20944   -114.41353   -514.47652   -861.56942    46.878348    23.471594    30.901666    68.660734    134.07652    113.20188 
  329500    228.65634   -12729.071    -11551.98   -12729.071            0    845.76462     47.05416    21.509872    21.992321   -9.2037835   -21.551206    3.0891302    22259.065    754.43755    1622.0039    160.85242    2.2956368    602.35483    -834.0115     47.05416    23.396244    30.946072    68.547236    134.13982    113.16543 
  330000    247.89699   -12702.484   -11426.346   -12702.484            0    1306.6041    46.898067    21.633838     21.91444   -9.2788101   -21.552826     2.671589    22234.066    1603.7359     524.2813    1791.7953    129.28468    121.88939    615.97768    46.898067    23.539738    30.852948    69.210323    134.31208    113.21462 
  330500    235.69731   -12730.663   -11517.327   -12730.663            0    1735.8852    46.853523    21.705233    21.840165   -9.2582343   -21.545675     3.178431     22210.72    1338.4573    2465.0485    1404.1498     554.7472    59.414318   -1297.7188    46.853523    23.597289    30.843336    68.354661    134.31095    113.10038 
  331000    228.09479   -12752.116   -11577.916   -12752.116            0    2206.6425    46.904986    21.521159    21.911302   -9.1295099   -21.450859    2.8569981    22118.356    2208.2597    2352.3365    2059.3312   -100.32922     60.19471    257.34063    46.904986    23.377515    30.796216     69.05807    134.15022    112.98719 
  331500    235.85493   -12699.999   -11485.851   -12699.999            0    2624.4204    47.102371     21.43286    21.889647   -9.3644122   -21.697671      2.79198    22098.442    2214.1689    3442.6799    2216.4123   -526.02559     -2.18023   -381.34929    47.102371    23.389308    30.947387    68.692266    134.51651     113.6014 
  332000    231.99655   -12701.928   -11507.643   -12701.928            0    1770.3597    46.972786    21.632865    21.804907   -9.1749183   -21.568676    3.1061928    22157.186    1549.5843    1799.2392    1962.2558   -599.31392    137.84813   -416.31845    46.972786    23.498085    30.827102    68.533888    134.40022    112.98274 
  332500    235.51116   -12704.567   -11492.188   -12704.567            0    2578.4779    46.693792    21.625429    21.893982   -9.2279131   -21.398997     2.609811    22107.958    2795.1428    2324.4284    2615.8626    302.37921   -11.562423    19.249165    46.693792    23.511987    30.725798    69.423102    134.14292    113.10871 
  333000    240.69063   -12706.383   -11467.342   -12706.383            0     2599.058    46.845109    21.521936    21.947384   -9.2735292   -21.635256    3.0687203    22127.296    2617.4475    2762.8962    2416.8302    580.70638   -100.20966   -1159.8233    46.845109    23.434847    30.970777    68.442712    134.31239     113.3106 
  333500    236.88667   -12672.227   -11452.768   -12672.227            0    2864.4127     46.96907    21.494065    21.875749   -9.1469019   -21.340858    2.9125771    22084.799    2331.2718    3490.7047    2771.2614   -219.76306   -383.42543   -345.12848     46.96907    23.359381    30.699572    68.930495     134.0393    113.05241 
  334000    235.70149   -12680.334   -11466.976   -12680.334            0    2967.6858    46.702454    21.519128    21.957834   -9.2669254   -21.663003    2.8561701    22067.538    3739.5203     3226.529    1937.0081    638.09905    93.891042    556.00393    46.702454    23.429656    30.977248    68.821203    134.37246    113.29848 
  334500    237.57594   -12743.358   -11520.351   -12743.358            0    3162.8925    46.545539    21.614148    21.898945   -9.1814457   -21.129121    2.9837327    22031.262    3544.4695    3449.0303    2495.1778   -209.32564    312.00288   -601.72485    46.545539    23.483406    30.576236    68.900281    133.71176    113.01524 
  335000    230.95159   -12760.536    -11571.63   -12760.536            0    2286.8441    46.912377    21.510008    21.922984   -9.1578528    -21.56262    2.9474096    22122.167    2490.8377    2235.1955     2134.499   -581.51696   -117.83199    363.88274    46.912377    23.378338    30.890954    68.824814    134.26867    113.06181 
  335500    247.61017   -12699.238   -11424.576   -12699.238            0    1952.2594    47.101269    21.416689    22.003823   -9.4289779   -21.641853    2.8649898    22196.427    1345.2913    2794.9806    1716.5064    238.03733    221.05137    190.24709    47.101269    23.400431    30.995906    68.534859    134.28409    113.76212 
  336000      235.307    -12706.96   -11495.633    -12706.96            0    1743.4315    46.807432    21.712693    21.844474   -9.0173996   -21.409899    2.9535425    22200.875    1534.4916    1589.7459     2106.057   -251.79813   -234.70516   -50.558806    46.807432    23.510732    30.729273    69.145894    134.16496    112.55338 
  336500    232.55297    -12686.72    -11489.57    -12686.72            0    1745.1518    46.943811    21.704194    21.816377   -9.4081257   -21.604465    2.9303814    22228.217    2037.5426    830.59571    2367.3171     442.7025    35.839165    248.00806    46.943811    23.655546     30.84306    68.545879    134.46427     113.4353 
  337000    232.41555   -12669.569   -11473.126   -12669.569            0    1279.3017    47.284952    21.582557     21.81406   -9.1244629   -21.715546    2.7834348    22261.907    516.37805    1471.6686    1849.8584   -959.71119     97.63003    888.14269    47.284952    23.432085    30.905754    69.110876    134.63901    112.91719 
  337500    232.19829   -12669.213   -11473.889   -12669.213            0    2045.2439    47.065188    21.525775    21.901577   -9.2650989   -21.578063     2.983125    22188.809    1849.6554    2241.5597    2044.5165    414.89591   -367.75854    58.665806    47.065188    23.435039    30.889981    68.600019    134.31044    113.28795 
  338000    228.69112   -12774.909   -11597.639   -12774.909            0    2289.2506    46.670107    21.614873    21.906478   -9.2688059    -21.51878    2.8233017    22098.563     2685.286    1883.5931    2298.8728    194.56489    218.99086    82.355271    46.670107    23.518365    30.837034    68.951152    134.25257    113.21043 
  338500    233.24132   -12719.873   -11519.179   -12719.873            0    2301.5678      46.7056    21.646744    21.876379   -9.0494256   -21.223479    3.0081655    22117.548    3001.1955    1555.1167    2348.3913   -445.79584   -150.33813    -673.9752      46.7056    23.462174    30.627783    69.029369    133.86397    112.68738 
  339000    244.68417   -12706.233   -11446.634   -12706.233            0    1992.9725    47.022225    21.456111    21.947093   -9.2761585    -21.66793    2.9809883    22142.731    1445.8932    2767.3745    1765.6497     643.5256    481.64047   -677.11955    47.022225    23.375453    30.984841    68.542137    134.37147    113.38036 
  339500    234.09171   -12727.031    -11521.96   -12727.031            0    1566.8717    46.939883    21.539898    21.866768   -9.2494833   -21.458979    2.7297961    22109.059    1323.7213    1872.6421    1504.2517   -234.22792   -216.20594    88.851323    46.939883    23.441846     30.75866     69.09475    134.23929    113.23925 
  340000    235.58483   -12697.764   -11485.007   -12697.764            0    1826.3342    46.813164    21.726826    21.768201   -9.2171535   -21.541529    3.0965619    22140.469    1686.0634    1239.0147    2553.9246    94.066296    524.88943   -120.52461    46.813164    23.601078    30.781176    68.535743    134.41321    112.98807 
  340500    229.49931   -12683.381   -11501.951   -12683.381            0    1971.6187    47.012548    21.624515     21.79383   -9.1999142   -21.543111    2.7812922     22156.12    1749.8005    1477.6293    2687.4263     314.1292   -386.03196    164.08545    47.012548    23.500171    30.770314    69.067861    134.43715     113.0468 
  341000    238.50654   -12752.975   -11525.177   -12752.975            0    1717.1402      47.2676    21.405719    21.895514   -9.3384684   -21.688843    2.8744817    22153.815    1156.1652    2337.0527    1658.2027    316.45909    602.42877    438.84058      47.2676    23.354054    30.952901    68.573577    134.48357    113.56974 
  341500    235.24066   -12734.995   -11524.009   -12734.995            0    1925.3681    46.938554    21.607391    21.885499   -9.2209168   -21.597265    3.0497391    22196.704    1097.1586    2379.6066    2299.3392    273.44531    685.68305    272.21762    46.938554    23.492651    30.898509    68.584413    134.34478    113.11028 
  342000    236.65932   -12736.334   -11518.046   -12736.334            0    2114.6043    46.563872    21.662891    21.912264   -9.1594557   -21.347469    2.7503418    22103.077    2051.4316    2812.1758    1480.2056   -169.52407    167.58902    31.037934    46.563872    23.519704    30.715242    69.320637    134.02819    112.91951 
  342500    239.75686   -12753.593   -11519.359   -12753.593            0    2078.3875    46.884417    21.546386    21.936915   -9.2781151   -21.574214      3.00555    22160.447    2730.0291    2141.3142    1363.8191    49.333267    190.91262   -456.24602    46.884417    23.459117    30.914532    68.573858    134.25608    113.29725 
  343000    231.02881   -12729.084   -11539.781   -12729.084            0    2785.4782    47.182917    21.344746     21.98317   -9.0429237   -21.474861    2.8069231    22139.413    1792.1566    4059.8906    2504.3876    -191.6107   -71.003892    240.05339    47.182917    23.181299    30.859492    69.193303    134.09831    112.96045 
  343500    239.10568   -12736.898   -11506.016   -12736.898            0    2327.1712    46.918874    21.568601    21.878505   -9.3464007   -21.644565    2.9234336    22140.489    2471.5445    3204.7766    1305.1923    101.64917    803.94783    20.002902    46.918874     23.50659    30.914441    68.583086    134.43857    113.42871 
  344000    226.96869   -12727.789   -11559.387   -12727.789            0    1842.8526    46.738195    21.771014    21.761304   -9.1767573   -21.452744    3.0279518    22142.952    1192.5686    1659.7795    2676.2098    413.81551    896.57284   -310.43727    46.738195    23.626044    30.707378    68.763418    134.31628    112.85604 
  344500    238.32175   -12741.068   -11514.221   -12741.068            0    2157.3761    46.840871    21.586886    21.877425   -9.2410072   -21.518859    2.8238064    22121.326    2889.8331    2028.5829    1553.7122    187.93781    661.14005   -34.771306    46.840871    23.481692    30.816504     68.95847    134.28998    113.17501 
  345000    240.01113   -12723.337   -11487.794   -12723.337            0    3347.6062    47.183069    21.300122    21.880451   -9.3816299    -21.65802    3.0510276    21989.966    2603.0015    4742.8831    2696.9341    748.46498   -386.50334   -618.80559    47.183069    23.274668    30.937562    68.134244    134.43148    113.77107 
  345500    236.15569    -12737.78   -11522.084    -12737.78            0    2842.5186    46.846301    21.511122    21.874467   -9.1457325   -21.469131    2.8860227    22043.262    2675.5136    2787.0118    3065.0305   -583.45237   -18.941146   -141.64797    46.846301    23.374619    30.785468    68.952961    134.21708     113.0334 
  346000    233.01244    -12743.37   -11543.855    -12743.37            0    2942.0187    46.713528    21.619666    21.821595   -9.2617795   -21.467739    2.9248999    22038.302    3295.9712    2495.1224    3034.9624   -440.14166    1175.8364   -63.597606    46.713528    23.520003    30.750624    68.755967    134.27666     113.1901 
  346500    235.05064   -12698.581   -11488.573   -12698.581            0    1842.2957    46.886949    21.654406    21.817939   -9.1872494   -21.621386    2.9722733    22151.951    1469.6683    1504.6042    2552.6144   -139.19341    607.82884    129.91938    46.886949    23.522731    30.860026    68.757984    134.47738    112.98991 
  347000     239.4523   -12714.086    -11481.42   -12714.086            0    1340.9848    47.217814    21.453228    21.950405   -9.3109719   -21.534466    2.7697347    22235.201     5.654363    2869.2369    1148.0631     391.7891   -608.97226    543.53703    47.217814    23.386646    30.874341    68.900694    134.22577    113.46145 
  347500    236.22036   -12715.162   -11499.133   -12715.162            0    1078.0022    47.097219    21.512051    21.967962   -9.2378689   -21.714897     2.939321    22257.011    582.00468    1189.3362    1462.6658    525.90955    265.33254    741.14343    47.097219    23.411675    31.028498    68.703901    134.41394    113.24002 
  348000    229.94334   -12767.274   -11583.559   -12767.274            0     2277.423    46.797373    21.614359     21.85721   -9.2368724   -21.363454    2.9655541    22108.463    2042.1865    2005.9361    2784.1464   -435.04092   -612.78505    23.876972    46.797373    23.505325    30.707154     68.76457    134.08429    113.13939 
  348500    228.78626    -12720.07   -11542.311    -12720.07            0    2168.1709     46.57565    21.761919     21.83483   -9.0919857   -21.598508    2.7983147    22131.248    1972.5514    1432.2945    3099.6667    599.01092   -358.77464    1073.1454     46.57565    23.584853     30.83968    69.285656    134.45493    112.67485 
  349000    231.10576    -12748.15    -11558.45    -12748.15            0    1799.1243    47.123828    21.569879    21.819975   -9.3486855   -21.586075    2.9350553    22179.029    1417.2399    1469.5679    2510.5651  -0.80627472    179.44405    529.42784    47.123828    23.508671    30.833172    68.546469    134.43443    113.43258 
  349500    234.09036   -12693.146   -11488.081   -12693.146            0    1518.3927     47.32515    21.519886    21.830012   -9.1889398   -21.698653    2.9670972    22232.379    336.51875    2155.0957    2063.5636   -146.97985   -141.59681   -111.41437     47.32515    23.399618    30.922235    68.665824    134.56491    113.12237 
  350000    233.06275   -12722.881   -11523.107   -12722.881            0    903.30774    46.979719    21.649262    21.889481   -9.3525368   -21.618457    2.8223236    22263.272    544.72869    1027.7023    1137.4922    648.49662    520.47659    46.067111    46.979719    23.583055    30.894539    68.815735    134.40696    113.36447 
  350500    244.96277   -12699.563   -11438.529   -12699.563            0    1269.2292    46.842987    21.660056    21.946019   -9.1531032   -21.536017    2.9856071    22266.908    1665.4276    1374.7095    767.55054    606.14352    20.127438    -408.5169    46.842987    23.514619     30.89242    68.876355    134.19715    112.90794 
  351000    233.46173   -12732.582   -11530.754   -12732.582            0    1791.2566    46.731243    21.570017    22.001328   -9.0802048    -21.34879    2.9100362    22177.201    2474.0202     2242.439     657.3105    -781.6495   -31.080087   -157.32708    46.731243    23.403328    30.794441    69.140626    133.88933    112.82935 
  351500    240.80991   -12679.364   -11439.708   -12679.364            0    2096.1212    46.975481    21.382919    22.084176   -9.3258535   -21.635297    3.0054087    22182.957    2903.6152    2034.4228    1350.3255   -940.96536    188.72853    26.516645    46.975481    23.328111    31.061703    68.460795    134.14898    113.56373 
  352000    233.89645    -12730.62   -11526.554    -12730.62            0    1678.5616    46.939333    21.582001    21.936832   -9.1320289   -21.402445    2.9222008    22222.992    1839.0663    1909.7217    1286.8967   -254.40545   -275.14761   -129.67434    46.939333     23.43452    30.786823    69.003285    134.04172    112.93476 
  352500    228.91018   -12723.945   -11545.547   -12723.945            0    1232.9348    46.855388    21.726716    21.831876   -9.3234976   -21.664812     2.948999    22225.149    1726.0819    872.28587    1100.4366    -22.24822    401.39726   -273.98316    46.855388    23.642711    30.898082    68.640756    134.52096    113.22543 
  353000    233.20681   -12762.395   -11561.879   -12762.395            0    1124.1873    47.112315    21.595218    21.841876   -9.2175769   -21.608604     2.837508     22221.94    1057.8019    1368.2445    946.51544   -148.79634   -244.03065    4.3078646    47.112315    23.480144     30.85532    68.930307     134.4527    113.11445 
  353500    228.94193   -12746.551    -11567.99   -12746.551            0    1328.3498    47.247301    21.507467    21.880036   -9.2377061   -21.625905    2.9358782    22233.831    924.20041    1537.3319    1523.5172   -548.93213   -340.81137   -461.55398    47.247301    23.407399    30.903642    68.687197    134.40975    113.24408 
  354000     237.1457   -12709.081   -11488.289   -12709.081            0    1339.9364    47.020863    21.636413    21.861105   -9.3507219   -21.700765    2.8752101    22240.676    1491.4721    882.50345    1645.8336    906.21953   -361.23962   -31.081912    47.020863    23.570541       30.937    68.679455    134.54347     113.3728 
  354500    244.72571   -12716.325   -11456.512   -12716.325            0    1647.0655    46.678455    21.749266    21.822076    -9.143147   -21.325386    2.9443567    22154.254    2000.2083    1143.7103    1797.2778    240.87404   -389.63803   -268.17945    46.678455    23.592958    30.653618    69.013271    134.08215    112.80134 
  355000    231.58357   -12691.194   -11499.034   -12691.194            0    2207.6023     46.92323    21.558818    21.930732   -9.2742138   -21.612817    2.9733408    22185.334    2266.1981    2397.5873    1959.0214    257.10544    12.052094    230.43796     46.92323    23.468994    30.933988    68.629931    134.32083     113.2765 
  355500    230.33699   -12736.441   -11550.698   -12736.441            0    2188.2872    47.107259    21.399147    21.976328   -9.2262142   -21.399543     2.862949     22153.35    1489.8033    2877.5199    2197.5385    182.84898    42.335832    100.78218    47.107259    23.303358      30.8074     68.87827    133.99722    113.32323 
  356000    240.38965   -12734.089   -11496.597   -12734.089            0    1726.4723    46.756025    21.583879    21.971908   -9.1286199     -21.5621    3.0174538    22173.531    1462.4358    2397.5757    1319.4055    178.04088    193.68643   -919.95051    46.756025    23.434921    30.932086    68.815074     134.1931     112.9253 
  356500    240.43297   -12672.571   -11434.856   -12672.571            0    1833.0456    46.761155    21.654594    21.893402   -9.4191066   -21.507896    2.9163754    22169.123      1303.86    3236.3407    958.93622    488.80757    545.38414   -837.62841    46.761155    23.614424    30.828816    68.591034    134.23921    113.50761 
  357000    236.52304   -12719.049   -11501.461   -12719.049            0    1845.4445    47.080243    21.560427    21.844788   -9.0315301   -21.533868     2.827717    22173.993     1740.193      1819.88    1976.2605   -451.00724   -199.65209    527.81289    47.080243     23.37564    30.804192     69.22132    134.35135    112.72851 
  357500    235.22084   -12677.608   -11466.724   -12677.608            0    1591.5009    47.180484    21.529314     21.85725   -9.4988691   -21.746651    3.0483586    22201.796    1864.7169    1295.5652    1614.2205    1001.8849    13.770744   -653.34258    47.180484    23.531678    30.983039    68.078092    134.57875    113.80737 
  358000    229.37798   -12711.995    -11531.19   -12711.995            0     1882.835    46.881433    21.587945    21.929563   -9.1684785    -21.49216    2.8363962    22194.335    2126.2404    2202.3577     1319.907    332.61665   -272.51877   -173.65945    46.881433    23.454218     30.83608    69.076546    134.18528    113.01111 
  358500    230.41428    -12691.06    -11504.92    -12691.06            0    1033.9069    46.752334     21.65956     22.00589   -9.3176228   -21.289792    3.0662337    22283.933    1413.2556    1572.5893     115.8757   -71.998005   -610.18451    -1159.772    46.752334     23.57869    30.772004    68.596418     133.7772    113.27666 
  359000    236.11297   -12722.025   -11506.549   -12722.025            0    1079.1941    46.958793    21.483526    22.059966   -9.2703181   -21.715706    2.8500011    22254.986    1338.0139    1039.2816    860.28688    399.09315   -70.505022   -278.85036    46.958793    23.398305    31.085953    68.841494    134.31237    113.34059 
  359500    238.19783   -12664.808   -11438.599   -12664.808            0    2540.5185    47.080422    21.521308    21.866741   -9.1572847   -21.430341    2.8744568    22156.087    2068.2427    3232.9773    2320.3354   -594.89356   -1029.3266    309.98114    47.080422    23.388513    30.751851    68.969858    134.17719    113.04968 
  360000    228.39864    -12702.55   -11526.786    -12702.55            0    2548.6897     46.88498    21.583915    21.793771    -9.412329   -21.742121     2.998905    22054.456    2600.1891    1940.7888    3105.0912    548.06445    210.01175    257.41454     46.88498    23.546918    30.930272    68.293151    134.66335    113.56109 
  360500    237.83149   -12755.129   -11530.806   -12755.129            0    2144.1135    46.817378    21.658641    21.806975   -9.1023048   -21.342992    2.8048421     22112.29    2291.4697    1377.8535    2763.0172    356.25197   -378.43754    584.39306    46.817378    23.493588     30.64204     69.25269    134.14898    112.79517 
  361000    235.79275   -12697.531   -11483.703   -12697.531            0    2170.9337    47.034674    21.525618    21.930489   -9.3322218   -21.587143    2.9165559    22203.533    1624.6051    3442.2762    1445.9197    570.04186    822.85587    112.40502    47.034674    23.461513    30.910474    68.631761    134.29688    113.43867 
  361500    235.39263   -12685.035   -11473.267   -12685.035            0     1815.903    47.129982    21.381167    22.046113    -9.079656   -21.582233    2.8179991    22215.736    1687.0234    2823.6041    937.08148    404.70557    211.75285   -373.73673    47.129982    23.229172    30.980075    69.143637    134.15875    113.00883 
  362000    237.22405   -12745.115   -11523.919   -12745.115            0    1535.3895    46.731041    21.633162    21.932939    -9.251393   -21.321999    2.9848667    22172.889    2337.7934    721.75229    1546.6228   -597.49933   -126.02322   -119.90595    46.731041    23.528322    30.734197     68.77188    133.92808    113.15391 
  362500    240.16084   -12693.242   -11456.928   -12693.242            0    1653.3077    46.689974    21.629953    21.982909   -9.1719225   -21.592616    2.9198582    22200.582    2407.9293    1426.1252    1125.8686   -226.34375    261.59341   -342.41921    46.689974    23.494234    30.951816    68.949278    134.23639    112.97879 
  363000    240.28241   -12698.378   -11461.438   -12698.378            0    1603.4569      47.0649    21.503436    21.933619   -9.2088142   -21.373002    2.8941059    22198.073    1466.7357    2317.5103    1026.1248   -624.13819   -569.32387    643.92926      47.0649    23.392306    30.761415    68.899441    134.01121    113.18296 
  363500    234.01366    -12682.22   -11477.551    -12682.22            0    1956.6867     47.10973    21.476003    21.915263   -9.3063091   -21.849687    3.0036007    22172.301    1644.9023     2695.425     1529.733    376.23795    599.49565   -671.85324     47.10973    23.405685    31.091948    68.404182    134.64759    113.42879 
  364000    234.95807   -12677.704   -11468.173   -12677.704            0    1870.4753     46.89258    21.647697    21.866745   -9.2289241   -21.456903    2.8046743     22197.29    1516.5607    1697.3165    2397.5486    1101.5947    3.7469383    368.93077     46.89258    23.532867     30.76393    69.059875    134.22433     113.0897 
  364500    229.66438   -12725.516   -11543.236   -12725.516            0    2674.0604     46.91856    21.659167     21.73614   -9.1692236   -21.631107     3.113127    22088.633     2506.899    2181.6947    3333.5874    901.59085   -300.58224   -378.83168     46.91856     23.52008    30.822981    68.494068    134.57039    112.94496 
  365000    241.33236   -12722.557   -11480.212   -12722.557            0    2114.4581    47.145584      21.4915    21.830041   -9.3632921   -21.703585     2.760486    22118.837    1953.9508    2217.3953    2172.0284    478.53619   -602.83176    127.20329    47.145584    23.442606    30.906578     68.75454    134.60635    113.54151 
  365500    231.75188   -12714.747   -11521.721   -12714.747            0    2265.5206    47.030105    21.585403    21.806784   -9.1146997   -21.572538    2.9844393    22137.458    2191.1771    1711.8096     2893.575   -237.85716   -349.19615    2.5764688    47.030105    23.430907    30.819103    68.807543    134.42483     112.8925 
  366000     240.6494   -12707.611   -11468.781   -12707.611            0    1887.7254    46.724686    21.692251    21.856803   -9.3702149   -21.467904    2.9405747     22153.26    1955.9627    1558.0949    2149.1185     449.4614   -479.88497   -41.620289    46.724686     23.62953    30.777227     68.63474    134.22882    113.36248 
  366500    237.51066   -12750.941    -11528.27   -12750.941            0    2182.1376    46.794375    21.547312    21.916621   -9.0771063   -21.511665    2.7372122    22098.376      2654.53    1507.6097     2384.273   -432.10792    474.37837    818.97133    46.794375      23.3812    30.831516    69.348333     134.2441    112.84394 
  367000    228.90891   -12725.949   -11547.558   -12725.949            0    2399.0568    47.016865       21.498    21.877339   -9.3900584    -21.54492    3.1629571    22112.926     2196.035    3097.3636    1903.7718     304.8418    187.58568   -331.87589    47.016865    23.459266    30.867553    68.081783    134.26512    113.59511 
  367500    240.48284   -12737.101   -11499.129   -12737.101            0    2345.3804    46.941968    21.494845    21.942138   -9.1135385   -21.540761    2.6913242    22139.843    2281.8939    2401.8611    2352.3861   -250.07734   -338.81573    521.28155    46.941968    23.347054     30.86592    69.347745     134.2573    112.97632 
  368000     236.8275    -12689.45   -11470.295    -12689.45            0    2364.5218    46.863593    21.595323    21.871271   -9.2067854   -21.496236    2.8948345    22134.479    2388.2759    2565.7376    2139.5519    291.40283    573.85153   -39.305577    46.863593    23.476006    30.802934    68.891365    134.25582    113.09012 
  368500    235.50464   -12727.833   -11515.489   -12727.833            0    2914.0394    46.908378    21.613026    21.766144   -9.3830884    -21.58215      3.03746    22067.213    2323.6489      3420.96    2997.5092    297.30269    134.69808   -741.59363    46.908378    23.561945    30.802279    68.316319    134.48057    113.46761 
  369000    242.56209   -12740.583   -11491.907   -12740.583            0    1734.6816    46.954781    21.505485    21.926654   -9.1001949   -21.592161    2.7653058    22141.214    1806.4724    2421.8073    975.76498    -640.6894    312.19958    234.43693    46.954781    23.351647    30.897354    69.221152    134.33363    112.93599 
  369500    236.51012   -12694.845   -11477.324   -12694.845            0    1893.2896     47.09877    21.497023    21.910393   -9.3601607    -21.53774    3.0713204    22183.908    2023.6502    1762.2042    1894.0144    29.629225    134.21841   -176.68533     47.09877     23.44642    30.876732    68.304836    134.22993    113.52911 
  370000    239.50559   -12717.465   -11484.524   -12717.465            0    1629.2816    46.664174     21.65086    21.966773   -8.9839367    -21.43755    2.8869995    22193.459    2074.5219    1338.5815    1474.7414   -1382.7884    626.34514    342.01639    46.664174    23.440795    30.829247    69.329088    134.05624    112.53581 
  370500    232.53041   -12724.751   -11527.718   -12724.751            0    2641.2833    46.584002    21.607991    21.946363   -9.3243816   -21.403257    2.8549935    22090.917    3463.3092    1800.0296    2660.5109   -20.013751   -254.73205    674.45578    46.584002    23.534005    30.787875    68.864159    134.04193    113.34139 
  371000    234.67905    -12769.52   -11561.426    -12769.52            0    1858.1518     46.94231    21.482733    21.991894   -9.1059499   -21.548163    3.1094777    22177.706    1878.0661    3005.8397    690.54979   -1075.7841    -159.3452   -932.77614     46.94231    23.332941    30.945688    68.637848    134.13266    112.97077 
  371500    234.56144     -12750.1   -11542.611     -12750.1            0    1275.6374    47.070247    21.483078    21.956643   -9.2906924   -21.545725    2.7593996     22202.86    1134.7255    1762.4199     929.7668    723.52151   -357.19562    768.92192    47.070247    23.405974    30.885704    68.967113     134.2344    113.38682 
  372000    234.90049   -12734.367   -11525.133   -12734.367            0    1104.2917    46.827601    21.675538    21.894857   -9.2825127    -21.60263    3.0593405    22223.573    1853.9556    900.60924    558.31013   -89.744018    465.67321   -129.81654    46.827601    23.579525    30.909835    68.523735    134.33816    113.18295 
  372500     228.4911   -12701.084   -11524.844   -12701.084            0    2716.2435    46.798083    21.697968    21.798333   -9.0597533   -21.381192    2.9609505    22134.535    2699.0908     2657.706    2791.9338   -597.63042   -177.36616   -188.23795    46.798083    23.513421    30.677188    69.046368     134.1847    112.66245 
  373000    235.79015   -12770.693   -11556.878   -12770.693            0    1855.3207    46.962382    21.538818    21.860461   -9.3893709    -21.53934    2.8397585    22112.166    1765.8983    1675.3373    2124.7265    462.45265    368.84967    509.81454    46.962382    23.496403    30.820239    68.670092    134.33641    113.55373 
  373500    240.27062   -12713.331   -11476.452   -12713.331            0    2451.7965    47.132636    21.437801    21.914597   -9.1107777   -21.715269    2.9833031    22142.948    1945.0834    3095.7758    2314.5303   -543.59802    574.23319   -252.69167    47.132636    23.293466    30.995202    68.739495    134.47524    113.02484 
  374000    241.95174   -12712.788   -11467.255   -12712.788            0    1868.0203    46.852495     21.61282    21.904697   -9.2374323   -21.270437    2.9004002    22181.015    2587.9041    1939.8669    1076.2898   -893.38854   -113.67389   -233.19793    46.852495    23.504131    30.670174    68.929212    133.90955    113.14212 
  374500    233.92745   -12679.997   -11475.771   -12679.997            0    2314.5224     46.70613    21.632979     21.93623   -9.1186813   -21.769619    2.9483478    22164.207    2909.5949    2019.3535    2014.6187   -362.63494    754.90148    104.47064     46.70613    23.476288    31.045246    68.907051    134.52515    112.85628 
  375000     237.1009   -12778.991   -11558.429   -12778.991            0    1473.8484    47.009753     21.61567    21.848886   -9.2425195   -21.224867    2.8899112    22201.687     1603.243    1374.6831     1443.619   -615.54377   -776.08331   -109.36223    47.009753    23.508751    30.597719    68.926651    133.92171    113.15079 
  375500     241.0982   -12766.161   -11525.022   -12766.161            0    2003.9708    47.086223    21.493474    21.863237   -9.2188699   -21.805066    2.9110016    22126.612     1588.065    2004.2761    2419.5713   -355.26542    581.60581    218.71681    47.086223    23.387111    31.015093    68.691515    134.67198    113.21521 
  376000    240.12509     -12729.4    -11493.27     -12729.4            0    1708.2451    46.989451    21.595054    21.854857   -9.3048733   -21.536477    2.9675372    22176.992    1849.2487    1428.5199    1846.9667    59.606081    255.72093    42.000542    46.989451    23.514401    30.826302    68.600595    134.31797    113.31024 
  376500    242.71503   -12728.794   -11479.331   -12728.794            0    2123.5214    46.676763    21.713464    21.831731   -9.0638832   -21.279795    2.8668194     22126.77    2810.9766     1891.057    1668.5307   -471.40976   -671.59622    104.74326    46.676763    23.529311    30.621444    69.261995    134.02173    112.65719 
  377000    232.32743   -12774.689   -11578.701   -12774.689            0    2234.1658    46.827016    21.585255    21.878225   -9.2770825   -21.612248    2.9825586    22113.921    2372.8444    1869.4797    2460.1734   -216.21999    309.07761    35.027538    46.827016    23.494414    30.897276    68.599241    134.38587    113.25745 
  377500    235.70229   -12726.674   -11513.312   -12726.674            0    2268.4865    47.168766    21.369816    21.950929   -9.2132226   -21.505043    2.8856245     22126.27    1717.2132    2405.2686    2682.9775   -370.00395   -311.49235    492.76247    47.168766     23.27128    30.864818    68.795366    134.16678    113.32245 
  378000    236.14399   -12733.164   -11517.528   -12733.164            0    1369.0902    46.889306    21.575731    21.945941   -9.1224826   -21.489537    2.9676523    22202.073    752.55934    1669.6625    1685.0486    8.1365362   -293.41829   -158.19303    46.889306    23.425026    30.858248    68.913457     134.1385    112.91924 
  378500      233.176   -12714.166   -11513.809   -12714.166            0    1017.6112    46.793189    21.646049    21.982065   -9.3501321   -21.524033    3.0294868    22265.363    1492.9836    626.16387    933.68609   -292.71516   -62.877464   -435.10893    46.793189    23.579152    30.913961    68.527279    134.12739     113.3622 
  379000    236.91148   -12765.214   -11545.627   -12765.214            0    1470.9275    46.753696    21.509573     22.09192   -8.8816653   -21.358062    2.8095638    22216.784    2024.5765    1868.3068    519.89923   -1016.6965   -179.60536    -357.1566    46.753696    23.271135    30.856335    69.614356    133.80273    112.43656 
  379500    232.64377   -12752.303   -11554.685   -12752.303            0    2635.4053    46.969412    21.489701    21.846877   -9.3494864   -21.588138    2.9922094    22051.333    2457.7899    2789.4455    2658.9803    476.11515   -497.47282   -72.383962    46.969412    23.435446    30.859149    68.407432    134.39252    113.51233 
  380000     226.9855   -12795.182   -11626.693   -12795.182            0    2166.0013    46.825088    21.617465    21.774339   -9.1937237   -21.542395    2.8153026     22040.85    1966.1643    2101.0506     2430.789    280.88446    327.84302   -160.59215    46.825088    23.491261    30.759105    69.002672    134.45576    113.03964 
  380500    241.50478   -12683.749   -11440.516   -12683.749            0    1990.6631     46.90854    21.641929    21.810258   -9.2108407   -21.473404    2.9713836    22141.583    1757.7795    1839.3732    2374.8367   -924.47756    842.51739   -761.26981     46.90854    23.520473    30.750992    68.754152    134.29073    113.05468 
  381000    242.47505   -12719.066   -11470.839   -12719.066            0    785.23215    47.074994    21.553664    21.909016   -9.3117616   -21.767657    2.9545045    22229.733   -176.60358    1534.8795     997.4205    167.47315    500.77656   -287.29622    47.074994    23.479125    31.025232    68.550753    134.55643    113.36564 
  381500     247.4663   -12713.048   -11439.126   -12713.048            0     803.1684    47.174688    21.535883    21.963215   -9.1614624   -21.317438    2.7348081    22313.497   -136.67337    1596.8391    949.33947   -49.086102   -78.607829    712.48838    47.174688    23.403561    30.729386    69.301327    133.92491    113.04512 
  382000    239.42918   -12749.911   -11517.364   -12749.911            0    1299.5481    46.879107    21.605224    21.913466   -9.2525741   -21.673298    2.9749007    22194.695    1935.7439    441.89225     1521.008   -134.78221    738.53183    65.132757    46.879107    23.503102    30.964204    68.662024    134.42274    113.18334 
  382500    233.32451   -12690.723   -11489.601   -12690.723            0    2448.2917    46.698373    21.643824    21.895081   -9.2715317   -21.446734    2.8646736    22130.045    3151.8925    1822.5261    2370.4566   -139.21099    287.50392    461.23788    46.698373    23.546049    30.782517    68.906906    134.16428    113.18877 
  383000    234.52324   -12679.128   -11471.835   -12679.128            0    2057.7716     47.03323    21.556205    21.845675   -9.1512551   -21.537793    2.8591505    22148.411    1467.9385    2791.5165    1913.8597    234.71402   -355.13244   -72.547084     47.03323    23.418271    30.810466    68.986576    134.35015    113.00268 
  383500    240.20218   -12709.262   -11472.735   -12709.262            0    1621.1203    47.135047     21.48442    21.898542   -9.3168074   -21.744732    2.9855497    22175.978    1209.6219     1825.516    1828.2231   -554.34395   -376.23091   -169.35672    47.135047    23.417583    31.004726     68.44622     134.5343    113.44416 
  384000    230.59914   -12756.466   -11569.374   -12756.466            0    408.41632    47.039735    21.664868    21.842204   -9.1796303   -21.452967    2.8511243      22259.6    1149.7647   -79.331012    154.81532   -261.97915    -212.5334   -102.55745    47.039735    23.529388    30.748018    69.048619    134.24296    112.96288 
  384500    228.63743    -12723.01   -11546.017    -12723.01            0    819.80169    46.863532    21.721048    21.836867   -9.2401243   -21.654999    2.9841577    22228.293    302.90616    739.86751    1416.6314   -22.890428    512.41678     13.22148    46.863532    23.604741    30.898106    68.701719     134.4954    113.04488 
  385000    234.40285   -12728.006   -11521.333   -12728.006            0    621.02745    47.078028    21.594573    21.897795   -9.2976962   -21.572723    2.8734911    22261.953      -164.18    954.87688    1072.3855    458.42066   -208.88076    -76.52095    47.078028    23.511119    30.873172    68.788265    134.32705    113.29464 
  385500     236.3255   -12720.588   -11504.017   -12720.588            0   -129.34571    47.275339    21.482637    22.028158   -9.1983826   -21.748616    2.9531161    22371.773   -578.01835    208.65976   -18.678554   -217.96211   -9.1576147   -153.10223    47.275339     23.36908    31.096028    68.740328    134.37903    113.17952 
  386000    235.03804   -12702.055   -11492.112   -12702.055            0    1541.2279    46.847009    21.617704     21.96043   -9.2370057   -21.456441    2.9968296    22239.872    1274.2187    1312.5767    2036.8884    -379.6129    235.30817     686.9037    46.847009    23.508454    30.848344    68.738224    134.07074    113.13648 
  386500    233.90108   -12703.736   -11499.647   -12703.736            0    2105.2336    46.544708    21.669146    21.973121   -9.1395819    -21.50198    2.8980447     22161.74    1847.2026    2555.3109    1913.1871    19.985464    679.97201   -209.85408    46.544708    23.517735    30.879635    69.079111    134.13217    112.86898 
  387000    230.13987   -12718.821   -11534.094   -12718.821            0    2341.3962    46.987266    21.500662    21.907659   -9.1744353   -21.449234    3.0058934    22132.372    2449.7996    1826.3372    2748.0518    -173.3478   -126.61597   -400.80462    46.987266    23.376243    30.806664    68.715362    134.12715    113.10817 
  387500     227.1416    -12724.66   -11555.367    -12724.66            0    1925.2321    47.197998    21.429233    21.877288   -9.3580755   -21.664192    2.8450917    22127.059    811.87296    2979.2023    1984.6209    38.282958    113.01177    547.22749    47.197998    23.383448    30.920018    68.609251    134.47939    113.59073 
  388000    238.96048   -12747.379   -11517.244   -12747.379            0    1346.7424    46.919023    21.676878    21.795387   -9.2220217   -21.673547    2.8993799    22167.172     1904.191    989.77233    1146.2639    -209.8611    427.15146   -287.10031    46.919023     23.55701    30.873742    68.823963    134.58815    113.04642 
  388500    227.46239   -12721.496   -11550.552   -12721.496            0    2129.3118     46.86791    21.652246    21.797478   -9.2171467   -21.410119    2.9596287    22119.983    2599.1534    2319.1842    1469.5979   -65.281455   -138.96764   -730.43267     46.86791    23.532436    30.696623    68.783205    134.22475    113.05897 
  389000    235.50445   -12705.187   -11492.843   -12705.187            0    2346.3124    47.086187    21.471274    21.841622   -9.2190027   -21.828163    2.7494248    22081.889    1796.2472    2732.9407    2509.7491   -857.67899    676.76399   -25.824198    47.086187    23.366763    31.001363    68.943627    134.75715    113.23697 
  389500    229.71151    -12709.61   -11527.088    -12709.61            0    1909.1313    46.979521    21.539534    21.918329    -9.208351   -21.396025    2.9868737    22179.529    1543.7617    2093.4924    2090.1399   -408.26885   -6.3640444    -117.1564    46.979521    23.425312    30.775387    68.744198    134.04568    113.14716 
  390000    229.35031   -12725.963     -11545.3   -12725.963            0    2248.0627    46.579853    21.603318    21.968358   -9.1690681   -21.437984    2.9080691    22106.306    3041.8633      1979.22    1723.1049    742.35563    -716.0596   -571.77222    46.579853      23.4686    30.832658    68.993598    134.05122    112.99776 
  390500     234.7635   -12684.292   -11475.762   -12684.292            0     1768.386    46.745325    21.540465    22.098108   -9.3102242   -21.425254    2.9561198    22250.939    2931.0589    1701.8361    672.26299    608.64941   -423.46425   -727.74041    46.745325    23.466399    30.920972    68.736133     133.8604    113.37498 
  391000    235.89654   -12746.117   -11531.755   -12746.117            0    1558.6673    46.933537    21.536942    21.946984   -9.1670404   -21.517009    2.9186257    22184.118    1852.4001    1736.6216    1086.9802   -531.35009   -41.715772   -246.82377    46.933537    23.406719    30.873454    68.903806    134.18218    113.05667 
  391500    235.77079   -12667.462   -11453.747   -12667.462            0    1752.1885    46.991422    21.556573    21.896473   -9.2542418   -21.667883    3.0035931    22180.558    1776.6333     2624.573    855.35924    128.95053   -426.93933   -142.09199    46.991422    23.459046    30.951159    68.571556    134.43237    113.23386 
  392000    229.03897   -12725.721   -11546.661   -12725.721            0    1566.0939    46.895807    21.672662    21.804634   -9.2512101   -21.465424    2.7600688    22161.292    2053.5715    606.39571    2038.3144    536.96346   -373.53084    545.10487    46.895807    23.564575    30.721726    69.088079     134.3232    113.11574 
  392500    240.33962   -12739.899   -11502.665   -12739.899            0    2416.5901    47.059275    21.629694    21.763519   -9.2109187   -21.694575    3.0075452    22152.601    2012.8696    1623.4608    3613.4399   -230.09007    122.04941     90.39606    47.059275    23.509247    30.876377    68.598105    134.63815    113.06654 
  393000    243.78729   -12695.571   -11440.588   -12695.571            0    2464.4944    47.170854    21.532605    21.759219   -9.4419477   -21.659748     2.841468    22101.087    2918.1826    1988.0007    2487.2998    421.42322    247.44569    110.20286    47.170854    23.511773    30.833135    68.499796    134.62654    113.67723 
  393500    232.10534   -12719.898   -11525.053   -12719.898            0    1560.0258    46.935191    21.594708     21.85269   -9.0922887   -21.503431    2.8271641    22148.833     710.2643    1461.6434    2508.1697   -33.969579    22.423658   -115.33565    46.935191    23.430773     30.78848    69.166541    134.30074    112.83316 
  394000    227.59843   -12722.091   -11550.447   -12722.091            0    1387.8955    46.811922    21.687438    21.823799    -9.364383   -21.502161    3.1280182     22156.19    1810.7193    1202.6776    1150.2896   -228.48293   -53.022254   -1162.6713    46.811922    23.622799    30.796195    68.282602    134.28344    113.35412 
  394500    238.01138   -12750.713   -11525.464   -12750.713            0    1405.3978    46.870387    21.511053    22.007749   -9.1196681    -21.49608    2.7042665    22188.903    1790.0073    1387.5471    1038.6388    130.16061   -255.93803    881.44375    46.870387    23.364369    30.882609    69.371456    134.11157    112.97465 
  395000    234.47656   -12721.126   -11514.073   -12721.126            0    2163.0218    46.949682    21.510076     21.93347   -9.1990932   -21.482535    3.0324817    22150.419     2373.289    2298.3111    1817.4652   -614.78596   -261.65687   -308.58955    46.949682    23.394587    30.850808    68.642465    134.13379    113.15467 
  395500    234.24417   -12780.275   -11574.419   -12780.275            0    2689.8247    46.664164    21.591194     21.86774    -9.310466   -21.589039    2.9169711    22032.514    3681.2074    2076.0924    2312.1744    263.46195   -590.39611   -317.74395    46.664164     23.51307    30.867351    68.671004    134.37996    113.32647 
  396000      228.145   -12703.825   -11529.366   -12703.825            0    2460.6133    46.899752    21.616985    21.849967   -9.1489608   -21.363866    2.8543046    22152.179    2455.6274    2353.3084    2572.9042    778.07755   -1031.1043    503.22876    46.899752    23.473337     30.69174    69.087129    134.11324    112.93955 
  396500    244.99322   -12691.123   -11429.933   -12691.123            0    2408.9771    47.026227    21.535615    21.905531   -9.3196187   -21.662756    3.0862715     22184.58    2431.8789      1335.82    3459.2325   -46.600845    467.01422    11.076239    47.026227    23.465677    30.962111    68.324187    134.39923    113.40073 
  397000    236.42096   -12755.478   -11538.416   -12755.478            0    2658.2522    46.743781    21.444877    21.992427   -9.0723123   -21.303691     2.567706     22045.53    3221.4888    3594.7953    1158.4725    -987.9495    390.65656    942.03637    46.743781    23.284965    30.726327    69.689857    133.89482    112.93092 
  397500    231.36514   -12685.297   -11494.262   -12685.297            0    2776.5964    46.787569    21.562202     21.94102   -9.2806017   -21.517994    3.0676362    22135.045    3521.4462      2572.94    2235.4028    -78.90637   -213.84347     -598.773    46.787569    23.474627    30.884346    68.488781    134.16509    113.28756 
  398000    239.73719   -12726.696   -11492.562   -12726.696            0    1961.2455    46.824165    21.530095     21.96761   -9.0859891   -21.413068    2.9192615    22146.179     2475.182    2013.7836     1394.771   -568.21546   -596.11025   -589.57478    46.824165    23.368787    30.815864    69.056271    134.01698     112.8804 
  398500    247.00195   -12723.555   -11452.023   -12723.555            0    1712.3575    47.065457    21.502856    21.903572   -9.3819963   -21.605625    2.8083472    22167.329    1396.1269    1495.9629    2244.9825    309.54366    226.18134    792.48493    47.065457    23.460491    30.894277    68.716227    134.37413    113.57232 
  399000    228.52637   -12713.993   -11537.571   -12713.993            0    2446.8252    47.001376     21.60443    21.773359   -9.1237712   -21.580913    3.0479499    22109.494    2853.6317    1145.7949    3341.0489   -1091.0786    175.15293     229.4408    47.001376    23.451964    30.807547    68.674426    134.46772    112.89483 
  399500    233.90844   -12754.618    -11550.49   -12754.618            0    2087.1587    46.995016    21.711078    21.656908    -9.359715   -21.538869    2.7742025    22096.813    2346.3891    619.43492     3295.652    478.66844    105.76339    725.51545    46.995016    23.642656    30.669867    68.833182    134.61031    113.32103 
  400000    233.17017   -12733.126   -11532.799   -12733.126            0    1738.4017    46.977692    21.600562    21.824539   -9.2530592   -21.575208    2.8961661    22146.332    1588.2177    1051.0239    2575.9636    108.49847    32.890747    442.69606    46.977692    23.499008    30.825118    68.778854    134.42082     113.1889 
  400500    237.58783   -12717.229    -11494.16   -12717.229            0    1175.3816    47.072861    21.519727    21.953288   -9.2276265   -21.542158    2.9389109    22238.574     1208.668    1324.9376    992.53925    597.06851   -439.12259    380.54924    47.072861    23.414691    30.897389    68.765232    134.20408    113.20958 
  401000    241.92855    -12700.23   -11454.816    -12700.23            0    1166.3086    46.726554    21.537601    22.128619   -9.2648629   -21.496489    2.8635231    22269.752    1334.2805    1155.9683    1008.6769    482.30468    136.50696    741.47063    46.726554    23.445808    30.983457    68.957293     133.9321      113.276 
  401500    237.28473   -12693.171   -11471.662   -12693.171            0    1702.1987    46.600591     21.64517    22.034406   -9.1847604   -21.336006     3.017329    22225.614    2954.5625    1343.6001    808.43337   -72.265486    466.20086   -619.34669    46.600591    23.513256    30.819547    68.866218    133.81151    112.99312 
  402000    237.73244    -12708.07   -11484.257    -12708.07            0    2136.5625    46.810063    21.580804    21.896601   -9.1447879   -21.447427    2.9688917     22119.92    2521.0979    2046.3073    1842.2822    233.68057   -755.24731   -85.272072    46.810063    23.438393    30.793953    68.868372    134.14541    112.96463 
  402500    235.32012    -12689.11   -11477.715    -12689.11            0    2236.7525    47.043972    21.487469    21.887232   -9.3122467   -21.619881    2.8730985    22124.837    1668.9547     2403.142    2638.1609   -501.04597    561.90129    414.91606    47.043972    23.418567    30.898623    68.681628    134.40324    113.43096 
  403000    238.45316   -12720.736   -11493.212   -12720.736            0    2070.0257    47.195926    21.564239    21.742575   -9.2291519   -21.645413    2.9484608     22128.38    1490.5151    1944.9147    2774.6474     190.8741    141.02691   -127.04117    47.195926    23.456207    30.821371    68.637316    134.61069    113.17016 
  403500    235.66409   -12724.382   -11511.217   -12724.382            0    2396.0564     46.90607     21.66788    21.742662   -9.2113452   -21.569512    2.9627359    22098.266    1218.3925    2117.1944    3852.5823   -166.18817    624.24761    277.38757     46.90607    23.544552    30.769547    68.723665    134.50745    113.03108 
  404000    225.17671   -12715.694   -11556.516   -12715.694            0    2151.3038    46.885626    21.596911    21.795004    -9.296963    -21.53325    2.7030272    22069.287    1536.4598    2444.8209    2472.6306    -286.7929    421.85403    26.846968    46.885626    23.512977    30.757266    69.050824    134.43526    113.29074 
  404500    233.54332   -12718.207   -11515.959   -12718.207            0    1869.3656     47.13303    21.478372    21.873232   -9.1886133   -21.666236    3.0925063    22143.164    2331.6197    1359.2899    1917.1872   -804.49549   -464.75824   -829.83173     47.13303    23.361316    30.942327    68.450754    134.44414    113.16161 
  405000    231.06516   -12726.314   -11536.824   -12726.314            0    1973.9824    46.934653    21.502313    21.918088   -9.2175795    -21.46614    2.8350892    22119.813     2044.559    2845.0751    1032.3132   -185.33599    26.209258    -468.1188    46.934653    23.394726    30.809666    68.955628    134.16555    113.20377 
  405500    235.83205   -12672.248   -11458.217   -12672.248            0    1775.4227     46.57934    21.705453    21.941403   -9.2356985   -21.458923    2.8325661    22183.322    2461.8789    1258.2059    1606.1833    420.05316   -364.25812   -698.82527     46.57934    23.588659    30.820999    69.073639     134.1264    113.04982 
  406000    238.20159   -12720.355   -11494.126   -12720.355            0    2250.7708    46.787682    21.630988    21.868622   -9.1138533   -21.418877    3.1334662     22132.44    2120.7894    2354.1566    2277.3662    214.50971   -700.43983   -896.21411    46.787682    23.472579    30.770498    68.646726    134.11373    112.84731 
  406500    229.00734   -12722.579   -11543.681   -12722.579            0    2712.1064    47.164363    21.385311     21.89561   -9.3344897   -21.605315    2.7673511    22084.451    1724.5401     4138.239    2273.5399    1145.4904    102.37596    63.648464    47.164363    23.333758    30.884715    68.778835    134.39069    113.58082 
  407000    238.22626   -12736.905    -11510.55   -12736.905            0    1843.0823    46.981901    21.520377    21.905225   -9.2748534   -21.706962    2.9610957    22147.677    1554.7775    1949.1319    2025.3376     617.9505    836.49796   -101.07572    46.981901    23.433939    30.980626    68.587036    134.48018    113.31508 
  407500    226.35425   -12695.108   -11529.869   -12695.108            0    2139.6055    46.724699    21.696273     21.85488   -9.1537737   -21.285278     2.974744    22155.424    1736.6208    2526.2376    2155.9581    171.33709   -273.69045     79.26674    46.724699    23.548245    30.652046     68.93955    133.98072    112.87514 
  408000       235.87    -12710.71   -11496.485    -12710.71            0    1613.0152    46.871582    21.614409    21.881712   -9.2767231   -21.739479    2.8650061    22168.397    2068.8494    739.94591    2030.2504   -515.70223    1124.3898    465.78143    46.871582    23.521061    30.977775     68.79106    134.56972     113.2286 
  408500    238.52325   -12720.046   -11492.162   -12720.046            0    1753.2081    47.195166    21.494405    21.817761   -9.3255763    -21.57981    2.9244845    22132.635    1444.5696    1841.2464    1973.8082    201.41257   -738.91074   -92.727603    47.195166    23.430233    30.826215    68.551738     134.4308    113.45412 
  409000    232.84265   -12676.449   -11477.808   -12676.449            0    2210.1614    47.095919    21.589998     21.77118   -9.1879072   -21.613685    2.8992214    22136.953    1710.8884    1898.7096    3020.8863   -424.74373   -439.08455   -102.15588    47.095919    23.463709    30.814626    68.824225    134.54023    113.05282 
  409500    229.98449    -12730.59   -11546.663    -12730.59            0    2407.0457    46.710107    21.630947    21.879172   -9.3727127   -21.470735     2.799087    22106.362    3452.0576    1950.2185    1818.8608    1130.7913   -203.73114    339.57117    46.710107    23.574257    30.781902    68.853406     134.2277    113.42714 
  410000    230.31313   -12725.408   -11539.788   -12725.408            0    2206.3402    46.816451    21.593333    21.911064   -9.1708312   -21.475865    2.9728051    22150.404    1835.3011    2143.8067    2639.9129   -227.79837    585.23779    -201.3487    46.816451    23.460098    30.824424    68.830788    134.16411    113.01125 
  410500    235.75253   -12682.762   -11469.141   -12682.762            0    1681.7049    47.017483    21.475749    22.012165   -9.1762929   -21.534288    2.9610815    22226.468    1234.7734    1897.7231    1912.6181   -208.13959    711.15312   -328.92494    47.017483     23.35406    30.935885    68.805921    134.11447    113.13635 
  411000    249.96673   -12713.988   -11427.195   -12713.988            0    1089.5988    46.961896    21.492184    22.066366   -9.4261336   -21.628465    2.8044235    22271.886    1156.9912    1273.4921    838.31314   -289.89873     1041.212     870.6768    46.961896    23.468404     31.02547     68.72904    134.19637     113.6815 
  411500    228.66552    -12748.03   -11570.892    -12748.03            0    1804.4087    46.839671    21.631234    21.878442   -9.1298934   -21.481531    2.9652287    22167.235    2243.9065    1170.2672    1999.0524   -572.81455   -156.84277    223.83108    46.839671    23.479038    30.804464    68.908946    134.21488    112.88315 
  412000     234.2027   -12709.096   -11503.454   -12709.096            0    1812.3538    46.922062     21.62437    21.894766   -9.3191305   -21.436985    2.9558596    22215.744     2268.024    1492.0032    1677.0341   -74.751734   -754.78006    157.55239    46.922062    23.546966    30.784122    68.667608    134.13609    113.31387 
  412500    235.51229   -12713.517   -11501.132   -12713.517            0    1946.2788    47.266901    21.465148    21.839198   -9.2408552   -21.792431    2.8218619    22157.854    998.54148    2060.1392    2780.1557    713.03163    68.368085    429.85797    47.266901    23.369767    30.981019    68.789028    134.70142    113.29212 
  413000    230.81194    -12726.97   -11538.783    -12726.97            0    1546.3188     47.04107    21.633689    21.840535   -9.2730463   -21.539342    3.0433704    22226.498    455.23497    1678.8989    2504.8225    78.850564    993.46724   -173.25135     47.04107     23.53733    30.825547    68.528914    134.32678    113.20187 
  413500    235.38264   -12700.622   -11488.905   -12700.622            0    900.58116    46.801796    21.741643    21.872519   -9.1955283   -21.592156    2.7628245    22256.338    1418.8147    351.06933    931.85941    79.781892   -287.31276    242.04324    46.801796    23.606287    30.858735    69.205187    134.40372    112.92571 
  414000    232.50241   -12720.822   -11523.933   -12720.822            0    1229.0695    47.046678    21.549575     21.92423   -9.2589933   -21.554806    2.9511008    22227.572    794.25373    1149.7937     1743.161    6.2579655     30.27776    164.18552    47.046678    23.454491    30.886737    68.698327    134.25605    113.25127 
  414500    231.05578   -12745.954   -11556.511   -12745.954            0    1246.9341    47.297084    21.520729    21.830462   -9.3116307    -21.71525     3.029394    22220.523    450.96639    1204.2966    2085.5393    524.74239   -20.275549   -10.906293    47.297084    23.448843    30.940239    68.372811    134.57521    113.39726 
  415000    233.54814    -12731.46   -11529.187    -12731.46            0    1624.9943    46.867134    21.646881    21.818695   -9.2106208   -21.566064    2.6420518    22135.661    1438.2578    1126.3071    2310.4181    893.19523   -341.16515    1050.1142    46.867134    23.524944    30.791736     69.31851    134.45788    113.04947 
  415500    230.70809   -12724.981   -11537.329   -12724.981            0    2023.6044    46.942197    21.645945    21.829439   -9.2657902   -21.462892    3.0587944    22181.073    1511.0695    1884.0769    2675.6668    399.68808    170.87332    63.966816    46.942197    23.545739    30.765831     68.53518    134.23645    113.17389 
  416000    230.93087   -12717.558   -11528.758   -12717.558            0    1499.4929    47.147537    21.533037    21.864958   -9.1469027   -21.757532    2.8637696    22197.954    1082.8653    2503.5124    912.10091   -695.05895    335.91915   -399.51008    47.147537    23.395246    30.978505    68.919311    134.61528    113.01504 
  416500    232.23525   -12732.208   -11536.694   -12732.208            0    1021.6754    47.059932    21.477306    21.980533   -9.3438989    -21.55895    2.8249602    22216.177    503.81158    1941.6323    619.58241    694.20159    318.95598     450.9783    47.059932    23.421852    30.917836    68.779149    134.21064    113.51189 
  417000      231.431   -12713.989   -11522.615   -12713.989            0    1627.1029      46.8208    21.657849     21.92342    -9.130752   -21.559339    3.1335777    22231.177    1743.2139    2215.2076    922.88718    116.02232    460.62542   -280.35187      46.8208    23.503895    30.907293    68.628986    134.23066    112.85985 
  417500    235.07552   -12727.508   -11517.372   -12727.508            0     1642.892    46.728319    21.658637    21.946181   -9.2773215   -21.346025    2.7239511    22211.109     1588.193    1291.4288    2049.0542    444.19983   -158.32152    618.32847    46.728319    23.561945    30.736095    69.211699    133.98689    113.18752 
  418000    235.37628   -12745.709   -11534.025   -12745.709            0    1907.5324    47.021197    21.556506    21.866926   -9.2240135   -21.683458     3.028989    22164.595    1693.1113    2149.6718    1879.8141   -242.90859   -26.164729   -26.821392    47.021197    23.447076    30.943652     68.55157    134.48641    113.16605 
  418500    236.71554    -12724.69   -11506.112    -12724.69            0    1631.1425    47.173559    21.544874    21.870638   -9.2141897    -21.60389    3.0010728    22228.189    2258.9133    976.93434      1657.58   -161.52543   -889.97613   -328.59372    47.173559    23.432518    30.887851    68.631497    134.38129    113.15515 
  419000    232.55558   -12699.868   -11502.704   -12699.868            0    1784.5705    46.744505     21.67101    21.910319   -9.2592961   -21.491546    2.6889522    22195.167    1751.6201    1472.5169    2129.5744    271.14174    30.345253    421.27795    46.744505    23.566231     30.80875    69.246856    134.23311    113.13539 
  419500    234.11451   -12700.746   -11495.558   -12700.746            0    1735.2813    46.805416    21.653522    21.895982    -9.173443   -21.516683    3.0631916    22191.623    1790.5251    1023.5247    2391.7941    386.79981    192.10074   -655.70112    46.805416    23.516528    30.851009     68.68567    134.22186    112.95978 
  420000    235.90688   -12747.038   -11532.623   -12747.038            0    1589.5554    47.073737    21.477403    21.945276   -9.2706884   -21.432365    2.9149656    22187.149    1510.8794    1645.3561    1612.4308    9.8135283   -1200.5533   -211.55466    47.073737    23.392831    30.812959    68.745523    134.07213    113.34737 
  420500    248.67925   -12712.049   -11431.883   -12712.049            0    1016.2918    46.993561    21.493451    22.025753   -9.1775239   -21.800807    2.8410558    22247.195    1805.5277    1002.1196      241.228    350.30859    394.54696    119.04269    46.993561    23.370823    31.120421    68.958057    134.46959    113.12208 
  421000    235.54839   -12726.011   -11513.441   -12726.011            0    2426.8408    46.759301    21.640646    21.869309   -9.2491977   -21.305762    2.9897263    22129.585    2980.0589    1770.8482    2529.6154    181.70657   -580.24516    615.56639    46.759301    23.534341    30.678015    68.742736    133.98708    113.14183 
  421500    243.38654   -12711.239   -11458.319   -12711.239            0    2521.9049    46.778614    21.547595    21.948855   -9.0626889   -21.719769    2.7581773    22123.713    3377.1303    2286.6014    1901.9831   -1344.3741    849.82184    421.49787    46.778614    23.375868    31.001744    69.290621    134.47502     112.8111 
  422000    234.93476   -12687.088   -11477.677   -12687.088            0    2213.2326    47.059807    21.492442      21.8887   -9.4061477   -21.389103     3.081623    22138.891    2932.4298    1636.0705    2071.1975    255.19711   -626.92302    40.503945    47.059807    23.460619    30.758825     68.24841    134.05759    113.63655 
  422500    239.55331    -12715.24   -11482.053    -12715.24            0    2448.4976    46.829125     21.53342     21.89993   -9.0912052   -21.625582    2.9000471    22083.697    1887.5532    2905.7087    2552.2309    71.942508    614.28876    59.773672    46.829125    23.373878    30.914123    68.991509    134.38989    112.88901 
  423000    239.07972   -12723.906   -11493.157   -12723.906            0    2420.5744    46.785689    21.586017    21.830247   -9.3395592   -21.379145    2.8220024     22046.73    2331.2017    2926.9586    2003.5628    640.75846   -1073.4688   -775.45138    46.785689    23.519853    30.685358    68.834256    134.16455    113.39655 
  423500    239.28615   -12760.996   -11529.184   -12760.996            0    2260.8338    46.957889    21.521845    21.860699    -9.197339    -21.61788     2.910505    22092.869    2391.9125    1782.5806    2608.0084    417.98854    309.43658    52.169803    46.957889    23.404718    30.881936    68.792321    134.42837    113.13939 
  424000    230.08219    -12736.96   -11552.529    -12736.96            0    1754.4527    47.259325    21.486108    21.865223   -9.2715576   -21.587562    2.8645938    22202.363    1256.7027     2149.607    1857.0483   -332.68985   -147.85461   -532.91687    47.259325    23.401167    30.859629    68.753049    134.39015    113.34088 
  424500    236.98305   -12686.063   -11466.108   -12686.063            0    1336.8974    46.684805    21.789401    21.900565    -9.147016   -21.476692    2.9964878    22277.998    1723.6926    1258.1183    1028.8812    208.16247    -337.2001    5.9922018    46.684805     23.63146    30.819831    68.938167    134.17454    112.77227 
  425000    241.07475   -12706.341   -11465.322   -12706.341            0    1677.9717    46.778572    21.695023    21.883598   -9.1747536   -21.467538    2.8465828    22208.836    2268.4127    1107.6665    1657.8359   -271.34648   -446.87664    267.27502    46.778572    23.555257    30.787174    69.099177    134.20985    112.92334 
  425500    233.47233   -12656.768   -11454.885   -12656.768            0    1784.3569    47.261765    21.503357    21.896175   -9.3067885   -21.598167    2.9440212    22252.789    1969.4953    2324.2593    1059.3159   -173.75758   -828.73213   -61.662443    47.261765    23.430977    30.896449    68.585615    134.35085    113.40327 
  426000    239.79835   -12716.194   -11481.746   -12716.194            0    1703.1394    47.243552    21.471455    21.900018   -9.2024819   -21.795829    2.9999052    22215.111    1057.7486    1708.8945    2342.7749    -246.5513    413.67609     44.07014    47.243552    23.360416    31.043009    68.567106    134.59711    113.19956 
  426500    232.54251   -12707.271   -11510.175   -12707.271            0    1479.5421    46.802184    21.657409     21.90146   -9.3114092   -21.440553    2.8866134    22199.627    1658.4079    1304.4209    1475.7975      247.419   -790.06138    191.64729    46.802184    23.574259    30.784798    68.823966    134.14412    113.26485 
  427000    233.85249   -12726.593   -11522.753   -12726.593            0    1704.2801    46.624328    21.719003    21.893265   -9.0108184   -21.494885    3.0028118    22169.864    2277.7723    972.41522    1862.6527   -1056.3504    376.45641   -1050.7103    46.624328    23.514037    30.827943    69.073854    134.20705    112.53267 
  427500    231.42155   -12669.343   -11478.018   -12669.343            0    1831.3015    47.213251    21.439052     21.95183   -9.4366353   -21.521247    2.9236558    22219.803    2276.7865    1775.6858    1441.4321   -76.347316   -947.02305    137.43448    47.213251    23.423984    30.880328    68.443507    134.18075    113.75722 
  428000    234.73942   -12727.897   -11519.491   -12727.897            0     1691.231    47.034868    21.466921    21.938349   -9.1974816   -21.749965    2.8240665    22151.015    2235.1812    1028.0293    1810.4824    515.78951   -312.95675     532.0109    47.034868     23.35428    31.021403    68.912078    134.51755    113.19267 
  428500    235.10487   -12722.036    -11511.75   -12722.036            0    1249.0908    46.842481    21.756484    21.853029   -9.2420708   -21.286087    2.9831722    22271.027    1747.9722    500.59601    1498.7043    250.65161    -444.9094    179.85354    46.842481    23.638115    30.652107    68.832831    133.98271     113.0156 
  429000    235.91012   -12700.615   -11486.183   -12700.615            0    1632.6039    46.766707    21.655192    21.940854   -9.2358557   -21.707653     2.969003    22220.424    1634.0533    2044.7811    1218.9773    315.84705    203.43347   -66.787807    46.766707     23.54248    31.007068    68.732366    134.43401    113.09806 
  429500    240.50751   -12696.583   -11458.485   -12696.583            0    1973.6914    46.978633    21.557546    21.918269   -9.2792365    -21.38975    2.8407237    22197.596     1242.639    3176.5253    1501.9101     387.0033    331.12325   -51.475009    46.978633    23.469811     30.75714    68.912696     134.0623    113.28899 
  430000     231.1449   -12752.458   -11562.557   -12752.458            0    1839.1364    47.194923    21.439309      21.8501    -9.275951   -21.788715    3.0511468    22108.511    1602.0496       1523.4    2391.9595    183.67941   -241.64558    115.10152    47.194923     23.35995    31.007812    68.325298    134.64279    113.39625 
  430500    238.08965   -12704.733   -11479.082   -12704.733            0    2908.6818    46.835905    21.639877    21.796476   -9.2557507   -21.460907    2.8464459    22091.235    3226.8958    2684.2602    2814.8893    146.54255    110.68058    -414.8313    46.835905    23.536211    30.720663    68.905217    134.31336    113.15724 
  431000      227.977   -12744.038   -11570.445   -12744.038            0    2521.1993    46.654579    21.678866    21.830084   -9.1554559   -21.409665     2.910041    22079.348    3135.2944     1720.496    2707.8076   -653.24343   -317.22774    332.48126    46.654579    23.532863     30.71473    68.993946     134.1907    112.89539 
  431500    237.87358   -12732.052   -11507.513   -12732.052            0    2555.2059    47.092274    21.521928    21.797359    -9.258642   -21.601176    2.9782656    22091.983    2351.7443    2742.8852    2570.9882   -427.14246   -166.53579   -297.84789    47.092274    23.428953    30.831895    68.555392    134.47607    113.27717 
  432000     233.0791   -12669.269   -11469.411   -12669.269            0     2875.849    47.249034    21.427689    21.820884   -9.2487987   -21.628946    2.8140658    22092.283    2772.4042    2488.5895    3366.5532   -1114.8734   -853.99582    337.79966    47.249034    23.338512    30.852573    68.804114    134.51066     113.3464 
  432500    240.25622   -12745.621   -11508.816   -12745.621            0    1577.2604    46.946252    21.643428    21.805304   -9.2629534   -21.646716    2.9742092    22155.886    1413.9574    1376.3749     1941.449   -403.00414    659.52587   -72.950471    46.946252    23.542309    30.869038    68.623854    134.52687    113.16995 
  433000    236.16604   -12726.948   -11511.199   -12726.948            0    1089.5675    46.759789    21.780533    21.811442   -9.1892078    -21.31478    2.9705144    22213.931    1615.2217    494.41314    1159.0676    263.55254   -223.36495   -1.7105196    46.759789    23.639652    30.641195     68.91673    134.07704    112.87488 
  433500     231.2956   -12705.058   -11514.381   -12705.058            0     1078.996    47.029161    21.559141    21.939718   -9.3032568   -21.768453    2.8079637    22244.862    374.38158    2096.2869    766.31959     254.3262    1167.9544    420.84104    47.029161    23.480782    31.033875    68.838866    134.54278    113.34129 
  434000    239.91204   -12735.717   -11500.684   -12735.717            0    1936.7915     47.11081     21.48395    21.885112   -9.2719497   -21.551354    2.8824181    22150.498    1002.0408    2207.9934    2600.3404    157.85273    49.989325    268.37728     47.11081    23.399341    30.850079    68.740197    134.31346    113.34385 
  434500    238.04179   -12693.194   -11467.788   -12693.194            0    1667.4124    46.934474    21.589646     21.92391    -9.206313   -21.622416    3.0483112    22215.469    1644.1064    2234.8511    1123.2797   -106.39129   -261.11201   -231.83808    46.934474    23.470599    30.943156    68.610056    134.32909     113.0945 
  435000    224.42522   -12727.878   -11572.569   -12727.878            0    1856.6517    46.554421    21.684639     21.95156    -9.275693   -21.303916    2.7325601    22160.447    1572.5916    2112.3315    1885.0319    1564.5027   -25.436378   -119.29766    46.554421    23.585209    30.711475    69.229933    133.92207    113.15901 
  435500    235.13759   -12751.415    -11540.96   -12751.415            0    2647.6912     46.80415    21.523641    21.913161   -9.0930385   -21.427397    3.0523625    22075.224    2814.0555     2644.383    2484.6349    669.51189   -410.49112   -247.62562     46.80415    23.365583    30.799949    68.775079    134.08269    112.90248 
  436000    244.63476   -12718.152   -11458.807   -12718.152            0    2832.8224    46.990716    21.412934    21.904409   -9.4219087    -21.71835    2.8361988    22040.416    2204.0495     3774.217    2520.2008   -559.31375    1182.6517    388.49513    46.990716    23.394147    30.976344     68.51963    134.51749    113.74998 
  436500     228.7028   -12729.364   -11552.035   -12729.364            0    2809.7099    46.797898    21.544632    21.875917    -9.113382   -21.366931    2.8685718     22056.25    3319.0598    2466.2049    2643.8649    30.681776   -626.81892     335.9446    46.797898    23.392838    30.713681    69.081377    134.08153    112.92837 
  437000      233.836   -12727.423   -11523.669   -12727.423            0    2087.8886     46.80644    21.659172    21.840058   -9.2111198   -21.487183    2.9898518    22141.205     1760.386    2282.1389    2221.1408    389.77732    337.09795   -80.983451     46.80644     23.53645    30.783541    68.743246    134.26747    113.03887 
  437500    234.72501    -12676.18   -11467.848    -12676.18            0    1716.0713    46.856452    21.655014    21.903256   -9.2230184   -21.529946    2.8774277    22224.732    2363.5704    1407.5914     1377.052   -636.49604    -249.7987    457.16369    46.856452    23.537283    30.847541    68.942293    134.26252    113.06949 
  438000    237.41264   -12736.085   -11513.918   -12736.085            0    1953.4251    47.349825    21.359174    21.895682    -9.252482   -21.663708    2.9554819    22144.267    1215.9862    2836.9246    1807.3647   -124.63336    564.87486   -569.65281    47.349825    23.277086    30.943045    68.534869    134.43628    113.42156 
  438500    240.77787   -12736.805   -11497.315   -12736.805            0    2176.3175    46.945755    21.558105    21.873802   -9.2075334   -21.594786    3.0053649    22137.633    1627.6353    2056.3663    2844.9507   -92.825358    915.83159   -73.331103    46.945755    23.442068    30.884142    68.646044     134.3644    113.12748 
  439000    239.46246   -12702.833   -11470.114   -12702.833            0    2299.2317    46.625106    21.639858    21.893972   -9.2173573   -21.238286    2.7043816    22090.157    2905.3915    1623.2205     2369.083   -429.63361   -73.510376    67.152113    46.625106    23.521121    30.622288    69.326717     133.9123    113.07127 
  439500    238.55838   -12683.994   -11455.929   -12683.994            0     2234.565    46.747142    21.591218       21.953   -9.1492756    -21.60425    3.1854427    22157.772    2608.3143    2117.7949    1977.5857    781.09749   -1.7662533   -106.21722    46.747142    23.449732    30.964898    68.473073    134.24287     112.9648 
  440000    232.33535   -12761.428   -11565.398   -12761.428            0    2123.3372    46.863168     21.45651    21.943593   -9.2874386   -21.462782    2.8123091    22064.723     3242.542    1881.5348    1245.9347   -452.09754   -415.19326   -350.15491    46.863168    23.380298    30.823391    68.879437    134.13208    113.40535 
  440500    237.41723   -12735.535   -11513.344   -12735.535            0    2940.5158    46.961727    21.475098    21.855043     -9.11466   -21.641544     3.015266    22040.979    2904.5845    2388.5971    3528.3658    430.48992   -211.41792    252.49181    46.961727    23.329313     30.90455    68.690542    134.44871    112.99779 
  441000    227.63685   -12777.084   -11605.242   -12777.084            0    2116.4609    46.781706    21.649017    21.784741    -9.283384    -21.46344     2.989194    22063.106    2400.3708    2003.7458    1945.2662    894.28934    -85.77437   -435.75523    46.781706    23.555491    30.727666    68.611331    134.30721    113.21029 
  441500    237.46451   -12699.824    -11477.39   -12699.824            0    2269.5101    46.860044    21.572444    21.857454    -9.204728   -21.558684    2.6971187    22095.387    2493.8872    1763.4558    2551.1872   -103.84168   -688.88934    1253.1327    46.860044    23.454155    30.818819    69.204788     134.3893    113.10742 
  442000    241.77315   -12755.218   -11510.603   -12755.218            0    1304.1074    47.222773    21.497962    21.815028   -9.2648686   -21.529324    3.2094288    22146.472    1265.7755    1454.4268    1192.1198   -279.55682   -256.10075    -776.6116    47.222773    23.409403    30.817328    68.152765    134.31567    113.31435 
  442500    238.32049   -12708.231   -11481.391   -12708.231            0    1365.1959     46.99642    21.494579    21.946673    -9.244822   -21.653411    2.8000573    22169.833    2839.4687    102.44456    1153.6745    186.01714   -472.42924    825.63463     46.99642    23.398369    30.957503      68.9337    134.38337    113.27255 
  443000    236.89398   -12735.911   -11516.414   -12735.911            0     1090.632     46.79152    21.706143    21.874487   -9.1770625   -21.361791    2.8930716    22217.116    1316.2348    73.467546    1882.1936    282.56703    151.59359    730.42256     46.79152    23.566398    30.711385    69.045384    134.07233    112.91798 
  443500    232.79523   -12698.799   -11500.402   -12698.799            0    1420.3382    46.838356    21.693182     21.90562   -9.2126597   -21.656664    3.1075735    22257.709    1935.6905    663.52992    1661.7941    158.33486     794.0154    153.24942    46.838356    23.568353    30.960043    68.542104     134.3872    113.00996 
  444000    233.74452    -12718.66   -11515.377    -12718.66            0    1750.8463    46.925336    21.538195    21.937889    -9.260715   -21.523136    2.8312966     22172.34     2782.908    992.72392    1476.9069    580.30044   -743.75124     340.0622    46.925336    23.444715    30.863127    68.915688    134.21668    113.26611 
  444500    232.83427   -12749.036   -11550.438   -12749.036            0     2089.548    46.987541    21.575872    21.845813   -9.2819963   -21.767453    3.2125246    22147.223    2022.9343    1832.0968    2413.6129    48.808131    699.32183   -525.75678    46.987541    23.487735    31.006158    68.123342    134.59062     113.2775 
  445000    237.79888   -12708.696   -11484.541   -12708.696            0      1704.18    46.747076    21.693282    21.897804   -9.2315108   -21.310779      2.76946    22206.509    2113.9913    1378.3142    1620.2345    390.08979   -340.40014    542.43736    46.747076     23.57582    30.681151    69.204349    133.99445    113.05203 
  445500    239.52851   -12713.257   -11480.198   -12713.257            0    1772.8046    46.921367    21.564289    21.930077   -9.2770031   -21.554248    2.8698695    22189.421    1958.3385    1915.9601    1444.1152   -298.27697    804.89294    185.79552    46.921367    23.475122    30.882844    68.827507    134.26164    113.27748 
  446000    244.72858   -12727.292   -11467.464   -12727.292            0    1889.4125     47.04263    21.483857    21.880147   -9.2103666   -21.606817    3.1968962    22113.327    2034.3004    1965.9835    1667.9536   -104.78505    304.37081   -761.15412     47.04263    23.374922    30.916266     68.25859    134.33736    113.20535 
  446500    231.19001   -12721.212   -11531.078   -12721.212            0    2158.0715    46.809703    21.529501    21.944541   -9.2285942   -21.485589    2.7080331    22115.479    2165.3918    2323.5215    1985.3013    381.59148   -52.060923    778.19311    46.809703    23.424055    30.830616    69.188632    134.17813    113.20233 
  447000    242.34316   -12714.269   -11466.721   -12714.269            0    2076.7172    46.657199    21.639174    21.936535   -9.1092283   -21.387905    3.1331019    22147.635    2370.0481    1546.6945    2313.4089   -378.52899    514.71905   -421.15531    46.657199    23.478328    30.797246    68.702572    133.98536    112.82915 
  447500    236.56519   -12749.268   -11531.464   -12749.268            0    2024.0155    46.902283    21.583338    21.874223   -9.2730442   -21.556359    2.9129703    22143.447    1550.0391    2476.8537    2045.1537    458.43016   -275.63752   -27.838574    46.902283    23.491058    30.848722    68.740071    134.32892    113.25025 
  448000    236.50818   -12718.196   -11500.685   -12718.196            0    2405.1874    46.980377    21.516884    21.890638   -9.2152021   -21.558702    2.8264112    22128.617    2014.2686    2961.1598    2240.1337    510.82626   -254.48718    -215.4189    46.980377    23.407183     30.85395    68.943175    134.32552    113.18437 
  448500    236.17888   -12756.699   -11540.883   -12756.699            0    1915.4996    47.131743    21.600924    21.774275   -9.3389266   -21.634891    3.3006088    22168.154    1473.1785    2550.0024     1723.318      184.385    710.76866   -1017.7144    47.131743    23.533284     30.87202    67.899285    134.49065    113.38072 
  449000    227.59086   -12703.397   -11531.791   -12703.397            0     1935.889    47.026309    21.582074    21.847376   -9.2410981   -21.652819    2.7185687    22173.454    1374.5626     1582.615    2850.4893    124.51147   -46.336966    567.69766    47.026309    23.477304    30.879492    69.087748    134.52367    113.17983 
  449500    230.27064   -12718.177   -11532.777   -12718.177            0    1438.4573     47.04785    21.629311    21.821562    -9.263348   -21.477803    2.9830697    22205.896    897.91495    895.02272    2522.4342    -205.3232   -87.402578    84.520043     47.04785    23.529486    30.763214    68.653997    134.27998    113.18436 
  450000    236.65569    -12705.89    -11487.62    -12705.89            0    1131.3457    46.940743    21.626678     21.92732    -9.235746   -21.762823    3.0233619    22260.008    1497.8721    946.86729    949.29768    347.78688    141.57145   -512.52329    46.940743    23.516211    31.041401    68.597485    134.51454    113.12507 
  450500    233.35905   -12699.071   -11497.772   -12699.071            0    2202.1838    46.863205    21.524446    21.942548   -9.2292965   -21.332302    2.7483899    22133.548    1223.9404    2822.1645    2560.4465    936.24737   -137.04892    792.34045    46.863205    23.419686    30.726148    69.156905    133.96923    113.20879 
  451000    227.37882   -12767.628   -11597.114   -12767.628            0    2152.4091    46.839103    21.519609    21.917796   -9.2387247   -21.672434    3.1791275    22092.244    2287.0974    2087.0328    2083.0972   -131.05119    494.45993   -408.44666    46.839103    23.418958    30.986949    68.272751     134.3793    113.23465 
  451500    234.07831   -12737.408   -11532.406   -12737.408            0    2181.1572    46.862316     21.52819    21.945738   -9.3052593   -21.439205    2.7665805    22140.196    2423.3027    1993.3546    2126.8142    647.92025   -936.11798    1406.4194    46.862316    23.453162    30.804365    68.987222    134.10532    113.37574 
  452000    240.13311   -12723.406   -11487.234   -12723.406            0    2439.8391    46.806003    21.556302    21.869041   -9.1254127   -21.490855    2.8952486    22065.082    1706.6926    2957.9784    2654.8463    185.67792    288.49048    18.433643    46.806003    23.408274    30.797634    68.985583    134.25145    112.94436 
  452500    233.39894   -12736.684   -11535.179   -12736.684            0     2367.691    46.926957    21.595893    21.770429    -9.385282   -21.643203    2.9934895    22062.796    1958.0687    2287.9133    2857.0911    1287.8923   -97.980341    90.690356    46.926957    23.547104    30.843813    68.365019    134.56381    113.48911 
  453000    225.40745   -12720.797   -11560.431   -12720.797            0    2315.1848    47.060786    21.590499    21.726599   -9.0411903   -21.569536      2.76359    22075.656     2764.149    1095.7716    3085.6339   -529.39061   -808.89841    1081.8558    47.060786    23.407109    30.739672    69.270465    134.56227    112.72188 
  453500    243.84588   -12697.338   -11442.054   -12697.338            0    2013.6641     47.06128    21.546539    21.874558   -9.3322424   -21.613358    2.9174266     22180.97    2005.8033    1946.9076    2088.2816    368.91484   -697.68145   -103.44367     47.06128    23.480717    30.889236    68.607136    134.40335    113.41841 
  454000    241.14413   -12731.007   -11489.631   -12731.007            0    1243.9228    47.036422    21.632226    21.851103   -9.1906515   -21.528073    2.9501658    22233.553    959.40644    392.05747    2380.3046    227.96598    554.24137    787.92962    47.036422    23.503644    30.816102     68.82084    134.31464    113.01866 
  454500    241.38202   -12718.026   -11475.425   -12718.026            0    1937.1493     46.57323    21.662128    21.944983   -9.1637968   -21.455371    2.8443155     22139.75    1942.5523    2512.6757    1356.2201    217.69237    -237.9634   -184.75718     46.57323    23.520692    30.822157    69.133298    134.11511    112.92997 
  455000    234.04707     -12706.5   -11501.659     -12706.5            0    1798.9704    47.024907    21.530838    21.933355   -9.4103721    -21.52458    2.9752783    22207.207    2096.9345    1747.0696     1552.907   -88.738429   -3.4318915    93.312386    47.024907    23.497491    30.874454    68.438183    134.19997    113.60845 
  455500    229.37381   -12721.016   -11540.232   -12721.016            0    1758.7977    47.023131    21.499311    21.952636   -8.9643176   -21.602717    3.0029537    22193.344     1136.721     2037.914     2101.758    21.681613    204.04421    535.40563    47.023131    23.293333    30.945328    69.008826    134.27421     112.6341 
  456000    241.29628   -12696.104   -11453.945   -12696.104            0    1934.9235    46.844901     21.57359     21.93799   -9.4626084     -21.4922    2.8180082    22170.811    1997.2131    2273.7218    1533.8357    202.98555    193.82598    415.18131    46.844901    23.557605    30.840415    68.678393    134.17756    113.68322 
  456500    233.75004   -12752.458   -11549.146   -12752.458            0    1844.5357    46.734588    21.651412    21.891538   -9.0119386   -21.505207    2.9577278    22151.386    2188.1853     1586.264    1759.1578   -170.78722    -1183.075   -215.05484    46.734588    23.452051    30.829556    69.107193     134.2309    112.59848 
  457000    235.77906   -12758.589   -11544.831   -12758.589            0    1474.9753    46.988791    21.615704    21.856767   -9.4818864    -21.36855    2.9419215    22199.826    2540.5753    378.87989    1505.4708   -212.29425   -829.34036    5.4527702    46.988791    23.603915    30.708111    68.452911     134.0958    113.68501 
  457500    235.64261    -12687.29   -11474.235    -12687.29            0     1625.028    47.018594    21.532747    21.950719   -9.1661912   -21.738508    2.8644947    22223.775    2327.4724    1717.9568    829.65473   -307.76463     513.2992   -97.672201    47.018594    23.402527     31.02583    68.937866    134.47985    113.05878 
  458000     229.1554   -12720.204   -11540.545   -12720.204            0    1257.6391    46.955748    21.628708    21.898083   -9.2743947   -21.328108    3.0376875    22239.522    1276.1383    962.62024    1534.1588   -221.09338     -430.174     426.8237    46.955748    23.533283    30.718753    68.622783    133.97166    113.20966 
  458500    234.85323   -12723.097   -11514.106   -12723.097            0    701.07389    46.680708    21.629639    22.059413   -9.1977745   -21.677029    2.8122978      22273.1    1660.3989    466.12182   -23.299082    640.10691   -60.540219    721.78927    46.680708     23.50405    31.055117     69.11522     134.2682    113.03711 
  459000    239.02374   -12750.109   -11519.648   -12750.109            0    1518.0927    46.979143    21.537959    21.961189   -9.2097223   -21.415504    2.9649935    22221.097     1585.617    1525.8025    1442.8587    -288.2695   -305.53309   -356.53916    46.979143    23.424403    30.817346    68.796429    134.02062    113.15176 
  459500    236.36671   -12751.581   -11534.798   -12751.581            0    1178.2621    47.083786    21.535758    21.932583   -9.3173851   -21.618623    2.9611998    22239.311     977.2111    1203.0616    1354.5137   -19.745537    223.07187    19.065577    47.083786    23.464921    30.938193    68.573385    134.32825    113.39559 
  460000     237.2025   -12700.943   -11479.858   -12700.943            0    1359.2362    46.922104     21.63572    21.916963   -9.1812244   -21.620897    2.7757026    22249.959    1342.9572    1609.6869    1125.0644    321.39442     431.9139    544.37941    46.922104    23.503176    30.911503    69.152002     134.3825    112.99418 
  460500    235.88958   -12727.532   -11513.206   -12727.532            0    2051.4488    46.889911     21.67767    21.840283   -9.2896049   -21.339999    3.0547341    22199.862    1617.2747    2035.5274    2501.5443    604.90416   -25.610235    19.631099    46.889911    23.584278    30.687537    68.567471     134.0588    113.19675 
  461000    241.51282   -12693.411   -11450.137   -12693.411            0    2254.1027    47.017915    21.538897    21.882378   -9.2197317   -21.744345    2.7267254    22160.591    1806.8428    1993.9357    2961.5295    404.00243    820.65885     392.2041    47.017915    23.429203    30.969179    69.069179    134.59803    113.17336 
  461500    233.83651    -12755.01   -11551.253    -12755.01            0    1963.6412    47.284307    21.510415    21.816432   -9.3858011   -21.473408    2.9751377    22189.604    479.46355    2720.8924    2690.5676    759.96543    -594.0366   -110.06101    47.284307    23.468942    30.755738    68.414719    134.28212    113.57345 
  462000    232.81168   -12713.733   -11515.252   -12713.733            0    1486.9909    46.833197    21.620934    21.944424   -9.1313867   -21.789876     2.927943    22220.429    1482.7379    1558.0961    1420.1387    289.97314    737.58135     13.17625    46.833197     23.47013    31.063311    68.915382    134.54479    112.89628 
  462500    236.72889   -12661.545   -11442.898   -12661.545            0    1988.0487      46.8499    21.629921    21.917616   -9.3294612   -21.358971    2.8391962    22210.428    2671.5572    1576.4007    1716.1882    11.775333   -770.99858    299.45976      46.8499    23.556153    30.735136     68.89652    134.02217     113.3316 
  463000    240.21089   -12705.771   -11469.199   -12705.771            0     2379.969      47.0096    21.473354    21.926123   -9.0406208    -21.70064    3.0811386    22133.408      2096.48    3142.3299    1901.0972    -599.9443   -374.42107    -615.4265      47.0096    23.298879    31.002678     68.70313    134.42381    112.83186 
  463500    233.61764   -12724.224   -11521.593   -12724.224            0    3142.4977    46.844185     21.48614     21.94468   -9.3321752   -21.390046     2.803328    22087.336    2960.7404    3403.3594    3063.3934    396.01289   -741.55902    569.25551    46.844185    23.425279    30.772743    68.870944    134.03496    113.47698 
  464000    239.14933    -12744.11   -11513.003    -12744.11            0    2789.3675    46.722658    21.593546     21.92232    -9.181372    -21.49888    2.9348361    22117.601    3104.9153    2823.9667    2439.2206   -110.44157    73.555018    593.08873    46.722658    23.464416    30.844825    68.881929     134.1869    113.03474 
  464500    235.43247   -12717.808   -11505.835   -12717.808            0    2637.6499    46.885846    21.562106    21.849781   -9.2486095   -21.508134    2.9409986    22089.201    3236.9496     2308.818    2367.1819    94.649899   -199.69296    83.026506    46.885846    23.461909    30.800361     68.71393     134.2914    113.21589 
  465000    232.94423   -12722.434    -11523.27   -12722.434            0    2463.3607     46.87085    21.535616    21.896781   -9.2151351   -21.558609    2.9295465    22102.449    2388.4894    2794.0185    2207.5741    477.85828   -428.70222    36.518585     46.87085    23.424378    30.867861    68.776314    134.30006    113.16618 
  465500    238.77733   -12766.169   -11536.977   -12766.169            0    2170.8094     46.90204     21.56303    21.860691    -9.166791   -21.532359    2.9543505    22108.812    2622.3468    1907.5404    1982.5409    -248.4406    526.44472    370.26429     46.90204    23.430628    30.826296    68.809071    134.30728    113.03113 
  466000    240.28532   -12712.277   -11475.323   -12712.277            0    2146.5507    46.994465    21.627633    21.760794   -9.3871622   -21.577256      2.86867    22117.215    2328.6982    1481.3538       2629.6   -513.39156    676.96061    151.35675    46.994465    23.576966    30.778879    68.616055    134.51058    113.46256 
  466500    234.65494   -12713.999   -11506.029   -12713.999            0    1670.2983    47.074833    21.584384    21.832128   -9.0032337   -21.609173    3.0060159    22183.217      1512.18    1216.4389    2282.2761   -1445.3246    520.52903     418.0641    47.074833    23.386831    30.864774    68.935797    134.43696    112.64189 
  467000    234.80881   -12673.795   -11465.033   -12673.795            0    1848.4919    47.011757    21.541959    21.919601   -9.4066223   -21.512085    2.7920804    22198.535    2087.1993    1461.8014     1996.475    854.64471   -934.08071    554.22688    47.011757    23.506181    30.838846    68.769475    134.23193    113.58922 
  467500    228.86885   -12734.548   -11556.364   -12734.548            0    1954.7757     46.79378    21.638849    21.899033   -9.1426382   -21.626421    2.8980696    22174.163    2054.4715    1744.8498    2065.0057   -132.34482    435.42354   -299.94605     46.79378    23.491012    30.913889    68.984182    134.39249    112.90456 
  468000    232.37957   -12710.315   -11514.058   -12710.315            0    1424.3528    46.952317    21.672196    21.857792   -9.2357401   -21.216128    3.0980467    22241.611    1378.9509    1848.2009    1045.9067   -64.698488   -1146.9884     -1175.86    46.952317    23.558077    30.618378    68.608632    133.86181    113.08158 
  468500    225.26061   -12685.936   -11526.326   -12685.936            0    1503.1109    46.993619    21.517735    21.986076   -9.2695694   -21.788324     2.824001    22232.238    745.13749    1700.3446    2063.8507    314.57306    1115.9607    465.82086    46.993619    23.429422    31.082046    68.851718     134.5068    113.30577 
  469000    236.49794   -12706.342   -11488.884   -12706.342            0    1587.7309    47.065576    21.558598    21.919875   -9.2583955   -21.488462    2.9556157    22241.392    1254.4947    2209.1185    1299.5795    492.63763   -356.61521    555.50636    47.065576    23.462545    30.837811     68.71333    134.17258    113.24123 
  469500    235.35228   -12749.002   -11537.442   -12749.002            0    738.19288     47.10469    21.602009    21.906805   -9.1293796    -21.58684    3.0505002      22291.4    928.56707     555.5331    730.47848    -685.2044    253.72448    -681.9004     47.10469    23.451916    30.906396    68.727001    134.30347    112.90975 
  470000    240.14766   -12733.251   -11497.004   -12733.251            0    1594.0541    46.788407    21.600113    21.947803   -9.2978313   -21.497849    2.8363246    22181.215    2126.9795    1975.3636    679.81926    925.63282   -509.86711   -244.48033    46.788407    23.516262    30.853011    68.903933    134.16946     113.2896 
  470500    237.66863   -12733.406   -11509.921   -12733.406            0    1269.4607    46.938669    21.591074    21.945999    -9.166382   -21.448635    3.0070131    22241.311    1767.7239       817.62    1223.0382   -301.71377    -611.2066   -615.67428    46.938669     23.45628    30.833633    68.800949    134.07701    113.00341 
  471000    233.02783   -12714.128   -11514.534   -12714.128            0    1831.4621    46.877086    21.561142    21.936316   -9.3132259   -21.681718     2.889208     22171.55    1960.9823    706.59263    2826.8112   -131.46655     793.9742    568.40172    46.877086    23.486571    30.978159    68.705883    134.41925    113.36169 
  471500    236.69449   -12717.976   -11499.506   -12717.976            0    2793.3468    46.993764     21.51394    21.862045   -9.2719274    -21.53636    2.7985665    22102.988    2470.2326    2788.9401    3120.8676    60.547732    89.505732    157.31416    46.993764     23.42687    30.815513    68.899481    134.33725    113.31474 
  472000    235.04084   -12691.517   -11481.559   -12691.517            0    2895.5712    46.957207    21.545227     21.87809   -9.0772768   -21.547602    3.1425991    22134.145    2953.9685    3455.0701    2277.6751   -302.87174    607.60848   -29.453506    46.957207    23.379345    30.867878     68.60165    134.27149    112.84631 
  472500    234.93087   -12710.308   -11500.917   -12710.308            0     1982.667    46.872513     21.58792     21.86439   -9.4188359   -21.477963    2.6164507     22124.14    2080.0078    1740.6231    2127.3701    669.14425   -24.839685    1072.8933    46.872513     23.55319    30.760368    69.072676    134.28556     113.5717 
  473000    238.86737     -12700.5   -11470.845     -12700.5            0    2295.7625    46.886288    21.577802    21.889058   -9.1881325   -21.544304    2.9484402    22145.227    3180.1579    2332.7824    1374.3471    -77.63387   -436.10936   -336.68977    46.886288    23.452576    30.854193    68.808704    134.28771    113.06499 
  473500    244.92363    -12722.27   -11461.437    -12722.27            0    2439.5351    46.878104    21.533494    21.936129   -9.2727456   -21.352124    3.0309408    22143.412    2812.7127    2235.3489    2270.5435    608.59323   -463.93368   -41.231706    46.878104    23.445152    30.761885    68.591109    133.95632    113.29766 
  474000    242.99597   -12768.589    -11517.68   -12768.589            0    2528.0791    46.560232    21.452534    22.110628   -9.0712074   -21.525215    2.7790365    22084.869    2698.2601    3173.6607    1712.3167   -113.17563    337.47842    261.41875    46.560232    23.291587    30.982863     69.31736    134.00697    112.92108 
  474500    235.45703   -12690.992   -11478.893   -12690.992            0    2934.2096    46.754998    21.517386    21.951079   -9.2614815   -21.314244    3.0259493    22083.782    3403.7668    3167.3188    2231.5431    460.54953   -81.280361   -720.23517    46.754998    23.425904    30.745784     68.62475    133.88723    113.28794 
  475000    238.34861    -12755.06   -11528.075    -12755.06            0    3160.9106    46.660378    21.531009    21.937668   -9.1073841   -21.477813    2.8978557    22039.569     3625.256    3091.0676    2766.4082   -153.61046   -779.76997    -325.5352    46.660378    23.377956    30.837563    69.030123    134.14544    112.92784 
  475500     236.2818   -12754.595   -11538.249   -12754.595            0     2537.848    46.964307    21.501437    21.868419   -9.3757302   -21.570916     2.790941    22082.731    2348.8003    2473.2207     2791.523    114.73159    630.46584    214.53969    46.964307    23.456686      30.8435    68.747164    134.37621    113.55967 
  476000    240.84988   -12696.955   -11457.094   -12696.955            0       2084.4    47.157072    21.566317    21.811675   -9.1296702   -21.661644    3.1754083    22182.569    1580.0991    2625.8944    2047.2065   -1125.9111    599.49934   -1738.3679    47.157072    23.419157    30.904032    68.415605    134.50188     112.9444 
  476500    235.77658   -12692.588   -11478.844   -12692.588            0    1495.9803    46.981344    21.594089    21.863343   -9.3043921   -21.587393    2.6972657    22180.784    1312.9632    1598.2216    1576.7562    62.279912    92.834153    185.20935    46.981344    23.513324    30.843096    69.067208    134.41979    113.31009 
  477000    236.87944   -12691.035   -11471.613   -12691.035            0     2743.996     46.87703    21.639698    21.739781   -9.3150261   -21.495142    2.9694314    22052.937    2352.2616    2390.8182    3488.9082   -100.35565    299.45851    19.380956     46.87703    23.559419    30.716066    68.562464    134.41106    113.28995 
  477500    244.36285   -12688.349   -11430.404   -12688.349            0    2844.7564    46.945219     21.56963    21.863395   -9.0986285   -21.563677    3.0319252    22138.677    2106.3934    3270.2346    3157.6412    -456.1218   -456.93932   -59.356773    46.945219    23.410126    30.857621    68.768796    134.33177    112.87128 
  478000    240.45618   -12731.006   -11493.172   -12731.006            0    2520.4416    46.873876    21.504071    21.912201   -9.3647239   -21.448867    2.6637217    22087.041     2324.362    2414.9779     2821.985    160.81957   -389.40821    954.52346    46.873876    23.454703    30.778139    69.047552    134.17773    113.53246 
  478500    228.72596   -12718.449       -11541   -12718.449            0    2888.7996    46.973606    21.606916    21.749605   -9.0770681   -21.586451      3.20717    22074.865    2257.0742    2549.1251    3860.1994   -445.96285    97.812336    -738.8806    46.973606    23.436126    30.810811    68.449393    134.47619    112.78728 
  479000    232.78718   -12727.603   -11529.247   -12727.603            0    2647.1696    46.892006    21.573996    21.832294   -9.2304644   -21.435596    2.8679686    22086.595    2660.0298    2995.1338    2286.3451     68.27517   -144.89799   -24.374223    46.892006    23.465693    30.730426    68.888376     134.2297    113.16373 
  479500    235.20565   -12741.371   -11530.566   -12741.371            0    2778.1993     46.89044    21.510631    21.861749   -9.2475473   -21.638428    2.7644998      22050.7    2454.4334    2808.5739    3071.5907   -494.33413    675.35494    527.89182     46.89044    23.414192    30.883655    68.963756    134.47865    113.26315 
  480000    236.76349   -12708.998   -11490.173   -12708.998            0    2382.3552    47.039959    21.582685    21.792618    -9.291202   -21.420351    3.2545874    22124.926    1434.9992    2301.2279    3410.8385    236.52281   -325.08004   -173.21678    47.039959    23.497633    30.730148    68.105611    134.19055    113.29156 
  480500    240.41471   -12704.749   -11467.128   -12704.749            0     2324.225      46.8233    21.556469    21.946323   -9.1885256   -21.597669    2.8290681    22151.411     2897.331     1799.768    2275.5761    324.66517    833.76828    1311.8992      46.8233    23.433103    30.920932    69.019347    134.30522    113.08631 
  481000    225.11496   -12775.687   -11616.827   -12775.687            0    2296.0191    46.874432    21.512379    21.886377   -9.3239092   -21.564884    2.9157074    22069.797    2351.8292    1864.3233    2671.9048    177.18222   -220.50181     326.9558    46.874432     23.44606    30.863556    68.620623    134.32414     113.4329 
  481500    236.73725   -12695.646   -11476.956   -12695.646            0    2263.0387     47.06895    21.562707     21.85738   -8.9055754     -21.4484    3.0403565    22183.798    1972.8958    2798.3823    2017.8381   -1078.1376     14.47662   -217.29143     47.06895    23.329372    30.773734    69.061119    134.18449    112.44103 
  482000     225.0237   -12746.779   -11588.389   -12746.779            0    1712.7226    46.825509    21.573917    21.866379   -9.4155027   -21.580684    2.8173885    22089.628    2138.7425    1743.6481    1255.7773    692.48759   -4.7883414   -311.58928    46.825509    23.539023    30.851291    68.684867    134.38744     113.5779 
  482500    238.84866   -12697.342   -11467.782   -12697.342            0     1755.405    46.774331    21.617751    21.902074   -9.1819231   -21.430893    2.9938149     22146.41    2011.7021    2266.2729    988.23992   -194.05187    542.90116   -565.57735    46.774331    23.486909    30.788748     68.80052    134.11195    113.01287 
  483000    232.04818   -12753.209   -11558.658   -12753.209            0    2012.5309    46.970477    21.396932    21.978629   -9.1190663   -21.511121    2.9577257    22089.051    1789.1953    2949.7785     1298.619   -238.39091   -65.759923   -567.64286    46.970477    23.259107    30.895576    68.835665    134.12711    113.08301 
  483500    238.16064   -12709.896   -11483.878   -12709.896            0    2531.5079    46.905798    21.523203    21.913221   -9.3507934   -21.541958     2.887495    22122.777     2044.225    2995.2083    2555.0905    947.95693    396.94454    350.80712    46.905798    23.466691    30.863941    68.658482    134.26398    113.48262 
  484000    231.44186   -12684.169   -11492.739   -12684.169            0    1888.8393    46.739776    21.645211    21.947825   -8.9910179   -21.451914    2.9560866    22204.446    1901.1955    2279.8022    1485.5201   -1032.3385    538.96205   -196.76566    46.739776    23.438293     30.83229    69.179694    134.08791    112.55709 
  484500    233.98734   -12720.112   -11515.578   -12720.112            0    1094.0458    46.895175    21.605487    21.940593   -9.5178688   -21.509366    2.9341929    22230.057    1643.1718    1074.3055    564.65997    478.46217    95.849581    444.30903    46.895175    23.609042    30.865061    68.411192    134.17754    113.77494 
  485000    239.24641   -12704.454   -11472.847   -12704.454            0    1140.9911    47.086944     21.56663    21.938935   -9.0631483   -21.649762    2.8784217    22279.135    788.59033    1048.8702    1585.5129   -771.62257    391.55451    469.68886    47.086944    23.393593    30.956653    69.104428    134.37547    112.79407 
  485500    239.16439   -12739.757   -11508.572   -12739.757            0    2098.2253    46.995102    21.576944    21.863882    -9.266021   -21.475856    3.0554075    22170.209    1576.4019    3045.9965    1672.2773    171.31162   -548.00325   -316.43698    46.995102    23.482411    30.798981    68.512276    134.21007    113.24066 
  486000    224.83112   -12771.543   -11614.144   -12771.543            0    2117.6417    46.818244    21.549327    21.891857   -9.3426977   -21.765351    2.5940423    22086.731    1768.3242    1985.9416    2598.6592    989.93737    1011.5283    1772.9068    46.818244    23.487432    30.979235    69.127282    134.63426    113.43911 
  486500    236.40792   -12720.448   -11503.453   -12720.448            0    2189.2567    46.911216    21.653154    21.797335   -9.1938722   -21.498615    3.0318898    22141.205    1827.4734    1327.4776    3412.8191    384.78189    202.90852    781.12553    46.911216    23.524166    30.765347    68.665158    134.33026    113.00595 
  487000    227.01635     -12742.7   -11574.052     -12742.7            0    2416.5014    46.979722    21.509825    21.871928   -9.3123648   -21.624853    2.9833259    22102.143    2520.1535    1959.0717    2770.2789    524.14867    134.42078   -48.365089    46.979722    23.439128    30.901711     68.49242    134.41053    113.40949 
  487500     235.3897   -12721.474   -11509.721   -12721.474            0    3044.8988    46.900948    21.432886    21.940414     -9.09817   -21.393599     2.659619    22055.002    2938.6478    3444.5131    2751.5355    468.04139   -712.85173    1090.6621    46.900948    23.284013    30.759412    69.429395    134.06818    113.00102 
  488000    238.93753   -12722.548   -11492.531   -12722.548            0    2537.6465    46.834632    21.623329    21.814975   -9.3225242   -21.590523    3.1360753    22092.475    2328.4952    2645.3371    2639.1073    56.244288    175.27078    -774.7826    46.834632    23.547352    30.852532    68.259997    134.41075    113.32245 
  488500    237.42012   -12705.294   -11483.089   -12705.294            0     1794.295    46.765639    21.655409    21.881616   -9.1049254   -21.406923    2.7712802    22160.148     2116.258    1628.8184    1637.8086     -548.457   -588.94384    547.70173    46.765639    23.491624    30.736647    69.325971    134.14388    112.80411 
  489000    236.70653   -12742.811   -11524.279   -12742.811            0    1580.7648    47.154109    21.461416    21.922874   -9.3328589   -21.665035    2.9860066    22185.815    751.30332    2388.5648    1602.4262    417.06581   -206.78156   -194.55304    47.154109    23.402876    30.966149    68.442348    134.39781    113.50263 
  489500    233.57772   -12721.008   -11518.583   -12721.008            0     1633.151    46.949114     21.50582    22.002708   -9.1973601   -21.508784    2.9950951    22215.676    2603.7268    1208.3499    1087.3762   -655.93783   -120.32174   -405.07389    46.949114    23.389992    30.914682    68.736466    134.08674    113.15487 
  490000    238.01382   -12717.207   -11491.945   -12717.207            0    992.11647    46.872525    21.622886    21.985307   -9.2386183   -21.438204    2.8496027    22282.532    1384.5545    225.44632    1366.3486    317.36495    -378.3767    474.04936    46.872525    23.513853    30.839431    69.016577    134.03962    113.13513 
  490500     236.7513   -12686.475   -11467.712   -12686.475            0    720.30268    46.731507    21.716249    21.989687   -9.2022811   -21.587848    3.1952531    22315.861     1169.425    438.14492    553.33809   -316.39487    365.52853   -1007.2515    46.731507    23.585535    30.980497    68.479182    134.17247    112.96485 
  491000    236.49298    -12698.49   -11481.057    -12698.49            0     1088.109      47.0646    21.569399    21.916288   -9.2333845   -21.493363    2.8690345    22248.432    1278.2953     508.1526     1477.879   -90.871067   -83.650901    584.78158      47.0646    23.462616    30.830499    68.905854    134.19848     113.1747 
  491500    238.78967   -12748.363   -11519.107   -12748.363            0    1910.8064     47.16782    21.533291    21.812895   -9.2821531   -21.848611    2.9232225    22154.886    1659.0527    1098.8448    2974.5219    209.11554    127.40134    380.94081     47.16782    23.448688     31.01144    68.564576     134.7919    113.31897 
  492000    232.16287   -12699.948   -11504.807   -12699.948            0    1710.5877    46.928213     21.73556    21.760651   -9.2344141   -21.424491    2.9242894    22196.103    2151.5552    878.52383     2101.684   -372.86671   -1169.7056    415.66831    46.928213    23.615863    30.677129    68.849304    134.29769    113.01835 
  492500    228.06917    -12758.37   -11584.302    -12758.37            0    1448.9314    46.726661    21.664322    21.886461   -9.2148763   -21.608053    2.8993963    22155.696    2374.5262    741.24876    1231.0193   -190.61411    645.35542   -70.800099    46.726661    23.542659    30.892258    68.890847     134.3841    113.04238 
  493000     229.8274   -12743.612   -11560.493   -12743.612            0    1601.0676    47.103816    21.437352    21.992194   -9.3058641   -21.457278    2.8442498    22207.301    1235.6125    2624.6585    942.93181   -246.37153   -583.99315   -94.010154    47.103816    23.370048    30.857109    68.810856    134.05715    113.46546 
  493500    240.21133   -12678.352   -11441.778   -12678.352            0    1522.0913    47.106295    21.470387    22.018244   -9.1935506   -21.660529    2.9566982     22269.04    1279.8803    2342.2234    944.17015     34.28508    813.05937    -115.5877    47.106295    23.355917    31.027789    68.752873    134.27484    113.18045 
  494000    235.26058   -12662.054   -11450.965   -12662.054            0     2061.843    46.784846    21.641718    21.967644   -9.2962787   -21.378908    2.9879205    22242.337    1705.8324    2522.1126    1957.5841    217.06675    349.11584   -631.71691    46.784846    23.553869    30.798746    68.708917    133.95941    113.24612 
  494500    238.51162    -12726.11   -11498.286    -12726.11            0    1659.2353    46.553901    21.707692    21.940811   -9.0136976   -21.469713     2.746839    22172.896    1905.2647    1208.8818    1863.5593    213.79695    381.75545    84.786325    46.553901    23.504694    30.820333    69.546355    134.15555    112.54972 
  495000    245.05995   -12743.011   -11481.477   -12743.011            0    1579.4661    47.093545    21.545904    21.824737   -9.3332633   -21.600532    2.9970624    22144.972     1320.833    1721.1443    1696.4209   -28.821544   -169.56781    104.58189    47.093545    23.480541    30.852626    68.442945    134.43661    113.42131 
  495500    235.56248    -12722.01   -11509.368    -12722.01            0    2368.9962    47.078441     21.43215    21.905169   -9.1733281   -21.663099    2.7767919    22102.145    1837.6703    2979.4608    2289.8573  -0.54988967    646.25386    1059.7809    47.078441    23.312808     30.93278    69.016554    134.45334    113.17176 
  496000     235.6449   -12735.597   -11522.531   -12735.597            0    2328.4063    46.948416     21.60456    21.817435   -9.3484748   -21.520592    3.0778655    22129.422     2656.575    2371.1211    1957.5227    285.86655   -23.556667    388.66933    46.948416    23.540412    30.799506    68.333846    134.32534    113.39854 
  496500    229.01552   -12714.568   -11535.629   -12714.568            0    1925.5146    46.590674    21.703795    21.890405   -9.0886011   -21.408797    2.7874412    22135.456    3431.7929    1392.2459    952.50502    57.268386   -191.89004    76.266278    46.590674    23.529926    30.745671    69.354595    134.13242    112.72181 
  497000    233.93777   -12744.664   -11540.386   -12744.664            0    2084.9615    46.887576    21.482312    21.946379   -9.2539278   -21.475574    2.9374825    22105.568    1415.9421    2941.6023    1897.3402   -180.33012    236.32227    283.07408    46.887576    23.390701     30.84595    68.721434    134.12453    113.30491 
  497500     236.7154   -12799.212   -11580.635   -12799.212            0       1926.8    47.062337     21.39981    21.936713   -9.3056331   -21.619408     2.932436    22093.013    1115.0368    2604.3316    2061.0316    303.13025    705.33463    117.83564    47.062337    23.335524     30.93893    68.557075    134.32895    113.50165 
  498000    234.23707   -12723.675   -11517.856   -12723.675            0    1591.8542    46.651357    21.652955     22.01909    -9.000097   -21.291408    2.9187341    22242.358    1818.0077    1859.0791    1098.4759   -707.19421   -400.91665   -380.18599    46.651357    23.448928     30.76822    69.317122    133.78812    112.57032 
  498500    233.61095   -12747.551   -11544.954   -12747.551            0    1612.7293    46.648207    21.681391    21.924524   -9.2389533   -21.499497      2.97311     22174.42    2056.7763    1156.1841    1625.2274     451.6688    241.04748   -481.34371    46.648207    23.567795    30.850486    68.786073    134.17828       113.08 
  499000    232.69835   -12655.117   -11457.219   -12655.117            0    2082.1674    46.925631    21.544454    21.948344   -9.2092272   -21.513365    2.8656316    22189.494    1869.1941     2248.719    2128.5889    710.10818    198.04209   -320.66806    46.925631    23.430181    30.866916    68.942116    134.18454     113.1444 
  499500    234.62429   -12733.201   -11525.389   -12733.201            0     1654.869    47.292295    21.395439    21.930852   -9.3268115   -21.745207    3.0206649      22190.5    759.40126     2857.845    1347.3607    669.70526     208.4528   -351.93466    47.292295     23.33997    31.031286    68.330165    134.48729     113.5536 
  500000    234.52473   -12676.037   -11468.737   -12676.037            0    2028.3284     46.98922    21.633913    21.840156   -9.2816171   -21.614975    2.9040022    22201.844    2152.0584    1468.1778    2464.7491    569.10206    72.945916   -39.679668     46.98922    23.540913     30.86475    68.741113    134.45209    113.22083 
Loop time of 1022.54 on 48 procs for 500000 steps with 2592 atoms

Performance: 84.495 ns/day, 0.284 hours/ns, 488.977 timesteps/s
100.0% CPU use with 48 MPI tasks x 1 OpenMP threads

MPI task timing breakdown:
Section |  min time  |  avg time  |  max time  |%varavg| %total
---------------------------------------------------------------
Pair    | 222.04     | 230.33     | 238.12     |  39.5 | 22.52
Bond    | 0.69377    | 0.74386    | 0.98463    |   4.9 |  0.07
Kspace  | 370.88     | 378.63     | 386.15     |  30.7 | 37.03
Neigh   | 13.593     | 13.674     | 13.731     |   1.0 |  1.34
Comm    | 45.495     | 70.74      | 87.041     | 207.3 |  6.92
Output  | 3.543      | 3.5439     | 3.5591     |   0.1 |  0.35
Modify  | 180.73     | 245.31     | 346.86     | 457.0 | 23.99
Other   |            | 79.57      |            |       |  7.78

Nlocal:             54 ave          59 max          49 min
Histogram: 1 4 2 6 8 8 6 5 3 5
Nghost:         3958.1 ave        3997 max        3932 min
Histogram: 2 7 7 8 11 5 3 2 2 1
Neighs:        16751.7 ave       18184 max       15257 min
Histogram: 4 1 5 7 6 7 5 5 3 5

Total # of neighbors = 804083
Ave neighs/atom = 310.21721
Ave special neighs/atom = 2
Neighbor list builds = 20354
Dangerous builds = 0

unfix		3
unfix		2
unfix		1

write_data	data.final.${pid}
write_data	data.final.0
System init for write_data ...
PPPM initialization ...
  extracting TIP4P info from pair style
  using 12-bit tables for long-range coulomb (../kspace.cpp:340)
  G vector (1/distance) = 0.38071197
  grid = 50 40 54
  stencil order = 5
  estimated absolute RMS force accuracy = 0.0021682915
  estimated relative force accuracy = 6.5297454e-06
  using single precision MKL FFT
  3d grid and FFT values/proc = 11832 4000
  generated 0 of 1 mixed pair_coeff terms from geometric mixing rule
Last active /omp style is kspace_style pppm/tip4p/omp
WARNING: Not all mixed pair coeffs generated from mixing. Use write_data with 'pair ij' option to store all pair coeffs. (../write_data.cpp:309)

write_restart   restart.lmp.${pid}
write_restart   restart.lmp.0
System init for write_restart ...
PPPM initialization ...
  extracting TIP4P info from pair style
  using 12-bit tables for long-range coulomb (../kspace.cpp:340)
  G vector (1/distance) = 0.38071197
  grid = 50 40 54
  stencil order = 5
  estimated absolute RMS force accuracy = 0.0021682915
  estimated relative force accuracy = 6.5297454e-06
  using single precision MKL FFT
  3d grid and FFT values/proc = 11832 4000
  generated 0 of 1 mixed pair_coeff terms from geometric mixing rule
Last active /omp style is kspace_style pppm/tip4p/omp
Total wall time: 0:17:02
