LAMMPS (30 Jul 2021)
  using 1 OpenMP thread(s) per MPI task
echo both

include		in.partitions
variable        pid world 0
include		in.temp
variable        temperature equal 235
variable	tempDamp equal 100.0
include		in.pressure
variable        pressure equal 2000
variable        pressureDamp equal 1000.0 # This is 1 ps
include		in.seed
variable        seed world 745823

units		real
atom_style	full
include		in.box
box tilt large
read_data       iceII.data
Reading data file ...
  triclinic box = (0.0000000 0.0000000 0.0000000) to (23.340000 21.468634 43.717812) with tilt (-9.1571470 3.9466400 5.9740430)
  4 by 4 by 8 MPI processor grid
  reading atoms ...
  2592 atoms
  scanning bonds ...
  2 = max bonds/atom
  scanning angles ...
  1 = max angles/atom
  reading bonds ...
  1728 bonds
  reading angles ...
  864 angles
Finding 1-2 1-3 1-4 neighbors ...
  special bond factors lj:    0        0        0       
  special bond factors coul:  0        0        0       
     2 = max # of 1-2 neighbors
     1 = max # of 1-3 neighbors
     1 = max # of 1-4 neighbors
     2 = max # of special neighbors
  special bonds CPU = 0.017 seconds
  read_data CPU = 0.066 seconds
include 	in.setup
variable	out_freq equal 500
variable	out_freq2 equal 500

timestep	2.0

neigh_modify    delay 7 every 1

include		in.tip4p
# This is TIP4P/Ice

# create groups ###
group ox type 2
864 atoms in group ox
group hy type 1
1728 atoms in group hy

# set charges - beside manually ###
set group ox charge -1.1794
Setting atom values ...
  864 settings made for charge
set group hy charge 0.5897
Setting atom values ...
  1728 settings made for charge

# ### TIP3P Potential Parameters ###
pair_style lj/cut/tip4p/long 2 1 1 1 0.1577 8.5
pair_coeff 1 1*2 0.000 0.000
pair_coeff 2 2 0.21084 3.1668
bond_style  harmonic
bond_coeff  1 450 0.9572
angle_style harmonic
angle_coeff 1 55 104.52
kspace_style pppm/tip4p 1.0e-5
pair_modify tail yes

thermo          ${out_freq}
thermo          500
thermo_style 	custom step temp pe etotal epair emol press lx ly lz xy xz yz vol pxx pyy pzz pxy pxz pyz cella cellb cellc cellalpha cellbeta cellgamma

restart 	${out_freq} restart.lmp.${pid} restart2.lmp.${pid}
restart 	500 restart.lmp.${pid} restart2.lmp.${pid}
restart 	500 restart.lmp.0 restart2.lmp.${pid}
restart 	500 restart.lmp.0 restart2.lmp.0


include         in.dump
dump            myDump all atom ${out_freq2} dump.water.${pid}
dump            myDump all atom 500 dump.water.${pid}
dump            myDump all atom 500 dump.water.0
dump            myDump2 all dcd ${out_freq2} dump.dcd
dump            myDump2 all dcd 500 dump.dcd
dump_modify     myDump append yes
dump_modify     myDump2 append yes


timer           timeout 05:00:00 every 1000
New timer settings: style=normal  mode=nosync  timeout=05:00:00

fix 		1 all shake 1e-6 200 0 b 1 a 1
       0 = # of size 2 clusters
       0 = # of size 3 clusters
       0 = # of size 4 clusters
     864 = # of frozen angles
  find clusters CPU = 0.003 seconds
fix             2 all nph tri ${pressure} ${pressure} ${pressureDamp}
fix             2 all nph tri 2000 ${pressure} ${pressureDamp}
fix             2 all nph tri 2000 2000 ${pressureDamp}
fix             2 all nph tri 2000 2000 1000
fix             3 all temp/csvr ${temperature} ${temperature} ${tempDamp} ${seed}
fix             3 all temp/csvr 235 ${temperature} ${tempDamp} ${seed}
fix             3 all temp/csvr 235 235 ${tempDamp} ${seed}
fix             3 all temp/csvr 235 235 100 ${seed}
fix             3 all temp/csvr 235 235 100 745823
velocity 	all create ${temperature} ${seed} dist gaussian
velocity 	all create 235 ${seed} dist gaussian
velocity 	all create 235 745823 dist gaussian

run             500000
PPPM initialization ...
  extracting TIP4P info from pair style
  using 12-bit tables for long-range coulomb (../kspace.cpp:340)
  G vector (1/distance) = 0.36656857
  grid = 30 40 60
  stencil order = 5
  estimated absolute RMS force accuracy = 0.0046837777
  estimated relative force accuracy = 1.4105057e-05
  using double precision FFTW3
  3d grid and FFT values/proc = 4864 640
Neighbor list info ...
  update every 1 steps, delay 7 steps, check yes
  max neighbors/atom: 2000, page size: 100000
  master list distance cutoff = 10.8154
  ghost atom cutoff = 10.8154
  binsize = 5.4077, bins = 7 6 9
  1 neighbor lists, perpetual/occasional/extra = 1 0 0
  (1) pair lj/cut/tip4p/long, perpetual
      attributes: half, newton on
      pair build: half/bin/newton/tri
      stencil: half/bin/3d/tri
      bin: standard
Per MPI rank memory allocation (min/avg/max) = 9.434 | 9.448 | 9.454 Mbytes
Step Temp PotEng TotEng E_pair E_mol Press Lx Ly Lz Xy Xz Yz Volume Pxx Pyy Pzz Pxy Pxz Pyz Cella Cellb Cellc CellAlpha CellBeta CellGamma 
       0          235   -13874.649   -12664.902   -13874.649            0   -1066.3529        23.34    21.468634    43.717812    -9.157147      3.94664     5.974043     21906.03   -4950.9867   -3228.7469    4980.6749    1907.1047    3775.9375     1553.371        23.34        23.34    44.300251    84.888832    84.888832        113.1 
     500     232.5569   -12690.022   -11492.852   -12690.022            0    2707.3678    23.453011    21.544593    43.906818   -9.1938289    3.8988602    5.8534339    22185.482    2276.8466    2714.5429    3130.7139   -499.33274   -39.045101   -445.64792    23.453011    23.424261    44.466532    85.028527    84.969802    113.10963 
    1000    234.20728   -12710.606    -11504.94   -12710.606            0    1537.2266    23.457565    21.619148    43.874072   -9.2475877     3.818137    6.0134088    22249.971    2492.5924     825.8197    1293.2678    91.564596    114.26601   -270.97123    23.457565    23.513942    44.448548    84.801617    85.072211    113.15881 
    1500    240.23637   -12718.442   -11481.739   -12718.442            0    2206.9476    23.359843    21.657727     43.76264   -9.2084767    3.9528189     5.563332    22140.444    2170.0595    1706.7801    2744.0034    54.880998   -156.82569    22.894688    23.359843    23.534086    44.291581    85.372792    84.879804    113.03433 
    2000     237.4477   -12722.368   -11500.021   -12722.368            0    2073.8102    23.529042    21.588784    43.543412   -9.2193529    3.7458793    5.8276553     22118.46    1561.7016    1854.2629     2805.466    412.67568   -135.91665    139.51013    23.529042    23.474925    44.091064    84.940639    85.126402     113.1246 
    2500    235.57615   -12671.969   -11459.256   -12671.969            0    2943.7339    23.631389    21.439982    43.514979    -9.429793    3.7787541    5.8370407    22047.149    2112.1033    3751.0797    2968.0186    389.73781   -97.969044   -305.02561    23.631389     23.42208    44.067033    85.024734    85.080838    113.74099 
    3000    242.23719   -12756.656   -11509.653   -12756.656            0     2611.031    23.428871    21.560346    43.679391   -9.1103733    3.8677584    5.6466378     22063.97    2650.4538    1829.6951    3352.9441   -562.42856    764.78955    1399.1796    23.428871    23.406141    44.212366    85.204807    84.981271     112.9066 
    3500    232.79931   -12730.077   -11531.659   -12730.077            0    2269.4435    23.322283    21.674471     43.74223   -9.2029157    3.9334397    5.9974767    22111.616      3140.44    1732.6335     1935.257    327.63263   -766.23062   -168.80686    23.322283    23.547321    44.326339    84.844438    84.908979    113.00593 
    4000    234.30506   -12748.189   -11542.019   -12748.189            0    1805.7476    23.376386    21.582026    43.872471   -9.2045627     3.662934    5.6587119     22134.09     2263.128    1835.6823    1318.4327    -14.23872   -104.56441    338.24083    23.376386    23.462903    44.387294    85.130208    85.266447    113.09786 
    4500    232.19614   -12706.867   -11511.554   -12706.867            0    1943.2536     23.62277    21.386507    43.877228   -9.3314436    3.9190357    5.8664258     22167.15    1482.1621     2046.387    2301.2117   -55.215953   -267.22753   -267.02833     23.62277    23.333635    44.440803    85.082382     84.94077    113.57279 
    5000    228.60535   -12666.115   -11489.287   -12666.115            0    1426.6801     23.52091    21.678221    43.655019   -9.1993093    3.9447506    6.0009365    22259.323    1743.7758    1444.4043    1091.8602    608.08801    -382.2495   -278.07656     23.52091    23.549364    44.241756    84.834583    84.884513    112.99429 
    5500    233.08623   -12742.253   -11542.358   -12742.253            0    1365.4566    23.348266    21.719067    43.741883   -9.2636716    3.7408729    5.5703053     22181.62     1372.635    1172.6554    1551.0792    715.94063    157.34139    690.57644    23.348266    23.612147    44.253528    85.261026    85.150843    113.09934 
    6000    242.55042    -12710.54   -11461.925    -12710.54            0     1427.133    23.511157    21.597315     43.76646   -9.2321616    3.8478774    6.0288697    22223.639    1232.0069    1532.5274    1516.8647    240.55585   -107.09571   -145.53501    23.511157    23.487802       44.347    84.784587     85.02233    113.14516 
    6500    236.66072   -12763.218   -11544.922   -12763.218            0     1231.682    23.530323    21.470644    43.893061   -9.2024916    3.9212998    5.6862815    22175.266    418.29672    1700.2765    1576.4728   -67.562172    214.60161   -4.6019501    23.530323    23.359675    44.433222    85.247121    84.936973    113.20036 
    7000    228.35459   -12701.616   -11526.079   -12701.616            0    2603.1659    23.406418     21.60932    43.737237   -9.3341764     3.891562    6.0471856    22122.154     2919.076    2739.0671    2151.3546    762.14957    158.02419   -278.36408    23.406418    23.539107     44.32447    84.811647    84.963109      113.362 
    7500    241.31704   -12743.272   -11501.006   -12743.272            0    2270.6001    23.319544    21.681669    43.799909   -9.1414869    3.6501456    5.8234345    22145.524    2036.9094       2410.3     2364.591   -201.48077    854.33246    660.87796    23.319544    23.530013    44.335854     84.89132    85.277526     112.8614 
    8000    230.13866   -12713.246   -11528.525   -12713.246            0    2389.7704    23.451847    21.527641    43.843553   -9.2354422    4.0909125    5.5400393    22134.985    2869.5101    1855.5911    2444.2102   -187.98105   -39.501398   -122.78168    23.451847    23.425045     44.38113    85.504745    84.711148    113.21952 
    8500    233.82428   -12746.882   -11543.188   -12746.882            0    1971.8506    23.551603    21.470414    43.855051   -9.1422776    3.7388538    6.4633599    22175.863    1488.7341    3123.8165    1303.0012   -277.77907    175.97009   -967.87673    23.551603    23.335808    44.486173    84.217711    85.178872     113.0647 
    9000    242.73667   -12703.774     -11454.2   -12703.774            0    2042.4255    23.416791    21.569772    43.893529   -9.2842203    3.8893021     5.546101    22170.395    1992.2465    1843.5596    2291.4705    120.89188      101.581    609.94198    23.416791    23.483011    44.413149     85.40688    84.976118    113.28837 
    9500    233.06348   -12693.097   -11493.319   -12693.097            0    1484.6104    23.386777    21.650624    43.790642   -9.1740115    3.7803812    5.8002173     22172.88    71.086527    1321.3791    3061.3655    1583.1712    170.47138    268.34846    23.386777    23.514081     44.33457    84.997883    85.108485    112.96381 
   10000    242.36945   -12742.002   -11494.318   -12742.002            0    1424.3479    23.597463    21.533569    43.572436   -9.3141772    3.9950831    6.2028427    22140.793    996.85465    1268.7529    2007.4361   -290.32282    323.75354   -223.18755    23.597463    23.461639    44.192681    84.667501    84.813297    113.39052 
   10500    241.66217    -12688.94   -11444.897    -12688.94            0    1432.1604    23.560721    21.536698     43.74666   -9.2514362     3.686743     5.382947    22197.936    1494.2413    1861.5467    940.69302    571.40703    28.164928    596.34586    23.560721    23.439676    44.230515    85.473343    85.218681    113.24672 
   11000    238.33108   -12729.715    -11502.82   -12729.715            0    2084.8951    23.452097    21.650666    43.562606   -9.4030258    3.7484349    6.1683267    22119.067    1901.5914    1621.6891    2731.4049    636.11993    311.92015   -463.91819    23.452097    23.604412    44.156536    84.588201    85.130318    113.47562 
   11500    230.37001   -12690.851   -11504.939   -12690.851            0    2280.3884     23.42382    21.621112    43.686496   -9.0574051    4.0086514    5.8648431    22124.984    2372.2875    2010.5562    2458.3215   -250.14657   -1388.7283   -320.70625     23.42382     23.44161    44.260316    84.996148    84.803608    112.72953 
   12000    236.02241   -12667.549   -11452.539   -12667.549            0    2105.6879    23.508586    21.458872    43.883315   -9.3910922    3.7368167    5.5589727    22137.717    2319.8615    1648.0335    2349.1686    248.79386    111.00976    333.79538    23.508586     23.42383    44.391568    85.355554    85.171212    113.63573 
   12500    237.20957   -12699.761   -11478.639   -12699.761            0    2004.3376    23.515314    21.511167     43.78752   -9.1391578    3.8922383    6.2718442     22149.56    1836.0389    2992.4968     1184.477   -609.03292     192.0607   -863.58705    23.515314    23.372088     44.40532    84.507217    84.971427    113.01852 
   13000    235.30162   -12680.375   -11469.075   -12680.375            0    1664.8022    23.363089    21.693502    43.772547   -9.1836861    3.8978706    5.6398751    22185.118    1885.5096    704.65239    2404.2447     -961.482    132.75345    500.63518    23.363089    23.557337    44.306179    85.243283    84.952834    112.94479 
   13500    224.67326   -12697.714   -11541.128   -12697.714            0    1573.1264    23.475253      21.6134    43.674549    -9.396882    3.6622392    6.0614714    22159.594    1603.6839    1356.8469    1758.8485    729.53763   -212.95972   -567.92618    23.475253    23.567784    44.244996    84.684806    85.252092    113.49801 
   14000    229.02119    -12731.97   -11553.001    -12731.97            0    1921.6865    23.598892    21.472713    43.721146   -9.0657462    4.1715736    5.8046101    22154.914     1576.981    1611.5058    2576.5727   -113.63509   -350.38788    356.04002    23.598892    23.308049    44.301626    85.176732    84.596853     112.8894 
   14500    233.43188   -12745.743   -11544.069   -12745.743            0    2275.3069    23.458598    21.529721    43.766669   -9.3776434    3.7089449    5.6524891    22104.666    2169.7379    2287.9914    2368.1914    691.80937   -292.62957    185.13847    23.458598    23.483379    44.285757    85.205964    85.195835    113.53637 
   15000    243.97755   -12742.126   -11486.164   -12742.126            0    2301.4425    23.269821    21.686467    43.807869   -9.0724239    3.6795133    6.1072321    22107.212    3398.2287    2326.9874    1179.1114   -376.16228     31.67935   -916.46532    23.269821    23.507695    44.384305    84.551892    85.244652    112.70175 
   15500    238.04782   -12729.243   -11503.806   -12729.243            0     1915.118    23.438756    21.508149    43.959926   -9.2794368    4.1731862    5.6907322    22161.265    1547.8865    2617.6463    1579.8212    198.99278   -155.73764    24.409721    23.438756    23.424526    44.522747    85.398297    84.621683    113.33721 
   16000     238.6055   -12710.206   -11481.898   -12710.206            0    2005.8605     23.50711    21.407906    43.956138   -9.2950691    3.4175661    5.7882305    22120.398    2309.7761    2661.5411    1046.2642    56.977065     405.5232    75.689689     23.50711    23.338739    44.467127     84.90597    85.592128    113.46994 
   16500    240.14155   -12691.622   -11455.408   -12691.622            0    2198.0266    23.518005    21.597867    43.562866   -9.2382594    4.3187909    5.8223693    22127.268    1789.4604    1636.8764     3167.743   -685.61032    712.44037    463.52316    23.518005    23.490706    44.161921     85.25289    84.387821    113.15831 
   17000    235.17989   -12697.997   -11487.324   -12697.997            0    2059.8106    23.350549    21.650144    43.708948    -9.142517    3.3269501    5.7516516    22096.742    2194.3013     1899.058    2086.0726   -100.04642    591.13498    64.116446    23.350549    23.501369     44.21111    84.803423     85.68433    112.89357 
   17500    232.65055   -12712.761   -11515.109   -12712.761            0    2186.9176    23.479732    21.616298    43.610045   -9.3467195    4.1475071     5.981736    22134.056    2777.2681    1836.0146    1947.4702    314.85551   -342.33477   -98.823318    23.479732    23.550489    44.213335    85.011773    84.617358    113.38328 
   18000    239.06491   -12770.344   -11539.672   -12770.344            0    1362.4521    23.570891    21.447732    43.843722   -9.0843102    3.7333016    5.7420303    22164.849    2775.0313    1263.5178    48.807145   -985.39393   -98.053929    42.876085    23.570891    23.292271    44.375449    85.047049    85.174008    112.95537 
   18500    233.98251   -12717.976   -11513.467   -12717.976            0    1441.1315    23.437485    21.579946    43.856275   -9.2708224    3.8648524    6.0121861    22181.611    1629.8692    1876.0269    817.49833    114.61544    286.69195   -182.86025    23.437485    23.487065    44.434854    84.837258    85.010226    113.24853 
   19000    233.41254   -12707.691   -11506.116   -12707.691            0    1734.0984     23.25143    21.718952    44.047499   -8.9505064    4.0878622    5.4857831    22243.841     2817.799    1323.5689    1060.9274   -462.44457   -1309.3526     208.1349     23.25143    23.490943    44.575628    85.478009    84.738228    112.39684 
   19500    233.09492   -12706.858   -11506.918   -12706.858            0    2137.5315    23.495621    21.540976    43.836785   -9.3850269     3.840578    6.1113164    22186.612    1424.0017    2705.3856    2283.2072    631.62297   -462.56851   -567.58867    23.495621    23.496646    44.427041    84.745453     85.04077    113.54192 
   20000    232.52537   -12730.944   -11533.936   -12730.944            0    1441.0957    23.585971    21.456239    43.873533   -9.1352343    4.0372723     5.651599    22202.913    1489.6052      1621.34    1212.3419   -783.99331   -573.39684    463.62061    23.585971    23.320006    44.419895    85.327593    84.785257    113.06242 
   20500    230.32613   -12692.454   -11506.768   -12692.454            0    1891.1231     23.42139    21.628117    43.814768   -9.3457984    3.5838972     5.752865    22194.833    2105.5822    1626.2407    1941.5462   -283.43668    961.54505    121.78956     23.42139    23.560972    44.335918    85.006244    85.363433    113.36982 
   21000    234.95154   -12730.348   -11520.851   -12730.348            0    2697.2722    23.384265    21.722265    43.608718   -9.1826178    4.0468135     6.068091    22151.449    2579.7155    2286.7149    3225.3861     224.1796   -311.93506   -203.97142    23.384265    23.583411    44.214463    84.791877    84.748544    112.91516 
   21500    234.07308   -12761.789   -11556.814   -12761.789            0    1839.4088     23.54995     21.47833    43.827174   -9.1846571    3.7030332    5.6368848     22168.38    1756.3531    2035.1046    1726.7687   -768.96677    346.95907    374.69381     23.54995    23.359722    44.343072    85.178753    85.209724    113.15273 
   22000    240.15518    -12688.22   -11451.935    -12688.22            0    1817.6269     23.71838    21.418548    43.754215   -9.5296329    3.9266995    6.1252186    22227.722    1152.3085    2190.2655    2110.3067    37.176172   -802.13847    -526.8724     23.71838    23.442869    44.355029    84.825855    84.921022    113.98544 
   22500    233.99032   -12699.738   -11495.189   -12699.738            0    1936.2539    23.415788        21.64    43.733242   -9.1442815    3.6726593    5.6997622    22160.405    2047.5775    1550.7611     2210.423    177.76622     42.71233   -507.79875    23.415788    23.492711    44.255759    85.047337    85.239712    112.90716 
   23000    228.97464   -12730.128   -11551.399   -12730.128            0    1041.7822    23.406302    21.711825    43.760251   -9.2999359    4.0741516    5.7902565    22238.676    1262.0036    922.69928    940.64381   -641.26863    185.85139   -485.72238    23.406302     23.61974    44.329283    85.188297    84.726701    113.18715 
   23500    236.90966   -12726.241   -11506.663   -12726.241            0    805.29136    23.542685    21.545855    43.926356   -9.1261615     3.625067    5.9392177    22281.524    568.94144    1125.5805    721.35219   -443.49794    319.15648    313.38864    23.542685    23.398947    44.474039    84.768698     85.32465    112.95602 
   24000    241.38854   -12674.802   -11432.168   -12674.802            0    1233.8499    23.613856    21.436132     44.01826    -9.382987    4.1461375    5.6628896    22281.591    690.75153    2645.3503    365.44782    408.06946   -220.60833    599.81897    23.613856    23.399748    44.574275    85.464053    84.662839    113.63987 
   24500    229.98945   -12734.427   -11550.474   -12734.427            0    1548.7865    23.401665    21.581587    43.942749   -9.1608612    3.6599351    5.8427097    22193.068    2296.1472    996.38213    1353.8302   -1125.0297    74.173992   -40.632506    23.401665    23.445389    44.480305    84.907576    85.280244    113.00005 
   25000    227.89988   -12677.304   -11504.107   -12677.304            0    2239.8277    23.354992    21.747943    43.676223   -9.1805299    4.2090057    6.0280992     22184.16    2247.0363    2093.7138    2378.7329    -154.7502   -407.76686    47.683814    23.354992    23.606253    44.290701    84.926654    84.546875    112.88622 
   25500    232.81192   -12730.148   -11531.665   -12730.148            0    1906.4582    23.520346    21.547096    43.663073    -9.261459     3.474914    5.5937223    22128.235    1424.7438    2489.5961    1805.0347   -108.10273    254.84656    561.60002    23.520346    23.453187    44.156865    85.106314    85.486455    113.25919 
   26000    235.99619   -12681.995    -11467.12   -12681.995            0    2108.4958    23.587156    21.507266    43.692732   -9.2645394    3.9754858    5.9439636    22165.115    2159.7742    1843.2793    2322.4339    175.71493   -91.768201    14.796976    23.587156    23.417818    44.274034    84.964264    84.848318     113.3046 
   26500    230.70882   -12763.765   -11576.108   -12763.765            0     2213.365    23.414297    21.620166    43.602421   -9.1506008    3.6791417    6.0361669    22072.461    2826.3749    1323.3239    2490.3962    325.59998    232.18018   -220.27371    23.414297    23.476905    44.171739    84.641911    85.222199    112.94021 
   27000    234.33933   -12702.696   -11496.351   -12702.696            0    2125.3061      23.3023    21.680092    43.715971   -9.2603972    3.9048627    5.4932086    22085.134    2789.4201    918.98907    2667.5092   -112.25833   -457.12505    724.79517      23.3023    23.575015    44.232447     85.43843    84.935307    113.12918 
   27500    235.37082   -12712.792   -11501.136   -12712.792            0    1742.6213    23.500018    21.568626    43.703604   -9.2428909    3.7193697     6.102767    22151.745     1405.566    2226.7075    1595.5906    -152.5957    570.91538   -693.24462    23.500018    23.465649    44.284111    84.630049     85.18212    113.19678 
   28000    232.54777   -12734.991   -11537.868   -12734.991            0     1342.088    23.580856    21.414853    44.000275   -9.2283353    4.0034217    5.6824399    22219.284    1144.1947    1562.7245    1319.3448   -403.93744   -258.92666    122.89421    23.580856    23.318621    44.545951    85.320474    84.843772    113.31273 
   28500     242.1564   -12731.233   -11484.646   -12731.233            0    1356.1636    23.425579    21.601669    43.963199   -9.2218514    3.9525794     5.809631    22246.768    1364.7338    1626.0385    1077.7185    604.44501   -279.55792    198.87209    23.425579    23.487756    44.521204    85.115019    84.906592    113.11786 
   29000    228.41876   -12728.591   -11552.723   -12728.591            0    88.714938    23.332596    21.774535    43.950428   -9.1481883    3.7770522    6.1159318    22329.297    250.76805   -86.760061    102.13682   -73.112307    609.23003   -375.63117    23.332596    23.618207    44.534378    84.620071    85.134782    112.78886 
   29500    237.41213   -12718.536   -11496.372   -12718.536            0    860.47412    23.584849    21.518284    43.830759   -9.2985076    3.9141131    5.6524567     22244.35    605.04907    1162.7625    813.61084     527.7126    462.29693    604.94643    23.584849    23.441391    44.366721     85.29899    84.938682     113.3702 
   30000    234.65812   -12672.892   -11464.905   -12672.892            0    1079.3334     23.66426    21.508152     43.81874   -9.2497532    3.7497474    5.8727241    22302.621    590.29455    1390.8594    1256.8462    109.41254    137.46195    90.650923     23.66426    23.412785    44.369263    84.939697    85.152021    113.27051 
   30500    231.31755   -12716.714   -11525.924   -12716.714            0     984.8218    23.474238    21.725283    43.627065    -9.249901    4.0706906     5.922449    22249.126     652.4433    1475.9289    826.09317    463.89618    5.7072488    8.7056064    23.474238    23.612467    44.215006    84.998866    84.717537    113.06269 
   31000    238.87719   -12679.154   -11449.448   -12679.154            0    1482.2723    23.451693    21.660598    43.827349   -9.2552115    3.6794212    5.7268327    22263.316    1892.2831    1015.0065    1539.5274    196.28655    522.17716   -181.50184    23.451693    23.555051    44.352804    85.058443    85.241386    113.13621 
   31500     241.4428   -12745.902   -11502.988   -12745.902            0    1743.1163    23.555252    21.514487    43.783622   -9.2030302    3.9856629    6.1818364    22188.627    1444.7982    2160.4042    1624.1464    536.21553   -607.94878   -474.35457    23.555252    23.400191    44.397142    84.680342    84.849454    113.15929 
   32000    243.31398   -12731.894   -11479.348   -12731.894            0    2210.6433    23.506798    21.423349    43.973527   -9.2185278    3.8879855    5.3889872    22144.819    1920.0474    2763.3293    1948.5533   -165.67649    339.61461    572.73625    23.506798    23.322546    44.472786    85.598103    84.984575    113.28235 
   32500    236.74486   -12694.448   -11475.719   -12694.448            0    2284.4097    23.360175    21.626343    43.822049   -9.2648933    3.6962377    5.9832975    22138.687    2734.7395    1546.1305    2572.3592    99.394344   -408.29581    46.118451    23.360175    23.527366    44.382812    84.771785    85.222826    113.19067 
   33000    241.47926    -12716.61   -11473.509    -12716.61            0    1837.5797    23.433393    21.700185    43.552686    -9.123798    4.1755181    5.7621826     22146.93    2045.6683    2164.2287     1302.842   -42.397196      159.754    556.11496    23.433393    23.540215    44.130195    85.199091    84.570657    112.80422 
   33500    230.69133   -12720.406    -11532.84   -12720.406            0    1993.0999    23.578653    21.498756    43.724122   -9.3706179    3.5482745    5.6728227     22164.27    679.29288     2450.402     2849.605    935.29662    448.15403    401.99426    23.578653    23.452185    44.233133    85.094418    85.398928    113.55084 
   34000    240.33111   -12772.797   -11535.606   -12772.797            0    1568.2216    23.550526    21.563533    43.700074   -9.2711928    3.9483684    5.9364214     22192.32     884.9638    2018.4873    1801.2136    50.833653    293.62739    71.232499    23.550526    23.472132    44.277841    84.954421    84.883993    113.26518 
   34500    229.18345   -12738.315   -11558.511   -12738.315            0    2007.1919    23.299008    21.665711    43.899905   -9.2480128    3.4557136    5.4763488    22160.214     2129.868    2537.8519    1353.8557    639.55694    418.85866   -381.20849    23.299008    23.556926    44.374925    85.242958    85.533548    113.11522 
   35000    233.15051   -12766.718   -11566.492   -12766.718            0    1682.2223    23.364057    21.599625    43.890307   -9.1801545    3.9343677    6.0042338    22149.458    3003.2248    905.42027    1138.0219   -377.73479   -387.09509    -304.3179    23.364057    23.469534    44.473465    84.856694    84.924665     113.0262 
   35500    234.72083   -12690.046   -11481.736   -12690.046            0    2398.8094    23.424232    21.484943     44.03892   -9.1615553    3.9535724    6.0384017    22163.391    3218.5923    2815.8496    1161.9863    113.48697   -274.02733   -735.59786    23.424232    23.356731    44.626444    84.852711    84.917355    113.09425 
   36000    231.22164   -12702.846   -11512.549   -12702.846            0    2213.7758    23.431884     21.41694    44.116684   -9.2873199    3.8339774    5.6132362    22139.484    2948.9741     2777.744    914.60927    454.66073   -1233.3003    311.90392    23.431884    23.343942    44.637312    85.342472    85.072693    113.44366 
   36500    237.36222   -12716.217    -11494.31   -12716.217            0     2347.395    23.379301    21.588445    43.892697   -9.0743589    3.9078243    6.0385606    22153.642    2852.2573    2140.7678      2049.16     -1334.69    213.30874   -106.54541    23.379301    23.418047    44.478131    84.772379    84.959525    112.79867 
   37000    240.39106   -12749.392   -11511.893   -12749.392            0    2440.4475    23.428501    21.619059    43.612597   -9.3225979    3.8675363     5.826625    22089.874    2549.1459    1699.0664    3073.1303    543.28823    470.25089     499.6439    23.428501    23.543461    44.169741    85.040005    84.976705    113.32673 
   37500    240.66502   -12750.403   -11511.493   -12750.403            0    2899.5488     23.55966    21.467551    43.568667   -9.2233436    3.6973407     5.613785    22035.647    2406.8513    2903.2656    3388.5294    758.38288   -11.799737    939.65651     23.55966    23.365056    44.084166     85.18762    85.188949    113.25035 
   38000    240.47946   -12700.716   -11462.762   -12700.716            0    2582.8013    23.490101    21.543942    43.739139   -9.2288481    3.9640377    6.0296142    22135.039    2311.5777    2483.3556    2953.4707    518.72922   -227.14694    112.16559    23.490101    23.437429    44.330374    84.846965    84.869739      113.189 
   38500    243.39248   -12734.737   -11481.787   -12734.737            0    2388.8342    23.315929    21.614085    43.855227   -9.2862056    3.4184385    5.5240919    22100.949    3114.7918    1981.4802    2070.2307    605.50352    645.80272    1046.9471    23.315929    23.524504    44.333759    85.178843    85.577711    113.25014 
   39000      232.945   -12731.289   -11532.121   -12731.289            0    1528.8729    23.492118    21.560533    43.778419   -9.2214259    4.0047547     5.838818    22173.883    1787.9697     1397.825    1400.8241    276.06105   -536.07113    -84.86081    23.492118     23.44976    44.347264    85.092777    84.818879    113.15636 
   39500    239.42652   -12697.736   -11465.202   -12697.736            0    1073.7345    23.565933    21.563132     43.73247   -9.2506631    3.9406748    6.2998891    22222.888    745.02805    868.89069    1607.2849   -108.30703    381.71723    26.540419    23.565933    23.463662    44.359288    84.520339    84.903388    113.21951 
   40000    234.98138   -12735.441    -11525.79   -12735.441            0    1486.4704    23.404768    21.479675    43.985975   -9.2572658    3.7817024    5.0910284    22112.928    1740.3412    1857.6582     861.4117    104.00984    185.48388    1577.2612    23.404768      23.3896    44.440813    85.898497    85.118497    113.31498 
   40500    229.68851   -12736.403   -11553.999   -12736.403            0    1594.0996    23.448694    21.599859    43.787114   -9.2319916    3.7967075    6.1012987    22177.669    1708.5531    1429.9933    1643.7525    412.30095     62.02582      448.824    23.448694    23.490074    44.372877     84.67482    85.091559    113.14234 
   41000    222.36442    -12705.33   -11560.629    -12705.33            0    2124.3934    23.450489    21.605657    43.660179    -9.110408    3.8413145    6.0484314    22121.008    1831.0806    2264.1431    2277.9565   -232.53594   -98.536797   -504.39153    23.450489    23.447899    44.244214    84.707986    85.019268    112.86358 
   41500    237.34646   -12674.849   -11453.023   -12674.849            0    1067.0512    23.512261    21.551165    43.830535   -9.5233651    3.8016642     5.236412     22209.66    1063.2067    888.37351    1249.5734    528.54166    220.78505     1225.372    23.512261    23.561562    44.305625    85.789429    85.077657    113.84042 
   42000    232.68149   -12715.679   -11517.868   -12715.679            0    1523.9051    23.513391    21.589406    43.711804   -9.1567904    3.6925158    6.0458272    22189.866     1111.532    1846.4528    1613.7307     -537.216   -81.200712   -35.927946    23.513391    23.450997    44.282147    84.656168    85.216774    112.98343 
   42500    233.89752    -12713.67   -11509.598    -12713.67            0    2523.6715    23.516159    21.463946    43.841533   -9.3218676    4.2376586    5.6586977    22128.995     2089.975    2978.7393    2502.3002    92.499324   -345.50473    278.79437    23.516159    23.400816    44.407867    85.476664    84.524169    113.47548 
   43000    234.60885   -12675.032   -11467.299   -12675.032            0    2947.2426     23.37133    21.497607    44.004674   -9.1411956    3.4325402    5.8310801    22109.165    2904.3918    3186.4986    2750.8373    78.944857    358.70296   -613.15095     23.37133    23.360406    44.521851    84.815795    85.578229    113.03613 
   43500    241.27134   -12713.135   -11471.104   -12713.135            0    2531.2059    23.339766    21.583706    43.833968   -9.2360902    4.3736325    5.9147401    22081.741    2972.6609    2267.5987    2353.3582    93.036349   -774.57709   -105.32824    23.339766    23.476834     44.44693    85.202691    84.352886    113.16703 
   44000    236.56386   -12737.121   -11519.324   -12737.121            0     1855.574    23.367979    21.569996    43.968332   -9.1235188    3.5654476    5.7937858    22162.115    2446.4947    1521.7881    1598.4392   -300.60582    745.05247    135.12034    23.367979    23.420148    44.491511    84.910221    85.403519    112.92703 
   44500     240.4979   -12731.713   -11493.663   -12731.713            0    710.26472    23.608541    21.451276    43.982342   -9.4568756    4.1742106    6.0231572    22274.124   -57.765132    1160.3923     1028.167    1.1178588    360.56958    56.076509    23.608541     23.44333    44.588663    85.075654    84.628335    113.79046 
   45000    229.72083   -12726.313   -11543.743   -12726.313            0    2275.6051    23.463195    21.586118    43.762031   -9.1048786    3.9460461    5.8066205    22164.562    1955.0694    2393.0176    2478.7283   -107.12058   -130.55466   -290.31122    23.463195    23.427746    44.321591    85.060067    84.892071    112.86969 
   45500    231.48902   -12709.244   -11517.572   -12709.244            0    1425.6196    23.429792    21.597337    43.866845   -9.3939159    3.4352234    6.0125276     22197.55    1540.6207    1397.7073    1338.5306   -75.941213    772.97306    19.199805    23.429792     23.55187    44.410036    84.646615    85.563602    113.50698 
   46000    233.79987   -12700.406   -11496.837   -12700.406            0    922.92033    23.555724    21.550878    43.794067   -9.2057713    4.1435619    5.6701057    22231.907    957.08554     1103.769    707.90647   -143.22251   -511.11277    594.55949    23.555724     23.43473    44.353574    85.361776    84.639546    113.13046 
   46500     235.6524   -12715.893   -11502.788   -12715.893            0    2005.2417    23.460354     21.57603    43.759601    -9.167414    3.6637886    5.8432125    22150.292    1937.1376    2161.3925    1917.1949   -241.43447    -487.0271    188.36744    23.460354    23.442836    44.299765    84.890691    85.255964     113.0201 
   47000    232.42509   -12732.611   -11536.119   -12732.611            0    2220.8785    23.419259     21.59573    43.685919    -9.454076    4.0049071    6.0221962    22094.416    2846.6872    1663.6913    2152.2569   -213.28801   -649.87136   -141.98709    23.419259    23.574459    44.280533    84.933327    84.810851    113.64261 
   47500    240.22634   -12724.029   -11487.378   -12724.029            0    2353.4059    23.414005    21.558817     43.76907   -8.9355775    3.5886934    5.6119979    22093.675     3336.355    1875.7513    1848.1114   -975.11175    14.274045    163.54748    23.414005    23.337248     44.27307    85.062863    85.350609    112.51275 
   48000    238.35083   -12764.229   -11537.233   -12764.229            0    1854.3022    23.487956    21.581521    43.709181   -9.4414619    4.1510782    6.1810656    22156.439     957.4227     2687.364      1918.12    1020.3591   -69.745683     -440.771    23.487956    23.556385    44.338804    84.825213    84.627999    113.62837 
   48500    232.74414   -12714.472   -11516.338   -12714.472            0    1821.0201    23.427162    21.535003     43.90349   -9.0388463    3.5383737    5.6677173    22149.486    2188.0201    1907.0968    1367.9434   -655.27408    258.97782    189.90079    23.427162    23.355023    44.409003    85.017973    85.430003    112.76916 
   49000    242.22529   -12727.781    -11480.84   -12727.781            0     1789.107    23.474482    21.567466    43.776408   -9.2595146    4.0845967    5.8785918    22163.343    740.33924    2745.6551    1881.3266     1233.301   -837.56837    527.95915    23.474482    23.471136    44.357814    85.098068    84.716553     113.2352 
   49500    236.97487   -12697.845   -11477.932   -12697.845            0    1182.0693    23.502988    21.576232    43.886667   -9.3243669     3.553101    6.0140471    22255.189     1152.688    1432.0852    961.43474    76.406431   -209.16201   -837.99561    23.502988    23.504842    44.439092    84.691965    85.414055    113.37203 
   50000    237.49956   -12709.487   -11486.873   -12709.487            0    1288.8674     23.52334    21.621188    43.758791   -9.1546755    4.1910146    5.6173048    22255.833    1412.7614    1124.2019    1329.6388    702.57982   -1063.2918    355.46524     23.52334    23.479435    44.316481    85.420088    84.573422    112.94839 
   50500    232.26768    -12724.64   -11528.959    -12724.64            0    1853.4433    23.523567    21.534565    43.768223    -9.331005    3.8842366     5.883091    22171.659    1168.5143    2129.9298     2261.886    786.26627   -100.20006   -55.147339    23.523567    23.469238    44.332329    85.012983    84.973508    113.42726 
   51000    234.43201   -12718.215   -11511.392   -12718.215            0    2081.0488    23.426451    21.584335    43.820151   -9.1139022     3.726738    5.8451084    22157.412    2536.7417    2339.5198    1366.8848    365.45887   -960.81092    158.72966    23.426451    23.429612    44.365071    84.911295    85.181383    112.89172 
   51500    238.12417    -12717.72    -11491.89    -12717.72            0    1305.6619    23.337636    21.718604    43.784291   -9.3625994     4.128623    5.7986634    22192.544    2700.2767    -42.37725    1259.0863   -358.83893    -394.3483    634.48762    23.337636    23.650709    44.359149    85.227638    84.659602    113.32023 
   52000     232.7346   -12721.904   -11523.819   -12721.904            0    2038.0508    23.473379    21.549502    43.802094    -9.132128    3.5371464    5.8998252    22156.836    2396.6046    1315.7128     2401.835    -392.5017    164.81095    339.14558    23.473379    23.404632    44.338954    84.756542    85.424359    112.96599 
   52500    241.89941   -12717.257   -11471.993   -12717.257            0    2530.9445    23.576572    21.419774    43.855324   -9.3172026    4.4007894    5.7904458    22147.151    1953.0308    3196.3503    2443.4525    1177.1429   -536.29049   -135.32498    23.576572    23.358446     44.45431    85.413853    84.318654    113.50814 
   53000    231.42333   -12728.642   -11537.307   -12728.642            0    2012.4469    23.362247     21.57192    43.907286   -9.1665965    3.3685081    5.8280054    22127.891    1882.5402    2782.8945    1371.9059    499.49538    108.78864   -100.67705    23.362247    23.438734    44.420291    84.773425    85.650934    113.02219 
   53500    232.05325   -12705.309   -11510.731   -12705.309            0    2446.4283    23.401879    21.622589    43.750384   -9.2246112    3.9903502    5.9047216    22138.098    2725.2684    2202.4766    2411.5398    12.351716    262.78538   -755.88714    23.401879    23.508079    44.327021    84.997467    84.835201    113.10403 
   54000    241.58432   -12719.807   -11476.165   -12719.807            0    2609.4367    23.489189    21.497403    43.710178   -9.1907729    3.7325277    5.6337466     22071.74    2351.0346    2909.1803    2568.0953   -406.82752    773.77316    26.865505    23.489189    23.379663    44.229521    85.184584    85.159054    113.14813 
   54500    231.04525   -12734.763   -11545.375   -12734.763            0    2540.7431    23.581436    21.460351    43.624516   -9.3890106    3.6994426    5.7607653     22076.88    1626.2866    3593.1918    2402.7508    197.93498   -249.81469   -341.49146    23.581436     23.42435    44.158472    85.069974    85.194327    113.62962 
   55000    237.98821   -12713.826   -11488.696   -12713.826            0    2516.9777    23.484538    21.626534    43.484928   -9.1512869    3.9254382    5.8341806    22085.524    2474.0455    2099.0549    2977.8328    407.77189   -688.57667    519.75162    23.484538    23.483037    44.049809    84.994753    84.887383    112.93569 
   55500    229.81677    -12724.14   -11541.076    -12724.14            0     2303.797    23.391942    21.660333    43.517257   -9.2712285    3.5212633    5.7359877    22049.204    3218.8852    1068.1017     2624.404    26.144773    893.88013    460.59933    23.391942    23.561105    44.034674    84.935004    85.413406    113.17228 
   56000    239.77277   -12713.678   -11479.362   -12713.678            0    2551.6265    23.520994    21.553002    43.638083   -9.2431663    4.1302833    5.8919175     22122.24    2704.0911     2842.679    2108.1094     231.7831   -287.46445   -681.35664    23.520994    23.451397    44.227324    85.087923    84.641477    113.21244 
   56500     234.0627   -12747.642   -11542.721   -12747.642            0    1626.0134     23.53109    21.462888     43.93289   -9.1882528    3.7103553     5.766314    22188.092    1208.5578    3220.2167    449.26569   -321.70278    426.27303   -1013.3378     23.53109    23.346938    44.464772    85.044749    85.213398    113.17575 
   57000    227.54594   -12702.689   -11531.315   -12702.689            0    2755.4076    23.351397    21.565458    43.927922   -9.3863187    3.8446103    6.0122225     22121.38    3149.5053    3026.5907    2090.1268    643.10781    63.114947   -660.47168    23.351397    23.519608    44.503822    84.871267    85.044137    113.52098 
   57500     242.7771   -12756.099   -11506.317   -12756.099            0     2353.916    23.327809    21.679938     43.74369   -8.9877814    4.0520424     6.003498    22123.172    2353.0276    2419.4432    2289.2771   -298.44791    -477.8789   -181.96559    23.327809    23.469127    44.339276    84.831847    84.756583    112.51727 
   58000    233.20518   -12715.747   -11515.239   -12715.747            0    2374.5892    23.431063    21.537475    43.819796   -9.3644298    3.8307442    5.7048361    22113.482    3230.8682    2162.6498    1730.2496    823.52062   -375.57534    680.28964    23.431063    23.485216    44.355318    85.209477    85.045481    113.49926 
   58500    241.29667   -12667.454   -11425.293   -12667.454            0    3472.1094    23.597186    21.397183    43.717207   -9.1884157    3.7701258    5.8569789      22073.4    3392.8245    2636.9744    4386.5293   -421.92353   -501.37702    501.79999    23.597186    23.286615    44.268637    84.953389    85.114503    113.23974 
   59000    230.04542   -12710.177   -11525.936   -12710.177            0    2238.8097    23.464052    21.622998    43.595592   -9.1677041    4.0552195    5.9276503    22118.797    2385.1233    1989.5548    2341.7511   -405.25256   -409.31612   -285.67259    23.464052    23.486184    44.183226    84.969216    84.733874    112.97594 
   59500    233.50199   -12678.895    -11476.86   -12678.895            0    2041.5528    23.396199    21.655055    43.663757   -9.3285247    3.4060702    5.7060264    22122.066    2013.3102    1352.2869    2759.0613    133.27131    790.50665    142.95921    23.396199    23.578863    44.166546    84.943279    85.577028    113.30532 
   60000     230.8999   -12731.632   -11542.992   -12731.632            0    2066.6555    23.488801    21.593262    43.612184   -9.1173311     4.515611    5.8976345    22120.092     2115.794    2028.1452    2056.0274   -859.37646   -414.91525   -212.23834    23.488801     23.43917    44.240202     85.23278      84.1416    112.89095 
   60500     235.4692    -12751.26   -11539.098    -12751.26            0    1946.6027    23.511729    21.491477    43.787199    -9.259304    3.6378761    5.9422819    22125.749    976.16378    2923.3688    1940.2753   -295.55078    632.89531    -604.0074    23.511729    23.401245    44.338061    84.800724    85.293671    113.30812 
   61000    236.52774   -12737.071    -11519.46   -12737.071            0     2911.763     23.46668    21.461984    43.857228    -9.292985    4.0524071    5.5872729    22088.321    3430.5244     2656.401    2648.3637    754.66387   -726.57647    732.33103     23.46668    23.387525    44.397028    85.456379     84.76295    113.41249 
   61500     242.7809   -12690.265   -11440.463   -12690.265            0    2438.4365    23.369337    21.685904    43.645614   -9.1179836    3.8516439     6.086188    22118.952    1948.4803    2122.3874    3244.4418   -131.14907   -311.41418   -600.98566    23.369337    23.524797    44.235919    84.659045    85.004902    112.80465 
   62000    226.95596   -12662.605   -11494.268   -12662.605            0    3108.5406    23.432199    21.589833    43.733102   -9.3254503    3.6677426    5.7704206    22124.456    3009.1508    3477.0133    2839.4577   -40.364786    311.34803    107.94136    23.432199    23.517757    44.264368    85.019334    85.247026    113.36131 
   62500    241.14386   -12763.092   -11521.717   -12763.092            0    3464.2938    23.539353    21.446094    43.527519   -9.0904487    4.0676495    5.7505123    21973.874    2988.1928     3020.414    4384.2746   -1371.7546    212.94402    553.55763    23.539353    23.293158    44.093753    85.177316    84.706938    112.97084 
   63000    241.08742   -12672.277   -11431.193   -12672.277            0    2975.4885    23.494858    21.509759    43.714142   -9.3122362     3.717722    5.8886851    22091.761     2961.054    2899.4056    3066.0059   -93.186299    203.97161   -113.87441    23.494858    23.439016    44.265385    84.910381    85.182217    113.40927 
   63500    227.60797   -12728.847   -11557.153   -12728.847            0    2450.0555    23.347211    21.638328    43.708629   -9.1409122    4.0322325    5.7706734    22081.363     2467.584    2488.4414    2394.1411   -314.33699    258.34521   -149.93352    23.347211     23.48986     44.27193    85.145296     84.77433    112.90118 
   64000    240.31617   -12691.295   -11454.181   -12691.295            0    2930.4053    23.295107    21.607542     43.89544   -9.2024001    3.6487609    6.0064966     22094.77    3065.0099    3016.5056    2709.7002   -191.73895    612.73192    -197.0176    23.295107    23.485529    44.454483    84.712679    85.291947    113.06859 
   64500     229.1203   -12733.071   -11553.592   -12733.071            0    1776.7686    23.485614    21.455075    44.011632   -9.2625638    3.8651028    5.6687446    22176.829    2160.8579     2358.497    810.95091   -82.498292   -558.24862   -186.52195    23.485614    23.369111    44.543209    85.270734    85.022071    113.35078 
   65000    227.44702   -12729.377   -11558.512   -12729.377            0    803.98267    23.556591    21.519369     43.99113   -9.1433636    4.1763585    6.0264434    22300.114    641.82525    1495.5445    274.57826   -470.03852    -674.1261   -683.74428    23.556591    23.381281    44.597976     84.96597    84.626688    113.02015 
   65500     229.7549    -12720.25   -11537.504    -12720.25            0    1476.9801    23.452541    21.658919    43.791924   -9.2750449    3.7173727    5.8174203      22244.4    1505.1236    767.18183    2158.6347    648.24571    359.43016    487.74645    23.452541    23.561308    44.332762    84.973417     85.19001    113.18216 
   66000    238.78338   -12687.489   -11458.266   -12687.489            0    1142.6667    23.525024    21.669048    43.694568   -9.1983608    3.8710044    5.8380274    22273.956    1318.0585    958.64381    1151.2979    175.51692    145.38877    370.61585    23.525024     23.54055    44.252486    84.994201    84.981614    113.00089 
   66500    239.01354   -12684.224   -11453.816   -12684.224            0    908.20411    23.644966    21.505508    43.900112   -9.3924385    3.8263391    5.6485666    22323.075   -349.03815    1531.8785     1541.772    -81.94567    860.09602    650.04894    23.644966    23.467099    44.427098    85.293957    85.059209    113.59309 
   67000    230.55881   -12737.616   -11550.732   -12737.616            0    2323.6957    23.456467    21.537886     43.86046   -9.1939558    3.8043477    5.8410397    22158.423    2645.3727    2428.7298    1896.9847    20.119753    527.13269    -18.52944    23.456467    23.418141    44.410931    84.989891    85.085882    113.11636 
   67500    236.27183   -12741.344    -11525.05   -12741.344            0    1717.7372    23.224067    21.681951    44.031468   -9.0788367    3.9242138    5.9086244    22171.741    2491.2373    758.06406    1903.9102   -802.31406   -306.72478    282.00355    23.224067    23.506005     44.59912    84.938895    84.952097    112.72042 
   68000    224.21611   -12696.807   -11542.574   -12696.807            0    2229.3828    23.396288     21.55333    43.965248   -9.2859683    3.5822963    5.9681431    22170.265     1959.013    2311.1565     2417.979    402.66312    504.08585   -267.50517    23.396288    23.468601    44.512859    84.762079    85.383971    113.30816 
   68500     234.3587   -12691.326    -11484.88   -12691.326            0    1830.8659    23.523911    21.501237    43.989618   -9.1383989    4.2986705    5.6592157    22249.649    1522.5027    2167.6272    1802.4678    782.78105   -715.63069    785.36123    23.523911    23.362653    44.559979    85.460351    84.464106    113.02633 
   69000    226.95948   -12712.988   -11544.633   -12712.988            0    2691.6477    23.465726    21.552233    43.734507   -9.3024212    3.6581667    5.9935732    22118.236    3233.2026    1767.6857    3074.0548   -273.27558    344.35801    127.85343    23.465726    23.474109    44.294607    84.749787    85.262707     113.3461 
   69500    228.68155   -12711.415   -11534.195   -12711.415            0    2088.8937    23.389947    21.690701    43.649339   -9.1728614     3.954994    5.8326299    22145.246     1452.553    2119.5568    2694.5712    384.52172    -190.0388    248.29319    23.389947     23.55054    44.214549    85.028611     84.86803     112.9232 
   70000    234.00262   -12746.203    -11541.59   -12746.203            0    1849.8533    23.556381    21.495609    43.717419   -9.2878115    3.6148361    5.5784899    22136.699    1612.4596    1938.1288    1998.9713   -597.72178      232.159    113.23983    23.556381    23.416333    44.219898    85.217024     85.31102    113.36818 
   70500    231.25526   -12727.959    -11537.49   -12727.959            0    2659.4508    23.535981    21.482464    43.690503   -9.2931096    3.7924639    6.1441975    22090.393    2030.5395    2934.6282    3013.1846    77.210036    837.10464   -213.38374    23.535981    23.406369    44.283112    84.644151    85.087096    113.39285 
   71000    230.02068   -12726.967   -11542.853   -12726.967            0    3019.1106    23.440407    21.559184    43.591372   -9.0701849    4.0512906      5.54651    22029.164    2324.3412    3880.7158    2852.2747   -84.852162   -234.56465    423.35714    23.440407    23.389457    44.129179    85.396973    84.732529    112.81702 
   71500    240.42156    -12740.46   -11502.803    -12740.46            0    2627.8821    23.380088    21.599959    43.712859   -9.3975998    3.4848132    5.9779133    22075.385    2815.2985    2524.3034    2544.0444    777.54071    506.28134   -334.33857    23.380088    23.555745    44.257128    84.695773    85.483847    113.51265 
   72000    245.44241    -12706.17   -11442.667    -12706.17            0    2793.4286    23.401704     21.58174    43.735046   -9.1526742    4.0558105    5.8736858    22088.362    3541.4819    2187.2889    2651.5149    -163.1573   -380.57411   -340.95328    23.401704    23.442332    44.313701    85.049604    84.748656    112.98148 
   72500    228.23775   -12739.448   -11564.513   -12739.448            0    1619.8675    23.497213    21.461828    44.025955   -9.2857506    3.7928282    5.6343955    22201.987    1429.4904    2922.6564    507.45566    300.61375    281.67423   -74.380569    23.497213    23.384508    44.546792    85.280716    85.115777    113.39638 
   73000    232.15405   -12740.092   -11544.996   -12740.092            0     1199.393    23.470486    21.554777    43.931572   -9.3168667    3.7285111    6.1119158    22225.031    1103.7962    2225.2068    269.17577   -425.54584    442.04472   -535.26399    23.470486    23.482172    44.511126    84.674921    85.194941      113.376 
   73500     238.3646    -12681.85   -11454.783    -12681.85            0    834.19359    23.425267    21.684377    43.869552    -9.020415    4.0887501    5.5495348    22284.079    941.87509    765.59083    795.11486   -399.57209    212.38783   -281.99664    23.425267    23.485742    44.407801    85.410334    84.717136    112.58667 
   74000    238.37662   -12703.401   -11476.272   -12703.401            0     1915.783    23.491328    21.569385    43.775134   -9.4938475    3.4250768    6.2377638    22180.575    1146.8487     2294.906    2305.5942    1254.8272     863.5302     8.312364    23.491328    23.566321    44.349783    84.397923     85.57071    113.75688 
   74500    237.48907   -12702.125   -11479.565   -12702.125            0    1857.2939     23.52899    21.509113    43.771964   -9.1398309    4.0403855    5.7317065    22152.452    1906.3563     1840.772    1824.7535   -731.54861   -671.10204   -620.46689     23.52899    23.370461    44.330148    85.218653     84.77063    113.02201 
   75000     232.4356   -12670.986    -11474.44   -12670.986            0    1883.4759    23.517002    21.566545    43.793648   -9.2567249    3.9613955    5.7636563    22211.284    1279.3249    2605.2999     1765.803    232.82887    209.01664   -17.734491    23.517002    23.469189    44.348573    85.170245    84.875277    113.22983 
   75500    236.99298   -12721.979   -11501.972   -12721.979            0    1869.4105    23.312967    21.739335    43.743842   -9.2271676    3.6211724    6.2685846    22169.747    2586.8086    135.09015    2886.3327    620.45362   -493.59861   -208.74938    23.312967    23.616505    44.338829    84.362619     85.31541    112.99859 
   76000    238.80596   -12747.521   -11518.181   -12747.521            0    1833.6917    23.449647    21.547158    43.878897    -9.159517    4.1073893    5.5095155    22170.833    2408.2454    1402.1525    1690.6771   -663.91256   -469.24541    556.22401    23.449647    23.413175     44.41377    85.527322    84.693699    113.02994 
   76500    225.92476   -12757.286   -11594.257   -12757.286            0    2443.1283    23.517051    21.440577    43.805828    -9.275102    3.6887167    6.0585211    22087.737    2619.7349    2620.6128    2089.0371   -510.64503    167.66524   -528.97623    23.517051    23.360776    44.376378    84.704026    85.231877     113.3931 
   77000    226.20243   -12753.384   -11588.926   -12753.384            0    1777.3793    23.452405    21.584991    43.719023     -9.28162    3.9054666    5.8437657    22131.442    2256.9355    1544.9033    1530.2992    323.65267    489.12332   -276.04282    23.452405    23.495964    44.280416    85.043627    84.940023    113.26787 
   77500    234.25932    -12713.93   -11507.996    -12713.93            0    2389.2698     23.36771    21.636294    43.766779   -9.0643625    4.0512482    5.5039301    22128.074    3096.1612    1236.0413    2835.6069   -494.61766   -373.63637    445.76361     23.36771    23.458301    44.297142    85.453926    84.752613    112.73088 
   78000    248.15607   -12745.112    -11467.64   -12745.112            0    2019.9465    23.486305     21.55252    43.754588   -9.4672034    3.5516271    6.4655224    22148.093    1567.2636    1869.6786    2622.8972    234.14218    404.94557   -900.83884    23.486305    23.540158    44.372074    84.190713    85.409023    113.71406 
   78500    234.59501   -12749.384   -11541.722   -12749.384            0    2260.5777    23.491885    21.489969    43.809906   -9.1340171    3.9631925    5.5206328    22116.988    1783.5809     2716.094    2282.0581   -88.653754   -504.49121    461.31222    23.491885    23.350568    44.333871    85.432496    84.871241    113.02725 
   79000    232.77256   -12768.561   -11570.281   -12768.561            0    2032.0023    23.470781    21.599962    43.669588   -9.2107234    3.8697507    6.0123555    22139.083    1481.5732    1834.7002    2779.7336     114.4798   -70.628502   -144.45631    23.470781    23.481818     44.25106    84.797367    84.983082    113.09452 
   79500    234.84679    -12719.79   -11510.832    -12719.79            0     1757.939    23.405855    21.745402    43.591216   -9.3679985    3.5990485    5.8559176    22186.609    1840.2366    1056.8544    2376.7261    329.06939    756.02404    765.36817    23.405855    23.677456    44.129798    84.859292    85.321991    113.30655 
   80000     227.7741   -12700.902   -11528.353   -12700.902            0    2025.5798    23.489688     21.57638     43.67507   -9.1795452    4.0663172    5.7648389    22135.505    2133.4435    1884.0676    2059.2283   -200.39283   -1040.4269    510.58866    23.489688    23.447904    44.241158    85.185968    84.726356    113.04704 
   80500    227.63904   -12691.083   -11519.229   -12691.083            0    2189.7943    23.574497    21.508983    43.699036   -9.3108472    3.5587729    5.9319684    22158.184    1530.9723    2986.8487    2051.5619    324.84857    482.65218    -451.0233    23.574497    23.437752    44.243179    84.773757    85.386336    113.40691 
   81000    232.73698   -12701.348   -11503.251   -12701.348            0    2245.6395    23.449714    21.586121    43.691851    -9.156713    4.2365347    5.7587272    22116.307    1871.2558    2820.9491    2044.7135    447.34002   -413.38261    305.16877    23.449714    23.447943    44.272892    85.274813    84.508885    112.98639 
   81500    231.63373   -12733.599   -11541.181   -12733.599            0    2153.5241    23.340911    21.596984    43.940818    -9.306737    3.5605779    5.9665251    22150.271    2912.4546    1435.8328     2112.285     630.7623   -359.72376   -782.32442    23.340911     23.51691    44.486769    84.750364     85.40932    113.31254 
   82000    245.54125   -12752.338   -11488.326   -12752.338            0    1785.0181    23.369025    21.549065    44.057153   -9.0906013    4.1818438    5.9285192    22186.329    2077.9328    1896.8613    1380.2601   -326.08235   -356.60254   -523.00886    23.369025    23.388058    44.650508    85.070338    84.625959    112.87274 
   82500    239.79309   -12673.391    -11438.97   -12673.391            0    2224.0435    23.451558    21.508727    43.980071   -9.2283156    3.9255293    5.9499802    22184.128    2842.0146     2090.227     1739.889    497.92466   -456.20972    21.879815    23.451558    23.404853    44.553998    84.952221    84.945273    113.22174 
   83000    230.51667   -12739.348   -11552.681   -12739.348            0    2092.7342    23.400295    21.441039     44.13387   -9.3420527    3.6515989    5.6033888    22143.138    2658.2959    2673.2068     946.6999    660.08098   -366.68052    -123.1296    23.400295    23.387862    44.637772    85.273197    85.307668    113.54319 
   83500    232.82218   -12696.358   -11497.823   -12696.358            0    2672.4331     23.41657    21.588239    43.773685   -9.0702038    4.1131007    6.1435957    22128.583    2934.3621    2704.6496    2378.2876    170.29915   -524.79214   -96.835026     23.41657    23.416248    44.393658    84.738719    84.683885     112.7895 
   84000    243.68033   -12694.929   -11440.497   -12694.929            0    2085.4228    23.488791    21.576931    43.712177   -9.3541783    3.7321692      5.82822    22154.032     1524.601    2062.0445     2669.623    577.69542    652.22259    888.39372    23.488791    23.517325    44.256657    84.992695    85.162495    113.43803 
   84500    234.68182   -12739.789    -11531.68   -12739.789            0    2679.8714    23.529917    21.525788    43.522622   -9.1246745    3.6793666    5.5199566    22044.209     2222.102    2078.4424    3739.0697   -25.759385    543.15048    332.94882    23.529917     23.37989    44.025291    85.249253    85.205975    112.97185 
   85000    232.34571   -12723.948   -11527.865   -12723.948            0    1983.8285    23.513274    21.630043      43.5469   -9.2725708    3.9933207    6.0183928    22147.653    1871.1507    1799.1424    2281.1925   -192.76146   -73.370347   -186.54184    23.513274    23.533791    44.141818    84.855468    84.809601     113.2043 
   85500    242.17902   -12701.648   -11454.945   -12701.648            0    1432.6907    23.438957    21.624971    43.754091   -9.2145764    3.5362648    5.7508039    22177.495    856.30431    1713.3966    1728.3712   -410.85611    319.32015    569.99503    23.438957    23.506335    44.271858    84.940558    85.418554    113.07925 
   86000    237.96084   -12677.724   -11452.735   -12677.724            0    2156.6004     23.43427    21.538229    43.906688   -9.1858701    4.0455133    5.8284152    22161.139    2564.0964      1975.19    1930.5147    290.44925   -472.10741     349.6921     23.43427    23.415283    44.476217    85.132191    84.781218    113.09783 
   86500    228.52684   -12692.249   -11515.825   -12692.249            0    2190.0012    23.390896    21.521632    44.013092   -9.2098338    3.7544678    6.1313299    22156.642    3066.6768    1961.1153    1542.2114   -720.88741   -348.91613   -577.17483    23.390896    23.409436    44.596429    84.647889    85.170688    113.16772 
   87000    239.21151   -12751.449   -11520.022   -12751.449            0    2025.8211    23.295795    21.559573    44.119481   -9.1197856    3.8844633    5.5975618    22158.894    2659.2482    2150.6149    1267.6001   -442.66066   -121.54124    49.847253    23.295795    23.409094    44.642473    85.320543    85.008225    112.92856 
   87500    231.92882   -12720.288   -11526.351   -12720.288            0     2937.708    23.426887    21.509937    43.843024   -9.1880022    4.0042667    6.0423342    22092.977    3472.4335    2662.7871    2677.9034   -726.54607    34.930667   -798.08122    23.426887      23.3901    44.438212    84.856775    84.830143    113.12982 
   88000    240.75498   -12706.304   -11466.931   -12706.304            0    2709.5576    23.477282    21.500666    43.755331   -9.2244947    3.7265106    5.7947909    22086.693    2321.8749    3182.6366    2624.1614    176.83757    313.49154   -61.041936    23.477282    23.395938    44.294418    85.005752    85.173974    113.22093 
   88500    238.81653   -12723.618   -11494.224   -12723.618            0    1551.8152    23.517497    21.654551    43.530481   -9.2709096    3.9995934    5.6261167    22168.369    857.76559    715.68986    3081.9901    1097.8637   -337.18415    1042.0729    23.517497    23.555665      44.0744    85.317583    84.793451     113.1771 
   89000    230.86131   -12743.765   -11555.324   -12743.765            0    1888.1714    23.498636    21.644223    43.468833   -9.3124039    3.5649112    5.9649673    22108.671    1395.6673    1872.7904    2396.0565   -236.54362   -245.56278    202.00002    23.498636     23.56254    44.020778     84.69453     85.35496    113.27974 
   89500    236.22859   -12741.159   -11525.088   -12741.159            0     2099.761    23.552213    21.591092    43.449212    -9.062696    4.1414214    5.7282994    22094.707    1532.4088    1304.2036    3462.6705    332.87305   -118.53979    397.13111    23.552213    23.415972    44.020437    85.205899    84.601657    112.76986 
   90000    233.27668   -12741.722   -11540.846   -12741.722            0    1581.7721    23.482605    21.549164    43.740477    -9.339397    3.6742276    5.8246186    22134.016     1986.768    1323.4054    1435.1428    392.37083   -273.35232   -432.76644    23.482605     23.48597    44.279289    84.968825    85.240211    113.43188 
   90500    237.59201    -12703.83    -11480.74    -12703.83            0    2346.8462    23.376631    21.619425    43.842852   -9.0201793     4.057872    5.8460867    22157.709    2338.1261    2690.8772    2011.5353   -242.21357    -267.2951   -178.75494    23.376631    23.425695    44.416649    85.049661    84.758191    112.64715 
   91000    236.46295    -12746.13   -11528.852    -12746.13            0     1992.195    23.368369    21.543645    44.038522   -9.2563045    3.8456826    5.8914701    22170.747    2495.5366    2165.0126    1316.0359    405.77111    51.591335    365.46198    23.368369    23.447981    44.596974    84.989694    85.053131    113.25095 
   91500    240.46487    -12751.36   -11513.481    -12751.36            0    2182.8303    23.465496    21.440929    44.005258   -9.2365672    3.7413793    5.9152925    22140.015    1902.0258    3407.9662     1238.499   -181.36127   -52.951042   -593.74653    23.465496    23.345826    44.558403    84.911097    85.183446    113.30596 
   92000    230.71156   -12710.872   -11523.201   -12710.872            0    1620.3825    23.425854    21.639308       43.792   -9.1299168    4.3094429    5.8970578    22199.009    2011.0774    686.09218     2163.978    -7.857738   -1528.8207    575.90443    23.425854    23.486486    44.396913    85.144294    84.429742    112.87554 
   92500    237.91087   -12748.538   -11523.806   -12748.538            0    1999.9692    23.428345    21.640028    43.654321   -9.3631776     3.370438    5.8173136    22132.306    3163.0896    848.43588     1988.382   -38.434608    392.68214    616.58213    23.428345    23.578802    44.169002    84.803352    85.623633     113.3971 
   93000    240.42957   -12754.195   -11516.498   -12754.195            0    1534.3774    23.521738    21.600184    43.626474   -9.2246259    3.9421967    5.6509988    22165.472    749.18956    2180.3886     1673.554    184.48572   -40.990929   -3.5432497    23.521738    23.487479    44.167227    85.261416    84.879185     113.1255 
   93500     235.3049   -12743.189   -11531.872   -12743.189            0    1031.9058    23.620887    21.524091    43.711188   -9.2619528    3.8675641    5.9931305     22223.56    491.19262    1856.5371    747.98772   -2.0570114   -63.470965   -548.59911    23.620887    23.432248    44.289317    84.848941    84.990266    113.28252 
   94000    233.91405   -12713.913   -11509.756   -12713.913            0    1433.1034    23.465237    21.567754    43.864998   -9.3669389    3.5819288    5.7441308    22199.745    1527.5666    2029.4254    742.31821   -176.98479    728.06725   -18.021803    23.465237    23.513987    44.384269    85.034381    85.371044    113.47545 
   94500    228.66604   -12686.591    -11509.45   -12686.591            0    2150.0662    23.337218    21.706761    43.748967   -9.0085256    4.2302348    5.8038152    22162.151     2287.553    1196.0987     2966.547   -220.09775    485.77629    215.53751    23.337218    23.501851    44.334538     85.16213    84.524723    112.53895 
   95000    236.56869   -12718.652    -11500.83   -12718.652            0    2621.8823    23.380875    21.539731    43.945935   -9.3160407     3.546247    5.9865057    22131.953    3375.2116    3038.6868    1451.7483   -574.73096    64.539555   -493.00117    23.380875    23.468034    44.493363    84.729758    85.428515    113.38872 
   95500    234.34814   -12717.173   -11510.781   -12717.173            0    1962.4775    23.493502    21.492008    43.842479   -9.1663552    3.9097148    5.7063418    22137.055    1531.3688    2240.4926    2115.5712   -105.57128   -87.188887    218.62608    23.493502    23.365112    44.384808    85.198653     84.94645    113.09828 
   96000    241.86861   -12771.714   -11526.608   -12771.714            0    1480.2977    23.638281    21.462535     43.66668   -9.3361788    4.0566396    6.0310217    22153.742    622.51828    1856.3988     1961.976    512.72057   -146.03485   -477.95489    23.638281    23.405227    44.267465    84.929702    84.742078    113.50899 
   96500    230.29045   -12711.771   -11526.268   -12711.771            0    1474.2405    23.373768    21.751495    43.684662   -9.1570317    3.6978586    5.7537147    22209.912    1574.3607    590.02437    2258.3364   -229.57512   -75.219529    265.69199    23.373768    23.600398    44.216842    84.981238    85.202745    112.83031 
   97000    231.81311   -12703.378   -11510.037   -12703.378            0    1113.1684    23.392437    21.698131    43.811763   -9.1717173    3.8494555    5.8591389    22237.631    1713.0856    1068.7949    557.62463   -113.47482   -47.108778    29.286404    23.392437    23.556937    44.369115    84.959772    85.022772     112.9136 
   97500    238.34291   -12730.557   -11503.601   -12730.557            0    1064.3409    23.624381    21.423121    43.947638    -9.409803    4.0123733    5.8604764     22242.25    447.97654    1767.3269    977.71927    423.73393   -201.61731    162.56258    23.624381      23.3986    44.517852    85.165193    84.828941     113.7128 
   98000    230.13421   -12727.321   -11542.623   -12727.321            0    2084.4063    23.472571    21.506871    43.884078   -9.0866682    3.8530259    5.7205713    22153.628    1803.8994     3356.402    1092.9175    4.9815339   -54.218146   -423.79225    23.472571    23.347656    44.422776    85.131672    85.024177    112.90409 
   98500    228.89528   -12739.219   -11560.898   -12739.219            0    2051.6682    23.251891    21.717802    43.912629   -9.4206674    3.9330339    6.2374311    22174.998    2839.5841    1657.3197    1658.1008     1021.607   -720.09854   -171.30851    23.251891    23.673021    44.527444    84.643021    84.932557    113.45006 
   99000    236.58376   -12706.893   -11488.993   -12706.893            0    1994.2035    23.414224     21.61914    43.801095    -9.073215    3.7743778    5.7051916    22171.912    2091.6316    1404.0606    2486.9182   -402.74147    761.39356    183.82748    23.414224    23.445904    44.332054    85.082693    85.115994    112.76703 
   99500     238.7608   -12679.675   -11450.568   -12679.675            0    2412.8992    23.605044    21.545801    43.574407   -9.3426639    3.9733686    6.0027637     22161.49    1709.8875    2008.4416    3520.3685    29.468389   -253.96803    309.93695    23.605044    23.484184    44.165029    84.899271    84.838326    113.44246 
  100000    240.95842   -12792.012   -11551.592   -12792.012            0    2498.8116    23.589448    21.477734    43.533392   -9.2291916    3.8391945    5.5486672    22056.101    1577.2481    3260.4816    2658.7052    180.02287    125.50899    680.19947    23.589448     23.37672    44.053188    85.335822    85.000384    113.25367 
  100500    234.43166   -12750.805   -11543.984   -12750.805            0    2155.6046    23.433482    21.617126    43.595756   -9.1936545    3.8519554    5.7483905    22084.063    1580.4863    2063.5893     2822.738    406.30078    68.244348   -195.74751    23.433482    23.490922    44.141494    85.084513    84.993784     113.0398 
  101000    232.36786   -12716.751   -11520.554   -12716.751            0    2394.3339     23.45105    21.586774    43.642716   -9.2894948    3.7931781    5.9655575    22093.363    1945.3178    2273.5224    2964.1616    469.30021    474.09646    174.87648     23.45105    23.500713    44.211568    84.834725    85.078197    113.28379 
  101500    226.39896   -12700.675   -11535.205   -12700.675            0    2318.5065    23.441246    21.592755    43.769938   -9.0689981    3.8543104    5.7758404    22154.638    2771.9842    2579.9955    1603.5399   -381.76062    -117.4919   -39.708798    23.441246    23.419944    44.317304    85.038686    85.010638     112.7825 
  102000    245.46526   -12708.434   -11444.813   -12708.434            0    2370.2098    23.374036    21.535107    44.002494   -9.4963992    4.1328598     5.827561      22149.2    2481.9102    2705.1861     1923.533    890.42298    42.589199    487.49972    23.374036    23.535982      44.5787    85.284674     84.68051    113.79618 
  102500    237.03135    -12779.37   -11559.166    -12779.37            0    1668.2912    23.404901    21.544519    43.918542   -9.0422852    3.7063272    5.9507597    22145.808    2487.7507    1569.0587    948.06426   -735.31654    244.73987   -92.734207    23.404901    23.365128    44.474563    84.771686    85.219661    112.76791 
  103000     225.8727   -12707.348   -11544.587   -12707.348            0    2168.4663    23.485779    21.513057    43.848684   -9.4105642    4.3114019    5.8404696    22154.587    2612.7985    2797.2676    1095.3328    589.73964   -1133.9919   -279.51123    23.485779    23.481276    44.445543    85.324266    84.433318    113.62625 
  103500    235.31891   -12712.348   -11500.959   -12712.348            0    1632.9109    23.410412    21.624666     43.89729   -9.0699419    3.2889486    6.0098642    22222.666    1382.2263    1847.8707    1668.6358    899.96756    267.63812    220.17673    23.410412    23.449734    44.428681    84.484822    85.754647    112.75443 
  104000    233.81316   -12719.047   -11515.409   -12719.047            0    2068.6629    23.465136    21.656817    43.656213   -9.2725053    4.3452807    5.7645661    22185.222     2328.529    1182.1559    2695.3038     608.1537   -805.80213    804.78164    23.465136    23.558376     44.24903    85.347706    84.364438     113.1785 
  104500    229.55073    -12739.76   -11558.065    -12739.76            0     1689.232    23.541511     21.55421    43.700555   -9.2631772    3.2768593    5.9483876    22174.477    969.42738    1606.3593    2491.9093   -151.45075    1058.9189    -268.5077    23.541511    23.460402    44.225101    84.587927    85.750774    113.25619 
  105000    232.67488   -12690.069   -11492.291   -12690.069            0    1844.4179    23.557423    21.521088    43.751633   -9.2646057    3.9387367    5.8277597    22181.263    2230.2172    2106.4126    1196.6238   -1089.8656    296.29047   -635.59395    23.557423    23.430539     44.31345    85.086623    84.900618    113.29138 
  105500    241.87871    -12692.35   -11447.192    -12692.35            0     1644.148    23.411744    21.706761    43.788721   -9.1365854    3.9596309     5.935856    22253.128    2197.2649    1462.4358    1272.7432   -584.37415   -142.38361   -329.23661    23.411744    23.551235    44.366261    84.911737    84.879614     112.8267 
  106000    240.30992   -12760.379   -11523.298   -12760.379            0    2488.9728    23.321299    21.655341    43.674843   -9.1873386    3.4975094    5.9744406    22057.136    3273.3093    2094.8391    2098.7702    -91.71798    424.10378   -1118.6185    23.321299    23.523626    44.220113    84.635815    85.463556    112.98922 
  106500    235.97883   -12712.875   -11498.089   -12712.875            0    2684.0765    23.516081     21.51319    43.651436   -9.2346692     4.202317    5.6256708    22083.519    2006.8925    2885.5737    3159.7632   -368.02254    198.82878    190.36921    23.516081     23.41146    44.212617    85.444055    84.545922    113.23173 
  107000    234.84696   -12710.888   -11501.929   -12710.888            0    2902.1761    23.476375    21.496489    43.694334    -9.128426    3.3031788    6.0948844    22050.766    2727.4582    3410.1445    2568.9257   -588.01462    1015.9199   -267.45127    23.476375    23.354382    44.240857    84.397694     85.71811    113.00837 
  107500    241.48888   -12705.739   -11462.588   -12705.739            0    2980.8702    23.377091    21.562823    43.845748   -9.3454076    4.1414904    5.6367069    22101.593    3429.1955    3400.4096    2113.0054    262.73196   -527.46177    174.84295    23.377091    23.500893    44.400158    85.446473    84.647871    113.43209 
  108000    237.50592   -12730.003   -11507.356   -12730.003            0    2270.9648    23.395713     21.53495     43.90679   -9.0686133    3.7754933     5.776395    22121.361    2910.0584    2101.3532    1801.4826   -156.35105   -553.78954    32.749823    23.395713    23.366511    44.445779    85.019885    85.127078    112.83651 
  108500    237.59243     -12717.9   -11494.808     -12717.9            0    1907.5407    23.541153    21.432067     43.89297   -9.6011414    4.0610095    6.1124522    22145.565    1752.6636    2251.4912    1718.4672    582.82114   -314.92091    -124.0008    23.541153    23.484365     44.50221    84.949085    84.764241    114.13143 
  109000    233.21059   -12758.356   -11557.821   -12758.356            0    1563.9916    23.447179    21.565058    43.795172   -9.0089216    3.8259112    5.5294119    22144.581     1270.759    1361.1496    2060.0662     -407.775    471.52788    705.74118    23.447179    23.371188    44.308341    85.304204    85.046488      112.673 
  109500    233.24901    -12756.96   -11556.227    -12756.96            0    1568.9255    23.386349    21.702657    43.612925   -9.3872547    3.7938094    5.8765242    22135.562    1685.4014    2070.4273    950.94771    614.97608   -296.20601    -457.5322    23.386349    23.645843    44.170281    84.950796    85.072763    113.39039 
  110000    234.33741   -12709.901   -11503.565   -12709.901            0    2125.1222    23.526098    21.573213    43.573453   -9.1404353    3.8105291     5.799413    22114.988    2213.9463    2096.8338    2064.5865    21.899883   -314.99842    16.926487    23.526098    23.429705    44.122547    84.989854    85.045627    112.96207 
  110500    229.82764   -12718.863   -11535.743   -12718.863            0    2957.3668    23.556439    21.430842    43.664842    -9.225632    3.8957071    5.7042713    22043.511    2767.6542    3315.1026    2789.3435   -12.067739    154.68885    37.301054    23.556439    23.332236    44.207846    85.200225    84.944393     113.2911 
  111000    228.70712   -12706.407   -11529.055   -12706.407            0    2633.5439    23.461389     21.57862    43.614449   -9.3401715    3.7786214    6.0286651    22080.442    2910.1079     1807.976    3182.5478    216.57482    184.16913   -237.31264    23.461389    23.513307    44.190982    84.765496    85.094842    113.40507 
  111500    237.36489   -12715.557   -11493.636   -12715.557            0    2054.9927    23.294663    21.778422    43.611061   -8.8559588    3.9395166    5.5264553    22124.807    2587.7885    1575.5107    2001.6791   -1173.2543   -53.241434   -48.294941    23.294663    23.510161    44.135996    85.275276    84.879044    112.12858 
  112000    231.54389   -12723.891   -11531.936   -12723.891            0    2090.9775    23.494693     21.50486    43.758993   -9.4077459    3.8108366    5.8693292    22109.235    1153.5304    2650.1097    2469.2925   -40.028357     1192.828   -55.291198    23.494693    23.472637     44.31502    85.016081      85.0668    113.62797 
  112500    235.39716   -12724.307   -11512.516   -12724.307            0    1427.0085    23.509493     21.55299    43.805588   -9.0524185     3.754284    5.9294687    22196.287    2036.6841    989.84376    1254.4976   -1167.4837    451.49254   -784.29829    23.509493    23.376862    44.364206     84.81011    85.145587    112.78277 
  113000    236.25237   -12705.067   -11488.873   -12705.067            0    988.95769    23.499903     21.62885    43.764523    -9.388612    4.1682273    5.4714916    22244.451    902.44008    460.36969    1604.0633    611.83006   -798.58069    679.90208    23.499903    23.578659    44.301747    85.651195    84.601215    113.46461 
  113500    230.80295    -12704.45   -11516.309    -12704.45            0     1201.128    23.461513     21.63547    43.742789   -9.1998665     3.476824    6.0998146    22203.877    995.17773    225.68062    2382.5256   -101.02209    486.15474   -270.03092    23.461513    23.510234    44.302682    84.491361    85.498864    113.03624 
  114000    241.09017   -12714.902   -11473.803   -12714.902            0    1023.8948    23.517969    21.608617    43.804639   -9.2570902     4.226323    5.8071222    22261.114    467.33381    535.38706    2068.9636   -44.324004   -79.834321     425.4853    23.517969    23.507999    44.389536    85.252793    84.536599     113.1902 
  114500    233.73948   -12710.837   -11507.579   -12710.837            0    1797.3795    23.461565    21.513248    43.973728   -9.2987836    3.4881788    5.5851635    22195.056    1791.8494    2063.4725    1536.8166    451.29247    395.58909    142.48286    23.461565    23.436877    44.464032    85.171382    85.500554     113.3757 
  115000    238.11799   -12683.563   -11457.765   -12683.563            0    2425.9955    23.465724    21.628539    43.685998   -9.0721449    4.0861382    6.1751313    22171.925     2864.225    1763.4549    2650.3066    -86.50888    482.25349   -906.00784    23.465724    23.454157    44.309087    84.672618    84.708725    112.75574 
  115500    239.03182   -12737.409   -11506.907   -12737.409            0     2586.683    23.423975    21.575932    43.745075   -9.3280744     3.906667    5.7386307    22108.503    1916.2183    3052.0849    2791.7459    644.22225    45.287194    336.64283    23.423975    23.506038    44.292499    85.185963    84.939848    113.38062 
  116000     228.4395   -12739.338   -11563.363   -12739.338            0    2607.3439    23.448902    21.501984    43.825914   -9.1211721    3.5680791    5.6727635    22096.935    2176.2377    2459.5991    3186.1948   -28.240057    880.66544    818.16615    23.448902    23.356607    44.335338    85.045608    85.383881    112.98673 
  116500    236.25945   -12693.211    -11476.98   -12693.211            0    1380.6084     23.57808    21.579268    43.764408    -9.364765    4.3075547    6.1947906     22267.23    1405.2794    1384.6415    1351.9043    377.99025   -261.94961   -508.36071     23.57808    23.523683    44.410065    84.873956    84.433844    113.45942 
  117000    233.74533   -12699.668    -11496.38   -12699.668            0    1646.1145    23.372521    21.652653    43.844261   -9.1052016    3.4384817    5.4125466    22188.575    2021.7583    968.63247    1947.9527   -563.18547    545.45225    413.18323    23.372521    23.489191    44.310699    85.266611     85.54941    112.80734 
  117500    226.20618   -12713.591   -11549.114   -12713.591            0    1500.4744    23.447831    21.615963    43.755239   -9.2831656    3.9532067    5.8660227    22177.231    1924.0622    1251.0955    1326.2655   -327.26205   -244.89433   -418.53778    23.447831     23.52503    44.323346    85.042831     84.88298    113.24153 
  118000    227.63914   -12722.853   -11550.999   -12722.853            0    1148.0477    23.556328    21.610972    43.658185   -9.0827604    3.8585633    6.1407365    22225.297    874.65451     522.0084    2047.4801   -246.02329   -282.07614   -177.82191    23.556328     23.44207     44.25646    84.598503    84.998234    112.79627 
  118500    229.58688   -12708.042   -11526.161   -12708.042            0    1601.9491    23.458436    21.587106    43.785953   -9.3703025    3.9067186    5.3643394    22173.195    1979.8682    410.30574    2415.6735    540.52066   -232.70171    1036.3967    23.458436    23.533077    44.285982    85.642016    84.939034    113.46419 
  119000    235.11328   -12699.894   -11489.564   -12699.894            0    1725.4567    23.403583    21.685609    43.742932   -9.0579555    3.6399605    6.3558163    22200.455    2320.9774    971.20068    1884.1919   -1117.8895    766.36793   -34.444987    23.403583    23.501324    44.351886    84.226225    85.292439    112.67002 
  119500    237.33913   -12714.818   -11493.029   -12714.818            0    2162.7992    23.454792    21.520503     43.80798   -9.2634716    4.1765334     5.710072    22112.469    2538.9019    1877.3919    2072.1038    327.33724   -326.57665    281.18455    23.454792    23.429553    44.375528    85.355123    84.599446     113.2894 
  120000    234.20433   -12705.402   -11499.751   -12705.402            0    1940.0087    23.444041    21.499873    43.945623   -9.2907414    3.4909537    5.7829064    22150.523    2349.8097    2332.7348    1137.4815   -279.94675    781.79927    211.00041    23.444041    23.421409    44.461742    84.937145    85.496735    113.37062 
  120500    239.61433   -12688.936   -11455.436   -12688.936            0    1531.2343    23.414181     21.64447    43.858091   -9.1167412    4.3574633     5.946606    22226.734    2170.9544    878.06231    1544.6862   -355.72908   -648.16509   -148.21712    23.414181    23.486125    44.473382    85.112846    84.377188    112.84103 
  121000    238.06003   -12725.544   -11500.044   -12725.544            0    1189.5146    23.416695     21.65587     43.78927   -9.3402724    3.4935217    5.9935777    22205.929    895.57604    1139.3267     1533.641     724.3579    303.37645   -488.90266    23.416695    23.584262    44.335401    84.668005    85.480547    113.33075 
  121500    226.72855    -12714.14   -11546.973    -12714.14            0    1683.5111    23.515444      21.5618    43.773239   -9.2001785    3.9270226    5.7405325    22194.577    1551.9141    2088.3529    1410.2664    -22.26245    -715.4786     286.7551    23.515444    23.442579    44.322361    85.161092    84.916849     113.1074 
  122000    235.89172   -12688.148   -11473.811   -12688.148            0    893.58663    23.646035    21.534978    43.722096   -9.2797536    4.0458716     6.048745    22264.028    205.95881    1351.4377    1123.3634   -649.09386     706.9317   -824.90191    23.646035    23.449288    44.323561    84.882174    84.762729    113.31195 
  122500    236.02162   -12700.911   -11485.905   -12700.911            0    1053.5534    23.494325    21.598086    43.894444   -9.2264287    3.6039339    5.7828679    22273.465    800.84918     809.3722    1550.4389     195.2447    402.06332    4.8030009    23.494325    23.486258    44.420177     84.96025    85.346317    113.13156 
  123000    232.48994   -12768.214   -11571.389   -12768.214            0    413.55292    23.377148     21.77736     43.74795   -9.2150408    4.1111963    5.9491809    22271.756    724.90055    -829.1588     1344.917    9.4741239    155.02719    191.04164    23.377148    23.646783    44.341604    84.984276    84.680098    112.93554 
  123500    228.05186   -12711.527   -11537.548   -12711.527            0    1122.4573    23.519748    21.583761     43.83073   -9.1821517    3.6562999    6.0834447    22250.435    1585.4565    647.33203    1134.5833   -231.25956    796.52724    421.40521    23.519748    23.455717    44.401686    84.615494    85.276575    113.04584 
  124000    236.00331   -12711.327   -11496.416   -12711.327            0    1954.4364    23.544898    21.436924    43.874901   -9.2821998    3.9546987    5.5132535    22144.987    1753.5726    2170.8603    1938.8763    232.21879   -53.747848    665.39243    23.544898    23.360243    44.396425    85.494011    84.889492    113.41264 
  124500    238.41681    -12716.75   -11489.414    -12716.75            0    2217.0165    23.507809    21.504865    43.738256   -9.2349237    3.7994743    5.9662993      22111.1    1725.8336     2999.388     1925.828   -349.67645    385.62626   -631.00299    23.507809    23.403911    44.306521    84.842414    85.080599    113.24034 
  125000    240.32524   -12667.969   -11430.808   -12667.969            0    2449.1844    23.322657     21.74353    43.623206   -9.1891016    3.7483181    5.9125508    22122.065    3015.7529    1716.9829    2614.8175   -847.81094    153.64936   -804.23906    23.322657    23.605522    44.181356    84.822443    85.133212    112.90956 
  125500    237.96388   -12751.447   -11526.443   -12751.447            0    2079.3015    23.407431    21.590477     43.73512   -9.1872881    3.8249707    5.7053534     22102.75    2617.6482    1608.1536    2012.1027   -582.68579    265.04831    742.73566    23.407431    23.463908    44.271234    85.138134    85.043548    113.05097 
  126000    235.16934   -12703.836   -11493.217   -12703.836            0     2162.307    23.657924    21.317954    43.874591   -9.3032607    3.9487259    6.0758525    22127.647    1077.5706     3384.828    2024.5224    444.63025   -364.99857   -841.75129    23.657924    23.259532    44.468958    84.853119    84.905576    113.57669 
  126500    229.25602   -12703.644   -11523.466   -12703.644            0    2316.1935    23.434143     21.53524    43.843155   -9.1770283    3.9450729    5.9335883    22125.882    3050.9943    2230.3703    1667.2159   -456.30468   -505.30758   -539.18576    23.434143    23.409067    44.418389    84.947269    84.904492     113.0808 
  127000    244.34696   -12764.848   -11506.984   -12764.848            0    1733.3252    23.272253    21.656934    43.876284   -9.2131415    3.6889889    5.5932668    22113.895    1553.7103    1698.6759    1947.5895    212.07717     479.8863    129.70888    23.272253    23.535181    44.384925    85.214567    85.232444    113.04553 
  127500    241.78764   -12733.194   -11488.506   -12733.194            0    1832.9295     23.41075    21.595331    43.886749   -9.2568799    3.8426546    6.2325009    22187.512    2244.9394    1710.1272    1543.7218     578.1568    124.87931   -104.31985     23.41075    23.495705    44.493334    84.564717    85.045493    113.20249 
  128000    231.96876   -12719.281   -11525.139   -12719.281            0    1852.4759    23.559455    21.425537    43.863172   -9.1566514    4.0746542    5.5712384    22140.988    1256.2764    1701.3599    2599.7914   -644.28497   -389.29433    517.88557    23.559455    23.300169    44.402921    85.450938    84.734819    113.14045 
  128500    241.67001   -12769.605   -11525.522   -12769.605            0    2775.3675    23.480237    21.523423    43.690333   -9.3943505    3.5708852    5.9040622    22080.006    2881.2629    2588.8897      2855.95    594.88359   -153.16585    35.309236    23.480237    23.484284    44.231825    84.834081    85.369408    113.57987 
  129000    234.93904   -12686.266   -11476.833   -12686.266            0    2346.4274    23.333597    21.749585    43.662101   -9.0241645    4.1760723    6.0726045    22158.344    1906.8368     2262.383    2870.0625     347.5747   -1063.2741   -94.882944    23.333597    23.547399    44.279737    84.806017    84.588327    112.53415 
  129500    234.62176   -12716.254   -11508.454   -12716.254            0     2072.587    23.350188    21.563691     43.98417   -9.2951216    3.7724838    5.5169948    22146.744    2470.5301    1679.8188    2067.4121    786.35219    182.37991     1102.314    23.350188    23.481739    44.489056    85.393462    85.135719    113.31867 
  130000    231.72103   -12699.183   -11506.316   -12699.183            0    2164.9705    23.558781     21.42848    43.888737   -9.2522274    3.8307416    6.0945899    22156.301    2216.7575    3051.8519    1226.3021   -88.834058    143.07493   -374.31218    23.558781    23.340597     44.47516    84.740622    85.058868    113.35336 
  130500    236.20056    -12696.45   -11480.523    -12696.45            0    2036.0917    23.476603    21.588135    43.756698   -9.1500664    4.1530023    5.7869259    22176.598    1705.2887    1546.7839    2856.2026    1148.3178   -689.90041      155.963    23.476603    23.447202    44.332658    85.202903    84.624755    112.96951 
  131000    226.04871   -12718.045   -11554.378   -12718.045            0    1851.1637    23.396845    21.707179    43.643851   -9.3883415    3.4615756     5.684638    22165.818     2375.907    619.76985    2557.8142    379.97798    200.15021    302.06386    23.396845    23.650425    44.148424    85.005664    85.502955    113.38845 
  131500    229.70274   -12739.628    -11557.15   -12739.628            0    1473.9623     23.51781    21.618004    43.613486   -9.1600361    3.9420393    5.9679029     22173.45    1610.7443     1601.152    1209.9907   -711.64333    120.84594   -588.26938     23.51781    23.478594     44.19606    84.863259    84.882739    112.96347 
  132000    232.41574    -12754.25   -11557.807    -12754.25            0    529.86827    23.664502     21.49289    43.767915   -9.2759152    3.9336893    5.6772562    22261.172    296.80412    288.04472     1004.756   -251.43045   -556.59873   -46.509108    23.664502     23.40912    44.309542    85.269983     84.90672    113.34409 
  132500     235.1158   -12667.506   -11457.163   -12667.506            0    1115.4373    23.508808    21.640238    43.768612   -9.3169662    3.6195256    5.9625176    22266.677    1235.0661    319.35165    1791.8942   -465.88626    391.28531    329.74528    23.508808    23.560683    44.320921    84.763309    85.315649    113.29376 
  133000     234.2915   -12740.648   -11534.549   -12740.648            0    1425.2575    23.377523    21.688392     43.79241   -9.1651222    4.0150886    5.7262357    22203.666    1583.7685    1066.1624    1625.8416   -25.880583   -125.97584     220.8509    23.377523    23.545399    44.347332    85.198915     84.80548    112.90804 
  133500    228.44257    -12747.78    -11571.79    -12747.78            0    305.16674    23.497798     21.57679    44.029487   -9.3554055    3.4228694    5.8651128    22323.261   -354.94414    771.74926    498.69511    573.06204    615.57465    510.22227    23.497798    23.517684    44.550099    84.823565    85.593513    113.44091 
  134000    228.95319   -12715.318   -11536.699   -12715.318            0     1735.109    23.567196    21.472761    43.872227   -9.2012041    4.1454092    5.9605648    22201.662    1280.2021    1856.0004    2069.1246   -889.40695    158.41843   -203.34372    23.567196    23.361113    44.468923     85.03843      84.6511    113.19542 
  134500    238.82914   -12690.677   -11461.218   -12690.677            0    2162.1114    23.438529    21.501203    43.941838   -9.2274735    3.5525814    5.6343584    22144.778    1264.5802    3404.1287    1817.6253    86.432127    950.72394    33.749104    23.438529    23.397607    44.443806    85.125388    85.415215    113.22711 
  135000    228.27765   -12733.994   -11558.853   -12733.994            0    2558.1655    23.412888    21.624931    43.650107   -9.3314275    4.1347734    5.9908896     22100.14    2734.1282    2581.5778    2358.7903   -525.38879   -222.19214   -1095.8515    23.412888     23.55235    44.252897    84.992809    84.638744     113.3408 
  135500    226.32328   -12715.627   -11550.547   -12715.627            0     2439.301    23.449276    21.568313    43.670831   -9.0403998    3.8581113     5.837578    22087.018    2401.1288    2295.4193    2621.3549    153.82874   -432.07716   -17.132496    23.449276    23.386341    44.227862    84.951053     84.99558    112.74109 
  136000    237.26704   -12722.593   -11501.176   -12722.593            0    2941.3346    23.503995    21.535251    43.544393   -9.5701629    3.6705929    5.6885096    22040.623    2734.2049    3068.6184    3021.1805    1032.7737   -99.271631    427.34789    23.503995    23.565972    44.067523    85.173625    85.222027    113.96013 
  136500    240.40795   -12735.824   -11498.237   -12735.824            0    1866.2508     23.44348    21.648293    43.638363   -9.0092059    3.8600857    5.7502691    22146.963    763.36648    2185.0209    2650.3652    604.82918    24.885282    96.076115     23.44348    23.448121    44.184529    85.032752    84.988089    112.59524 
  137000    238.10306   -12725.757   -11500.036   -12725.757            0    2526.7274    23.417094    21.622458    43.678724   -9.3443054    3.8325897    6.0440957    22116.073    3084.6119    1272.6619    3222.9084    574.47534    180.52473    172.80422    23.417094    23.555185    44.261165    84.778831    85.032518    113.37194 
  137500    238.08054   -12691.033   -11465.428   -12691.033            0    2177.7467     23.46109    21.485767    44.105566   -9.1373551    3.9573165    5.7373306    22232.712    2926.9749    1391.4698    2214.7954   -342.26191     259.8076    976.50683     23.46109    23.348007    44.652864    85.207018    84.915547    113.03883 
  138000    239.80128   -12753.423    -11518.96   -12753.423            0    1412.8883    23.446179    21.529071     43.96526   -9.1843007    3.8131482    5.7538967    22192.541    1549.7966    1211.8863     1476.982    41.112992   -18.660591    759.71757    23.446179    23.406245    44.503838    85.106685    85.084795    113.10309 
  138500    232.25249   -12707.508   -11511.905   -12707.508            0    1896.9043    23.403211    21.633295    43.858238   -9.4473868     4.080671    5.9933779    22204.925    1822.5993    1810.0463    2058.0672    298.73521    1.7919392    177.73163    23.403211    23.606198    44.453543    85.019434    84.733044    113.59118 
  139000    222.24638   -12751.043    -11606.95   -12751.043            0    2508.3173    23.371661    21.591559    43.773386   -8.9634576    3.5413663    5.7055175    22089.389    2833.8277    2638.7449    2052.3793   -621.38116   -327.97958   -249.88137    23.371661    23.378173    44.285477    84.932522    85.413345    112.54515 
  139500    235.23788   -12715.788   -11504.817   -12715.788            0    2496.3868    23.525636    21.485937    43.690865   -9.4778121    4.1122203    5.8246698    22084.436     2332.586    2322.5738    2834.0004    432.16579    209.93117      574.222    23.525636    23.483492    44.268824     85.24517    84.669995    113.80309 
  140000    233.62975   -12716.441   -11513.748   -12716.441            0    2640.1932    23.501882    21.506566    43.639311   -9.0903098    3.5523973    5.7757508    22057.262    2007.7689    2478.0829     3434.728    621.69704    445.23131     330.7386    23.501882    23.348792    44.162974     84.88546    85.386237    112.91262 
  140500    240.92028   -12701.577   -11461.353   -12701.577            0    2072.1708    23.414463    21.640992    43.708521   -9.3028284    4.1460495    5.8847567    22147.641    1535.2484    1995.6834    2685.5806    786.68799   -251.27219   0.49486235    23.414463    23.555788    44.297347    85.119127     84.62949    113.26145 
  141000    239.51233   -12755.846    -11522.87   -12755.846            0    2057.3851    23.450109    21.578922    43.680287   -9.2566014     3.766714    5.8430608    22103.452    2604.5721    835.74139    2731.8417    78.255862    178.82452    394.20925    23.450109    23.480514    44.230046    84.960962    85.114666    113.21764 
  141500    233.89393   -12725.347   -11521.294   -12725.347            0    1571.0948    23.562512    21.494439    43.826671   -9.0801531    3.8733306    5.6072951    22196.586      1466.14    1049.8276    2197.3169   -87.043864   -43.041236    552.97093    23.562512    23.333668    44.353371    85.269177    84.990042    112.90124 
  142000    239.04874   -12740.013   -11509.424   -12740.013            0    1753.3108    23.441562    21.574514    43.781984   -9.3671829    3.9802351    6.0401024    22142.314    2211.4513    1505.9177    1542.5635   -145.81966    367.96422    44.557564    23.441562    23.520284    44.375525     84.88636    84.853975    113.46943 
  142500    234.51132    -12689.36   -11482.129    -12689.36            0    2240.4474    23.336254    21.620346    43.887282   -8.9804301    3.6058579     5.726653    22142.797    3082.4094    1796.8969     1842.036   -803.37049    10.976831     184.7017    23.336254    23.411268    44.405971     84.95447    85.342334     112.5565 
  143000    228.01334   -12714.062   -11540.282   -12714.062            0    2171.4923    23.480801    21.532362     43.84914   -9.4755434    4.2254367    5.9427338    22169.998    1991.0882    2494.0536    2029.3352    157.03535   -790.50922   -558.98731    23.480801    23.525062    44.451293    85.176948     84.54536     113.7524 
  143500     243.4031   -12743.351   -11490.347   -12743.351            0    2365.1158    23.443174    21.511839    43.866385   -9.1214432    3.5867093    5.8428464    22122.071    2494.6095    2225.9213    2374.8165   -246.84451   -85.025224    105.05602    23.443174    23.365785    44.398908    84.858185    85.366384     112.9779 
  144000    234.45361   -12730.609   -11523.675   -12730.609            0    2491.0712     23.43655    21.533797    43.855039   -9.3027479    4.1831983    5.6290138    22132.669    2292.3371    3658.5703    1522.3062    181.68216    33.884648   -483.57422     23.43655    23.457313    44.412267    85.469067     84.59529    113.36468 
  144500    232.80714   -12688.647   -11490.188   -12688.647            0    2495.3546    23.264609    21.618487    44.000976   -9.0210928     3.371389    6.1597836    22130.099    2868.7472    2594.3404    2022.9761   -366.48883    1042.6041   -252.90783    23.264609    23.425181    44.557773    84.350517    85.660664     112.6501 
  145000      233.252   -12703.407   -11502.658   -12703.407            0    2308.4231    23.499033    21.547228    43.803173   -9.2205945    4.0945355    5.7779524    22179.255    2304.2727    2110.2079    2510.7888    -236.1432    209.13325    72.633871    23.499033    23.437201    44.371927    85.215275     84.70535    113.16729 
  145500    233.75762    -12732.06   -11528.708    -12732.06            0    1176.2289    23.579398     21.44722    43.983598   -9.3664738    3.5868636    5.7480334    22243.058    168.85077    2106.5108     1253.325     284.8278    451.54273   -186.02925    23.579398    23.403292    44.502387    85.060181    85.376983    113.59195 
  146000    230.76033   -12719.924   -11532.002   -12719.924            0      870.213    23.413217    21.640873    43.896638   -9.0978486    3.9897129    5.9726931    22241.657    1003.1164    472.29051     1135.232   -377.35892    415.92414   -332.87108    23.413217    23.475482    44.480397    84.892663    84.853883    112.80194 
  146500    235.56909   -12715.884   -11503.208   -12715.884            0    1746.9392    23.416001    21.624162    43.783906   -9.3285634     3.931334    5.5901025    22170.042    2229.1771    1794.0035     1217.637   -50.999112   -424.73721    227.55856    23.416001    23.550509     44.31405    85.371881    84.910297    113.33514 
  147000    233.10764   -12725.714   -11525.709   -12725.714            0    1608.8897    23.599286    21.433093    43.807058   -9.2133458    3.4253878    5.9350442    22157.859    1478.1587    2231.7351    1116.7755   -151.34514   -202.64652   -933.93018    23.599286     23.32945    44.339783    84.694613    85.569306     113.2612 
  147500    230.37694   -12679.838    -11493.89   -12679.838            0    2670.5696     23.54104    21.549877    43.585636   -9.2845511    4.2784407    5.9207575    22111.278    2081.6726    2805.3362    3124.6998    405.65405   -72.765422    293.54292     23.54104     23.46487     44.19353    85.139303     84.44441    113.30831 
  148000    235.77822   -12732.849   -11519.096   -12732.849            0    2157.3939    23.321438    21.654456    43.808673   -9.2086728    3.3961679    5.6833696    22123.951     3076.616    1307.1276    2088.4379    721.47652    331.29193    178.05777    23.321438    23.531152    44.306144     84.94871    85.603835    113.03788 
  148500    229.44762   -12683.678   -11502.514   -12683.678            0    2890.0891     23.34982    21.597011    43.745001    -9.262354    4.1421638    5.9676926    22060.006    3767.9525    2132.7796    2769.5351   -65.056458    -952.2849    431.63359     23.34982    23.499406    44.344064     85.01674    84.640207    113.21314 
  149000    242.45916   -12705.665   -11457.519   -12705.665            0    2458.0168    23.509514    21.450161    43.893392   -9.1450545    3.8408887    5.8592142    22134.686    3224.6787    2727.5044    1421.8672    208.90889   -630.80798   -227.85414    23.509514    23.318264    44.448989    84.987717    85.042823    113.09047 
  149500    234.59672   -12726.641    -11518.97   -12726.641            0    2050.8663    23.501414    21.436937     43.93991    -9.409439    4.0009278    5.7251224    22136.853    2040.1348    2663.9522    1448.5121    373.62234   -865.19191   -27.045511    23.501414    23.411104    44.491573    85.314587    84.840678    113.69839 
  150000    230.12585   -12716.311   -11531.656   -12716.311            0    2103.5809    23.343125    21.703838    43.657506   -9.0490056    3.8652036    5.9635726    22118.438    2266.5424     930.5944    3113.6058   -211.67475    210.31471    199.51692    23.343125    23.514699    44.232135     84.78956    84.986842    112.63277 
  150500    232.39363   -12683.728   -11487.398   -12683.728            0    2122.5919     23.42351      21.6328    43.688339   -9.2977769    3.8463502    5.8982583    22137.585    2546.5286     2198.564    1622.6831   -263.79388   -467.06936   -395.14083     23.42351    23.546267    44.252173    84.943731    85.013622    113.25803 
  151000    235.85506   -12751.173   -11537.024   -12751.173            0    2397.8513    23.550981    21.458538    43.689081   -9.1780081    3.7896105    5.6446526    22079.135    2280.6972    2707.1359     2205.721    251.13723   -322.67714    441.44473    23.550981    23.338909    44.214919    85.200256    85.083211    113.15683 
  151500    233.79638   -12714.807   -11511.257   -12714.807            0     1891.219    23.629705    21.506281      43.6119   -9.3098887     4.053221    6.1123347    22163.004    1067.4493    2315.1298    2291.0778    655.67501   -347.45144   -412.08939    23.629705    23.434892    44.224281    84.811783    84.741377    113.40738 
  152000    229.54893   -12726.258   -11544.572   -12726.258            0    2837.1857    23.411907     21.61721    43.605181   -9.2448969    3.6435091    5.4960505    22068.587    3125.5213    2419.4563    2966.5796    503.13173   -151.32431    214.25413    23.411907    23.511101    44.100947    85.290768    85.260965    113.15464 
  152500    228.10681   -12709.948   -11535.687   -12709.948            0    2198.2302    23.406909    21.663418    43.709361   -9.2141623    3.9589215    5.6943166    22163.865    2325.0515     1653.852    2615.7871    541.09754   -541.75594    14.628924    23.406909    23.541547    44.256146    85.216569    84.867761    113.04164 
  153000    232.97837   -12750.389   -11551.049   -12750.389            0    1488.5705    23.532425    21.538298    43.852674   -9.2626171    3.8451646    6.2694326    22226.657    1162.6035    1474.3161    1828.7918    -171.9852    74.930553   -440.13722    23.532425    23.445561    44.465134    84.527802    85.039097    113.27028 
  153500    232.50732   -12734.806   -11537.891   -12734.806            0    1399.0575    23.540183    21.414535    44.020467   -9.2784218    4.0617173    5.2674081    22190.809    1221.6646    2412.4552    563.05273    165.92555   -675.45976    629.31101    23.540183    23.338196     44.52016    85.854362    84.765443    113.42597 
  154000    239.43613   -12730.521   -11497.938   -12730.521            0    1980.4484    23.446852    21.611378    43.725192    -9.213565    3.8147772    6.0086334    22156.376    2155.0184    2053.9828    1732.3439   -1098.4627     192.9921   -484.57766    23.446852    23.493434    44.300661    84.779046    85.060081    113.08997 
  154500      228.698   -12749.694   -11572.389   -12749.694            0    2284.1672    23.343261    21.704405    43.592048   -9.1450918    3.7850226    5.9681973    22085.981    2367.6501    1645.1849    2839.6666   -467.18587    255.13401    57.317747    23.343261    23.552365     44.16121    84.763781    85.083191    112.84799 
  155000    235.95892   -12694.307   -11479.624   -12694.307            0    2044.1162    23.594511    21.477853    43.691557   -9.3577013    3.8351193    5.2709789    22141.109    1706.5098    1849.2143    2576.6243    452.43287    446.86108    640.19954    23.594511    23.427863    44.175146    85.715338    85.019527    113.54231 
  155500    234.44638   -12715.077    -11508.18   -12715.077            0    1300.3422    23.579313    21.532636    43.733227   -9.2483098    3.8304519    6.0940893    22204.442    192.29652     1623.731     2084.999   -187.57671    443.89857    202.42665    23.579313     23.43471    44.321613    84.708056    85.042084    113.24362 
  156000    229.46978   -12777.101   -11595.823   -12777.101            0    2086.5319    23.381055    21.594112    43.657615    -9.229537    3.9350501    5.6023593    22042.429    2450.3972    2107.9711    1701.2274   -609.80749   -44.722671    648.60574    23.381055    23.483825    44.191157    85.320754    84.891268    113.14234 
  156500    234.92142   -12748.513    -11539.17   -12748.513            0     2340.685    23.382884    21.601322    43.706717   -9.2638293    3.5279098    5.6815101    22076.316    2369.6892    1644.0664    3008.2996    215.93526     561.6887    764.43366    23.382884    23.503949    44.215414    85.029292    85.423555     113.2123 
  157000    233.89413   -12742.456   -11538.402   -12742.456            0    2002.3466    23.544704    21.529214    43.674748   -9.1871159    4.1659136    6.0767668    22138.685    2530.5146    1780.8377    1695.6874   -922.80235   -252.45969   -859.84719    23.544704    23.407481    44.291823    84.878182    84.603008    113.10929 
  157500    234.73823   -12756.554   -11548.155   -12756.554            0    1973.6061    23.468221    21.480856    43.858522   -9.2325618    3.7118007    5.5699545    22109.847    2903.5152    1708.4131    1308.8901   -495.36658   -324.93823    381.77096    23.468221    23.380919    44.366336    85.278882    85.200879    113.25824 
  158000    224.91213   -12699.907   -11542.091   -12699.907            0    2400.4683     23.28793    21.681389     43.88479   -9.2899786    3.8402219    6.0549848    22158.075    2951.9706    1779.6347    2469.7996    789.14946   -862.41422    133.88062     23.28793    23.587843    44.466672    84.770223    85.045662    113.19402 
  158500    230.09243   -12702.374    -11517.89   -12702.374            0     1944.341    23.363783    21.557564    44.065062   -9.0051981    3.8648854    5.9095713    22194.084    2130.3011    2496.3201    1206.4017   -828.61827   -485.62752    -121.7412    23.363783    23.362837    44.627234    84.905019    85.031748    112.67166 
  159000    236.06035   -12686.423   -11471.218   -12686.423            0    2013.0072     23.43056    21.480155    44.121566   -9.3257064    3.8194985    5.7756889    22206.034    2539.3905    2314.5953    1185.0357    884.73016    327.37406   -96.862626     23.43056    23.417213    44.661614    85.148944    85.094024    113.46829 
  159500    238.29116   -12738.691   -11512.001   -12738.691            0    2153.0982    23.439906    21.572955     43.90954   -9.2087375    3.7451674    6.1408526    22203.652    2122.8483    2123.7633     2212.683     945.9793    345.39526    253.71201    23.439906    23.456199    44.494765    84.612722    85.171646    113.11593 
  160000    230.93398   -12716.341   -11527.525   -12716.341            0    2595.0785    23.385535    21.654227    43.585162   -9.1005494    4.1986914    5.8155742    22071.337     3394.753    1692.3338    2698.1488   -1208.4366   -563.65229    158.07375    23.385535    23.488839    44.171442    85.149978    84.545547    112.79539 
  160500    244.40087   -12686.596   -11428.455   -12686.596            0    3178.1478    23.472736    21.527818    43.595373   -9.3188763    3.4588847     5.757204    22029.473    3197.7887    2183.6801    4152.9746   -557.19181    151.74291    176.91687    23.472736    23.458226    44.109702    84.915285    85.502505    113.40663 
  161000    229.99433   -12755.406   -11571.427   -12755.406            0    2888.3681    23.511801    21.492708    43.559586   -9.2036247    4.0890559    5.7879722    22012.064    2258.5677    3509.2901    2897.2464    165.78188   -226.90339   -520.56927    23.511801    23.380402    44.132284    85.176389    84.683661    113.18162 
  161500      233.189   -12649.001   -11448.576   -12649.001            0    3042.1421    23.436533    21.636327    43.476779   -9.1818328    3.6563835    5.9743322    22046.227    3327.1186    1598.8318     4200.476   -161.08161    159.56391    77.480435    23.436533    23.503972    44.037395    84.695453    85.237302    112.99497 
  162000    231.74907   -12733.548   -11540.536   -12733.548            0    2376.9223    23.415888    21.558475    43.728496   -9.3548111    3.6900542     5.686378    22074.619    2163.9731    2367.2194    2599.5744    403.62609     317.1071    256.48444    23.415888    23.500646    44.250794    85.141864    85.216575    113.45734 
  162500    232.59802   -12732.805   -11535.424   -12732.805            0    2699.4791    23.542803    21.479465    43.712385   -9.0619939    4.1630736    6.0552371    22104.777    1805.5738    2996.2794    3296.5841   -422.11801   -190.28242     63.77631    23.542803    23.312811    44.325723    84.873394    84.610835    112.87445 
  163000    228.22761   -12720.191   -11545.308   -12720.191            0    2503.3885    23.367943    21.530137    43.942376   -9.4298371    3.6680006     5.635576    22108.069    2792.5121    2704.1559    2013.4976    785.76519    275.35629    579.64441    23.367943    23.504651    44.453868    85.237782       85.267    113.65261 
  163500     235.2183    -12755.26   -11544.389    -12755.26            0    2123.8872    23.315156    21.635753    43.908572   -9.1190839    3.9225514    5.8194438    22149.283    2187.3292    2709.3733    1474.9591   -363.64924   -30.250534   -821.02565    23.315156    23.479002    44.465886    85.047039    84.939083    112.85455 
  164000     233.0051    -12714.75   -11515.272    -12714.75            0    2350.1396    23.441533    21.489004    43.955364   -9.2267547    3.9144944    6.0073781    22141.864    2383.6004    2635.6222    2031.1961    -676.1282   -79.658634   -293.50555    23.441533    23.386113    44.536343    84.878557    84.957516    113.23728 
  164500      242.578   -12697.151   -11448.393   -12697.151            0     1946.134    23.603414    21.487011    43.731914   -9.2789308    4.0624378    5.6199445    22179.377    892.70184    2454.6496    2491.0507    590.03949    102.37132     852.0644    23.603414    23.404919    44.278296    85.402874    84.735833    113.35657 
  165000    241.77405   -12703.321   -11458.702   -12703.321            0    1751.5854    23.482568    21.653766    43.602789   -9.2220755    3.6216467    5.8693714    22171.409    2378.5051    1346.4692    1529.7819    57.794224   -39.366797   -301.82174    23.482568    23.535765    44.144864    84.826071    85.294163    113.06857 
  165500    232.60899   -12751.421   -11553.983   -12751.421            0    1146.3458    23.474664    21.703406    43.588184   -9.3177877     4.177276    5.8797911    22207.315    797.65746    825.77232    1815.6077    495.22567   -105.85629    -422.4028    23.474664    23.619039    44.180894    85.124518    84.574616      113.235 
  166000    236.41821   -12719.183   -11502.135   -12719.183            0    999.12397    23.465949    21.622925    43.888001   -9.1593079    3.3595287    5.7326989     22268.88    950.75795    442.87984    1603.7341   -118.82095    535.23538    630.22579    23.465949    23.482841    44.388139     84.87092    85.659402    112.95715 
  166500    226.05412   -12751.286   -11587.592   -12751.286            0    1304.8896    23.511681    21.536542    43.845232   -9.2795665    4.1384391    5.9474991    22201.485    958.06894    1035.2711    1921.3287    720.83771    -568.8417    230.13904    23.511681     23.45065    44.439889     85.06309    84.656621    113.31002 
  167000    232.41687   -12758.066   -11561.617   -12758.066            0     1157.652    23.563289    21.470361    43.912172   -9.1940751    3.5804112    5.5351858    22215.709    828.48584    2093.7675    550.70252   -51.314807    366.10578    343.95599    23.563289      23.3561     44.40424    85.247635    85.375095    113.18166 
  167500    230.28395   -12732.196   -11546.727   -12732.196            0      1671.54    23.477575    21.635109    43.756919   -9.4711405     4.091214    6.0454085    22225.885    1615.3951    624.13189    2775.0931    602.75354    82.014805   -187.31168    23.477575    23.617376    44.361615    84.959864    84.708424    113.64222 
  168000    244.05103   -12720.133   -11463.792   -12720.133            0    1809.7262    23.383508    21.640522    43.908095   -9.0078162    3.7744523    5.9014843    22218.871    2374.7522    1729.3465    1325.0798     485.0375   -175.25489  -0.57507936    23.383508    23.440413     44.46341    84.841362    85.130361    112.59941 
  168500    242.62899   -12749.854   -11500.834   -12749.854            0    1090.9646     23.49228    21.551848     43.89068   -9.4915579    4.0010628    5.7359234    22221.941    877.18322    1049.3682    1346.3425    304.50231   -73.887936   -50.444243     23.49228    23.549348    44.444359     85.30639    84.835007    113.76897 
  169000    238.93989    -12741.15   -11511.121    -12741.15            0    1645.8639    23.562109    21.575061    43.683167   -9.0854045    3.7640873    5.8320623    22206.509    849.11515    1705.5717    2382.9048   -837.41703    1148.3737    344.10203    23.562109    23.409994    44.231215    84.923164     85.11821    112.83629 
  169500    245.08472   -12741.849   -11480.187   -12741.849            0     2265.277    23.455947    21.553681    43.737696   -9.3062786    3.8707703    5.8556812    22112.117    2105.2523    2699.1911    1991.3876    379.37388   -203.27324   -93.293939    23.455947    23.476967     44.29738    85.024896    84.987017    113.35334 
  170000    235.92121   -12753.882   -11539.393   -12753.882            0    2579.5276    23.331324    21.564651    43.903065   -9.2001872    3.8645897    5.8205731     22089.03    3313.7458    2195.4757    2229.3613    192.07828    355.73261    466.65666    23.331324    23.445204     44.45552    85.048339    85.012891    113.10468 
  170500    231.08065   -12768.481   -11578.911   -12768.481            0    1769.9718    23.412343    21.489368    43.987128   -9.1065108    3.7523822    5.8546161    22130.647    2337.8655    1443.3384    1528.7115   -3.0914092   -65.198428    116.05487    23.412343    23.339269    44.533407    84.941718     85.16653    112.96569 
  171000     238.9589       -12758   -11527.874       -12758            0    1906.0486    23.398468    21.536879    43.882378   -9.2920411    4.0559827    5.9165221    22113.645    1800.4574    2580.0222    1337.6663    623.44967    282.41619    -382.7107    23.398468    23.455898     44.46481    85.064245    84.766329    113.33768 
  171500    235.35914   -12720.954   -11509.358   -12720.954            0    2504.6308    23.395186     21.58392    43.736681   -9.0552016    3.6049255    5.8280755    22085.267    2968.0492    1766.6461    2779.1972   -158.86257   -307.25076    187.43015    23.395186    23.406458    44.270297    84.842477    85.329239    112.75974 
  172000    233.52729   -12709.718   -11507.552   -12709.718            0    2567.1149    23.531125    21.609857     43.45658   -9.3494462    4.2850247     5.700103    22097.855    2773.2811    2190.8778    2737.1857   -253.11183   -368.67399    236.84105    23.531125    23.545659     44.03779    85.402349    84.416093    113.39559 
  172500    243.01321   -12730.608   -11479.611   -12730.608            0    2149.1615    23.532823    21.543293    43.678459   -9.2416893    3.5330048      5.88946    22143.865    2510.0945    1586.4633    2350.9266     -617.833   -414.15913   -68.311353    23.532823    23.441892    44.215107    84.784011    85.416899    113.21847 
  173000    232.81282   -12730.915   -11532.427   -12730.915            0    2231.6009    23.558829    21.529577     43.56909    -9.246117    4.4489913    5.5324461    22098.749    1915.9623    2072.7353     2706.105   -397.43992   -1014.6871    117.25535    23.558829    23.431034    44.143709    85.676536    84.215666    113.24164 
  173500    236.90378    -12702.65   -11483.103    -12702.65            0    2396.6859    23.437148    21.639135    43.630828   -9.2324941    3.1881382    6.0734297    22127.794    2595.4082    1373.2001    3221.4496    779.77539    29.446287    291.73739    23.437148    23.526392    44.166728    84.367172    85.860552    113.10587 
  174000    232.27016   -12735.163   -11539.469   -12735.163            0     2101.396    23.402478     21.58231    43.819156   -9.2385973    4.2594375    5.8122077    22132.159     2173.568    1609.5221    2521.0979    371.48113   -761.40276    294.53934    23.402478    23.476537    44.407691    85.263298    84.495918      113.174 
  174500    230.78441   -12681.951   -11493.905   -12681.951            0    1429.7028    23.383573    21.514585    44.137685   -9.1640091    3.5812043    5.7884105    22205.134    1861.3549    1695.8891    731.86433   -280.02247    582.37247    -402.4804    23.383573    23.384962    44.659444    84.961716     85.40056    113.07129 
  175000    234.54482   -12744.316   -11536.912   -12744.316            0     1483.743    23.512819    21.481912     43.97443   -9.3301518    4.0325551    5.9770443    22211.498    2449.9236    1361.5177    639.78775    390.99736   -441.10701   -228.01693    23.512819    23.420595     44.56161    85.010301    84.807977    113.47656 
  175500    233.20112   -12757.053   -11556.567   -12757.053            0    1964.0223    23.386318    21.590125    43.813043   -9.0990684    3.9343026    5.8630672    22121.799    2209.2247    1795.3844    1887.4577    -184.0939   -94.233051    265.27892    23.386318    23.429182     44.37834    84.990826    84.913842    112.85279 
  176000    229.15961    -12745.63   -11565.949    -12745.63            0    1470.6284    23.428534    21.619829    43.652198   -9.4044264    3.4499603    5.7172421     22110.75    693.70263    1990.3487    1727.8338    488.85092    595.63131    -390.7275    23.428534    23.576688    44.159976    84.976851     85.51925     113.5086 
  176500    236.52841   -12699.362   -11481.747   -12699.362            0    2004.7463    23.517216    21.589066     43.69935   -9.1939846    3.9182967    5.9146099    22186.804    1983.3816    2025.7449    2005.1123    272.31697   -263.49214    182.89266    23.517216    23.465232    44.271536    84.937706    84.922336    113.06736 
  177000    221.91744   -12689.113   -11546.713   -12689.113            0    2194.8724    23.487262    21.556227    43.674113   -9.3866894    3.5856282    5.5751851    22112.061    2007.0336    2739.8035    1837.7802    609.46305    253.15789     277.2256    23.487262    23.511292    44.174286     85.22129    85.344178    113.53079 
  177500    235.19296   -12716.244   -11505.504   -12716.244            0    2012.7141    23.449831    21.587303    43.755454   -9.0417184    4.1345616    5.9499124    22149.824    2908.6216    1613.7711    1515.7495   -817.63465   -446.78781   -39.297646    23.449831    23.404365    44.351277    84.967298    84.650945    112.72609 
  178000    247.17065   -12741.571   -11469.171   -12741.571            0    1419.7177    23.420426     21.56439    43.954665   -9.2247389    3.7330802    5.9299914     22199.18    1348.1855    2246.3595    664.60823    213.84261   -521.42733   -313.46859    23.420426     23.45461    44.509699     84.86484    85.188885     113.1601 
  178500    229.52952   -12768.146    -11586.56   -12768.146            0    1360.0503    23.419164     21.50862    44.003496   -9.3171582    3.8053472    5.5196734    22165.173    811.73877    2401.7904    866.62179    125.52936    316.09894   -90.898798    23.419164    23.439927    44.511292    85.422551    85.095698    113.42142 
  179000    237.50521   -12732.271   -11509.628   -12732.271            0    1862.6576    23.404455    21.591666     43.88705   -8.8872912    4.0131778    6.2776482    22177.934    2292.2019    2456.4131     839.3578   -1454.3106   -158.33813    -1462.983    23.404455    23.349175    44.515027    84.485736    84.827572    112.37243 
  179500    237.95607     -12713.3   -11488.336     -12713.3            0    1846.4706    23.450071    21.528845    43.899727   -9.3728191    3.7124627    5.7436079    22162.906    1355.5685    2323.4293    1860.4139    488.65401    164.21712   -505.43241    23.450071    23.480649    44.429241    85.113906    85.206833    113.52643 
  180000    230.77875   -12710.465   -11522.448   -12710.465            0    2130.1961     23.48497     21.62978    43.610349   -9.1204147     3.942077     5.753295    22152.956    2270.4092    1970.1914    2149.9877   -515.63908   -428.44677    121.37003     23.48497    23.474015    44.164499    85.103558    84.879023    112.86321 
  180500    235.79322   -12693.531   -11479.701   -12693.531            0      1359.55    23.583047    21.613544    43.571436   -9.3369605    3.9515802    6.2255989    22208.937    1715.9584    674.83894    1687.8528   -87.524693   -747.05674   -266.61423    23.583047    23.544089    44.190984    84.613951     84.86973    113.36414 
  181000    234.44625   -12733.514   -11526.618   -12733.514            0    1618.8915    23.500026    21.517109    43.804043   -9.1938954    3.5669725    5.4224852    22149.629    1157.2977    2527.4626    1171.9141    521.85191    344.04168    1234.4346    23.500026     23.39901    44.282286    85.356574    85.379775     113.1362 
  181500     231.2148   -12721.072   -11530.811   -12721.072            0    1765.0171    23.514784    21.561098    43.830988   -9.3345773    4.2063307    6.0753623    22222.511    1634.2498    1747.3637    1913.4377     30.86534    -299.8744   -313.74525    23.514784    23.495005    44.449508    84.961073     84.56988    113.40953 
  182000    240.29594   -12730.417   -11493.408   -12730.417            0    1899.2662    23.404598     21.57064    43.878558   -9.1390953    3.6683803    5.9716747    22152.185    1943.8245    1896.7154    1857.2586     342.4669    -204.7803   -479.30959    23.404598    23.426813    44.434736    84.747941    85.264466    112.96151 
  182500    241.37914   -12745.883   -11503.297   -12745.883            0    1592.3143    23.493197    21.545084     43.87275   -9.3184906    4.0865061    5.2986445    22206.759     1939.083    1539.2892    1298.5708   -548.05045    53.820691    707.92785    23.493197     23.47392    44.380101    85.812024    84.716738    113.38902 
  183000    234.94715   -12718.761   -11509.286   -12718.761            0    1653.9346    23.499195    21.613464    43.680552    -9.111417    3.5495303    6.4536836    22185.309    1735.1971    549.13274    2677.4739   -677.87166    548.18683   -481.79826    23.499195    23.455484    44.297176    84.081009    85.403965    112.85844 
  183500    240.66303   -12722.293   -11483.393   -12722.293            0    2714.6135    23.418321    21.607525    43.563164   -9.1861521    3.9933299    5.7047388    22043.482    2669.8856    2543.0716    2930.8832   -228.20228   -560.90746    77.288755    23.418321    23.479151     44.11621    85.205134    84.806567    113.03213 
  184000     233.6897   -12695.893   -11492.891   -12695.893            0    3674.9586    23.429417    21.489845    43.690405   -9.3722329    3.5217344    5.6557667    21997.881    3772.8165    3840.8278    3411.2315    301.36984    17.915998   -219.50411    23.429417    23.444662    44.195496    85.098312    85.429519    113.56316 
  184500    241.46085    -12722.04   -11479.034    -12722.04            0    2079.0091    23.520988    21.560736    43.626032   -9.1323328    3.9772799    6.1524199    22124.061    1346.5957    2429.8232    2460.6084   -338.18246   -245.83233   -874.54691    23.520988    23.415056    44.236881    84.663858    84.841646    112.95572 
  185000    231.56596   -12703.603   -11511.534   -12703.603            0    2892.5198    23.444971    21.487926    43.722301   -9.3082452    3.8361814    5.4701746    22026.587    3524.6163    2605.7346    2547.2087    130.37798   -908.55071   -215.63308    23.444971    23.417395     44.22984    85.468328     85.02432    113.42153 
  185500    234.26648   -12707.443   -11501.472   -12707.443            0    1644.8325    23.346133    21.644192    43.817366    -9.225797    3.7579562    5.8390545    22141.273    2773.0481    1216.8026    944.64678    -74.97677    370.62843   -403.47878    23.346133    23.528416    44.364156    84.959406    85.140822    113.08604 
  186000    237.65275   -12697.497   -11474.094   -12697.497            0    2020.9457    23.491357    21.582012    43.721637   -9.2231015    3.9477045    6.0207106    22166.466     1397.459    2474.8849    2190.4932   -489.25418     178.4869   -459.10868    23.491357     23.47017    44.310437     84.84019    84.888629    113.13951 
  186500    230.31201   -12711.196   -11525.582   -12711.196            0    1277.1553    23.619737    21.393631    43.912361    -9.275784    3.4435393    5.0917831     22189.44    175.85413    2446.3868     1209.225   -225.52967    802.24502    391.03338    23.619737    23.317968    44.340497    85.729596    85.545852    113.44044 
  187000    232.47557   -12724.011    -11527.26   -12724.011            0    1937.8192    23.469454    21.617398    43.712007   -9.2448044     4.005508     6.005264    22177.223    1452.6712    2220.4608    2140.3257     194.6907   -121.73145   -246.12894    23.469454    23.511238    44.304027    84.889399     84.81283    113.15425 
  187500    242.13338   -12729.951   -11483.482   -12729.951            0    1423.9975    23.350876    21.681738    43.879717   -9.0542356    3.5916506    6.1326439    22215.755    1512.3337    1078.4007     1681.258     59.88984   -178.03387   -275.49592    23.350876    23.496317    44.451534    84.481213    85.365492    112.66528 
  188000    235.39431   -12702.504   -11490.728   -12702.504            0    979.35012    23.527257     21.49195    44.019338   -9.3959585    4.0140506    5.4754387     22258.23    992.96906    1372.7676    572.31373   -657.30698    59.419047   -4.4681878    23.527257    23.456086    44.539815    85.610376    84.829331    113.61423 
  188500     233.0404   -12689.239    -11489.58   -12689.239            0    1953.0668    23.501266    21.567441     43.79953   -9.1285144    3.5717955    6.1435997    22200.325    1501.9081    1762.6311    2594.6613   -131.79096   -69.539634   -569.11622    23.501266    23.419741    44.372293     84.48367    85.382919    112.94073 
  189000    227.90644   -12759.988   -11586.758   -12759.988            0    1673.9444    23.345615     21.70353    43.687241   -9.2540837    4.1997289    5.7021419     22135.55    2249.6914    1056.2821    1715.8596    624.80295   -369.02747   -525.64973    23.345615    23.594094    44.257509     85.33686    84.554837    113.09273 
  189500    240.15765   -12762.005   -11525.708   -12762.005            0    1929.9898    23.467755    21.585716    43.733831   -9.2337643    3.5203883    5.7819016    22154.172    2319.9027    1482.7152    1987.3517    276.57136    205.94646    235.27245    23.467755    23.477767    44.254621    84.903382    85.437387    113.15988 
  190000     241.0028   -12693.165   -11452.516   -12693.165            0     2320.265    23.563643    21.572057    43.674953   -9.2297875    4.1021001    5.9364801    22200.688    1991.9164    1879.2766    3089.6019    83.514166    56.533885    302.36624    23.563643    23.463645    44.267036    85.018003    84.682935    113.16407 
  190500    242.75514   -12695.076   -11445.407   -12695.076            0    1068.2866     23.50722    21.583119      43.8484   -9.2965391    3.6448049     5.728229    22246.885    1395.5276    577.19356    1232.1387    557.95917   -79.829072     160.7892     23.50722    23.500141    44.370929    85.062344    85.288187    113.30309 
  191000    232.10873   -12704.596   -11509.733   -12704.596            0    555.80892    23.368309    21.790073    43.856376   -9.1385433    4.1357764    5.9520428    22331.542    1419.3174    62.626327    185.48309   -91.045605   -502.53901   -76.848814    23.368309    23.628801    44.451245    84.980384    84.661437     112.7527 
  191500     228.5102   -12700.447   -11524.108   -12700.447            0    1803.4092    23.401721    21.580176    44.021266   -9.2679051    3.8930768    5.8401465    22231.323     2342.372    2129.1266    938.72896     625.5506   -839.01254   -287.96201    23.401721    23.486125    44.577295    85.071236    84.989795    113.24177 
  192000    239.90475   -12716.335   -11481.339   -12716.335            0    2017.8219    23.534764     21.39055    44.052693   -9.2082278    3.6036349    5.8419639    22177.075    2627.0522    2408.9824    1017.4311   -14.426646   -392.62165    54.210394    23.534764    23.288347     44.58424    84.928732    85.363865    113.29096 
  192500    231.40394   -12682.219   -11490.984   -12682.219            0    1284.9647    23.481557    21.597191    43.840032   -9.3278126    4.2573091      5.97536    22232.844    1382.0881    1843.3095    629.49646   -402.95252   -130.64175   -187.82016    23.481557    23.525449    44.449724    85.098947    84.503895    113.35948 
  193000    235.71968    -12716.73   -11503.278    -12716.73            0    1860.5857     23.38294    21.661194    43.723879    -9.103972    3.5027038    5.7618734    22146.249    1750.8351    1767.9046    2063.0176   -274.13718    563.33873    690.90651     23.38294    23.496588    44.240769     84.87154    85.458931     112.7965 
  193500    243.91049   -12727.085   -11471.468   -12727.085            0    1904.6289    23.576068    21.589453    43.563652   -9.5692007    4.5668975    5.8705063    22173.656    1168.3523    1606.0487    2939.4856    980.13937   -296.39337     995.2055    23.576068    23.615124    44.194017    85.436346    84.068611     113.9046 
  194000    236.62618   -12720.172   -11502.054   -12720.172            0    1735.7405    23.532917    21.514473     43.80275   -9.1080948    3.5755493    5.8783531    22177.258    2401.6752    1533.0482     1272.498    -338.5635    66.619059   -336.29745    23.532917    23.363003    44.339829    84.799118    85.374665    112.94524 
  194500    231.19599   -12691.613   -11501.449   -12691.613            0    2228.0347     23.47104    21.562417      43.7704   -9.4003275    4.2139086    5.6430191    22151.865    2235.7983    1687.7785    2760.5274    529.39191   -700.40292    513.94797     23.47104    23.522415    44.333381    85.486461    84.545775    113.55522 
  195000    241.94949   -12708.366   -11462.844   -12708.366            0    2151.0763    23.337214    21.698046    43.729627   -9.0452326    3.4721975    6.2513164    22143.457    2195.8356    2385.0637    1872.3297   -454.37506     334.5107   -987.22365    23.337214    23.507902    44.310444    84.256962    85.505655    112.62972 
  195500    237.35246   -12681.756   -11459.899   -12681.756            0    2078.6433    23.433026    21.514022    43.881307   -9.3246464    3.9782444    5.5564619    22122.261    2551.5408    2196.8607    1487.5283    332.86105   -1032.6723   -138.35217    23.433026     23.44786    44.410244    85.458898    84.860587    113.43296 
  196000    234.19312   -12687.587   -11481.994   -12687.587            0    2722.7818    23.525883    21.447378    43.820403   -9.2448516    3.8777777    5.9229165    22110.395    1810.1918    3685.5263    2672.6274    22.061078    842.39447   -350.64325    23.525883    23.355027    44.388577     84.95409    84.988263    113.31837 
  196500    240.83198    -12701.54   -11461.771    -12701.54            0    2525.6727    23.308324    21.643241    43.756998   -9.1394755    3.7300179      5.89189    22073.991    3370.2369    1075.4554    3131.3259   -213.43051   -60.797364   -535.78404    23.308324    23.493827    44.309167    84.850766    85.171033    112.89329 
  197000     230.8425   -12692.955    -11504.61   -12692.955            0    2316.9299    23.432262    21.581837    43.784496   -9.3017718    4.0011563    5.7049781    22142.313     2675.171    1678.3531    2597.2656     328.5066    189.11889    -168.7327    23.432262    23.501035    44.335518    85.270655    84.822172    113.31604 
  197500    226.34237   -12718.564   -11553.385   -12718.564            0     1592.973    23.576975    21.524421    43.816679   -9.0879419    3.6399969    6.1749083    22236.121      981.559    1413.8655    2383.4943    682.28439      124.388    110.15237    23.576975    23.364319    44.399104    84.477516     85.29741    112.89022 
  198000    228.72782    -12689.23   -11511.772    -12689.23            0    1471.1002    23.540264    21.586081    43.736264   -9.3384636    4.1017504     5.661267    22224.234    979.36682    1511.9092    1922.0245     51.87628    280.83535    428.35743    23.540264    23.519477    44.291479    85.380339    84.686332    113.39404 
  198500     237.7464   -12718.717   -11494.832   -12718.717            0    2613.3935    23.406493    21.610628    43.763649   -9.1786429    3.2034892    5.9154685    22136.923    3186.3691    1775.1278    2878.6835    190.26637   -176.12655   -522.21304    23.406493     23.47907    44.277671     84.56687    85.851026     113.0123 
  199000    236.47183   -12685.325   -11468.001   -12685.325            0    2951.1935    23.522694    21.579501    43.616588   -9.2302686    4.6278699    5.7585617    22140.129    2687.4909    3118.9123    3047.1773    338.20689   -900.68067   -378.81397    23.522694    23.470678    44.237823    85.495185    83.995106      113.158 
  199500    232.06122   -12651.679   -11457.061   -12651.679            0    2623.5916    23.491525    21.517495    43.856998   -9.1861357    3.6019078     5.779789    22168.782     2297.392     2993.583    2579.7997    255.81575    1047.1308   -77.082369    23.491525    23.396318    44.382609    84.956943    85.344994    113.11835 
  200000    232.87042   -12747.734    -11548.95   -12747.734            0    2363.0142    23.439156    21.496454    43.834019    -9.413355    4.0150298     5.950918    22086.153    2016.0405    2779.2736    2293.7284     791.0633    -399.6983    21.259681    23.439156    23.467185    44.417959    85.039689    84.813839    113.64874 
  200500    228.61155   -12741.415   -11564.555   -12741.415            0    2147.0549    23.334443    21.550665    43.878869   -8.9496874    3.8748322    5.8722424    22065.488    2624.4072    2372.9713    1443.7862   -228.34654   -212.97667   -12.277615    23.334443    23.335125    44.439315    84.917247    84.997812    112.55242 
  201000    244.65995    -12700.56   -11441.085    -12700.56            0    2484.5922    23.393414    21.526467     43.85461   -9.3807654    3.7322295    5.9156202    22084.197     2679.717    3138.9948    1635.0649   -351.80957    285.80197   -462.18747    23.393414    23.481642    44.408906    84.920256    85.179041    113.54652 
  201500    233.09997   -12694.304   -11494.338   -12694.304            0    2936.4404    23.463158    21.525606    43.675893   -8.9411809    4.0232122    5.6691052     22058.89    2801.2263    3113.3454    2894.7494   -684.87108    107.42615   -619.91194    23.463158     23.30872    44.225656    85.211161    84.780581    112.55674 
  202000     239.9132   -12757.199    -11522.16   -12757.199            0    2440.2013    23.498976    21.561646    43.537845   -9.4043086    3.7205538    5.9874558    22059.607     1737.108    2081.3278    3502.1682    654.27353    115.66119   -506.30398    23.498976    23.523299     44.10483    84.795582    85.160946    113.56486 
  202500    234.72318   -12762.417   -11554.095   -12762.417            0    2452.6063    23.495281    21.598693    43.553499   -9.1850805    3.8912928    5.7383213    22101.979    1207.3579    2375.8831    3774.5778   -40.649486    129.34312    227.57194    23.495281    23.470604    44.101902    85.112028    84.937974    113.03815 
  203000    228.03645   -12784.259   -11610.359   -12784.259            0    1899.2095    23.598026    21.557136    43.414311   -9.3095601    3.9012716    5.7019975    22085.114    1416.6774    1968.8526    2312.0983    418.69329    219.87419    569.80051    23.598026     23.48144    43.960608    85.187609    84.908605    113.35735 
  203500    235.23864   -12690.832   -11479.857   -12690.832            0    1184.1975    23.498159    21.574921    43.820585   -9.2831929    3.8262336    5.9482162    22215.762     1127.487    1205.1964     1219.909    581.97559   -224.17122   -270.32252    23.498159    23.487334    44.387667    84.892493    85.054945     113.2811 
  204000    232.01713   -12700.141    -11505.75   -12700.141            0    902.36745    23.435117    21.619671    43.949109    -9.020173    3.8970561    5.7566149    22267.235    347.09934    1717.9115    642.09152    -168.8767    569.15204     295.3267    23.435117    23.425919    44.495504    85.085113    84.975418     112.6469 
  204500    229.67975   -12719.816   -11537.457   -12719.816            0    481.87523    23.463998    21.568362    44.075719   -9.4817441    3.7023428    5.9337301     22305.84    877.75711    377.03002    190.83856    824.78788    293.36887    372.78398    23.463998    23.560512    44.627183    84.932321    85.241181    113.73094 
  205000    227.83298   -12729.008   -11556.156   -12729.008            0    908.61326    23.423041    21.542074    44.090547   -9.1138092    4.0260034    5.8574426    22247.247    593.56978    1872.8946    259.37535   -109.85958    -191.1565    484.61512    23.423041    23.390649    44.659766    85.085636    84.827859    112.93177 
  205500    235.63419   -12705.815   -11492.803   -12705.815            0    1346.0931    23.469282    21.572868    43.914517   -9.2848095    3.8368632    5.9811684    22233.908     1820.204    376.55712     1841.518    -572.7762   -39.933134    286.41789    23.469282    23.486088    44.485736    84.870818    85.052132     113.2867 
  206000    225.54855   -12769.296   -11608.204   -12769.296            0    1708.6116    23.472607    21.588122    43.668779   -9.2493172     3.693907    5.6462876    22128.258     1335.624    1145.9734    2644.2375   -803.44397    322.66945    798.50489    23.472607      23.4861    44.186964    85.150828    85.204636    113.19246 
  206500    236.31065   -12706.421   -11489.927   -12706.421            0    2300.2206    23.556141    21.628665    43.461311   -9.1681729    4.0335111    5.7225754    22143.011    1493.5031    1555.4096     3851.749   -661.56887   -81.628812    192.49876    23.556141    23.491584    44.021615    85.185692    84.742861     112.9716 
  207000    236.31559   -12728.607   -11512.087   -12728.607            0    2424.2209    23.579694    21.503014    43.546566   -9.4886261    3.4501101    5.9341122    22079.611    1719.3585    2979.8556    2573.4487     209.5444    507.02848   -69.770725    23.579694    23.503481    44.084242    84.746855    85.511342    113.81041 
  207500    230.25834   -12715.997    -11530.66   -12715.997            0    3032.7305    23.425626    21.543774    43.728946   -9.0675384    4.1273331    5.6668025    22068.967    3623.6046    2602.8039    2871.7828   -1212.0592   -172.88626     182.4081    23.425626    23.374226    44.287337    85.308982    84.652593    112.82569 
  208000    229.57968   -12704.303    -11522.46   -12704.303            0    2114.1647    23.366714    21.590985    43.858712   -9.2186807    3.7166968    6.0306313    22127.176    2417.0006    1622.1748    2303.3186   -109.35325    345.95493   -396.59036    23.366714    23.476685     44.42712    84.721981    85.201124    113.12098 
  208500    229.68218   -12692.416   -11510.044   -12692.416            0    1474.2573    23.268677    21.641702    44.063343   -9.2064153    3.7396107    5.8741899    22189.143    2270.7222    1030.4817    1121.5681      434.459   -284.62195   -239.98962    23.268677    23.518532    44.610189    84.931022    85.191331    113.04498 
  209000    237.79781   -12711.405   -11487.255   -12711.405            0    1630.1382    23.501578    21.503813    43.929424   -9.1718092    3.9917255    5.7961068    22200.768    1669.3501    1670.0586    1551.0058   -322.22385    139.98288   -214.41437    23.501578    23.378111    44.489583    85.144981    84.852346    113.09922 
  209500    235.98189   -12704.904   -11490.103   -12704.904            0    2500.2177     23.45664    21.512841     43.78389   -9.3326976    3.7357103    6.0262238    22094.182    2742.9964    2530.8711    2226.7857   -290.95877    192.91166   -269.22959     23.45664     23.44998    44.354255    84.771822    85.168574    113.45216 
  210000    238.55475   -12735.479   -11507.433   -12735.479            0    2727.9636    23.382088    21.626551    43.648797    -8.925047    4.1633268    5.5683481    22072.058    2025.8323    2839.5488    3318.5097   -963.14362    256.60407    730.95628    23.382088    23.395815    44.199064    85.381394    84.595016    112.42542 
  210500    240.02623   -12717.571    -11481.95   -12717.571            0     2647.035    23.400514    21.620778    43.688714   -9.3631762    3.5359953    6.0172409    22103.751    3470.8579    2598.4049     1871.842    59.038412    191.66962   -627.31538    23.400514    23.561135    44.242673    84.661277    85.415876    113.41569 
  211000    238.82814   -12706.353   -11476.899   -12706.353            0    2063.3766    23.471106     21.55425    43.799843   -9.1908746    4.0128244     5.668268    22158.431    1495.6402      1652.58    3041.9096    1.5054178    1.2281215    471.14949    23.471106    23.431984    44.347021    85.291788    84.808381    113.09372 
  211500    234.14812   -12747.583   -11542.222   -12747.583            0    1353.0761    23.570058    21.450291     43.91073   -9.2255178    3.8476242    5.9002952    22200.588    1108.1782    1548.5259    1402.5243   -809.99503    129.97278    306.80769    23.570058    23.350057    44.472125    84.968879    85.036698    113.27197 
  212000    239.03388   -12756.451   -11525.938   -12756.451            0    1046.4806     23.42125    21.614749    43.936376   -9.3225174    3.6255333    5.9288919    22242.546    1250.8352    872.01132    1016.5952    156.84373    466.52613   -97.798662     23.42125    23.539471    44.482597    84.830146    85.324948    113.33071 
  212500    230.05594   -12660.635    -11476.34   -12660.635            0    1394.3111    23.410263    21.679877    43.880358   -9.1328707    4.1398989    5.6027893    22270.669    2329.8073    444.39297     1408.733    19.063646    -598.2103    525.22031    23.410263    23.525017    44.429898    85.409152    84.653525    112.84376 
  213000    235.25348   -12759.459   -11548.408   -12759.459            0    1621.6133    23.530449    21.509963    43.815658   -9.3304525    3.7216623    6.1563023    22176.818    1074.7263    2298.6356    1491.4782    421.12873   -231.24369   -166.13651    23.530449    23.446447    44.402282    84.615304    85.192004    113.44992 
  213500    235.67279   -12700.501   -11487.291   -12700.501            0    2544.9131    23.599728    21.436453    43.757325   -9.2285294    3.9358384    5.6993882    22136.588    1863.9516    2852.4905    2918.2972   -137.54648    754.89488    539.11893    23.599728    23.338536    44.302115    85.237021    84.903073    113.29219 
  214000    234.82204   -12722.408   -11513.577   -12722.408            0    2498.2954    23.393394    21.611187    43.684295   -9.2051929       3.8755    5.8142439    22084.989    2199.9498    2518.6281    2776.3083   -263.77831     260.3825    176.96502    23.393394    23.489976    44.239604    85.032827    84.974304    113.07137 
  214500    232.25952   -12714.012   -11518.373   -12714.012            0    2984.1513    23.398707    21.605005    43.618379   -9.2849202    3.6625148    5.8989856    22050.364      2251.58    3526.6875    3174.1865   -594.96332    272.09114   -631.66408    23.398707    23.515654    44.167579    84.838343    85.243391    113.25599 
  215000     229.3649    -12741.92   -11561.182    -12741.92            0    3243.6833    23.497161    21.442777    43.738777   -9.0460811    4.2435721    5.6563479    22037.537    3225.5406    2878.8062     3626.703   -1047.6682   -153.22051    808.15927    23.497161    23.272823     44.30669    85.388647    84.503944    112.87346 
  215500    243.61431    -12711.44   -11457.348    -12711.44            0    2830.6723    23.447128    21.464891    43.857211   -9.2572047     3.741314    6.0437671    22072.897    2502.8656    2857.7524    3131.3989    113.79034   -292.69761   -149.86528    23.447128       23.376     44.42949    84.746532    85.169522    113.32918 
  216000    241.65516   -12749.685   -11505.678   -12749.685            0    2812.9674    23.357005    21.556918    43.785399   -9.2069969    3.9027082    5.6280547    22046.169     3795.763    3334.1871     1308.952   -110.87313    -446.7162   -494.38352    23.357005    23.440766    44.317799    85.285056    84.947882    113.12741 
  216500    236.65458   -12737.881   -11519.616   -12737.881            0    3062.8463      23.2803    21.663514    43.668576   -9.0973711    3.8569476    5.9623427    22023.508    3118.2519      2577.74    3492.5471    541.98265   -243.20488   -366.45683      23.2803     23.49617    44.242175      84.8076    84.998716    112.77947 
  217000    238.76373    -12693.64   -11464.518    -12693.64            0    1671.5282    23.503036    21.557884    43.774259   -9.2644601    3.8614798    5.8748288    22179.354    1600.3359    1441.0686    1973.1802   -621.40935   -48.538906   -163.64758    23.503036    23.464283    44.335205    84.988568    85.003357    113.25552 
  217500    236.28984   -12702.398   -11486.011   -12702.398            0    2034.9362     23.55707    21.483547    43.744215   -9.1747573    4.0703601    5.4626975    22138.484    1124.4852    2673.1143    2307.2091   -799.01062    654.45115    494.85281     23.55707    23.360628    44.271495    85.562773    84.724726    113.12538 
  218000    236.69007   -12703.288   -11484.841   -12703.288            0    1891.5531    23.465336    21.672202    43.552442   -9.3651039    3.6100592    6.1429516    22148.398    2697.7206     872.6734    2104.2652   -250.96605    50.753819   -406.39529    23.465336    23.609098    44.131435    84.529794    85.307822    113.37039 
  218500     237.3945   -12743.209   -11521.136   -12743.209            0    1187.6221    23.419812    21.697887     43.66783   -9.1539218    3.9480802     5.798288    22190.263    1942.4082     660.8532    959.60497   -358.20209   -419.26882   -229.96886    23.419812     23.54979     44.22767    85.061131    84.878549    112.87395 
  219000    233.64514   -12744.348   -11541.576   -12744.348            0    2537.1018    23.416297    21.504013    43.806623   -9.2722559    3.6966797     5.697061    22058.577     2566.624    3341.3006    1703.3807    403.71937    56.040877     18.70954    23.416297    23.417884    44.329924    85.124335     85.21654    113.32509 
  219500    230.87961   -12750.537   -11562.002   -12750.537            0    2409.7957    23.561505       21.448    43.721795   -9.2071345    4.0097151    6.2796125    22094.685    1674.0911    2429.4915    3125.8045    -854.0493    444.52572   -15.890478    23.561505    23.340695    44.352076    84.580795    84.813008    113.23274 
  220000    231.10544   -12699.275   -11509.577   -12699.275            0    1990.7583    23.437808    21.578362    43.889261   -9.2085684    3.8462328    5.4986595    22196.972    2032.1283    1902.3534    2037.7931   -35.485435    528.78012    542.53833    23.437808    23.461105     44.39928    85.416882    85.030337    113.11037 
  220500    235.17301   -12716.131   -11505.493   -12716.131            0    1828.8904    23.393071    21.744286    43.671822   -9.2680268    3.7025918    6.1602116    22214.355    1443.0883    2177.1926    1866.3902    863.25058   -152.78607   -744.81381    23.393071    23.637053    44.259297    84.535006    85.201209    113.08507 
  221000     232.6316   -12691.925    -11494.37   -12691.925            0    1550.4014    23.581585    21.553788    43.742237   -9.2400423    3.8161995    5.8869871    22232.975    1423.6791    1941.0802     1286.445   -500.94175    719.03293    6.2420822    23.581585    23.450888    44.301278    84.940288    85.058304    113.20466 
  221500    233.98394   -12704.488   -11499.972   -12704.488            0    1668.9647    23.526747    21.480151     43.93589    -9.247045    3.9581211    5.5500712    22203.357    1512.7281    1977.9738    1516.1922    100.21576    91.173524    681.58637    23.526747    23.385995    44.461583    85.442768    84.892574    113.29152 
  222000     231.5766   -12748.387   -11556.264   -12748.387            0    1444.9708    23.437967     21.58014    43.802743    -9.253963     3.848633    6.0016143    22155.191    1888.8363    1140.1844    1305.8917    351.13508    140.40722    255.78198    23.437967    23.480593     44.37918    84.829983     85.02497    113.21055 
  222500    231.48766   -12675.523   -11483.857   -12675.523            0     3004.465    23.377748    21.495988    43.987046   -9.3053452    3.7528634    5.4145026    22104.713    2471.9721    4618.9202    1922.5025    515.94864   -284.86621   -38.667003    23.377748    23.423641    44.477647    85.515034    85.159834    113.40718 
  223000    238.14877   -12708.011   -11482.054   -12708.011            0    2411.3695    23.466993    21.532373     43.68765   -9.1464846    3.8660342    6.1332749    22075.372    2031.3837    3109.9977    2092.7272   -208.07308   -103.56662   -850.71017    23.466993    23.394471    44.285145    84.644186     84.99178    113.01473 
  223500    237.27833   -12692.169   -11470.694   -12692.169            0    2356.8501    23.490631     21.61373    43.597544    -9.230732    4.0766186    5.9449411    22135.352    1448.9318    2559.0911    3062.5273   -125.19602    440.58083    63.740306    23.490631    23.502334    44.189444    84.980831    84.706753    113.12623 
  224000    236.43003   -12715.568    -11498.46   -12715.568            0    1219.9802    23.534228    21.570901     43.62719   -9.3272709    3.2137678    5.2914662    22147.539    1612.9098    405.04815    1641.9827   -91.580698    470.84196    1073.2952    23.534228    23.501101    44.064267     85.33809    85.817496    113.38369 
  224500    238.20264   -12745.577   -11519.343   -12745.577            0    1707.4549    23.516186    21.587682    43.599198   -9.2272317    4.1715258    6.0171987    22133.567    2072.4983    1170.2873     1879.579   -292.89348    -1235.283   -843.90882    23.516186    23.477007    44.209709    84.947589    84.585648    113.14334 
  225000    236.08454   -12664.818   -11449.489   -12664.818            0    2967.0662    23.378697    21.576872    43.804093   -9.1540794    3.6428432     5.758845    22096.499    2916.5175    2627.6798    3357.0011    27.891264   -281.67937    421.81326    23.378697      23.4384     44.33095    84.980509    85.286472    112.98929 
  225500    239.18715   -12722.038   -11490.736   -12722.038            0    2831.6746     23.40955    21.521194    43.769697   -9.3401561    3.9627306    5.7020421    22051.237    2698.5069    2587.5253    3208.9918    33.796637    -155.5566    673.40144     23.40955    23.460612    44.317072    85.271783    84.869891    113.46075 
  226000    233.69022   -12759.446   -11556.442   -12759.446            0    2304.6089     23.44543    21.496783    43.868015   -9.0106875    4.0100024    6.0521985    22109.538    2575.5775    2871.8279    1466.4213   -103.09327    520.24565   -248.42464     23.44543    23.308886    44.464728     84.79799    84.825813     112.7417 
  226500    230.78767    -12714.55   -11526.488    -12714.55            0    1684.7266    23.478715    21.506508    43.990073   -9.4323657     3.702582    5.7173963    22212.575    1030.7528    2670.0192    1353.4077   -17.572126    366.17315    514.82555    23.478715    23.484025    44.514316    85.169068    85.228778    113.68139 
  227000    241.09526   -12730.613   -11489.489   -12730.613            0    1770.7185    23.410071    21.633947    43.789127   -9.1240132    3.8491487    5.8184979    22177.102    1372.3381    1258.4046    2681.4127    456.59545    263.97654     134.0264    23.410071    23.479252    44.341386    84.998933     85.02005    112.86735 
  227500    231.83857   -12688.163   -11494.691   -12688.163            0    1342.0595    23.499157    21.692629    43.605977   -9.1446476    3.8640861    6.1066791    22228.517    1253.8267    1157.4419    1614.9099   -138.64754    554.67715   -320.50688    23.499157    23.541341    44.200723    84.643673    84.984725    112.85812 
  228000    236.32155   -12684.788   -11468.238   -12684.788            0    2504.7845    23.587892    21.451942     43.76299   -9.4391312    3.6865359    5.3747356    22144.339     1087.333    3667.6207    2759.3996    762.39454   -33.452425    213.10492    23.587892    23.436787    44.245651    85.547628     85.22059    113.75011 
  228500     243.5936   -12719.877   -11465.892   -12719.877            0    2539.5802    23.497068    21.539517    43.792882   -9.1158911    4.0373615    5.9676576    22164.256    2963.8159    2643.3038    2011.6208   -449.43274   -456.32295   -876.34481    23.497068    23.389106    44.381637     84.92993    84.780634    112.93891 
  229000    236.94379   -12721.608   -11501.855   -12721.608            0    2477.8556    23.318853    21.667651    43.763579   -9.2921841    3.8565847    5.9874267    22112.194    3214.2915    2164.8696    2054.4058     36.24142   -425.45198   -577.76377    23.318853    23.576085    44.339298    84.846511    85.010169     113.2121 
  229500    236.28739   -12723.873   -11507.499   -12723.873            0    2188.5956    23.364155    21.604029    43.776548   -9.1778708    3.5333631    5.4542098    22096.646    2492.6289    2251.6446    1821.5133    187.03761    541.42888    350.32332    23.364155    23.472695     44.25629    85.284213    85.420708    113.01686 
  230000    230.59849    -12714.57   -11527.481    -12714.57            0    3041.2421    23.533791    21.488296    43.683164   -9.2212414     4.103385    6.0467234    22090.622    2381.4534    4346.1558     2396.117     540.4973   -957.87912   -608.63037    23.533791    23.383288    44.290173    84.898216    84.684051    113.22555 
  230500    238.62845   -12737.872   -11509.447   -12737.872            0    2801.8863    23.548249    21.382465    43.819747   -9.3980331    3.4047353    5.4803492    22064.102    2400.2129    4115.4905    1889.9556   -428.99622    1303.7629   -782.70701    23.548249    23.356644    44.292174    85.276726     85.59133    113.72648 
  231000    234.24258   -12663.739   -11457.892   -12663.739            0    2387.6156    23.423478    21.670142    43.677093   -9.1945471    4.0674507    5.8956553    22170.059    1987.9113    2167.7358    3007.1996    214.73498   -402.13608   -125.86269    23.423478    23.540067    44.260494    85.024609    84.727193     112.9913 
  231500    231.51429   -12736.786   -11544.983   -12736.786            0    1536.2022    23.444316    21.610916     43.80497   -9.2570945    3.6832605    6.0853878    22193.926    1745.8056    1308.7408    1554.0602    100.87029   -266.55081   -349.31677    23.444316    23.510115    44.378753    84.642657    85.239201      113.188 
  232000    232.45686   -12705.258   -11508.603   -12705.258            0    1032.1671    23.533154    21.469238    44.047523   -9.2662166    4.0067775    5.3541128    22254.522    691.72377    2073.8011    330.97656    705.01001   -391.67132    162.97249    23.533154    23.383562    44.552274    85.716055    84.840173    113.34524 
  232500    230.96953   -12696.258    -11507.26   -12696.258            0    1651.7049    23.500702     21.55128    43.887834   -9.2272537    3.9019711     6.293846     22227.88    1709.3469    1972.9246    1272.8433    79.718578    -815.9467   -1083.8565    23.500702    23.443547      44.5082    84.520542    84.970503    113.17835 
  233000    234.88316   -12727.606   -11518.461   -12727.606            0    1551.5169    23.413143    21.612912    43.989192   -9.2121631    3.7952313    5.5750312    22259.683    1999.8106     1187.283    1467.4571   -352.10762   -57.836522    316.46417    23.413143    23.494295    44.503188    85.307817    85.107875    113.08536 
  233500    237.67705   -12720.215   -11496.687   -12720.215            0    1857.5035    23.431117    21.595347    43.804995   -9.3113576    3.8204194    5.5347419    22165.463    1118.9535    2873.5904    1579.9668    1190.2126    714.71252    280.99932    23.431117    23.517236    44.318241    85.379889    85.054724    113.32446 
  234000    233.66639   -12732.513   -11529.632   -12732.513            0    1611.4423    23.594668     21.49883    43.685432   -9.2354219    3.7212017    6.3620556    22159.774    1361.3947    2097.5826    1375.3496   -129.10636    373.96164   -944.51098    23.594668    23.398562    44.302822    84.330393    85.181782    113.24729 
  234500     233.7923   -12790.443   -11586.913   -12790.443            0    1475.2446    23.515798    21.560985    43.606003   -9.2650947    4.1295026    5.2835035     22109.28    1737.4917    1021.2404    1667.0017    -304.4406   -234.48507    532.26697    23.515798    23.467383     44.11861    85.809418    84.629252    113.25396 
  235000    233.85839   -12751.495   -11547.625   -12751.495            0    1772.1892    23.392372      21.6251    43.705286   -9.2541021    3.6220452    5.8636595    22108.861    1691.8881     1756.225    1868.4545   -194.27986    111.47344   -505.68222    23.392372    23.521976    44.245381    84.857566     85.30436     113.1677 
  235500    239.37801   -12626.816   -11394.532   -12626.816            0    2315.1095    23.558554    21.532734    43.804646   -9.1465083    4.1774221    6.0248623    22221.224    1979.2694    2817.7948    2148.2642    322.08429    -165.2467   -811.32942    23.558554    23.394812    44.413927    84.946678    84.602977    113.01444 
  236000    229.46575    -12732.11   -11550.853    -12732.11            0     1960.462    23.463891    21.430305     44.14886   -9.3260271    3.5885457    5.5175675    22199.739    1895.5217    2205.9161    1779.9482    997.74704    595.10241    992.59413    23.463891    23.371623     44.63679    85.338837    85.388767    113.51768 
  236500    231.47358   -12705.116   -11513.523   -12705.116            0    1477.8032     23.35448    21.652413    44.010926   -9.1741029    3.9179387    6.1863298    22255.482    3038.2202    427.60831    967.58115   -459.23791    -605.5089   -594.48472     23.35448    23.515764    44.615944    84.640095    84.962095    112.96232 
  237000    236.00787   -12761.647   -11546.712   -12761.647            0    1078.7338    23.324617    21.664088    43.924187   -9.1769172    3.8942001    5.7410634    22195.179     1518.251     495.4161    1222.5343    309.93107    250.09472    146.05059    23.324617    23.527611    44.468627     85.14004    84.976067    112.95754 
  237500    233.54733   -12782.566   -11580.297   -12782.566            0    1638.7338    23.522223     21.42684    43.976847   -9.3181059    3.7161003    5.8308504    22164.635      1723.48    2243.3148    949.40659    632.31603    635.77836    405.11085    23.522223    23.365285     44.51709    85.019118    85.211616    113.50326 
  238000    229.70939     -12651.3   -11468.788     -12651.3            0    2172.0102    23.559437     21.50441    43.727333   -9.1660268    4.2411886    5.8869193    22153.657    1763.2227    2847.5439    1905.2642   -272.34156    343.10855   -321.69076    23.559437    23.376392    44.325198     85.14362    84.509341    113.08561 
  238500     233.4056    -12725.94     -11524.4    -12725.94            0    2654.1784    23.325914    21.666005    43.657044   -9.3332033    3.1625723      5.79999     22063.37    1774.9574    2759.0153    3428.5626    1438.3359     736.2979    314.14061    23.325914    23.590771     44.15404    84.703872    85.892622    113.30524 
  239000    237.12889   -12737.022   -11516.316   -12737.022            0    2506.7864    23.424655    21.571566    43.768183   -9.2449166    3.9695246    5.8164309    22116.347    2565.1863    2956.0437    1999.1293    25.317177    75.998057    84.252637    23.424655    23.469149    44.331048    85.105372    84.862697     113.1985 
  239500     234.5656   -12662.896   -11455.385   -12662.896            0    2370.6188    23.453123    21.476397    44.064571    -9.039325    3.9461891    6.0832136    22194.822    2071.0581    3046.7072    1994.0911    498.50295   -262.12417   -352.93816    23.453123    23.301181    44.657187    84.763203    84.930373    112.82602 
  240000    237.22991   -12744.905   -11523.679   -12744.905            0    1299.3015    23.439582    21.517069    44.022923    -9.426682     3.715698    5.6697269     22203.01    2274.7078    1534.1165    89.080265    192.66213    -114.4227     2.664654    23.439582    23.491416    44.541778    85.232258    85.214796    113.65835 
  240500    234.30706   -12732.655   -11526.475   -12732.655            0    1747.2759    23.404945    21.640888    43.783164   -8.9980612    4.0740763    6.1053667    22176.339    1851.0525    1936.7316    1454.0436   -220.66099   -313.19298   -712.04106    23.404945    23.437004    44.394133    84.735484    84.734523    112.57704 
  241000    233.40204   -12735.135   -11533.614   -12735.135            0    1546.2652    23.513987    21.565004    43.792894   -9.4184306    3.8079749    5.8485017    22206.466    1374.3884    1851.8972      1412.51    796.92106    211.28472    217.68911    23.513987    23.532025    44.345498    85.038174     85.07391    113.59311 
  241500    232.78217   -12647.782   -11449.452   -12647.782            0    2440.4867    23.544548     21.50472    43.668681   -9.2803497     3.488018     5.728982    22110.279    1370.6302    3521.3474    2429.4824    790.92233    407.74221    110.70837    23.544548     23.42174    44.180778    84.964306    85.471857    113.34258 
  242000    231.59318   -12704.891   -11512.681   -12704.891            0    2167.7141    23.502849    21.622518    43.615228   -9.1759688    4.4103071    5.9752606    22164.856     2397.958    1766.3217    2338.8625    201.27137    -227.0841   -389.38369    23.502849    23.488969    44.242996    85.101983    84.279041    112.99496 
  242500    238.97459   -12716.266   -11486.058   -12716.266            0    1957.4192    23.402134    21.592661    43.832872   -9.3158645    3.3757572    5.7259799    22149.378    1442.4849    1595.2064    2834.5662    381.79237    17.851469    909.26691    23.402134    23.516555    44.333996    84.926959    85.633057    113.33714 
  243000     240.8548    -12728.94   -11489.053    -12728.94            0    2372.7368    23.460569    21.528091    43.827671   -9.1522407    4.1642262    5.7262579    22135.658    2449.3747    2883.1419    1785.6939   -408.45682    -458.1649    200.46315    23.460569    23.392781    44.395895    85.296308    84.617885    113.03181 
  243500    234.06992   -12742.785   -11537.826   -12742.785            0    2863.1758    23.464543    21.455009     43.78543   -9.2293598    3.7938354    6.3665522    22042.985    3261.9735    2939.6883    2387.8656    423.39234    -544.8799   -662.59182    23.464543    23.355909     44.40822    84.379611    85.099195    113.27606 
  244000    238.32198   -12728.556   -11501.708   -12728.556            0    2566.7847    23.386939    21.546364    43.828643   -9.2388141    3.9320967    5.4926776    22085.407     2844.621    1905.8351    2949.8981   -8.9560623    400.72873    1111.5189    23.386939    23.443581    44.346148    85.475084    84.913001    113.20905 
  244500    238.07422   -12703.741   -11478.168   -12703.741            0    2669.5192    23.334074    21.648958    43.739341   -9.1086679     3.753761      6.04603    22095.295    2527.5516    2739.1463    2741.8597   -313.94549     286.5207   -39.024631    23.334074    23.487129    44.314502    84.669189    85.140807    112.81863 
  245000    233.51883   -12680.502    -11478.38   -12680.502            0    2930.7822    23.518615    21.458364    43.742161   -9.3950133     3.952464    5.8369593    22075.401    3231.3289    2880.8506     2680.167    290.45673   -709.98272   -477.85906    23.518615    23.424937    44.306531    85.129596    84.881997    113.64502 
  245500    242.34146   -12672.089    -11424.55   -12672.089            0    2412.1649    23.446337    21.522716    43.825956    -9.177273     3.745956     5.645433    22115.843    2636.3198    2328.4209     2271.754   -88.566363   -901.05314    246.64065    23.446337    23.397642    44.346562    85.183218    85.154449    113.09337 
  246000    232.46169   -12721.064   -11524.384   -12721.064            0    3101.4827     23.41801    21.585424    43.554795   -9.2887156    4.0219746    6.1525172    22016.412    3310.7985    2960.1711    3033.4787   -188.15518   -410.91223   -727.51618     23.41801    23.499165    44.170691    84.723981    84.775681    113.28335 
  246500    232.81451   -12721.802   -11523.306   -12721.802            0    2988.1031     23.36869    21.581388    43.646919   -9.0944296    3.5267083    5.4641402    22012.396     3156.068    2585.9115      3222.33   -241.92266   -197.80976    436.48061     23.36869    23.419328    44.128766    85.234932    85.416114    112.85063 
  247000    239.28391   -12705.857   -11474.057   -12705.857            0    2007.5783    23.532655    21.498507    43.821944   -9.3016549    4.0792976    5.8969115    22170.264    1982.9854    1837.5952    2202.1543   -568.60413    90.801449   -43.738894    23.532655    23.424487    44.404696     85.10091    84.729014    113.39645 
  247500    227.85763   -12729.786   -11556.807   -12729.786            0    2703.5308    23.435977    21.479835    43.912042    -9.125867     3.888916    5.9961495    22105.362    2939.5362    2898.0472    2273.0089   -772.73686     158.2426   -496.96316    23.435977    23.338053    44.489829    84.844204    84.985299    113.01857 
  248000    232.50581   -12745.414   -11548.507   -12745.414            0    1910.0963    23.283698    21.655377    43.855712   -9.2694287    3.6687348    5.5313107    22112.807    2842.3789    1206.3585    1681.5513   -281.25345    314.27688    441.33806    23.283698    23.555841    44.355141    85.290958    85.255489      113.173 
  248500    239.21759   -12705.644   -11474.186   -12705.644            0    2073.5269    23.430638    21.625359    43.779469   -9.1407239     3.939862    6.1152181     22182.88     3305.365    1098.1079    1817.1076     32.36598   -1125.0103   -377.15027    23.430638     23.47784    44.379728    84.700775    84.906795    112.91307 
  249000    230.91658    -12726.28   -11537.554    -12726.28            0     1975.951    23.501351    21.508398    43.871409   -9.2010104    3.6564698    5.8022757    22175.962     2738.248    1462.1948    1727.4103     119.9077    300.52204    378.31632    23.501351    23.393798    44.404242    84.965757    85.276628     113.1606 
  249500    229.16885   -12736.589    -11556.86   -12736.589            0     2063.271    23.517974    21.568837    43.675579   -9.4395028     4.196734    5.7587538     22154.67    2506.0532    778.30588    2905.4539   -41.988049   -676.76218    316.46757    23.517974    23.543978    44.253045     85.34285    84.558182    113.63637 
  250000     232.7766   -12674.576   -11476.275   -12674.576            0     2463.725    23.424408    21.666643    43.613228   -9.0776489    3.5568972    5.9456902    22134.947    1784.5572    2492.1892    3114.4286   -435.32724    527.02187   -637.03221    23.424408    23.491427    44.160122    84.660556    85.380081    112.73217 
  250500     237.2193   -12716.029   -11494.857   -12716.029            0    2340.0903    23.479003    21.528088    43.736324   -9.3927853    4.0372866    5.5824195    22106.877    1979.3313    3061.0398    1979.8999    258.51303    15.978177    92.066349    23.479003    23.487933    44.275604    85.463275    84.768197    113.57182 
  251000    237.55375   -12704.476   -11481.583   -12704.476            0    2200.6259    23.618242      21.3937    43.824274   -9.0965612    3.5391709    6.1405628    22143.598    1450.0791     3013.556    2138.2427   -588.50756    1164.7609   -806.21351    23.618242    23.247318    44.393685    84.485555    85.427391    113.03511 
  251500    242.04932   -12740.701   -11494.665   -12740.701            0    2325.5995    23.424403    21.569335    43.812996   -9.2665453    4.0432565    5.8478369    22136.464    2931.1203    1808.5803    2237.0979    69.020234   -579.19505    -73.27157    23.424403    23.475627    44.386076    85.118583    84.773516    113.24916 
  252000    229.32927    -12768.38   -11587.826    -12768.38            0    2483.4379    23.254097    21.610974    43.849366   -9.1375744    3.7521846    5.5202066    22036.222    3416.3118    1688.9547    2345.0474   -309.20645    186.60588    791.01709    23.254097    23.463364    44.354464    85.314508     85.14724    112.91966 
  252500    240.14948   -12745.159   -11508.904   -12745.159            0    2072.9434    23.506506     21.52846    43.767667   -9.2287999    3.9403092    6.1644551    22149.017    1095.3974     2422.773    2700.6598    368.26642   -62.550592   -309.11633    23.506506     23.42318    44.374939    84.681359    84.905665     113.2038 
  253000    235.75491   -12740.082   -11526.449   -12740.082            0    1743.7327    23.575219    21.483984    43.761328   -9.2715367    3.8769721    5.8121617    22164.659    1342.8933    1712.1525    2176.1523   -1110.1244    265.14686   -38.342835    23.575219    23.399208    44.315528    85.080591    84.981026    113.34289 
  253500    242.08111   -12732.634   -11486.435   -12732.634            0    1530.0451    23.413479    21.711838    43.653911   -9.2319849    3.7826278    5.5009686    22191.451    1085.6248    1102.5842    2401.9261    101.63276   -282.86434    676.56714    23.413479    23.593081    44.161441    85.347292    85.086336    113.03545 
  254000    237.61264   -12739.761   -11516.564   -12739.761            0    2262.7889    23.424606    21.627178    43.694351   -9.2304724    3.8774668    6.0296144    22135.913     2400.532    1667.6372    2720.1975    343.69406    257.35805   -35.228669    23.424606      23.5146     44.27852    84.786362    84.976178    113.11277 
  254500    228.48912   -12665.891   -11489.661   -12665.891            0    2234.9873    23.496529    21.432038    44.034719    -9.116331    3.9584973    5.3847072    22174.937    2164.8306    2359.7455    2180.3859    188.90413    -12.13138    841.71024    23.496529    23.290335    44.538986    85.614653    84.900987    113.04296 
  255000     227.9739   -12678.308    -11504.73   -12678.308            0    2263.1197    23.489119     21.49985    43.910512   -9.4168355    3.8345047    6.2624422    22175.359    2351.7267    1859.1076    2578.5249    235.55937    606.68677    27.295511    23.489119    23.471692    44.520273    84.589389    85.059027     113.6532 
  255500     236.0803   -12723.112   -11507.804   -12723.112            0     2024.894    23.365634    21.637513    43.869668   -9.0489167    3.9493091    5.7758667    22179.372    3076.9973    1559.0145    1438.6702   -373.16894    364.72006    50.520227    23.365634    23.453461    44.424154    85.086615     84.89967    112.69493 
  256000    246.47648   -12707.009   -11438.183   -12707.009            0    1299.6352    23.415793    21.649841    43.938951   -9.3585108    3.7879254    5.7357809    22274.772    1522.8889     1335.094    1040.9225    114.00812   -277.32014   -431.27036    23.415793    23.585957    44.473351    85.147605    85.114031    113.37723 
  256500    231.59967   -12697.705   -11505.463   -12697.705            0    1224.7992    23.605604    21.522484    43.835014   -9.1787031     4.021484    6.1019119    22270.433    859.75821    1078.2423    1736.3971    18.683628    226.92467   -179.90377    23.605604    23.397989    44.440006    84.790266    84.808063    113.09681 
  257000    234.02645   -12708.254   -11503.519   -12708.254            0    1643.1355    23.575442    21.456081    43.972993   -9.2748668    3.9397528    5.5372475    22243.149    715.17735     2783.865    1430.3642   -73.366519    705.29824    303.51599    23.575442    23.374913     44.49502    85.463295    84.920168    113.37749 
  257500    230.65266   -12760.508   -11573.141   -12760.508            0    1423.2154    23.398837    21.650591    43.817016   -9.2240623    3.6100917    6.0196708    22197.641    1336.6353    1164.9929    1768.0179   -334.31253    568.93292    -202.8337    23.398837    23.533623     44.37567    84.668855    85.333662    113.07604 
  258000    231.45714   -12708.068   -11516.559   -12708.068            0    1655.0515    23.380034    21.718279    43.811591   -9.1185714    4.1533609    5.7367973    22246.391    1517.5646    1269.4402    2178.1499    131.38455    225.31179    1316.3772    23.380034    23.554872    44.380365    85.241469    84.630085    112.77544 
  258500    232.18811   -12720.193   -11524.921   -12720.193            0    1214.9341    23.631339    21.440752    43.826604   -9.3537101    3.5666919    5.8845826    22205.787   -725.07658    2554.7245    1815.1544    240.83922    481.39707    153.17956    23.631339    23.392258    44.363508     84.86913    85.388616    113.56965 
  259000    233.63523   -12699.037   -11496.315   -12699.037            0    1878.0397    23.564873    21.577784    43.621837   -9.2445715    3.9788752    5.9768592    22180.733    1327.2066    1691.1859    2615.7266    730.79686   -168.00486   -27.134563    23.564873    23.474729    44.208811    84.903836    84.836286    113.19175 
  259500    227.82953   -12715.919   -11543.084   -12715.919            0    1698.6243    23.386119    21.686865    43.655517   -9.1994141    3.5655859    5.5852122    22140.839    1660.6864    1289.7937    2145.3928     911.5428    1.7339444     928.0496    23.386119    23.557363    44.155545    85.129036     85.36829    112.98631 
  260000    222.75316   -12723.983   -11577.281   -12723.983            0    1606.6439    23.491799    21.535577    43.798287   -9.3438441    3.8990492    5.9635519    22157.968    675.18494    2380.6082    1764.1387      195.365   -137.11353   -427.80701    23.491799    23.475275    44.374052    84.933361    84.959047    113.45503 
  260500      233.676   -12742.673   -11539.742   -12742.673            0    2405.4239    23.461889    21.467951    43.927404   -9.1257215     3.924986    5.9319077    22125.297    2128.3046    2818.2749    2269.6923    24.362151    669.47217   -983.35267    23.461889     23.32706    44.499549    84.941482    84.939775    113.02966 
  261000    238.43601   -12738.522   -11511.087   -12738.522            0    1496.2296    23.381983    21.509754    44.139486   -9.3153782    3.9892335    5.6978306    22199.544    2247.9195    2151.0153    89.753865    336.01129   -407.37505   -421.98245    23.381983     23.44026    44.684152    85.323346    84.878028    113.41632 
  261500    239.31525    -12716.42   -11484.459    -12716.42            0    1326.5777    23.407288    21.644445    43.942209   -9.2061402    3.6939122    6.0284433    22262.783    1720.2435    1488.8189    770.67092    361.38987    269.01617   -938.19887    23.407288    23.520949    44.507357    84.712257     85.23923    113.04175 
  262000    235.00515   -12699.371   -11489.597   -12699.371            0    602.91487    23.528289    21.636515    43.837822   -9.1453884    4.1769773    5.7396011    22316.528    359.93364    1061.1241    387.68685   -266.00199    136.34328    256.44021    23.528289    23.489932    44.408837    85.271901    84.602933    112.91296 
  262500    232.85517   -12754.772   -11556.066   -12754.772            0    1687.6764    23.532847    21.522321     43.73053   -9.3455602    3.4247425    5.9149419    22148.703    1382.8059    1950.3032    1729.9203     46.58939     798.8028   -539.63627    23.532847    23.463797    44.261435    84.735101    85.562285    113.47176 
  263000    235.34982   -12676.911   -11465.363   -12676.911            0     2643.645    23.616595    21.611651    43.454517   -9.0743914    4.6037769    5.7394934    22178.907    2768.9845    2227.2965    2934.6539   -1563.4988   -819.73613    -2.980623    23.616595    23.439455    44.073025    85.432598    84.004064    112.77677 
  263500    234.80467   -12692.298   -11483.556   -12692.298            0    2246.9215    23.486327    21.582354    43.748561   -9.3190267    3.6098559    5.9458404    22175.718    2192.9279    2231.6052    2316.2314    1055.9704    249.05723   -222.30027    23.486327    23.508344    44.298089    84.783293    85.325778    113.35416 
  264000    237.13908   -12717.591   -11496.832   -12717.591            0    2243.1842     23.41261    21.553869    43.865454   -9.2941555    3.6630225    5.9064954    22135.926    2294.6173    2725.2376    1709.6977    918.39969    219.27427   -324.44904     23.41261    23.472337    44.412638    84.867243     85.26904    113.32599 
  264500    235.23135    -12737.37   -11526.432    -12737.37            0    2559.0086    23.365185    21.531538    43.893822   -8.9812756    4.1412832    5.7286897    22082.472    2552.3117    2737.7353    2386.9789    30.951904   -226.24732   -311.49838    23.365185    23.329605    44.459371     85.23541    84.655288    112.64208 
  265000    227.24094   -12712.332   -11542.528   -12712.332            0    2617.7154    23.444756    21.481168    43.852692   -9.4855449    3.6536789    6.0850185    22085.125    2493.2618    3143.0032    2216.8812    1211.5206   -639.07822   -1008.6136    23.444756    23.482252    44.423366    84.716614    85.282277    113.82505 
  265500    243.53581   -12750.172   -11496.484   -12750.172            0     2802.367    23.454036    21.528215      43.7361   -9.1195169    3.9370124    5.6343962    22083.386    1840.2316    3624.3244     2942.545    -465.3201    849.35704    468.60837    23.454036    23.380112    44.272936    85.267799     84.89818    112.95789 
  266000    227.47163   -12704.893   -11533.901   -12704.893            0    3215.8095    23.427976    21.521124     43.64916    -9.307319    3.5881625    6.0244696    22007.748    3162.3786    3688.1207    2796.9293    270.07506    761.44277   -195.57106    23.427976    23.447494    44.208803    84.671846    85.344525    113.38721 
  266500    237.25518   -12712.946    -11491.59   -12712.946            0     3295.343    23.430806    21.546767    43.575328   -9.2031529    3.9577038    5.7157594    21999.357     2917.821    3583.5686    3384.6394   -35.334761    1202.1101   -674.97867    23.430806    23.429921    44.126438    85.187764    84.854222    113.12852 
  267000    238.07432   -12696.823    -11471.25   -12696.823            0    2382.4999    23.443755    21.508254    43.831622   -9.1429432    3.8318059    5.8656593    22101.405    2222.1469    3307.4854    1617.8675   -190.23634    92.975791   -92.323046    23.443755    23.370888    44.388059    84.960538    85.047769    113.02986 
  267500    238.52151   -12722.509   -11494.634   -12722.509            0    2402.6731     23.44743    21.547859    43.760594   -9.4595992    3.7372102     5.835362    22109.686    3210.4602      1627.82    2369.7391    641.13562    66.821599    246.43922     23.44743    23.532833    44.305844    85.026764    85.161336    113.70167 
  268000    234.68556   -12732.109   -11523.981   -12732.109            0    2527.5674    23.368591    21.623806    43.741199   -8.9640106    3.9480564    5.7014561     22103.21    2786.8556    2138.2704     2657.576   -199.84561   -597.38004    757.37422    23.368591    23.408171    44.287541    85.136284    84.885522    112.51614 
  268500    237.69458   -12747.993   -11524.375   -12747.993            0    1558.3211    23.538465    21.578993    43.675601   -9.4512066    3.9376991    6.1665901    22184.426    1376.8787    728.31022    2569.7742    1396.3871   -753.70487     71.18264    23.538465    23.557976    44.284201    84.728265    84.898589    113.65254 
  269000     227.6812   -12744.767   -11572.696   -12744.767            0    1594.9778    23.526424    21.467982    43.867988   -9.1345585    3.7271013    5.3972251    22156.179    203.20477    2005.0671    2576.6615    15.428088    285.74721    1936.8787    23.526424    23.330547    44.355627    85.465043    85.179884     113.0496 
  269500    248.91124   -12703.782   -11422.423   -12703.782            0    1242.2141    23.447578    21.650126    43.884966   -9.2051993    4.0569849    6.0732697    22277.897    335.59875    1638.0044    1753.0392   -92.385608    -303.0211   -41.877034    23.447578    23.525809    44.488582    84.839415    84.767837    113.03422 
  270000    226.61809   -12677.917   -11511.319   -12677.917            0    2356.5531    23.352505    21.643836    43.858633   -9.2936939    3.5770513    5.9143821    22167.811    2748.5993    2153.7584    2167.3016     145.3847    827.41628   -181.61855    23.352505    23.554795    44.399942    84.801129    85.378996    113.23831 
  270500    233.53493   -12733.926   -11531.721   -12733.926            0    1373.7764    23.593853    21.490249    43.792854   -9.1983592     4.294579    5.5602732    22204.631     578.5396    1802.5491    1740.2405   -323.21044  -0.16513655    489.49979    23.593853    23.376069    44.352837    85.575242    84.443481    113.17212 
  271000    230.88559   -12731.665   -11543.098   -12731.665            0    1589.6465     23.51528    21.572696    43.674527   -9.3272968    3.8661592    6.1148532    22155.562    1728.1301    1390.3465    1650.4628    12.614242    96.660025   -305.08357     23.51528    23.502759    44.269662     84.71409    84.989861    113.38201 
  271500    230.18724   -12666.837   -11481.865   -12666.837            0    857.29456    23.452595    21.653316    43.895722   -9.0554792    3.7595776    5.3433495    22291.409    334.46158    1486.6408    750.78131   -850.05277    96.389742    718.65234    23.452595    23.470573    44.379277    85.503702     85.14038    112.69482 
  272000    238.96545   -12700.796   -11470.636   -12700.796            0    1266.7637    23.491376    21.665784    43.740396   -9.3691875    3.9351003    6.1181111    22262.072    1285.6277    827.34447     1687.319    183.39537   -36.592584    -158.5951    23.491376    23.604827     44.34116    84.754761    84.908531    113.38567 
  272500    228.08674   -12684.396   -11510.237   -12684.396            0    1957.0125    23.467565    21.558137    43.840735   -9.1032849    3.7292261     5.850005    22179.773    1360.8614    1251.0736    3259.1024   -610.77897    582.18538    695.19764    23.467565    23.401348    44.386256    84.909268    85.180465    112.89272 
  273000    233.66548   -12688.551   -11485.674   -12688.551            0    882.49587      23.6189    21.545091    43.836241   -9.6974642    4.2040625    5.4531806    22307.006    475.78634    230.16636    1941.5349    1053.4214    130.16617    1506.3072      23.6189    23.626928    44.373723    85.803479     84.56352    114.23255 
  273500    230.91063   -12710.966    -11522.27   -12710.966            0    1301.9822      23.4993    21.647144    43.739029    -9.101394    3.7539972    6.0151134    22249.726    1501.7771    317.57015    2086.5994   -389.48888    137.81142     751.8328      23.4993    23.482636    44.310008    84.703851    85.140007    112.80399 
  274000    230.52369   -12678.546   -11491.843   -12678.546            0    1293.7382    23.541259    21.609748    43.770454   -9.3411443    3.9280182    5.6463398    22266.936    1057.8424    1293.2433    1530.1289     -600.741    453.41428    404.08341    23.541259    23.542264    44.307597    85.308066    84.913858    113.37715 
  274500    231.63884   -12728.144     -11535.7   -12728.144            0    398.65392    23.507378    21.602077    43.894354   -9.3127372    3.7792178    6.0289607    22289.912    1032.8233    610.82941   -447.69095   -254.80894    301.49873   -716.60632    23.507378    23.523962    44.467349    84.786956    85.124631    113.32106 
  275000    233.43369   -12703.193    -11501.51   -12703.193            0    1178.8857    23.409444    21.623205    43.918297   -9.0587143    4.0234908    5.8017164    22230.879    2127.0537    1027.4363    382.16705   -788.44741   -912.07101   -39.810373    23.409444    23.444046    44.482189     85.10399    84.810405    112.73051 
  275500    226.63879    -12738.15   -11571.446    -12738.15            0    1215.7383    23.490242    21.464738     44.09327   -9.5076843    3.7406179     6.080239    22232.352    1294.0855    2131.1548    221.97464    156.74089    36.837507   -198.94689    23.490242    23.476181    44.667415    84.805105    85.196209    113.89068 
  276000    237.01448   -12720.849   -11500.732   -12720.849            0      1447.68    23.468605    21.537627    43.905119   -9.0246306    3.9775451    5.7903818    22192.197    1846.8225    1303.8184    1192.3992   -855.18159   -729.14723   -108.98096    23.468605    23.351945    44.463568    85.093027    84.867672    112.73451 
  276500    221.49125   -12706.985    -11566.78   -12706.985            0    1726.4406    23.399279     21.59219    43.910441   -9.3591317    3.8446986    5.7642882    22185.385     1729.371    1861.2208    1588.7301     94.82315    424.11101    80.772354    23.399279    23.533296    44.453747    85.148249    85.038426    113.43431 
  277000    238.14458    -12705.29   -11479.355    -12705.29            0    545.61028    23.481979     21.71774    43.732775    -9.069606    3.6852561    5.9806072    22302.645    917.74157   -322.37909    1041.4684     131.8961     481.1379   -149.53688    23.481979    23.535463     44.29339     84.69071    85.227415    112.66604 
  277500    229.50853   -12733.587   -11552.109   -12733.587            0    1341.9028    23.568883    21.584125    43.631397   -9.2967844    3.9336023     5.894209     22195.89    859.51682    632.60649    2533.5851    19.004413    65.479443    420.93889    23.568883    23.501163    44.203096    84.993799    84.894536    113.30267 
  278000    229.75924   -12704.203   -11521.434   -12704.203            0     1916.666    23.520218     21.55558    43.699355   -9.2931975    3.5597924    5.5688396    22155.221    1756.4533    1634.1213    2359.4233   -140.27441    980.16036    1242.5455    23.520218    23.473529    44.196354    85.191875    85.380111    113.32219 
  278500    237.00339   -12686.102   -11466.042   -12686.102            0    2626.4796    23.397453     21.70663    43.587241     -9.11309    4.1899006    6.0711215    22137.081     2878.966    1922.7046    3077.7682   -395.75489   -436.37763    71.872528    23.397453    23.542009    44.207028     84.83995    84.561397    112.77412 
  279000    235.91486   -12699.604   -11485.147   -12699.604            0    1594.4218    23.453604    21.544153    43.948189   -9.3060962     3.526766    5.7513305    22206.495    1682.0229    1522.0661    1579.1764   -348.04278    340.35592    272.95465    23.453604    23.468148     44.46301    84.992107    85.450571    113.36215 
  279500    231.77178    -12724.09   -11530.962    -12724.09            0    2230.2477    23.461416    21.490964    43.916691   -9.1964994    4.1715292    5.7314501    22143.167    3120.4635    2036.6614    1533.6182   -788.87595   -162.25168   -285.22903    23.461416    23.375995    44.485132    85.321872    84.619265    113.16724 
  280000    241.12316   -12667.374   -11426.106   -12667.374            0    2786.8888    23.385079    21.521472    44.001946   -9.1857194    3.8591457     6.095599    22145.358    3155.6699    3273.3046    1931.6918    -55.58848   -171.89204   -533.53045    23.385079    23.399812    44.589467    84.735342    85.034932    113.11359 
  280500    239.58742   -12684.662     -11451.3   -12684.662            0    2525.8506    23.335617    21.546741    44.099764   -9.2762297    3.6702941    5.5890109    22173.647    2702.7058    2529.5822    2345.2639    473.76419   -566.03948    587.32085    23.335617    23.458697    44.603781    85.264704    85.279987    113.29268 
  281000    231.27441   -12718.357   -11527.788   -12718.357            0    3001.7767    23.399611    21.560208    43.749902   -9.1315251    4.0071386    6.0146123    22071.846    3166.4608     3796.299    2042.5703   -604.78121   -320.21651   -326.62897    23.399611    23.414255    44.342831    84.856223    84.815266    112.95441 
  281500    230.42625   -12711.767   -11525.565   -12711.767            0    2594.0424     23.47668    21.517028    43.744524   -9.2076274    3.8431784    5.8219537    22097.475     3147.172     2731.526    1903.4291   -61.020588    30.779227   -419.31064     23.47668    23.404335    44.297275    85.026294     85.02283    113.16719 
  282000    235.80922     -12711.7   -11497.787     -12711.7            0    2096.9076    23.439388    21.596964    43.706034   -9.4352757       3.5809    5.6811009    22124.852    2241.8806    2431.3451     1617.497    261.06271   -55.878122     471.7917    23.439388    23.568057    44.218946    85.106063    85.355037    113.59954 
  282500    236.50911   -12724.848   -11507.332   -12724.848            0    1904.1171    23.461895    21.648598    43.692093   -9.0346704    4.0651658    5.9817197    22191.963    2275.1092    697.63983    2739.6023   -923.74326    239.16609     279.8744    23.461895    23.458198    44.286629    84.876882    84.733282    112.65238 
  283000    234.60912    -12721.14   -11513.405    -12721.14            0    1380.6183    23.539214    21.580179    43.723712   -9.3402645    3.8034355     5.689504    22210.791    1328.9554    1395.0963    1417.8032   -188.15625   -221.55947   -2.2289489    23.539214    23.514775    44.256068    85.190371     85.06983    113.40377 
  283500    236.67081   -12752.347   -11533.999   -12752.347            0    1137.9138    23.595059    21.515857    43.759017   -9.3111396    3.5764893    5.8242468    22215.049    1236.3888    831.23919    1346.1135   -313.64382    356.74739    368.94619    23.595059    23.444177    44.289555    84.916029    85.368183    113.40089 
  284000    237.51808   -12700.288   -11477.578   -12700.288            0    1178.4792    23.564409    21.646578     43.53455   -9.1590096    4.0973659    5.8936697    22206.488    1376.0675    853.92405    1305.4461   -55.240111   -573.94515    155.30853    23.564409    23.504506    44.122339    85.018688    84.671622    112.93399 
  284500    236.08131   -12709.703    -11494.39   -12709.703            0    1326.4793    23.443222    21.643246    43.740948   -9.4021181    3.5189473    5.5193663    22193.606     1331.253     1458.708     1189.477    76.191455    357.19534   -454.31681    23.443222    23.597244     44.22801     85.25287    85.436508    113.48078 
  285000    230.34553   -12721.395   -11535.609   -12721.395            0    1618.4608    23.471694    21.606022    43.739285    -9.156784    4.0765576    5.9748251      22181.5    1758.1887    1779.4974    1317.6963    -3.243966    205.74897   -605.74214    23.471694    23.466292    44.333304    84.939594    84.724058    112.96757 
  285500    233.09156   -12725.876   -11525.953   -12725.876            0    1559.0127     23.44632    21.508673    43.898174   -9.2523976    3.6768455    5.8949846    22137.815    1546.2394    1316.6174    1814.1813    709.39742   -104.33814    329.81792     23.44632    23.414309    44.444569    84.885252    85.254566    113.27595 
  286000     235.0282   -12748.598   -11538.706   -12748.598            0    1052.9243    23.361505     21.53793    44.112119   -9.1083617    4.0664684     5.819668    22195.385    1345.2935    902.04043    911.43888   -276.17992    199.27415    655.80757    23.361505     23.38471    44.679791    85.151785    84.778079    112.92344 
  286500    235.49817    -12685.07   -11472.759    -12685.07            0    1530.3111    23.306181    21.616589    44.064369   -9.2524352     3.811624    6.0619773    22199.635    2224.7472    1470.3663    895.81984    382.73542   -592.62315    5.3927806    23.306181    23.513495    44.642409    84.765167    85.102052    113.17212 
  287000    234.93905   -12710.324   -11500.891   -12710.324            0    1638.0488    23.409573    21.519962    44.091913    -9.166165    3.9033042    5.5138531    22212.321    2129.1742    1542.2721    1242.7001   -175.25265    -730.6265    892.87484    23.409573    23.390754    44.606447    85.443975     84.97989    113.07099 
  287500    240.61404    -12660.59   -11421.943    -12660.59            0    1014.1273     23.57478    21.576469    43.912556   -9.2860053    3.9594896    6.2346998    22336.583    181.42956    1329.5511    1531.4014   -44.485301   -238.43046   -100.45434     23.57478    23.489868    44.529335     84.63748    84.898597    113.28591 
  288000    228.63476   -12743.893   -11566.913   -12743.893            0    1729.4443     23.45301       21.646     43.69049   -9.2341897    3.7974522      5.69485    22180.082    1987.6226    1698.3286    1502.3816    774.02544   -481.95839    160.71447     23.45301    23.533372     44.22342    85.138197    85.073962    113.10311 
  288500    237.29011   -12684.646    -11463.11   -12684.646            0     2243.057     23.50912    21.624833    43.549389   -9.2619351    3.9557864    5.3610075    22139.673    1629.0816    2094.1484    3005.9411    66.256708   -269.44016    419.89717     23.50912    23.524814    44.056077    85.612186    84.848485    113.18549 
  289000    241.19314   -12691.388    -11449.76   -12691.388            0    1951.5469     23.58627    21.571358    43.639893   -9.2783335    3.6976759    6.3080649    22203.448    1956.3929    1314.6437    2583.6041    1029.8073    368.03394   -467.55126     23.58627    23.482141    44.248218    84.379364    85.206393    113.27364 
  289500    237.24237   -12739.181   -11517.891   -12739.181            0    1930.0309    23.443828     21.55562    43.860117   -9.1884405    4.0907487    5.6099166    22164.545    1803.5467     2046.487     1940.059    283.23429   -288.37759    308.43693    23.443828     23.43229    44.406252    85.406219    84.714361    113.08693 
  290000    238.69267   -12693.203   -11464.446   -12693.203            0    1261.8395    23.324746    21.648012    44.047977   -9.2418384    3.5817857    6.0974084    22241.338    1773.7957    1320.2981    691.42485    318.49693    533.86108   -612.59518    23.324746    23.538224    44.612015    84.596026    85.394911    113.11831 
  290500    237.86389     -12736.4    -11511.91     -12736.4            0    1815.8444     23.37196    21.536788     44.04726     -9.19676    4.0514476    5.8719433    22171.494    2730.3203    1094.7996    1622.4132    14.018446   -252.92984   -158.92402     23.37196    23.418232     44.62124    85.102964    84.790575    113.12372 
  291000    236.07481    -12700.77   -11485.491    -12700.77            0    2387.4505    23.417773    21.404207    44.149285   -9.1589319    3.6296571    5.6241135    22129.338    2954.2128    2839.4837    1368.6551   -917.48188    153.60751    202.75462    23.417773    23.281455    44.653829    85.192041    85.337606    113.16624 
  291500     233.1073   -12672.902   -11472.898   -12672.902            0     2272.263     23.42609    21.620875    43.802998   -9.2805536    3.8987835    6.1585807    22185.893    2183.1702    2651.9389    1981.6799   -347.00223    575.80094    -410.4927     23.42609    23.528513    44.405307    84.674495    84.962948    113.23097 
  292000    229.48495   -12708.452   -11527.096   -12708.452            0     2020.898    23.415256    21.680591    43.614685   -9.1505352    3.7086301     5.693828    22141.283      1398.17    1964.9517    2699.5724    91.495205    850.87278   -27.198586    23.415256    23.532538    44.140847    85.056645    85.180436    112.88272 
  292500    240.14443   -12739.961   -11503.732   -12739.961            0    1742.4294    23.630995    21.497942    43.621783   -9.3412324    3.8815028    5.7527241    22160.641    608.39458    2357.6863    2261.2072    -387.0593    756.35671    340.67664    23.630995    23.439713     44.17035    85.156756    84.958587    113.48579 
  293000    231.00056   -12738.389    -11549.23   -12738.389            0    2397.0449    23.608266    21.484659    43.499694   -9.1369096    3.8591583    6.0365295    22063.721    2026.9562    2303.5442    2860.6344   -939.89615   -121.44434   -346.11681    23.608266    23.346813    44.085782    84.735867    84.978044    113.03888 
  293500    241.44097   -12759.688   -11516.784   -12759.688            0    1898.6856    23.385944    21.665885    43.694573   -9.2970462    3.8951204    5.6633202    22139.042    3357.0938      361.848    1977.1151   -102.00068   -888.24635    249.57832    23.385944    23.576378    44.231899    85.242667    84.947913    113.22465 
  294000    242.81717   -12736.525   -11486.536   -12736.525            0    2336.7653    23.375595    21.600716    43.749298   -9.1556469    3.8403401    5.8679645    22090.315    2817.9435    2078.2152    2114.1372   -908.09647     31.52119   -515.94951    23.375595    23.460963    44.307813    84.945073    85.027701    112.97007 
  294500     239.8048   -12679.842    -11445.36   -12679.842            0    2581.3775    23.529004    21.318604    44.089249   -9.2826929    3.9721585    5.8626278     22115.41    1944.0292    3426.3613    2373.7421   -255.99481   -117.11945   -162.56827    23.529004    23.251909    44.654343    85.131988    84.896596     113.5296 
  295000    235.13962   -12664.302   -11453.836   -12664.302            0    2360.4128    23.434586    21.494619    44.057339   -9.1914096    3.8682955    5.8122031    22192.453     2941.852    2987.5654    1151.8209    -493.9711    624.12633    -251.9228    23.434586    23.377354    44.607113     85.08326    85.025104    113.15225 
  295500    234.75623   -12711.533   -11503.041   -12711.533            0    2297.3977    23.323242     21.66746    43.824141    -9.142997    3.9498725    5.9808992    22146.767    2479.5498    1617.8231    2794.8202     305.2946   -102.31021     16.48857    23.323242    23.517509    44.406395    84.864612    84.896895    112.87824 
  296000    240.41724   -12701.581   -11463.947   -12701.581            0    1782.1925    23.405814    21.618518    43.797435   -9.2876172    3.7550942     5.650106    22161.459    1960.4711    1606.6046    1779.5017    444.32954   -1012.6054    214.12562    23.405814    23.529134    44.319745    85.199374    85.139654    113.24904 
  296500    233.28617   -12747.683   -11546.759   -12747.683            0    1939.5096    23.585703     21.49805     43.61528   -9.2078182    3.8921848    5.8558465     22114.98    1077.0995    2165.0943    2576.3351   -496.39779    391.12275   -240.65289    23.585703    23.386963    44.178419    84.999916    84.945603    113.18591 
  297000    238.23177   -12733.309   -11506.926   -12733.309            0     2704.756    23.581326    21.512254    43.461482    -9.346894     3.963236    5.8361207    22047.465    2252.1599    3220.2438    2641.8643   -401.84426    447.86055     52.59809    23.581326    23.455095    44.030307     85.08379    84.835729    113.48454 
  297500    237.42667   -12693.491   -11471.252   -12693.491            0    2156.4992    23.389101     21.70004    43.634034    -9.118013    3.6678183    5.5620307    22146.211      1928.55    1979.1029    2561.8447   -586.78052    352.88281    147.81728    23.389101     23.53784    44.139755    85.182534    85.233478    112.79137 
  298000    231.52853   -12761.085   -11569.208   -12761.085            0    1376.4108    23.470695    21.707472    43.565731   -9.2956498    4.0643621    6.1218348     22196.28    1203.6789    987.55861    1937.9949     -10.6628   -699.85905    138.26007    23.470695    23.614051    44.181092    84.769549    84.721712    113.18175 
  298500    232.92804   -12699.769   -11500.688   -12699.769            0    1002.3399    23.583533    21.460199     43.97842   -9.1372521    3.6754329    5.3682047      22257.8    965.30085    1419.9512    621.76772   -191.34526    342.58786    878.75332    23.583533     23.32444    44.457033    85.485458    85.257726    113.06317 
  299000    237.20027   -12740.145   -11519.071   -12740.145            0     1818.165    23.469654    21.526954    43.882165    -9.289314    4.0081412    5.9266878    22170.593    1533.9438    2243.1337    1677.4174     24.17367   -128.59052   -67.160626    23.469654    23.445705    44.461615    85.027777    84.827858    113.34117 
  299500    232.31959   -12753.199    -11557.25   -12753.199            0    2012.9444    23.287834    21.649952    43.903446   -9.2088435    3.6363091     6.159703    22135.261    2521.7407    2183.4897    1333.6029   -111.30144   -180.41375   -770.80419    23.287834    23.527074    44.482326    84.523938    85.310993    113.04256 
  300000    237.38661   -12641.271   -11419.239   -12641.271            0    1949.6889    23.394752     21.56104    44.046443   -9.1402224    4.0487376    5.5312604    22217.695    2085.5842    3204.2572    559.22527    103.88622   -553.10306   -253.18245    23.394752    23.418414    44.576634    85.480796    84.788846    112.97321 
  300500    240.49752   -12740.758   -11502.711   -12740.758            0    1582.4684    23.529136    21.519839    43.807407   -9.3005321     3.710169     6.289408    22181.584    2293.2907    1558.5306    895.58398    -7.375319    -108.6632   -1414.0633    23.529136    23.443621    44.411833    84.442038     85.20792    113.37323 
  301000    235.45873   -12696.473   -11484.364   -12696.473            0    1644.0184    23.528604    21.620803    43.651875   -9.2845282    4.0007693    5.4934743    22206.029    1451.6026    1358.2399    2122.2128    46.882328   -688.79386    449.65563    23.528604    23.530015    44.177716    85.496149     84.80413    113.23993 
  301500    230.52553   -12715.911   -11529.198   -12715.911            0     1762.037    23.476949    21.629896      43.6425   -9.2077902    3.7416595    5.8447146    22161.835    2048.3141    1040.5163    2197.2806    -337.3553    4.2175158    274.87748    23.476949    23.508207     44.19082    84.921009    85.142921    113.05933 
  302000     234.7751   -12723.549    -11514.96   -12723.549            0     2100.758    23.448376    21.602753    43.792937   -9.3301673    3.7249403    6.3984002    22183.289    2114.0055    2319.5127    1868.7558    436.93119    26.236911   -1245.8916    23.448376    23.531488    44.414367    84.318397    85.189071    113.35938 
  302500    229.31896   -12738.503   -11558.001   -12738.503            0    1438.9969    23.490057    21.512083     43.86151   -9.2132433    3.9406726    5.3049767      22164.1    1277.1611    1501.7396    1538.0901   -170.26929   -47.883519    127.63609    23.490057    23.401999    44.356553    85.700863    84.903076    113.18459 
  303000    228.40721   -12685.266   -11509.458   -12685.266            0    1318.2546    23.527239    21.616256    43.643785   -9.3295572    3.7649378    6.2423995    22195.956    1189.8567    1042.6008    1722.3063    492.87561    452.56548     -113.699    23.527239    23.543644    44.248415    84.502046    85.119007    113.34499 
  303500    239.18377   -12695.168   -11463.883   -12695.168            0    1496.5757    23.406908    21.611999    43.887865   -9.0874002    3.8781507     5.367061    22201.557    1514.9398     1727.742    1247.0452   -26.692661   -4.3123469    295.49328    23.406908    23.444815     44.38457    85.549319    84.987326    112.80575 
  304000     238.0868   -12740.529   -11514.892   -12740.529            0    2704.4522    23.428499    21.529444    43.812532   -9.2510873    3.8827874    5.8949338    22099.153    2548.7581    3298.2183    2266.3802    120.25289    40.342381   -420.16543    23.428499    23.432874     44.37752    84.979977    84.980518    113.25294 
  304500    234.51405   -12744.212   -11536.967   -12744.212            0    2000.4374    23.461606    21.538571     43.84944   -9.1519975    3.9395403    6.3473252    22158.414    2030.2291    2090.5468    1880.5362    49.555982   -303.37798   -632.63685    23.461606    23.402331    44.481253     84.45103    84.918867    113.02122 
  305000    241.52807   -12685.047   -11441.695   -12685.047            0    2159.8694    23.338767    21.566137    44.036573   -9.2619494    3.8173452    5.3752418    22164.797    2657.8043     1842.448    1979.3558    649.25331    450.80919    432.78692    23.338767    23.470875    44.527352    85.578643    85.081976    113.24194 
  305500    239.95632   -12720.933   -11485.672   -12720.933            0    1931.7972    23.480144    21.583472    43.749626   -9.2298205    3.9323998    6.0043255    22171.568    2542.1291      1585.36    1667.9026     428.9187   -494.89495    74.367306    23.480144    23.474153    44.334472    84.856593    84.911265    113.15319 
  306000    233.13699   -12726.328   -11526.171   -12726.328            0    2353.9814    23.528565    21.465187    43.772233    -9.199019    3.6238446    5.7868996     22106.95    1272.1299    3503.9744    2285.8397    275.80545      221.779   -638.13079    23.528565    23.353291    44.301567    84.960482    85.307993    113.19781 
  306500    231.77708   -12732.986    -11539.83   -12732.986            0    2229.7828    23.411494    21.582755    43.805895   -9.2322685    4.1258897    5.5190489    22134.442    2775.2935    1649.4208     2264.634    217.31554   -609.45431    161.63787    23.411494    23.474457    44.344552    85.535784    84.661386    113.15937 
  307000    238.39994   -12724.194   -11496.945   -12724.194            0    1976.9408    23.419513    21.597687     43.80259   -9.1801522     3.525105    6.2981665     22155.67    2638.1701    1307.5091    1985.1432    -285.8301    431.65795   -805.48259    23.419513     23.46775    44.393244    84.289357    85.445557    113.02804 
  307500    233.45118   -12734.092   -11532.318   -12734.092            0    1452.0017    23.468108    21.520553    43.854394   -9.2805096    4.1933419    5.3722577    22148.516    1332.8012    1575.1397    1448.0642    112.85838    111.99845    319.15895    23.468108    23.436341    44.380774    85.771229    84.578289    113.32761 
  308000    230.76857   -12707.358   -11519.394   -12707.358            0    2339.8088    23.477149    21.546288    43.819425   -9.1527648    3.8662425    5.8610384    22165.855    2203.0755    2394.6431    2421.7079   -264.25305   -348.72343    112.37615    23.477149    23.409733    44.378391    84.980518     85.00206    113.01556 
  308500    241.14167   -12720.849   -11479.486   -12720.849            0    1731.4311    23.461497    21.612801    43.855887   -9.3466864    3.6131476    6.1703992    22237.946    2058.2739    1278.9595    1857.0598    444.43248     180.0402   -179.31807    23.461497    23.547266    44.434981    84.538337    85.335951    113.38658 
  309000    235.30536   -12721.712   -11510.393   -12721.712            0    2360.4518    23.450931    21.552306     43.80623   -9.1716614     4.173719    5.4889686    22140.616    2971.6476    1837.1819    2272.5258   -334.69172   -660.45272    22.828966    23.450931    23.422665    44.345625    85.581605    84.599446    113.05235 
  309500    231.41265   -12694.787   -11503.508   -12694.787            0    2207.6481    23.459851    21.563828    43.843904   -9.2154411    3.2708962    6.3144951    22179.937    2562.9116    1836.8754    2223.1571   -91.924718    640.92136   -241.82936    23.459851    23.450437    44.416884    84.157858    85.776868    113.13975 
  310000    239.10135   -12706.298   -11475.438   -12706.298            0    1737.0307    23.408155    21.572105    43.876834   -9.2473465    4.3516609    5.4901891    22156.185    2565.0537    1939.9387    706.09963    592.49351   -1271.5149   -413.96266    23.408155    23.470601    44.432597    85.699927    84.379529    113.20343 
  310500    245.27006   -12689.184   -11426.568   -12689.184            0    2625.4419    23.435083    21.578202    43.722949   -9.2254588    3.4773206     5.765303    22110.125    2449.8727    2553.7744    2872.6785    239.60988    671.57726    211.16451    23.435083    23.467592    44.238295    84.897898    85.491654    113.14845 
  311000    237.38715    -12726.96   -11504.924    -12726.96            0    2545.7678    23.647603    21.438447    43.557757   -9.4591095    4.4524546    5.8575135    22082.384    1178.9025    3439.2229     3019.178    560.77036   -256.35737   -400.06002    23.647603    23.432494    44.174801    85.375357    84.215236    113.80812 
  311500    236.25452   -12733.711   -11517.506   -12733.711            0    2428.5492     23.46074    21.534543     43.70779   -9.1188898    3.5830133    5.8494875    22081.889    2704.5804    2946.4008    1634.6665   -85.745234    529.17856   -424.64306     23.46074    23.385695      44.2428    84.826687    85.354801    112.95043 
  312000    232.13714   -12718.764   -11523.755   -12718.764            0    2265.5298    23.439182    21.616524    43.719348   -9.3866186    3.9100571    5.9393166    22151.441    2562.9962    1703.8369    2529.7563    566.37782   -612.22852     242.1253    23.439182    23.566559    44.293853    84.961027    84.935601     113.4721 
  312500    244.76425   -12740.137   -11480.126   -12740.137            0    2014.9178    23.319807      21.6155    43.948355   -8.9378981    3.5985395    5.6006325    22153.016    2562.4639    1919.5307    1562.7589    92.741465   -25.597243    425.05202    23.319807    23.390508    44.449685    85.095074     85.35639    112.46484 
  313000    232.96196   -12712.368   -11513.113   -12712.368            0    2264.2335    23.474259    21.493565    43.879562   -9.4069145    4.1611787     6.079106    22139.236    2332.9245    3205.2185    1254.5576    734.60943    -1027.509   -103.75082    23.474259    23.461956    44.493673    84.970513    84.633689    113.63716 
  313500    237.48147   -12738.017   -11515.496   -12738.017            0    1867.8406    23.459087    21.466101    44.053716   -9.1131402    3.5328855    5.9730264    22184.356    2036.8139    1819.4243    1747.2836    30.156136   -238.23746   -60.491587    23.459087    23.320438    44.596953    84.702512    85.456377    113.00299 
  314000    235.16068   -12691.126   -11480.552   -12691.126            0    1431.3665    23.465989    21.645801    43.790333   -9.3063455    4.1902752    5.6504383    22242.867    733.76152     1970.382    1589.9559   -267.53912    705.19037   -336.60432    23.465989    23.561595    44.351766    85.427262    84.578712    113.26469 
  314500    241.13605   -12699.365   -11458.031   -12699.365            0    1294.0522    23.511959    21.626432    43.716604   -9.2597328    3.5785024    6.1212133     22229.01    1474.7009    901.67838    1505.7774    356.37152   -186.35993   -669.54507    23.511959    23.525417    44.287881    84.534074    85.365395    113.17903 
  315000    232.66605   -12714.891   -11517.159   -12714.891            0    845.88482     23.58266    21.527989     43.84183   -9.2712032    4.2663063    5.1842848    22257.937    521.17122    1030.2654     986.2178   -34.271125   -81.094053    1280.9415     23.58266    23.439486     44.35295    86.025752     84.48019    113.29952 
  315500    235.87219   -12739.803   -11525.566   -12739.803            0     2469.641    23.419246    21.569549    43.825567   -9.2137825    3.7103197    5.9434917     22138.16     1486.299     2830.674    3091.9499     522.1057    475.90489    356.03792    23.419246    23.455047    44.382112    84.818501    85.204508    113.13054 
  316000     236.9003   -12692.949    -11473.42   -12692.949            0    2970.0012    23.403263    21.555067    43.843815   -9.2005778    3.8537668    6.0580853    22117.403    3479.8144    2678.4907    2751.6987     360.3462    -517.0276   -278.24748    23.403263    23.436543     44.42783     84.75824    85.023786    113.11476 
  316500    236.37693   -12703.511   -11486.676   -12703.511            0    2308.2617    23.429314    21.476534    43.991663   -9.2804787    3.8815064    5.1234371    22135.745    2737.6742    2302.6253    1884.4856    135.82566    21.989096    977.56558    23.429314    23.395914    44.458769    85.919709    84.991372    113.37023 
  317000    225.30354   -12701.067   -11541.236   -12701.067            0    2110.9672    23.440445     21.58917    43.763872   -9.1621319    3.9814093    6.3494806    22147.135    2233.0431    1168.4855    2931.3729    255.37343   -516.42506    -200.1902    23.440445    23.452866    44.400946    84.456064    84.855408    112.99567 
  317500    230.13409   -12747.761   -11563.063   -12747.761            0    2540.3516    23.380013    21.566361    43.805934    -9.208896    3.9896325    5.9300479    22087.907    2245.6625    3108.3583    2267.0341    255.92037   -231.52637   -605.54881    23.380013    23.450196    44.385161    84.976007    84.842915    113.12262 
  318000    238.94954   -12710.947   -11480.868   -12710.947            0    2288.6595    23.432442    21.468133    44.054059   -9.2110726    3.7557809    5.4362252    22161.429    2596.2652    2556.9537    1712.7595    114.33583   -308.56586    424.50172    23.432442    23.360749    44.546813     85.47445    85.163601    113.22214 
  318500    240.39436   -12719.682   -11482.166   -12719.682            0    2382.1793    23.520424     21.55251    43.652629   -9.2509462    4.0995513    6.3228538    22128.573    2526.2789     1923.576    2696.6828   -133.83931   -431.86982   -654.86828    23.520424    23.454012    44.298271    84.568275    84.690006    113.23038 
  319000    238.65605   -12734.963   -11506.395   -12734.963            0    1678.7657    23.433496    21.632616    43.779333   -9.2256902    3.6762021    5.6778458    22192.962    2008.5042    1918.9854    1108.8073   -248.59555    215.38641   -233.76542    23.433496    23.517726    44.298786    85.104237    85.239748    113.09686 
  319500    242.66267   -12733.361   -11484.168   -12733.361            0    2310.1964    23.416185    21.673889    43.592324   -9.2831773    3.8976157    5.5055965    22123.968    1906.2069    2281.8521    2742.5301   -327.70257     42.91711    489.92102    23.416185    23.578271    44.111152    85.414736    84.930794    113.18601 
  320000    235.98575   -12683.567   -11468.746   -12683.567            0    1871.4606    23.582108    21.545158    43.751101   -9.2515027    3.7758933    6.2532986     22229.07    1926.5309     1644.867    2042.9837    20.577202   -825.68778   -122.11668    23.582108    23.447476    44.356735    84.493862    85.116753    113.23871 
  320500    230.89001   -12712.254   -11523.665   -12712.254            0    1498.1856    23.524833    21.512156    43.845092   -9.2569453    3.8792392    5.6248517     22188.68     1281.861    2124.4901    1088.2057    -102.5141    1.5037395    329.74771    23.524833    23.419306    44.374312    85.303264    84.984753     113.2828 
  321000    234.35586   -12738.223   -11531.792   -12738.223            0    619.92358    23.335624    21.728384    43.871776   -9.1618855    3.9014549    5.7118017    22244.983    1255.0153    279.77627    324.97923    196.81349   -663.77341    33.580802    23.335624    23.580985    44.413723    85.160135    84.960445    112.86297 
  321500    231.48129   -12733.962   -11542.329   -12733.962            0     2026.557    23.455973     21.56675    43.806243   -9.2454608     3.809967    6.0526996    22160.225    2087.8121    1666.4558     2325.403    44.060991   -21.274734   -207.35882    23.455973    23.464936    44.386236    84.749372    85.075861    113.20435 
  322000    241.13764   -12766.331   -11524.989   -12766.331            0    2295.1662    23.480886     21.47476    43.854294   -9.2218997    3.8979358    5.3502872     22113.37    2644.4852    2156.4718    2084.5415    52.192823    268.17935    714.79686    23.480886     23.37111    44.351083    85.631718    84.957873    113.24012 
  322500    239.34756   -12723.478   -11491.351   -12723.478            0    2332.5688    23.437909    21.603406    43.695711   -9.2784866     3.590743    6.3179536    22124.828    1891.5347    2072.3321    3033.8397    394.30472    512.14473    265.90532    23.437909    23.511645    44.295882    84.314695    85.350349    113.24313 
  323000    240.32669   -12728.309   -11491.141   -12728.309            0    1574.7468    23.461476    21.666447    43.665822   -9.2212196    4.0761489    5.7626156     22196.51    1121.0526    714.24584    2888.9418   -313.09775    80.846663    770.40884    23.461476    23.547098    44.232644    85.193726    84.712549    113.05456 
  323500    236.16914   -12709.968   -11494.203   -12709.968            0    783.02316    23.550677    21.563448    43.785702   -9.2129709     3.388276    5.5466695    22235.859     402.8673    1154.6908    791.51141   -44.328815   -19.859561    89.507185    23.550677    23.449118    44.265491    85.115091    85.610034    113.13457 
  324000     234.0197   -12739.589   -11534.889   -12739.589            0    1757.0625    23.607875    21.537472    43.675004   -9.3067567    4.2500327    6.1187176    22206.729    1407.8216    1349.0887    2514.2771   -91.878461   -916.55139   -333.18742    23.607875    23.462277     44.30584    84.909924    84.495445     113.3701 
  324500      233.571   -12740.389   -11537.999   -12740.389            0    2413.9017    23.363624    21.623769    43.796888   -9.0731636    3.5950963    5.6698231    22126.609    2791.1933     1254.968    3195.5439   -597.04347    345.43509    111.41611    23.363624    23.450154    44.308453    85.031786    85.346023    112.76254 
  325000    232.38873   -12687.548   -11491.244   -12687.548            0    2243.6704    23.397221    21.591265    43.965349   -9.3598735      3.97742    5.9308206    22210.221    3231.8967    2040.1933    1458.9213    146.83643    226.95892   -455.58796    23.397221    23.532742    44.541514    85.029052    84.876839    113.43687 
  325500    230.95687   -12742.704   -11553.771   -12742.704            0    1221.5944    23.458791    21.497343    43.998859   -9.1189931    3.8225298    5.9320452    22188.698     1168.584    1659.6381    836.56118   -506.62561    357.60389   -436.67737    23.458791    23.351484    44.561199    84.890888     85.07903    112.98625 
  326000    229.92703   -12713.078   -11529.446   -12713.078            0    1663.3588    23.420571    21.483478    44.095643   -9.2587212     3.909381    5.7227753    22186.958    2071.3952     1457.326    1461.3551   -10.418563   -477.03478    344.37295    23.420571    23.393669    44.636971    85.234636    84.975502    113.31456 
  326500    236.42183   -12716.809   -11499.743   -12716.809            0    2583.1097    23.409147    21.586034    43.755081   -9.1491949    3.7674208    6.0248466    22109.909    3161.8575    2823.3894    1764.0823   -496.85628   -217.05511   -229.24874    23.409147    23.444928    44.328313    84.722959    85.124605    112.96956 
  327000    239.18325   -12691.624   -11460.342   -12691.624            0    2567.7528    23.431514    21.581245    43.686599   -9.2012274    3.7555378    5.6829237    22091.494    3022.7242    2402.1214    2278.4129    -451.6197   -136.20592    -323.8464    23.431514    23.460877    44.214461     85.12854    85.127476    113.09112 
  327500    233.18018   -12750.099    -11549.72   -12750.099            0    2591.3546     23.58757    21.538016    43.446507    -9.429193    4.0568153    5.8411435    22072.105    2331.5845    2433.3314    3009.1479    954.47174    7.1597884    26.536602     23.58757     23.51161    44.024717    85.147789    84.712774    113.64347 
  328000    233.85077   -12687.522   -11483.691   -12687.522            0      2625.75    23.479244       21.587    43.596731   -9.1177339    3.7046957     5.976926    22096.848    2543.5422    2023.4409     3310.267   -433.19628    28.827282    -290.7551    23.479244    23.433558    44.160201    84.719041    85.187676    112.89781 
  328500    234.61235   -12751.484   -11543.732   -12751.484            0    2770.4169     23.32326    21.753507    43.487208   -9.3341007    3.9302726    5.5886096    22063.786    2930.8398    2088.4902    3291.9206     857.7413   -288.82841    1225.5266     23.32326    23.671512    44.020641    85.327392    84.877669    113.22344 
  329000     240.8309    -12728.42   -11488.656    -12728.42            0    2118.1898    23.518842    21.501011     43.80133   -9.1571098     3.743597    5.8637349    22149.407    2217.1892    2231.6883     1905.692   -907.05135    252.31014    276.73097    23.518842    23.369769     44.35036    84.918841    85.157923    113.06877 
  329500     229.0545   -12724.079   -11544.938   -12724.079            0    2241.0059    23.482363     21.47504    43.943139   -9.2677432    4.0341324    6.0624169    22159.852    1541.3496    2886.7894    2294.8786    363.34391    -9.722668   -205.89621    23.482363    23.389493    44.542413    84.889449    84.803696    113.34304 
  330000    241.37479   -12661.801   -11419.238   -12661.801            0    1586.3976    23.341865     21.62073    44.115359   -9.1999987    3.7061954    5.4705881    22263.617    3129.5819    260.06904    1369.5418   -753.28203   -211.60914    267.72149    23.341865    23.496722     44.60749    85.393297    85.234109     113.0506 
  330500    243.32813   -12773.886   -11521.267   -12773.886            0    1516.1178    23.387884    21.663705    43.784465   -9.1771401    4.0205939    6.1235182    22184.197     1944.267    1103.6616    1500.4247   -104.72114   -525.94204   -696.31628    23.387884    23.527346    44.393041    84.739443    84.803709     112.9584 
  331000    229.00516    -12735.61   -11556.723    -12735.61            0    1438.0998    23.578303    21.419281    43.945108   -9.3042694    3.6849063    5.6123124    22193.611    619.78456    2376.2534    1318.2614   -93.964435    149.75115    341.63534    23.578303    23.352837    44.455023    85.252275    85.245259    113.47953 
  331500    238.55006   -12721.194   -11493.172   -12721.194            0    1886.2331    23.574283    21.525217    43.649151   -9.1722344    3.8166916    5.8183918    22149.393    1852.5838    1646.3048    2159.8108   -409.62823   -1.9232819    665.77603    23.574283    23.397967     44.20033    84.994535    85.046349    113.07962 
  332000    233.13814   -12701.616   -11501.453   -12701.616            0    1526.5841    23.480515    21.677139    43.552025   -9.2812638    4.0016876    5.9279718    22167.562    1927.8568    1102.5226    1549.3729   -380.96337    61.072637   -29.969624    23.480515    23.580505    44.135397    84.963817    84.797937    113.17863 
  332500    239.25391   -12727.438   -11495.793   -12727.438            0    1510.2337    23.409461    21.658677    43.734503   -9.1039824    3.4319488    5.6605725    22174.178    1990.4188    898.97144    1641.3108   -545.31042    638.36105    459.94335    23.409461    23.494271    44.232648    84.956683    85.550029    112.79891 
  333000    240.14845    -12692.58    -11456.33    -12692.58            0    1976.5162    23.547671    21.542344     43.79703    -9.398216    4.2239902    6.1084705    22217.008    1450.7408    2006.1714    2472.6364   -9.3272333   -272.52396   -250.26365    23.547671    23.503171     44.42224    84.950603    84.543656    113.57006 
  333500    239.04436   -12689.302   -11458.736   -12689.302            0    2613.6721    23.416909    21.450215    44.067419   -9.0220171    3.5582386    5.7235008    22134.965    2474.4409    3121.1593    2245.4161   -295.05202    535.73443    37.993108    23.416909    23.270336    44.579782    84.985937    85.421935    112.81175 
  334000    236.66507   -12681.767   -11463.448   -12681.767            0    1968.7033    23.384518    21.585013    43.918832   -9.3750289    4.0625578    6.0126699    22168.256    2981.4803    2181.2347    743.39483    1041.0104   -831.15258   -446.90591    23.384518     23.53304    44.514271    84.978234    84.763662    113.47678 
  334500     235.7974   -12734.909   -11521.057   -12734.909            0    1638.2193    23.339571    21.568654    43.980091   -9.1310532    3.7877683    5.9172087    22139.715    2156.1973    1664.0154    1094.4452    334.55457   -116.77027    -291.9031    23.339571    23.421848    44.537725    84.882943    85.121313    112.94529 
  335000    234.97038   -12788.758   -11579.163   -12788.758            0    1509.1546     23.44383    21.473353    44.039036    -9.187134    3.9445313    5.7166188    22170.027    2227.7167    2188.6047    111.14249   -91.270456   -469.34426   -676.29992     23.44383    23.356119    44.583357     85.23408    84.924095    113.16312 
  335500     244.8377   -12686.569   -11426.179   -12686.569            0    1855.4954    23.536856     21.53742    43.854272   -9.3595972    3.9508759    6.1154229    22230.746    1690.8243    2628.7617    1246.9003    278.25065    251.79877   -428.15871    23.536856    23.483239    44.454527    84.793542    84.901136     113.4885 
  336000    235.52603   -12709.394   -11496.939   -12709.394            0    2215.1121    23.419206    21.588716    43.805285     -9.01835    3.5786705     5.592843     22147.54    2349.0725    1659.8556    2636.4082   -114.29041   -60.250217    246.08825    23.419206    23.396652     44.30564    85.104155    85.367038    112.67197 
  336500    240.81095   -12729.903   -11490.243   -12729.903            0    2360.9456    23.527869    21.599341    43.528676   -9.4363511    4.1481895    6.0650514    22120.684    1802.1938    2286.5353    2994.1076   -303.94399   -69.699527   -863.66327    23.527869    23.570665    44.144512    84.935301    84.608052    113.59962 
  337000    232.51528   -12677.783   -11480.827   -12677.783            0    2294.2375    23.525191    21.568128    43.620135    -9.158602    3.6816843    5.7922613    22132.609    1558.3545    2526.6714    2797.6866    340.38649    111.06906   -696.46743    23.525191    23.432118    44.156781     84.94273    85.217266    113.00782 
  337500     236.4723   -12690.633   -11473.307   -12690.633            0    2708.5571    23.518255    21.580878    43.477944   -9.4149217    4.0398453    5.5050039    22066.995    2218.2544     3247.327    2660.0899   -513.56581     472.8958    267.67108    23.518255    23.545171    44.010874    85.529657    84.733293    113.56982 
  338000    228.01183   -12765.059   -11591.286   -12765.059            0    2909.8584    23.448958    21.527745    43.681079   -9.1467275    3.7795684    6.1334675    22050.348    2989.2424    3422.5823    2317.7504   -676.89536    170.29387   -859.22791    23.448958    23.390306    44.271224    84.598986    85.102524    113.01971 
  338500    236.29411   -12728.114   -11511.705   -12728.114            0    1866.5298    23.464325    21.516541    43.866181    -9.200827    3.9418475    5.5190378    22146.768    1735.3903    1915.1976    1949.0015   -137.15805    31.847562    270.26793    23.464325    23.401213    44.387383    85.445474    84.905103    113.15235 
  339000    240.11234   -12681.768   -11445.703   -12681.768            0    1778.3309    23.399412    21.605748    43.996639   -9.2899486    3.8580193    6.0832918     22243.02    2306.2996    1747.2038    1281.4894    58.900979   -257.87032   -214.70506    23.399412    23.518322    44.582452    84.769019    85.035602    113.26653 
  339500    237.75045   -12744.803   -11520.897   -12744.803            0    1560.4926    23.322915     21.63323    43.997788   -9.0647087    3.7356375    5.8934296    22199.084    2520.9321    1441.6821    718.86364   -113.25601   -468.66106    -16.51213    23.322915    23.455609    44.547646    84.858902    85.189692    112.73455 
  340000    242.10023   -12731.565   -11485.267   -12731.565            0    2010.4391    23.394634    21.533013    43.932763   -9.3468007    4.2617571    5.7705946    22131.435    3303.8392    1212.9586    1514.5196   -38.773039   -670.86312    180.91585    23.394634    23.474099    44.514604    85.365816    84.506179    113.46414 
  340500    234.70364   -12704.804   -11496.583   -12704.804            0    2456.7481    23.485068    21.466292    43.891671   -9.0674755      3.46751    5.9349958     22127.43    1976.6064    2739.7006    2653.9374   -140.20612    67.088137    26.268503    23.485068    23.302807    44.426643    84.681507    85.523498    112.89945 
  341000    230.03133   -12707.619    -11523.45   -12707.619            0    2594.5497    23.462033    21.559235    43.626215   -9.3392705     4.119054    5.7534191    22067.163    2843.9231    2409.0212    2530.7048    562.04798    -89.30335    236.94843    23.462033    23.495161    44.196324    85.273125    84.652329    113.42184 
  341500    235.07341   -12727.225     -11517.1   -12727.225            0    2902.5789    23.300063    21.629178    43.680833   -9.0954015     3.279729    5.9110541    22013.445    3796.1198    2069.1086    2842.5082   -730.75139    616.36642   -333.00148    23.300063    23.463752    44.200819    84.576724    85.744706     112.8075 
  342000    233.49299   -12707.265   -11505.276   -12707.265            0    2692.5873    23.428147    21.582283    43.636997   -9.2581803     4.266774    5.8572211    22064.301    3663.4078    2098.9037    2315.4504    220.73307   -255.40336   -235.62374    23.428147    23.484225    44.234601    85.200896    84.464767    113.21794 
  342500    236.89115   -12740.392   -11520.909   -12740.392            0    2483.7151    23.459106    21.510497    43.770103   -9.1661206    3.7595988     5.842813     22087.14    1912.6808    2977.8998    2560.5646   -178.29396    361.02281    287.13866    23.459106    23.382029    44.318111    84.949714    85.133629    113.07998 
  343000    238.82273   -12780.751   -11551.325   -12780.751            0    2087.2158    23.434227    21.542852    43.779742   -9.3539546    3.6357904    5.8479519    22101.769    1927.6429    2169.2937    2164.7109    734.61249    138.19752    911.30456    23.434227    23.485973     44.31798     84.93057    85.294239    113.47059 
  343500    237.63531   -12732.169   -11508.856   -12732.169            0    1658.2422    23.441768    21.657529    43.656116   -9.0725195    4.2576018    5.8054758    22163.807    1876.9564    962.94211    2134.8281    -992.2713    69.402767     189.2891    23.441768    23.481038    44.245759     85.19064      84.4781    112.72922 
  344000    223.39173   -12708.498   -11558.509   -12708.498            0    2335.1841     23.47213    21.539379    43.789298    -9.285068    3.4502088    5.8554004    22138.779     2832.968    1887.6572    2284.9271   -3.3071924    53.260295   -189.65985     23.47213    23.455433    44.313567    84.806459     85.53449    113.31962 
  344500    233.88872   -12720.274   -11516.248   -12720.274            0    1907.4734    23.559047    21.466432    43.809655   -9.3199136    4.2986806    5.7218929    22155.799    1284.6606    3430.8323    1006.9274    1115.5797   -1029.9876    363.62747    23.559047    23.402318    44.390366    85.430341    84.442874    113.46866 
  345000    237.67126   -12729.933   -11506.435   -12729.933            0    2244.4657    23.389267     21.57804    43.800064   -9.0664085    3.5428384    5.9345564    22105.653     1792.713    2862.4371     2078.247   -209.62095    1123.0758   -850.28383    23.389267    23.405375    44.342038    84.696163    85.417299     112.7906 
  345500    230.73767   -12708.571   -11520.766   -12708.571            0    1939.7942    23.386833    21.653203    43.741841   -9.3269935    3.9202316    5.8007095    22150.861    2123.0367      1572.68    2123.6659    440.54229   -337.82173   -321.68863    23.386833    23.576556    44.298591     85.10937    84.922932    113.30369 
  346000    238.83742   -12762.557   -11533.055   -12762.557            0    2097.9878    23.513675    21.501103    43.736515   -8.9939853    3.6310494    5.8744838    22111.868    1053.1103    3299.1993    1941.6538   -153.05205   -350.28115   -766.65126    23.513675     23.30642    44.278401    84.793305    85.296179    112.69973 
  346500    231.02344   -12685.284   -11496.008   -12685.284            0    2079.8627    23.598839    21.454244    43.791264   -9.3471815    4.0014292    5.9631313    22171.309    1684.2375    3027.1642    1528.1866   -63.319705    -191.1401   -1121.0136    23.598839    23.402016    44.376178     84.99879    84.826575    113.54179 
  347000     239.8063   -12724.383   -11489.894   -12724.383            0    1062.8823    23.471554    21.581473    43.863155   -9.1589055    3.8434779    5.4961846    22218.913    1112.9432    668.06471    1407.6389   -165.21433    478.99731    948.37293    23.471554     23.44452    44.372928    85.400961    85.030949    112.99576 
  347500    236.97464   -12720.265   -11500.353   -12720.265            0    1637.2812     23.38788    21.762737    43.688941    -9.229386    3.8393517      6.40538    22236.985    2070.5321    726.67945    2114.6319    302.02412   -884.76007   -692.32526     23.38788    23.638915    44.322602     84.30535    85.030646    112.98138 
  348000     221.7145   -12724.319   -11582.964   -12724.319            0    1594.3815    23.431957    21.602511    43.815801   -9.2350917    3.8189581    5.5741794    22179.081    2184.1704    921.37771    1677.5964   -31.757625   -245.45145     522.4494    23.431957    23.493731    44.333738    85.310842    85.058353    113.14675 
  348500    229.26399   -12721.653   -11541.435   -12721.653            0     2385.472    23.584167    21.378717    43.847281   -9.1683706    3.8324054    5.7259671    22107.765     1471.297    3093.7227    2591.3962   -182.28701    366.16598     274.9963    23.584167     23.26174    44.385337    85.150925    85.046688    113.21232 
  349000    227.34532   -12718.404   -11548.063   -12718.404            0    2262.8489    23.477091     21.55363    43.727162   -9.2827059    3.8732542    6.0737369    22126.666    2255.0418    2387.6149      2145.89    88.906943    134.47777   -214.85933    23.477091    23.467586    44.316555    84.761348    84.985968    113.30055 
  349500     234.2807   -12679.821   -11473.777   -12679.821            0    2058.3441    23.325979    21.646597    43.798099   -9.1576696    3.6164816    5.4931223     22114.89    2270.6606    2465.8098    1438.5619    427.13116   -188.55678   -244.20327    23.325979    23.504002    44.289127    85.272762     85.31623    112.93096 
  350000    232.07159   -12716.667   -11521.995   -12716.667            0    1783.5439    23.425941    21.642273     43.76483   -9.2670651    4.1305743    6.2859139    22188.358     1446.911    1950.5196    1953.2012    437.49041    65.517765   -584.64901    23.425941    23.542865    44.406472    84.634289     84.66278    113.18026 
  350500    243.80895   -12696.134    -11441.04   -12696.134            0    2115.9964    23.598338    21.430028    43.839779   -9.2122622    3.7654832    5.7712451    22170.347    1446.4902    3037.7647    1863.7342    15.253052    279.71486    148.62537    23.598338    23.326205    44.378061    85.068438    85.132595    113.26173 
  351000    238.10165    -12750.73   -11525.016    -12750.73            0    2155.3154    23.512041    21.498249    43.735101   -9.2927183    3.9160936     5.565053    22106.681    1181.1186    2167.8377    3116.9899    -42.34702   -263.36587    610.50078    23.512041    23.420703    44.261322    85.393844    84.924024    113.37664 
  351500    239.56043   -12661.566   -11428.343   -12661.566            0    2210.8423    23.375284      21.7234    43.668328    -9.167776    3.7398529    6.2057513    22174.369    2743.7331    1841.0087    2047.7852     49.83297   -29.591923   -350.85169    23.375284    23.578682    44.265345    84.473092    85.153465    112.88087 
  352000    231.45281   -12709.702   -11518.216   -12709.702            0     1846.229    23.441806    21.583048    43.863191   -9.1622939    4.0749127     5.713112    22192.391    2007.2273    1929.7558    1601.7039    35.590404   -69.854221   -136.22724    23.441806    23.447294    44.420987    85.265358    84.736632    113.00187 
  352500    229.21032   -12718.742     -11538.8   -12718.742            0    1784.3928    23.551651    21.445098    43.875231   -9.3484372    3.6321556    5.8689988    22159.952    1359.8277    2312.0046    1681.3461    625.49586    311.80561    490.49659    23.551651    23.394134     44.41479    84.925408    85.309224    113.55355 
  353000    235.68244   -12765.409    -11552.15   -12765.409            0     2062.178    23.478914    21.513535    43.899219   -9.1025441    4.2213732    5.8780052    22174.129    1970.4666    2501.2131    1714.8542   -604.31514    76.256013     103.7287    23.478914    23.359976    44.491711    85.141194    84.555587     112.9336 
  353500    229.55849    -12731.72   -11549.985    -12731.72            0    935.40861    23.320883     21.68414    43.915142   -9.2469069     3.577085    5.7757656    22207.593    636.45505    1715.0761    454.69471   -323.34386    1112.2188    83.259104    23.320883    23.573443    44.437537    84.952456    85.382871    113.09516 
  354000    238.32208   -12715.557   -11488.708   -12715.557            0    1323.6026    23.414988    21.622526    43.942912   -9.1768599    3.8594893    5.9277875    22247.909    1149.0438    1038.0632     1783.701   -121.35495    182.57581    268.41745    23.414988    23.489325    44.508582    84.909967    85.025442    112.99695 
  354500    244.13122   -12717.789   -11461.036   -12717.789            0    1731.4735    23.617464    21.416726    43.862517   -9.2570365    3.9257953    5.8583117    22186.045    754.39665    2835.7995    1604.2244   -369.37025   -47.719645    -463.1159    23.617464    23.331714    44.425805     85.06741    84.930305    113.37564 
  355000    231.77762   -12687.455   -11494.297   -12687.455            0    2697.0055    23.515717    21.550308    43.581043   -9.3025713    3.6460921    5.7356357    22085.606    2980.6776    2170.9794    2939.3595     310.8575    154.79938   -273.75824    23.515717    23.472401    44.107809     85.03039    85.258338     113.3483 
  355500    231.93085   -12749.615   -11555.668   -12749.615            0    2097.5759    23.401637    21.741196    43.472892   -9.1780203    4.1773519    5.8756087     22118.12     2145.877     1585.071    2561.7796   -21.440273    -239.7967   -543.08023    23.401637    23.599061    44.066602    85.068187    84.560403    112.88698 
  356000    233.78518    -12704.66   -11501.167    -12704.66            0    1880.4809    23.462558    21.631938     43.68713    -9.235561    3.4411363    5.9950925    22172.992    1583.0831     1566.624    2491.7356    403.92096    378.16646    139.71569    23.462558    23.520976    44.230622    84.600038    85.537887    113.11962 
  356500    239.61775   -12675.303   -11441.785   -12675.303            0    2170.2568    23.515328    21.490431    43.822963   -9.2813621    3.9860815    5.6505018    22146.132     1426.279    2117.8147    2966.6766    817.36709    228.31173    287.72685    23.515328    23.409022    44.365179    85.336612     84.84519    113.35872 
  357000    232.18743    -12704.82   -11509.552    -12704.82            0     2681.432    23.424132    21.484686    43.889533   -9.1584568    3.7448488    6.1470484    22087.851    2930.3923    2676.8981    2437.0055   -95.441701      557.381   -810.87134    23.424132    23.355279     44.47585    84.599128        85.17     113.0875 
  357500    242.90894   -12721.277   -11470.816   -12721.277            0    2512.6341    23.259861    21.680373    43.919228    -9.193014    3.9598205     5.749883    22147.697    2843.1499    1927.8218    2766.9305    240.38536    38.476969    3.0129812    23.259861    23.548887    44.470664    85.165597    84.891421    112.97814 
  358000    233.70352     -12737.4   -11534.327     -12737.4            0    2128.0687    23.411583    21.566832    43.893155   -9.2224506     3.749104    5.6260491    22162.253    2433.5359    2364.4671    1586.2032   -375.02996    540.60119    236.33052    23.411583    23.455955    44.410778    85.222456    85.157396    113.15262 
  358500    236.33377   -12722.615   -11506.002   -12722.615            0    1624.2211    23.643149    21.519789    43.722566    -9.300099    4.1510625    6.2713364    22245.848    2061.9654    1172.5722    1638.1257    66.416576   -888.59476   -450.49785    23.643149    23.443404    44.364668    84.684414    84.631161    113.37231 
  359000    239.92476   -12735.515   -11500.416   -12735.515            0    1730.3442    23.500408    21.542968    43.794252   -9.2397362    3.7949004    5.5994488    22171.652    1601.1923    2463.1276    1126.7126    150.73258    331.75715   -94.608514    23.500408    23.440823     44.31356    85.275009    85.087318     113.2144 
  359500    236.00666   -12656.468   -11441.539   -12656.468            0    2358.0295    23.390149    21.634895    43.715584   -9.2802592    3.8241874    5.8603612    22121.983    3002.6935    2082.7525    1988.6423   -498.07746   -24.629688    121.01567    23.390149     23.54128     44.27212    84.974439    85.044665    113.21685 
  360000    234.84065   -12728.557   -11519.631   -12728.557            0    2321.0966    23.532004    21.590384    43.585328   -8.9126721    4.0306346    6.1412915     22144.18    2073.8806    1885.0227    3004.3866   -1406.2128    189.62623    103.79902    23.532004    23.357663    44.200026    84.627269    84.767885     112.4312 
  360500    234.80774   -12744.088   -11535.331   -12744.088            0    1781.0185    23.549906    21.472349    43.796862    -9.432959    3.6955388    5.7043654    22146.838    1230.4075    2096.0577    2016.5904    539.55431   -193.43965    187.42951    23.549906    23.452984    44.321123    85.164251    85.217069    113.71623 
  361000    235.79808    -12698.42   -11484.564    -12698.42            0    1883.4825    23.468499    21.680028    43.634625   -9.0718297    4.0263131     5.929991    22201.198     1809.837    1575.9112    2264.6993    -207.8904    26.394159    -340.4476    23.468499    23.501526    44.219413     84.91908    84.775808    112.70647 
  361500    237.78038   -12713.602   -11489.542   -12713.602            0    1665.8225    23.351446    21.711239    43.843827   -9.2337841    3.7818616    5.8512062     22228.33    2111.9953     1432.283    1453.1892    230.83003   -458.72143    499.48656    23.351446    23.593234    44.393921    84.954451    85.113123    113.04004 
  362000    235.90021   -12741.966   -11527.585   -12741.966            0    2137.9585    23.458591     21.45327    44.031423   -9.3339564    3.7922446    5.6740837    22159.408    2069.6401    2435.1581    1909.0773    1182.1635    43.507664    66.654338    23.458591    23.395845    44.557183    85.249595    85.117672    113.51305 
  362500    240.68134   -12697.551   -11458.557   -12697.551            0    2409.1146    23.575779    21.396198    43.940117   -9.0932254    4.2559825    6.1793048    22164.802    2708.7096    2604.4702     1914.164    303.83232   -1897.8641   -780.65795    23.575779    23.248312    44.576127    84.822834    84.521241    113.02513 
  363000    242.58205   -12712.017   -11463.239   -12712.017            0    2647.5199    23.372266     21.56169    43.892836   -9.2734697    3.7623577    5.5517861      22119.6    3106.6648     2296.691    2539.2038    486.25989    256.11015    547.71686    23.372266    23.471338    44.402238    85.331932    85.139299    113.27206 
  363500    245.28002   -12740.831   -11478.164   -12740.831            0    1723.3074     23.45506    21.665892    43.611639   -9.1792933    4.0913969    6.0420477    22162.336     1977.736    943.06986    2249.1162    -207.0403   -11.315378    -139.5417     23.45506      23.5302    44.217881    84.852471    84.690936    112.96115 
  364000    236.29883   -12687.524   -11471.091   -12687.524            0    1966.1044    23.596081    21.618704    43.505556   -9.3032894    3.7071793    5.7111556     22192.91    596.97393    2218.5551    3082.7842   -354.93867    1033.6488    592.07499    23.596081    23.535496    44.035143    85.074827    85.170734    113.28391 
  364500    233.22208   -12733.673   -11533.079   -12733.673            0    1837.0088    23.628216    21.530468    43.593092   -9.3422585    3.9093156     5.621072    22176.963    1225.7922    1843.1072    2442.1269   -396.84937    326.27193    312.98617    23.628216    23.469956    44.127507    85.319918    84.917426    113.45644 
  365000    237.01879   -12688.135   -11467.996   -12688.135            0    1642.2638    23.583558    21.595386    43.645443   -9.1802031    4.0095102    6.0390263    22228.451    888.96697    2125.9503    1911.8741   -225.13416   -373.81627    81.231381    23.583558    23.465652    44.243312     84.82702    84.800488    113.03035 
  365500    229.23854   -12701.124   -11521.036   -12701.124            0    1372.8663     23.35397    21.632948    43.878718   -9.2602316    3.7715786    5.6013004    22168.197    1392.4723      768.491    1957.6357    605.38226   -232.03684    507.73026     23.35397    23.531603    44.395284    85.264426    85.126592     113.1739 
  366000    244.08111    -12714.95   -11458.455    -12714.95            0    1536.8403    23.387825    21.620766    43.972582   -9.1330683    3.9057289    6.1278557    22235.294    1880.0248    1657.2016    1073.2943   -138.22001   -76.790458   -559.46915    23.387825     23.47063    44.568972    84.689422    84.972529    112.90022 
  366500    232.76621   -12734.089   -11535.842   -12734.089            0     2010.496    23.488535     21.45934    43.947385   -9.2392551    3.9213208    5.9898059    22151.612    1850.8771    2574.5296    1606.0814   -295.05847   -81.234909    248.95587    23.488535    23.363799    44.526702    84.909438    84.947603    113.29415 
  367000    230.04184   -12727.201   -11542.978   -12727.201            0    1671.7384    23.517003    21.564122    43.728036   -9.2648612    3.7794744    5.6164556    22175.516    1574.4254    1503.9662    1936.8236   -495.43057    385.00607    716.10997    23.517003    23.470173    44.248956    85.244532    85.100176    113.25041 
  367500    234.76353   -12694.223   -11485.694   -12694.223            0    1924.9788    23.403304    21.802164    43.486788   -9.2171601    4.1009409    6.2934067    22188.814    2233.2261    1149.6774     2392.033   -360.82489   -389.98026   -603.91392    23.403304    23.670454    44.130776    84.539077    84.667982    112.91687 
  368000    240.94876   -12714.805   -11474.435   -12714.805            0    1681.5822     23.40071     21.62248     43.82606   -9.1807414    3.7213377     5.800949    22175.171    2274.5788    1197.5105    1572.6573    139.34401   -310.59343    572.89901     23.40071      23.4908    44.364659    84.975942    85.188337    113.00571 
  368500    233.40327   -12728.428   -11526.901   -12728.428            0    1910.4418    23.509575    21.407013     44.04964   -9.3670495    3.6901964    5.6935864    22168.853    1987.2449    1913.1302    1830.9504    207.55745    241.71918    999.27646    23.509575    23.366682    44.569107    85.190524    85.250634    113.63271 
  369000    236.05731   -12712.614   -11497.424   -12712.614            0    1507.8251     23.46982    21.520207    44.016399   -9.1198016    4.3971235    5.9220485    22231.599    1421.1841    2210.6514    891.63998   -372.79272   -845.61583   -681.66289     23.46982     23.37285    44.630132    85.196932    84.345838    112.96619 
  369500    239.58495   -12714.721   -11481.371   -12714.721            0    1996.7511     23.35795    21.661463    43.863243   -9.2241525    3.5733662    5.8653207     22193.37    2650.7754    2128.1586    1211.3193    397.83216    -239.8047      677.754     23.35795    23.543661    44.397692    84.835591    85.383533    113.06588 
  370000    236.30185   -12697.758   -11481.309   -12697.758            0    2089.0738    23.508618    21.597247    43.650645   -9.3949972    4.0492449    5.4811076    22162.367    2504.3159    1427.8559    2335.0496    533.48108   -644.82314    933.86958    23.508618     23.55222    44.179381    85.572037    84.741196    113.50947 
  370500    225.98431   -12685.514   -11522.179   -12685.514            0    2196.0343    23.590879    21.497785    43.612271   -9.1339222    3.7075394    6.1295882    22118.035    1768.5786    2254.1786    2565.3458   -309.91694    320.04395   -149.33564    23.590879    23.357725    44.196695    84.557799    85.187959    113.01954 
  371000    231.46578   -12749.097   -11557.544   -12749.097            0    2252.7782    23.499402    21.556899    43.575301   -9.3240172    3.9373026    5.6686695    22074.125     1484.794    2329.6591    2943.8814    620.55172   -84.526848    624.21576    23.499402    23.486958    44.118512     85.26771    84.879896    113.38996 
  371500      233.525   -12751.118   -11548.964   -12751.118            0    1886.3275    23.376213    21.728417    43.539818   -9.1592432    3.4636882    5.7614492    22115.097    1157.1457     1139.422    3362.4147     543.1188    818.44167    834.89429    23.376213    23.579988    44.055729    84.838199    85.490717    112.85703 
  372000    238.00522   -12749.449   -11524.232   -12749.449            0    1824.8124    23.491233    21.541211    43.732335   -9.3027401    3.9905588     6.025759    22129.856    1918.1485    1764.2576     1792.031    531.84335   -523.81592   -624.99252    23.491233    23.464116    44.325517    84.887628    84.834755    113.35748 
  372500     232.0327   -12725.702   -11531.231   -12725.702            0    1496.0886    23.504741    21.446861    43.994082   -9.2227947    3.7926185    5.4755067    22177.545    1087.4739    2459.8451    940.94701   -28.243958     917.0974    288.75876    23.504741     23.34583    44.495442    85.447332    85.110398    113.26916 
  373000    224.81538   -12735.022   -11577.704   -12735.022            0     1495.301    23.377817    21.622364    43.916332    -9.175742    3.9280429    6.1987056    22198.989    2211.2628    1440.7036    833.93652   -17.130657   -141.47905   -1217.9138    23.377817    23.488739    44.525248    84.623907    84.938754     112.9946 
  373500    233.15977   -12685.192   -11484.918   -12685.192            0    1535.9685     23.41478     21.61068    43.854851   -9.2904553    3.9970164    5.8005234    22190.963    2490.3925     1741.731    375.78205   -441.34069   -528.29009   -197.91475     23.41478    23.523053    44.417003    85.156493    84.837058    113.26292 
  374000    240.14697   -12704.625   -11468.382   -12704.625            0    2025.9295    23.482118     21.46261    43.969098    -9.090522     3.424192    5.6156854    22159.878    2243.0966    2385.2584    1449.4335      264.194    818.20841    446.93925    23.482118    23.308394    44.458324    85.050824    85.582689    112.95516 
  374500    236.42878   -12696.817   -11479.715   -12696.817            0    2024.4946    23.556634    21.567731     43.75937   -9.3505548    4.2520078    6.0974617    22232.524     1926.605    1993.0735    2153.8055    4.7884341   -674.89194    47.639731    23.556634    23.507443    44.386271    84.955305    84.502889    113.43884 
  375000    235.45722   -12766.439   -11554.338   -12766.439            0     1453.861    23.409554    21.650014    43.751023   -9.1310548    3.6825899    5.5864276     22173.77    1184.1573    690.66648    2486.7591    65.227573    205.83618    831.81767    23.409554    23.496793    44.259707    85.183491    85.227237    112.86795 
  375500    239.75958   -12761.607   -11527.358   -12761.607            0    608.77278    23.510768    21.672334    43.668623   -9.3979907    3.8496754     6.025676    22250.614     655.9413    467.27196    703.10508   -550.96528    531.85587   -257.46931    23.510768    23.622284    44.250168    84.817947    85.009073    113.44348 
  376000    236.13391   -12703.611   -11488.027   -12703.611            0    1102.4707     23.65224    21.516974    43.679613   -9.1482793    3.9289614    5.8359046    22229.632    964.78321    1017.9274    1324.7015     154.5961   -454.32765   -93.162128     23.65224    23.381001    44.242549    85.029422    84.905134    113.03353 
  376500    238.52046   -12708.972   -11481.102   -12708.972            0    2005.2936    23.518936    21.528686    43.769586   -9.2723896    3.7980851    5.5783214    22161.933    1208.0253    1769.1082    3038.7472     305.1591    353.88509    578.03255    23.518936    23.440596     44.28679    85.310216    85.080206    113.30151 
  377000    224.25206   -12729.897   -11575.479   -12729.897            0     1746.886    23.349075    21.707211    43.712977   -9.3220735    3.7646532    6.2399667    22155.629    1266.9252    1549.3014    2424.4313    435.60931    284.11349   -477.92856    23.349075    23.624226    44.316297    84.499268    85.126871    113.24091 
  377500    234.18648   -12715.912   -11510.353   -12715.912            0    2112.5869    23.356408     21.56208    43.920378   -8.9607073    3.9150781    5.5046992    22118.862    2047.8176    2351.9652    1937.9779    -397.9622   -8.7318309    778.48081    23.356408    23.349894    44.436799    85.378011    84.945435    112.56665 
  378000    228.85968   -12687.526   -11509.389   -12687.526            0    1422.9691    23.494113    21.516103    43.989309   -9.3487733    3.8021684    5.9103173    22236.673    2485.0824    1517.4081     266.4168   -1002.0976    512.77189   -679.21743    23.494113    23.459374     44.54714    84.970311    85.103758    113.48501 
  378500    230.11365   -12686.418   -11501.825   -12686.418            0    1204.9646     23.47297    21.589397    43.855762   -9.0756351    3.7467802    5.9231036    22224.664    1654.9979     915.4395    1044.4564    -1076.288     64.78246      446.462     23.47297    23.419419    44.412266    84.821903    85.160568    112.80065 
  379000    228.62275   -12727.512   -11550.595   -12727.512            0    1536.0025    23.488679    21.697415    43.526552   -9.5572042     3.897604    5.6358842    22183.029    1130.1405    1205.6285    2272.2386    1356.3612    95.326584    542.06038    23.488679    23.709027    44.062628    85.331134    84.925212    113.77237 
  379500    235.76662   -12771.716   -11558.022   -12771.716            0    2325.3085    23.461789    21.563802    43.689304    -9.132334    3.6924782    5.7687383    22103.528    2566.3378    1915.1814    2494.4063    454.06921    -104.8849     307.7295    23.461789     23.41788    44.222936    84.976904    85.210404     112.9528 
  380000    219.30848   -12759.891   -11630.921   -12759.891            0    2783.8802    23.495051    21.563449    43.447155    -9.272544    4.3561798      5.82283    22011.821    2127.8174    2781.0232       3442.8    418.13864   -557.08337   -161.03141    23.495051    23.472588    44.051526    85.275384    84.324843    113.26829 
  380500    243.16061   -12684.565   -11432.809   -12684.565            0    2816.1306    23.423872    21.528764    43.805226   -9.2632517    3.3796727    5.7471918    22090.407    2695.1893    2393.7595    3359.4429    61.286387    766.03907     300.0636    23.423872    23.437054    44.309708     84.89405    85.625581    113.28092 
  381000    231.63636   -12671.907   -11479.476   -12671.907            0    2601.5646    23.407982    21.572606     43.81322   -9.1393472    4.2116013    5.7332253    22124.413    2676.5582    2743.8197     2384.316    55.480597    55.889214   -20.253521    23.407982    23.428721    44.386999    85.301163    84.555376     112.9602 
  381500    237.81906   -12665.097   -11440.838   -12665.097            0    1872.2867    23.435602    21.546537    44.026516   -9.3762349    3.4368869    6.2914462    22231.456    2096.5368    2225.2742    1295.0492    331.63078    73.983846   -835.96584    23.435602    23.498235    44.606374    84.342312    85.581024    113.51685 
  382000    232.47038   -12716.325     -11519.6   -12716.325            0    1723.6477    23.442146    21.555178    43.877724   -9.1728478    3.9522171    5.5466283    22171.398    1346.8997    2495.1663     1328.877   -202.24703   -305.96346    74.194448    23.442146    23.425773    44.403151    85.406393    84.893483    113.05227 
  382500     236.8591   -12717.563   -11498.245   -12717.563            0    2464.7519    23.459384    21.572648    43.722144   -9.2158843    4.1148632    6.2464448    22126.947    2440.6548    2806.1458    2147.4549    192.30118   -16.038323   -938.74865    23.459384    23.458722    44.357367    84.660601    84.677237    113.13228 
  383000    241.36486   -12713.558   -11471.046   -12713.558            0    1846.2432    23.423049    21.589003    43.795167    -9.224492    3.4684436    5.5822714    22146.352    1854.4825    1685.9063    1998.3406     208.1576    841.13418     740.1278    23.423049    23.477144    44.285534     85.11586    85.507993    113.13592 
  383500    237.06108   -12693.176   -11472.819   -12693.176            0    1568.5217    23.490551    21.559821    43.861592   -9.2770434    4.0790011    5.7452813    22213.794    1072.1208    2547.1518    1086.2924    5.4116861   -255.41439     -719.662    23.490551    23.471033    44.423933     85.26742    84.731687    113.28188 
  384000    231.69838   -12748.704   -11555.953   -12748.704            0    1632.1088    23.530331    21.592319    43.709674   -8.9548915    3.7483034    6.4910964    22207.767    1814.6822     1490.383    1591.2613    -1395.895   -236.04184   -871.42206    23.530331    23.375592    44.347714    84.098229    85.151532    112.52505 
  384500    227.24394    -12713.65    -11543.83    -12713.65            0    1844.0584    23.479307    21.601068    43.747287   -9.3377362    3.9483736    5.5261592    22187.667    1671.8695    1318.5144    2541.7913    106.60739    89.350521    459.11868    23.479307    23.532944    44.271359     85.45804    84.883235    113.37792 
  385000    231.97581   -12714.345   -11520.166   -12714.345            0    2242.5165    23.427215    21.612086    43.703751   -9.1682954    3.7990702    5.9701899    22127.689    1785.2967    2313.8505    2628.4024    -89.66271    640.56076   -585.52965    23.427215    23.476369    44.272949    84.800185    85.077384    112.98766 
  385500    232.98511   -12697.701   -11498.327   -12697.701            0    1316.2713    23.614438     21.51427    43.777433   -9.2883365    3.8375624    5.9497765    22241.011    1269.4769    1171.6367    1507.7002    -491.3245    185.08252    257.45833    23.614438    23.433673    44.346255    84.900998    85.035624    113.35126 
  386000    240.35431   -12733.792   -11496.482   -12733.792            0    1716.2436     23.45672    21.579942    43.831624   -9.2583897    3.8499985    5.5029774    22187.334    1797.7408    1604.3524    1746.6376    221.00019    275.38811    680.61694     23.45672    23.482156    44.343168    85.422072    85.019148    113.22067 
  386500    230.89675   -12691.213   -11502.589   -12691.213            0    3152.2834    23.391364    21.597732    43.707641   -9.1083283    3.8166346    6.2010758    22081.118    3246.2018    3280.4713    2930.1771    -934.3684     768.9973   -476.64624    23.391364    23.439788    44.310021    84.521118    85.058717    112.86642 
  387000    234.81352   -12745.787       -11537   -12745.787            0    2725.1247    23.352368    21.511051    43.876353   -9.3203853     3.738251    5.5925626    22040.584     2334.483    3499.1942    2341.6969    869.14337   -92.063271   -395.03306    23.352368    23.443441    44.389026    85.289384    85.169076    113.42629 
  387500    231.45831   -12742.374   -11550.859   -12742.374            0    2658.8588    23.397539    21.539789    43.809561    -9.183905    3.7284307    5.7375055    22079.057    3571.2788    2024.6102    2380.6875    697.74849    252.26385    54.995413    23.397539    23.415948    44.340701     85.06364    85.176534    113.09191 
  388000    237.56609   -12739.148   -11516.191   -12739.148            0    2354.2213    23.500223    21.554327    43.679264   -9.2859612    4.2835131     6.206299    22124.922     2672.977    2230.0369    2159.6499   -444.24947   -859.94491   -377.33997    23.500223    23.469514    44.325441    84.815966    84.454407    113.30718 
  388500    228.23633   -12723.166   -11548.237   -12723.166            0    2551.7236    23.439441    21.519904     43.77768   -9.1225614    3.4463102    5.3422146    22082.097    2886.1972    3076.0168    1692.9567   -765.36556   -208.01742   -183.16252    23.439441    23.373647     44.23688    85.366594    85.531798    112.97271 
  389000    232.98923   -12697.021   -11497.625   -12697.021            0    2188.6858    23.401155     21.63903    43.715292   -9.2590814    4.0548906     5.978613    22136.475    3125.3237    1462.1631    1978.5707    155.38472   -983.31882   -168.60181    23.401155    23.536742    44.308157    84.948446    84.749192     113.1655 
  389500    236.40224   -12747.587   -11530.621   -12747.587            0    1292.0973    23.473723    21.621749    43.693638   -9.1540991    3.6679708    6.1666575    22176.397    1156.0111    1208.2996    1511.9813    55.371684    -139.2059     144.0303    23.473723    23.479726     44.27884    84.493886    85.248287    112.94657 
  390000    229.33066   -12735.922    -11555.36   -12735.922            0    2213.8799     23.58207    21.410408    43.841571   -9.4116689    4.0732331    5.2395718    22135.685    1758.5121    1996.9054    2886.2221    562.77209    10.725371     854.3322     23.58207    23.387712    44.341039    85.916614    84.729295    113.72951 
  390500    235.54251   -12695.904   -11483.364   -12695.904            0    1508.6481     23.49329    21.571079    43.868816   -9.1779311    3.7423837    6.2170079    22231.646    1385.2879    1908.4774    1232.1788    375.34015   -28.562541   -718.42472     23.49329    23.442394    44.464926     84.50806    85.171998    113.04849 
  391000    226.58868   -12705.918   -11539.471   -12705.918            0    2288.8956    23.304662    21.637384    43.981178   -9.2385867    4.0333242    5.5966319    22177.593    2535.9522    2950.0784    1380.6562    811.89757   -494.42264   -314.35253    23.304662    23.527173    44.518918    85.409134     84.80199    113.12119 
  391500    244.15238   -12712.042    -11455.18   -12712.042            0    2210.1425    23.367616    21.566139     43.98574   -9.2563579    3.6643666    5.9979699    22166.581    2925.5639     2383.088    1321.7756   -18.654791    395.94069   -514.73485    23.367616    23.468671    44.543783    84.762103    85.281266    113.22939 
  392000    234.52174   -12755.132   -11547.847   -12755.132            0    1676.4423    23.475648    21.564601    43.831674   -9.0781977    4.0087956    6.0928956    22189.477    2391.4869    1051.6014    1586.2385   -429.60697   -108.13462   -169.91607    23.475648    23.397557    44.434328    84.757298    84.823826    112.82997 
  392500    228.95333   -12681.677   -11503.058   -12681.677            0    1722.1003    23.581685     21.50101    43.838691   -9.4287506    3.7017364    5.2807038    22227.533    972.01739    1856.3253    2337.9583    232.92258    1028.2138    1293.3539    23.581685    23.477537     44.31049    85.664803    85.207876     113.6787 
  393000    240.81007   -12679.127    -11439.47   -12679.127            0    1950.4767    23.438123    21.691978    43.654175   -9.2341244    3.6384356    6.0881249    22194.622    2037.0386    1461.8758    2352.5158    106.03328    111.52521   -38.653694    23.438123    23.575643    44.226581    84.581135    85.281053    113.05912 
  393500    227.66562    -12702.24    -11530.25    -12702.24            0    1402.3045    23.425855    21.644761    43.905945   -9.1434325    4.1299554    5.8602314    22262.379    1319.2582    1846.7568    1040.8986   -383.65635   -300.63569    17.353704    23.425855    23.496766    44.487423    85.111326    84.673321    112.90074 
  394000    227.04456   -12721.232   -11552.439   -12721.232            0    1143.2105    23.560075    21.468963     43.96225   -9.3870498    3.6636737    5.6727819    22236.562    313.37644    1950.6162    1165.6388    476.30383    635.71502   -253.07842    23.560075    23.431455    44.477886    85.189509    85.275154    113.61678 
  394500    233.64701   -12734.933   -11532.151   -12734.933            0     1596.813     23.46941    21.571306    43.839044   -9.2067322    4.0315202    5.9312054    22194.209    1529.5221    1670.3786    1590.5383    15.456051   -539.10366    299.54567     23.46941    23.453894    44.421775    84.998768    84.792928    113.11301 
  395000    236.15792   -12737.586   -11521.879   -12737.586            0    2795.0729    23.220898    21.615458    43.808875   -9.1531158    3.3434442    5.6093765    21989.003    3796.0328    1724.4395    2864.7464    159.86379    127.73406    63.857359    23.220898     23.47355    44.292903     84.99837    85.670918    112.95034 
  395500    222.71584   -12733.305   -11586.795   -12733.305            0    3077.9801    23.354592    21.615007    43.616125    -9.253689    4.0809748    5.8143112    22017.842    3725.8596    2220.7981    3287.2828   -187.98742   -312.16058   -28.945108    23.354592    23.512535    44.190802    85.146439    84.701244    113.17645 
  396000    231.56417   -12716.518   -11524.458   -12716.518            0    2101.5893    23.578276    21.482035    43.687431   -9.1594936     3.858982    5.9696103    22128.092    1901.4282    2016.5522    2386.7876   -1435.9808    771.21052   -215.63684    23.578276    23.353247    44.261944    84.843982    84.998312    113.09239 
  396500    241.19105   -12679.276   -11437.658   -12679.276            0    1842.2326     23.60674      21.4644    43.772419   -9.4821004    3.8280205    5.5965537    22179.683    706.52188    2674.4014    2145.7744    537.19298     459.0263    226.60697     23.60674    23.465522    44.294467    85.373963    85.042194    113.83389 
  397000     234.6769   -12753.672   -11545.589   -12753.672            0    2317.4793    23.339487    21.659336    43.743419   -9.0951463    3.9424152    5.9251521    22113.077    3104.8675    2194.4538    1653.1165    487.76922   -328.19622   -417.41912    23.339487    23.491456    44.318582    84.903898    84.896436    112.77841 
  397500    236.31646   -12704.604    -11488.08   -12704.604            0    2176.4547    23.371428    21.635524    43.774188   -9.2405994    3.8117343    5.9692217    22134.553    1546.8202    2431.3727    2551.1711   -21.857799    268.95783   -425.86327    23.371428    23.526253    44.343437    84.834552    85.068805    113.12748 
  398000    235.52723   -12706.787   -11494.326   -12706.787            0     2401.114    23.584768    21.402565    43.833463   -9.2185491    3.9897844    5.4951924    22126.016    1808.4294    3018.3254    2376.5872    440.87852   -116.57937     313.6208    23.584768    23.303464    44.356375    85.514935    84.839362    113.30259 
  398500    242.40472   -12708.826    -11460.96   -12708.826            0     1766.356    23.580256    21.531093     43.74011   -9.1845731    3.8772814    6.1091878    22207.234    1794.6791    1707.3045    1797.0846   -64.246587   -69.276144   -296.67789    23.580256    23.408211    44.334554    84.696407    84.982784    113.10176 
  399000    230.60118   -12726.098   -11538.996   -12726.098            0    1672.7069    23.395606    21.689069    43.615378   -9.2431446    3.9986169    5.6063897    22131.704    1505.8828    1692.8078    1819.4302   -314.21253   -240.86908   -487.33173    23.395606    23.576502    44.155654    85.336631    84.804331    113.08206 
  399500    235.79613   -12775.816   -11561.971   -12775.816            0    1593.5148    23.418228    21.696272    43.553224   -9.1749712    3.6460538    5.9441625    22128.881    1299.9182    758.51359    2722.1125    46.483278    350.67682    310.13885    23.418228    23.556492    44.107936    84.725581    85.258401    112.92265 
  400000    238.72169   -12758.487   -11529.582   -12758.487            0    2220.0096    23.622946    21.398791    43.653226     -9.30666    3.9270519    5.8852205    22066.814    765.13314      2707.87    3187.0257    1016.0646    -291.3489    344.81483    23.622946    23.334999    44.222864    85.030691    84.905344    113.50496 
  400500     238.7479   -12716.969   -11487.928   -12716.969            0    2649.4823     23.53695    21.450129    43.691049   -9.2882515    3.8219159    5.5643967    22058.327    1715.8856    3236.6759    2995.8854    659.30051   -499.67051   -163.26566     23.53695    23.374765     44.20947    85.345394     85.04058    113.41339 
  401000    241.04051   -12684.036   -11443.194   -12684.036            0    2533.6232     23.34424    21.689342    43.671946   -9.1910207    3.6418225    6.0767796    22112.032    2564.4653    2206.2435    2830.1607    469.19521    187.61667   -361.24005     23.34424    23.556366    44.242841     84.58622    85.278391    112.96517 
  401500    232.44041   -12649.521   -11452.951   -12649.521            0     2097.335    23.357284    21.652535    43.813092   -9.1704852    4.1641315    5.6678884    22158.227    2487.2587    1805.7111     1999.035     417.6654    81.746446    251.68162    23.357284    23.514465    44.374001    85.352897    84.615344    112.95409 
  402000    238.63363   -12714.936   -11486.484   -12714.936            0     1403.355    23.532898    21.451961    43.984994   -9.2973737    3.6373736    5.8374737    22204.803    913.31821    2027.5208     1269.226   -181.01766    250.34718    40.422012    23.532898    23.380072    44.519504    84.961899    85.313543    113.43212 
  402500    240.95507    -12724.04   -11483.638    -12724.04            0    1891.3438    23.543434    21.503907    43.864008   -9.1317278    4.2706689    6.1041244    22207.287    1853.1053    2877.6743    943.25181   -255.97656   -1152.9788   -610.86212    23.543434    23.362502    44.492136    84.907583    84.491867    113.00872 
  403000    240.82116   -12746.962   -11507.248   -12746.962            0    2452.0325    23.303779    21.579554    43.964737   -9.2836744    3.4294055    5.5589601    22109.214    2259.1662    3260.6384     1836.293    1483.4763    681.99122    498.69225    23.303779    23.491781    44.447283     85.15867    85.574849    113.27771 
  403500     238.2122   -12734.198   -11507.915   -12734.198            0    2162.7686     23.40307     21.60708    43.825417    -9.220006    4.0844854    5.8814254    22161.287    2612.9286    1692.1854    2183.1919    600.33396   -413.08516    213.66607     23.40307    23.492008    44.406546    85.082657    84.722512    113.10854 
  404000    235.97874   -12780.506   -11565.721   -12780.506            0    1658.7921    23.482234    21.483882    43.870889   -9.1411036    3.8333363    5.9007329    22132.405    747.85319    2105.9772    2122.5458   -386.63898    11.426759    497.21114    23.482234     23.34774    44.431611    84.927017    85.050655     113.0491 
  404500     233.9826   -12717.609   -11513.099   -12717.609            0    1922.8986     23.50713    21.478521    43.817011   -9.4003484    3.6147271    5.6333929    22123.137    1692.7295    1727.2303    2348.7361    1077.2449   -51.951639    387.29791     23.50713    23.445541    44.325295    85.196864    85.322336     113.6372 
  405000    235.41817   -12749.856   -11537.956   -12749.856            0     2280.877    23.427394    21.664869    43.495028   -9.0201655    4.1894686    5.9726761    22075.964    1331.0905    2612.5357    2899.0049   -496.97676   -299.46111   -108.85459    23.427394    23.467636     44.10263    84.922046    84.549047     112.6044 
  405500    235.13513   -12675.021   -11464.579   -12675.021            0    2870.6813    23.409134    21.656637    43.602857   -9.3001056    3.5125678    5.9871617     22105.04    3894.3667    1718.4029    2999.2743   -786.03318    381.13952     275.4448    23.409134    23.569088    44.151935    84.651792    85.436934    113.24035 
  406000    232.80481   -12689.906    -11491.46   -12689.906            0    2363.8931    23.504258    21.546731    43.672457   -9.2671902    3.9550901    5.5724124    22117.477    1362.2448    2699.3725    3030.0621    412.44707    106.98269    350.25466    23.504258    23.455115    44.203824    85.385364    84.866656    113.27241 
  406500    229.77393   -12716.695   -11533.851   -12716.695            0     2980.989    23.513719    21.522441    43.610963   -9.0558126    3.9805925    6.1104095    22070.316    1743.7959    3279.7633    3919.4079   -172.11683   -39.140009     -334.371    23.513719    23.350015    44.216494    84.694712    84.834951    112.81948 
  407000     235.9744   -12726.269   -11511.506   -12726.269            0    2420.1259    23.412497     21.57098    43.825506   -9.4244295    3.6963117    5.6306355    22133.217    1886.0671    2581.5137    2792.7968    526.98801    61.487532    367.30527    23.412497    23.539903    44.340069    85.239494    85.218115    113.60067 
  407500    228.33983   -12707.031    -11531.57   -12707.031            0     2123.302    23.406139    21.655283    43.741772   -9.1381152    3.8441974    5.8095435    22171.242    2563.2793    1175.0985    2631.5281   -384.60747   -37.348543    222.27047    23.406139    23.504391    44.293016    85.003179    85.021027    112.87881 
  408000    238.20776   -12726.154   -11499.894   -12726.154            0    1718.4828    23.568028    21.437768     43.99024   -9.3639628    3.8909226      6.20519     22225.89    2237.4494    2114.4431    803.55583   -588.37314   -676.96091    -1206.426    23.568028    23.393626    44.595795    84.687607    84.994657    113.59558 
  408500     237.3506   -12711.356   -11489.509   -12711.356            0    1846.0576    23.458247    21.431851    44.191942   -9.1984014    3.9591898    5.3395009    22217.661    2835.5198     2523.624    179.02894   -246.93243    89.528314    103.06678    23.458247    23.322411    44.689073    85.707162    84.917266    113.22867 
  409000    240.18083   -12724.741   -11488.324   -12724.741            0    2306.5817    23.377612    21.599918    43.805257   -9.2174297    3.8656559     6.244635    22119.661    2263.0311    3324.0111    1332.7028    234.27878   -265.89961   -640.42991    23.377612    23.484409    44.416655    84.539973    85.007136    113.10961 
  409500    231.99094   -12733.985   -11539.729   -12733.985            0    2735.4923    23.373306    21.618478    43.687157   -9.2109207    3.7854772     5.748546    22074.915    2515.8443    2968.3215    2722.3112    357.93742   -330.37852    220.73091    23.373306    23.498928    44.226048    85.064791    85.089826    113.07726 
  410000    232.40619   -12727.148   -11530.754   -12727.148            0     1809.374    23.603349    21.509207    43.570969   -9.2558049    4.0071139    5.6331069    22120.515    1633.3751    1665.0589    2129.6881   -720.48841   -328.45197    83.010185    23.603349    23.416146    44.115963     85.33172    84.788562    113.28309 
  410500    241.79535   -12715.449   -11470.721   -12715.449            0    1533.9983    23.580269    21.578312    43.740011   -9.2769969    3.8232854    5.9155197    22255.898    1300.9966    1630.6463     1670.352    146.56179    147.44836     255.0527    23.580269    23.488002    44.303493    84.917973    85.049354    113.26395 
  411000    234.55128   -12632.803   -11425.366   -12632.803            0    713.83517    23.454454    21.814525    43.710795   -9.2639064    3.8091946     5.814331    22364.531    860.93737      49.6943    1230.8738   -515.20881    398.23732    246.50363    23.454454    23.700073    44.260027    84.993122    85.062789    113.00932 
  411500    226.39195   -12741.258   -11575.825   -12741.258            0    1453.7381    23.449239    21.603005     43.85065   -9.2507858    3.8376716    5.6838937      22213.6    1176.2189    1157.3186    2027.6767    14.788809    383.09149      618.015    23.449239    23.500359    44.383712    85.199507    85.039683    113.18146 
  412000    235.47592    -12724.47   -11512.273    -12724.47            0    1398.5653    23.521219    21.470863    44.036033    -9.181676    3.9515896    6.0737592    22239.116    792.50331    2174.7368    1228.4558    136.29773   -44.074658   -335.75523    23.521219    23.351684    44.628218    84.817973    84.920113    113.15321 
  412500    236.08214   -12713.853   -11498.536   -12713.853            0    1722.5909    23.431738    21.505567    44.086188   -9.1843338    3.9725477    5.7939719    22215.595    1762.3558    2090.8768    1314.5401   -116.73338   -555.87624    75.779007    23.431738     23.38464    44.642393    85.158015    84.894725    113.12577 
  413000    234.15784   -12744.343   -11538.931   -12744.343            0    1041.6865    23.268249    21.704627      44.0507   -9.2261777    3.6543368    5.7800112    22246.866    1497.6256    792.54005    834.89372    263.21684    340.88491    131.19481    23.268249    23.584172    44.578323    84.994154    85.297865    113.02932 
  413500     238.0554   -12730.441   -11504.965   -12730.441            0    1511.4955    23.405957    21.637716    43.809002     -9.18037    3.8871222    5.9861622    22187.133    2348.3436     268.7595    1917.3835   -436.64245    82.661531     758.4713    23.405957    23.504679    44.386626    84.839412    84.975934    112.99036 
  414000    233.42846    -12721.45   -11519.794    -12721.45            0     2451.551    23.534473    21.422812    43.790609   -9.3291058     3.831336    5.5546753    22078.113    2478.0661    2606.8083    2269.7787   -52.973332   -48.569018   -45.224848    23.534473    23.365982    44.307459    85.387513    85.039348    113.53194 
  414500    228.00931    -12729.19   -11555.431    -12729.19            0    2106.7205    23.597572    21.501983    43.617771   -9.2644325    3.7232249    6.0008674    22131.422     853.7128    3105.5954    2360.8532    678.63229    3.3090912   -4.5084484    23.597572    23.412924    44.185776    84.756847    85.166356    113.30947 
  415000    233.51263   -12724.426   -11522.336   -12724.426            0    2107.9848    23.395243    21.666448    43.633517   -9.1489796    3.9151381    5.6970625    22117.473    2410.0145    1757.4729    2156.4671   -249.12071   -547.24154   -233.85333    23.395243    23.518903    44.177694    85.162734    84.915634    112.89263 
  415500    231.92668   -12708.505   -11514.579   -12708.505            0    1884.6522    23.406401    21.718364    43.623165   -9.3644361     3.549104    6.1470323    22175.781    2528.0293    1259.6904     1866.237    365.55101    985.65561   -512.59469    23.406401    23.651215    44.196863    84.495614    85.394065    113.32454 
  416000    232.63262   -12728.088   -11530.528   -12728.088            0    1829.3545    23.582779    21.508979    43.716219   -9.1683892    4.0422299    5.6029872     22174.68    1302.3386    1820.2118    2365.5133    11.345645   -81.379056    209.59507    23.582779    23.381521    44.258795    85.374398    84.759778    113.08655 
  416500    229.74021   -12711.226   -11528.556   -12711.226            0    1338.1931    23.597275     21.50003     43.82146   -9.3408089    3.7324591    5.9215696    22232.472    1704.7388    1161.6579    1148.1824     137.1105    -53.22225    89.989772    23.597275    23.441459    44.376983    84.901303    85.175267    113.48281 
  417000    227.47868   -12690.379   -11519.351   -12690.379            0    823.65456    23.485397    21.720642    43.728087    -9.130916     3.987912    5.8803801    22306.479    1093.1579    650.46946    727.33634   -115.02643   -110.87377   -148.04739    23.485397    23.561832    44.301556    84.981435    84.835391    112.80089 
  417500    236.33988   -12735.673   -11519.029   -12735.673            0    810.01841    23.402797    21.671374    43.852403   -9.2202062    3.7620526    5.8108882    22240.656    1070.0201    733.91076    626.12435   -328.00908    -84.17144    -200.0536    23.402797    23.551234    44.395413    84.993626    85.138945     113.0476 
  418000    231.61686   -12712.148   -11519.817   -12712.148            0    923.65111    23.548204    21.443251    44.183218   -9.1979244    4.1804247    6.0581837    22310.318    1028.3138    1608.3621    134.27746    181.39744   -455.34371   -211.83104    23.548204    23.332698    44.792123    84.979769    84.644822    113.21656 
  418500    229.68449   -12685.823    -11503.44   -12685.823            0    1273.0523    23.543787    21.460377    44.069444   -9.1794727    3.9818714    5.7622714    22266.463    1876.2714    1295.8694     647.0162    -254.7442   -530.13609    100.93564    23.543787    23.341176    44.622583    85.202489    84.880433    113.15836 
  419000    230.15202   -12682.814   -11498.024   -12682.814            0    2954.5791    23.382982    21.602049    43.864136   -9.2714422      3.74889     5.817761    22156.667    2907.5767    3159.5379    2796.6227   -128.80395    46.594833    767.04804    23.382982    23.507619    44.406789    85.003513    85.157237    113.22866 
  419500    235.59529   -12703.985   -11491.174   -12703.985            0    1968.5423    23.396198    21.690958    43.654774   -9.0841785    3.9964685    5.8594077    22154.184    2760.2438    547.02499     2598.358    -402.2655   -626.92583    152.63285    23.396198    23.516376    44.227183    84.992033    84.815552    112.72395 
  420000    230.12666   -12728.949   -11544.289   -12728.949            0    2073.0229    23.581918    21.461492    43.686462   -9.3876801    3.7124628    5.7409029    22109.856    1877.5084    2363.2878    1978.2725    397.24672   -25.513331    680.86251    23.581918    23.424863    44.218179    85.106569    85.183901    113.62552 
  420500    244.12728   -12677.114   -11420.381   -12677.114            0    2309.9067    23.610841    21.491146    43.640369   -9.2474895    3.7837713    5.7131494    22144.171    800.25983     2876.968    3252.4924   -253.12101     190.0638    459.65364    23.610841    23.396269    44.175093     85.12723    85.086369    113.28187 
  421000    234.08513   -12713.058   -11508.021   -12713.058            0    2882.0436    23.442233    21.682804    43.361193   -9.2687153    3.9605894    5.9487494    22040.206    2577.7285     2238.849    3829.5533   -377.42069   -222.52849   -271.26778    23.442233    23.580777    43.946183    84.891332    84.829281    113.14518 
  421500    240.16251   -12688.833    -11452.51   -12688.833            0    2551.2176    23.356917    21.634507    43.704541   -9.2139883    3.5279216    5.7410555    22084.577    3159.7628    1836.1548    2657.7353    48.672003    98.941984    538.02512    23.356917    23.514877    44.220955    84.940829    85.424114    113.06882 
  422000    237.88811   -12701.673   -11477.059   -12701.673            0    2278.6782    23.517643    21.533871    43.751431   -9.2876618    4.1925089    5.9735906    22156.858     1692.419    2405.3782    2738.2375   -304.30639      79.7691   -391.14194    23.517643    23.451403    44.355931    85.053312    84.576324    113.33077 
  422500    241.53629   -12733.306   -11489.911   -12733.306            0    2081.4934     23.45752    21.434737    44.029559   -9.1945588    3.6436461    5.8223732    22138.316    1938.7921    2889.6557    1416.0324    37.202712    331.43763   -135.21883     23.45752    23.323547    44.562072    84.960467    85.309938     113.2172 
  423000    238.10792   -12722.646     -11496.9   -12722.646            0    2292.0361    23.411572    21.519648    43.952019    -9.247828    3.9131242    5.6690671    22143.414    2552.9093    2648.8796    1674.3194    9.8862254    106.39665    90.752905    23.411572    23.422587    44.488547    85.276526    84.953856    113.25507 
  423500    232.25885   -12710.843   -11515.207   -12710.843            0    2565.1005    23.258926    21.652365    43.896619   -9.1223741    3.6818999    6.5330321     22106.81    3634.3312    1586.5623    2474.4081   -302.74849    -486.8653    -1086.482    23.258926    23.495587    44.532573    84.082706     85.25744    112.84621 
  424000    231.93925   -12755.178   -11561.187   -12755.178            0    924.01456    23.441734    21.598095    43.888571   -9.2122673    3.9982942    5.6606794    22220.642    483.27864    1201.3503    1087.4148    185.77085   -252.06689    1016.6826    23.441734    23.480706    44.432379    85.303318    84.837195    113.09977 
  424500    236.14477   -12691.298   -11475.658   -12691.298            0    1240.3301    23.530884    21.551707    43.850231   -9.3392113    3.8652501    5.8289435      22237.8    834.90887    1100.6044    1785.4769    327.93902   -699.78936    889.27962    23.530884     23.48823    44.404499    85.075911    85.006291      113.429 
  425000    240.41989   -12706.621   -11468.973   -12706.621            0    1231.0093    23.603916    21.586363    43.606297   -9.2121031    3.8249972    5.7866056    22218.398    1190.5124    225.22217    2277.2934   -105.57954   -160.09197    416.72643    23.603916    23.469851    44.154553    85.035745    85.030383    113.11064 
  425500    243.88321   -12721.907    -11466.43   -12721.907            0    1598.2244    23.533201    21.661853    43.549392   -9.2566225     4.027215    5.7176589    22200.293     1354.382    607.00466    2833.2864    28.799545   -136.19432    1251.8722    23.533201     23.55676    44.107365    85.220299    84.761323    113.13817 
  426000    236.04605   -12697.327   -11482.195   -12697.327            0    1812.1323    23.480163    21.636569    43.654973   -9.2779789    3.2995715    5.8153804    22178.044     1286.179    1912.9201    2237.2979    58.171923    970.35368    220.22476    23.480163    23.541921    44.164041    84.745755    85.715341    113.21014 
  426500    239.45714   -12744.081   -11511.389   -12744.081            0    2108.9148    23.550483    21.568389    43.561384    -9.230567    4.4737699    5.7302236     22126.83    1551.1812    2361.6938    2413.8693   -588.29896   -148.21035   -365.54556    23.550483    23.460579    44.163834    85.444302    84.185999    113.16935 
  427000    238.15732   -12741.325   -11515.325   -12741.325            0    2092.5271     23.45875    21.516897    43.795995   -9.2335599    3.6163615    5.6595376    22106.445    1975.7037    1208.1222    3093.7554   -95.547721    449.80715    446.56468     23.45875    23.414429    44.307986    85.112841    85.318384    113.22565 
  427500    237.33424   -12701.207   -11479.444   -12701.207            0    2381.7382    23.380917    21.637447    43.745113   -9.2421923     3.823719    6.1041625    22130.799    2063.8057    2293.0854    2788.3234    940.12921   -77.942052    110.47248    23.380917    23.528647    44.334146    84.678756    85.052223    113.12921 
  428000     238.7233    -12733.33   -11504.416    -12733.33            0    2353.2306     23.34496    21.551238    43.881903   -9.1982645     4.228726    5.5768417    22077.546    3094.9962    2770.2506     1194.445    33.656331   -782.98975   -271.45142     23.34496    23.432113    44.436524    85.522298    84.539282    113.11323 
  428500    236.40718   -12723.167   -11506.176   -12723.167            0    1457.9162    23.478166    21.522223    43.930002   -9.1934003     3.475456    6.0299614    22197.931    795.87805    1808.9118    1768.9589     150.2447    674.66693   -386.24164    23.478166    23.403519    44.477908    84.607417    85.518401    113.13016 
  429000    238.13246   -12699.337   -11473.464   -12699.337            0    1282.8424    23.583252    21.571211    43.735381   -9.3661742    4.4079848    5.6740148    22249.033    1049.9678    1008.5928    1789.9665  -0.81738723   -638.52393   -20.051664    23.583252    23.516853    44.321646    85.536884    84.292244    113.47038 
  429500    235.26535   -12668.216   -11457.103   -12668.216            0    1167.0755    23.424358    21.667129    43.803331   -9.1802891    3.1119032    5.9258721     22231.88    1329.3404    214.10252    1957.7836    112.95155    554.95457    277.11065    23.424358    23.531727    44.311756    84.506237    85.972947    112.96221 
  430000    230.15695   -12742.942   -11558.126   -12742.942            0    2004.3626    23.422483    21.623786     43.72515   -9.3338708    3.9780347     5.837038    22146.036    2017.5001    2178.5018    1817.0857    300.44942    718.57949    196.10875    23.422483    23.552267    44.292037    85.100918    84.847107    113.34736 
  430500    235.71761   -12696.474   -11483.033   -12696.474            0    2574.7969     23.53495    21.476435    43.764689   -9.0284702     3.893076    5.6016313    22120.723      2057.23    2915.5476    2751.6132   -678.17292    454.01594    386.31015     23.53495    23.297007    44.293141    85.266438    84.957571    112.80138 
  431000    230.97362   -12770.245   -11581.226   -12770.245            0    2919.5694    23.496018    21.447189    43.737341    -9.423592    3.7457642    6.0598022    22040.275    1940.8071    2903.2461    3914.6549   -87.876976    870.49624   -755.38722    23.496018    23.426182    44.313733     84.76778      85.1511    113.72001 
  431500    230.26495   -12705.069   -11519.697   -12705.069            0    2360.3717    23.375177    21.607058    43.724083   -9.0619876    3.9611689    5.6035136     22083.67    2261.5933     2224.498    2595.0238   -598.85259   -199.01949    359.88625    23.375177     23.43042      44.2593    85.288469    84.865207    112.75315 
  432000    230.51799   -12661.585   -11474.911   -12661.585            0    3025.5411    23.344028     21.63363    43.742329   -9.2609016    3.7007543    5.9470571    22090.579    2642.0187    2865.4324    3569.1722   -103.45886    364.03055   -295.42497    23.344028    23.532494    44.299599    84.805438     85.20797    113.17475 
  432500    235.05681   -12726.306   -11516.267   -12726.306            0    1925.5916    23.548929    21.488055    43.789799   -9.2865346    3.9309675    5.8748732    22158.545    1826.3066    2256.4602    1694.0078    987.55995   -319.00438    88.149753    23.548929    23.408893    44.356659     85.04225    84.915674    113.37265 
  433000    235.17248   -12722.846   -11512.211   -12722.846            0    2026.5619    23.554779    21.437699    43.872993   -9.1159901    3.7740895     5.661168    22154.118    1669.8975    2053.2417    2356.5463   -195.10881   -213.91495    83.101719    23.554779    23.295412    44.397434    85.177012    85.123577    113.03674 
  433500    233.72665   -12706.248   -11503.057   -12706.248            0    2443.1742    23.411974    21.739056    43.507121   -9.4473003    3.9121805    6.0181969    22143.132    2660.4367    1742.1249    2926.9609     1217.173   -520.58803    301.22797    23.411974    23.703123    44.095276    84.847249    84.909964    113.48867 
  434000    230.80645   -12682.111   -11493.952   -12682.111            0    2623.0329    23.366209    21.663109    43.658876   -9.0924677    3.8253889    5.7374328    22099.456    3040.6265    1893.6661     2934.806    8.3908053   -488.87202    292.13684    23.366209    23.493898    44.200104    85.055216    85.035007    112.76883 
  434500    239.80366   -12681.342   -11446.866   -12681.342            0    1776.2462    23.614022    21.463976    43.796611   -9.5084726    3.8558246    5.8696898    22198.347    1979.7704    1857.6989    1491.2693    52.933376   -614.50307   -360.63242    23.614022    23.475802    44.356102    85.079033     85.01305    113.89319 
  435000    229.49848   -12761.544   -11580.118   -12761.544            0    1066.9618    23.508094    21.499792      43.9954   -9.1059102    3.8549727    5.7519998    22236.117    1189.1023    1622.8939    388.88917   -882.20292    5.1522995    128.58898    23.508094    23.348633    44.536969    85.114342    85.034453    112.95435 
  435500    231.44107   -12739.909   -11548.483   -12739.909            0    2485.8485    23.364161     21.56528    43.835782   -9.2245307    3.7819851    5.7604638    22086.864    2699.6733    2635.4215    2122.4506   -388.44521    78.774724    396.67457    23.364161    23.455346    44.374115    85.075901    85.110776    113.15878 
  436000    246.10037   -12729.802   -11462.912   -12729.802            0     2996.379    23.271044    21.648406    43.815149   -9.1834564     3.699676    6.0586444    22073.239    3322.1976    2679.3348    2987.6045     49.59927    50.316896    -359.2607    23.271044    23.515725    44.386507    84.657576    85.218771    112.98711 
  436500    232.83648   -12758.361   -11559.752   -12758.361            0    2651.9841    23.488815    21.424061    43.746114   -9.1579221    4.0636963    5.7526267    22014.173    1864.9683    3568.5891     2522.395    286.87997   -250.80919    150.97264    23.488815    23.299312    44.309466    85.219923    84.737913    113.14475 
  437000    232.79305   -12717.979   -11519.593   -12717.979            0    2824.8018    23.532302     21.43735    43.786108   -9.3943122    3.5291899    5.8195783    22088.786    2342.9591    3003.9116    3127.5346    924.52412    823.85767   -308.61862    23.532302    23.405407    44.311916    84.932926    85.431882    113.66408 
  437500     245.3104   -12721.722   -11458.899   -12721.722            0    2828.8662     23.44455    21.601205    43.635947    -8.997969    4.2785523    6.0025921    22098.576    3451.0958    2180.4961    2855.0066   -781.37946   -731.25738    -523.2162     23.44455    23.400332    44.254186    84.949473    84.451903    112.61414 
  438000    234.54021   -12711.419   -11504.039   -12711.419            0    2313.8747    23.326635    21.624943    43.784785   -9.3737562    3.4190987    5.6647472    22086.673    2640.6732    1256.8373    3044.1137    537.00473   -164.68161    395.84469    23.326635    23.569163    44.281904    85.028287    85.571665    113.43527 
  438500    234.04603    -12695.03   -11490.194    -12695.03            0    2723.1485    23.524385    21.536161    43.686252   -9.2289771    3.9518523    5.8994385    22132.545     2113.183    2582.8511    3473.4115   -215.53897    190.99308   -83.692986    23.524385    23.430328    44.259565     84.98903    84.877347    113.19678 
  439000    239.62197   -12711.954   -11478.414   -12711.954            0    2999.0722    23.597797    21.429408    43.604579    -9.137409    3.8851101    5.9467036    22050.261    2868.4359    2731.9849    3396.7958    -651.6273   -207.16037   -205.91321    23.597797    23.296175     44.17937    84.875208    84.954923    113.09319 
  439500    241.63025   -12689.783   -11445.904   -12689.783            0    2620.5673    23.426126    21.591586    43.713072    -9.367549    3.7106569    5.6379171    22110.388    3249.7057     2756.186    1855.8101   -375.44671   -748.65708   -651.70503    23.426126    23.536091    44.231072    85.207679    85.187656     113.4537 
  440000    229.90567   -12741.837   -11558.315   -12741.837            0    2341.3138    23.320315    21.644848    43.766607   -9.0147485    3.9694017    6.0347614    22091.837    2991.2167    1942.9827    2089.7421   -882.64038   -270.18916   -816.29204    23.320315    23.447071    44.358656    84.768295    84.866062    112.61098 
  440500    234.30721   -12735.376   -11529.195   -12735.376            0    2388.7464    23.352043    21.535724    44.013346    -9.269141    3.7811491    5.8859687    22134.451    3013.8115    2707.9002    1444.5274    505.28178   -65.638731   -21.917468    23.352043    23.445776    44.565865    84.964595    85.132942    113.28741 
  441000    230.89049    -12787.71   -11599.119    -12787.71            0    2190.8756    23.401968    21.474057    43.961952   -9.1918393    3.7797669    5.7628714    22092.428    2275.4039    2229.0151    2068.2078    214.76983    509.24754   -9.0574176    23.401968    23.358618    44.498883    85.087602    85.127384    113.17305 
  441500    235.40457   -12682.284   -11470.454   -12682.284            0    2365.1441    23.431368    21.496352    43.979651   -9.1978061    3.9599328    6.2216307    22152.064    2534.8009    3096.4266    1464.2046    256.58151    324.05513   -753.12725    23.431368    23.381463    44.593716     84.64437     84.90541    113.16499 
  442000    234.97969   -12722.471   -11512.829   -12722.471            0    2143.1543    23.389215    21.564171    43.889208   -9.2318413    3.8501878    5.3732688    22136.357    2727.1114    2020.3488    1682.0027    -608.9262   -383.40991    -57.68978    23.389215    23.457203    44.384215    85.575089    85.023521    113.17626 
  442500    236.30893   -12687.345    -11470.86   -12687.345            0    1547.7645     23.49868    21.638729    43.736166   -9.2290356    3.8357692    5.9867028    22239.034    1920.4117    947.64461    1775.2373    300.22978    396.87614   -366.99642     23.49868    23.524662    44.310337    84.818209    85.033917    113.09851 
  443000    236.35369   -12734.963   -11518.248   -12734.963            0    1210.0067    23.672772    21.493596    43.717306   -9.3461347    3.6800677    6.0277506    22243.933    1335.9114    1271.9654    1022.1431   -648.50909     615.3492    -556.4625    23.672772    23.437681    44.284077    84.739322    85.233145    113.50102 
  443500     234.4895   -12697.939    -11490.82   -12697.939            0    884.23105    23.486113    21.581134    43.949154   -9.1346289     4.094581    5.4740758    22275.933    329.53222    1797.6495    525.51142   -347.73341    187.69643    147.38034    23.486113    23.434734    44.477626    85.557635    84.717909    112.94144 
  444000    234.10567   -12715.386   -11510.243   -12715.386            0     1374.359    23.375476    21.717184    43.846604   -9.3481035    3.7525987    6.2296009    22258.707    1722.9348     1076.256     1323.886    363.92628    113.63457   -240.12119    23.375476     23.64367    44.445636    84.527965    85.156682    113.28933 
  444500    231.98633   -12751.852   -11557.619   -12751.852            0    1927.7841    23.437099     21.54605    43.818342   -9.1865624    3.8487079    5.4799556    22127.251    1768.6549    1733.5404    2281.1572    415.71321   -154.49243    282.38453    23.437099     23.42275    44.327075    85.430587     85.01901    113.09188 
  445000    246.64477    -12760.94   -11491.247    -12760.94            0    1711.7417    23.568214    21.491122    43.739816   -9.2534602    3.9981888    5.9714869    22154.539    1185.9312      1897.36    2051.9339    567.13125   -393.78819    -310.0496    23.568214    23.398608    44.326242    84.947797    84.824937    113.29532 
  445500     239.2018   -12712.994   -11481.617   -12712.994            0    2413.8312    23.502596    21.463485    43.784041   -9.3669088    3.5917773    5.8226263    22086.754    1437.4581    3377.4552    2426.5802    246.68663    342.25109   -172.37672    23.502596    23.418372    44.315303    84.951204    85.351049      113.577 
  446000    235.11483   -12687.472   -11477.134   -12687.472            0    2159.7639    23.346817    21.668933    43.726548    -9.032997    4.1705524    5.7273609    22121.287    2103.0195    2854.6344    1521.6379    -558.0185   -355.35078   -19.429546    23.346817    23.476322    44.296807    85.232375    84.597591     112.6295 
  446500    235.84463   -12732.201   -11518.106   -12732.201            0    2277.9973    23.413092    21.592145    43.764611   -9.3821967    3.5762441    5.9710644    22124.713    2278.4994    2557.2347    1998.2577    681.02574    346.96828   -404.73197    23.413092    23.542437    44.314606    84.754753    85.371125    113.48586 
  447000    232.67137   -12671.869    -11474.11   -12671.869            0     2321.896    23.551544    21.443882    43.812192   -9.0117571    4.1406978    5.7049196    22126.757    1917.4467    3235.8803    1812.3611   -193.07066   -663.41739     612.9229    23.551544    23.260521    44.375665    85.275291    84.645936     112.7945 
  447500    234.03203   -12736.887   -11532.123   -12736.887            0    1697.6671    23.455789    21.551623     43.86251   -9.2732066    3.8780799    5.8264692    22172.952    1649.5466    2203.6721    1239.7827    172.77877   -600.30455    716.92778    23.455789    23.461986    44.417418    85.067284    84.991134    113.28119 
  448000    233.70662   -12705.643   -11502.554   -12705.643            0    1925.5685    23.345063    21.649201    43.911995   -9.3196667      3.51929    5.9084593    22193.209     2919.286    1372.5169    1484.9027    329.62526    416.49336     234.7623    23.345063    23.569982    44.447257    84.790872    85.458623    113.29118 
  448500    232.83089   -12743.801    -11545.22   -12743.801            0    2012.2645    23.468135    21.591581    43.801712   -9.0398005    4.3093442    5.7824762    22194.947    2095.3728    1623.9634    2317.4572   -600.89302   -359.33166    53.402804    23.468135    23.407571    44.391412    85.258212    84.429177    112.71772 
  449000    234.81194   -12740.276   -11531.497   -12740.276            0    1895.1511    23.544456    21.474848    43.923919   -9.3671048    3.5245693    5.9916895    22208.531    1576.3321    2590.1462    1518.9751    147.95259    475.28465   -201.00078    23.544456    23.428866    44.470592    84.732301    85.454188    113.56633 
  449500    231.59326   -12721.883   -11529.674   -12721.883            0    1858.1687    23.448467    21.554417    43.888906   -9.1879885    3.9691528    5.7335437    22182.244    2169.4212    1532.0099    1873.0749   -1028.5301   -346.16942      279.917    23.448467    23.431006    44.439439    85.200872    84.875742    113.08707 
  450000    237.83362   -12720.957   -11496.623   -12720.957            0    1617.5944    23.392403    21.707396    43.727955   -9.1342866    3.8992229    6.0751406    22204.537    1634.4304    421.35443    2796.9983   -101.38175   -102.53885    317.94464    23.392403    23.550928    44.319808    84.708546    84.952635    112.82094 
  450500    235.63429    -12711.33   -11498.318    -12711.33            0    2111.6476    23.434749    21.597286    43.736092   -9.3184433      3.65486    5.6704718    22136.016      2076.11    2235.9607    2022.8721    136.77623    106.18457   -189.81428    23.434749    23.521823    44.253339    85.127783    85.262576    113.33844 
  451000    227.67268   -12770.388   -11598.361   -12770.388            0    2330.4924    23.561213     21.52987    43.519109   -9.0581771    4.1982943    6.2253177    22075.932    1990.6554    1863.2499    3137.5718   -542.15128   -301.81519   -218.73648    23.561213    23.357779    44.162123    84.659922     84.54491    112.81776 
  451500    236.02896   -12744.321   -11529.277   -12744.321            0    2270.8356    23.531143    21.464324    43.747981   -9.3204787    3.6560407    5.5960191    22096.234    2482.9697    1680.3838    2649.1532    552.06872   -411.03476    386.12138    23.531143     23.40061     44.25571    85.234363    85.261296    113.47199 
  452000    239.25607   -12714.923   -11483.267   -12714.923            0    2315.6575    23.348334    21.611397    43.828503   -9.1871853    3.7872821    5.7922428    22115.429    2541.0317       3129.8    1276.1408    753.55494   -530.26907   -202.29331    23.348334    23.483119    44.371514    85.023772    85.103624    113.03075 
  452500    234.62578   -12740.715   -11532.895   -12740.715            0    2661.4726    23.342478    21.642169    43.783036   -9.1544253    4.0116639    6.4282338    22118.396    2659.8136    2700.5811    2624.0233   -172.18288    132.00455   -414.64813    23.342478    23.498659    44.433883    84.372069     84.82006    112.92789 
  453000    225.15463   -12734.303   -11575.238   -12734.303            0    2592.2935    23.427857    21.466625    43.867063   -9.2111027    3.7413438    5.3727958    22061.492    3052.2909    2584.4113    2140.1781   -856.96571    226.56889    817.31711    23.427857    23.359375    44.352945    85.522977    85.161128    113.22366 
  453500     244.5628   -12691.869   -11432.894   -12691.869            0    2092.4773    23.482684    21.556687    43.807484    -9.299089    3.8277465    6.0188904    22175.737    2391.2876    1758.4777    2127.6666     218.7467   -528.35987    141.87759    23.482684    23.476879    44.384393    84.815846    85.052619    113.33432 
  454000    238.46855   -12713.096   -11485.494   -12713.096            0    1300.2988    23.519096    21.626679    43.686971   -8.9929483     4.166708    5.6474896    22220.939     1399.728    1539.7274    961.44108   -888.92977   -45.801652   -381.04631    23.519096    23.421921    44.247114    85.313963    84.596505    112.57884 
  454500    237.05643   -12695.555   -11475.222   -12695.555            0    1285.2543    23.486977    21.576382    43.753282   -9.3993828    3.6290004    5.6001827    22172.588    1574.3354    1042.2454    1239.1822    447.66465    312.17103    284.27725    23.486977    23.534839    44.259252    85.224309      85.2968    113.53953 
  455000    236.23895   -12716.415   -11500.291   -12716.415            0    1633.7077    23.535481    21.622496    43.614958   -9.1381176    4.0737608    6.2990689    22195.471    1274.3883    1485.8399    2140.8949   -784.79039    34.094538   -673.39595    23.535481    23.474188    44.255377    84.532975    84.718378    112.90993 
  455500    235.27947   -12748.517   -11537.331   -12748.517            0     1958.943    23.463752    21.526521    43.800587   -9.2053849    3.8985858    5.5751219    22123.367    571.57835    2923.9706      2381.28    68.066798   -296.10494    376.91072    23.463752    23.412181    44.325753    85.350283    84.954141      113.153 
  456000      235.883   -12658.431   -11444.139   -12658.431            0    2152.2712    23.430394    21.455923    44.153528   -9.3967316    3.6264964    6.0291751    22196.894    2195.2305    2975.8597    1285.7235    174.74524    -63.10594   -195.22497    23.430394     23.42339    44.710586    84.779827    85.347602    113.65126 
  456500    227.93352   -12722.259   -11548.889   -12722.259            0    2270.9495     23.38016    21.557035    43.980911   -9.1009928    4.0143623    5.8752325    22166.684    3376.1566    1845.0874    1591.6043   -96.707414   -369.26639   -71.476421     23.38016    23.399441    44.552822    85.040985    84.830442     112.8886 
  457000    226.66911   -12716.232   -11549.371   -12716.232            0    1229.9936     23.40495    21.592482    44.078334   -9.3552884    3.8811709     5.801414     22275.91    1865.4918    1316.7724    507.71661    799.10513     -496.042   -64.950321     23.40495    23.532036    44.627563    85.140819    85.010797    113.42544 
  457500    241.15739   -12716.812   -11475.368   -12716.812            0    867.76994    23.478844    21.598269    43.970056   -9.1454587    3.6937444    5.9553492     22297.32    282.92636    2201.4972    118.88623    -594.1149      431.043   -860.87089    23.478844    23.454736    44.525002    84.789277    85.241337    112.94949 
  458000    232.44172   -12736.714   -11540.137   -12736.714            0    1077.9237    23.569295    21.582359    43.673874   -9.3216669    4.0553937    5.8040816     22216.07    768.50195    458.77418     2006.495   -428.46705    727.50549    528.81145    23.569295    23.509396    44.244105    85.176504    84.740914    113.36007 
  458500     238.8705   -12749.923   -11520.251   -12749.923            0    1498.2633     23.56262    21.604629    43.450868   -9.1579328    3.4592301    5.9078986    22119.172    1066.5868    925.37622    2502.8268   -110.32393   -79.880647    310.61431     23.56262    23.465458    43.986901     84.66565    85.489472    112.97148 
  459000    234.46182   -12718.558   -11511.582   -12718.558            0    1893.7293    23.490078    21.678207    43.429853   -9.3201406    4.1305671    5.6942078    22115.471    1934.6486    1111.4904     2635.049   -351.98236   -657.04798    345.79222    23.490078    23.596815    43.995883    85.306798    84.612834    113.26438 
  459500    232.87128   -12721.635   -11522.846   -12721.635            0    1403.9118    23.464962    21.656071     43.66763   -9.1239007    3.5475888    5.9429932    22190.094    1209.3165   -89.091285    3091.5101   -469.04377    796.35839     1125.028    23.464962    23.499595    44.212741    84.679912    85.397693    112.84614 
  460000    233.90865   -12676.895   -11472.766   -12676.895            0    1995.9719    23.551801    21.508751    43.781932   -9.3507834    4.0483973    5.7496298    22178.606    2105.8957    2251.4829    1630.5371    180.06612    37.993964    353.67645    23.551801    23.453433    44.343041    85.267059    84.761759    113.49667 
  460500    234.12718   -12707.967   -11502.713   -12707.967            0    2168.7595    23.386216    21.523382     44.09386   -9.1887588    3.7370109    5.9749148    22194.665    2955.3797    1417.4366    2133.4623   -614.43822    -128.7628    205.60572    23.386216    23.402762    44.653481    84.824802    85.199351     113.1186 
  461000    243.67854   -12697.977   -11443.555   -12697.977            0    1988.9892    23.381679    21.636069    43.901546    -9.132143    3.9014385    5.7929561    22209.249    2455.0954    1327.6328    2184.2395    151.25127    1034.1027    151.12537    23.381679    23.484368    44.453631    85.070475    84.965002    112.88361 
  461500    224.34008   -12708.471     -11553.6   -12708.471            0    2014.9093     23.47565    21.561652    43.804697   -9.4906425    3.9019532    5.9877108    22172.789    1736.2028    1707.0625    2601.4625    39.533711    368.80274   -8.0161621     23.47565    23.557953    44.383886    84.948104    84.956403    113.75732 
  462000    230.85886    -12695.92   -11507.492    -12695.92            0    1846.1628    23.581298    21.474892    43.849299   -8.9335542    3.8556228    5.8736738     22205.54    1204.8574    1926.8087    2406.8224   -587.85837    642.78979   -204.41615    23.581298    23.258963    44.408636    84.907057    85.019226    112.58731 
  462500    238.69332   -12662.902   -11434.142   -12662.902            0    1589.8234    23.541682    21.611822    43.674078   -9.4650096    3.9575713    5.7724498    22220.437    254.00363    2357.4034     2158.063    -103.0227    629.52296    144.00245    23.541682    23.593585    44.231308     85.20162    84.866628    113.65126 
  463000    236.95132   -12681.753   -11461.961   -12681.753            0    2595.2597    23.422437    21.693932    43.527974   -9.0606437    3.3429659    5.9300347    22117.641    2031.3839    2004.8633    3749.5319   -1008.3775    1010.8706    462.28476    23.422437    23.510039    44.057068    84.551074    85.648324    112.66824 
  463500    228.43621   -12699.739   -11523.782   -12699.739            0      2643.54    23.509537    21.600082    43.548085   -9.2878227    4.1547857    5.8325274    22114.063    3079.1834    2555.9393    2295.4974    243.81135    41.911102     60.68788    23.509537    23.512277    44.132939     85.16872    84.598032    113.26723 
  464000    238.34947   -12741.488   -11514.499   -12741.488            0    2341.6374    23.457189    21.549603    43.786295   -9.2127663    3.6383274    5.8836247     22133.67    2822.7098    1291.9006    2910.3017     52.24973   -220.31907    239.74242    23.457189    23.436306    44.329381    84.849229    85.292162    113.14741 
  464500    233.06397   -12699.542   -11499.762   -12699.542            0    2776.6586    23.336344    21.540094    43.926993   -9.2045697    4.2174874    5.5942398    22080.652    2942.4327    2983.0323    2404.5108    172.54765    3.7287799    191.04301    23.336344    23.424341     44.48217    85.503937    84.559444    113.13811 
  465000    226.53478   -12677.707   -11511.538   -12677.707            0    2466.5832    23.329343    21.539419    44.044799   -9.1893794    3.6425738    6.0518207    22132.533      2955.41    3119.6284    1324.7111    196.17098    18.042807   -666.34626    23.329343    23.417755    44.607591    84.678599    85.316117    113.10459 
  465500    235.65359   -12750.939   -11537.828   -12750.939            0    2518.5578    23.348008    21.495608    43.994447   -9.2247519    4.0732208     5.785224    22079.916    2831.1003    2908.2333    1816.3398   -57.212036   -449.00358   -572.62351    23.348008    23.391392     44.55975    85.224061    84.755253    113.22639 
  466000    240.02785   -12712.559   -11476.929   -12712.559            0    1520.5125     23.45446    21.575258    43.923481   -9.1104099     3.907474    6.0335238    22226.864    994.11514    2589.4686    977.95384   -757.56456    1202.7208   -971.94986     23.45446    23.419891    44.507796    84.794279    84.963346    112.89248 
  466500    227.91413   -12680.516   -11507.246   -12680.516            0    1778.3688    23.518768    21.575387     43.65963   -9.3948891    3.7126804    5.6393957    22154.054    961.41649    1819.8101    2553.8799    403.97236   -98.397854   -56.743269    23.518768    23.532132    44.178616    85.211116    85.179294    113.53046 
  467000    237.83424   -12701.739   -11477.402   -12701.739            0    1651.5474    23.528347    21.617604    43.646017   -9.1802556    3.8926681    5.8820772    22199.521    1534.2082     1620.848    1799.5861   -354.20644    316.47342    421.92725    23.528347    23.486121    44.212289     84.94902    84.948856    113.00927 
  467500    232.43399   -12772.266   -11575.729   -12772.266            0    2109.5379    23.461073    21.582834    43.608306   -9.2605132    3.5289143    5.9431312    22081.347    1595.4988    2080.1886    2652.9262   -54.011055    641.56845   -156.35248    23.461073    23.485652    44.152672    84.710766     85.41573    113.22264 
  468000    231.82768    -12711.51   -11518.094    -12711.51            0    2717.3477    23.326016    21.661617    43.715826   -9.2010822     4.097754    5.6653005    22088.699    3119.9948    2152.8401    2879.2081   -199.75072    388.15576   -37.846033    23.326016    23.534773    44.271443    85.319722    84.689115    113.01405 
  468500    231.57258   -12725.109   -11533.006   -12725.109            0     2226.165     23.47698    21.513523    43.864412   -9.1822732    3.6792002    5.9996741    22154.711     2082.109    2939.0115    1657.3745   -1118.7374    481.16421   -657.88048     23.47698    23.391149    44.425435     84.73861     85.24947    113.11347 
  469000     237.5517    -12711.85   -11488.967    -12711.85            0    1598.9532    23.552265    21.393619    44.002704   -9.4471365    4.0276214    5.5371888    22171.563    973.72015    2696.3113    1126.8283    159.66649    417.15524    467.06253    23.552265    23.386649    44.532237    85.571791    84.810917    113.82561 
  469500     232.6185    -12729.02   -11531.533    -12729.02            0    1912.3447     23.38806    21.647381    43.795111   -9.0222512     3.766597    5.9343267    22173.038    2306.4759     1966.511    1464.0471   -790.50041   -405.13203   -725.15965     23.38806    23.452294    44.355555    84.788947    85.128675    112.62552 
  470000    233.77005    -12691.49   -11488.075    -12691.49            0    2329.9057    23.418278    21.632048    43.772526   -9.3444015    4.0032755    5.9653707    22174.519    2606.4895     1839.981    2543.2465   -16.773147    285.59099   -612.66173    23.418278    23.564026    44.358155     84.97057    84.822073    113.36291 
  470500    234.82142   -12706.927   -11498.099   -12706.927            0    1451.6888    23.536916    21.472842    43.968987    -8.919013    3.3145068    5.2443432    22222.124    757.37536    2039.2088    1558.4822   -462.02662    541.82143    649.30254    23.536916    23.251489    44.404515    85.386318    85.719263    112.55616 
  471000    240.04657   -12749.679   -11513.953   -12749.679            0    1401.7751    23.524517    21.540705    43.799055   -9.3432042    4.0008221    5.9722984      22194.5    1488.4118    674.98152    2041.9321    457.23689   -786.50331     577.1475    23.524517    23.479724    44.385044    84.975839    84.828398    113.44862 
  471500    235.10154   -12708.326   -11498.056   -12708.326            0    2595.0205    23.394013    21.598518    43.764702    -9.132407    3.6582865    5.5632528    22113.254    3605.3057    1397.6058      2782.15   -471.26774    89.295479    675.11846    23.394013    23.449879    44.268296    85.206412     85.25973    112.91989 
  472000    237.73203   -12705.784   -11481.973   -12705.784            0    2719.4996    23.364718    21.714849    43.501759   -9.2933585      4.07882    6.0432212     22071.11    2946.0801    2052.3718    3160.0469    48.318099   -234.40004    -218.7393    23.364718    23.619932    44.108506    84.860904    84.694141    113.16959 
  472500    234.40976   -12710.721   -11504.013   -12710.721            0    2005.5823    23.570111    21.566956    43.591663    -9.206768    3.8849074    5.9077725    22159.192    2257.6229    923.18614    2835.9378    218.05366   -470.07556   -451.84781    23.570111    23.449908    44.161378    84.922882    84.953126    113.11726 
  473000    241.69264   -12712.903   -11468.704   -12712.903            0    2369.9957    23.488803     21.39853    43.958731   -9.3641398    3.6989167     5.548221    22094.794    3176.8936      2239.97    1693.1235    14.200821    -23.53008   -59.701711    23.488803    23.357744     44.46161     85.35582    85.227848    113.63451 
  473500    240.67619   -12700.492   -11461.525   -12700.492            0    1689.5899    23.314811    21.668746    44.007935   -9.0880959    3.9644401    6.1771084    22232.928    1777.8925    2140.4253    1150.4519    148.47284   -563.15801    51.356156    23.314811    23.497405    44.615824    84.646004     84.90213    112.75368 
  474000     238.5944   -12744.038   -11515.787   -12744.038            0    1512.1054    23.377855    21.582882    43.961087   -9.2482409    3.7838145    5.7314204    22181.072    1654.2696    1960.0289    922.01759   -163.32964     162.6402    254.50981    23.377855     23.48086     44.49431    85.129372    85.121651    113.19508 
  474500    243.04307   -12735.609   -11484.458   -12735.609            0    2205.7169    23.440067    21.448844    44.023672   -9.2510335    3.8861548    5.8293986    22133.444    2351.8663    2788.6338    1476.6506    211.95826    367.30276    130.21382    23.440067    23.358821     44.57766    85.092277    84.998767    113.33087 
  475000     235.4606   -12732.285   -11520.167   -12732.285            0    2811.2028    23.484918    21.516951    43.704611   -9.1367833    3.9919462    5.9512289    22084.981    2861.2873    2461.9275    3110.3937   -721.53151   -597.73865   -1108.0815    23.484918    23.376484    44.288212    84.925211     84.82859    113.00762 
  475500    237.17188   -12765.159   -11544.231   -12765.159            0     1723.033     23.48264    21.626337    43.573655   -9.3710319    3.6401864    5.5973286    22128.597    1740.0908    1315.8264    2113.1818    313.09561    816.17316    528.16896     23.48264    23.569359    44.082246    85.200169    85.263284    113.42784 
  476000     242.3226   -12700.507   -11453.064   -12700.507            0    1983.5935    23.525729    21.667803    43.419576   -9.1421679    3.8762711    6.0162407    22133.166    1224.7285    1601.2793    3124.7728   -286.93367    168.10859   -242.11808    23.525729    23.517502    44.005457    84.737417    84.946486    112.87605 
  476500    243.29692   -12742.363   -11489.905   -12742.363            0     1809.557       23.501    21.626291    43.526816   -9.2569832    3.8987565    5.8189499    22122.046    2085.5527    1691.6563    1651.4618     -899.403    185.86715   -99.567411       23.501    23.524205     44.08678    85.035392    84.926495    113.17301 
  477000    236.45721   -12692.463   -11475.214   -12692.463            0    2564.5194    23.468839    21.513824    43.728074   -9.3164567    3.7192567    5.7194635      22078.5    2708.1561    2600.9662    2384.4359   -156.79074    35.274472   -545.97014    23.468839    23.444423    44.257085    85.112737    85.179318    113.41479 
  477500    246.31869   -12693.956   -11425.942   -12693.956            0    2517.8797    23.441216    21.511519    43.934391   -9.0573474     4.060366    6.0154409    22154.187    2570.9589    3014.4469    1968.2333   -350.90257    137.47409   -687.45831    23.441216    23.340544    44.529797    84.887112    84.768325    112.83335 
  478000    234.88823   -12710.631   -11501.459   -12710.631            0    2571.1609    23.290287    21.588075    43.941274    -9.232434    3.7378209    5.8117751    22093.342    2823.6106    2304.0568    2585.8152     183.4222    13.593121    66.640201    23.290287    23.479413    44.481273    85.003805    85.179675    113.15463 
  478500    235.66758   -12761.433    -11548.25   -12761.433            0     2024.595    23.361995    21.549045    43.948837   -9.2007664    3.8869441    5.7673476    22125.104    2622.7571    1749.6963    1701.3316    21.264742   -11.695028    221.85824    23.361995    23.431078     44.49574    85.129579    84.988515    113.12096 
  479000    234.11637   -12725.935   -11520.736   -12725.935            0    2341.9529    23.556693    21.423482    43.878402   -9.2424268    3.9005022    5.9906246    22143.954    2149.0904    2918.0759    1958.6923   -195.37272   -375.11335   -363.11049    23.556693    23.332124    44.456897    84.895441    84.966585    113.33613 
  479500    237.43062   -12760.582   -11538.322   -12760.582            0    2207.3443    23.472664    21.561846    43.622066   -9.2465757    3.8039323    5.7110059    22077.737    1544.4512    3548.9579    1528.6239    97.206975   -848.05219   -793.05503    23.472664    23.460869    44.158466    85.129147    85.058259    113.21158 
  480000     239.9816   -12712.187   -11476.796   -12712.187            0    2281.4364    23.462797    21.713249    43.421411   -9.2205862    3.7723847    5.9387362    22121.192    2192.2585    1485.7894    3166.2613   -418.24343     236.2145    257.16036    23.462797    23.589921    43.987708    84.793388    85.080272    113.00863 
  480500    236.81641   -12683.975   -11464.877   -12683.975            0    2051.1666    23.564075    21.604996    43.416018   -9.2779598    3.8772066    5.7997245    22103.171    1238.0593    2310.6445     2604.796    272.41217    213.06279    307.31474    23.564075    23.512899    43.972948    85.043533    84.941516    113.24042 
  481000     224.8324   -12764.773   -11607.367   -12764.773            0    1711.8566    23.632225    21.487239    43.476867    -9.288342    3.6758556    5.5949644    22077.174    438.24319    2471.0095    2226.3171    357.91931   -27.972457    303.50376    23.632225    23.408861    43.989243    85.204943    85.206626     113.3775 
  481500    230.03366   -12657.955   -11473.774   -12657.955            0    2342.9708    23.481712    21.611134    43.752823   -9.2651816    3.8780844    5.9085912    22203.089    2730.7264    2118.7233    2179.4627   -54.929757    382.47197   -454.10965    23.481712    23.513501    44.319979     84.94847    84.980088    113.20591 
  482000    227.12491   -12761.746   -11592.539   -12761.746            0    1803.7424    23.379226    21.562337    43.880265   -9.1342874    3.9682775    5.7846586    22120.513    653.56175    2920.1216    1837.5437  -0.47971957    676.28609   -262.34332    23.379226    23.417293    44.437452    85.122209    84.876645     112.9586 
  482500    241.48823   -12706.771   -11463.623   -12706.771            0    1628.4129    23.406161    21.452405    44.213003    -9.314201    3.5806888     6.120453    22200.165    1388.0138    2586.8205    910.40435    387.17959    576.34988    -537.1875    23.406161    23.387177    44.778018    84.633302    85.413427    113.46951 
  483000    233.46647   -12751.232   -11549.379   -12751.232            0    2002.6302    23.397225    21.510507    43.925238   -9.1538223    4.0562294    5.7697828    22106.965    1896.3781    2759.8422    1351.6702    348.54407   -135.73516    123.38623    23.397225    23.377219    44.487863    85.202445     84.76873    113.05224 
  483500    241.47349   -12723.452    -11480.38   -12723.452            0    2446.5453    23.340192    21.561143    43.904483   -9.2945376    3.6608753    6.0330293    22094.545     3389.075    2657.1651    1293.3958   -45.123453    103.65771   -482.83115    23.340192    23.479168    44.468001    84.721419     85.27772    113.31982 
  484000    239.67452   -12718.851   -11485.041   -12718.851            0    2251.7353    23.432469    21.579024    43.728248   -9.0752317    4.1941768    5.7817529     22111.18    1546.8418    2561.9321     2646.432    583.54186   -376.40273    80.538637    23.432469    23.409701    44.307781    85.205093    84.568246    112.80958 
  484500    231.11177   -12705.647   -11515.916   -12705.647            0    1846.1083    23.518647    21.536767    43.773877   -9.2897847    3.6391823    5.9541626    22172.152    1805.2181    1523.1523    2209.9544   -16.291058    348.10899   -26.625799    23.518647    23.454902    44.326606    84.789062    85.290758    113.33273 
  485000    237.39449   -12695.258   -11473.184   -12695.258            0    1709.7534    23.545946    21.661075    43.567878    -9.244293    3.9874432      5.80362    22220.947    942.82595    1190.7378    2995.6964    422.34241   -10.121116    579.35393    23.545946    23.551202    44.133227    85.096127    84.816249    113.11133 
  485500    232.72847     -12710.1   -11512.046     -12710.1            0    2073.3724    23.464023    21.659196     43.57162   -9.1645819    3.9050818    5.7065507    22143.614     2354.594    458.99621    3406.5269   -297.64527   -187.99525    785.53307    23.464023    23.518298    44.116895    85.145105    84.921721    112.93451 
  486000    228.42585   -12793.997   -11618.093   -12793.997            0    1717.9093    23.602669    21.496199    43.567983   -9.4951628    3.7394476    5.9397762    22104.986    1774.2351    1367.7257    2011.7672    862.15476   -693.38684   -91.135741    23.602669    23.499887    44.129735    84.900628    85.139064     113.8317 
  486500    243.71217    -12750.21   -11495.614    -12750.21            0    1818.4612    23.409269    21.633973    43.778219   -9.0314611    3.9515307    5.6783839    22170.844    1097.0406    1963.4172    2394.9258    144.65214   -346.35056    645.82664    23.409269    23.443466    44.321451    85.188237    84.884936    112.65891 
  487000    229.06652   -12752.269   -11573.067   -12752.269            0    1031.8826    23.405819    21.583886    44.023529   -9.2656752    3.8152428    5.9423385    22240.181    2181.0866    958.27877   -43.717643   -378.61978   -138.17388   -127.12862    23.405819    23.488654    44.586305    84.910358    85.091207     113.2332 
  487500    241.84233   -12756.077   -11511.107   -12756.077            0     1838.433    23.461132    21.421185    44.033826   -9.3044109    3.9710221    5.8339363    22129.871    1347.3313    2834.7132    1333.2546   -587.78393   -735.16042   -1022.0755    23.461132     23.35464    44.595759    85.151979     84.89134    113.47798 
  488000    241.56882   -12728.049   -11484.486   -12728.049            0    2512.9313    23.424571    21.557853     43.77224   -8.9798594    3.8307066     5.793433    22104.257    2701.0913    2497.0463    2340.6563   -712.05426   -281.37541    200.82352    23.424571    23.353349    44.319828    84.984043    85.041553    112.61402 
  488500    237.37598   -12708.729   -11486.751   -12708.729            0    2132.1935     23.42079    21.645541    43.621464   -9.4718113    3.7620011    5.9792247    22114.148    1912.4329    2374.6766    2109.4711   -2.6552647    616.70804    -554.8927     23.42079    23.627201    44.189772    84.846127    85.116336    113.63357 
  489000    234.57251   -12740.267   -11532.721   -12740.267            0    2009.4274    23.487091     21.57462    43.670248   -9.0494568    3.7936113    5.6116372    22128.809    1176.3588    2394.2486    2457.6747   -234.12152    867.55365    775.69867    23.487091     23.39566    44.192449     85.18758    85.075499    112.75557 
  489500     227.4469   -12685.307   -11514.443   -12685.307            0    1895.0387    23.700686    21.460218    43.449482   -9.6268042    4.0672138     6.198845    22099.357    1132.6284    2067.2441    2485.2437    491.54225    89.249742    -114.0585    23.700686    23.520551    44.077493    84.804825    84.705548    114.16045 
  490000    241.30117   -12735.539   -11493.354   -12735.539            0    1163.0943     23.49477    21.578755    43.824825   -9.1899068    3.6430917    5.7354133    22218.656    900.67296    1358.2138    1230.3962   -101.22939    564.09873    162.19134     23.49477    23.454148     44.34842     85.02057    85.288011    113.06806 
  490500    238.41498   -12695.727     -11468.4   -12695.727            0    2214.6163    23.406415    21.634215     43.71993   -9.1829124    4.2210881     5.718551    22138.873    2520.2108     2030.523    2093.1151    118.51126   -807.86253    255.00799    23.406415     23.50245    44.293924    85.319041    84.531573     112.9994 
  491000    233.49452   -12679.443   -11477.447   -12679.443            0    2232.0552     23.39963    21.577391    43.942609   -9.2172739    3.4700192    6.2322904    22186.754    2468.7261      2400.08    1827.3595    106.29156    446.56793   -585.25007     23.39963    23.463631     44.51781    84.369008    85.529445    113.13085 
  491500    233.69867   -12729.233   -11526.186   -12729.233            0    2197.7092    23.421607    21.485834    44.005114   -9.1693562    4.1027904    5.6818013    22144.815    1888.3154     2657.924    2046.8883   -74.213722   -807.10185    273.01966    23.421607    23.360611    44.559688    85.346109    84.717064    113.11099 
  492000     235.3253   -12715.186   -11503.764   -12715.186            0    1630.7167    23.458444    21.586423    43.898571   -9.2921986    3.6870967    5.9064271    22229.529    1639.8073    1165.7213    2086.6216   -111.24554    283.43558  -0.96492657    23.458444     23.50146    44.447329    84.879049    85.241601    113.29018 
  492500    220.87247   -12712.875   -11575.855   -12712.875            0    865.22928    23.480417    21.657364    43.775623   -9.1447393    3.8707012    6.0848402    22260.952    559.69734    983.63529    1052.3552   -317.92866    194.68532   -169.05124    23.480417    23.508885    44.365671     84.69759    84.994843    112.89172 
  493000    235.07554   -12776.305   -11566.169   -12776.305            0    1094.5554       23.531    21.511899    43.849721   -9.2905787    4.0436379    5.4903788    22196.575    626.79944    1011.0063    1645.8605   -145.02221   -192.97383    505.40917       23.531    23.432385     44.37672    85.557763    84.771916    113.35859 
  493500    239.95517   -12679.068   -11443.813   -12679.068            0    1340.6014    23.577913    21.573601    43.713747    -9.270664    3.6283856    5.9570239    22235.456    661.19913    1850.3874    1510.2177    650.87441    -307.4674   -150.41783    23.577913    23.481173    44.266725    84.762899    85.298395    113.25429 
  494000    244.58625   -12704.915   -11445.819   -12704.915            0    1592.5476    23.460298    21.748417    43.468871   -9.3616852    4.2035227    5.8076431    22178.877    2077.6408    69.898156    2630.1039   -122.12073    227.30891    686.15903    23.460298    23.677728    44.056113    85.218379    84.524913    113.28964 
  494500    237.55446    -12724.81   -11501.914    -12724.81            0    1388.0484    23.429305    21.601558    43.931017   -9.1674745    3.5276149    5.8226482    22233.904    1406.7112     1350.387     1407.047    186.01869    495.60042   -21.018491    23.429305    23.466356    44.455388    84.861186    85.448692    112.99586 
  495000    234.42331    -12684.57   -11477.792    -12684.57            0    2133.7151    23.526652    21.514615    43.911843    -9.352687    4.0509151    5.9687449    22226.719    1724.1941    2398.2037    2278.7475    496.79895   -177.55758    117.67788    23.526652    23.459569    44.500402    85.025278    84.777079    113.49522 
  495500    234.30326   -12705.295   -11499.135   -12705.295            0    1731.1919    23.483308    21.434669     44.11427   -9.1040346    3.7470824    5.5547087    22205.224     1567.751    2458.8563    1166.9684   -544.46568   -630.15873   -715.02406    23.483308    23.287947    44.620222    85.310712    85.182786    113.01259 
  496000    232.36984   -12715.101   -11518.894   -12715.101            0    2407.6583    23.352176    21.643783    43.884838   -9.3930541    3.8862515    6.1417582    22180.689    2934.1317    2618.2519    1670.5913    986.94136     278.3124   -80.945482    23.352176    23.594127    44.482616    84.728424    84.987929    113.46007 
  496500    232.55016   -12738.746   -11541.611   -12738.746            0    1766.0515    23.365916    21.634988    43.925906   -9.0449364    3.9337694    5.5163445    22205.482    2824.5271    1319.1501    1154.4774   -259.66955   -1.2100642    1028.8455    23.365916    23.449597    44.445357    85.390074    84.922221    112.68833 
  497000    238.14881    -12772.37   -11546.414    -12772.37            0    726.76572    23.584393    21.417235    43.969316   -9.4338836    3.7658507     5.971411    22209.451    232.80593    1908.8547    38.636577   -442.63609     211.3914   -753.18005    23.584393    23.402909    44.532461    84.915463    85.149037    113.77258 
  497500    218.19846   -12711.428   -11588.173   -12711.428            0    1871.6227    23.517876    21.504283    43.781046   -9.2152823     3.934588    5.8802697     22141.61    1031.9055    2470.7662    2112.1964    320.35279   -156.05823     75.79748    23.517876    23.395633    44.349053    85.013187    84.910104     113.1967 
  498000     229.9672   -12702.977   -11519.138   -12702.977            0    1669.4903    23.426462    21.611861    43.844602   -9.2205238    3.5405003    5.5873723    22198.059    1294.7137    1905.3862     1808.371    802.75333    247.77309    503.00734    23.426462    23.496608     44.34076    85.148792    85.420198    113.10512 
  498500    231.25471   -12728.399   -11537.932   -12728.399            0    1304.7124    23.496376     21.69426    43.509116   -9.2915171    4.3747669    6.0579869    22178.184    1139.1844     477.8553    2297.0974    -351.0408   -271.12365   -414.95354    23.496376     23.60028    44.146132    85.001593    84.312803    113.18515 
  499000     236.4423   -12673.894   -11456.723   -12673.894            0    2080.7217    23.508452    21.529466    43.775987   -9.1172794    3.6911352     5.858466    22156.096    864.32355    2809.6328    2568.2089    427.78793    299.29226    7.2636455    23.508452    23.380391    44.320234    84.879899    85.222685    112.95164 
  499500     230.9945   -12729.254   -11540.127   -12729.254            0    1767.1175    23.521519    21.520033    43.768446   -9.5360544    4.0196402    5.7791818    22154.881    2140.3541    1334.4812    1826.5173    510.08255   -661.92715   -31.592179    23.521519    23.538227    44.330952    85.270462    84.797649    113.89931 
  500000    233.71046   -12675.671   -11472.563   -12675.671            0    2186.0341    23.405558      21.6482    43.795165   -8.9407508    3.5711552    5.9587061    22190.493    1705.9393    2473.8543    2378.3086   -342.42056    561.76698   -194.29658    23.405558    23.421818    44.342709    84.637303    85.380662    112.44073 
Loop time of 1544.61 on 128 procs for 500000 steps with 2592 atoms

Performance: 55.936 ns/day, 0.429 hours/ns, 323.706 timesteps/s
99.0% CPU use with 128 MPI tasks x 1 OpenMP threads

MPI task timing breakdown:
Section |  min time  |  avg time  |  max time  |%varavg| %total
---------------------------------------------------------------
Pair    | 71.832     | 90.222     | 109.99     | 109.9 |  5.84
Bond    | 0.077886   | 0.087194   | 0.10014    |   1.9 |  0.01
Kspace  | 803.88     | 829.24     | 851.85     |  38.4 | 53.69
Neigh   | 15.704     | 16.041     | 16.388     |   4.3 |  1.04
Comm    | 229.15     | 244.12     | 263.52     |  67.7 | 15.80
Output  | 5.7499     | 5.753      | 5.811      |   0.2 |  0.37
Modify  | 306.71     | 328.07     | 340.09     |  48.7 | 21.24
Other   |            | 31.08      |            |       |  2.01

Nlocal:        20.2500 ave          26 max          15 min
Histogram: 11 9 17 17 17 13 15 12 9 8
Nghost:        2501.62 ave        2532 max        2467 min
Histogram: 1 5 7 18 25 25 22 16 2 7
Neighs:        6290.09 ave        8086 max        4633 min
Histogram: 6 11 20 17 17 13 15 13 9 7

Total # of neighbors = 805132
Ave neighs/atom = 310.62191
Ave special neighs/atom = 2.0000000
Neighbor list builds = 21524
Dangerous builds = 0

unfix		3
unfix		2
unfix		1

write_data	data.final.${pid}
write_data	data.final.0
System init for write_data ...
PPPM initialization ...
  extracting TIP4P info from pair style
  using 12-bit tables for long-range coulomb (../kspace.cpp:340)
  G vector (1/distance) = 0.36771051
  grid = 30 40 60
  stencil order = 5
  estimated absolute RMS force accuracy = 0.0043754163
  estimated relative force accuracy = 1.3176436e-05
  using double precision FFTW3
  3d grid and FFT values/proc = 4864 640
WARNING: Not all mixed pair coeffs generated from mixing. Use write_data with 'pair ij' option to store all pair coeffs. (../write_data.cpp:312)

write_restart   restart.lmp.${pid}
write_restart   restart.lmp.0
System init for write_restart ...
PPPM initialization ...
  extracting TIP4P info from pair style
  using 12-bit tables for long-range coulomb (../kspace.cpp:340)
  G vector (1/distance) = 0.36771051
  grid = 30 40 60
  stencil order = 5
  estimated absolute RMS force accuracy = 0.0043754163
  estimated relative force accuracy = 1.3176436e-05
  using double precision FFTW3
  3d grid and FFT values/proc = 4864 640
Total wall time: 0:25:44
