#include		in.partitions
include		in.temp
variable        temperature equal 261.04
variable	tempDamp equal 100.0
include		in.pressure
variable        pressure equal 3000.0
variable        pressureDamp equal 1000.0 # This is 1 ps
include		in.seed
variable        seed equal 745823

units		real
atom_style	full

read_restart	restart.lmp.${pid}
read_restart	restart.lmp.0
Reading restart file ...
  restart file = 30 Jul 2021, LAMMPS = 30 Jul 2021
  restoring atom style full from restart
  orthogonal box = (-0.081458520 -0.079628772 -0.25555242) to (20.081460 20.079630 20.955550)
  4 by 2 by 4 MPI processor grid
  restoring pair style lj/cut/tip4p/long/omp from restart
  restoring bond style harmonic/omp from restart
  restoring angle style harmonic/omp from restart
  972 atoms
  648 bonds
  324 angles
Finding 1-2 1-3 1-4 neighbors ...
  special bond factors lj:    0        0        0       
  special bond factors coul:  0        0        0       
     2 = max # of 1-2 neighbors
     1 = max # of 1-3 neighbors
     1 = max # of 1-4 neighbors
     2 = max # of special neighbors
  special bonds CPU = 0.002 seconds
  read_restart CPU = 0.009 seconds
include 	in.setup
variable	out_freq equal 1000
variable	out_freq2 equal 10000
variable	out_freq3 equal 1000

timestep	2.0

neigh_modify    delay 7 every 1

include		in.tip4p
# This is TIP4P/Ice

# create groups ###
group ox type 2
324 atoms in group ox
group hy type 1
648 atoms in group hy

# set charges - beside manually ###
set group ox charge -1.1794
Setting atom values ...
  324 settings made for charge
set group hy charge 0.5897
Setting atom values ...
  648 settings made for charge

# ### TIP3P Potential Parameters ###
pair_style lj/cut/tip4p/long/omp 2 1 1 1 0.1577 8.5
pair_coeff 1 1*2 0.000 0.000
pair_coeff 2 2 0.21084 3.1668
bond_style  harmonic
bond_coeff  1 450 0.9572
angle_style harmonic
angle_coeff 1 55 104.52
kspace_style pppm/tip4p/omp 1.0e-5
pair_modify tail yes

thermo          ${out_freq}
thermo          1000
thermo_style    custom step temp pe etotal epair emol press lx ly lz vol pxx pyy pzz pxy pxz pyz enthalpy

restart 	${out_freq3} restart.lmp.${pid} restart2.lmp.${pid}
restart 	1000 restart.lmp.${pid} restart2.lmp.${pid}
restart 	1000 restart.lmp.0 restart2.lmp.${pid}
restart 	1000 restart.lmp.0 restart2.lmp.0


include         in.dump
dump            myDump all atom ${out_freq2} dump.water.${pid}
dump            myDump all atom 10000 dump.water.${pid}
dump            myDump all atom 10000 dump.water.0
dump            myDump2 all dcd ${out_freq2} dump.dcd
dump            myDump2 all dcd 10000 dump.dcd
dump_modify     myDump append yes
dump_modify     myDump2 append yes


variable natoms 	equal  "count(all)"                        # NUMBER ATOMS
variable H      	equal  "enthalpy/v_natoms"                 # ENTHALPY-per-atom
variable Vol      	equal  "vol/v_natoms"                 # volume-per-atom
fix AVG all 		ave/time ${out_freq} 1 ${out_freq} v_Vol v_H file vol_enthalpy.dat
fix AVG all 		ave/time 1000 1 ${out_freq} v_Vol v_H file vol_enthalpy.dat
fix AVG all 		ave/time 1000 1 1000 v_Vol v_H file vol_enthalpy.dat


timer           timeout 02:55:00 every 1000
New timer settings: style=normal  mode=nosync  timeout=02:55:00

fix 		1 all shake 1e-6 200 0 b 1 a 1
       0 = # of size 2 clusters
       0 = # of size 3 clusters
       0 = # of size 4 clusters
     324 = # of frozen angles
  find clusters CPU = 0.001 seconds
fix             2 all nph aniso ${pressure} ${pressure} ${pressureDamp}
fix             2 all nph aniso 3000 ${pressure} ${pressureDamp}
fix             2 all nph aniso 3000 3000 ${pressureDamp}
fix             2 all nph aniso 3000 3000 1000
fix             3 all temp/csvr ${temperature} ${temperature} ${tempDamp} ${seed}
fix             3 all temp/csvr 261.04 ${temperature} ${tempDamp} ${seed}
fix             3 all temp/csvr 261.04 261.04 ${tempDamp} ${seed}
fix             3 all temp/csvr 261.04 261.04 100 ${seed}
fix             3 all temp/csvr 261.04 261.04 100 745823


run             250000
PPPM initialization ...
  extracting TIP4P info from pair style
  using 12-bit tables for long-range coulomb (../kspace.cpp:340)
  G vector (1/distance) = 0.37142217
  grid = 24 24 25
  stencil order = 5
  estimated absolute RMS force accuracy = 0.0035290233
  estimated relative force accuracy = 1.0627549e-05
  using double precision FFTW3
  3d grid and FFT values/proc = 3458 576
Last active /omp style is kspace_style pppm/tip4p/omp
Neighbor list info ...
  update every 1 steps, delay 7 steps, check yes
  max neighbors/atom: 2000, page size: 100000
  master list distance cutoff = 10.8154
  ghost atom cutoff = 10.8154
  binsize = 5.4077, bins = 4 4 4
  1 neighbor lists, perpetual/occasional/extra = 1 0 0
  (1) pair lj/cut/tip4p/long/omp, perpetual
      attributes: half, newton on, omp
      pair build: half/bin/newton/omp
      stencil: half/bin/3d
      bin: standard
Per MPI rank memory allocation (min/avg/max) = 10.19 | 10.19 | 10.20 Mbytes
Step Temp PotEng TotEng E_pair E_mol Press Lx Ly Lz Volume Pxx Pyy Pzz Pxy Pxz Pyz Enthalpy 
 4000000    258.14047   -4638.6801   -4140.8345   -4638.6801            0    602.68624    20.162918    20.159259    21.211103    8621.6659   -94.361246    1822.9762    79.443814   -464.27858    601.32489   -1482.7993   -4065.0538 
 4001000    261.09213   -4693.0385   -4189.5003   -4693.0385            0    2027.1508    20.065948    20.042578    20.999072    8445.2664    789.68836    2698.3453    2593.4186   -587.76568    -246.3647     262.2751   -3939.8252 
 4002000    266.51297   -4685.7341   -4171.7414   -4685.7341            0    2362.6844    19.950729    20.175696    20.953427    8434.1703    1920.7616    2444.3173    2722.9741   -610.10342    919.19176    352.47146   -3881.1224 
 4003000     258.3143   -4669.6949    -4171.514   -4669.6949            0    3373.6349    20.306902     19.85145    20.846066    8403.4963     1972.454    4132.1611    4016.2894   -87.989049    926.31575    868.21129   -3758.0536 
 4004000      256.208    -4714.126   -4220.0073    -4714.126            0    3064.2354    20.209632    19.998154    20.851622     8427.294     1791.454    4612.1195    2789.1328   -65.315364   -85.887555   -779.48713   -3843.4022 
 4005000    262.15089   -4689.8535   -4184.2734   -4689.8535            0    1685.9598    20.081652    20.331479     20.81876    8500.0853    1763.9721    805.96508    2487.9422   -77.994029   -657.91252     624.8229   -3975.2734 
 4006000    260.43162   -4669.5311   -4167.2668   -4669.5311            0    3412.7232    20.085806    20.056277    21.079814    8491.9291    3293.8775     4293.031    2651.2612   -1348.8329     308.5851     333.3237   -3744.6145 
 4007000    256.76395   -4664.6824   -4169.4915   -4664.6824            0    3935.0015    19.970568    20.170379    20.974187    8448.6945    3208.7778    5812.7557    2783.4711    680.28767   -53.421846    999.48564   -3684.6382 
 4008000    261.64405   -4672.6697   -4168.0671   -4672.6697            0    2679.9376    19.999723    20.350587    20.716105    8431.5808      3758.98    1426.5751    2854.2577   -208.32844    173.50078   -282.74452    -3838.526 
 4009000    278.42811   -4678.5545   -4141.5825   -4678.5545            0    4043.1421    20.123331    20.166929    20.815607    8447.5098     4598.594    3861.1376    3669.6947    -409.6404    264.77267   -843.95833   -3643.4744 
 4010000    266.23637   -4669.7494   -4156.2901   -4669.7494            0    2690.2081    20.055881     20.11462    20.932254    8444.4154    3404.1827    2357.2995    2309.1422   -68.911934    38.515247   -219.03178   -3824.9826 
 4011000    257.10686   -4667.1571   -4171.3048   -4667.1571            0    3503.9727     20.27905    19.985881    20.776792    8420.7234    2908.3493    4500.6847    3102.8841    66.420777   -355.91526    86.844582   -3740.9903 
 4012000    265.67897   -4634.6537   -4122.2694   -4634.6537            0    2667.0707    20.255823    20.311775    20.730568    8529.2133     2248.716    1273.5766    4478.9197    154.99235    411.38367   -288.79898    -3790.513 
 4013000    275.66854   -4658.6202   -4126.9703   -4658.6202            0    3072.0827    20.110236    20.142458     20.86081      8450.08    1455.5288     4281.745    3478.9744   -192.74265   -650.64876    -970.4065   -3748.3799 
 4014000    259.14456    -4685.345   -4185.5629    -4685.345            0    1480.4522    20.252198     19.96946    20.930366    8464.7728    1353.4144    1900.4861     1187.456    235.95999    73.183751   -289.69165    -4002.801 
 4015000    245.78798   -4652.3199   -4178.2971   -4652.3199            0    2689.9389    20.154969    20.266225    20.761198    8480.2257    972.67445    4512.8131     2584.329    670.35112      1517.51    425.76749   -3845.6178 
 4016000    254.07217   -4670.3721   -4180.3725   -4670.3721            0    2292.4019    20.362067    19.989828    20.823715    8475.9646    1755.4327    2456.4711     2665.302    76.931233   -600.11561   -1387.9468   -3897.0013 
 4017000    268.55368    -4701.392   -4183.4637    -4701.392            0    1809.1089    20.092504    20.165223    20.970693    8496.6921    3622.2834   -318.16705    2123.2104    -11.05571    1305.0442     1254.212    -3959.287 
 4018000    262.50672   -4708.9883    -4202.722   -4708.9883            0    4314.4656    19.982207    20.087868    20.920024    8397.2965    4355.0972    4847.8328    3740.4667   -590.33522   -678.72159    1075.6924   -3674.3469 
 4019000    262.25872   -4694.8771   -4189.0891   -4694.8771            0    1533.3578    20.014578    20.060241    21.202208    8512.6283     1841.968    2069.9852     688.1201    524.86342    1242.9439    323.26717   -3998.7259 
 4020000    276.90628   -4720.6004   -4186.5634   -4720.6004            0    3699.8285     19.92143    19.964491    21.014682    8357.9847    2491.3009    5202.3189    3405.8657   -1085.2905     1092.583   -510.85473   -3735.5815 
 4021000    260.25752   -4712.5637   -4210.6352   -4712.5637            0    2126.3311    20.280058    20.042597    20.860714     8479.151    2245.8075    1294.3331    2838.8528   -314.35709    543.58806   -376.58739   -3947.6937 
 4022000    259.57791   -4680.5517   -4179.9339   -4680.5517            0    3646.4033    20.056349    20.159478     20.96214    8475.5281    4370.1089    2340.3449     4228.756   -1118.4345    1750.0091    853.28474   -3729.2133 
 4023000    244.66664    -4683.901   -4212.0409    -4683.901            0    2233.4255    19.881618    20.253891    21.055256    8478.5334    3862.6984    70.817243    2766.7607    804.74264    154.85923   -526.24231   -3935.8762 
 4024000     276.9034   -4666.5509   -4132.5194   -4666.5509            0    1724.8905    20.166635    20.253421    20.885088    8530.3752    1982.5378    578.34268     2613.791  -0.62313664    379.17746    644.72652   -3917.9313 
 4025000    270.52515   -4666.4255    -4144.695   -4666.4255            0    5522.0231    20.075964    20.051533    20.723285    8342.2383    6528.0738    4791.5888    5246.4068   -131.08298    472.03143   -851.64616   -3472.8692 
 4026000    258.97656   -4651.7984   -4152.3403   -4651.7984            0    3944.4533    20.205947    20.125676    21.013466    8545.3013    3334.6505    3784.5094    4714.1999   -284.75172   -565.95627    1058.8728    -3660.765 
 4027000    276.53849   -4675.6132   -4142.2854   -4675.6132            0    4053.1582    19.939137     20.14402    21.059418     8458.607    5391.6399    2446.8504    4320.9842    633.94782    100.16303    576.30765   -3642.2874 
 4028000    255.15341   -4684.0916   -4192.0068   -4684.0916            0    2775.7959    20.186624     19.96699    20.861544    8408.5817      132.026    5106.2128     3089.149   -96.555171   -321.54895   -1362.9944   -3851.6095 
 4029000    267.07678   -4692.2287   -4177.1486   -4692.2287            0    3222.0285    20.047474    20.314978     20.78617    8465.4585    1578.7563    3954.6244    4132.7048   -438.88783    957.82253    912.04898   -3779.3569 
 4030000    270.32494   -4675.0568   -4153.7125   -4675.0568            0    1785.5193    20.103332    20.276486    20.749309    8457.9359    2110.1438    1057.5165    2188.8975   -319.69171   -1506.3857   -650.32239   -3933.4681 
 4031000    258.74629   -4646.9044   -4147.8904   -4646.9044            0    2255.4922    20.161517    20.177238    20.943278     8519.804    1219.1274    2620.1247    2927.2247    723.84823    707.99218    963.29721   -3867.6396 
 4032000    258.81878   -4674.1264   -4174.9727   -4674.1264            0    2608.9828    20.016887     20.01277     21.12425    8462.2346    1614.1853    3798.0037    2414.7594    516.81332   -37.015711   -486.86208   -3852.9902 
 4033000    268.79078   -4686.3429   -4167.9573   -4686.3429            0    4386.4552    20.150154    20.104458    20.801494    8426.8499    6264.3747    3501.3678     3393.623    433.48796     1032.412    1134.9201   -3628.8753 
 4034000    254.74921   -4694.2501   -4202.9448   -4694.2501            0    176.38464    20.230867    20.190994    20.948763    8557.1781    659.85091   -962.42271    831.72573    204.00302    -325.7954   -498.61722   -4180.9324 
 4035000    252.79438   -4722.9737   -4235.4385   -4722.9737            0    2774.0389    20.050886    19.985581    21.113666    8460.8503    1256.2468    5401.5882    1664.2817   -333.99262   -1109.5465    420.67179    -3893.142 
 4036000    243.37193   -4681.9595   -4212.5962   -4681.9595            0    2510.6142    20.062451    20.098623    21.184364    8542.1208    2699.8205    2943.1442    1888.8778    175.84015    408.21192    838.68396   -3899.8288 
 4037000     265.3192   -4690.7706   -4179.0802   -4690.7706            0    3413.0601    19.910019    20.423588    20.802993     8459.205    2816.5012    3400.0037    4022.6754   -51.397982   -1070.3285    793.71374    -3758.015 
 4038000    258.13307   -4656.1563    -4158.325   -4656.1563            0    3944.9061    20.267202    19.969401    20.816789    8425.0515      3083.07     4288.321    4463.3274    543.02204    1717.4944   -1461.7159   -3673.6115 
 4039000    256.09359   -4698.6631    -4204.765   -4698.6631            0    2979.0919    20.092964    19.968823    21.010455    8430.0842    4533.4161     1466.492    2937.3675    279.67735   -747.38001   -1557.7885   -3838.5032 
 4040000    257.65297   -4678.7492   -4181.8438   -4678.7492            0    2674.7263    20.100909    19.885069    21.061919    8418.6169    3406.6617    2533.9095    2083.6075   -170.28225    756.66106   -1634.5435   -3853.4492 
 4041000    264.31729   -4694.3028   -4184.5447   -4694.3028            0     2129.913    20.355664    20.217633    20.776689     8550.508    253.21724     2322.462    3814.0599   -702.80297    441.42822   -535.61281   -3918.9437 
 4042000    277.09904   -4721.8574   -4187.4486   -4721.8574            0    2420.0969    20.338547    20.120739    20.714433    8476.8965    2533.2324    2373.8188    2353.2394    1007.2166    437.83017   -121.17187   -3888.2597 
 4043000    256.28291    -4656.864   -4162.6009    -4656.864            0    2795.5768    20.174791    20.046245    21.015356    8499.2153    2973.5593    2962.6897    2450.4815   -26.197473   -1011.0617    2189.2501   -3816.0826 
 4044000    249.61998   -4693.1076   -4211.6945   -4693.1076            0    3489.0751    20.016543    20.292017    20.844571    8466.5651    2182.0527    4055.6136    4229.5592   -692.70082    763.20351    -438.4286   -3780.8768 
 4045000    247.29108   -4699.4463   -4222.5247   -4699.4463            0    5055.7618    20.202947    20.024359    20.751327    8394.9715    2182.5477    7059.2653    5925.4723   -704.71233    318.12326   -809.22827   -3603.5374 
 4046000    252.16612   -4685.6494   -4199.3258   -4685.6494            0    3272.6779    20.176844    20.087781    20.887209    8465.7535    3557.9776    2473.6681     3786.388    250.03266   -1329.1365   -319.83291   -3795.2669 
 4047000    260.89687   -4690.6716   -4187.5101   -4690.6716            0    3341.6539    20.063971    20.248132    20.876357    8481.1856    3582.5011    2320.1474     4122.313    737.35862   -482.56729    244.65367   -3774.1829 
 4048000    251.22807   -4698.3947   -4213.8802   -4698.3947            0    2221.9228    20.344715    19.839046    20.996647    8474.6609    3417.1714     988.5199    2260.0771    161.63577    787.58688    59.664745   -3939.2633 
 4049000    265.61509   -4683.7775   -4171.5165   -4683.7775            0     1341.966    20.232966    20.123154    21.038053    8565.6661     1321.383    91.155868    2613.3591    562.22122   -159.71648    536.56433   -4003.8761 
 4050000     243.6385   -4673.7654   -4203.8881   -4673.7654            0    1868.0433     20.02522    20.292849    20.843739    8470.2446    2194.8259    649.38985    2759.9141    88.690202    296.80073    185.48097    -3973.129 
 4051000    287.65388   -4670.2349   -4115.4702   -4670.2349            0    3267.5581    20.101256    20.138087    21.083543    8534.6358    3310.9236    2468.6365    4023.1143   -389.88597    233.67063    1060.1024   -3708.7608 
 4052000    253.15877   -4697.3185   -4209.0805   -4697.3185            0    2970.3538    20.101732     20.03204    20.867957    8403.0815    1733.4938    2765.6652    4411.9022   -1172.0922   -211.30927   -133.94883   -3845.0627 
 4053000    253.71965   -4695.6551   -4206.3354   -4695.6551            0    5219.7856    19.872747    20.183798    20.709762    8306.8412    6167.8409    5029.9949    4461.5208   -1160.3466   -866.16146   -558.09715   -3573.9753 
 4054000    259.62983   -4659.7941   -4159.0761   -4659.7941            0    3930.7566    20.020592    20.295424    20.782178    8444.3479    4367.2217    3106.9737    4318.0744   -1136.7172    2736.3269    913.77569    -3674.995 
 4055000    268.32911   -4693.1093   -4175.6141   -4693.1093            0    5538.9796    20.289616    19.817085    20.902893    8404.6572    5131.9449    5379.8041    6105.1899      24.3618   -1612.2441    1258.8004    -3496.683 
 4056000    274.25569   -4658.0381   -4129.1129   -4658.0381            0    3219.9185    19.905173    20.084218    21.236143    8489.7814    5027.1908    2357.9538     2274.611    938.20688     777.9771    653.82616   -3730.4395 
 4057000    239.98448   -4673.5509   -4210.7207   -4673.5509            0     2516.281    19.918446    20.365921    20.937232    8493.3453    4470.3881   -597.55887    3676.0137    537.45677   -42.188658   -758.88024   -3899.0372 
 4058000    274.97864   -4717.2942   -4186.9748   -4717.2942            0    2753.7937    20.261654    19.906785    20.913912    8435.5091     3583.426    2119.5199    2558.4353    434.49206   -1260.7191   -1487.0304   -3848.1941 
 4059000    257.16269   -4678.4007   -4182.4409   -4678.4007            0    5211.9913     20.20821    19.840737    20.795798    8337.9874    3298.1104     8529.059    3808.8047    252.80788    249.12047   -487.81914   -3548.6575 
 4060000    266.67963   -4705.8683   -4191.5542   -4705.8683            0    2713.1616    20.163558    20.245657       20.776    8481.2716    4699.4286    232.05448    3208.0016    194.06739    516.72442   -1529.7729   -3855.9615 
 4061000    251.50507   -4658.6113   -4173.5626   -4658.6113            0    2083.9406     20.21481    19.999276    21.066226    8516.6868     1221.363    2872.8192    2157.6396   -275.16709      714.468    161.45008   -3914.7223 
 4062000    264.46074   -4651.2943   -4141.2595   -4651.2943            0    1302.8272    20.220181    20.106023    21.079985    8570.0137    544.80441      2197.93     1165.747    439.64936    39.469751    469.79902   -3978.4259 
 4063000    268.42651   -4673.6046   -4155.9215   -4673.6046            0    2856.0477    20.084173    20.145701    20.889136    8451.9479    4384.9767    1303.0308    2880.1356   -615.10805    1055.7437    526.63776   -3803.8765 
 4064000    259.15425   -4662.8324   -4163.0316   -4662.8324            0    5819.9685    20.099791    19.948575    20.873283    8369.3975    6135.9867    6609.6438    4714.2749    327.54681    1635.1223   -249.39052   -3452.6517 
 4065000    260.23817   -4687.3089   -4185.4177   -4687.3089            0    2443.5531    20.144778    20.294074    20.761512    8487.7136    2269.2784    2473.9176    2587.4632   -321.71934   -221.46547    724.94313   -3882.9435 
 4066000    261.93715    -4643.791   -4138.6232    -4643.791            0    479.76171    20.116112     20.09079     21.13709    8542.5249   -169.05859    875.77913     732.5646   -74.035805    200.73269    -270.9115   -4078.8526 
 4067000    255.55708   -4686.9186   -4194.0553   -4686.9186            0     1604.166    20.084444    19.996935    21.101328      8474.87    3289.9641    900.94687    621.58709    277.76804     1028.048    -1121.315   -3995.7847 
 4068000    266.96294   -4698.8562   -4183.9958   -4698.8562            0    1643.7822    20.123099    20.197773    20.943806    8512.4381    2560.2205     851.4152    1519.7108    83.226934    71.116679    59.903612   -3979.9281 
 4069000    251.53045   -4700.8452   -4215.7475   -4700.8452            0    3730.1421    20.215498    20.061514     20.72495    8405.0759    2272.7688    3634.1871    5283.4704    451.43854    417.53624   -1710.7239   -3758.5089 
 4070000    255.82202   -4665.0503    -4171.676   -4665.0503            0    1213.5464    20.357484    19.995662    20.978227    8539.4258     863.3874    789.89998    1987.3517   -883.89539    563.73243   -174.48425   -4020.5424 
 4071000    273.98106   -4694.4228   -4166.0273   -4694.4228            0    4388.1794    20.092096    19.788281    21.043775    8366.7531    4437.3911    4824.3112    3902.8359    29.233508   -75.361008   -134.06952   -3630.5794 
 4072000    275.55354    -4649.437   -4118.0089    -4649.437            0    2357.2964    20.228584    20.152259    20.994382     8558.395    1809.7659    2275.1382    2986.9852    103.15976   -1231.1705    815.42562   -3823.7819 
 4073000    248.94269   -4695.8805   -4215.7736   -4695.8805            0    2065.6704    19.955974    20.319084    20.791563    8430.7107     2035.384    1273.6959    2887.9313   -46.273992    2349.8171    513.86283   -3961.7926 
 4074000    258.23711   -4705.6121   -4207.5801   -4705.6121            0    4960.2212    19.987209    20.152806    20.900142    8418.5426    4623.8366    5254.6289     5002.198    -685.6596   -990.80629     838.7533    -3598.585 
 4075000    261.86595   -4707.1914   -4202.1609   -4707.1914            0    1664.0791    20.062493    20.174417    21.034154    8513.5548    2903.2061    1497.1218    591.90941   -602.71238     112.6551    544.17046   -3995.5464 
 4076000    257.24977   -4681.7514   -4185.6236   -4681.7514            0    3350.6861    19.881193    20.016995    21.132599    8409.9658    5235.9816    2230.0411    2586.0355   -933.65124   -28.918508    938.74629   -3774.6595 
 4077000    247.06826   -4702.3664   -4225.8745   -4702.3664            0    2056.3618    20.094092    20.150791    21.110742    8547.9894    1151.4076    3236.4999    1781.1779    -279.1898   -285.22898   -237.33374   -3969.5209 
 4078000    271.47163   -4663.7362   -4140.1804   -4663.7362            0    4191.9975    20.234679     20.05091    20.852886    8460.5107    2901.5626    5724.8504    3949.5796   -1058.1512    426.56346    250.70735   -3622.9387 
 4079000    255.75982   -4701.7803    -4208.526   -4701.7803            0    1607.6075    20.282309    20.230239    20.738793    8509.4575      1436.97    1026.6082    2359.2444    166.97118    762.69409   -1964.1782   -4009.0192 
 4080000    268.99444   -4683.3865   -4164.6081   -4683.3865            0    2767.2445    19.902488    20.061904    21.102364    8425.7896    3439.2379    2601.3194    2261.1761    821.48545     1007.673    165.23934    -3824.565 
 4081000    261.98942    -4673.511   -4168.2424    -4673.511            0    3374.0911    19.994208    20.013255     21.11061    8447.3936    2190.2214    5137.7617    2794.2901   -523.63502    744.21192    25.804498   -3752.5659 
 4082000    261.41713   -4711.2448   -4207.0799   -4711.2448            0     3088.305    20.054167     19.95834    21.024575    8415.0416    3391.4117    3803.2254    2070.2778   -941.68654    971.07996   -111.48485   -3828.0684 
 4083000     241.1088   -4639.5713   -4174.5727   -4639.5713            0    1851.7292    20.037225    20.361887     20.90889    8530.7377     3667.313    126.30571    1761.5687   -663.36368    243.19798      176.974   -3944.1953 
 4084000    261.08777    -4648.506   -4144.9763    -4648.506            0    4024.9685    20.345952    19.951577    20.764736    8429.1086    3434.8833    4171.0826    4468.9398   -237.84978    2403.1424    1427.7964   -3650.1873 
 4085000      251.462   -4684.9039   -4199.9382   -4684.9039            0    3052.5362    20.116696    20.218701      20.8047    8461.9675    3056.0428    1972.5416    4129.0241   -173.81801    620.75106   -145.60847   -3823.2275 
 4086000    261.39877   -4699.9254   -4195.7959   -4699.9254            0    2163.7213    20.189351    19.998009    20.981122    8471.0612    6.4837962    4935.8146    1548.8656     180.8533    929.30144    296.13271    -3928.486 
 4087000    248.76885   -4680.3224   -4200.5508   -4680.3224            0    1504.1521    20.002698     20.11313    21.264239    8554.9622    1543.8813    725.70324    2242.8718    755.01919    1668.0952    437.34354   -4012.8847 
 4088000    262.35554   -4682.6023   -4176.6276   -4682.6023            0    2046.0483    20.014777    20.161937    20.994769    8472.1596    2104.6371    2143.9871    1889.5205    369.57643    2366.0269    117.92431   -3923.8225 
 4089000    245.82646   -4710.0113   -4235.9143   -4710.0113            0    2905.4177    20.229555    20.206765    20.689343    8457.2624    1565.4778    3546.8188    3603.9567   -259.27365   -106.36564   -104.76418   -3877.5586 
 4090000    258.10067   -4691.0936   -4193.3248   -4691.0936            0    3195.8205    20.279415    19.994405    20.769604     8421.552    2529.8172    3832.2541    3225.3903    760.49326    227.19075    663.44343   -3800.8151 
 4091000    259.78106   -4703.4108   -4202.4012   -4703.4108            0    2090.9069    20.102539    20.106315     21.02023    8496.1241    1248.7325    2851.0619    2172.9265    146.48932    -103.7727   -162.59745   -3943.3226 
 4092000    262.07317   -4693.7885   -4188.3583   -4693.7885            0    3950.2298    20.054502    19.866651    21.288908    8481.8373    3388.7694    5690.3361    2771.5838    9.1420524     58.11891    101.36081   -3699.7193 
 4093000    273.87266    -4681.637   -4153.4506    -4681.637            0    5156.9908    20.070011    20.131294    20.851515    8424.7481    6632.9951     3900.641    4937.3363    530.35075    1116.0711    2230.2583   -3519.8301 
 4094000    247.61753   -4668.0044   -4190.4531   -4668.0044            0     1777.551    20.170957    20.137032      20.9204    8497.5152    1446.7936    2546.1998    1339.6595    693.79762    726.73823    195.09761   -3970.1656 
 4095000    250.11109   -4708.3979   -4226.0377   -4708.3979            0    3640.9666    20.145689    20.034074    20.780875    8387.1655    4389.0065    3108.3101    3425.5831    289.33115    724.96514   -754.77126   -3780.6812 
 4096000    260.60418   -4670.7555   -4168.1584   -4670.7555            0    1721.3635     19.99266    20.343039    21.073153    8570.6928    2486.7657   -110.90644    2788.2314   -308.28395    584.06839      89.1395    -3952.997 
 4097000    267.77641   -4702.7352   -4186.3059   -4702.7352            0     3236.955    20.045434    20.100146     21.03969    8477.2306    6284.6192    885.46662    2540.7791   -3.9700866    1807.9506   -89.744149   -3786.1156 
 4098000    273.05965   -4705.6135    -4178.995   -4705.6135            0    3589.9931    20.095337    20.065596     20.89912    8427.0459    3665.3633    2658.4175    4446.1985    171.01587   -1257.2957     316.1077   -3737.7855 
 4099000    256.67003   -4676.1627   -4181.1529   -4676.1627            0    3999.9701    20.107147    20.060763    20.606043    8311.7507    3716.9094    4624.9732    3658.0279   -520.74401    210.92225    1457.3285   -3696.2831 
 4100000    260.06827   -4680.0032   -4178.4396   -4680.0032            0    1691.1066    20.192482     20.12114    20.860786    8475.6489    1798.0374    962.72271    2312.5596    53.799625    287.95491   -665.89673   -3969.4042 
 4101000    243.73703   -4697.4062   -4227.3388   -4697.4062            0    1804.4111    20.080666    20.098509    20.973997    8464.9257    523.09202    1864.3222     3025.819    0.7312448    140.82275    197.10633   -4004.5802 
 4102000    242.85953   -4641.9952   -4173.6201   -4641.9952            0    3703.5475    20.140634    20.310954    20.697353    8466.7796    3862.1102    2451.3709    4797.1614    122.65713   -1059.5572    357.81112   -3716.3087 
 4103000    261.53312   -4666.1152   -4161.7266   -4666.1152            0    3361.5791    19.993532     20.06248    20.834342    8357.0679    3021.9265    4600.2229    2462.5879   -396.43774    122.47375    1493.7387   -3752.0198 
 4104000    259.59207   -4663.5066   -4162.8615   -4663.5066            0    2189.6718    20.089887    20.109926     20.96044    8468.1465    465.42465    4089.8035    2013.7872    1106.9099    564.10732    1124.2154   -3892.4387 
 4105000    278.33306   -4672.8826   -4136.0939   -4672.8826            0    3530.8248    20.036401    20.247554    20.891299    8475.3512    2997.6312    3141.2843    4453.5587   -568.62923   -1748.7894      1276.34   -3699.6687 
 4106000    261.71822   -4704.9062   -4200.1606   -4704.9062            0    5670.5208    20.078987      19.9795    20.646677    8282.7888    4722.4623    6730.6417    5558.4584   -211.90228   -613.48755   -311.30501   -3515.1845 
 4107000    260.06717   -4678.1645   -4176.6031   -4678.1645            0    4191.8518    20.149451    20.084252    20.765541    8403.5374    2831.5883    5082.5645    4661.4025     360.3522   -732.52258    1210.4025   -3662.8625 
 4108000    270.72009   -4687.6246   -4165.5182   -4687.6246            0    2745.1878    19.979215    20.124228    21.016148    8449.8842    1962.9846    2939.3399     3333.239   -440.75016    1062.8631    456.97422   -3827.2207 
 4109000    270.63452   -4710.4267   -4188.4852   -4710.4267            0    2547.2458    20.060838    19.970682    21.057646    8436.2956    2630.1906    3033.0074    1978.5395   -334.89794    1275.8857   -462.98821   -3875.0856 
 4110000    278.99951    -4689.429    -4151.355    -4689.429            0    4429.2178    20.085734    19.903308    20.942275    8372.1464    2659.6986    6109.6401    4518.3146    -106.5183   -145.51397    434.25538   -3610.5512 
 4111000    277.75073     -4673.23   -4137.5644     -4673.23            0    4550.1576    20.238687     19.94823    20.757837    8380.4781     5399.168    4372.9072    3878.3977    192.37325    58.621792   -91.627034    -3581.441 
 4112000    264.21903    -4680.051   -4170.4824    -4680.051            0    2386.2876    20.045005    20.169637    21.060499    8514.7699    3596.9604    1402.5366    2159.3659   -657.00097    107.61212    394.51027   -3874.1551 
 4113000    246.24928   -4682.6884   -4207.7759   -4682.6884            0    664.51844     20.18034    20.310646     20.64077    8460.1511   -434.71648      753.288    1674.9838    399.46374    440.54835   -320.04999   -4125.7859 
 4114000    257.67163   -4664.6799   -4167.7385   -4664.6799            0    2238.0144    20.133962    20.152778    20.842757    8457.0583    1303.2725    3637.6737    1773.0968    92.399608    795.68697   -180.54406   -3891.7074 
 4115000    262.23118   -4688.8916   -4183.1567   -4688.8916            0    2703.3628    20.068964    20.126804    20.944415    8459.9541    1583.1704    3308.7307    3218.1874    1109.9699    331.09037   -345.70443   -3849.6165 
 4116000    257.50148   -4722.0317   -4225.4184   -4722.0317            0    4180.0573    20.102831    19.994606    21.127821    8492.2894    5447.6791    3313.5824    3778.9105    373.30515    339.19752    765.87794   -3707.7127 
 4117000    248.65446   -4692.3295   -4212.7784   -4692.3295            0    3278.4476    20.119883    19.906904     21.21568    8497.4014    3635.7889      3277.28    2922.2738    632.44973    425.43357   -1989.8674   -3806.4939 
 4118000    263.07354   -4716.4229   -4209.0635   -4716.4229            0    1405.8174    20.408305    19.995335    20.840141    8504.2549   -88.392506    1654.8752    2650.9695   -563.20762     290.8646    395.72172   -4034.7058 
 4119000    254.97184   -4708.9501   -4217.2155   -4708.9501            0    3673.3273    20.033449    20.221169    20.820554    8434.4013    4198.3405    3794.3908    3027.2506    -572.1315   -674.47512   -1332.7506   -3765.3702 
 4120000    261.87191   -4684.8698   -4179.8278   -4684.8698            0    4213.1766    19.936572     20.13355    20.789152    8344.6399     4432.945    2795.0908     5411.494   -114.10579    554.16773   -598.12843   -3667.0925 
 4121000    259.72407    -4711.744   -4210.8442    -4711.744            0    4336.6223     20.11079    19.737083     21.30301    8455.7683    3894.7898    4844.7041    4270.3729    30.878363    123.56209    229.31322   -3676.0576 
 4122000    271.55649   -4670.2538   -4146.5343   -4670.2538            0    3163.6043    20.008855     20.05915    21.093643    8466.1579    4006.1757     4050.618    1434.0193   -353.12691    691.80618   -882.27406   -3755.9233 
 4123000    254.37203    -4672.223   -4181.6452    -4672.223            0    2697.7248    19.975038    20.337752    20.903759     8492.097    1820.4903    3607.3365    2665.3476   -5.4301876    274.71353    -502.7086    -3847.536 
 4124000    265.60574   -4682.4588   -4170.2158   -4682.4588            0     3128.173     20.23293    20.196866    20.628025    8429.4727    1943.7016    3915.9468    3524.8705    540.18837    1015.0292     839.3232   -3785.6532 
 4125000    267.94098   -4659.6916   -4142.9448   -4659.6916            0    4615.0703    20.099997    20.046265    20.911542    8425.8847    5391.7893    3197.0137    5256.4078   -368.63973    545.55886   -430.22694   -3575.8317 
 4126000    245.67602   -4696.3662   -4222.5593   -4696.3662            0    75.424166     20.21856    20.278095    20.916004    8575.4339    40.399628   -201.54709    387.41996    62.235246   -224.26038    17.632414   -4213.1265 
 4127000    257.37548   -4675.1407   -4178.7705   -4675.1407            0    4175.8756    20.120137    19.786163    21.014025    8365.6901     3283.318    6920.8664    2323.4425    16.257533    798.62464    891.79395   -3669.2927 
 4128000    250.58656   -4686.9768   -4203.6995   -4686.9768            0    1665.5419    20.175956     20.11967    20.979385    8516.2368   -783.80005    3764.2302    2016.1956   -513.20474     1170.987    53.192582   -3996.8383 
 4129000    262.19073   -4636.7668   -4131.1099   -4636.7668            0      2422.05    20.394851    19.881999    20.776998    8424.8735    1107.7092    3161.8431    2996.5978    573.25983   -546.62007   -682.61256   -3833.5172 
 4130000    263.84843   -4733.1471   -4224.2932   -4733.1471            0    2548.5961    20.000684    20.094784    20.884116    8393.5233    2673.9159    1795.8315     3176.041    415.27272   -588.87617     1265.215   -3912.3172 
 4131000    251.84938   -4709.4344   -4223.7217   -4709.4344            0    2460.5445    20.181617    20.029882    21.066807    8515.9495    2096.3357    2619.4733    2665.8246   -436.83922   -16.997672   -1102.4999    -3918.131 
 4132000    261.95704   -4658.6039   -4153.3977   -4658.6039            0    2978.8534    20.205432    20.044727    20.952489    8486.0169     3260.823    3735.3424    1940.3948   -85.605538    301.70629   -472.40369   -3784.7353 
 4133000    273.85814   -4678.4005   -4150.2421   -4678.4005            0    3733.1832    20.036904    19.990843    21.114097    8457.3489    4971.2367    3704.0381    2524.2747    1018.0004   -145.96622    748.77111   -3689.7847 
 4134000    248.97648   -4683.4648   -4203.2927   -4683.4648            0    3904.1833    20.163463    20.171153    20.673621    8408.3816    3306.1898    4493.0512    3913.3087     492.5368    1162.2667   -1742.6583    -3724.532 
 4135000    257.53646   -4682.4463   -4185.7656   -4682.4463            0      4990.77    20.173795    19.982059    20.812686    8389.8841    3702.3377    4520.5489    6749.4233    201.98247    441.21602    1107.9148   -3575.1057 
 4136000    264.87282   -4689.8448   -4179.0153   -4689.8448            0     2790.685    20.071755    20.079338    20.994274    8461.2707    3046.8944    2779.0618    2546.0988   -331.28177   -152.26976   -667.98908   -3834.6477 
 4137000    250.46514   -4684.7086   -4201.6655   -4684.7086            0    2275.0795    20.244065       19.946    21.132469    8533.0397    570.79826    3225.2615    3029.1787   -878.33485    133.40606   -1713.1438   -3918.5418 
 4138000    251.04912   -4681.5941   -4197.4247   -4681.5941            0    2685.6362    20.133253    20.070197    21.057299    8508.7982    1470.7645    3499.7416    3086.4026    699.90522    179.62124   -2001.4715   -3864.1585 
 4139000    250.48691    -4715.901   -4232.8159    -4715.901            0    2785.7349    19.916271    20.268737    20.765661    8382.6335    3592.0187    1851.4375    2913.7484   -228.20188    23.377705     89.28258   -3892.2539 
 4140000    262.69109   -4685.7736   -4179.1517   -4685.7736            0    2981.6227    20.306487    19.964393    20.960281    8497.4379    2491.1055    3908.5529    2545.2096   -613.31344    88.099928    909.57866   -3809.6499 
 4141000    257.21282   -4690.2982   -4194.2416   -4690.2982            0    2604.4363    20.147249    20.101507    20.892835    8461.3907    2536.2458    1738.6935    3538.3696   -204.23771    1413.6565   -253.99066   -3872.8523 
 4142000    257.11195   -4680.2515   -4184.3895   -4680.2515            0     3307.533    20.189078    20.054973    20.800598    8421.9837    4055.9069    3414.4779    2452.2142    216.62369   -1422.6913   -16.609517   -3778.1384 
 4143000    266.94642   -4704.8317   -4190.0031   -4704.8317            0    2386.2362    20.208974    19.932272    20.932335    8431.7699    1130.6003    3042.8818    2985.2264   -124.66122     981.7099    514.58232   -3896.5707 
 4144000    253.22941   -4661.3154   -4172.9412   -4661.3154            0    2750.0757    20.031008    19.866695    21.185677    8430.8386    3586.8864    2349.7855    2313.5552   -64.602185   -643.11574     666.2332   -3834.8053 
 4145000     253.7984   -4679.9413   -4190.4698   -4679.9413            0    2625.3177    20.045704    20.087491    21.112391    8501.2819    3799.1938    2410.0271    1666.7322   -364.04208    668.51201    779.50465   -3864.9764 
 4146000     258.2859   -4697.1155   -4198.9894   -4697.1155            0    2506.3847    20.209496    20.029784    20.711728    8383.9385    998.34573    2713.7991    3807.0093    343.61381    401.36996   -465.12773   -3892.5309 
 4147000    256.94369   -4711.4286   -4215.8911   -4711.4286            0    1557.3859    20.112607    20.437602    20.794557    8547.6746    2408.3039    85.285535    2178.5684   -654.51217    244.04036    385.12174   -4021.7488 
 4148000    249.56289   -4683.9438   -4202.6408   -4683.9438            0    4412.6324    20.110016     19.94888    20.913871    8390.0657    5174.1253    3985.4724    4078.2996   -454.73722    130.74452   -407.30836   -3662.7089 
 4149000    273.86233   -4688.2056    -4160.039   -4688.2056            0    1960.2761    20.078792    20.079497    21.128384    8518.3735    2661.7782    2388.1709    830.87912   -37.840859    541.42919    814.31403   -3916.5105 
 4150000    263.67907   -4711.0161   -4202.4888   -4711.0161            0    3653.5981    20.015789     20.16132    20.783599    8387.1118    3085.0964    4389.4017    3486.2961    617.67565    1029.6872    1974.4704   -3755.5901 
 4151000    265.88736   -4654.2576   -4141.4715   -4654.2576            0    2513.3095    20.097733    20.247065    20.781893    8456.5696    3087.9396    1811.3262    2640.6627    -806.6259    461.28207    270.98057    -3831.504 
 4152000    255.79166   -4658.4828   -4165.1671   -4658.4828            0    1821.4639    20.375046     20.04117    20.911091    8538.8298    2309.5611    1664.5961    1490.2345    55.137649   -1289.3252    1450.8728     -3938.34 
 4153000    251.50204   -4679.2935   -4194.2507   -4679.2935            0    3034.8932    19.817169    20.148007    21.254812    8486.5463    3829.2057    3743.7758    1531.6982    -517.6385    202.10187    550.54203   -3818.6293 
 4154000    271.02269   -4709.7632   -4187.0732   -4709.7632            0    2178.3291     19.96887    20.146196    21.073339    8477.7364    4976.5675    708.41458    850.00526   -976.97935   -8.0715705   -1328.0051   -3917.7465 
 4155000    248.18489    -4667.013   -4188.3676    -4667.013            0    3121.6295     20.20145    20.177736    20.794087    8476.0758    3090.0286    2038.1902    4236.6697   -455.52692    2409.3532    -621.8994   -3802.4878 
 4156000    260.00575   -4711.1775   -4209.7346   -4711.1775            0     1591.947    20.302908    20.059535     20.98442    8546.2598    888.43422    3312.6142    574.79263    153.26824    923.27168    271.78063   -4011.3168 
 4157000    261.24869   -4690.3926   -4186.5526   -4690.3926            0     2166.724    20.047091    20.038308    21.116962    8482.8901    1655.3558    2127.3084    2717.5077    236.33757     1341.179   -1718.5709   -3918.4979 
 4158000     241.7727   -4684.1451   -4217.8661   -4684.1451            0    2782.7887    20.081299     20.01907    21.107538    8485.4185    1908.5045    4444.0692    1995.7924    761.80831    966.76444    761.14779   -3873.4929 
 4159000     242.6762   -4677.6677   -4209.6462   -4677.6677            0    2994.4241    20.110404    20.274226    20.843463     8498.357    2312.2063    3603.4216    3067.6445    -137.8661    1555.0025   -770.12898   -3838.5179 
 4160000    254.32843   -4674.4794   -4183.9857   -4674.4794            0    3705.7225    20.153447    19.935928    20.975971    8427.6769    5488.0061    2684.3825     2944.779    -388.5462    1263.1595    107.22459   -3728.5189 
 4161000    256.18498   -4692.8852   -4198.8109   -4692.8852            0    3773.1119    19.971232    20.191238    20.874366    8417.4611    1814.0124    5617.7114    3887.6117    184.77286    1016.5084    158.54035   -3735.6236 
 4162000    266.87414   -4696.9378   -4182.2486   -4696.9378            0    1189.5301    20.036084    20.279806    20.946786    8511.2637     871.5635    2303.6441    393.38268   -745.00349    1259.2749   -107.62726   -4034.5945 
 4163000    264.15269   -4687.0257    -4177.585   -4687.0257            0    3375.3372    19.963742    20.182633    20.972172     8450.126    5177.6689    2535.4261    2412.9166    274.98968    517.36762   -362.82342   -3761.6206 
 4164000    257.24948   -4693.8642   -4197.7369   -4693.8642            0    4407.7136     20.21505    19.934289    20.821625    8390.5452    3723.0321    4341.6321    5158.4766   -567.66808    317.51867   -401.23091   -3658.3761 
 4165000    259.46242   -4686.6531    -4186.258   -4686.6531            0    2895.8784    20.001864    20.309071    20.819476    8457.2725    4724.9881    1016.6731     2945.974   -751.63738    362.02569   -600.10305   -3829.0784 
 4166000     259.4672   -4662.3105   -4161.9062   -4662.3105            0    1621.0438    20.397295    20.115667    20.738838    8509.2527     1048.846    1908.4308    1905.8548    127.41819    397.40019   -335.62696   -3960.7367 
 4167000    263.00537   -4698.0208   -4190.7928   -4698.0208            0    3135.7291     20.08179    19.985955    21.017652    8435.5137    3294.0648    3912.3507    2200.7718    302.50125    185.63901    811.79102    -3805.025 
 4168000     273.7746   -4676.1054   -4148.1081   -4676.1054            0    4077.6166    20.253133     19.98643    20.839946    8435.7564    2976.8883    4785.2011    4470.7604    54.983103   -157.00765   -599.58263   -3646.4517 
 4169000    272.95354   -4670.9513   -4144.5374   -4670.9513            0     3894.193    20.125539    20.228765    20.690105     8423.248    2844.3557    3372.9334    5465.2899   -791.29435    379.44304   -100.07956   -3666.1575 
 4170000    255.87336   -4655.2615   -4161.7882   -4655.2615            0    5164.2279    20.069535    19.928347    21.000287    8399.1206    5339.9521    6319.4357    3833.2958   -508.34061    846.87274    482.79721   -3529.2087 
 4171000    265.41334   -4669.8927   -4158.0208   -4669.8927            0    2649.6671    19.844353    20.257322    20.954733    8423.6651    3727.5497    2047.3657    2174.0858   -763.97911    579.33463   -142.78041   -3832.5078 
 4172000    256.10431   -4691.3373   -4197.4186   -4691.3373            0    1905.3766    20.222568    20.125369    21.028844    8558.4591    1099.4155    2669.5899    1947.1245    -696.8131   -1036.5801   -782.15992   -3959.5964 
 4173000    250.98259   -4699.1178   -4215.0768   -4699.1178            0    3050.9909    20.032448    20.222338    20.944228    8484.5684    3152.1869    2345.6661    3655.1198   -408.13093    1374.1612    455.42889   -3837.5511 
 4174000    262.37109    -4697.483   -4191.4783    -4697.483            0    2497.2625    19.973321    20.184197    21.040107    8482.2233    2407.7168    3115.4217    1968.6489   -141.28472    1191.6803    308.23566   -3882.5556 
 4175000    259.18366   -4692.0703   -4192.2128   -4692.0703            0     2790.509     20.29348    20.136575    20.687991    8453.9648    3140.8907    1845.8322    3384.8041   -1028.8207    977.63924    -602.3262   -3848.1642 
 4176000     268.2464   -4726.2764   -4208.9407   -4726.2764            0    4186.5336    20.055179    20.134194    20.700966    8358.9438    4106.2456    2801.6866    5651.6685    276.47357   -666.21464    419.11834   -3698.5745 
 4177000    257.55948   -4679.6463   -4182.9212   -4679.6463            0    2456.8428    20.153984    20.075579    20.999326     8496.388    2858.5637    946.36401    3565.6005    606.39743    254.83012   -209.67402   -3878.4911 
 4178000    263.56563   -4697.0888   -4188.7803   -4697.0888            0    2433.6604    20.175498    19.982129    21.064159    8492.0034    1078.0719    3823.7244     2399.185   -1024.9043   -43.705887     257.5785   -3887.3784 
 4179000    276.83198   -4673.0941   -4139.2004   -4673.0941            0    2285.7749    19.977088    20.064552    21.015624    8423.7206    2806.5585    2794.4414     1256.325   -251.37781    537.82952    1139.7943   -3858.3899 
 4180000    262.11048   -4673.4738   -4167.9717   -4673.4738            0    3842.1669    20.261183    20.084143    20.849142    8484.1099    2248.1008    4312.8343    4965.5655   -778.94138    728.41532   -601.88578   -3692.5725 
 4181000    260.06545   -4697.0812   -4195.5231   -4697.0812            0    2527.6037    20.165368    20.165989    20.855366    8480.9304    2761.3351    1977.9297    2843.5464   -143.51365    -927.2599   -574.17394   -3882.8948 
 4182000    254.56747   -4688.1184   -4197.1636   -4688.1184            0    1542.0941    20.106441    20.068098     21.08508    8507.7881    1937.3684    1483.8509    1205.0631    287.42898    597.06114   -1956.4182   -4005.8246 
 4183000    253.02131   -4704.9363   -4216.9635   -4704.9363            0    1248.8505    20.072026    20.096147    21.474615    8662.2236    1554.1927    2160.5033    31.855605    7.7613466    1742.0995   -59.328739   -4059.1966 
 4184000    258.76389    -4713.914   -4214.8661    -4713.914            0    2035.0605    20.111816    20.082881    20.918911    8449.2152    1881.6372    3347.4181    876.12629     137.2317    215.76544    532.80797   -3964.0995 
 4185000     268.7968   -4677.5168   -4159.1196   -4677.5168            0    3536.8121    20.218955    19.987649    20.865635    8432.4163    2879.9884    4858.8538    2871.5941    228.42687    14.001871   -191.87486    -3724.169 
 4186000    255.04147   -4643.6877   -4151.8188   -4643.6877            0    2604.0346    19.887496    20.214246    21.027608    8453.3236    3034.1727    2729.8267    2048.1043   -143.77964   -1216.3434    226.66515   -3830.7854 
 4187000    250.55083   -4683.7112   -4200.5028   -4683.7112            0    1036.9164    20.367804     19.99418    21.160353    8617.2901    1093.9337     1080.093    936.72247   -486.51954   -377.52202    -226.5871    -4070.189 
 4188000    262.79282   -4683.2193   -4176.4012   -4683.2193            0    3250.2823    20.254209    19.817618    21.010164    8433.2734    1627.8707    4717.2444    3405.7319    161.31359    929.85312    216.73822   -3776.6469 
 4189000    257.69695   -4720.9509   -4223.9607   -4720.9509            0    1939.9669    20.120656    20.132266    20.888988    8461.5944    2926.2976    1468.7409    1424.8622   -176.52439    569.24097   -278.49037   -3984.5617 
 4190000    267.42703   -4656.2434   -4140.4879   -4656.2434            0    3844.0401    20.197655     20.18194    20.799505    8478.4578    3564.3204    4099.2028    3868.5971    488.25142    1773.8318    714.27843   -3665.1739 
 4191000    270.78852   -4699.1404    -4176.902   -4699.1404            0    2998.2826    20.008241    20.011711    21.207024    8491.2742    3352.1772    4295.4397    1347.2308    163.05974     1021.184   -459.44438   -3805.6051 
 4192000    256.07333   -4669.2446   -4175.3856   -4669.2446            0    3285.3691    20.129628    19.999799    21.139619    8510.5676    1877.9814    6318.8182    1659.3077    123.10838   -1.9838437    -1010.248   -3767.6125 
 4193000    255.56663   -4663.9142   -4171.0325   -4663.9142            0    5881.1917    20.075383    20.153183    20.757923       8398.3    7342.1273     4232.725    6068.7228   -259.02934    513.78464   -1735.7102   -3450.7006 
 4194000    269.85348   -4679.0219   -4158.5868   -4679.0219            0    3825.8133    20.278634     20.06651    20.814022    8469.6711    1923.0735    4745.1556    4809.2107    23.048099    540.45441   -380.81008   -3686.0167 
 4195000    276.33927   -4723.6972   -4190.7537   -4723.6972            0    3711.2252    19.972528    19.995338     20.94985    8366.4785    3964.1365    2870.5033    4299.0358   -283.84485   -205.73203   -1324.6928   -3737.9229 
 4196000    268.70798   -4704.1953   -4185.9694   -4704.1953            0    2784.2877    20.074088    20.178844    20.826411    8436.1938    2284.7726    3220.6667    2847.4238    646.53152    291.72995     267.4415   -3843.4095 
 4197000    260.72584   -4681.1034   -4178.2717   -4681.1034            0     3701.542    20.056299    20.036281    20.826738    8369.3005    4143.0855    2927.7822    4033.7584   -146.38934    1043.3496   -719.46673   -3726.4701 
 4198000    264.65557   -4700.7028   -4190.2923   -4700.7028            0    3183.7066    19.878514    20.214151    21.129701    8490.4902    3005.6537    3549.5656    2995.9003    109.85707     103.6524   -183.32867   -3796.0695 
 4199000      267.837   -4672.5302    -4155.984   -4672.5302            0    2732.0546    20.093236    20.112455    21.138015    8542.3855    2167.7215    2099.3068    3929.1356   -446.37483    394.38761   -188.23185   -3815.6193 
 4200000    256.41814   -4688.1652   -4193.6412   -4688.1652            0    1929.3011    20.096936     20.27193    20.876167    8505.0268    165.48598    3484.6954    2137.7219    246.78756    411.09518   -449.56617   -3954.3363 
 4201000    250.83719   -4679.6995   -4195.9389   -4679.6995            0    3313.9285    20.288955     20.16045    20.807541    8511.0014    3356.4068    2972.2316    3613.1471   -493.42048   -638.77795    159.54385   -3784.6001 
 4202000    257.51278   -4676.6107   -4179.9757   -4676.6107            0    2439.7372    20.183407    19.941513    21.301477     8573.582    2832.7475    2809.6178    1676.8463    156.54768   -4.5528664    54.312361   -3874.9185 
 4203000    258.83184   -4696.7065   -4197.5275   -4696.7065            0    4152.1684    20.250708    19.839181    20.925662    8407.0409    4165.0105    4358.1904    3933.3044    369.77602    113.74807    1029.6583   -3688.4382 
 4204000     245.0649   -4670.6072   -4197.9789   -4670.6072            0    3671.7505    20.033238     20.25962    20.759435    8425.5447    4012.9607    3488.4597    3513.8311   -394.84038    -712.9748    362.24677   -3746.8018 
 4205000    256.18661     -4702.25   -4208.1726     -4702.25            0    3507.1757    20.311999    19.982365    20.802596    8443.3946     3912.596    2697.3433    3911.5878   -228.48167    26.025705   -466.19624   -3776.3051 
 4206000    245.30919   -4684.4123   -4211.3129   -4684.4123            0    3224.0836    19.962847    20.132938    21.092311     8477.227    3606.3557    3568.5336    2497.3614    82.559543    478.34089    391.04359   -3812.7141 
 4207000    250.11538   -4665.8956   -4183.5271   -4665.8956            0    984.35407    20.321116    20.090136     20.95514    8555.0193   -1221.8447    1838.9365    2335.9704   -372.55333   -162.44782   -939.69727    -4060.713 
 4208000    267.86191   -4697.6999   -4181.1057   -4697.6999            0    2142.6961    20.149869    20.207542     20.88959    8505.8091    996.68748    2405.1584    3026.2423    362.19515   -514.82179     710.0327   -3915.3075 
 4209000     261.5126    -4707.093   -4202.7439    -4707.093            0    2130.3584    20.060489    20.140542    21.048637    8504.2622    2383.7612    2592.4826    1414.8315     50.65229   -450.36226    276.21595   -3938.5242 
 4210000    275.34727   -4688.8708   -4157.8404   -4688.8708            0     3376.957    20.134321    19.905924    21.038378     8432.019     2946.258    4261.0208    2923.5923    -218.5133   -917.74534    723.52587   -3742.5681 
 4211000    268.42713   -4704.2003    -4186.516   -4704.2003            0    3229.6024      20.0118    20.052812    21.284738    8541.4137    4695.3648     1912.252    3081.1903    -835.0223    126.19262    664.32108   -3784.2117 
 4212000    254.69939   -4675.8108   -4184.6016   -4675.8108            0     3024.167    20.262689    20.003835     20.85109    8451.6032      3796.89    1281.0882    3994.5229    168.33824   -711.22352   -224.34208   -3811.8489 
 4213000    273.39948   -4685.4627   -4158.1888   -4685.4627            0    2436.8703    20.234141    19.931238    21.029279    8480.9295    2188.0577     3106.284    2016.2691    -264.8617    144.57473    1994.0849   -3856.7829 
 4214000    271.25814   -4695.6924   -4172.5482   -4695.6924            0    3419.4963    19.994895    20.171409    21.008692    8473.3353    4630.5897     2256.575    3371.3243   -749.09338    1194.6968   -765.27675   -3749.9843 
 4215000    253.00912   -4718.8996   -4230.9503   -4718.8996            0    3281.4148    20.350422    20.065885    20.740248    8469.2641    1928.0675    4366.1472    3550.0297   -703.12817    1015.7824    150.00209   -3825.6446 
 4216000    272.49975   -4727.6172   -4202.0785   -4727.6172            0    2170.0955    20.132712    20.094586     21.01075    8500.0777    3289.6408    1433.7552    1786.8905    181.41317    402.11434    994.26613   -3933.0628 
 4217000    264.02814   -4737.4587   -4228.2582   -4737.4587            0    2517.5158    20.151922    19.876508    21.268405    8519.0561    600.50623    5995.0821      956.959   -1026.7596    1605.5943    70.719454   -3915.4778 
 4218000     265.6225   -4676.5829   -4164.3076   -4676.5829            0    1738.1172    20.114531    20.275214    20.965918    8550.4553    313.61721    2879.2217    2021.5127   -182.83701    736.35906    558.42554   -3947.5651 
 4219000     266.2944    -4691.201   -4177.6299    -4691.201            0    2295.8556    20.127759    20.217218    20.795376    8462.2058    3254.4366    503.15797    3129.9722   -207.97893    79.368513   -165.50114   -3894.2924 
 4220000    252.06086   -4704.4739   -4218.3534   -4704.4739            0    3982.2431    20.176803    20.064712    20.802178    8421.5897    2935.4064    3865.7366    5145.5865   -6.3305401    289.75433   -1062.2666   -3729.2533 
 4221000    265.29791   -4699.1473    -4187.498   -4699.1473            0    2943.7637    19.952227    20.167914    20.929524    8421.9319    3940.7628    1469.2581    3421.2701    -38.95983     566.7268    254.75161   -3825.9295 
 4222000    260.41992   -4717.6896   -4215.4479   -4717.6896            0     3555.739    20.022371    20.130301    20.967435     8451.058     4430.733    2716.3977    3520.0862    116.12379   -428.05092    1167.9287    -3777.203 
 4223000    249.33368   -4670.8896   -4190.0286   -4670.8896            0    4169.5691    20.235908    19.837072    20.820198     8357.668    3742.6533    4205.3778    4560.6763     847.2868   -589.63162      -870.32   -3681.8081 
 4224000    260.26026   -4689.7668    -4187.833   -4689.7668            0    2351.0512    20.227936    20.215005    20.772969    8494.2299    1543.0793    3542.9098    1967.1645   -240.88081   -615.08568   -111.12522   -3896.5856 
 4225000    257.38934   -4706.8961   -4210.4991   -4706.8961            0    657.89919    20.063886    20.116692    21.030433    8488.2825    1106.5913   -89.582656    956.68897    4.0078659   -963.00131    1128.3963   -4129.0559 
 4226000    254.56495   -4686.4895   -4195.5396   -4686.4895            0    3289.7305    20.245241    19.922613    20.926482    8440.4476    1742.4531    4359.3196    3767.4188    33.637262    1023.8709   -267.28149   -3790.5893 
 4227000    278.19078   -4651.2599   -4114.7455   -4651.2599            0    2987.7669    19.953587    20.220729    20.997391    8471.9447    4509.0196    1643.7153    2810.5658   -228.99521   -464.68679    1581.1229   -3745.5931 
 4228000    275.78085   -4694.3189   -4162.4523   -4694.3189            0    2570.1681    20.167995    20.003549    21.116195    8518.9377    1958.6255    4181.9998    1569.8791   -243.91124   -340.84596    1699.6686   -3843.1347 
 4229000    265.91865    -4687.238   -4174.3915    -4687.238            0    3912.7177    20.263455    20.073626    20.807182    8463.5504    3841.8777    3012.6591    4883.6163   -209.08871    436.08589   -643.05578   -3691.4362 
 4230000    262.67354   -4647.7229   -4141.1349   -4647.7229            0    2941.9728    19.996772    20.274681    20.853157    8454.4572    2075.7152    3064.3412    3685.8621     67.25351    847.07542   -314.81666   -3778.3908 
 4231000    258.28209   -4659.7256   -4161.6068   -4659.7256            0    4288.5598    20.039837    19.906999    21.131981     8430.245    6453.9763    2590.6927    3821.0104   -273.83931    1000.2793    590.98886   -3634.3435 
 4232000    258.70353   -4681.2187   -4182.2871   -4681.2187            0    2835.5945    20.221792    20.161222    20.802727    8481.1897    2011.5964    2752.8402    3742.3467    -295.1944    1177.8425    257.23501    -3831.554 
 4233000    266.66888   -4703.9109   -4189.6175   -4703.9109            0    2556.0534    19.851186    20.315539    20.981452    8461.5581    4259.1495    1336.0813    2072.9293   -250.44099   -1267.2022   -165.51606   -3874.1925 
 4234000    268.23051   -4685.9394   -4168.6343   -4685.9394            0    4162.7407    19.980597    20.076918    21.067381    8451.1548    5713.7904    3511.8886    3262.5431   -397.85191    6.6040287   -274.63351   -3655.5706 
 4235000    259.08349   -4715.5203    -4215.856   -4715.5203            0    2008.4081    20.186879    20.198616    20.780967    8473.3772    1429.5129    2045.4057    2550.3059    679.86585   -268.86361    289.29847    -3967.666 
 4236000    252.35967    -4695.569   -4208.8722    -4695.569            0    3911.2598    20.145751    19.932001    20.859783    8376.1443     3797.343    5459.0207    2477.4157   -329.81135   -149.31477    814.61355   -3731.0826 
 4237000     262.2149   -4688.6135     -4182.91   -4688.6135            0    1676.1879    20.148784    20.136063    20.999314    8519.7829    1900.8918    1619.5478     1508.124    232.77171    176.48339   -573.92301   -3974.6398 
 4238000    260.13281   -4672.3392   -4170.6512   -4672.3392            0    2788.5031    20.342648    20.133428    20.699919    8478.0087    1502.5793      3338.86      3524.07    488.33411   -398.97605    60.985699   -3825.8721 
 4239000    254.46332    -4682.465    -4191.711    -4682.465            0    3669.5528    20.204219    19.977887    20.871553    8424.5439    4443.0532    2676.5675    3889.0377    22.910796    1130.8844    656.79922   -3740.8576 
 4240000    262.90203   -4679.9835   -4172.9548   -4679.9835            0    3142.5155    20.056484    20.023467     21.28767    8549.1358    2236.9553    4524.8878    2665.7034   -417.51418    671.08628    363.09405   -3781.1448 
 4241000    260.75105   -4712.0124   -4209.1321   -4712.0124            0    2678.2098    20.057776    20.106587    20.972801    8458.1926    2052.3348    2627.9738    3354.3209   -35.259902    179.04831    6.1702975    -3878.764 
 4242000    256.82435   -4677.4553    -4182.148   -4677.4553            0    2747.8766    20.163591    20.257818    20.779257    8487.7108    4017.8384    1668.7638    2557.0277    175.72909    72.911833    17.682172   -3842.0033 
 4243000    266.21013    -4675.632   -4162.2233    -4675.632            0     1642.314    20.328079    20.158378    20.675109     8472.269    519.40668    2400.4026    2007.1328   -69.209518    1017.0446   -1493.7886   -3959.3001 
 4244000    257.62112   -4661.4951   -4164.6511   -4661.4951            0    2905.8489    20.144938     19.95121    20.938409    8415.4796    2378.1986    4000.6672     2338.681    1020.3496   -1222.5333   -9.7463425   -3808.0129 
 4245000    273.52868   -4665.6849   -4138.1619   -4665.6849            0    4834.8171    19.973529    20.156778    21.015262    8460.7861    4223.9359    5848.1853      4432.33   -552.34517   -296.96286    767.43793   -3541.5846 
 4246000    271.20491   -4678.6375    -4155.596   -4678.6375            0    4665.1088    19.741261     20.11798    20.958824    8323.8871    6672.9127     3470.475    3851.9386    4.6073793    390.04577   -90.868389   -3589.2735 
 4247000    264.17343   -4699.8353   -4190.3547   -4699.8353            0    2265.1452    20.211009      20.1158    20.807236    8459.4027      3067.07    1062.0223    2666.3432    -6.921735    234.54548   -49.054875   -3910.8998 
 4248000    275.09553    -4694.007   -4163.4621    -4694.007            0    2663.5643    20.179421     20.19609    20.913673    8523.2715    2472.6169    1805.4388    3712.6372    437.51795   -362.20996   -699.55364   -3832.3726 
 4249000    254.05214   -4696.5396   -4206.5787   -4696.5396            0    3537.5284    20.153213    20.040591    20.837937    8416.0742    2801.9153    4201.3336    3609.3363   -681.38877   -954.86865    262.41503   -3772.3831 
 4250000    257.18167   -4644.1206   -4148.1242   -4644.1206            0    3128.0072    20.140519    20.291371    20.823945    8510.3038    4042.5049    2460.5231    2880.9935   -105.05435   -395.94219    388.03742   -3759.8945 
Loop time of 418.836 on 64 procs for 250000 steps with 972 atoms

Performance: 103.143 ns/day, 0.233 hours/ns, 596.892 timesteps/s
193.0% CPU use with 32 MPI tasks x 2 OpenMP threads

MPI task timing breakdown:
Section |  min time  |  avg time  |  max time  |%varavg| %total
---------------------------------------------------------------
Pair    | 26.525     | 34.254     | 46.532     |  87.7 |  8.18
Bond    | 0.77355    | 1.1136     | 1.9168     |  18.9 |  0.27
Kspace  | 179.49     | 194.24     | 206.76     |  43.2 | 46.38
Neigh   | 2.3802     | 2.8462     | 3.2105     |  13.1 |  0.68
Comm    | 81.429     | 88.107     | 94.138     |  30.1 | 21.04
Output  | 0.5213     | 0.5216     | 0.5229     |   0.0 |  0.12
Modify  | 77.799     | 81.543     | 84.737     |  16.3 | 19.47
Other   |            | 16.21      |            |       |  3.87

Nlocal:        30.3750 ave          37 max          24 min
Histogram: 3 1 2 6 4 2 10 3 0 1
Nghost:        2554.09 ave        2587 max        2532 min
Histogram: 3 7 1 5 4 5 4 1 0 2
Neighs:        9258.62 ave       11711 max        6793 min
Histogram: 3 1 5 1 4 7 4 2 2 3

Total # of neighbors = 296276
Ave neighs/atom = 304.81070
Ave special neighs/atom = 2.0000000
Neighbor list builds = 8358
Dangerous builds = 0

unfix		3
unfix		2
unfix		1

write_data	data.final.${pid}
write_data	data.final.0
System init for write_data ...
PPPM initialization ...
  extracting TIP4P info from pair style
  using 12-bit tables for long-range coulomb (../kspace.cpp:340)
  G vector (1/distance) = 0.37174303
  grid = 24 24 25
  stencil order = 5
  estimated absolute RMS force accuracy = 0.003491291
  estimated relative force accuracy = 1.0513919e-05
  using double precision FFTW3
  3d grid and FFT values/proc = 3458 576
Last active /omp style is kspace_style pppm/tip4p/omp
WARNING: Not all mixed pair coeffs generated from mixing. Use write_data with 'pair ij' option to store all pair coeffs. (../write_data.cpp:312)

write_restart   restart.lmp.${pid}
write_restart   restart.lmp.0
System init for write_restart ...
PPPM initialization ...
  extracting TIP4P info from pair style
  using 12-bit tables for long-range coulomb (../kspace.cpp:340)
  G vector (1/distance) = 0.37174303
  grid = 24 24 25
  stencil order = 5
  estimated absolute RMS force accuracy = 0.003491291
  estimated relative force accuracy = 1.0513919e-05
  using double precision FFTW3
  3d grid and FFT values/proc = 3458 576
Last active /omp style is kspace_style pppm/tip4p/omp
Total wall time: 0:06:58
