#include		in.partitions
include		in.temp
variable        temperature equal 120.22
variable	tempDamp equal 100.0
include		in.pressure
variable        pressure equal 1974.8
variable        pressureDamp equal 1000.0 # This is 1 ps
include		in.seed
variable        seed equal 745823

units		real
atom_style	full
#include		in.box
read_restart	restart.lmp.${pid}
read_restart	restart.lmp.0
Reading restart file ...
  restart file = 30 Jul 2021, LAMMPS = 30 Jul 2021
  restoring atom style full from restart
  orthogonal box = (0.063143596 0.15491567 0.21075528) to (18.144429 23.474262 22.002441)
  2 by 4 by 4 MPI processor grid
  restoring pair style lj/cut/tip4p/long/omp from restart
  restoring bond style harmonic/omp from restart
  restoring angle style harmonic/omp from restart
  864 atoms
  576 bonds
  288 angles
Finding 1-2 1-3 1-4 neighbors ...
  special bond factors lj:    0        0        0       
  special bond factors coul:  0        0        0       
     2 = max # of 1-2 neighbors
     1 = max # of 1-3 neighbors
     1 = max # of 1-4 neighbors
     2 = max # of special neighbors
  special bonds CPU = 0.002 seconds
  read_restart CPU = 0.009 seconds
include 	in.setup
variable	out_freq equal 1000
variable	out_freq2 equal 10000
variable	out_freq3 equal 1000

timestep	2.0

neigh_modify    delay 7 every 1

include		in.tip4p
# This is TIP4P/Ice

# create groups ###
group ox type 2
288 atoms in group ox
group hy type 1
576 atoms in group hy

# set charges - beside manually ###
set group ox charge -1.1794
Setting atom values ...
  288 settings made for charge
set group hy charge 0.5897
Setting atom values ...
  576 settings made for charge

# ### TIP3P Potential Parameters ###
pair_style lj/cut/tip4p/long/omp 2 1 1 1 0.1577 8.5
pair_coeff 1 1*2 0.000 0.000
pair_coeff 2 2 0.21084 3.1668
bond_style  harmonic
bond_coeff  1 450 0.9572
angle_style harmonic
angle_coeff 1 55 104.52
kspace_style pppm/tip4p/omp 1.0e-5
pair_modify tail yes

thermo          ${out_freq}
thermo          1000
thermo_style    custom step temp pe etotal epair emol press lx ly lz vol pxx pyy pzz pxy pxz pyz enthalpy

restart 	${out_freq3} restart.lmp.${pid} restart2.lmp.${pid}
restart 	1000 restart.lmp.${pid} restart2.lmp.${pid}
restart 	1000 restart.lmp.0 restart2.lmp.${pid}
restart 	1000 restart.lmp.0 restart2.lmp.0


include         in.dump
dump            myDump all atom ${out_freq2} dump.water.${pid}
dump            myDump all atom 10000 dump.water.${pid}
dump            myDump all atom 10000 dump.water.0
dump            myDump2 all dcd ${out_freq2} dump.dcd
dump            myDump2 all dcd 10000 dump.dcd
dump_modify     myDump append yes
dump_modify     myDump2 append yes


variable natoms 	equal  "count(all)"                        # NUMBER ATOMS
variable H      	equal  "enthalpy/v_natoms"                 # ENTHALPY-per-atom
variable Vol      	equal  "vol/v_natoms"                 # volume-per-atom
fix AVG all 		ave/time ${out_freq} 1 ${out_freq} v_Vol v_H file vol_enthalpy.dat
fix AVG all 		ave/time 1000 1 ${out_freq} v_Vol v_H file vol_enthalpy.dat
fix AVG all 		ave/time 1000 1 1000 v_Vol v_H file vol_enthalpy.dat


timer           timeout 23:50:00 every 1000
New timer settings: style=normal  mode=nosync  timeout=23:50:00

fix 		1 all shake 1e-6 200 0 b 1 a 1
       0 = # of size 2 clusters
       0 = # of size 3 clusters
       0 = # of size 4 clusters
     288 = # of frozen angles
  find clusters CPU = 0.001 seconds
fix             2 all nph aniso ${pressure} ${pressure} ${pressureDamp}
fix             2 all nph aniso 1974.8 ${pressure} ${pressureDamp}
fix             2 all nph aniso 1974.8 1974.8 ${pressureDamp}
fix             2 all nph aniso 1974.8 1974.8 1000
fix             3 all temp/csvr ${temperature} ${temperature} ${tempDamp} ${seed}
fix             3 all temp/csvr 120.22 ${temperature} ${tempDamp} ${seed}
fix             3 all temp/csvr 120.22 120.22 ${tempDamp} ${seed}
fix             3 all temp/csvr 120.22 120.22 100 ${seed}
fix             3 all temp/csvr 120.22 120.22 100 745823


run             250000
PPPM initialization ...
  extracting TIP4P info from pair style
  using 12-bit tables for long-range coulomb (../kspace.cpp:340)
  G vector (1/distance) = 0.37212132
  grid = 24 27 25
  stencil order = 5
  estimated absolute RMS force accuracy = 0.0031025283
  estimated relative force accuracy = 9.3431719e-06
  using double precision FFTW3
  3d grid and FFT values/proc = 4410 672
Last active /omp style is kspace_style pppm/tip4p/omp
Neighbor list info ...
  update every 1 steps, delay 7 steps, check yes
  max neighbors/atom: 2000, page size: 100000
  master list distance cutoff = 10.8154
  ghost atom cutoff = 10.8154
  binsize = 5.4077, bins = 4 5 5
  1 neighbor lists, perpetual/occasional/extra = 1 0 0
  (1) pair lj/cut/tip4p/long/omp, perpetual
      attributes: half, newton on, omp
      pair build: half/bin/newton/omp
      stencil: half/bin/3d
      bin: standard
Per MPI rank memory allocation (min/avg/max) = 10.19 | 10.22 | 10.23 Mbytes
Step Temp PotEng TotEng E_pair E_mol Press Lx Ly Lz Volume Pxx Pyy Pzz Pxy Pxz Pyz Enthalpy 
26500000    124.91594   -4502.4455   -4288.3439   -4502.4455            0    2191.0788    18.081285    23.319346    21.791685     9188.328    2003.9277    2445.0476    2124.2611   -264.82728    -70.55764    78.039549   -3994.7342 
26501000    116.64757   -4517.6416   -4317.7117   -4517.6416            0    1882.8217    17.985825    23.390957    21.868664    9200.2709    1530.6205    864.61016    3253.2343   -59.985667    122.14083    421.45999   -4065.0812 
26502000    120.16045   -4522.8571   -4316.9062   -4522.8571            0    1778.2572    17.724895    23.503411    22.029485    9177.3845    2836.8068    1419.6148    1078.3498   -239.52915   -33.614119    -551.6174   -4078.8994 
26503000    116.61979   -4518.7856   -4318.9033   -4518.7856            0    2505.8887    17.918193    23.254761    22.005908    9169.4945    3079.7686    2974.5576      1463.34   -428.20028    3.3783232     333.3808   -3983.7966 
26504000    113.63633   -4529.4528    -4334.684   -4529.4528            0    1793.4079    18.074565     23.14783    22.041602    9221.9191    1238.2335    3336.5077    805.48246    257.86672   -50.257911    65.200254   -4093.4845 
26505000    119.28261   -4516.9661   -4312.5198   -4516.9661            0     1412.958    17.879532     23.40606    22.092679     9245.552    801.24345    2992.3719    445.25868    445.20459   -199.26212   -370.14908   -4122.0009 
26506000    119.77514   -4512.0317   -4306.7412   -4512.0317            0     2299.731    17.961036     23.19131    22.009518    9167.8436    1079.1185    2332.8424     3487.232    70.416841   -522.24684   -316.28472   -3999.2589 
26507000     123.0083   -4526.1083   -4315.2763   -4526.1083            0    2814.6134    17.945087    23.249478    21.943125    9154.9767    3324.2716    2933.0465     2186.522    -239.0869   -744.58769   -694.70171   -3939.4805 
26508000    125.73547   -4524.4723    -4308.966   -4524.4723            0    1034.7739    17.934632    23.379478    21.992741    9221.6074    1085.3334     1230.404     788.5844    730.92907    398.22628    167.60899   -4169.8017 
26509000    126.11008   -4517.7666   -4301.6182   -4517.7666            0    1981.9092    18.001098    23.244382    22.025168    9215.8678    1901.2885    1046.6161    2997.8231   -305.65634   -493.91089    384.37738   -4035.2417 
26510000    121.86333   -4520.8157   -4311.9461   -4520.8157            0    2348.0779    18.035034     23.02907    22.116618    9185.6966    2080.8244    2946.0221    2017.3874    220.08903   -141.70266    591.28013   -3997.3883 
26511000    114.24598   -4510.7349   -4314.9212   -4510.7349            0    2335.6455     17.85321    23.412953    21.926757    9165.3048    1995.9475    2611.6099     2399.379    188.88106    47.392284   -165.30686   -4002.7234 
26512000    130.51833   -4517.4165   -4293.7126   -4517.4165            0    1817.1423    17.988887     23.29867    21.895673    9176.8518    1981.8106    2421.8712    1047.7449   -221.76805   -721.19425    39.974188   -4050.5154 
26513000    114.54251   -4502.8754   -4306.5534   -4502.8754            0    1648.6687    18.103618    23.225296    21.959625    9233.1853    1879.4265    1810.4671    1256.1123    203.99294   -358.46782    250.57152   -4084.5494 
26514000    115.99883   -4525.3631    -4326.545   -4525.3631            0    2124.4222    17.917349    23.424289    21.888549    9186.6497    2602.3208    1970.5724    1800.3734   -545.08641    95.278367   -148.89751   -4041.9195 
26515000    119.09056   -4515.6728   -4311.5556   -4515.6728            0    2798.7905    17.931398    23.530124    21.711148    9160.5417     3771.787    1910.6922    2713.8924   -315.68659    632.35302    161.73945   -3937.6453 
26516000    117.80396   -4518.3478   -4316.4358   -4518.3478            0    1587.0792    18.050013    23.459208    21.782207    9223.4365    1742.6504    1241.8311     1776.756   -437.20494   -452.03167    -319.3028   -4102.9509 
26517000    116.80371   -4517.7578   -4317.5602   -4517.7578            0    2334.1132    17.986775    23.396638    21.810973    9178.7132    1188.2634    2151.7676    3662.3087   -116.81841   -108.50939    397.45714   -4005.1109 
26518000    115.63185   -4530.4321    -4332.243   -4530.4321            0    1935.5897    17.900251    23.406738     21.94869    9196.2043    2453.5753    1634.6824    1718.5113    581.98443    245.15233      68.8571   -4072.6472 
26519000    118.26386   -4520.2981   -4317.5979   -4520.2981            0    1488.2468    18.039473    23.298538    21.953402    9226.8686    269.78195    1245.2541    2949.7044   -9.3275403   -537.15246    156.16513   -4117.3328 
26520000    118.45268   -4527.0177   -4323.9938   -4527.0177            0    2237.9448    18.003817    23.290816    21.921442    9192.1778    1666.5181    1925.0188    3122.2975   -72.738078    150.37441    475.39978   -4023.9783 
26521000    117.92176   -4529.0268   -4326.9129   -4529.0268            0    2111.5439    17.880325    23.399981    21.943478    9181.1353    2020.6575    2182.8724    2131.1016   -110.85512    87.169428   -64.788949   -4044.1826 
26522000    120.00084   -4512.7036   -4307.0263   -4512.7036            0    1233.9387    18.010551    23.395455    21.924595    9238.2576    811.31244    898.35905    1992.1446     282.3885   -520.44308   -82.115999   -4140.7771 
26523000    117.36176   -4532.7364   -4331.5823   -4532.7364            0    1805.5577    18.016273    23.213292    22.033154    9214.6395    1201.8665    2172.4349    2042.3717   -624.49604   -398.24972    61.576805   -4088.9405 
26524000    126.63629   -4511.4087   -4294.3584   -4511.4087            0    1095.8887    17.912933    23.373798    22.120634    9261.7608    2517.3749    281.75706    488.53415   -713.82028   -372.04608    373.78899   -4146.3331 
26525000    126.04506   -4528.4354   -4312.3985   -4528.4354            0    2036.6827    17.883624    23.462384    21.889764    9184.7797    2510.2101    1546.0191     2053.819    22.970345     58.43724   -265.37687   -4039.5836 
26526000    126.35477   -4517.9187   -4301.3509   -4517.9187            0    2345.9247    18.096776    23.315773    21.803726    9199.8714    2340.8272    2736.1871    1960.7598    578.73801    757.29558   -6.1636549   -3986.5966 
26527000    120.33736   -4508.5099   -4302.2557   -4508.5099            0    3464.7846    17.930772     23.24512    21.914713     9134.117    2566.4991     3109.566    4718.2887   -196.37041   -56.156153   -104.33732   -3840.7058 
26528000    117.48499   -4523.4286   -4322.0633   -4523.4286            0    2402.0748    17.889905    23.346123    21.990234    9184.4392    3623.8389    1692.4302    1889.9555    1381.4015    247.25615    549.87683   -4000.3159 
26529000    123.51452   -4542.1951   -4330.4954   -4542.1951            0    3347.0833    17.880311    23.522762    21.747113    9146.7118    2783.4232    3202.7323    4055.0943   -145.79381   -784.72288   -130.37271   -3884.0099 
26530000    124.36675   -4515.7792   -4302.6188   -4515.7792            0    3086.7777    17.932534    23.355232     21.81848    9137.9828    3393.6234    1385.6501    4481.0597    547.02546   -84.667024    92.986204   -3891.2498 
26531000    124.70067   -4516.0521   -4302.3194   -4516.0521            0    1336.9519    18.038253     23.37026    21.935542    9247.1177    542.49736    1930.2375    1538.1209   -174.40652     27.06057    7.8255485   -4122.0184 
26532000    122.28009   -4518.0698   -4308.4859   -4518.0698            0    1729.5911    17.861636    23.420942    21.983445     9196.474    1009.1231    2912.5022    1267.1479    165.47127    301.44267   -779.75094   -4076.5112 
26533000    121.47687   -4520.3905   -4312.1833   -4520.3905            0    1946.8809    17.941165    23.283284    21.996543    9188.5993    2254.5911    1755.2039    1830.8477    146.30075   -89.591181   -247.53763    -4051.289 
26534000     114.7327    -4524.912   -4328.2641    -4524.912            0    2217.2927    17.868984    23.288181    22.030905    9167.8558    1931.6195    3018.1226     1702.136   -458.98071    518.12462   -390.17602   -4031.8037 
26535000    112.10821    -4525.097   -4332.9474    -4525.097            0    2353.8026    17.830998    23.296589    22.045268    9157.6363    2235.3828    2406.7858    2419.2392    880.88738   -22.396258    -39.56955   -4018.5859 
26536000    115.01311   -4523.5313   -4326.4028   -4523.5313            0     1169.227    17.831898    23.276695     22.23401    9228.6185    2030.6948     1122.374    354.61241    -525.3809    984.57304    -537.4574   -4169.0366 
26537000    121.90568   -4523.0212    -4314.079   -4523.0212            0     1483.161    18.026349    23.309264    21.967081    9230.1484    1107.5054    1099.4042    2242.5733    318.65992   -341.25118    14.100924   -4114.4274 
26538000     119.0564   -4520.6651   -4316.6065   -4520.6651            0    473.46074    17.997747    23.310906    22.095447    9270.0074    456.09247    250.56382    713.72594   -139.96721   -201.25569    669.90287   -4252.5976 
26539000    117.04662   -4512.2448   -4311.6309   -4512.2448            0     2648.111    17.844335     23.32475    21.989925    9152.5287    2884.3394    2507.0818    2552.9119      90.5866   -280.76761   -120.86738   -3958.1604 
26540000    123.76904   -4532.2972   -4320.1613   -4532.2972            0    2284.5341    17.883583    23.369359    21.956335    9176.1644    2513.1693    2313.1242    2027.3087   -127.30128    97.641738   -20.802853   -4014.4336 
26541000    116.70532   -4518.4437   -4318.4147   -4518.4437            0    2407.6839    17.859884    23.410178    21.932504    9170.0468    2973.7024    1193.1471    3056.2021     197.5482    195.01447   -467.04624   -3996.4214 
26542000    117.26938   -4522.7971   -4321.8014   -4522.7971            0    1998.9129     17.91809    23.265279    21.996531    9169.6801    2122.6917    1557.1821    2316.8649    1.2611438   -85.440382   -43.616544   -4054.4861 
26543000    124.29296   -4519.6612   -4306.6273   -4519.6612            0    2543.2328    17.913113    23.377473    21.898884    9170.4489    3454.0667    1656.0074    2519.6242    329.65453   -303.74513    9.2517514   -3966.4913 
26544000    122.18308   -4521.0541   -4311.6365   -4521.0541            0    1946.5018    17.845967    23.372856    22.019233    9184.4691    2412.9718    2457.9189    968.61456    691.02872    146.47953    421.99379   -4050.9102 
26545000    113.14085   -4531.4322   -4337.5126   -4531.4322            0    2065.6166    18.007908    23.207179    21.971041    9181.9779    2084.9392    2883.2319    1228.6788    73.759283   -325.98288    641.24052   -4060.9065 
26546000     121.0198   -4515.0002   -4307.5764   -4515.0002            0    2017.9367    18.015174    23.309284    21.922018    9205.5114    1263.7104    2452.4098    2337.6899    -85.63361   -93.336718   -110.32791   -4036.6625 
26547000    114.66545   -4520.4323   -4323.8996   -4520.4323            0    2743.0249    17.913027    23.440879    21.794468    9151.4338    2478.0306    3115.6463    2635.3977   -414.88881    367.38338   -264.42255   -3957.8038 
26548000    124.01825   -4524.6809   -4312.1179   -4524.6809            0    2032.0011    18.022792    23.419544    21.812047    9206.5502    2326.3013    1317.8029    2451.8991   -365.85286     416.3902    338.71697    -4039.285 
26549000    118.46782   -4516.2123   -4313.1625   -4516.2123            0    1000.1857    18.017772    23.478216    21.850301    9243.2265    1123.6383    896.12573    980.79306   -876.99054   -186.90164   -201.27902   -4178.3345 
26550000    121.44396   -4530.8601   -4322.7093   -4530.8601            0    2330.4782    17.838392    23.487955    21.886357    9170.1067    2566.1565    1789.1662    2636.1119   -177.27489   -57.223381   -403.24918   -4011.0391 
26551000    123.45333   -4517.9707   -4306.3759   -4517.9707            0    1899.5526    18.034047    23.335607    21.880485    9208.0832    1374.6345     1763.477    2560.5464   -599.04095   -244.68199   -18.221164   -4051.2841 
26552000    117.92698   -4520.7206   -4318.5978   -4520.7206            0    1573.1775    18.048329    23.358398    21.820572    9199.1181    1628.7487    1990.6936    1100.0904    491.34991    111.45262   -166.11791   -4107.5408 
26553000    114.39306   -4520.4996   -4324.4338   -4520.4996            0    1991.7945    17.936612    23.392334    21.914112     9194.706    1951.5656    2100.0711    1923.7467   -336.34161   -85.178007    -418.1953   -4057.3434 
26554000    125.74456   -4522.9109   -4307.3891   -4522.9109            0     1416.493    17.902131    23.492256    21.938484      9226.48    1514.2655    1471.3014    1263.9122   -129.70335   -687.01523    451.50654   -4116.7876 
26555000    118.35864   -4521.4574   -4318.5947   -4521.4574            0    2139.0508    18.069047    23.090825    22.059737    9203.9666     1933.303    3587.1316    896.71788     823.6954   -365.68239    570.94019    -4031.469 
26556000    125.35208   -4514.8386   -4299.9894   -4514.8386            0    2677.7192    17.909619    23.269174    21.985114    9162.1214    2599.4081    2702.9545    2730.7949   -618.33144    37.281831    180.65241   -3942.1922 
26557000    120.34216   -4522.5794   -4316.3171   -4522.5794            0    1944.4656     17.82377    23.667962    21.870409    9226.0822    2592.7919     545.4402    2695.1647   -614.46359   -545.72789    172.51135   -4054.6835 
26558000    120.62262   -4523.9529   -4317.2098   -4523.9529            0    1990.1893     18.00914    23.303063    21.883167    9183.6676    1986.8352    2104.6995    1879.0333   -1012.4188    217.83058   -68.981763   -4050.6551 
26559000    118.57368   -4513.5856   -4310.3544   -4513.5856            0    2462.2598    18.049349    23.117092     21.96532    9164.9964    2378.8555    2898.0909     2109.833   -17.788341   -465.58352    277.01846   -3981.2436 
26560000    114.39303   -4530.3089   -4334.2432   -4530.3089            0    1210.9651    17.843626    23.511386     22.05352    9252.0775    1743.5868    844.59105    1044.7175    246.97098    131.54553    560.82946   -4170.8452 
26561000    118.26031   -4521.9141     -4319.22   -4521.9141            0    854.67521     17.89662    23.522459    21.915696    9225.9052    542.97255    964.14859    1056.9045    53.231926   -318.85649    32.684153   -4204.2231 
26562000    122.84205   -4519.3745   -4308.8274   -4519.3745            0    2149.1907    18.040822    23.277068    21.850212    9175.7224     1983.702    1328.8005    3135.0697    156.28516    52.441274    13.133797    -4021.226 
26563000    122.24252   -4508.8582   -4299.3387   -4508.8582            0      2317.02    17.955133    23.376384    21.869476    9179.1892    2326.8975    2503.7923    2120.3702   -636.84048    476.82591   -393.17834   -3989.1614 
26564000    124.39781   -4527.5402   -4314.3266   -4527.5402            0    2371.2236    17.819743    23.407551     22.00326    9177.9237    2473.5458    2493.2198    2146.9052    290.00655   -115.00909    347.24496   -3996.9369 
26565000    116.04714   -4527.0826   -4328.1817   -4527.0826            0     2513.998    17.917539    23.240261    22.022712    9170.4401    2777.3909    2517.5964    2247.0067    734.32986    521.36853   -469.14915    -3991.956 
26566000    122.63711   -4514.5383   -4304.3425   -4514.5383            0    2015.2491    17.967493    23.153987    22.067448    9180.4796     2065.276    1899.8628    2080.6084   -62.950237     47.95342    225.57227   -4034.5251 
26567000    113.81417   -4530.8542   -4335.7806   -4530.8542            0    1701.7548    17.888435    23.342982    22.081497    9220.5579    1850.2235    2113.2779     1141.763    820.12485    164.52668   -371.14424   -4106.9416 
26568000    119.15003   -4524.4895   -4320.2705   -4524.4895            0    1650.1892    17.869273    23.415132      22.0574    9229.0672    2746.0002    1285.4253    919.14215   -894.28221   -78.234356    51.666781   -4098.1608 
26569000    116.99889   -4533.8957   -4333.3636   -4533.8957            0    2739.0006    17.886631    23.243658    21.959682    9129.7538    2739.1754     3655.473    1822.3533   -272.75171    264.94529    410.60047   -3968.6709 
26570000    118.62519   -4521.8488   -4318.5293   -4521.8488            0    1400.9484    17.958943    23.124128    22.213016    9224.7303      1014.74    2670.6464    517.45893   -596.35435   -77.055194    209.29829   -4130.0552 
26571000    118.34778   -4523.4416   -4320.5976   -4523.4416            0    1765.9156    17.911154    23.407367     21.94703    9201.3573    1960.6648    1318.4848    2018.5973   -597.18187   -963.07916     215.4996   -4083.6252 
26572000    132.58982   -4517.3294    -4290.075   -4517.3294            0    2870.2332    18.041233    23.400847    21.705583    9163.6657    2519.0485    3309.9394    2781.7117    152.28445    13.149866    604.14626   -3906.4894 
26573000    114.50325    -4528.141   -4331.8864    -4528.141            0    1980.6412    18.071895    23.235976    21.900732    9196.5139    2141.9182    3120.1598    679.84568    -400.0766   -124.68389    680.83559   -4066.2394 
26574000    122.85448   -4529.6486   -4319.0802   -4529.6486            0    2613.5444    17.907479    23.458369    21.803267    9159.1219    3217.2686     1609.161    3014.2036     631.5896   -351.47688   -110.10549   -3969.9724 
26575000    116.58951   -4518.4288   -4318.5984   -4518.4288            0    1942.6477    17.851761    23.418753    22.006492    9200.1655    3417.2021    1567.0784    843.66251    89.587459   -450.02283    593.15139   -4057.9437 
26576000    118.19798   -4523.3805   -4320.7932   -4523.3805            0    2251.2437    17.967575     23.21104    22.006294    9177.6391    1815.9621    2389.5024    2548.2666   -470.29407    275.98543    342.44301   -4019.4723 
26577000    118.79379   -4530.3267   -4326.7182   -4530.3267            0     3054.097    18.004593    23.134113    21.927988    9133.4519    3245.9768    3175.5848    2740.7293   -419.36288   -49.848496   -143.70891   -3919.9063 
26578000    127.83314   -4515.7698   -4296.6682   -4515.7698            0    1170.8829    17.994048    23.427033    21.950957    9253.3635    1929.7094    2179.7833   -596.84388   -79.508291   -617.17758   -85.580617   -4138.6566 
26579000    117.01304   -4519.9816   -4319.4252   -4519.9816            0    1824.2753    17.939393    23.599356     21.72726    9198.4118    1884.6848    1331.9566    2256.1844   -719.35962    238.41808   -29.224005   -4074.6998 
26580000    124.06829   -4510.2518    -4297.603   -4510.2518            0     2130.173    17.962812    23.277738    21.953034     9179.302    2962.7889     2146.499     1281.231   -99.928176    -24.56686    254.40739   -4012.4352 
26581000    123.98268   -4528.0739   -4315.5718   -4528.0739            0    2714.8199    17.914696    23.239943    22.017483    9166.6823    2954.5752    1972.5339    3217.3506    -693.9614     327.8535   -293.64291   -3952.6366 
26582000    121.08407    -4534.449   -4326.9151    -4534.449            0    924.10593    17.883042    23.466582     22.05372    9254.9293    1171.7704    1364.9672    235.58025   -376.33452    84.586806    634.68431   -4202.1851 
26583000    114.02418    -4523.745   -4328.3114    -4523.745            0    1206.7891    17.952182     23.41674    21.962709    9232.7182    695.61995    1325.5164    1599.2309    124.34325    856.49148    322.77941   -4165.8176 
26584000    121.64678   -4507.1034    -4298.605   -4507.1034            0    1163.2158    18.213264    23.050131    21.994856    9233.8394   -73.042121     3148.529    414.16047    393.36045   -179.75284   -284.69947   -4141.9593 
26585000    120.35803   -4522.8872   -4316.5977   -4522.8872            0    1309.3179    17.957314    23.306774    22.057209     9231.539    567.88793    1391.9187    1968.1471    -447.5121   -517.22052    -257.1763   -4140.3209 
26586000    120.85639   -4524.1489   -4317.0052   -4524.1489            0    1760.3729     17.87427     23.30163    22.060946    9188.3757    2448.9223    1199.1386    1633.0579   -595.61185    139.54263   -206.35402   -4081.1099 
26587000    118.99134   -4528.2722   -4324.3251   -4528.2722            0    2005.7385    17.917421    23.404394    21.903814    9185.2856    2196.3015    1226.3157    2594.5983    457.53812   -218.06672   -329.64184   -4055.6404 
26588000    118.72775   -4504.9936   -4301.4983   -4504.9936            0     2781.848    18.037521    23.238799    21.899784    9179.7396     2685.576    2445.6958    3214.2722   -181.72574    104.85422    239.92517   -3929.0726 
26589000    115.66336   -4532.9832   -4334.7401   -4532.9832            0    1760.3732    18.065098    23.199155    22.001487    9220.7132    1405.7638    2612.9096    1262.4462   -522.72867    1.1909617    375.77934   -4098.0146 
26590000    121.29585   -4519.5545   -4311.6576   -4519.5545            0    2317.4417    17.833731    23.352899    22.025572     9172.975    3378.6656    2041.5424    1532.1171     888.7752   -444.11265    308.37429   -4001.6338 
26591000     115.3299   -4528.5053   -4330.8338   -4528.5053            0    2186.8161    17.875115    23.420696    21.940395    9185.2943    2221.6633    1382.9893    2955.7957    391.50974   -153.96688    181.15184   -4037.8921 
26592000    121.73354   -4516.5414   -4307.8943   -4516.5414            0    1459.4128    18.039134    23.223066    22.008382    9219.8393    1464.3055    1361.2509    1552.6819   -628.99672    382.08472    505.64608   -4111.6588 
26593000    114.62407   -4525.1559   -4328.6942   -4525.1559            0    1854.9815    17.834221    23.443668    21.963923    9183.1067    2527.1898    1380.7956     1656.959    811.82988    111.87959    17.097418   -4080.2636 
26594000    119.41433   -4527.6888   -4323.0167   -4527.6888            0    471.79374    17.923884    23.388228    22.090085    9260.3377    997.70046     362.2363    55.444456   -770.30175   -61.347582    578.54819   -4259.2998 
26595000    120.63609   -4533.5866   -4326.8204   -4533.5866            0    3195.1041    17.927468     23.11197    22.085387    9150.8393    3584.5212    2956.5018    3044.2893   -91.471996    353.42215   -107.43165   -3900.4159 
26596000    117.82128   -4510.4537   -4308.5121   -4510.4537            0    1541.4286    17.867409    23.409697    22.022206     9211.242    1851.7598    804.04762    1968.4785    217.48826    182.60261   -174.09242    -4101.442 
26597000    125.74045   -4530.6854   -4315.1706   -4530.6854            0     1225.222    17.921503    23.297487    22.073514    9216.2658    1658.6324    1755.4927    261.54082    596.44999    225.16121   -468.04703   -4150.4887 
26598000    114.24693   -4529.6842   -4333.8688   -4529.6842            0    1143.5525    18.013565    23.143621    22.098125    9212.6887    1708.2685    767.10278    955.28609   -172.84112    112.74329    61.621114   -4180.2239 
26599000    123.62227   -4524.6996   -4312.8153   -4524.6996            0    2335.1121     17.77921     23.44207    21.996939    9167.9168    1787.8293    4216.3595    1001.1474    410.70279   -774.12455   -273.39236   -4000.5999 
26600000    121.07616   -4535.2766   -4327.7562   -4535.2766            0    2287.4761    17.948321    23.346398    21.875475    9166.4507    2556.4282    2273.4626    2032.5377    394.30374   -432.12482     128.9557   -4021.9589 
26601000    115.26196   -4528.9731    -4331.418   -4528.9731            0    2291.1971    18.089445    23.130951    21.928107    9175.2916    2222.6711    2629.0954    2021.8246   -392.84511   -165.38085    407.81599   -4024.8279 
26602000    124.35673   -4525.0263   -4311.8831   -4525.0263            0    1215.9333    17.909839    23.445578    22.016398    9244.8294    2228.1834    154.41369    1265.2027    622.52705    168.76704   -18.665921   -4147.9433 
26603000    116.72675    -4513.092   -4313.0263    -4513.092            0    1545.2899    17.880869    23.459217    21.961067    9212.0346    967.67588    1990.9662    1677.2275   -438.76016    440.41845    582.15161   -4105.4196 
26604000    123.35433   -4528.8994   -4317.4743   -4528.8994            0    1519.7298    17.871294    23.396985    21.980989    9191.0075    1778.5588    927.00604    1853.6245   -236.82604   -22.203918    -171.4475   -4113.7675 
26605000    122.38269   -4513.7704   -4304.0107   -4513.7704            0    1758.0794    17.902744    23.179996    22.178223    9203.6415    2924.4417    2020.1387    329.65777    49.593761    180.75815    358.16078   -4068.0313 
26606000     116.5421    -4526.948   -4327.1989    -4526.948            0    2639.6123    17.831986    23.264002    22.064168    9153.1735    1845.1271    2906.0333    3167.6766   -940.43672   -423.74329   -299.37151    -3974.838 
26607000    122.77663   -4537.3776   -4326.9427   -4537.3776            0    2020.2352    17.905919    23.360531    21.965662    9188.0559    1270.9941    2707.5134    2082.1981    207.17993    184.46214   -293.49574   -4056.2345 
26608000    119.95162   -4521.5856   -4315.9926   -4521.5856            0    2377.6384    17.922542    23.181548     22.09011     9177.828     3534.151    2854.0257    744.73855    586.93571   -10.012948    295.27754   -3997.7476 
26609000    117.24452   -4521.1287   -4320.1756   -4521.1287            0    1172.3995    17.969258    23.154286      22.1656     9222.338    833.92981    877.47872    1805.7899   -592.22079   -186.78807    -74.65605   -4162.4898 
26610000    113.04638    -4519.013   -4325.2554    -4519.013            0    1176.0915    17.874993    23.460117     22.03267    9239.3872    1005.8888    666.65339    1855.7322   -344.30907   -88.588506    83.783639   -4166.7806 
26611000    122.52808   -4522.7421   -4312.7332   -4522.7421            0    1986.9112    17.978123    23.255204    22.031731    9211.1346    1407.0142    2053.1746    2500.5447   -307.57664   -183.98325    164.05548   -4045.8216 
26612000    112.46876   -4511.3693   -4318.6017   -4511.3693            0    1764.2923    17.977226    23.300357     21.98853    9210.4627    1041.2713    2795.3866    1456.2189    443.42261    47.976634    266.12503   -4081.6129 
26613000    119.90463   -4529.2429   -4323.7304   -4529.2429            0    1841.9795    17.894648    23.430662    21.975111    9213.8008    2081.6246    2266.9214    1177.3925    350.88963   -372.39773    249.92054   -4076.2166 
26614000    126.59867   -4517.9493   -4300.9635   -4517.9493            0    2223.9041    18.026542    23.204357     21.97003     9189.939    2024.5776    2518.2227    2128.9121    256.83102   -345.69986    172.25778   -4002.9029 
26615000     125.3695   -4521.9524   -4307.0733   -4521.9524            0    2324.9715    17.912933    23.386756     21.97393    9205.4373    3494.1417     1104.022    2376.7508   -15.495297   -584.13402    245.83917   -3994.9416 
26616000    118.34038   -4528.9324    -4326.101   -4528.9324            0     2750.677    17.848728    23.452003    21.882473    9159.7501    2840.6389    1448.3214    3963.0708   -45.360089    553.56714   -185.89054   -3958.6503 
26617000     115.9278   -4532.2409   -4333.5446   -4532.2409            0    2009.2818    18.131352    23.235231    21.804835    9186.0749    722.40782    2794.4963    2510.9414   -743.94943   -34.302852    583.73018   -4064.3622 
26618000    120.69587   -4533.8426   -4326.9741   -4533.8426            0    2085.7834    18.002433    23.216115    21.944507    9171.6308    717.33932    2999.5765    2540.4345     207.4223   -87.984809   -601.70153   -4047.9821 
26619000    122.46723   -4520.7397    -4310.835   -4520.7397            0    1869.0724    17.983939     23.44421    21.792441    9188.1124    1708.4516     1696.961    2201.8046   -1031.7984   -329.05811     865.4063   -4060.3808 
26620000    118.12548   -4528.9231     -4326.46   -4528.9231            0    2129.5413    17.994872     23.47282    21.743657     9184.312    1230.6966    1654.6752    3503.2521   -375.83615   -264.89826   -269.59774   -4041.2213 
26621000    124.81072   -4536.3361   -4322.4148   -4536.3361            0    2531.8057    17.988975    23.243814    21.948479    9177.3699    3377.7843    2873.2232    1344.4096   -382.66005    11.634529    162.60626   -3983.5515 
26622000    121.43725    -4511.614   -4303.4747    -4511.614            0    1333.1062    17.875109    23.518295    21.917287    9213.8537    1534.1882    1052.9641    1412.1663    696.54441   -222.94812    205.87643   -4124.3391 
26623000    113.26307   -4531.4287   -4337.2996   -4531.4287            0    1278.0918    17.917174    23.388486    22.018232     9226.863    1533.0232     2101.333    199.91935   -133.52111    -74.63201    447.88183   -4165.3141 
26624000    121.44685   -4516.8225   -4308.6667   -4516.8225            0    1490.0833    17.989794    23.230776    22.069118    9223.0571    1220.2473    1337.4099    1912.5926   -950.26542    133.07313    591.08566   -4108.2374 
26625000    130.64866   -4525.9786   -4302.0513   -4525.9786            0    1652.9616    17.964651    23.408338    21.836983    9182.9455    1924.7984    1901.0992    1132.9872   -116.85215   -50.884821     211.4791   -4080.6803 
26626000    123.48017   -4531.8871   -4320.2463   -4531.8871            0    2280.0807    18.084829    23.396583    21.714844    9188.0542    1247.3546    2880.1663    2712.7211   -877.01649   -90.614652   -75.660148   -4014.7193 
26627000    122.93536    -4525.223    -4314.516    -4525.223            0    2840.7373    18.005926    23.282215    21.825059    9149.4546    2833.4983    1935.1619    3753.5515   -344.18193   -227.90603    330.93972   -3935.4611 
26628000    119.46813   -4523.9626   -4319.1983   -4523.9626            0    1804.4579    17.945229    23.434273    21.875328    9199.3058    1550.8134    944.31802    2918.2424    302.54045   -48.364399    583.55759   -4077.1078 
26629000    123.95456   -4519.1608   -4306.7069   -4519.1608            0    1624.3496    17.913471    23.470188    21.946853    9227.1713    1827.0771    1349.3567    1696.6151   -38.722128    167.31029    92.939412   -4088.1201 
26630000    114.60764   -4526.7685   -4330.3349   -4526.7685            0    1827.1492    17.908313    23.371024    21.961096    9191.5008    2449.1105    1982.3653    1049.9719   -206.17259   -259.08165   -341.18116   -4085.4081 
26631000      120.392   -4538.0679   -4331.7201   -4538.0679            0     2157.602    17.866642    23.402127    21.984325    9192.0298    2419.2612    2437.4458    1616.0991     293.1832    155.77161    30.572808   -4042.4799 
26632000    118.01668    -4505.547   -4303.2705    -4505.547            0    1040.5809    18.051521    23.222018    22.020156    9230.6897    977.43436     781.6911    1362.6171     160.5981   -91.409022    125.74939   -4163.1873 
26633000    118.12725   -4525.5444   -4323.0784   -4525.5444            0    1934.4332    17.988174    23.213606    21.977719    9177.2447    1255.1603    2158.7617    2389.3778   -34.218877    200.08267    154.87813   -4064.1725 
26634000    121.55962   -4538.6182   -4330.2692   -4538.6182            0    2384.7936    17.869878    23.332268    22.003117    9174.0848    1822.9641    2713.4689    2617.9478   -192.97255    -257.6467    156.78253   -4011.1966 
26635000    114.13091    -4529.068   -4333.4515    -4529.068            0    2577.9683    17.835621    23.241878    22.076652    9151.5081    3418.8429    2240.1513    2074.9107    205.07028    106.79675     -43.0745    -3989.382 
26636000    118.94145   -4520.3595   -4316.4979   -4520.3595            0    2040.3041    17.955491    23.325018      21.8578    9154.3123    1623.0709    1801.2619    2696.5796    125.94351    423.48994    106.42439   -4044.1046 
26637000    118.65348     -4531.25    -4327.882     -4531.25            0    1458.3056    17.909425    23.356863    21.992482    9199.6312    2892.2107    973.62827    509.07772     165.3997     492.2104    874.25859   -4132.2252 
26638000    123.67288   -4525.5037   -4313.5326   -4525.5037            0    2485.3517    17.953112     23.15571     21.97574    9135.6899    2158.6403    3709.6405    1587.7742   -205.42103    448.02162   -193.80042   -3982.3976 
26639000    113.20306   -4533.0652   -4339.0391   -4533.0652            0    2332.1151    17.968159    23.079388    22.008548    9126.8154    2291.8569    3498.0463    1206.4423    636.99658   -111.05436    721.05911   -4028.6223 
26640000     116.4522   -4518.2589   -4318.6638   -4518.2589            0    2924.9737    17.940145    23.274464    21.895462    9142.3899    3004.9999    1429.4741    4340.4471    436.61698   -169.01238    309.21006   -3928.6701 
26641000    121.24472   -4539.1785   -4331.3692   -4539.1785            0    2837.3987    17.842553    23.407271    21.899739    9146.3266    3631.5345    3001.8028    1878.8588   -485.33808    41.089472    461.97411   -3952.8892 
26642000     118.4592   -4529.8329   -4326.7979   -4529.8329            0    1906.8515    18.007997    23.229567     21.96918    9190.1023    1764.8798    1224.6653    2731.0093   -250.68773   -569.84435   -500.01611    -4071.226 
26643000    116.69647   -4526.9716   -4326.9579   -4526.9716            0    2093.2467     17.95774    23.272044    21.945646    9171.3774    2308.7485    2115.1917       1855.8    373.94873   -573.81744    54.002067   -4046.9754 
26644000     121.7688   -4528.0794   -4319.3719   -4528.0794            0    2228.3095    17.806063    23.561807    21.829954    9158.6047    2671.7189    1225.7863    2787.4234   -197.10976    263.06489    338.47912   -4021.7391 
26645000     126.3494   -4525.8682   -4309.3097   -4525.8682            0    536.11667    17.974245     23.48247    21.943097    9261.7355    2010.4884   -68.276428   -333.86196    -285.4275    -136.9743    132.59773   -4236.8948 
26646000    118.03717   -4529.7901   -4327.4784   -4529.7901            0     2227.093    17.955833    23.298631    21.956039    9185.2283    2460.5373    1518.9911    2701.7506   -965.84249    418.60353     109.1199   -4029.1434 
26647000    110.67826   -4519.9483   -4330.2495   -4519.9483            0    2796.9799    17.906986    23.339815    21.927682    9164.5813    1783.7551    2521.8693    4085.3153     413.8075   -167.02158    334.89805   -3956.4163 
26648000     115.2381   -4533.7574   -4336.2432   -4533.7574            0    1011.8802    17.840076    23.415426    22.073972    9221.0261    1569.7254    370.06258    1095.8526   -51.513366    328.16139    208.38463   -4200.1664 
26649000    125.51491   -4514.7493   -4299.6211   -4514.7493            0    2337.2168    17.905517    23.263999    22.026019    9175.0248    2557.4046    2952.9946    1501.2513   -49.045248    138.45789    353.21809    -3986.882 
26650000     115.2823   -4520.5931   -4323.0032   -4520.5931            0    2047.0578    17.943873    23.347388    21.935536    9189.7299    2030.1737    1915.9787    2195.0211    954.47232   -581.13698   -192.28259   -4048.6508 
26651000    122.52876   -4515.3619   -4305.3518   -4515.3619            0    1492.9861    18.116526    23.221265    21.921578    9222.1592    547.02072    2203.8626     1728.075   -475.57182     596.0389    4.0410397   -4104.5516 
26652000    117.76042    -4533.702   -4331.8647    -4533.702            0    2634.4365    17.894162     23.37031    21.883612    9151.5537    3188.4551    1788.6405    2926.2139   -234.31495   -467.08746   -557.80282    -3980.257 
26653000    124.75643   -4527.0979   -4313.2697   -4527.0979            0    2752.2465    17.905523    23.369354    21.838443    9138.0889    2745.6098    1678.4202    3832.7095   -439.30137   -53.713586    553.56009   -3946.4788 
26654000     116.0675   -4528.1277    -4329.192   -4528.1277            0     2348.952    18.032211    23.262044    21.905364    9188.5571    1321.0266    2723.5388    3002.2905   -262.36418   -349.26011    490.88396    -4014.419 
26655000    117.82293    -4522.136   -4320.1915    -4522.136            0    3053.7426    17.948573    23.350875    21.788348     9131.821    3198.8676    3436.3354    2526.0249    562.49428   -240.74454   -3.5897525   -3913.4994 
26656000    114.98746   -4541.8597   -4344.7751   -4541.8597            0    775.12006    17.966618    23.589382    21.843297    9257.6572    408.69586    631.75612    1284.9082   -748.49083    293.74535    709.64593   -4240.1235 
26657000    110.37124   -4515.7415    -4326.569   -4515.7415            0    1284.3881     18.05891    23.336139    21.937394     9244.971    1550.9154    1504.8279    797.42112    290.60136   -119.87356   -262.90862   -4153.3969 
26658000    118.97272   -4531.8868   -4327.9716   -4531.8868            0    1484.4148    18.066276    23.492234    21.726415    9221.0634    3030.5056   -825.27894    2248.0176   -311.23699    560.41784    151.51071   -4128.3479 
26659000    115.92038   -4519.9176    -4321.234   -4519.9176            0    2202.9319    18.011218    23.397508    21.786313    9181.1362    2030.4688    938.18683    3640.1402     940.3547   -240.36404    103.58108    -4026.267 
26660000    123.93201   -4516.9801   -4304.5649   -4516.9801            0    1087.4811      18.1693    23.267051    21.858533    9240.6082   -99.929839    2002.3316    1360.0417     378.6695    -547.1492   -114.94735   -4158.0108 
26661000    118.04758     -4534.93   -4332.6005     -4534.93            0      1781.69    17.899614    23.373225    21.996001    9202.5044    1111.1909    1648.1671    2585.7119    -319.4856   -476.11758   -318.71307   -4093.4815 
26662000    112.88388   -4518.6557   -4325.1766   -4518.6557            0    2597.7448    17.844083     23.40257    21.980703    9179.0844    4858.3209    2483.2455    451.66803   -196.91467    564.77252    152.95356   -3977.4229 
26663000    117.72171    -4518.177   -4316.4061    -4518.177            0    2328.0364    17.938674    23.243129    21.963509    9157.7051    1968.6126    1284.4781    3731.0184   -366.80226   -429.86753    586.89875   -4005.4835 
26664000    114.70433   -4522.1251   -4325.5258   -4522.1251            0    2894.1805     17.95585    23.197025    21.982741    9156.3017    3076.1188    3342.3042    2264.1186   -705.30535   -97.276374    347.36072   -3939.0506 
26665000    116.28843   -4517.1405   -4317.8261   -4517.1405            0    2060.2797    17.699386    23.550262    22.044838    9188.8438    3482.6491    1411.5483    1286.6418    151.68068   -56.700865   -237.06613   -4041.7283 
26666000     126.8538   -4528.8431     -4311.42   -4528.8431            0    2027.4009    17.978827    23.258506    21.960581    9183.0509    1807.4546    2049.7131    2225.0351   -162.63125    294.71158     7.869335   -4039.8996 
26667000    114.10154   -4525.6276   -4330.0615   -4525.6276            0    1920.6404    18.000455    23.173836    22.020303    9185.5403    3339.1148    1026.1339    1396.6725    454.78343    477.64869    769.65456   -4072.7692 
26668000    124.76119   -4515.9997   -4302.1633   -4515.9997            0    1533.0322    17.898345    23.372241    22.024649    9213.4489    1547.5471    1615.0552    1436.4944   -746.98434   -198.81978   -158.47229   -4096.1718 
26669000    123.85087    -4517.865   -4305.5888    -4517.865            0    2521.7118    17.921599    23.367003    21.890681    9167.2493    3043.4247     2520.927    2000.7836   -757.06593    444.71443   -61.148009   -3968.4487 
26670000    121.22069   -4525.0793   -4317.3111   -4525.0793            0    1766.2604    17.983861    23.259637    21.974141    9191.7409     899.4757    2467.3468    1931.9586    106.69772   -668.89673    481.72867   -4080.5402 
26671000    123.45294   -4533.6018   -4322.0077   -4533.6018            0     2760.288    17.852377    23.499922     21.75452    9126.6623    3133.4313    1676.7139    3470.7188    118.65197   -478.98281   -56.424212   -3954.6051 
26672000    120.79253   -4528.5405   -4321.5062   -4528.5405            0    2103.6224    17.886471    23.376128    21.902627    9157.8485    1877.7802    2128.1176    2304.9694    268.27686    122.10961   -182.51871    -4040.551 
26673000     111.0795    -4513.588   -4323.2015    -4513.588            0    1792.4221    17.980827    23.070443    22.206945    9212.0104    2808.1689    2328.4243      240.673   -214.81655    119.52199    -53.15841   -4082.3937 
26674000    115.43796   -4525.0308   -4327.1741   -4525.0308            0    1945.8376    17.966632    23.187801    22.035676    9180.2103    1572.7525    1792.0263    2472.7338   -148.11656   -107.17982    357.50546   -4066.6577 
26675000    118.02331   -4514.2271   -4311.9392   -4514.2271            0     1397.919    17.877711    23.473475    21.957245    9214.4018    1573.6411    935.37765    1684.7382   -1053.3879   -30.400758    234.55671   -4124.0832 
26676000    122.84899   -4536.2484   -4325.6895   -4536.2484            0    2354.1727      17.8904    23.344297    21.952297    9168.1313     2011.286    1780.6163    3270.6158    29.881514    24.058053   -70.980646   -4010.9183 
26677000    128.98898   -4525.0264   -4303.9437   -4525.0264            0     1375.488    17.964976     23.34098    22.008706     9228.694    1698.5731    397.27523    2030.6156   -398.05005   -68.921134    120.05196   -4118.8154 
26678000    123.75988   -4524.4346   -4312.3144   -4524.4346            0    3080.4355    17.869441     23.23199    22.055203    9156.0557    3208.9456    3368.1824    2664.1787    1001.1951   -109.73959     662.2315   -3900.9786 
26679000    117.67452   -4522.6517   -4320.9616   -4522.6517            0    2054.0567    17.868412     23.27922     22.02689    9162.3643    2893.5853    2195.7369    1072.8477    111.41736    132.64043     236.3171    -4046.491 
26680000    115.39163   -4521.2437   -4323.4664   -4521.2437            0    1124.6544     18.03861    23.270907    21.994522    9232.7462    1037.3597    1534.9624     801.6412    786.49143    -246.7852   -91.306689   -4172.0315 
26681000    124.21217   -4529.0403   -4316.1449   -4529.0403            0    1983.6533    17.904031    23.280769    22.039886    9186.6568    947.52425    1585.6928     3417.743   -1074.8384     102.3699    -395.2347   -4050.3791 
26682000    116.12435   -4500.7737   -4301.7405   -4500.7737            0    1422.4271    17.855654    23.449124    22.015669    9217.9483    1746.2836    1590.6689    930.32876    17.794754   -79.304697    258.15514   -4110.5175 
26683000    113.53294    -4522.583   -4327.9914    -4522.583            0    2300.2295    17.806825    23.380682    22.043588     9177.533     2847.218    2223.4719    1829.9986    461.62112    194.11879    -427.6906   -4020.1174 
26684000    118.95579   -4534.3371   -4330.4509   -4534.3371            0    1595.7217    18.062157    23.270846     21.94792    9225.1865   -33.919766    2562.8569    2258.2279   -139.61018   -392.91058   -140.80061   -4115.7627 
26685000    119.17988     -4512.55   -4308.2797     -4512.55            0    2317.4969    18.036553    23.332109    21.884382    9209.6227    2123.5109    2292.2595    2536.7203    20.744362   -753.01252   -36.646273     -3997.01 
26686000    124.09906   -4517.2829   -4304.5813   -4517.2829            0    2473.9625    17.742474    23.665641    21.785931    9147.6297    3754.3634    639.93013    3027.5938    530.53295    317.05259   -8.9827655    -3974.533 
26687000    116.81555   -4523.0702   -4322.8523   -4523.0702            0    2242.9411    18.004496    23.227111    21.952012     9180.165      1923.38    2748.6354    2056.8081    7.2192531    979.27342   -100.97435     -4022.56 
26688000    123.52214   -4517.5216   -4305.8089   -4517.5216            0    1814.2078     18.00976    23.318343    21.962967    9223.5186    1257.4117    2387.1277    1798.0839     242.3729   -236.79554    342.83303   -4061.7697 
26689000    114.22014   -4527.7704    -4332.001   -4527.7704            0    2047.9445    17.899687    23.475245    21.859152    9185.2058    2250.8472    1871.8741    2021.1124   -14.031321    279.64556   -419.34649   -4057.6649 
26690000    128.46413   -4519.4244   -4299.2413   -4519.4244            0    2347.0324    17.933254    23.388783    21.852452    9165.7265    2506.7042    3324.7299    1209.6631   -252.15468   -455.63153    466.01357   -3985.5071 
26691000    120.21867   -4519.1403   -4313.0896   -4519.1403            0    1882.6187    18.070097    23.133273    21.973693    9185.4537    2094.3877    2780.0194    773.44903    37.973803   -222.51489   -169.79026   -4060.8932 
26692000    125.27175    -4528.601   -4313.8895    -4528.601            0     2961.312      17.9089    23.323821    21.895325    9145.7645    3230.6109    3113.6374    2539.6876     20.27377     233.4488   -393.44707    -3918.905 
26693000    120.27516   -4519.3087   -4313.1612   -4519.3087            0    1873.8095     17.94349    23.500924    21.788335    9187.8924    775.29427     1630.157    3215.9772   -319.21177    169.76716    316.59431   -4062.0782 
26694000    120.88242    -4513.303   -4306.1147    -4513.303            0    702.68715    17.922805    23.473015    22.002175     9256.365    476.59777   -619.07522    2250.5389   -451.20088   -164.85119    440.26839   -4211.2558 
26695000    117.53903   -4519.8165   -4318.3586   -4519.8165            0    3106.9584    17.977727    23.125723    21.970687    9134.2674    3257.4997    3666.8614    2396.5142    681.41166    59.500694    512.41113   -3904.4685 
26696000    119.32293   -4522.2936   -4317.7782   -4522.2936            0    2819.9672    17.886913    23.331403     21.90277    9140.6124    2989.2532    3100.5457    2370.1026   -648.44413   -31.593315   -496.67296   -3941.8584 
26697000     123.5198   -4525.8378   -4314.1291   -4525.8378            0    2491.8807     17.94141    23.382671    21.841069    9162.7237    2517.0477    1994.4097    2964.1848    -70.15362   -447.15777     91.52385   -3981.1417 
26698000    120.95934    -4523.073   -4315.7528    -4523.073            0    839.34819    17.982117    23.442645    21.972887    9262.6349    1746.4683    548.51343    223.06281    92.667997    19.208399    170.86746   -4202.3686 
26699000     128.0433    -4527.568   -4308.1061    -4527.568            0    1694.7368    17.758584    23.619761    21.952505    9208.0557    2524.8385     915.0237    1644.3482    278.07557   -423.96805    20.254778   -4080.5199 
26700000    117.94249   -4523.2516   -4321.1022   -4523.2516            0    1589.1143    17.961056    23.414401    21.917854    9217.4961    1380.3637     2015.541    1371.4383    214.88497    247.95489    232.22928   -4107.4812 
26701000    122.84359   -4530.0738   -4319.5241   -4530.0738            0     1529.814    18.067507    23.245932     21.94949    9218.6984    1518.0063    971.61167     2099.824   -321.77781   -286.24667   -26.760068   -4113.8479 
26702000    125.56727   -4529.4375   -4314.2195   -4529.4375            0    2595.4865    17.929371    23.233958     21.99176    9161.1128    2487.2296    2422.8305    2876.3993    82.641967   -261.97064    448.04738   -3967.4484 
26703000    120.67067   -4534.9614    -4328.136   -4534.9614            0    1768.6997    17.890491    23.454061    21.938233     9205.385    1318.5102    1540.5378    2447.0512    247.02285    66.326287   -417.50709   -4090.6861 
26704000    116.09391   -4526.9768   -4327.9958   -4526.9768            0    1781.3504    17.950981    23.389872     21.92098    9203.9867    2523.0592    1324.8037    1496.1882   -280.52424    620.05311   -253.69656   -4088.8839 
26705000    115.39324   -4527.3721   -4329.5921   -4527.3721            0    2640.4468    18.065576    23.120325    21.933643    9161.2878     1986.465    3096.1814    2838.6939    -344.4071   -548.46421    59.556427   -3976.8073 
26706000    115.01207   -4525.7567     -4328.63   -4525.7567            0    2245.7639    17.873251    23.335263     22.01827    9183.3144    2532.3212    2142.8914     2062.079    1064.6607   -640.93943    295.16201   -4027.8566 
26707000     121.3229   -4530.5979   -4322.6546   -4530.5979            0    1940.7697    17.892144    23.438124     21.93485    9198.5613    2504.7831    1883.4411    1434.0848   -343.81277    261.82036    73.661135   -4062.2973 
26708000    126.63589   -4526.6794   -4309.6299   -4526.6794            0    2548.7343    18.027027    23.224118    21.896684    9167.3051    3014.5702    2329.2476    2302.3851   -600.92603    152.03124   -67.456313   -3968.8749 
26709000    119.81035   -4523.0277   -4317.6769   -4523.0277            0    1923.4056    17.971448    23.242768    22.024787      9199.89    2506.0853    1943.1861    1320.9452   -49.879666   -64.552958    610.76739   -4059.6117 
26710000    123.40023   -4515.7794   -4304.2756   -4515.7794            0    2192.9722    17.904067    23.194236     22.09991    9177.4553    2900.4829    3144.2235    534.21019     164.0424    463.27459   -230.05264   -4010.7599 
26711000    116.16445   -4522.0163   -4322.9144   -4522.0163            0    757.48152    17.802176    23.567712    22.015616    9236.7958    259.35698    313.88784    1699.1998    509.44049    310.19585    107.59936   -4220.8747 
26712000    119.79472   -4523.3956   -4318.0716   -4523.3956            0    1810.1518    17.975824    23.392425    21.888789    9204.1944    1860.8534     1998.295     1571.307    -751.5746   -223.40964    -8.582723   -4075.0881 
26713000    124.63029    -4520.223    -4306.611    -4520.223            0    3212.4584    17.916769    23.313209    21.857205    9129.6972    2774.8493    3971.9092    2890.6168    106.76064   -133.78448    650.42225   -3878.8809 
26714000    119.79051   -4529.1306   -4323.8138   -4529.1306            0    2358.3861    17.849452    23.436493    21.915479    9167.8709    3013.1535    2505.2858    1556.7189    297.86883   -493.03487      22.5165   -4008.4881 
26715000    112.02269   -4534.5657   -4342.5626   -4534.5657            0    2178.9923    17.812561    23.433732    21.948091    9161.4575    2276.6885    1342.2538    2918.0345    267.17862    174.60572   -77.066866   -4051.4265 
26716000    118.69962   -4528.9858   -4325.5387   -4528.9858            0    1072.7667    18.091899    23.168513    22.011565      9226.42   -69.244961    2699.0577    588.48753    634.31521   -46.693533    114.09222   -4181.1895 
26717000    114.98517   -4530.9887    -4333.908   -4530.9887            0    1427.2629    17.974995    23.299523    22.024715    9224.1448    1506.8061     1263.602    1511.3805      561.467     182.4188    760.78827    -4141.906 
26718000    119.27685   -4517.2262   -4312.7897   -4517.2262            0     1836.422     17.88886     23.43767     21.95891     9206.782    2686.0103    1299.4247    1523.8311   -220.44081   -194.83109    412.88888   -4066.2106 
26719000    124.87852   -4529.4222   -4315.3847   -4529.4222            0    239.67045    18.105216    23.367557    21.954628    9288.4469    -453.3401    580.31879    592.03267    334.17544    143.97839   -143.76528   -4282.9183 
26720000      115.731   -4528.0604   -4329.7015   -4528.0604            0    2863.8297    17.972898    23.266222    21.946691    9177.2596    2729.1889    3144.5691     2717.731   -626.64205   -191.45667     273.0642   -3946.4039 
26721000    119.38058   -4526.4234   -4321.8092   -4526.4234            0    2287.1737    17.783368    23.441989     22.04715    9190.9611     2880.023    2235.6974    1745.8007    399.69469   -179.07175   -378.70274   -4015.2347 
26722000    116.47941   -4526.4668   -4326.8251   -4526.4668            0    925.78917    17.860943    23.316237    22.216339    9251.9941    1626.6224    1579.3065   -428.56143    7.5001531   -373.91521    618.29324   -4201.9075 
26723000    115.87079   -4523.8313   -4325.2327   -4523.8313            0    615.06327    17.938308    23.324629    22.147267    9266.5133    1375.7611    10.983179    458.44551    322.34794    103.19126   -166.40393   -4242.1115 
26724000    120.89809   -4527.2174   -4320.0023   -4527.2174            0    2167.0647    17.880143    23.473105    21.842933    9167.5334    2122.4224    1975.0742    2403.6975   -733.93074   -32.298761   -251.85536   -4030.2677 
26725000    120.17845   -4533.3512   -4327.3695   -4533.3512            0    2131.7919    18.039392    23.353922    21.800848    9184.4913    2520.3465    1349.9682     2525.061    396.90162    75.446692   -124.58207   -4041.8236 
26726000     121.0976   -4525.6625   -4318.1054   -4525.6625            0     2366.169    18.097853    23.217702    21.831346    9173.3251    2417.9056    2691.1396     1989.462   -97.132672    55.155432    412.70994   -4001.5509 
26727000    129.75339   -4513.2356   -4290.8427   -4513.2356            0    2880.0449    17.953749    23.232689    21.948093    9154.8539    1908.8477    3354.1787    3377.1082    912.89003   -432.64578    74.913426    -3906.316 
26728000    122.73189   -4516.1486   -4305.7904   -4516.1486            0     1617.307    17.945974    23.451092    21.825404    9185.2801    1739.3896    1501.4716    1611.0597    808.38082     467.7985   -50.659548   -4089.1393 
26729000    121.18245   -4518.2181   -4310.5155   -4518.2181            0    3097.1363    18.049095    23.245023    21.778223    9137.0893    2139.8196    2296.4237    4855.1654    540.37012    382.66613    46.821507   -3897.8064 
26730000    123.81436   -4514.7233   -4302.5097   -4514.7233            0    2634.0401    17.986681    23.345813    21.834781    9168.7233    2886.4717    3034.0916     1981.557    182.93518    15.902891   -177.34373   -3950.2953 
26731000    117.61194   -4510.0424   -4308.4595   -4510.0424            0    2222.9602    18.041355    23.400608    21.784735    9197.0507    2083.5396    2113.4307    2471.9102    -177.0329    175.15066    156.42913   -4010.2949 
26732000    118.79322   -4521.5216   -4317.9141   -4521.5216            0    1060.0791    18.040412    23.277816    21.925562    9207.4505   -87.045851    2578.8601    688.42316   -282.03258   -158.08768     26.29204   -4175.5654 
26733000    116.42554   -4525.4535   -4325.9041   -4525.4535            0     2119.721    17.995039    23.189808    21.999524    9180.4348    1553.7199    2413.2384    2392.2046    319.80734   -209.66949   -199.28026   -4042.1006 
26734000    117.40654   -4509.6281   -4308.3973   -4509.6281            0    1904.8495    17.873626    23.385712    22.019736     9203.974    2789.8751    1121.3351    1803.3384    276.16905    343.86582   -282.89076   -4052.7084 
26735000    120.99797   -4536.4817   -4329.0953   -4536.4817            0    2084.9391    17.736148    23.455654    22.072473    9182.4348    2600.9351    890.35303    2763.5292    451.19585    161.06308   -96.825922   -4049.8878 
26736000    118.79037   -4527.4443   -4323.8417   -4527.4443            0    1372.4561    18.022301    23.309897    22.016069     9248.906    1400.9098    1926.3419    790.11652    570.84756    72.438552    224.56902   -4138.7168 
26737000    117.74292   -4523.8301   -4322.0228   -4523.8301            0    3016.0769     18.01003    23.197381    21.923344    9159.2558    3024.3505    2112.6566    3911.2235    348.17259    29.421663    102.24389   -3919.1402 
26738000    122.49791   -4520.9249   -4310.9677   -4520.9249            0    2813.2964    17.970676    23.400193     21.78823    9162.3273    3093.9542     1904.421    3441.5141    128.56105   -362.79084    55.113305   -3935.0462 
26739000    118.97811   -4517.8975   -4313.9731   -4517.8975            0    1444.4557    18.017952    23.461428     21.80778     9218.735    670.83277    1976.7354     1685.799   -794.71727   -61.264695    265.89358   -4119.7721 
26740000     121.7199    -4526.433   -4317.8092    -4526.433            0    1085.7636    18.106186    23.362177    21.802579     9222.489    29.392782     668.0486    2559.8495    538.62885   -307.85561     537.7952   -4171.7734 
26741000    116.40926   -4529.3519   -4329.8304   -4529.3519            0    2226.3748    17.954458    23.225304    21.998182    9173.1923    2644.9653    2334.2267    1699.9325    223.68429    159.77615   -476.55672   -4031.9824 
26742000    120.70136    -4523.521    -4316.643    -4523.521            0    2643.8303    17.886084    23.357979     21.90982    9153.5453    2977.2565    1931.8398    3022.3946   -308.54078    251.79598    522.12035   -3963.7047 
26743000    122.69493   -4512.7519   -4302.4569   -4512.7519            0    2438.7104    17.861679    23.504482    21.804271    9154.0767    3365.8816    731.42301    3218.8265    368.94617    406.80412    429.02532   -3976.8822 
26744000    123.48664   -4525.6763   -4314.0244   -4525.6763            0    1427.7374    17.911167     23.49024    21.891935    9210.7602    279.92247     1939.816    2063.4738    253.23353   -105.05343     546.2007   -4122.2372 
26745000    120.54075   -4511.4694   -4304.8666   -4511.4694            0    1691.4008    17.917395    23.307011    22.013743    9192.9594    1941.0148    1810.0686     1323.119   -327.66056   -446.34689      309.831   -4078.1007 
26746000    115.87537   -4516.9839   -4318.3775   -4516.9839            0    2138.0901    17.893174    23.432868    21.919867    9190.7457    2520.7714    1956.7434    1936.7553   -54.056962     384.1925   -520.35817    -4031.793 
26747000    118.00062   -4523.9204   -4321.6714   -4523.9204            0    1111.0389    17.898651    23.493173    21.941249    9226.2096    1589.0323   -498.18537    2242.2697    135.00741   -216.98371   -286.17113   -4172.1758 
26748000    127.70485   -4523.9391   -4305.0574   -4523.9391            0    2258.2028     18.01196    23.216263    21.966165    9185.6002    2334.2127    2310.2917    2130.1039     580.8298    488.36249    243.91484   -4002.5428 
26749000    114.65884   -4525.4238   -4328.9025   -4525.4238            0    1972.3125     18.10555    23.251769    21.864637    9204.7073    1694.8728    1662.5388    2559.5258    10.705462    13.839608    593.90456   -4064.1368 
26750000    126.91982   -4518.7274   -4301.1912   -4518.7274            0    1374.6477    17.938351    23.497558    21.878228     9221.836    1866.2891    764.12968    1493.5245    580.94541    -261.1782    168.21876   -4116.3134 
Loop time of 370.69 on 64 procs for 250000 steps with 864 atoms

Performance: 116.539 ns/day, 0.206 hours/ns, 674.417 timesteps/s
192.8% CPU use with 32 MPI tasks x 2 OpenMP threads

MPI task timing breakdown:
Section |  min time  |  avg time  |  max time  |%varavg| %total
---------------------------------------------------------------
Pair    | 17.38      | 25.161     | 36.021     | 113.0 |  6.79
Bond    | 1.0089     | 1.2223     | 1.8498     |  15.8 |  0.33
Kspace  | 185.68     | 196.87     | 207        |  43.8 | 53.11
Neigh   | 0.75316    | 0.8012     | 0.85289    |   2.9 |  0.22
Comm    | 55.149     | 58.231     | 60.956     |  22.6 | 15.71
Output  | 0.54193    | 0.54229    | 0.5439     |   0.0 |  0.15
Modify  | 66.445     | 68.785     | 73.735     |  20.3 | 18.56
Other   |            | 19.08      |            |       |  5.15

Nlocal:        27.0000 ave          41 max          19 min
Histogram: 9 6 1 0 4 4 1 5 1 1
Nghost:        2139.94 ave        2238 max        2042 min
Histogram: 13 3 0 0 0 0 0 0 4 12
Neighs:        6592.25 ave       10338 max        4480 min
Histogram: 6 7 3 2 4 1 4 4 0 1

Total # of neighbors = 210952
Ave neighs/atom = 244.15741
Ave special neighs/atom = 2.0000000
Neighbor list builds = 2578
Dangerous builds = 0

unfix		3
unfix		2
unfix		1

write_data	data.final.${pid} nocoeff
write_data	data.final.0 nocoeff
System init for write_data ...
PPPM initialization ...
  extracting TIP4P info from pair style
  using 12-bit tables for long-range coulomb (../kspace.cpp:340)
  G vector (1/distance) = 0.37187283
  grid = 24 27 25
  stencil order = 5
  estimated absolute RMS force accuracy = 0.0031387586
  estimated relative force accuracy = 9.4522784e-06
  using double precision FFTW3
  3d grid and FFT values/proc = 4410 672
Last active /omp style is kspace_style pppm/tip4p/omp

write_restart   restart.lmp.${pid}
write_restart   restart.lmp.0
System init for write_restart ...
PPPM initialization ...
  extracting TIP4P info from pair style
  using 12-bit tables for long-range coulomb (../kspace.cpp:340)
  G vector (1/distance) = 0.37187283
  grid = 24 27 25
  stencil order = 5
  estimated absolute RMS force accuracy = 0.0031387586
  estimated relative force accuracy = 9.4522784e-06
  using double precision FFTW3
  3d grid and FFT values/proc = 4410 672
Last active /omp style is kspace_style pppm/tip4p/omp
Total wall time: 0:06:10
