LAMMPS (30 Jul 2021)
Processor partition = 0
  using 2 OpenMP thread(s) per MPI task
using multi-threaded neighbor list subroutines
variable        pid world 0 1
variable        phase world IceII IceV

shell cd ${phase}
shell cd IceII
include Restart.lmp
echo both
log log.lammps
#include		in.partitions
include		in.temp
variable        temperature equal 107.10
variable	tempDamp equal 100.0
include		in.pressure
variable        pressure equal 7483.3
variable        pressureDamp equal 1000.0 # This is 1 ps
include		in.seed
variable        seed equal 745823

units		real
atom_style	full
box tilt large
read_restart	restart.lmp.${pid}
read_restart	restart.lmp.0
Reading restart file ...
  restart file = 30 Jul 2021, LAMMPS = 30 Jul 2021
  restoring atom style full from restart
  triclinic box = (-10.573709 -9.0898335 0.18342035) to (12.553709 12.079832 21.676579) with tilt (-9.2799890 1.8838559 2.8754722)
  4 by 2 by 4 MPI processor grid
  restoring pair style lj/cut/tip4p/long/omp from restart
  restoring bond style harmonic/omp from restart
  restoring angle style harmonic/omp from restart
  1296 atoms
  864 bonds
  432 angles
Finding 1-2 1-3 1-4 neighbors ...
  special bond factors lj:    0        0        0       
  special bond factors coul:  0        0        0       
     2 = max # of 1-2 neighbors
     1 = max # of 1-3 neighbors
     1 = max # of 1-4 neighbors
     2 = max # of special neighbors
  special bonds CPU = 0.003 seconds
  read_restart CPU = 0.009 seconds
include 	in.setup
variable	out_freq equal 1000
variable	out_freq2 equal 10000
variable	out_freq3 equal 1000

timestep	2.0

neigh_modify    delay 7 every 1

include		in.tip4p
# This is TIP4P/Ice

# create groups ###
group ox type 2
432 atoms in group ox
group hy type 1
864 atoms in group hy

# set charges - beside manually ###
set group ox charge -1.1794
Setting atom values ...
  432 settings made for charge
set group hy charge 0.5897
Setting atom values ...
  864 settings made for charge

# ### TIP3P Potential Parameters ###
pair_style lj/cut/tip4p/long/omp 2 1 1 1 0.1577 8.5
pair_coeff 1 1*2 0.000 0.000
pair_coeff 2 2 0.21084 3.1668
bond_style  harmonic
bond_coeff  1 450 0.9572
angle_style harmonic
angle_coeff 1 55 104.52
kspace_style pppm/tip4p/omp 1.0e-5
pair_modify tail yes

thermo          ${out_freq}
thermo          1000
thermo_style    custom step temp pe etotal epair emol press lx ly lz vol pxx pyy pzz pxy pxz pyz enthalpy

restart 	${out_freq3} restart.lmp.${pid} restart2.lmp.${pid}
restart 	1000 restart.lmp.${pid} restart2.lmp.${pid}
restart 	1000 restart.lmp.0 restart2.lmp.${pid}
restart 	1000 restart.lmp.0 restart2.lmp.0


include         in.dump
dump            myDump all atom ${out_freq2} dump.water.${pid}
dump            myDump all atom 10000 dump.water.${pid}
dump            myDump all atom 10000 dump.water.0
dump            myDump2 all dcd ${out_freq2} dump.dcd
dump            myDump2 all dcd 10000 dump.dcd
dump_modify     myDump append yes
dump_modify     myDump2 append yes


variable natoms 	equal  "count(all)"                        # NUMBER ATOMS
variable H      	equal  "enthalpy/v_natoms"                 # ENTHALPY-per-atom
variable Vol      	equal  "vol/v_natoms"                 # volume-per-atom
fix AVG all 		ave/time ${out_freq} 1 ${out_freq} v_Vol v_H file vol_enthalpy.dat
fix AVG all 		ave/time 1000 1 ${out_freq} v_Vol v_H file vol_enthalpy.dat
fix AVG all 		ave/time 1000 1 1000 v_Vol v_H file vol_enthalpy.dat


timer           timeout 10:00:00 every 1000
New timer settings: style=normal  mode=nosync  timeout=10:00:00

fix 		1 all shake 1e-6 200 0 b 1 a 1
Finding SHAKE clusters ...
       0 = # of size 2 clusters
       0 = # of size 3 clusters
       0 = # of size 4 clusters
     432 = # of frozen angles
  find clusters CPU = 0.000 seconds
fix             2 all nph tri ${pressure} ${pressure} ${pressureDamp}
fix             2 all nph tri 7483.3 ${pressure} ${pressureDamp}
fix             2 all nph tri 7483.3 7483.3 ${pressureDamp}
fix             2 all nph tri 7483.3 7483.3 1000
fix             3 all temp/csvr ${temperature} ${temperature} ${tempDamp} ${seed}
fix             3 all temp/csvr 107.1 ${temperature} ${tempDamp} ${seed}
fix             3 all temp/csvr 107.1 107.1 ${tempDamp} ${seed}
fix             3 all temp/csvr 107.1 107.1 100 ${seed}
fix             3 all temp/csvr 107.1 107.1 100 745823


run             250000
PPPM initialization ...
  extracting TIP4P info from pair style
  using 12-bit tables for long-range coulomb (../kspace.cpp:340)
  G vector (1/distance) = 0.36798261
  grid = 27 40 32
  stencil order = 5
  estimated absolute RMS force accuracy = 0.0044298043
  estimated relative force accuracy = 1.3340224e-05
  using double precision FFTW3
  3d grid and FFT values/proc = 7395 1120
Last active /omp style is kspace_style pppm/tip4p/omp
Neighbor list info ...
  update every 1 steps, delay 7 steps, check yes
  max neighbors/atom: 2000, page size: 100000
  master list distance cutoff = 10.8154
  ghost atom cutoff = 10.8154
  binsize = 5.4077, bins = 7 5 4
  1 neighbor lists, perpetual/occasional/extra = 1 0 0
  (1) pair lj/cut/tip4p/long/omp, perpetual
      attributes: half, newton on, omp
      pair build: half/bin/newton/tri/omp
      stencil: half/bin/3d/tri
      bin: standard
Setting up Verlet run ...
  Unit style    : real
  Current step  : 1750000
  Time step     : 2
  Walltime left : 9:59:59.94
Per MPI rank memory allocation (min/avg/max) = 10.61 | 10.62 | 10.64 Mbytes
Step Temp PotEng TotEng E_pair E_mol Press Lx Ly Lz Volume Pxx Pyy Pzz Pxy Pxz Pyz Enthalpy 
 1750000    115.54887   -6713.7993   -6416.5569   -6713.7993            0    8098.6321    23.127418    21.169665    21.493158    10523.044    9068.1202    8398.9606    6828.8155   -84.687793    300.02324    -962.4276   -5173.6776 
 1751000     101.7328   -6722.0336   -6460.3322   -6722.0336            0    7613.0315    23.114088    21.258184    21.390153    10510.341    6863.7911    8835.0262    7140.2773    315.56752    641.30434   -1046.3405   -5293.3873 
 1752000    105.29216   -6730.2783   -6459.4207   -6730.2783            0    7400.1175     23.16626    21.212659     21.42609    10529.166    7733.4191    7202.8052    7264.1282    932.99116    -628.1071    351.38104   -5323.0802 
 1753000    109.04481   -6741.4735   -6460.9624   -6741.4735            0     7276.629     23.13515    21.064694    21.570358    10511.987    7952.8458    8113.0206    5764.0207    171.21262    508.89891   -6.6594568   -5345.4075 
 1754000    103.19689   -6739.9828   -6474.5151   -6739.9828            0    7142.7018    23.147017    21.232751    21.411126     10523.03    7485.8897    6674.8023    7267.4133   -711.83645    334.53873    625.57577   -5378.3418 
 1755000    110.67084   -6746.5607   -6461.8667   -6746.5607            0    8189.3997    23.113571    21.162844    21.449801    10492.146     8146.765    8668.0316    7753.4024   -126.58772   -131.88871   -317.51539   -5208.7477 
 1756000    109.38304     -6732.22   -6450.8388     -6732.22            0    7423.5348    23.092316    21.283556    21.412731     10524.07    7766.8306     6926.143     7577.631   -91.651972   -684.41163     172.1651   -5311.4541 
 1757000      107.754   -6743.1086    -6465.918   -6743.1086            0    8600.6465    23.043793    21.252985    21.422376    10491.595    9735.3168    7243.2165    8823.4063    -310.9444    -156.5848   -284.93742   -5149.9404 
 1758000    107.96775   -6730.9668   -6453.2263   -6730.9668            0    8876.6437    22.970572    21.243739     21.46676    10475.368    10480.416    8014.7955    8134.7201   -130.52421   -166.10084   -858.66181   -5097.1194 
 1759000    113.86413   -6737.0132   -6444.1047   -6737.0132            0    7622.3417    23.139242    21.215508     21.42712    10518.804    6820.2572    7982.6705    8064.0974    874.47224    243.90317    573.56313    -5274.792 
 1760000    112.11378   -6740.8589    -6452.453   -6740.8589            0    7897.8176     23.15394    21.062354    21.508526    10489.202    8512.1803    8051.0785    7130.1938   -8.4933034   -171.54768    315.66925   -5244.2902 
 1761000    107.27869   -6742.7956   -6466.8277   -6742.7956            0     6486.869    23.201877    21.138412    21.535117    10561.916    6219.7402    7288.3545    5952.5123   -1008.6058   -550.24984    5.7598196   -5467.6247 
 1762000    112.34192   -6727.7342   -6438.7414   -6727.7342            0    7624.6344    23.256777    21.173747    21.321003    10499.168    6220.2977    7607.2092    9046.3963    354.75358    596.69815    228.47668   -5271.2605 
 1763000    104.81679   -6720.1372   -6450.5024   -6720.1372            0    7909.9599    23.075774    21.164865    21.524679    10512.559    9733.1734    7810.7446    6185.9618   -901.39944   -239.87993   -657.31458   -5237.7877 
 1764000    106.14031    -6749.767   -6476.7276    -6749.767            0    7368.9264    23.083103    21.281904    21.420527    10522.885    8284.0294    6563.7711    7258.9785   -137.38609    327.46936    82.780112   -5345.8517 
 1765000    112.33565   -6747.2743   -6458.2977   -6747.2743            0    7427.2807     23.04906    21.295767    21.383618    10496.094    7702.7231    6534.3859     8044.733     316.7416    838.23803    184.23168   -5321.3685 
 1766000    108.41995   -6740.7585   -6461.8548   -6740.7585            0    7796.3369    22.969316    21.304164     21.47268    10507.486    9208.1073    7547.5198    6633.3835   -699.03614   -497.36779   -673.64147   -5267.1371 
 1767000    108.39753    -6741.871   -6463.0249    -6741.871            0    7433.0277    23.068257    21.333755    21.379137    10521.369    7716.9145    6167.1497     8415.019    -483.6105    463.93165    33.561462   -5322.4761 
 1768000     104.8866   -6744.9162   -6475.1018   -6744.9162            0    7353.0726    23.074008    21.348177    21.380252    10531.656    7202.2292    6908.3589    7948.6296    864.95077   -555.23345   -701.86095   -5345.7185 
 1769000    106.55466   -6744.6672   -6470.5618   -6744.6672            0    7355.6653     23.10726    21.186433     21.52873    10539.614    7242.8662    8332.5226    6491.6071    57.183054    -416.9025   -600.67763   -5339.9265 
 1770000     106.1746   -6738.8564   -6465.7287   -6738.8564            0    7854.7648    23.199766    21.140858    21.405191    10498.453    7226.3562    8359.4504    7978.4876   -574.37108   -746.06205     136.0871   -5263.0922 
 1771000    104.89613   -6743.4727   -6473.6338   -6743.4727            0    8238.1037    23.193371    20.999636    21.553804     10497.83    7480.0312    9553.4555    7680.8245    587.46372     -325.394   -192.37175   -5212.3794 
 1772000    111.30005   -6747.4104   -6461.0979   -6747.4104            0    7115.6672    23.183205    21.167639    21.478346    10540.149    6229.4295    8198.9766    6918.5956   -400.34257   -63.876383   -48.982544    -5367.297 
 1773000    106.14211    -6740.266   -6467.2219    -6740.266            0    7476.1795    23.166635    21.269564    21.357101    10523.588    7879.6552    6512.3103     8036.573   -466.20995    120.63924   -69.972486   -5319.8097 
 1774000    115.15854   -6727.0405   -6430.8021   -6727.0405            0    8161.0245    22.923439    21.378859    21.463878    10518.952    9021.8881    7594.8777    7866.3077   -963.48552    595.20237   -792.05968   -5178.8346 
 1775000    110.07251   -6725.9803   -6442.8255   -6725.9803            0    7585.6577    23.091751     21.27399    21.433448     10529.26    8328.2807    6695.5641    7733.1285    351.61693   -371.49425    51.090871   -5277.9836 
 1776000    111.02685   -6730.3327   -6444.7229   -6730.3327            0    8488.7894    22.995616    21.201961    21.516799    10490.562    8957.3559    8573.3061    7935.7062   -848.42335    1032.8319    107.42803   -5145.9883 
 1777000    105.43475   -6725.4129   -6454.1885   -6725.4129            0    8131.1464    23.127391    21.233441    21.406878    10512.363    7909.9827    8198.4455    8285.0111   -356.48271    309.74488   -433.45786   -5207.5859 
 1778000    103.81657   -6741.0006   -6473.9388   -6741.0006            0     8327.775    23.178025    21.125914    21.425081     10490.94    7442.8035    9290.1236    8250.3978    538.00151    696.84071   -149.79211   -5199.7926 
 1779000    105.71497   -6744.7268   -6472.7815   -6744.7268            0    7136.1414     23.16293    21.236648    21.418584    10535.865    7089.2182     7037.588    7281.6178   -831.78577   -481.52479    19.175724   -5376.2792 
 1780000    111.95648    -6735.041   -6447.0398    -6735.041            0    7611.5342    23.210383    21.167019     21.40229     10514.83    8110.9272    7606.0032     7117.672   -990.55523   -205.39039   -711.95235   -5279.8262 
 1781000    107.93796   -6727.9003   -6450.2365   -6727.9003            0    7711.1092    23.157804    21.176724    21.437029    10512.857    7379.6387     7342.791     8410.898    -141.6593   -509.62809    515.91003   -5267.9751 
 1782000     112.2651   -6737.1869   -6448.3918   -6737.1869            0    7450.4991    23.126265    21.215398    21.383171    10491.288    7326.8034    7439.0522    7585.6416   -463.28521   -668.54956    302.84328   -5308.4306 
 1783000     104.4915   -6729.1765   -6460.3785   -6729.1765            0     7832.218    23.057647    21.281877     21.45317    10527.285    8112.9663     8194.265    7189.4227   -180.27741   -133.38974   -794.60937   -5257.9007 
 1784000    104.29716   -6730.7645   -6462.4664   -6730.7645            0    8234.0625    22.992114    21.470515    21.256998    10493.571    7960.5448    7103.1928    9638.4497   -326.50411    6.7207909    662.20574   -5202.3422 
 1785000    107.86641   -6746.6455   -6469.1657   -6746.6455            0    8330.9103    22.980484    21.261867    21.455417    10483.288    8878.0498    7839.2154    8275.4658   -566.48045    385.01838   -528.73146   -5195.4695 
 1786000    104.77201   -6736.0825   -6466.5629   -6736.0825            0    8234.6819    23.002176    21.296474    21.394706    10480.523    9309.6051    7148.2201    8246.2206   -297.29822    -263.5075    728.08231   -5207.9109 
 1787000    112.65539   -6743.8341   -6454.0349   -6743.8341            0    8606.7074    23.046034    21.250766    21.381403    10471.454    8158.2032    8772.4242    8889.4948    384.36254    136.23073    894.93439    -5139.658 
 1788000    105.82096   -6735.4432   -6463.2252   -6735.4432            0    7899.6339    23.001682    21.211916    21.572125     10525.25    9244.3596    7410.1289    7044.4132   -224.86436   -400.64767   -288.78904   -5250.6316 
 1789000    107.87242    -6736.465   -6458.9697    -6736.465            0    7639.3667    23.285792    21.181834    21.314431     10513.04    6778.0776    8308.0317    7831.9907   -308.87371    501.58542   -770.17224   -5287.6874 
 1790000    104.70878   -6736.4821   -6467.1251   -6736.4821            0    7065.9351    23.121423    21.173289    21.505246    10528.035    7884.6702    6991.7998    6321.3354   -878.43503   -448.75375   -251.45799   -5382.2173 
 1791000    106.22941   -6746.6727    -6473.404   -6746.6727            0     6640.071    23.227758    21.195336    21.430963    10550.895    5866.6981     6492.946    7560.5689   -172.20258    467.25507    999.69498   -5451.6699 
 1792000    108.34193   -6742.2003   -6463.4973   -6742.2003            0    7363.0895    23.131885    21.175515    21.461924    10512.685    7151.3022    7577.9535    7360.0128    -273.6267    187.03067    105.46531   -5334.6125 
 1793000    110.95291   -6744.9038   -6459.4842   -6744.9038            0    7053.8765    23.078524    21.221535    21.540344    10549.635    7626.9289    7316.2711    6218.4294    141.81012   -699.07289    353.53859   -5374.2057 
 1794000    108.00849   -6730.9205   -6453.0752   -6730.9205            0    7772.5348    23.114798    21.279027    21.330662    10491.708    7286.1165    7584.7972    8446.6907   -162.45674   -55.747463    340.74122   -5263.7934 
 1795000    104.18357   -6760.2247   -6492.2188   -6760.2247            0    6930.8893    23.044361     21.30277     21.47471    10542.122    7323.5162    6403.9938     7065.158    458.60546   -496.70109    194.68076    -5426.622 
 1796000     108.7955   -6733.5824   -6453.7126   -6733.5824            0    8009.4466    22.930433     21.35315    21.428376    10492.125    8966.2676    7852.5495    7209.5225    1011.8072   -900.23989    36.935369    -5228.132 
 1797000    102.53922    -6737.837   -6474.0611    -6737.837            0      7459.76    23.045163    21.340661     21.42437    10536.484    7902.6412    6999.2856    7477.3532    442.00283    110.39603   -494.92156    -5327.766 
 1798000    109.00258   -6735.3396   -6454.9371   -6735.3396            0    7185.2942    23.027709    21.314083    21.467011     10536.32    6960.1441    7365.8831    7229.8555    751.18145    378.46875   -17.017948   -5350.8346 
 1799000    110.24779   -6735.3359   -6451.7302   -6735.3359            0    7353.9015     23.05395    21.281187    21.482417    10539.605     8504.189    7063.6308    6493.8847   -510.25117   -1338.7367   -443.48834    -5321.367 
 1800000    105.28434   -6731.5753   -6460.7378   -6731.5753            0    7247.4829    23.185192    21.188434    21.426688     10526.03    7466.3149    7175.5979    7100.5358   -757.04551    386.23426    124.80688   -5348.1669 
 1801000    110.21429   -6732.1498   -6448.6302   -6732.1498            0    6912.9253    23.160772     21.15371    21.502149    10534.682    6656.3001    7504.4749    6578.0011    36.533978   -824.14456   -241.74629   -5386.5454 
 1802000    103.81753   -6737.5733   -6470.5091   -6737.5733            0    7798.0565    23.183748    21.131278    21.447512    10507.184    7384.6352    7993.1069    8016.4276   -219.87034    357.10879    151.96902   -5275.5622 
 1803000    106.64941   -6738.2122   -6463.8631   -6738.2122            0    8198.7716      23.1733    21.128627      21.4131    10484.283    7962.5994      8978.51    7655.2053    -278.1912    41.138302   -670.33787   -5210.2504 
 1804000    105.95903   -6729.3751    -6456.802   -6729.3751            0    7410.9995    23.158904    21.121856     21.52859    10530.904    7756.6823    7500.1783     6976.138   -441.37977   -727.95685     58.56045   -5318.6026 
 1805000    107.73232   -6739.5502   -6462.4154   -6739.5502            0    6552.6291    23.244217    21.214359    21.366562     10536.09    4842.5643     7293.698     7521.625    857.54909    390.65373    13.346169   -5455.5511 
 1806000    108.04181   -6727.6907   -6449.7598   -6727.6907            0    6847.4175     23.08474     21.25951    21.512603    10557.746    7325.3324    6372.7379    6844.1823   -196.77663    38.478664    121.31721   -5395.4362 
 1807000     103.0675   -6722.6465   -6457.5116   -6722.6465            0    7921.3456    23.074826    21.280142    21.389468    10502.989    8143.9278    8092.9908    7527.1182    591.67694    171.61132   -252.12619   -5244.1569 
 1808000    105.00805   -6738.5428   -6468.4159   -6738.5428            0    6701.3792    23.124803    21.269567    21.451093    10550.818    5991.9727    6231.7286    7880.4361   -166.25479    1044.5143   -271.23444   -5437.2556 
 1809000    110.63048    -6746.457   -6461.8669    -6746.457            0    7471.8261    23.017929    21.310105    21.450737    10521.898    7468.5751    7478.1483    7468.7549   -66.179001   -54.799637    -39.75804    -5315.307 
 1810000    105.00754   -6748.5477   -6478.4222   -6748.5477            0    7174.0876    23.132593    21.326866    21.325714    10520.949    7311.1937     6286.979    7924.0902    75.573215   -155.27234    17.022578     -5377.65 
 1811000    106.91731   -6741.7154   -6466.6771   -6741.7154            0    7475.1756    23.034404    21.235201    21.542221    10537.166    7474.8035    7685.7654    7264.9579   -148.98163    458.55307   -582.84143   -5317.9388 
 1812000    106.98322   -6726.5087   -6451.3008   -6726.5087            0    8328.4286     23.13783     21.25478    21.334841     10492.25    8915.0225    7450.8436    8619.4198   -456.33119   -443.01725    757.39883   -5176.8955 
 1813000    111.97604   -6730.3474   -6442.2959   -6730.3474            0    8089.3047      23.0891    21.085207    21.584586    10508.206     8272.149    9184.7937    6810.9713    463.71531    285.38383   -594.21477   -5202.5985 
 1814000    110.11196   -6750.4957   -6467.2394   -6750.4957            0    8085.5981    23.102847    21.189289    21.451617    10501.272      8030.11    8512.0863    7714.5981   -463.68892   -220.17716   -300.80375   -5228.9278 
 1815000    104.20582   -6746.7062   -6478.6431   -6746.7062            0     8193.578    23.202695    21.199338    21.317605    10485.741    7230.1374    7969.4124    9381.1842    497.58608   -151.25864    190.25502   -5225.6502 
 1816000    109.62721   -6731.6638   -6449.6545   -6731.6638            0    7611.5239    23.038607    21.202185    21.579998    10541.156    8563.8924    7882.9299    6387.7494    -73.38833    -1151.711   -1197.9391   -5279.5201 
 1817000    104.18846   -6748.7013   -6480.6829   -6748.7013            0    7792.6054    23.085974    21.309196    21.385841    10520.626    7377.3195    7665.6815    8334.8151    231.33476    501.14696   -535.92482   -5285.0436 
 1818000    106.01282   -6745.1739   -6472.4624   -6745.1739            0    7760.8866    23.012328    21.249589    21.474067    10500.872    8192.9046     7932.244    7157.5112    392.99946   -400.33307    337.27966   -5283.9257 
 1819000    103.02586   -6745.9474   -6480.9196   -6745.9474            0    8133.0398    22.980666    21.277756    21.459585    10493.243    8195.6905    7925.7036    8277.7254    189.26041    875.60768    407.86638   -5236.2946 
 1820000    108.99397   -6742.5702   -6462.1899   -6742.5702            0    8376.2835    23.042539    21.326075    21.323688    10478.608    8180.9785    8245.7919    8702.0801   -220.63174   -203.92321    -27.16092   -5182.1283 
 1821000    103.57674   -6725.3754   -6458.9306   -6725.3754            0    7829.8746    23.040228    21.236596    21.505234    10522.425    8326.4412    7853.8314    7309.3513     1383.401   -126.96125   -1216.6319   -5257.3676 
 1822000    113.31982   -6730.1166   -6438.6082   -6730.1166            0    7426.0785    23.126635    21.301732    21.376066     10530.65    7325.6776     6821.051     8131.507   -10.132656   -379.52248    772.27763   -5298.1206 
 1823000    103.20981   -6739.3881   -6473.8871   -6739.3881            0    7532.3897    23.101467    21.111544    21.572536    10521.091    7392.1668    8292.9249    6912.0775    921.45071   -166.42576    1119.0189   -5318.1224 
 1824000    103.49154   -6728.0432   -6461.8175   -6728.0432            0    7672.2387    23.118393    21.162373    21.470596    10504.275    7277.2653    8175.9167    7563.5341    380.54149   -39.865154    1221.9803    -5286.476 
 1825000    107.00819   -6738.7324   -6463.4604   -6738.7324            0    7521.4017    23.142352    21.187771     21.46407    10524.582    7353.9155    7575.2343    7635.0553   -610.77208   -117.26071    983.95533   -5308.9987 
 1826000    106.72601   -6743.4644   -6468.9182   -6743.4644            0    7171.1428    23.196785    21.137362    21.507401    10545.483     7679.496    7623.9256    6210.0069    596.58262   -464.89838   -602.76166   -5366.0319 
 1827000    108.39323    -6750.619   -6471.7841    -6750.619            0    7368.4025    23.224433    21.252869    21.328875     10527.63    6734.4055    7390.6815    7980.1206   -240.84191   -331.97282   -296.50124   -5340.4787 
 1828000    107.19956   -6723.8646   -6448.1002   -6723.8646            0     7248.425    23.097869    21.227035    21.486266    10534.701    7426.1255    7266.9585    7052.1911    480.35069   -562.80124    288.99351   -5334.4681 
 1829000    103.97909     -6741.74   -6474.2601     -6741.74            0    6619.0309    23.128835    21.255283    21.445563    10542.852    5960.4597    6437.4437    7459.1893    991.73647    282.09006    265.42514   -5456.5399 
 1830000    115.17007   -6743.5964   -6447.3284   -6743.5964            0     7152.418    23.090073    21.292148    21.404205    10523.104    7275.8576    7474.1203    6707.2762   -339.04038    -578.8253   -26.141504   -5349.6562 
 1831000    107.99106   -6746.6886   -6468.8882   -6746.6886            0    7399.8654     23.06581    21.165115     21.54556    10518.338    7394.0079      7099.11    7706.4783    476.88284     184.8696    523.31732   -5333.7549 
 1832000    105.31331   -6740.3916   -6469.4795   -6740.3916            0    7676.1525    23.151427    21.267626    21.364596    10519.412      7164.77    8039.2072    7824.4804   -409.52404   -573.22023    39.697155   -5291.8439 
 1833000    106.68072   -6734.0692   -6459.6396   -6734.0692            0     7891.965    23.154904    21.171842    21.431581    10506.446    7381.3273    8500.7067    7793.8609   -672.84494    218.37208   -1306.0142   -5250.3874 
 1834000    112.06867   -6733.4294   -6445.1396   -6733.4294            0    6920.3604    23.198409    21.281708    21.365409     10548.14    6411.0076     7339.565    7010.5085    -291.2203   -248.61126    156.51779   -5380.5542 
 1835000    105.07757      -6735.9   -6465.5944      -6735.9            0    7841.7013    23.066968    21.219081    21.470969    10509.178    7927.1893    7352.7431    8245.1715   -687.77453    688.72654    639.87085   -5263.7315 
 1836000    107.69289   -6748.2386   -6471.2052   -6748.2386            0    6804.2875    23.121856    21.216267    21.466369    10530.531    7479.7538     5972.482    6960.6268    717.53319   -400.72105    369.74169   -5426.2232 
 1837000    104.20758   -6742.4795   -6474.4119   -6742.4795            0    7289.6382    23.071462    21.250397    21.437819    10510.485    6948.1817    6958.1447    7962.5882    54.337461   -126.02788    412.95305   -5357.0223 
 1838000    106.17281    -6732.445   -6459.3219    -6732.445            0    7872.6388    23.110502    21.167351    21.481377    10508.434    8303.7389    8083.4925    7230.6851    814.91834    40.842084   -700.93028   -5252.8028 
 1839000    102.06091   -6744.5817   -6482.0362   -6744.5817            0    7508.1229    23.170739    21.222164    21.367519    10507.119     7417.794    7450.2886     7656.286   -167.24112   -452.88248   -687.36782   -5331.5248 
 1840000    109.27861    -6754.093   -6472.9804    -6754.093            0    7510.6637    23.111251    21.200695    21.485308    10527.255    7175.6999    7690.8747    7665.4164    321.73154   -277.61624    350.39985   -5319.8741 
 1841000     105.7122   -6747.1459   -6475.2077   -6747.1459            0    6981.6885    23.129429    21.222098    21.429772    10518.911    7543.6737      6370.59    7030.8018   -470.63861    75.809032     16.21656   -5404.1641 
 1842000    109.07753   -6740.6687   -6460.0734   -6740.6687            0    7690.6033    23.053502     21.21587    21.486753    10509.173     7808.059    8000.0562    7263.6947    328.00476   -167.11191   -205.30491   -5281.3692 
 1843000    104.08024   -6733.2148   -6465.4747   -6733.2148            0    7665.0955    23.032733     21.27774    21.484028    10528.989    8161.1361    7517.4083    7316.7422   -146.07521    246.85143    689.39674   -5288.4648 
 1844000    106.86452   -6730.6438   -6455.7413   -6730.6438            0    7592.3333    23.057415    21.351516    21.343992    10507.877    7754.9635    6826.4156    8195.6209    266.54664    418.76575    -339.2553    -5292.242 
 1845000    103.71638   -6750.9761   -6484.1721   -6750.9761            0    6618.3277    23.058345    21.381293    21.408267    10554.644    6662.4047    5770.3416    7422.2369    558.85497   -228.18717    164.66762   -5465.4218 
 1846000    113.20799   -6742.9802   -6451.7595   -6742.9802            0    7140.8428    23.056829     21.26793    21.461268    10523.984    7130.6394    6910.2271    7381.6619    349.21558    90.079962    61.234235   -5355.7722 
 1847000    106.01655   -6738.1428   -6465.4216   -6738.1428            0    7454.5386     23.16308    21.109279    21.528573    10526.523    6338.8109    9018.8916    7005.9132    226.17364   -609.18085   -242.93074   -5321.0118 
 1848000    106.06118   -6747.2098   -6474.3739   -6747.2098            0    8270.0001    23.202218    21.083997    21.417805    10477.494    8482.1224    8043.8512    8284.0265    62.848886   -317.53662   -363.25136    -5210.689 
 1849000    110.32239   -6745.9632   -6462.1655   -6745.9632            0    7356.0613    23.329206    21.006183    21.512236    10542.234    5776.5278    9294.5257    6997.1302    383.46065   -942.22808   -1122.6225   -5331.1882 
 1850000    107.67599   -6748.6601   -6471.6701   -6748.6601            0    7787.1975    23.124175    21.142731    21.463873    10493.864    7190.4749    8322.7486    7848.3689    440.89434   -636.46784    66.023278      -5279.9 
 1851000    102.63735   -6748.3872   -6484.3589   -6748.3872            0    7042.1165    23.131591    21.250304    21.462998    10550.208     7334.014    6454.2539    7338.0816    787.81443   -186.06969    1012.0434   -5400.8309 
 1852000    101.25483   -6718.3329    -6457.861   -6718.3329            0    8987.6837    23.009324    21.216131    21.437443    10465.091    9197.4431    8487.2993    9278.3086    532.99776    1017.8753    755.12868   -5086.1371 
 1853000    107.16221   -6730.2331   -6454.5649   -6730.2331            0    7265.6963    23.053929    21.341227    21.446727    10551.771    7542.9202    6622.9001    7631.2685   -247.13291    658.64236   -595.19153   -5336.4704 
 1854000    109.39835   -6746.2552   -6464.8346   -6746.2552            0    6579.9555    23.053151    21.301423    21.462508    10539.485    6969.6047    6501.6578    6268.6041    1046.3839    8.5701771   -265.98083   -5453.4456 
 1855000    108.64775    -6741.717   -6462.2273    -6741.717            0    6757.7779    23.029831    21.269644    21.540362    10551.252    6774.6509    6753.3998    6745.2831    1161.3549    299.72861    117.04074   -5422.3459 
 1856000    108.11547   -6751.8332   -6473.7127   -6751.8332            0    6895.1231    23.086172    21.288261    21.412402    10523.435    6909.2668    6363.3321    7412.7703   -252.76996   -224.94612    1261.4098    -5415.494 
 1857000    103.06933   -6739.1351   -6473.9955   -6739.1351            0    6395.6908    23.131128    21.237073    21.502461    10562.814      6179.62    6681.5425      6325.91   -260.76463    967.30223   -408.04206   -5488.7534 
 1858000    106.88306   -6743.1203   -6468.1701   -6743.1203            0    7497.9799    23.144553    21.229505    21.402043    10515.838    7249.7817    6706.0833    8538.0746    75.437887   -952.54258    230.62166   -5318.2596 
 1859000    103.52574   -6735.8791   -6469.5654   -6735.8791            0    7842.3869    23.136268    21.217867    21.414445    10512.399    7264.9622    8354.4854    7907.7132   -248.89251    685.65543   -1122.5039    -5267.229 
 1860000    104.28157   -6733.7939   -6465.5359   -6733.7939            0    8224.8997    23.207393    21.184633    21.316534    10480.063     8779.132    7774.6089    8120.9583   -308.52267   -144.30207   -435.74819   -5208.4342 
 1861000    104.78408   -6732.9862   -6463.4355   -6732.9862            0    6965.6631    23.177597    21.148056    21.510006    10543.368    6695.0587    7243.8632    6958.0675    113.42561   -149.53609   -172.15749   -5392.3658 
 1862000    110.62503     -6748.46   -6463.8838     -6748.46            0    6870.4408    23.236526    21.102731    21.470859    10528.325    6220.1528    7378.2325    7012.9369    348.68624   -805.23842    341.04309   -5408.9633 
 1863000    107.37204   -6738.5956   -6462.3875   -6738.5956            0    6997.8941    23.063604    21.213953    21.547258    10542.431    7512.7909    7231.5975    6249.2937   -35.728551   -456.47216    92.523074   -5386.4575 
 1864000    106.21881   -6728.2511   -6455.0097   -6728.2511            0    7869.4082    23.134457    21.260293    21.363011    10507.297    7434.7318    7933.6518    8239.8409     1391.174   -390.11895   0.65604901   -5249.1161 
 1865000    103.96974   -6725.4265   -6457.9706   -6725.4265            0     7451.683    23.048815    21.282378    21.455168    10524.481    7661.3689    7127.9941    7565.6862    -381.8957    85.381055   -284.20013   -5314.2211 
 1866000    105.67775   -6753.0004   -6481.1509   -6753.0004            0    7353.8485    22.967619    21.399967    21.385056    10510.889    7429.3102    7904.7065    6727.5289    96.001179   -73.506107   -1334.9349   -5353.8755 
 1867000    99.742171   -6741.9294   -6485.3487   -6741.9294            0    8364.3836    22.987814    21.339757    21.362278    10479.359    8666.7583    7604.7402    8821.6523    646.46176     514.3579    265.85476   -5207.0141 
 1868000    102.08568   -6737.5771   -6474.9679   -6737.5771            0     7487.978    22.995816    21.304389    21.451229    10509.211     8220.275    7110.3686    7133.2905   -274.43027    67.964882   -141.34989   -5327.3151 
 1869000    107.44752   -6740.8169   -6464.4147   -6740.8169            0    7889.8744    23.085757    21.299867    21.349489    10498.047    8590.2804    6202.5464    8876.7963    296.51256     242.2737    626.60753   -5256.4494 
 1870000    103.17412   -6737.2554   -6471.8462   -6737.2554            0    6713.6339    23.096301    21.296217    21.481109    10565.781    7356.9508    6022.7902    6761.1606    93.592189   -235.82444    39.841335   -5437.3352 
 1871000    105.11284   -6736.9789   -6466.5826   -6736.9789            0    7371.0703    23.156534    21.214919    21.434099    10529.801    6614.2497    7669.1401    7829.8211   -450.77867   -363.07175    212.88656   -5334.6342 
 1872000    108.71466   -6729.2234   -6449.5616   -6729.2234            0     7728.392    23.252325    21.108644    21.427217    10517.015    7583.2284    7549.9259    8052.0218    192.36909    160.68469    412.66722   -5264.1817 
 1873000    104.79185   -6738.2203   -6468.6497   -6738.2203            0     7052.802     23.20421    21.099036    21.517979    10534.912    7083.2702    7335.8096    6739.3261    6.8129843   -280.96171    635.61159   -5385.0509 
 1874000    109.29758   -6743.8298   -6462.6685   -6743.8298            0    6556.5197    23.167536    21.186545    21.501056    10553.579    6541.6316    7444.8961    5683.0314     339.9483    -202.4471   -505.34606   -5453.5341 
 1875000    111.28626   -6739.4531    -6453.176   -6739.4531            0    7487.2342    23.102429    21.272339    21.410203    10521.888    7894.8206    7212.7509    7354.1311   -337.03058   -160.29909    550.10028   -5304.2528 
 1876000    107.89047    -6745.717   -6468.1754    -6745.717            0    6586.0058    22.923009    21.470012    21.459569    10561.483    7579.6418     6209.827    5968.5485   -375.77854   -653.19663   -905.59101   -5453.7435 
 1877000     109.3106   -6746.3837   -6465.1889   -6746.3837            0    7756.3643    23.029986    21.322084    21.390538    10503.766      7619.67    7228.2476    8421.1753   -399.10837    747.56011    90.798744   -5277.0174 
 1878000    111.93143   -6750.1488    -6462.212   -6750.1488            0    7362.1917    22.980433    21.307601    21.489791    10522.646    8081.2455    7481.9004    6523.4293    211.37302    604.33987    149.35545   -5332.3954 
 1879000    111.18059   -6732.4028   -6446.3975   -6732.4028            0    7742.0266    22.947869    21.398725    21.389173    10503.263    8153.0391    7484.8177     7588.223    -365.7921    186.17744   -179.96226   -5260.4791 
 1880000    98.779717   -6740.2931   -6486.1883   -6740.2931            0     7302.025    23.128092    21.281329    21.407268    10536.583    7412.9246    6831.6808    7661.4696    434.74463  -0.43782106    -151.9778   -5364.1207 
 1881000    104.47856   -6751.1122   -6482.3475   -6751.1122            0    7456.6391    23.108902    21.206651    21.462687    10518.057    7334.2515     7522.296    7513.3697   -178.21934    84.303854   -31.933184   -5338.5359 
 1882000    107.93738   -6726.6935   -6449.0312   -6726.6935            0    7123.8495    23.221971    21.191018    21.393119    10527.494    6509.1417    7363.0771    7499.3298    48.173305   -59.244742    347.77908   -5355.2873 
 1883000    111.87212   -6744.7514   -6456.9672   -6744.7514            0    7130.3515    23.180676    21.037231    21.593496    10530.225    7824.4276     7381.166    6185.4609   -63.190223   -806.42229   -109.37769   -5361.9411 
 1884000    105.48377   -6751.7884   -6480.4379   -6751.7884            0    7259.9076    23.213713     21.14437    21.440126    10523.658     7145.984    7152.1021    7481.6367    249.15584    148.49879     1433.902   -5366.2108 
 1885000    101.75141   -6742.4839   -6480.7346   -6742.4839            0    6935.5637    23.184077    21.141493    21.508226    10542.171    7097.1867    6804.2455    6905.2587   -738.91459   -886.56936   -397.19671   -5414.4142 
 1886000    110.98842   -6737.9668   -6452.4559   -6737.9668            0    7543.4533     23.06747    21.307638    21.402238    10519.484    7899.9774    7625.4325    7104.9499    118.43974   -1100.3326   -1013.3943   -5295.1703 
 1887000    106.46205   -6745.2279   -6471.3607   -6745.2279            0    6790.5446    23.017201    21.384794    21.437955     10552.15    7836.0317    5563.1675    6972.4345   -814.92967   -239.91925    391.36198   -5426.3484 
 1888000     106.6055   -6744.6353   -6470.3992   -6744.6353            0    8187.9093    22.886573    21.425583    21.348619     10468.47    8269.0119    7877.6168    8417.0993   -316.28316    561.22779   -511.52596   -5220.3355 
 1889000    108.71276   -6753.8852   -6474.2283   -6753.8852            0    7034.4241    23.023502    21.325164     21.46183    10537.328    7425.9184    5997.5415    7679.8125    320.37189    469.76829    250.25731   -5393.2052 
 1890000    106.99348   -6740.7279   -6465.4936   -6740.7279            0    7411.4251     23.09942    21.244534    21.412759     10508.02    7848.1409    7000.0938    7386.0406   -149.58927    462.41827   -69.504873   -5329.7024 
 1891000    106.53549   -6747.9053   -6473.8493   -6747.9053            0    7376.1011    23.142405    21.143552    21.531403    10535.588    7976.6181    7129.2682    7022.4171    -614.9446   -451.35967   -444.85544   -5340.5059 
 1892000     110.3745   -6753.6941   -6469.7624   -6753.6941            0    6952.9021    23.252415    21.127555    21.446072     10535.74    6468.8038    7651.1618    6738.7407    284.44723   -454.71468   -117.40777   -5401.4284 
 1893000    107.60707   -6739.9291   -6463.1165   -6739.9291            0    7466.1862    23.242566    21.125133    21.423352    10518.915    6848.1027     8099.705    7450.7509   -292.36643     224.1491    278.30517   -5317.7469 
 1894000    106.58115   -6744.6647   -6470.4912   -6744.6647            0    6893.7173    23.217896    21.103191     21.49681    10532.829    6883.1164    7227.0458    6570.9897   -724.83658    -451.6673   -211.65737   -5411.5438 
 1895000    109.85118   -6731.8263   -6449.2409   -6731.8263            0    7828.8414     23.13479    21.232901     21.38352    10503.985    7425.0216    7651.6143    8409.8882   -195.19851   -258.34555    535.63661   -5249.9418 
 1896000    104.65332   -6742.1873   -6472.9731   -6742.1873            0    6782.9683    23.076486    21.292489    21.469053    10548.944    6987.0818    6734.2018    6627.6213    394.45259    -802.5248    76.212712   -5429.4437 
 1897000    107.76853   -6748.6353   -6471.4074   -6748.6353            0    8027.1459    22.922079    21.380347    21.394642    10485.129    8889.2018    7980.8356    7211.4001    325.25646   -456.65947   -330.77409   -5243.9376 
 1898000    102.30337   -6738.6848   -6475.5156   -6738.6848            0    7462.4946    22.971638    21.464751    21.341193    10522.926    7066.5542    7462.2533    7858.6763     236.8366    711.95615    -406.0213   -5330.2758 
 1899000    108.50631   -6729.6948    -6450.569   -6729.6948            0    7474.1746    22.978727    21.317213    21.478297    10520.981     8183.929    7381.4904    6857.1045   -190.02536   -210.31232   -454.92662   -5303.7486 
 1900000    105.40666     -6742.51   -6471.3578     -6742.51            0    7227.7505    23.150794    21.260343    21.383194    10524.676    7126.3151    7509.8034     7047.133   -674.23383    734.77213   -64.358418   -5361.9588 
 1901000    112.92014   -6742.8036   -6452.3234   -6742.8036            0    7416.9829    23.174954    21.159913    21.452349    10519.803    7283.8194     7518.827    7448.3024    256.72156   -99.428544    120.04572   -5314.4059 
 1902000    104.83179   -6747.6922   -6478.0188   -6747.6922            0    7113.4888    23.203846    21.116514    21.516304    10542.652    6715.1516    7926.1183    6699.1965   -510.51266   -687.27764   -557.77177   -5384.2931 
 1903000    108.38645    -6727.589   -6448.7714    -6727.589            0    7810.6187    23.215125    21.142466    21.392287    10499.869    7380.6311    7940.8574    8110.3676   -383.55803   -207.12476   -466.01811   -5252.7328 
 1904000     105.2863   -6732.9347   -6462.0921   -6732.9347            0    7622.3681    23.272874    21.058832     21.46665    10520.795    6597.8104    8848.1664    7421.1276    672.71279   -11.956709    36.254404    -5292.554 
 1905000    102.00777   -6743.7046   -6481.2958   -6743.7046            0    7262.8221    23.129112     21.17403    21.528752    10543.416    7838.9406    7857.1651    6092.3607     308.7543   -652.76563   -1093.0437   -5364.5286 
 1906000    102.65649   -6751.3004   -6487.2229   -6751.3004            0    7105.5781    23.111172    21.314833     21.34447    10514.516    6313.6369    6615.8729    8387.2247    74.594014   -73.453834    561.49875   -5397.6291 
 1907000    108.31722   -6750.7975   -6472.1581   -6750.7975            0    7983.7912    22.945853     21.22406    21.590331    10514.581    8476.9404    8295.1857    7179.2476    497.27634     647.3414   -611.58613   -5247.8886 
 1908000    108.36894   -6751.8205    -6473.048   -6751.8205            0     7079.616    23.096219    21.387155    21.294745    10518.804     7010.491    6153.5836    8074.7734   -680.25987   -312.72666   -243.10324   -5386.9927 
 1909000    107.89112   -6744.1768   -6466.6334   -6744.1768            0    7115.2203    23.065206    21.308499    21.428339    10531.705    7017.5182    6851.2617    7476.8811    -296.5698     506.9123    44.858157   -5373.7775 
 1910000    107.20671   -6749.6235   -6473.8407   -6749.6235            0    7121.5439    23.131796    21.206184    21.483909    10538.655    7971.0069     6923.028    6470.5966     89.30692    -193.8515   -311.27255   -5379.2917 
 1911000    105.18461   -6756.3654   -6485.7844   -6756.3654            0    5876.0159    23.228513    21.194995    21.477956    10574.204    5679.8648    5800.3717     6147.811     -799.069    935.38844    576.32744   -5579.6209 
 1912000     104.1066   -6728.0203   -6460.2125   -6728.0203            0    7838.1744     23.19024    21.056917    21.486045    10491.957    7137.4819    8483.1323     7893.909    780.87699   -75.256807     667.9273   -5260.8587 
 1913000    108.23783   -6746.2092   -6467.7739   -6746.2092            0    6564.7436    23.213483    21.146327    21.468891    10538.647    5615.7575    6860.7595    7217.7138   -45.551346   -100.21061    557.46346   -5458.8033 
 1914000    103.47767   -6737.6122   -6471.4222   -6737.6122            0    8370.1253    23.097575    21.197283    21.436427      10495.4    9420.3005    7706.9904     7983.085   -779.34902    27.771023   -1001.4069   -5190.2519 
 1915000    103.81094    -6729.848   -6462.8006    -6729.848            0    8181.6123    23.141229    21.253604    21.363433    10507.274     8295.758    8089.1869    8159.8921   -355.06653   -294.50789   -250.32371   -5209.0682 
 1916000    107.88901   -6727.6139    -6450.076   -6727.6139            0    8223.5272    22.985354    21.255401     21.47606    10492.407    8642.1616    8244.5137    7783.9063    226.95047    112.21537    204.31781   -5191.7037 
 1917000    105.38306   -6739.8075   -6468.7161   -6739.8075            0    7547.6415    22.993735     21.28962    21.485314     10517.66    8253.3954    7516.2193    6873.3099    297.58697     29.38261    287.74014   -5310.9887 
 1918000    107.87413   -6726.8112   -6449.3116   -6726.8112            0    7679.2027    22.947728    21.337664     21.46408    10509.906      8999.38    7022.5642    7015.6638    548.85954   -227.77864    753.06733   -5272.2725 
 1919000    109.94133   -6724.4336   -6441.6163   -6724.4336            0    7857.8176    23.074711    21.270921    21.418854     10512.81    8267.3231    7738.1406    7567.9892   -940.44318   -478.14662   -654.78612   -5236.8671 
 1920000     104.8348    -6738.275   -6468.5938    -6738.275            0    7631.0891    23.124539     21.20167     21.45036    10516.658     7326.876    8231.4442     7334.947    257.55136    84.695112   -524.69173   -5298.1781 
 1921000    105.32396   -6739.3285    -6468.389   -6739.3285            0    7952.7309    23.188282    21.124002    21.449461    10506.575    7694.6957    9189.5218    6973.9752   -1087.5938   -186.11983   -350.93165    -5249.811 
 1922000    108.45312   -6739.4474   -6460.4584   -6739.4474            0    7452.7538    23.257947     21.15144     21.36671    10511.119    7191.1987    7343.1001    7823.9626    105.80295   -242.29408    300.23698   -5317.9967 
 1923000     106.6346   -6748.9761   -6474.6651   -6748.9761            0    6702.4552    23.184643    21.063552    21.610848    10553.678     6054.965    8190.7567     5861.644   -499.39623    441.07702   -672.50911   -5443.0596 
 1924000    105.12763   -6747.2963   -6476.8619   -6747.2963            0    6820.6812     23.21633    21.184597    21.404771    10527.479    6281.1357    7145.2927    7035.6151    343.41728    62.945214    193.54601   -5429.6658 
 1925000    107.75708   -6743.7674   -6466.5688   -6743.7674            0    6273.1024    23.173454    21.242927    21.458747     10563.54    6483.7241      6489.84    5845.7431   -501.23232   -50.864985   -382.50177   -5500.1447 
 1926000    102.80423   -6740.5784   -6476.1208   -6740.5784            0    7306.3633    23.068124    21.206882    21.549875    10542.263    7617.3294    7718.6386    6583.1218    94.596146    90.833234    446.08693   -5352.7813 
 1927000     109.9693   -6725.6208   -6442.7315   -6725.6208            0    7597.4105    23.135288     21.31565    21.319516    10513.585    7094.2098    7348.9062    8349.1155   -70.969788    648.96917   -50.713842   -5277.8217 
 1928000      105.155   -6725.3903   -6454.8855   -6725.3903            0    7793.6358    22.913951    21.279753    21.552882    10509.255    7928.3536    7842.8459    7609.7078     340.5153    258.81147    174.79349   -5260.3806 
 1929000    105.70015   -6737.9461   -6466.0389   -6737.9461            0    6973.6158    23.091596    21.358999    21.351291    10530.742    6242.4048    6786.4796     7891.963    133.91534    1712.5142    34.678157   -5395.0305 
 1930000    109.57248   -6744.3893   -6462.5208   -6744.3893            0    7341.8972     23.02083    21.331008    21.431304    10524.003    7617.1046    6623.9915    7784.5953    459.50143   -283.59735    465.98078   -5335.6733 
 1931000    106.70546   -6742.5093   -6468.0161   -6742.5093            0    7184.4363    23.035174       21.353    21.427863    10539.724    7331.9174    6228.7437     7992.648    835.11059   -526.37059   -535.31678   -5363.6887 
 1932000    109.27553   -6738.4772   -6457.3726   -6738.4772            0    7112.5559    23.093587    21.298956    21.392685    10522.405    7223.5875    7355.0724    6759.0077   -599.63102    165.90908    360.64443   -5365.8906 
 1933000    105.55344    -6745.844   -6474.3142    -6745.844            0    6959.4328    22.972436    21.238762    21.607656    10542.507    8012.0603    6661.3467    6204.8913   -110.49057   -544.67698     765.2425   -5404.2899 
 1934000    104.90892   -6743.9404   -6474.0686   -6743.9404            0    7209.8217    23.163299    21.230316    21.405749    10526.581    7152.2982    7098.4668       7378.7     504.5023   -79.996972      469.269   -5367.2212 
 1935000    106.94529    -6727.987   -6452.8768    -6727.987            0    8031.9394    23.077782    21.243734    21.451347      10516.7    8242.2482    7627.8901      8225.68   -723.92485   -16.719862    177.87455   -5220.9758 
 1936000    107.34211   -6730.2984   -6454.1674   -6730.2984            0    7846.6643    23.148292    21.193352    21.447203    10521.781    8112.7565    8019.6193     7407.617   -670.38803   -237.38565   -282.76432   -5250.1016 
 1937000    102.38607   -6740.5324   -6477.1504   -6740.5324            0    8238.5567    23.228485    21.132344    21.361439    10485.739    7593.0225    8034.9066     9087.741    358.98111   -135.48081    -97.24908   -5217.2795 
 1938000     101.3185   -6710.5938   -6449.9581   -6710.5938            0    8207.8709    23.162215    21.129735    21.502901    10523.767    7611.1766    8104.7262      8907.71   -462.58445    247.80625    494.90196   -5190.2277 
 1939000    103.00098   -6746.9247    -6481.961   -6746.9247            0    7982.9701    23.198957    21.147881     21.40377    10500.877    6923.3817    8134.5706    8890.9581    260.86248   -114.53448    260.44931   -5259.4128 
 1940000     110.4818   -6726.8176   -6442.6099   -6726.8176            0    7413.4244    23.070902    21.241782    21.517645    10545.089    7799.3338    7181.4269    7259.5124   -325.40189   -512.95097    591.63311   -5302.5045 
 1941000    109.50755   -6738.0535    -6456.352   -6738.0535            0    6720.3355    23.112918    21.247806    21.502692    10559.946    6139.5304    7229.7925    6791.6835    1522.7368   -950.23309   -548.47164   -5421.3802 
 1942000    106.85842   -6736.8401   -6461.9533   -6736.8401            0    6702.6047     23.07342     21.36648    21.383176    10541.858    6625.9336    6764.9418    6716.9386    244.93793    653.88296    222.84979   -5431.4802 
 1943000     108.9086   -6750.9642   -6470.8034   -6750.9642            0    7236.8201     22.88613    21.398653    21.489569    10524.137    7099.7369    6779.7385    7830.9848   -167.65012     22.39775    767.66723   -5360.0692 
 1944000    107.33478   -6737.2919   -6461.1797   -6737.2919            0    7677.8223    23.094608    21.264816    21.403959     10511.54    7875.3526    7122.2279    8035.8863    1572.1185   -405.88675    -13.59929   -5284.1693 
 1945000    111.71702    -6742.664   -6455.2788    -6742.664            0    7800.1738    23.086145    21.211094     21.46134     10509.24    7936.9575    7238.4728    8225.0911   -1047.2031    344.24251    298.43389   -5259.7735 
 1946000    106.20721   -6742.1633   -6468.9517   -6742.1633            0    7388.0856    23.229861    21.099644    21.472358      10524.5    6994.2439    8698.3739     6471.639   -174.91173    133.83017    -810.0912   -5334.9616 
 1947000    109.44978   -6741.0248   -6459.4719   -6741.0248            0    7423.6441     23.28118    21.133251    21.384041    10521.098    6634.3699      7417.65    8218.9124    -601.4741    261.60868    328.78806   -5320.3922 
 1948000    108.81238   -6735.0776   -6455.1644   -6735.0776            0    8093.1872    23.195365    21.054398    21.510389    10504.909    7432.4797    8876.3272    7970.7546   -303.99321    157.03446   -393.07007   -5215.2612 
 1949000    110.88702   -6741.1398   -6455.8896   -6741.1398            0    7452.1251    23.196975    21.177568    21.422024    10523.687    7062.7699    7792.9392    7500.6663    191.57863    390.97151     454.4419   -5312.1585 
 1950000    105.16861    -6741.427   -6470.8871    -6741.427            0    7615.9184    23.001352    21.334878    21.449838    10526.101    8496.3314    7198.5685    7152.8552   -23.190402   -209.48111    694.09845   -5301.7493 
 1951000    104.36999   -6731.1611   -6462.6756   -6731.1611            0    7915.1013     22.98828    21.267165    21.492224    10507.453    8719.5898    7784.5431    7241.1709    137.02314   -27.092456   -624.58957   -5249.7622 
 1952000     109.3436   -6744.3496   -6463.0699   -6744.3496            0     7987.984    23.065815    21.391578    21.270854    10495.341    7747.8818    7687.7004    8528.3696    690.67019   -640.62768   -572.18959   -5240.3988 
 1953000    100.84101    -6744.191   -6484.7836    -6744.191            0    8225.5203    22.950621    21.323643    21.439809    10492.446     8703.809    7850.9413    8121.8106   -401.11132   -47.203158   -655.76504   -5226.1016 
 1954000    105.73637   -6738.8343    -6466.834   -6738.8343            0    8140.1419     23.05246    21.227277    21.452343     10497.51    7784.5638    8617.0158    8018.8461     504.3497    141.67272   -120.32135   -5220.6156 
 1955000    108.87803   -6751.6643   -6471.5822   -6751.6643            0     8170.091    23.204973    21.183428    21.339537    10489.681    7735.2617    8270.6189    8504.3925     319.3101   -943.65338    402.71584   -5221.7115 
 1956000    105.03162   -6752.7997   -6482.6123   -6752.7997            0    7468.2616    23.231522    21.060631    21.510439    10524.423    6654.5937    8260.2547    7489.9363    -543.6124    88.081335   -1272.2502   -5336.3244 
 1957000    102.07298    -6742.681   -6480.1044    -6742.681            0    6979.6798    23.205044    21.204894    21.422374    10541.104    7120.4213    7189.4962    6629.1219   -327.66257    -766.1225   -86.478179   -5407.1099 
 1958000    104.03972   -6732.4441   -6464.8083   -6732.4441            0    7067.3998    23.178091    21.223368    21.419874    10536.804    6843.1847    6720.9199    7638.0949    260.86191   -1370.6939    469.00516   -5378.7718 
 1959000     109.9966   -6740.8768   -6457.9173   -6740.8768            0    6916.7463      23.0986    21.224889    21.516165    10548.628    6742.9833    6974.2395    7033.0162     1609.767    291.45544    580.78198   -5393.8387 
 1960000    105.53546   -6738.7914   -6467.3078   -6738.7914            0    7844.7515    23.026056    21.273636    21.451684    10508.063    8749.6759    6931.7988    7852.7798    312.67557    36.769506    704.95928    -5265.105 
 1961000    112.05294   -6744.9513   -6456.7019   -6744.9513            0    7325.4761    22.978194    21.341571    21.456624     10522.13    8047.5452    6445.9523    7482.9308    634.88747   -775.48592   -109.01901   -5332.5748 
 1962000    103.90759     -6735.88   -6468.5841     -6735.88            0    7886.4092    22.996034    21.383365    21.373651     10510.12    7643.5526     7814.372    8201.3031   -181.24226    919.21388   -1104.1139   -5259.7606 
 1963000    106.97554   -6744.6987   -6469.5106   -6744.6987            0    7613.4909    23.026323    21.349854    21.390221    10515.618    7030.8519    7866.2265    7943.3943   -77.650364   -104.14403    -766.9493   -5301.9095 
 1964000    107.06443   -6743.7216   -6468.3049   -6743.7216            0    7206.4041      23.1506    21.169123    21.482829     10528.26      6842.53    7977.9851    6798.6972    868.35537   -47.581521   -838.77626   -5361.8057 
 1965000     104.1644   -6744.3053   -6476.3487   -6744.3053            0    8301.8107     23.20085    21.053437    21.431018    10468.145    6793.7087    8854.3311    9257.3923    183.25262    1071.1636    994.56342   -5208.9349 
 1966000    104.56817   -6738.5461   -6469.5508   -6738.5461            0    7089.4516    23.161989    21.156679    21.514476    10542.755    7177.7134    7517.6196    6573.0217   -329.62129   -48.528732    358.74174   -5379.5103 
 1967000    108.18151   -6742.1619   -6463.8715   -6742.1619            0    8533.4491    23.180404    21.104026    21.443104    10489.963    7865.3779    9454.5237    8280.4459    28.507263   -621.51907   -399.70638   -5158.3788 
 1968000    108.11085   -6734.4412   -6456.3327   -6734.4412            0    7168.6187    23.248735    21.224721    21.367891    10543.941    6809.2852    7727.5564    6969.0144   -258.50459    -24.79154   -735.35979   -5353.9958 
 1969000    106.72503    -6743.959   -6469.4154    -6743.959            0    7713.6535    23.061557    21.230935    21.482449    10518.203    8434.3012    7163.1209    7543.5383    166.34715   -327.32559   -1.9635265   -5286.1625 
 1970000     102.6369   -6745.1391    -6481.112   -6745.1391            0    7151.1697    23.030014    21.333899    21.384231    10506.501    7460.1813    6611.7354    7381.5925    588.45168    -239.0571    102.99166    -5385.363 
 1971000    106.38691   -6744.7443   -6471.0704   -6744.7443            0    7878.0002    22.994928    21.317628    21.427863    10503.881    7667.6594     7195.936    8770.4052    59.867636    812.64124   -175.16456   -5264.2527 
 1972000    107.96369   -6750.9931   -6473.2631   -6750.9931            0    8033.8519    23.007253    21.255499    21.453982    10491.655    8136.2859    7694.1381    8271.1316    46.641587    637.32236     78.52781   -5244.0032 
 1973000    106.91273   -6748.0118   -6472.9853   -6748.0118            0    7282.6735    23.117671    21.352273    21.315621    10521.707    6973.5826     6835.516    8038.9221    526.99904    206.45487   -571.56009   -5355.4714 
 1974000    110.49913   -6737.2545   -6453.0022   -6737.2545            0    7228.3961    23.077544    21.127644    21.615992    10539.398    6754.8995    8405.2138     6525.075   -449.19966    553.86809   -582.22797   -5341.9521 
 1975000    110.33584    -6757.075   -6473.2428    -6757.075            0    7043.8571    23.174439    21.199751    21.425658    10526.262    6360.7867    7679.7343    7091.0503   -251.45431    140.65274   -87.270583    -5391.907 
 1976000    107.31589   -6743.8678   -6467.8042   -6743.8678            0    7389.6439    23.167231    21.203093    21.399652    10511.872    7500.4968    7945.0822    6723.3527    -613.2968     143.4549   -676.96309   -5334.9358 
 1977000    111.58673   -6733.8924   -6446.8424   -6733.8924            0    6854.8219    23.110932    21.236051    21.540132    10571.572     7178.803    6476.9365    6908.7263   -516.25199   -22.545879   -184.91029   -5389.9965 
 1978000    107.40679   -6725.7755   -6449.4781   -6725.7755            0    7592.5089    23.198691    21.254338    21.323517    10514.047    7237.3223    7765.0714     7775.133   -302.81181    -3.042899   -149.46506   -5285.2687 
 1979000    108.38486   -6739.9163   -6461.1028   -6739.9163            0    6857.3714    23.065363    21.107619    21.675979    10553.056    7446.2094    6573.9663    6551.9385    385.56866   -180.38161    35.424908   -5405.7157 
 1980000    109.97354   -6729.0162    -6446.116   -6729.0162            0    8031.3443    23.086406     21.26197     21.36087    10485.249    8501.4305    7420.3768    8172.2254    -26.20213   -1024.3467   -8.5102077     -5217.99 
 1981000    110.79014   -6737.0796   -6452.0787   -6737.0796            0    7167.2723    23.130013    21.305841    21.386723    10539.471    6223.4386    7233.2435    8045.1348   -353.98545    545.14815   -582.81533   -5350.4161 
 1982000    105.88927   -6728.9325   -6456.5388   -6728.9325            0    7954.3175    23.019645    21.303326    21.425739    10507.075    8827.9155    7182.4418    7852.5952   -423.37356   -316.09993         -545   -5237.6597 
 1983000    106.20787   -6743.8243   -6470.6111   -6743.8243            0    7655.2147    22.996785    21.327116      21.4152    10503.194     8998.042    6511.0484    7456.5539    314.23157   -548.42396    28.492806   -5297.9982 
 1984000    107.03312   -6737.0672    -6461.731   -6737.0672            0    7771.5374    23.015098    21.182584    21.527933    10495.281     8655.146    7687.8068    6971.6595    5.3969828   -423.14384   -107.53222   -5272.1969 
 1985000    108.60976   -6745.9928   -6466.6008   -6745.9928            0    8129.5576    23.105296    21.210988    21.387166    10481.554    6987.1942    9275.4029    8126.0758    244.54153    645.88155   -185.40459   -5223.8946 
 1986000    102.86914   -6732.9277   -6468.3031   -6732.9277            0     7260.049    23.119827    21.244308    21.455086    10537.981    7607.9793    7558.6343    6613.5335    -1288.516   -377.28896   -228.93144   -5352.5378 
 1987000    104.18352   -6742.3652   -6474.3595   -6742.3652            0    7457.3621     23.19252    21.223169     21.38199    10524.617    7512.3612    6959.4226    7900.3025     -185.989   -204.88564   -320.90898   -5329.7234 
 1988000    110.24597    -6735.417    -6451.816    -6735.417            0    7542.8112    23.172817    21.184503    21.443406    10526.667    7744.2461    7383.8234     7500.364   -394.13725   -547.08933   -544.89944   -5293.8388 
 1989000    103.52915   -6739.8882   -6473.5658   -6739.8882            0    7008.7682    23.188052    21.123082    21.526367    10543.682    6397.9607    7833.7591    6794.5847   -397.72215    538.13225   -70.360789    -5395.836 
 1990000    106.15967   -6731.6482    -6458.559   -6731.6482            0    7838.3945    23.082084    21.207438    21.435848    10493.102    8205.6618    7810.3405    7499.1811    349.71646   -779.27987    498.08329   -5259.0406 
 1991000    107.78006   -6750.2237   -6472.9661   -6750.2237            0    6578.7563    23.113934    21.160682    21.554915    10542.652    6631.1598    7256.5454    5848.5637    514.81786    523.16411    420.37237   -5461.4575 
 1992000    103.93173   -6740.6119   -6473.2538   -6740.6119            0    6910.3905    23.082396    21.297224    21.434035    10536.778    7325.0035    6541.3596    6864.8084   -615.70967   -649.07343   -264.29176   -5411.3473 
 1993000    108.16585   -6736.7818   -6458.5318   -6736.7818            0    7723.1557    23.074825     21.31095    21.374241    10510.707    8403.2583    6981.1504    7785.0585    -547.0519   -215.01082   -123.77821   -5274.6656 
 1994000     105.0589   -6735.9717   -6465.7141   -6735.9717            0    7515.5923    23.125753    21.201568    21.462723    10523.221    7774.4586    7903.5209    6868.7973   -269.59106    551.42979   -705.75724   -5312.2933 
 1995000    111.02954   -6732.8775   -6447.2607   -6732.8775            0    7388.2334    23.081884    21.257648    21.466287    10532.789    7006.2393    7559.7678    7598.6931    916.20847   -459.10903    954.95348   -5312.3548 
 1996000    105.78214    -6747.438   -6475.3199    -6747.438            0    6372.7104    23.257842    21.142107    21.458387    10551.513    6274.3064    6615.7248    6228.1001    831.13177   -806.97875    391.16899   -5494.6681 
 1997000    109.85164   -6743.9583   -6461.3716   -6743.9583            0    8016.8857    23.079302    21.139614    21.525301    10501.926    8769.3268     7365.404    7915.9265   -361.33702    601.86293    58.107349   -5233.5068 
 1998000    106.78425   -6735.0703   -6460.3743   -6735.0703            0     7995.265    23.125906    21.259529    21.401003    10521.715    7768.6745    7712.1283    8504.9923    537.97523    -681.2704    149.43269   -5233.5135 
 1999000    104.04321   -6732.9053   -6465.2604   -6732.9053            0    8844.9267     23.07469    21.230572    21.367695    10467.796    9256.2338    8203.4955    9075.0508    -205.8269    1127.9849   -279.15449   -5114.9756 
 2000000    112.66735   -6731.4688   -6441.6389   -6731.4688            0     8184.429    22.970282    21.290111    21.468336    10498.872    8960.4829    8141.0348    7451.7693   -443.25317    446.68899    1001.7148   -5188.4779 
Loop time of 649.395 on 64 procs for 250000 steps with 1296 atoms

Performance: 66.523 ns/day, 0.361 hours/ns, 384.974 timesteps/s
193.7% CPU use with 32 MPI tasks x 2 OpenMP threads

MPI task timing breakdown:
Section |  min time  |  avg time  |  max time  |%varavg| %total
---------------------------------------------------------------
Pair    | 39.317     | 49.417     | 62.549     |  93.7 |  7.61
Bond    | 0.8014     | 1.0132     | 1.6557     |  15.3 |  0.16
Kspace  | 332.97     | 344.24     | 357.68     |  38.3 | 53.01
Neigh   | 1.3094     | 1.4018     | 1.4806     |   4.1 |  0.22
Comm    | 98.923     | 104.01     | 111.46     |  33.1 | 16.02
Output  | 0.83751    | 0.83784    | 0.84089    |   0.1 |  0.13
Modify  | 121.68     | 124.99     | 128.82     |  18.8 | 19.25
Other   |            | 23.49      |            |       |  3.62

Nlocal:        40.5000 ave          51 max          30 min
Histogram: 5 4 3 4 0 0 2 6 5 3
Nghost:        3163.25 ave        3194 max        3143 min
Histogram: 1 7 6 6 3 3 2 0 3 1
Neighs:        13310.0 ave       16758 max        9747 min
Histogram: 2 7 2 5 0 0 2 6 6 2

Total # of neighbors = 425920
Ave neighs/atom = 328.64198
Ave special neighs/atom = 2.0000000
Neighbor list builds = 2659
Dangerous builds = 0

unfix		3
unfix		2
unfix		1

write_data	data.final.${pid}
write_data	data.final.0
System init for write_data ...
PPPM initialization ...
  extracting TIP4P info from pair style
  using 12-bit tables for long-range coulomb (../kspace.cpp:340)
  G vector (1/distance) = 0.37056643
  grid = 30 40 32
  stencil order = 5
  estimated absolute RMS force accuracy = 0.0038665297
  estimated relative force accuracy = 1.1643939e-05
  using double precision FFTW3
  3d grid and FFT values/proc = 7888 1280
Last active /omp style is kspace_style pppm/tip4p/omp
WARNING: Not all mixed pair coeffs generated from mixing. Use write_data with 'pair ij' option to store all pair coeffs. (../write_data.cpp:312)

write_restart   restart.lmp.${pid}
write_restart   restart.lmp.0
System init for write_restart ...
PPPM initialization ...
  extracting TIP4P info from pair style
  using 12-bit tables for long-range coulomb (../kspace.cpp:340)
  G vector (1/distance) = 0.37056643
  grid = 30 40 32
  stencil order = 5
  estimated absolute RMS force accuracy = 0.0038665297
  estimated relative force accuracy = 1.1643939e-05
  using double precision FFTW3
  3d grid and FFT values/proc = 7888 1280
Last active /omp style is kspace_style pppm/tip4p/omp
Total wall time: 0:10:49
