#include		in.partitions
include		in.temp
variable        temperature equal 276.60
variable	tempDamp equal 100.0
include		in.pressure
variable        pressure equal 10250.0
variable        pressureDamp equal 1000.0 # This is 1 ps
include		in.seed
variable        seed equal 745823

units		real
atom_style	full
read_restart	restart.lmp.${pid}
read_restart	restart.lmp.1
Reading restart file ...
  restart file = 30 Jul 2021, LAMMPS = 30 Jul 2021
  restoring atom style full from restart
  orthogonal box = (0.65058879 1.8578389 0.79371681) to (17.556984 21.771339 21.419479)
  2 by 4 by 4 MPI processor grid
  restoring pair style lj/cut/tip4p/long/omp from restart
  restoring bond style harmonic/omp from restart
  restoring angle style harmonic/omp from restart
  864 atoms
  576 bonds
  288 angles
Finding 1-2 1-3 1-4 neighbors ...
  special bond factors lj:    0        0        0       
  special bond factors coul:  0        0        0       
     2 = max # of 1-2 neighbors
     1 = max # of 1-3 neighbors
     1 = max # of 1-4 neighbors
     2 = max # of special neighbors
  special bonds CPU = 0.002 seconds
  read_restart CPU = 0.008 seconds
include 	in.setup
variable	out_freq equal 1000
variable	out_freq2 equal 10000
variable	out_freq3 equal 1000

timestep	2.0

neigh_modify    delay 7 every 1

include		in.tip4p
# This is TIP4P/Ice

# create groups ###
group ox type 2
288 atoms in group ox
group hy type 1
576 atoms in group hy

# set charges - beside manually ###
set group ox charge -1.1794
Setting atom values ...
  288 settings made for charge
set group hy charge 0.5897
Setting atom values ...
  576 settings made for charge

# ### TIP3P Potential Parameters ###
pair_style lj/cut/tip4p/long/omp 2 1 1 1 0.1577 8.5
pair_coeff 1 1*2 0.000 0.000
pair_coeff 2 2 0.21084 3.1668
bond_style  harmonic
bond_coeff  1 450 0.9572
angle_style harmonic
angle_coeff 1 55 104.52
kspace_style pppm/tip4p/omp 1.0e-5
pair_modify tail yes

thermo          ${out_freq}
thermo          1000
thermo_style    custom step temp pe etotal epair emol press lx ly lz vol pxx pyy pzz pxy pxz pyz enthalpy

restart 	${out_freq3} restart.lmp.${pid} restart2.lmp.${pid}
restart 	1000 restart.lmp.${pid} restart2.lmp.${pid}
restart 	1000 restart.lmp.1 restart2.lmp.${pid}
restart 	1000 restart.lmp.1 restart2.lmp.1


include         in.dump
dump            myDump all atom ${out_freq2} dump.water.${pid}
dump            myDump all atom 10000 dump.water.${pid}
dump            myDump all atom 10000 dump.water.1
dump            myDump2 all dcd ${out_freq2} dump.dcd
dump            myDump2 all dcd 10000 dump.dcd
dump_modify     myDump append yes
dump_modify     myDump2 append yes


variable natoms 	equal  "count(all)"                        # NUMBER ATOMS
variable H      	equal  "enthalpy/v_natoms"                 # ENTHALPY-per-atom
variable Vol      	equal  "vol/v_natoms"                 # volume-per-atom
fix AVG all 		ave/time ${out_freq} 1 ${out_freq} v_Vol v_H file vol_enthalpy.dat
fix AVG all 		ave/time 1000 1 ${out_freq} v_Vol v_H file vol_enthalpy.dat
fix AVG all 		ave/time 1000 1 1000 v_Vol v_H file vol_enthalpy.dat


timer           timeout 23:50:00 every 1000
New timer settings: style=normal  mode=nosync  timeout=23:50:00

fix 		1 all shake 1e-6 200 0 b 1 a 1
       0 = # of size 2 clusters
       0 = # of size 3 clusters
       0 = # of size 4 clusters
     288 = # of frozen angles
  find clusters CPU = 0.001 seconds
fix             2 all nph iso ${pressure} ${pressure} ${pressureDamp}
fix             2 all nph iso 10250 ${pressure} ${pressureDamp}
fix             2 all nph iso 10250 10250 ${pressureDamp}
fix             2 all nph iso 10250 10250 1000
fix             3 all temp/csvr ${temperature} ${temperature} ${tempDamp} ${seed}
fix             3 all temp/csvr 276.6 ${temperature} ${tempDamp} ${seed}
fix             3 all temp/csvr 276.6 276.6 ${tempDamp} ${seed}
fix             3 all temp/csvr 276.6 276.6 100 ${seed}
fix             3 all temp/csvr 276.6 276.6 100 745823

run             250000
PPPM initialization ...
  extracting TIP4P info from pair style
  using 12-bit tables for long-range coulomb (../kspace.cpp:340)
  G vector (1/distance) = 0.37459525
  grid = 24 24 24
  stencil order = 5
  estimated absolute RMS force accuracy = 0.0031231427
  estimated relative force accuracy = 9.4052515e-06
  using double precision FFTW3
  3d grid and FFT values/proc = 3549 432
Last active /omp style is kspace_style pppm/tip4p/omp
Neighbor list info ...
  update every 1 steps, delay 7 steps, check yes
  max neighbors/atom: 2000, page size: 100000
  master list distance cutoff = 10.8154
  ghost atom cutoff = 10.8154
  binsize = 5.4077, bins = 4 4 4
  1 neighbor lists, perpetual/occasional/extra = 1 0 0
  (1) pair lj/cut/tip4p/long/omp, perpetual
      attributes: half, newton on, omp
      pair build: half/bin/newton/omp
      stencil: half/bin/3d
      bin: standard
Per MPI rank memory allocation (min/avg/max) = 10.19 | 10.20 | 10.20 Mbytes
Step Temp PotEng TotEng E_pair E_mol Press Lx Ly Lz Volume Pxx Pyy Pzz Pxy Pxz Pyz Enthalpy 
 1000000    288.48245   -3807.0983   -3312.6492   -3807.0983            0    8444.3436    16.906395      19.9135    20.625762    6943.9824    9527.0433    8285.3828    7520.6047   -1886.5912    126.23396   -479.53268   -2457.4833 
 1001000    266.60828   -3796.9708   -3340.0133   -3796.9708            0    8615.5641    16.930933    19.942402    20.655698    6974.2617    8606.2821    7550.8473    9689.5629   -863.11992   -186.95675   -896.07859   -2463.7031 
 1002000    278.35247   -3809.5303   -3332.4437   -3809.5303            0    8916.5212    16.920694    19.930342    20.643207    6961.6166    7223.3621     8542.377    10983.825     384.3216    1448.0809   -1131.6518   -2427.1668 
 1003000    270.13065   -3826.1076   -3363.1129   -3826.1076            0    9615.8612    16.892984    19.897704    20.609401    6927.4711    10376.352    9675.2653    8795.9662    1287.1595   -1374.2449    208.63203   -2391.6218 
 1004000    277.91668   -3875.2548   -3398.9151   -3875.2548            0    10485.506    16.855098    19.853079     20.56318     6880.966    9489.5549    10754.807    11212.155   -384.50525    93.540212   -1686.1882   -2346.6754 
 1005000    278.88935   -3825.7363   -3347.7295   -3825.7363            0    8572.7057    16.929453     19.94066    20.653893    6972.4335    10273.891    7079.8833    8364.3422    1682.7362    602.10095   -89.555704   -2476.0071 
 1006000    269.21737   -3758.2982   -3296.8688   -3758.2982            0     10445.35    16.879645    19.881993    20.593128    6911.0739    10976.017    9584.3894    10775.644    449.97881    267.18942    1849.0039   -2244.0724 
 1007000    268.71147   -3767.4133    -3306.851   -3767.4133            0    12835.901    16.878441    19.880574    20.591658    6909.5943    12672.363    12409.146    13426.195    1241.3144   -1858.0662   -2251.4378   -2013.3856 
 1008000    282.76019   -3793.0362   -3308.3949   -3793.0362            0    8582.8531    16.864069    19.863646    20.574125    6891.9596    7353.4996    9108.1143    9286.9455    60.846707   -551.49148    954.72693   -2445.7138 
 1009000    282.47527   -3751.0029   -3266.8499   -3751.0029            0    12560.217    16.848945    19.845831    20.555673    6873.4331    12974.799    11304.802    13401.051   -797.09614    1309.7445    1120.4769    -2007.789 
 1010000    281.20901   -3795.1263   -3313.1437   -3795.1263            0    10412.205    16.979034    19.999059    20.714381    7033.8725    11021.514     9261.162    10953.938    -1063.171    283.70899   -895.67143   -2245.0409 
 1011000    272.24194    -3790.147   -3323.5336    -3790.147            0    11456.825    16.923614    19.933781    20.646769    6965.2208    10377.587    11780.103    12212.787    842.62911   -1527.4094    371.00233   -2159.7424 
 1012000    281.03593   -3774.7415   -3293.0555   -3774.7415            0    9905.2222    16.921153    19.930883    20.643767    6962.1834     10704.42    9979.5792    9031.6672   -83.947084    146.85753    326.58648   -2287.3159 
 1013000    295.80254   -3818.1886   -3311.1932   -3818.1886            0    10680.186    16.887536    19.891286    20.602754    6920.7701    12596.602    11001.067    8442.8878   -377.54363    -1265.642    279.17683   -2233.2171 
 1014000    276.31982   -3859.2674   -3385.6647   -3859.2674            0    9929.4649    16.869518    19.870064    20.580773     6898.642    10092.648    9538.7559     10156.99    487.74683    536.78754    587.71039    -2386.665 
 1015000    271.84548   -3812.2046   -3346.2707   -3812.2046            0    9629.4287    16.889531    19.893636    20.605188    6923.2235     9889.813    9341.6568    9656.8164   -1932.9569    1245.7205   -1819.6935   -2374.0055 
 1016000    280.69454   -3826.2723   -3345.1714   -3826.2723            0    12426.011    16.808455     19.79814    20.506276    6823.9992    11401.204    13210.799     12666.03    585.00499    1420.8875    1873.4161   -2108.5221 
 1017000    271.96625   -3811.3691   -3345.2283   -3811.3691            0    10179.593    16.926005    19.936598    20.649687    6968.1742    10668.424     9012.977    10857.377    361.72409    736.35691    564.09616   -2310.7407 
 1018000    272.04417   -3831.5326   -3365.2582   -3831.5326            0    11368.193    16.835477    19.829968    20.539242    6856.9635    10484.585     10090.11    13529.882    989.00441   -978.36009    518.76733   -2228.4187 
 1019000    283.73857   -3817.7144   -3331.3962   -3817.7144            0    10290.452    16.797819    19.785612      20.4933    6811.0534    10137.852    9364.8907    11368.613    914.50367    928.94398   -296.84406   -2309.2227 
 1020000    279.99212   -3854.0627   -3374.1658   -3854.0627            0    11895.068    16.805376    19.794513    20.502519    6820.2499     10780.53    12117.011    12787.662    420.97753    -1304.973   -388.41748   -2191.0069 
 1021000    279.04574   -3824.0759   -3345.8011   -3824.0759            0    9583.7339    16.805406    19.794549    20.502557    6820.2871    9486.8822     10171.84    9092.4795    707.89936    708.90287   -251.82319   -2392.5369 
 1022000    281.86927   -3834.8648   -3351.7505   -3834.8648            0    10410.746    16.874889    19.876391    20.587326     6905.234    10944.503    10339.924    9947.8119   -846.69269   -736.09489    768.61012   -2303.3285 
 1023000    278.08176   -3870.9719   -3394.3493   -3870.9719            0    9738.5153    16.871627    19.872548    20.583346    6901.2302    10121.311    9905.0307    9189.2036   -209.62451    749.37593   -1845.3902   -2414.1934 
 1024000    289.38754   -3789.8797   -3293.8793   -3789.8797            0    10307.064    16.832645    19.826632    20.535787    6853.5037     8914.026    10269.773    11737.394   -402.12045   -282.54642   -753.27201   -2263.6746 
 1025000    285.64355    -3841.002   -3351.4187    -3841.002            0    8438.7248    16.856453    19.854675    20.564833    6882.6255    8498.2589    8257.6794    8560.2362   -581.64586    387.88168    1000.7008    -2504.373 
 1026000    303.91959   -3857.1922   -3336.2844   -3857.1922            0    11263.461    16.907517    19.914822    20.627131    6945.3653    11144.081    11712.002    10934.299   -663.94212   -297.58839    162.24621   -2195.3969 
 1027000     274.5272   -3786.9954   -3316.4652   -3786.9954            0    9958.1857    16.839626    19.834855    20.544304    6862.0346    8629.4898    10223.593    11021.474    672.09238    1637.7554    100.08182   -2319.8924 
 1028000    275.49391   -3826.1523   -3353.9652   -3826.1523            0    11271.098     16.81091    19.801031    20.509271    6826.9895    11256.975    10852.577    11703.741    1208.6947    1457.6564    724.81269   -2231.7624 
 1029000    268.16429   -3808.8485   -3349.2241   -3808.8485            0    9341.0002    16.857723    19.856171    20.566383     6884.182     10069.37    7007.3021    10946.329    1882.8768   -811.52169    2408.6261   -2411.3995 
 1030000    295.37755   -3819.1534   -3312.8864   -3819.1534            0    9657.8024    16.935582    19.947879    20.661371    6980.0091    9599.3439    10169.852    9204.2111   -1005.1305    796.50968    757.90616   -2329.7581 
 1031000    277.08464   -3764.5262   -3289.6126   -3764.5262            0    8416.7969    16.933846    19.945834    20.659253    6977.8626    10672.907    6094.8927    8482.5912     627.9203    1146.2614    1485.4213   -2433.0775 
 1032000    269.72205   -3786.0017   -3323.7073   -3786.0017            0    9034.2056    16.918404    19.927645    20.640413      6958.79    9763.1364    7958.3556    9381.1248    43.276399   -327.32141   -261.30709   -2406.8546 
 1033000    280.16412   -3789.8916   -3309.6999   -3789.8916            0    7777.4927    16.908547    19.916035    20.628388    6946.6344    8439.8312     7582.226     7310.421    231.02361   -197.77018    123.28536   -2521.7657 
 1034000     275.7324   -3829.4229    -3356.827   -3829.4229            0    8708.9168    16.859985    19.858835    20.569142    6886.9528    10752.537    8754.6815    6619.5321    -955.9225    476.51904   -935.01331   -2482.1109 
 1035000    260.20174   -3844.1381   -3398.1612   -3844.1381            0     8175.369    16.982897    20.003609    20.719094    7038.6747    8705.2333    6699.7424    9121.1314    1983.2558   -632.22358   -738.21873   -2558.9445 
 1036000    277.87369   -3855.7047   -3379.4387   -3855.7047            0    9918.6078    16.875691    19.877335    20.588304    6906.2182    10585.529    8737.8051    10432.489    908.92949   -167.78405   -1108.2347   -2380.4354 
 1037000    284.18857   -3820.2322   -3333.1427   -3820.2322            0    8544.7448    16.898269    19.903929    20.615849    6933.9747    8030.4618    9055.2803    8548.4924    484.83176    599.84554   -595.67711   -2469.0561 
 1038000    274.97236   -3819.6145   -3348.3213   -3819.6145            0     10334.99    16.889583    19.893698    20.605252    6923.2873    12387.119    9437.3022    9180.5499   -557.11719   -105.44722    1535.4467   -2304.8072 
 1039000    281.69393   -3819.3896   -3336.5759   -3819.3896            0    9833.6748    16.917243    19.926278    20.638997    6957.3585    8948.4517    9524.3973    11028.175    -675.4383    454.04263   -810.84486   -2338.7928 
 1040000    279.55102   -3844.3377   -3365.1968   -3844.3377            0    7620.8796    16.974732    19.993992    20.709134    7028.5281    6749.8109    7738.3886    8374.4392    1736.0123   -477.65164   -1476.1904   -2584.0272 
 1041000    265.00221   -3779.0137    -3324.809   -3779.0137            0    9843.3664    16.913627    19.922018    20.634585    6952.8974    11209.256    8063.6156    10257.227    480.89857    688.96967    1350.7591    -2326.683 
 1042000    284.29078   -3802.6653   -3315.4006   -3802.6653            0    8096.7633    16.916489     19.92539    20.638077    6956.4278    8407.2432    8147.5387     7735.508   -181.65233   -478.49082    1376.2664   -2493.9648 
 1043000     275.5937   -3787.9513   -3315.5931   -3787.9513            0    8917.1147    16.870316    19.871004    20.581746    6899.6209    7628.5867    9475.3158    9647.4416   -2387.5203   -361.01704    1845.3614   -2418.3183 
 1044000    285.81749   -3803.8079   -3313.9265   -3803.8079            0    13222.255     16.83681    19.831539    20.540869    6858.5933    13959.313    13588.394    12119.059   -1397.8723    561.06274    91.995516   -1991.3631 
 1045000    275.82448   -3858.1289   -3385.3752   -3858.1289            0    9600.1786    16.779836     19.76443     20.47136    6789.2015    9895.4843    10239.743    8665.3085    129.16214   -230.77562      1533.99   -2434.8275 
 1046000    288.65763   -3806.8577   -3312.1084   -3806.8577            0    10387.811    16.837649    19.832526    20.541892    6859.6179    9530.1809    11215.239    10418.012    1249.7626    -317.3243    305.24081   -2272.9067 
 1047000    277.48347   -3805.6071     -3330.01   -3805.6071            0    10266.849    16.837045    19.831815    20.541156      6858.88    10434.324     10021.67    10344.553   -878.29157    402.63606    1123.8092   -2303.0198 
 1048000    272.71289   -3758.6052   -3291.1846   -3758.6052            0    12017.243    16.816742    19.807901    20.516387    6834.0981    13030.981    13099.525    9921.2224    479.71962     903.2947    799.91074   -2093.4463 
 1049000    272.37586   -3767.2298   -3300.3869   -3767.2298            0    11581.217    16.841289    19.836814    20.546334    6864.0684    10257.232    11881.281    12605.139    403.98635   -908.58369   -1074.8751   -2141.0446 
 1050000    278.44178   -3810.4482   -3333.2085   -3810.4482            0    12695.267    16.799246    19.787293    20.495041    6812.7893    15319.379    11018.933    11747.488    859.62655    126.22223   -63.711449    -2071.838 
 1051000    271.50482   -3769.8087   -3304.4587   -3769.8087            0    9219.8874    16.917095    19.926103    20.638816     6957.175    10018.149    7738.4796    9903.0337    -609.0005    762.96106    693.18865   -2368.9789 
 1052000    267.95303   -3820.8563    -3361.594   -3820.8563            0    11279.416    16.876587     19.87839    20.589397    6907.3179    11139.447    11740.192    10958.608    982.02497    818.97805   -1093.7057   -2225.3491 
 1053000    273.75438   -3857.8528   -3388.6471   -3857.8528            0    9842.7648    16.917139    19.926155     20.63887    6957.2292    10097.198    11349.114    8081.9826   -1564.1678    -1226.881   -130.80416   -2389.9603 
 1054000    284.63813   -3815.9099   -3328.0499   -3815.9099            0     8853.304    16.944299    19.958146    20.672005    6990.7925    7834.2474    9675.0381    9050.6263   -1024.9772   -71.806447    131.32855   -2425.4242 
 1055000    266.58882   -3801.9421   -3345.0179   -3801.9421            0    9517.2902    16.926765    19.937493    20.650613    6969.1121    8670.2403    9631.2692    10250.361   -46.454636    1301.1097    498.87058   -2377.7058 
 1056000    283.66632   -3778.6962   -3292.5018   -3778.6962            0    8929.7147    16.934688    19.946825     20.66028    6978.9033    8277.1134    9350.2624    9161.7684    112.09287    1438.9493    469.39336   -2383.6341 
 1057000    294.69358   -3832.4485   -3327.3537   -3832.4485            0    10721.271    16.881128    19.883739    20.594937    6912.8958    10897.905    11932.435    9333.4722    932.54032   -341.53578    1330.4588   -2246.4621 
 1058000    280.63255   -3819.5846     -3338.59   -3819.5846            0    13307.157    16.817244    19.808492    20.516999    6834.7097    12431.875    14849.032    12640.565   -1798.6606    1182.6168    1373.7375   -2012.1695 
 1059000    282.15665   -3806.8125   -3323.2056   -3806.8125            0    11537.778    16.866208    19.866165    20.576735    6894.5823      12935.2    11163.116    10515.017    28.463437    183.27397    45.945417   -2163.0773 
 1060000    261.39527    -3833.968   -3385.9454    -3833.968            0    8399.0521    16.951277    19.966366    20.680519    6999.4334    6723.0739    9667.3533     8806.729   -306.08134    18.554694   -54.331054   -2528.5739 
 1061000    277.14452   -3818.0324   -3343.0162   -3818.0324            0    9929.7296    16.911584    19.919612    20.632093    6950.3786    9383.8459    9918.0646    10487.278    1271.2578    291.44243   -202.45988   -2336.4977 
 1062000    281.91856   -3791.9693   -3308.7705   -3791.9693            0    10498.947    16.896075    19.901345    20.613172    6931.2742    9197.1519    11130.498    11169.191   -23.208796     839.4313   -487.23624    -2247.479 
 1063000    293.66906   -3792.1885   -3288.8497   -3792.1885            0    11486.955    16.848548    19.845364     20.55519     6872.948    11794.237     12415.85    10250.776    1013.2942   -209.35537    526.45197    -2137.456 
 1064000    282.87586   -3833.2118   -3348.3722   -3833.2118            0    11290.771    16.887899    19.891715    20.603198    6921.2171    11184.545    12658.894    10028.873    914.56296    1291.0136    8.1367915   -2208.6948 
 1065000    273.22927   -3817.1306    -3348.825   -3817.1306            0    11174.518    16.873858    19.875176    20.586067    6903.9679    11458.866    10067.062    11997.626   -176.60344    1506.7824    298.92018    -2223.693 
 1066000    280.10833    -3758.614    -3278.518    -3758.614            0    11323.809    16.874452    19.875876    20.586792     6904.697    12216.014    10798.371    10957.042   -213.43141   -1045.4868   -428.75664   -2138.2339 
 1067000    272.48499   -3819.4939   -3352.4639   -3819.4939            0    11635.366    16.816664    19.807809     20.51629    6834.0021    15298.368    9304.1305    10303.599    559.30896    -1877.652   -154.09409   -2192.8029 
 1068000    277.21426   -3790.3672   -3315.2315   -3790.3672            0    10035.684    16.889968    19.894151    20.605721    6923.7607    10881.695    9652.8089    9572.5472   -908.63821    486.04536    891.59071   -2301.8688 
 1069000    267.88947   -3810.8775   -3351.7241   -3810.8775            0    9593.5553    16.878346    19.880462    20.591542    6909.4777    8937.2414    9500.3653    10343.059   -429.66788     757.0524    109.88122   -2385.0041 
 1070000     285.5155   -3822.2777   -3332.9139   -3822.2777            0    8713.3315    16.909518    19.917179    20.629573    6947.8317     8351.161    9764.1506    8024.6829   -399.28712   -872.83152    476.05937   -2450.0181 
 1071000    274.23168   -3799.4613   -3329.4376   -3799.4613            0     9165.642    16.877512    19.879479    20.590525    6908.4536    9209.0091    8925.8105    9362.1062   -507.48233    1668.3598    673.97101   -2405.9743 
 1072000    294.22088   -3807.8921   -3303.6076   -3807.8921            0    9002.2442    16.981578    20.002055    20.717485    7037.0346    10751.754    9230.4393    7024.5391   -1595.6866      866.073    145.45879   -2379.7259 
 1073000    267.16407   -3816.2828   -3358.3728   -3816.2828            0    11109.787    16.850669    19.847862    20.557776    6875.5429    9825.3061    10759.709    12744.347    176.10791    586.46659   -114.02862    -2244.364 
 1074000    274.84741   -3832.5133   -3361.4342   -3832.5133            0    9044.5891    16.907973    19.915359    20.627688    6945.9274    8840.5114    7201.0754     11092.18     1187.639   -581.88728    609.45841   -2445.2244 
 1075000    274.59469   -3803.7707   -3333.1248   -3803.7707            0    8855.7879    16.926621    19.937324    20.650438    6968.9348    9089.4263    8741.3047    8736.6328    220.04771   -1649.4953     1191.998   -2433.0688 
 1076000    265.49589   -3805.0168   -3349.9659   -3805.0168            0    8866.5462    16.960797    19.977579    20.692133    7011.2325      9986.81    6960.0748    9652.7538    470.16089    1054.0443    493.29776   -2443.3471 
 1077000    263.48178   -3809.6492   -3358.0504   -3809.6492            0    8940.7499    16.871688     19.87262     20.58342     6901.305    9402.3244    8402.4017    9017.5237    1073.0647   -1729.3223   -1109.8733   -2458.1778 
 1078000    293.51055   -3801.9551    -3298.888   -3801.9551            0    9533.4508    16.920805    19.930473    20.643343    6961.7539    8905.7939    9612.7899    10081.769   -1262.3903    717.43316     611.5913   -2330.9564 
 1079000    278.36585   -3806.4479   -3329.3384   -3806.4479            0    12193.148    16.860936    19.859955    20.570302    6888.1182    12681.023    12628.002     11270.42   -370.24213   -481.19835   -1748.1569   -2104.4618 
 1080000    273.57141   -3751.4166   -3282.5245   -3751.4166            0    6677.5679    16.947015    19.961345    20.675318    6994.1541    7903.8302    5235.4843     6893.389     781.3808    376.85689    727.68165   -2601.3955 
 1081000    275.16654   -3803.5674   -3331.9413   -3803.5674            0    10527.609     16.87767    19.879666    20.590718     6908.648    11214.698    9270.2114    11097.916    13.492352    1727.9005     1799.965   -2271.2264 
 1082000    267.67553     -3820.72   -3361.9333     -3820.72            0    8635.5001    16.904781    19.911599    20.623793    6941.9937    8630.8935    9219.7247     8055.882    446.26458    530.36545   -579.53023   -2487.6593 
 1083000    264.92186   -3812.3618   -3358.2948   -3812.3618            0    8325.1337    16.936114    19.948505    20.662019    6980.6661    9453.1308    8312.3007    7209.9696    343.63408    446.60012    749.85689   -2510.7474 
 1084000    284.36651   -3748.4741   -3261.0796   -3748.4741            0    11124.159    16.886011     19.88949    20.600894    6918.8958    10713.615    10258.297    12400.564    856.66697    1348.6239    158.44627   -2138.5964 
 1085000    274.83744   -3798.1609   -3327.0989   -3798.1609            0    10920.478    16.847573    19.844215    20.553999     6871.754    8523.0879    10984.678    13253.667    1009.6823    472.67879   -689.47319   -2232.6761 
 1086000    263.81175   -3803.5611   -3351.3968   -3803.5611            0    9354.3623    16.902864    19.909342    20.621455    6939.6331    9719.0544    8426.8243     9917.208    387.22388    118.74394    633.98033   -2404.6658 
 1087000    268.23981   -3847.9683   -3388.2144   -3847.9683            0     8572.749    16.928759    19.939842    20.653047    6971.5761    8146.4776    8363.9268    9207.8427   -82.399284   -369.51135    -500.4446   -2516.5948 
 1088000    285.32796   -3794.9179   -3305.8755   -3794.9179            0    10881.233    16.877537     19.87951    20.590556     6908.485    10557.579     12227.22    9858.9013    826.07971    1040.6546    258.80364   -2209.5568 
 1089000    265.75769   -3828.0831   -3372.5835   -3828.0831            0    8643.8326    16.951771    19.966947    20.681121    7000.0444    8904.4916    7950.9975    9076.0088    60.764406   -37.815507    176.44345   -2490.1479 
 1090000    276.86834   -3820.7207   -3346.1779   -3820.7207            0    12607.721    16.807353    19.796842    20.504932    6822.6577    12157.982    10926.594    14738.588   -288.40874    941.84842   -199.84228   -2091.6912 
 1091000    259.56117   -3814.0009   -3369.1219   -3814.0009            0    10374.795    16.807344    19.796831     20.50492    6822.6457    11303.325    9088.1413     10732.92    539.80652    619.60451    -178.6966   -2336.8164 
 1092000    290.89291   -3842.4635    -3343.883   -3842.4635            0    10138.674    16.887528    19.891278    20.602745    6920.7611    9919.6201    9298.4463    11197.957   -39.505776   -836.51219    -7.915047   -2320.5643 
 1093000     290.8873   -3888.1059    -3389.535   -3888.1059            0    8262.6401    16.867616    19.867824    20.578453    6896.3094    10602.199     8330.329     5855.392    1744.0611   -482.31717    1344.2792    -2558.515 
 1094000    272.25209   -3840.4128   -3373.7821   -3840.4128            0    9984.5325    16.840906    19.836362    20.545866    6863.5993    7979.6241    9442.6015    12531.372   -1131.7503   -10.472191    786.63457   -2374.3448 
 1095000    281.67604   -3874.9101   -3392.1271   -3874.9101            0    9479.5836     16.86809    19.868382    20.579031    6896.8906    8868.9738    8020.3327    11549.444   -65.453511     524.6447    102.15433   -2438.6319 
 1096000    281.54093   -3829.3954   -3346.8438   -3829.3954            0    9567.8968    16.910985    19.918907    20.631362    6949.6402    9419.5747    10687.575    8596.5403    -278.1638    -1207.175    693.78686   -2377.1052 
 1097000    281.42224   -3834.3703   -3352.0222   -3834.3703            0    10199.762    16.891218    19.895624    20.607246    6925.2982    9232.9041    11434.085    9932.2987   -214.74773   -905.38136    417.56729   -2321.8628 
 1098000    275.86345    -3853.153   -3380.3325    -3853.153            0    8815.2836    16.929342    19.940529    20.653758    6972.2967    7768.4713     9040.466    9636.9135    281.96628    133.08844    737.91361    -2483.961 
 1099000     287.2368   -3803.2431    -3310.929   -3803.2431            0    10546.441    16.909918    19.917649     20.63006    6948.3242    10706.142    10966.629    9966.5513    634.40851   -967.31485    2131.0742   -2242.2141 
 1100000    273.79243   -3816.8085   -3347.5377   -3816.8085            0    9398.1249    16.926259    19.936898    20.649997    6968.4883    8208.2681    10210.502     9775.604     1010.782    33.753455    596.67658   -2392.4226 
 1101000    266.17679   -3847.4714   -3391.2535   -3847.4714            0    10609.498    16.908799    19.916332    20.628696    6946.9455    8854.4071    11539.345    11434.743    620.22746    371.66134   -862.54202    -2316.362 
 1102000     283.9117   -3790.1125   -3303.4976   -3790.1125            0    10160.262    16.914878    19.923491    20.636111    6954.4399    10522.311    10849.736    9108.7382   -774.57712    -648.4151   -66.812775   -2273.0096 
 1103000    277.86862    -3808.521   -3332.2637    -3808.521            0    8635.6496    16.937516    19.950156     20.66373    6982.4001    8544.1213    7918.1761    9444.6514   -1843.2933   -272.96215   -860.68632   -2452.8856 
 1104000     281.8881   -3806.2254   -3323.0788   -3806.2254            0    10754.426    16.866235    19.866197    20.576768    6894.6155    8993.8898    12228.549    11040.839    740.70381    267.20394    799.43055   -2241.7116 
 1105000    270.99885   -3773.8243   -3309.3415   -3773.8243            0    9802.5954    16.927572    19.938444    20.651598    6970.1096    10665.266    9021.1964    9721.3239   -37.978405   -83.593243    -1608.714   -2312.8891 
 1106000    265.03472   -3823.5084   -3369.2479   -3823.5084            0    11218.469    16.874413     19.87583    20.586745    6904.6494    12883.698    10268.393    10503.315    -276.3226   -128.85003    190.49381   -2239.5792 
 1107000    257.58876    -3808.134   -3366.6357    -3808.134            0    10541.699    16.894051     19.89896    20.610702    6928.7832    11230.506    10579.808    9814.7839    1022.9796     516.7253   -1538.4137   -2301.4054 
 1108000    270.17875   -3790.3879   -3327.3108   -3790.3879            0    10094.491    16.926841    19.937582    20.650706     6969.206    11731.483    7785.1595    10766.832   -373.16466    -860.4189    367.78249   -2301.3196 
 1109000    286.99726    -3822.761   -3330.8576    -3822.761            0     9521.598    16.881713    19.884428    20.595651    6913.6141     11715.21    8825.7433    8023.8401    175.33512    297.28799    281.56228   -2370.8142 
 1110000    274.86674   -3831.6266   -3360.5144   -3831.6266            0    9054.4686    16.910871    19.918773    20.631224    6949.4999     8223.323    8085.5345    10854.548   -514.69339    1381.7912    316.46843    -2442.832 
 1111000    271.80153   -3808.8975    -3343.039   -3808.8975            0    10111.324    16.914501    19.923048    20.635652    6953.9756    9671.4902     9786.029    10876.452    1498.5841    395.29953    242.74081   -2317.5829 
 1112000    276.24052    -3793.279   -3319.8122    -3793.279            0    11023.388      16.8658    19.865685    20.576237    6894.0816    10138.047    10116.646    12815.472    602.62457    1004.7986   -814.19059   -2211.4865 
 1113000     277.6216   -3808.8338   -3332.9999   -3808.8338            0    12310.261    16.776096    19.760025    20.466798    6784.6632    12892.531    14820.476    9217.7758   -896.83518     1911.933    1540.7661   -2114.9321 
 1114000    280.18945   -3787.6338   -3307.3987   -3787.6338            0    9266.8904    16.883596    19.886646    20.597948    6915.9278    10179.995    9095.3952    8525.2807   -449.09612   -529.90044   -724.15261   -2372.7242 
 1115000    289.55562   -3812.6326   -3316.3441   -3812.6326            0     10889.64    16.856173    19.854346    20.564492    6882.2834     8044.223    13103.258     11521.44   -730.76917    71.561318    362.33731   -2223.3396 
 1116000    272.73043   -3828.7269   -3361.2763   -3828.7269            0    10129.175     16.88163    19.884331     20.59555    6913.5124    8831.8635    10723.129    10832.531      1925.27    55.941127   -897.96235   -2339.9872 
 1117000    267.83583   -3846.9541   -3387.8926   -3846.9541            0     12875.49    16.819147    19.810733    20.519319    6837.0295    13511.358    11426.343    13688.768     452.3065   -979.30332   -28.081518   -2104.0639 
 1118000    263.07691   -3823.7071   -3372.8023   -3823.7071            0    9842.6124    16.880534     19.88304    20.594213     6912.166    9036.8632    11474.477    9016.4971    260.80619   -1811.1569    142.52733   -2380.5995 
 1119000    283.99165   -3819.2177   -3332.4657   -3819.2177            0    10024.334    16.902415    19.908813    20.620907    6939.0802    7245.9451    11445.228    11381.829   -798.27361   -93.502532   -1051.3042   -2318.0095 
 1120000    274.15762   -3839.0558    -3369.159   -3839.0558            0    10841.879    16.878164    19.880248    20.591321     6909.255    10194.179    11196.376    11135.081    519.86492    503.86179   -863.80571   -2276.6836 
 1121000    273.25314   -3827.7694   -3359.4229   -3827.7694            0    12084.051    16.848103     19.84484    20.554646     6872.403    12148.004    11925.885    12178.264    764.60152    695.41717    1693.1978   -2148.2754 
 1122000    291.94298   -3830.8138   -3330.4335   -3830.8138            0    11448.904    16.907467    19.914762     20.62707    6945.3032    11035.349    10923.722    12387.641   -1466.5151    196.63419    1314.7623   -2170.7727 
 1123000    269.23814   -3825.1203   -3363.6554   -3825.1203            0     10553.52    16.851832    19.849232    20.559195    6876.9668    11916.154    9177.2062      10567.2    682.90729   -1188.0767     647.0515   -2305.2058 
 1124000    288.96829   -3800.5625   -3305.2807   -3800.5625            0    12352.524    16.837017    19.831782    20.541122    6858.8463    12556.103    9709.3165    14792.151    987.56127   -175.55765      1464.46   -2069.6672 
 1125000    287.49819   -3788.7815   -3296.0195   -3788.7815            0    10425.403    16.900634    19.906714    20.618734    6936.8862    9449.6538    10288.058    11538.499   -793.46759    1240.0828    517.39917   -2241.3088 
 1126000    278.57907   -3810.7882   -3333.3132   -3810.7882            0    10049.132    16.951445    19.966564    20.680724    6999.6415    11495.519    9232.8473    9419.0304    -106.1951   -1219.9538    1066.6103   -2307.4718 
 1127000    286.52967   -3829.3171   -3338.2151   -3829.3171            0    10011.395    16.920838    19.930512    20.643383    6961.7947    11405.903    10279.918    8348.3641    412.25984    1495.4722   -1658.8912   -2321.7518 
 1128000    279.38957   -3813.2858   -3334.4216   -3813.2858            0    10692.146    16.871273    19.872131    20.582914    6900.7957    9786.7682    11826.372    10463.296    1536.0359   -149.91547     217.6979   -2258.3531 
 1129000    281.26872   -3782.4443   -3300.3594   -3782.4443            0    9155.5545    16.911601    19.919633    20.632114    6950.3999    7348.2557    10213.787    9904.6212   -1106.0777   -80.931485    766.04267   -2372.3116 
 1130000    285.89495   -3871.8289   -3381.8147   -3871.8289            0    9795.1016     16.83585    19.830407    20.539697    6857.4192    9750.6648    10538.752    9095.8879    263.60432   -619.47937    -934.4626    -2402.222 
 1131000    266.28196   -3818.5886   -3362.1904   -3818.5886            0    8887.5375    16.881986     19.88475    20.595984    6913.9498    7384.9298    8713.8353    10563.847    1575.5377    451.65749   -1421.7409   -2466.0346 
 1132000    274.51954   -3756.5309   -3286.0138   -3756.5309            0    9568.1344    16.882478    19.885329    20.596584     6914.554    8746.1575    8943.9752    11014.271    1055.6688    636.75041    1058.6032   -2321.1471 
 1133000    265.67885   -3788.6425    -3333.278   -3788.6425            0    8726.3891     16.85601    19.854154    20.564293    6882.0838    8366.4399     8348.898    9463.8293   -715.66683   -1167.7156   -261.77649   -2457.4267 
 1134000    265.41228    -3810.232   -3355.3244    -3810.232            0    11091.806    16.887705    19.891486     20.60296    6920.9781    8611.4861    12663.081     12000.85   -1900.4104   -133.56505   -423.90833   -2235.7689 
 1135000    275.95347   -3858.7604   -3385.7856   -3858.7604            0    9281.6346    16.872672    19.873779    20.584621    6902.5123    9959.8358    9354.7016    8530.3664   -451.12618   -314.98682    309.59945     -2451.44 
 1136000    271.81523   -3800.1386   -3334.2566   -3800.1386            0    8630.5994    16.937331    19.949939    20.663504    6982.1717    9427.6526    10869.161    5594.9843   -239.11555    1088.9489    1467.8419   -2455.4215 
 1137000    273.54448   -3822.5829    -3353.737   -3822.5829            0    9089.9581    16.937805    19.950497    20.664083    6982.7578    9235.6887    11797.946    6236.2396    83.128768   -929.05258    78.286032   -2428.0488 
 1138000    281.63596   -3796.0186   -3313.3042   -3796.0186            0    12211.891    16.862204    19.861449     20.57185    6889.6732    11145.445    13669.474    11820.753     414.1546   -68.119151    -93.48958   -2086.2679 
 1139000    256.62386   -3846.2865    -3406.442   -3846.2865            0    11308.116    16.909705    19.917399      20.6298    6948.0618    11171.515    11131.591    11621.241    660.99875    1278.1331   -492.18155   -2260.5866 
 1140000    279.29264   -3795.3922   -3316.6942   -3795.3922            0    10306.102     16.94379    19.957546    20.671384    6990.1622    10977.388    8672.1777     11268.74    92.470218    734.24342     375.6034   -2266.0454 
 1141000    275.76696   -3828.4699   -3355.8147   -3828.4699            0    9145.1128    16.955944    19.971863    20.686212    7005.2159     9370.593    9063.8994    9000.8461    929.84367    848.07246   -594.45729   -2421.5144 
 1142000    277.97876   -3801.7126   -3325.2665   -3801.7126            0    7757.5273    16.891792    19.896299    20.607946    6926.0039    9363.3177    5996.7312    7912.5331   -1123.2101   -1059.3214   -1695.1466   -2541.6891 
 1143000    270.78901   -3839.8766   -3375.7535   -3839.8766            0     11006.26    16.877211    19.879126    20.590158    6908.0846    9312.1487    10902.892    12803.739    925.99762    794.27925   -387.03682   -2266.9023 
 1144000    278.98464   -3824.5796   -3346.4094   -3824.5796            0    12335.711    16.818225    19.809648    20.518195    6835.9058    13321.332    12309.239    11376.561    1584.9001    1666.9617   -689.24195   -2116.6048 
 1145000    286.21541   -3800.3317   -3309.7682   -3800.3317            0    12790.858    16.862841      19.8622    20.572627    6890.4543    12434.059    14395.928    11542.588    265.99385   -1129.3506    1047.2853   -2024.4122 
 1146000    273.89315   -3830.2966   -3360.8531   -3830.2966            0    11002.153    16.860859    19.859865    20.570209    6888.0245    12480.634    9963.6475    10562.179     605.3878   -988.59624   -935.42323   -2255.6343 
 1147000    276.57548   -3848.1203   -3374.0794   -3848.1203            0    10450.641    16.874043    19.875393    20.586293    6904.1944    10419.685    10097.932    10834.306   -75.023609   -222.81503    192.65726   -2321.7982 
 1148000     259.7016   -3819.9587   -3374.8391   -3819.9587            0    10700.848    16.877647    19.879639     20.59069    6908.6202    11263.891     12874.74    7963.9127    0.2408238    443.16772    381.70712   -2296.6736 
 1149000     292.4771   -3791.7553   -3290.4596   -3791.7553            0    9267.2802    16.949622    19.964416    20.678499    6997.3826    9794.1282     7720.837    10286.875    98.802475   -243.44521   -213.42656   -2344.7369 
 1150000    264.32873   -3794.6843   -3341.6339   -3794.6843            0    11644.615    16.887989    19.891821    20.603307    6921.3279    10051.402    13142.101    11740.343    1495.8095   -573.08385   -2190.7461    -2166.221 
 1151000    282.60964   -3795.2775   -3310.8942   -3795.2775            0    11326.052    16.854341    19.852187    20.562256     6880.039    10279.039    13282.116    10417.001   -846.44394   -571.39346   -604.36379   -2174.4573 
 1152000     263.5273     -3839.59   -3387.9132     -3839.59            0    11029.182    16.895825     19.90105    20.612866    6930.9659    8922.4476    12400.939    11764.159    1307.6409    299.00719    2018.5611   -2273.0722 
 1153000    269.40811   -3824.5534   -3362.7971   -3824.5534            0     8968.812     16.92144    19.931222    20.644118    6962.5381    9991.7036    7741.5225    9173.2101    444.24542    1244.1079    113.77482   -2452.0907 
 1154000    275.47076   -3855.8167   -3383.6693   -3855.8167            0    12094.876      16.8867    19.890303    20.601735    6919.7434    11842.419    9317.5289     15124.68   -276.78958   -910.74503    513.41769   -2163.0863 
 1155000    275.07218   -3855.1735   -3383.7092   -3855.1735            0    10603.867     16.85283    19.850407    20.560413    6878.1886    9646.2093    10426.153    11739.237   -1816.6053   -4.4850231     1799.135   -2320.0213 
 1156000    253.57015   -3833.8696    -3399.259   -3833.8696            0    9500.5273    16.951551    19.966689    20.680853    6999.7729    9647.2884    8487.5235     10366.77    836.91764   -784.99679   -169.11757   -2429.4024 
 1157000    279.20849   -3838.0994   -3359.5456   -3838.0994            0    9930.5441    16.910852     19.91875      20.6312    6949.4758    9565.5561    10466.841     9759.235    122.56333    -791.7147   -846.89413   -2353.0753 
 1158000    285.50991   -3832.4481   -3343.0939   -3832.4481            0    12243.173    16.844507    19.840605     20.55026    6868.0038    10266.204     13818.84    12644.475    290.86286   -1029.0033    224.65767   -2116.7835 
 1159000    265.24968   -3804.0751   -3349.4463   -3804.0751            0    11211.411    16.859515    19.858282    20.568569    6886.3776    11273.611    13510.452    8850.1704    1481.5137   -473.05319    247.95963   -2223.4758 
 1160000    272.82975   -3762.1476   -3294.5267   -3762.1476            0    10152.648    16.889538    19.893644    20.605196    6923.2317    9507.9568    11881.033    9068.9532   -405.57706   -96.312863    2216.0262   -2269.4319 
 1161000     266.6774   -3815.2738   -3358.1978   -3815.2738            0    11062.938     16.85928    19.858005    20.568282    6886.0895     9502.041    11953.739    11733.035    108.63078    156.97819     40.66144   -2247.1851 
 1162000    267.38166   -3779.3909   -3321.1078   -3779.3909            0    10041.708    16.844467    19.840557    20.550211    6867.9548    10233.793    10431.661    9459.6699     272.4064   -734.92598   -1772.9168   -2315.3095 
 1163000    283.46805   -3812.9273   -3327.0727   -3812.9273            0    10647.583    16.881402    19.884062    20.595271    6913.2321    10486.932    9976.2355    11479.581   -363.42062    1335.5055   -408.02867   -2253.5579 
 1164000    275.75808    -3824.754   -3352.1141    -3824.754            0    9918.7226    16.945192    19.959197    20.673094    6991.8972    9990.6733     8906.576    10858.918   -1718.9059    829.64922    724.97855   -2340.7054 
 1165000    278.67202   -3837.7451   -3360.1108   -3837.7451            0     10306.65    16.933434    19.945349     20.65875    6977.3534     11756.37    10028.582    9134.9975    333.59038    289.54367    952.63322   -2311.3314 
 1166000    274.63398   -3765.8671   -3295.1539   -3765.8671            0    9985.9818    16.881217    19.883844    20.595045    6913.0048    11632.732    10072.596     8252.618    21.534283    752.67429   -394.11984   -2288.3763 
 1167000    268.21738   -3828.5045   -3368.7891   -3828.5045            0    8403.1898    16.906115     19.91317    20.625421    6943.6377    9434.2291    6589.3733     9185.967   -2294.8487   -966.38486   -214.70128   -2517.8331 
 1168000    293.65961   -3770.8211   -3267.4986   -3770.8211            0    10971.714    16.895453    19.900612    20.612414    6930.5091    14108.828    9362.0494    9444.2639     581.7507   -690.34142    870.24631   -2158.5395 
 1169000    275.78031   -3751.7026   -3279.0246   -3751.7026            0    10148.605    16.898057    19.903679     20.61559    6933.7137     8402.075    9629.4677    12414.271     683.9821    293.73857    937.43711   -2252.7865 
 1170000    282.76584   -3833.9583   -3349.3073   -3833.9583            0    10517.822    16.938584    19.951415    20.665033    6983.7214    11686.384    10033.346    9833.7349   -419.61596   -335.84175    291.43645   -2278.0628 
 1171000    280.29307   -3838.9134   -3358.5006   -3838.9134            0    9855.7459    16.934589    19.946709    20.660159    6978.7812    11047.949     10082.67     8436.619    384.01351   -774.07382     590.3366   -2355.3989 
 1172000    270.92313   -3836.7196   -3372.3666   -3836.7196            0    9616.9007    16.908562    19.916053    20.628407    6946.6535    10203.457    8943.7052    9703.5397    1377.5099   -1022.8604    -512.3604   -2398.0801 
 1173000    286.35823   -3873.9285   -3383.1203   -3873.9285            0    9513.9377    16.884214    19.887374    20.598701    6916.6869    10982.885    8184.1369    9374.7913   -164.07411    1442.4622   -2102.8414   -2423.4229 
 1174000    257.35072   -3823.2776   -3382.1872   -3823.2776            0    9714.7109    16.873653    19.874934    20.585817    6903.7158    9060.7611    10697.444    9385.9272   -1575.0499    72.286818    2041.6015    -2404.075 
 1175000    284.66846   -3825.7464   -3337.8344   -3825.7464            0    11846.728    16.858973    19.857644    20.567908    6885.7138    10751.108     13515.48    11273.595    427.07997    1609.7977   -776.53632   -2148.1733 
 1176000     278.7262   -3849.1161    -3371.389   -3849.1161            0    10190.501    16.880299    19.882763    20.593926    6911.8775    9932.8765     10913.96    9724.6676    894.14493    -230.2531   -1010.9311   -2344.1595 
 1177000    281.37713   -3788.6243   -3306.3535   -3788.6243            0     11391.95    16.887525    19.891273    20.602741    6920.7567    12964.397    11402.153    9809.2998   -183.35486    -817.7909    -1425.759   -2156.5396 
 1178000     278.4682   -3805.7651   -3328.4802   -3805.7651            0     11153.78    16.902263    19.908633    20.620721    6938.8921    10336.106    8809.8365    14315.396   -36.294884   -354.18961    2361.6414   -2199.7553 
 1179000    278.47638   -3835.2589   -3357.9599   -3835.2589            0    7850.1571    16.924169    19.934435    20.647446    6965.9061    8492.9255    6704.0312    8353.5145    541.13065   -479.84696    1201.4963   -2560.4578 
 1180000    284.14964   -3839.7926   -3352.7698   -3839.7926            0    9837.9339     16.88914    19.893176    20.604711    6922.7427    9466.6618    10578.566    9468.5733   -101.28621   -1193.8169    840.28021   -2359.5212 
 1181000    271.28953    -3822.747    -3357.766    -3822.747            0    8571.1713    16.943032    19.956654     20.67046    6989.2249    7742.6203    9265.9547    8704.9389    2985.0649   -559.36791   -970.53366   -2484.1007 
 1182000     293.0529   -3786.6218   -3284.3392   -3786.6218            0    10153.823    16.907237    19.914492     20.62679    6945.0207    10549.014    9725.7046     10186.75    1406.2398    34.413313    1126.8159    -2255.899 
 1183000    277.79072   -3831.2543   -3355.1306   -3831.2543            0    7422.6523    17.000871    20.024781    20.741023    7061.0475     7542.242    8321.6322    6404.0827    193.67403    -1279.797   -328.67111   -2590.7597 
 1184000    276.07079   -3831.0463   -3357.8705   -3831.0463            0    9987.9883    16.951011    19.966051    20.680193    6999.1028    10110.831    10429.339    9423.7947    967.77011    276.23093   -1070.2994   -2338.3492 
 1185000     284.4106   -3790.4138   -3302.9438   -3790.4138            0    10110.325    16.888172    19.892036    20.603531     6921.553     9901.067    11137.654    9292.2529    -868.6025    1103.9279    1103.7789   -2282.3697 
 1186000    281.54841   -3764.5471   -3281.9828   -3764.5471            0    12490.787     16.78281    19.767933    20.474989     6792.812    12210.813    13066.021    12195.526   -704.77173    697.59119   -1638.5746   -2044.5681 
 1187000    269.03977   -3827.0808   -3365.9558   -3827.0808            0     8959.187    16.899605    19.905503    20.617479    6935.6198     9208.774    9141.9684    8526.8187   -704.62167   -297.01228    1185.9077   -2459.7439 
 1188000     289.5693   -3814.3126   -3318.0007   -3814.3126            0    9321.7723    16.925279    19.935743    20.648801    6967.2777    10116.734    9389.4891    8459.0936   -1495.1533    177.48237   -601.53944   -2370.8098 
 1189000    275.36572   -3824.2129   -3352.2455   -3824.2129            0     9283.524     16.84716    19.843729    20.553496     6871.249    11043.935    9425.2096    7381.4275     1197.166    213.18128   -539.76308   -2421.9424 
 1190000    286.63653   -3777.2406   -3285.9554   -3777.2406            0    10923.883    16.907613    19.914934    20.627248    6945.4831    9185.4767    11780.968    11805.204    469.90612   -650.58163   -638.80618   -2179.4453 
 1191000    282.97047   -3806.1067    -3321.105   -3806.1067            0    10371.049    16.897571    19.903106    20.614997    6933.1148    11074.474    9592.1442    10446.528    93.121975   -108.15733   -819.80057   -2272.4637 
 1192000    282.32618   -3802.9963   -3319.0989   -3802.9963            0     10446.08    16.868486    19.868848    20.579513    6897.3755    11393.213    11101.077    8843.9484    1130.5192   -307.04425   -732.86484   -2268.3158 
 1193000    286.59536   -3828.4675   -3337.2529   -3828.4675            0     10522.83    16.887681    19.891457    20.602931    6920.9486    9688.4237     12409.24    9470.8246    371.59851    705.64914   -19.180891   -2275.1318 
 1194000    272.13137   -3801.7402   -3335.3163   -3801.7402            0    10656.428    16.918298    19.927521    20.640285    6958.6603    8861.7036    11228.692    11878.887    -61.22453   -1004.3075   -1527.0937   -2253.8496 
 1195000     273.4075   -3819.5171    -3350.906   -3819.5171            0    9686.5116     16.86891    19.869348    20.580031    6897.8966    10041.041    10431.574    8586.9203   -1061.7662      1352.47   -964.21046   -2376.4551 
 1196000    273.26631    -3815.095   -3346.7259    -3815.095            0    9860.7227    16.927373    19.938209    20.651355    6969.8631      11585.6    9455.2256    8541.3423   -2532.9417    728.40708   -580.06362   -2344.4002 
 1197000    276.89402    -3796.107   -3321.5201    -3796.107            0    9375.2247    16.869044    19.869505    20.580194    6898.0602    9646.8364    9701.7231    8777.1145   -875.23312    457.65545    528.33647   -2378.3619 
 1198000    281.08619    -3806.113   -3324.3409    -3806.113            0    8405.5601     16.94531    19.959337    20.673239    6992.0444     8995.684    10536.798     5684.198   -425.45579    473.06064    654.16059   -2467.2109 
 1199000    287.07959   -3786.8306    -3294.786   -3786.8306            0     11300.53    16.855721    19.853812     20.56394    6881.7289    12585.431    11414.969    9901.1903    1155.9483    22.858872    1514.7974   -2160.6314 
 1200000    275.34629    -3798.758   -3326.8239    -3798.758            0     9382.908    16.944993    19.958963    20.672852    6991.6513    10120.776    9249.7423    8778.2055   -1825.7901   -1136.6665   -1001.8363   -2370.0857 
 1201000    284.71966   -3840.0556   -3352.0558   -3840.0556            0    9572.8852     16.97256    19.991433    20.706483    7025.8295    8933.2389    10444.476    9340.9411    1167.7986    492.51633    101.17732   -2371.1748 
 1202000    271.53183   -3778.3139   -3312.9176   -3778.3139            0    10024.042    16.902959    19.909453    20.621571      6939.75    12768.866    10039.302    7263.9587    -1258.385   -452.40439    1039.8077    -2298.393 
 1203000    267.50594   -3835.2091   -3376.7131   -3835.2091            0    10277.193    16.942623    19.956172    20.669961    6988.7187    8650.3416    12115.657     10065.58   -784.11235   -734.36688    75.938991   -2329.2277 
 1204000    279.83926   -3843.0602   -3363.4252   -3843.0602            0    11406.008    16.841274    19.836797    20.546315      6864.05    10791.964     10859.02    12567.038    -997.2167     -43.2124   -344.02353   -2221.6254 
 1205000    267.67874   -3849.0735   -3390.2813   -3849.0735            0     10970.07    16.863712    19.863225    20.573689    6891.5218    12810.768    9803.5672    10295.874    808.51581    -1180.972    1016.7334    -2287.726 
 1206000    269.51209   -3841.4849   -3379.5504   -3841.4849            0    9585.5155    16.876354    19.878116    20.589113    6907.0326    9876.9698    10770.828    8108.7485   -420.88139    895.20849   -579.74946   -2413.9824 
 1207000    270.68864   -3810.6045   -3346.6535   -3810.6045            0    9779.3454    16.881152    19.883767    20.594966     6912.925    10834.398    8705.1307    9798.5078   -250.60181    -772.1615   -2472.1627   -2360.7202 
 1208000    279.39747   -3767.3775   -3288.4998   -3767.3775            0    12349.306    16.820913    19.812814    20.521475    6839.1843     11734.44    11698.556    13614.922     135.7021     1173.481    924.47728   -2056.7493 
 1209000    276.24113   -3798.8342   -3325.3664   -3798.8342            0     11217.76    16.840606    19.836009      20.5455    6863.2325    12031.008    12166.432    9455.8405   -1616.4296    338.37814    36.764943   -2202.5448 
 1210000     293.7598   -3785.1768   -3281.6826   -3785.1768            0    11549.501    16.855668    19.853751    20.563876    6881.6649    10662.866    12403.501    11582.136    578.53773     -347.614   -556.49316   -2122.5513 
 1211000    282.38271   -3831.5287   -3347.5344   -3831.5287            0    10338.007    16.871105    19.871934    20.582709    6900.5895    7387.5755      11909.6    11716.845   -971.54141   -864.95132   -523.96369   -2307.1378 
 1212000    266.06725   -3772.9235   -3316.8933   -3772.9235            0    9764.1484    16.919902     19.92941    20.642241    6960.6392    8002.8599    9706.7467    11582.839     1272.926    1905.8644   -767.29779   -2325.6977 
 1213000    285.14424   -3819.1996   -3330.4721   -3819.1996            0    8929.6446    16.962792    19.979929    20.694567    7013.7069    8885.1783    9774.3951    8129.3605    505.06233    335.27841    -143.2402   -2417.0791 
 1214000    268.11902   -3792.6904   -3333.1436   -3792.6904            0    9375.6224     16.95838    19.974732    20.689184    7008.2355     8447.583    11397.103    8282.1813    429.86512    1772.8304   -61.159246   -2374.8806 
 1215000    265.09998   -3864.0949   -3409.7226   -3864.0949            0    11491.788     16.87619    19.877923    20.588913    6906.8312    11414.541     13280.03    9780.7914    -235.1889   -1223.3101    701.09597   -2252.1657 
 1216000    264.24303   -3808.4314   -3355.5279   -3808.4314            0    11045.135    16.896356    19.901676    20.613515    6931.6204    9725.3052    9873.7355    13536.364   -455.56311    307.82388   -382.53242   -2238.9689 
 1217000    271.58029   -3835.4934   -3370.0141   -3835.4934            0    11051.524    16.861032    19.860069     20.57042    6888.2367    11749.426      11446.7    9958.4452    1865.8566    1014.0324   -161.72832   -2259.8016 
 1218000    281.96736   -3804.8352   -3321.5528   -3804.8352            0    9990.2732    16.947214    19.961579    20.675561    6994.4006    10841.713    8600.2152    10528.891    -170.5329    -329.4836    537.78659   -2302.4834 
 1219000     282.5591   -3809.5782   -3325.2816   -3809.5782            0    9035.2787    16.922241    19.932164    20.645094    6963.5258    10215.371    7004.7183    9885.7467   -1155.0444    14.818344   -930.79273   -2407.6959 
 1220000    262.62963   -3809.7404   -3359.6022   -3809.7404            0    9569.1777     16.86057    19.859524    20.569856    6887.6703    9932.0052    8505.8076     10269.72    375.64665   -2178.9778   -983.67816    -2398.382 
 1221000    283.61122   -3843.1758   -3357.0759   -3843.1758            0    9511.8596    16.860546    19.859497    20.569827    6887.6414    8136.8157    10129.494    10269.269    -112.2751     486.1157    280.22328   -2401.6173 
 1222000    265.81168   -3795.4209   -3339.8288   -3795.4209            0     8460.363    16.890602    19.894898    20.606495    6924.5403    7700.0291    8685.3588     8995.701   -551.03072   -437.17996    318.99458   -2485.4394 
 1223000    279.33775   -3836.6467   -3357.8713   -3836.6467            0    8051.0183    16.917964    19.927127    20.639876    6958.2475    9594.1788    7504.5348    7054.3414    1778.7274   -1365.0719    133.28111   -2540.8628 
 1224000    278.96941    -3791.013    -3312.869    -3791.013            0    9239.3743    16.894337    19.899298    20.611052    6929.1355    9715.5878    7355.5603    10646.975   -419.82125   -556.31927    247.99632   -2379.1902 
 1225000     274.9444   -3806.5971   -3335.3518   -3806.5971            0    7594.2473    16.927133    19.937927    20.651063    6969.5672      8949.68    8203.4037    5629.6582   -330.40309   -50.424227     1535.692   -2563.4422 
 1226000    267.78221   -3781.9264   -3322.9568   -3781.9264            0     9150.635    16.965167    19.982726    20.697464    7016.6533    8028.3241    9666.3869    9757.1939   -948.46616   -151.42838    844.32769    -2386.566 
 1227000    290.53912   -3752.3015   -3254.3274   -3752.3015            0    10627.631    16.915096    19.923748    20.636377    6954.7091    10967.377    11308.622    9606.8937    838.04103   -722.96188    500.38596   -2176.3955 
 1228000    283.10968   -3781.4262   -3296.1859   -3781.4262            0    9566.3455    16.914851     19.92346    20.636079    6954.4074    7882.8721    9161.1983    11654.966    839.43587   -747.89474    632.18087   -2325.9394 
 1229000    286.33147   -3809.7865   -3319.0241   -3809.7865            0    8459.6546    16.970626    19.989155    20.704124    7023.4281    7913.3306    8764.8161    8700.8171   -581.07429   -396.19602   -460.24241    -2452.506 
 1230000    273.48139   -3738.0734   -3269.3357   -3738.0734            0    11079.837    16.890307    19.894551    20.606135    6924.1779    11112.923    11350.892    10775.696   -1445.2739   -1044.2894   -63.077839   -2150.4712 
 1231000    277.51263   -3797.6561    -3322.009   -3797.6561            0    9683.1948    16.960324    19.977021    20.691555    7010.6453    9495.6784    10396.548     9157.358    528.93143    1303.5277    522.01125   -2331.9694 
 1232000    275.95324   -3830.4407   -3357.4663   -3830.4407            0    8864.9973    16.943737    19.957484    20.671319    6990.0964    10454.042    7159.5739    8981.3758   -682.38528    39.515965    854.07449   -2453.7385 
 1233000    269.74281   -3832.3192   -3369.9893   -3832.3192            0     9765.174     16.84907    19.845979    20.555826    6873.5867    11440.626    9786.5106    8068.3855   -374.80629   -861.32862    721.42631   -2391.0871 
 1234000    280.74902     -3802.94   -3321.7458     -3802.94            0    12408.582    16.755987    19.736339    20.442265    6760.2944    12784.955    12652.973    11787.818    117.19277   -1210.4511   -125.43825   -2098.3593 
 1235000    275.53982   -3835.7614   -3363.4956   -3835.7614            0    9498.1425    16.855432    19.853472    20.563587     6881.375    9800.0168    9371.6295     9322.781   -808.81032    869.41237    700.60577   -2410.2829 
 1236000    276.23789   -3816.7694   -3343.3072   -3816.7694            0    7321.8627    16.920196    19.929756      20.6426    6961.0022     5947.556    7187.4632     8830.569   -519.01054   -573.68568   -610.05599   -2599.9984 
 1237000     277.0854   -3804.8794   -3329.9645   -3804.8794            0     9359.577    16.843477    19.839391    20.549002    6866.7431    8964.0231    8640.0861    10474.622   -1819.8897   -291.63776   -1098.1595   -2392.6552 
 1238000    265.86398   -3778.8098   -3323.1281   -3778.8098            0    11674.787    16.875249    19.876815    20.587765    6905.6756    10187.325    13581.865    11255.173    360.00282     1425.213    -1063.238   -2147.3346 
 1239000    274.05183   -3792.5321   -3322.8166   -3792.5321            0    9146.9255    16.934086    19.946117    20.659545    6978.1593    7904.9984    9232.1338    10303.644    127.46526    1495.2575   -51.157303   -2391.9404 
 1240000    279.45421   -3777.6072   -3298.6322   -3777.6072            0    8990.6139    16.906636    19.913784    20.626056    6944.2796    8770.7662    7614.2733    10586.802    1058.9593    1466.8025   -110.78715    -2388.106 
 1241000    260.95787   -3794.6125   -3347.3397   -3794.6125            0    10543.656    16.852678    19.850228    20.560228    6878.0027    11077.457    10706.953    9846.5585     369.0321    1418.9541   -1178.6241   -2289.7201 
 1242000    284.48886   -3819.0394   -3331.4353   -3819.0394            0    8076.7386    16.862471    19.861763    20.572175    6889.9997    8618.8475    7963.8731    7647.4953    1105.2463    813.46028    192.61808   -2519.8557 
 1243000    293.47056   -3810.9467   -3307.9482   -3810.9467            0    8592.2451    16.934552    19.946666    20.660114    6978.7356    9707.6564    6431.1543    9637.9246   -325.33877    585.93313   -670.41744   -2433.4493 
 1244000    269.49709   -3770.1525   -3308.2437   -3770.1525            0    12676.401    16.813681    19.804296    20.512652    6830.3669    14489.251    10723.153    12816.799    959.77178   -429.26919   -271.75925    -2045.498 
 1245000    282.16117   -3789.6829   -3306.0683   -3789.6829            0    10643.739    16.891758    19.896259    20.607905    6925.9621    11149.281      10620.5    10161.435    -1775.916    501.48222    1563.9137   -2230.9649 
 1246000    267.00127   -3779.9595   -3322.3285   -3779.9595            0    10566.684    16.802265    19.790849    20.498724    6816.4633    10348.323    11510.791    9840.9381     179.0043   -2243.0098   -236.34224   -2271.8825 
 1247000    264.38083   -3792.3342   -3339.1945   -3792.3342            0    8593.1186    16.852619    19.850159    20.560156    6877.9305    9526.0542    8327.0362    7926.2655   -1805.2627    1195.9133   -444.31642   -2477.2397 
 1248000     278.3051   -3785.0772   -3308.0718   -3785.0772            0    10134.533    16.897765    19.903335    20.615234    6933.3541    9561.7236      10624.2    10217.674    671.56785    1063.5538   -1140.5659   -2283.3098 
 1249000    261.21698   -3833.4315   -3385.7145   -3833.4315            0    9046.9331    16.878505    19.880649    20.591737    6909.6732    6809.2896    9078.3189    11253.191   -204.37494    -1301.058   -223.67365   -2474.0506 
 1250000     289.0459   -3802.8077    -3307.393   -3802.8077            0     9756.099    16.877691    19.879691    20.590744    6908.6739    9313.4664    9338.9382    10615.892    1416.2324   -692.05494    632.28882   -2324.4082 
Loop time of 413.471 on 64 procs for 250000 steps with 864 atoms

Performance: 104.481 ns/day, 0.230 hours/ns, 604.638 timesteps/s
192.8% CPU use with 32 MPI tasks x 2 OpenMP threads

MPI task timing breakdown:
Section |  min time  |  avg time  |  max time  |%varavg| %total
---------------------------------------------------------------
Pair    | 27.023     | 34.567     | 47.998     |  78.3 |  8.36
Bond    | 0.84273    | 1.184      | 2.0585     |  28.9 |  0.29
Kspace  | 177.84     | 194.23     | 206.6      |  44.0 | 46.97
Neigh   | 4.6277     | 5.5177     | 6.2864     |  20.9 |  1.33
Comm    | 81.183     | 87.537     | 92.97      |  35.6 | 21.17
Output  | 0.47958    | 0.47987    | 0.48138    |   0.0 |  0.12
Modify  | 75.213     | 77.39      | 80.942     |  15.9 | 18.72
Other   |            | 12.57      |            |       |  3.04

Nlocal:        27.0000 ave          33 max          21 min
Histogram: 2 3 1 2 2 12 7 1 0 2
Nghost:        2637.78 ave        2682 max        2595 min
Histogram: 3 3 6 0 3 8 1 1 3 4
Neighs:        8921.41 ave       11285 max        6615 min
Histogram: 3 2 3 4 4 5 6 0 2 3

Total # of neighbors = 285485
Ave neighs/atom = 330.42245
Ave special neighs/atom = 2.0000000
Neighbor list builds = 15507
Dangerous builds = 0

unfix		3
unfix		2
unfix		1

write_data	data.final.${pid}
write_data	data.final.1
System init for write_data ...
PPPM initialization ...
  extracting TIP4P info from pair style
  using 12-bit tables for long-range coulomb (../kspace.cpp:340)
  G vector (1/distance) = 0.37473512
  grid = 24 24 24
  stencil order = 5
  estimated absolute RMS force accuracy = 0.0031073949
  estimated relative force accuracy = 9.3578275e-06
  using double precision FFTW3
  3d grid and FFT values/proc = 3549 432
Last active /omp style is kspace_style pppm/tip4p/omp
WARNING: Not all mixed pair coeffs generated from mixing. Use write_data with 'pair ij' option to store all pair coeffs. (../write_data.cpp:312)

write_restart   restart.lmp.${pid}
write_restart   restart.lmp.1
System init for write_restart ...
PPPM initialization ...
  extracting TIP4P info from pair style
  using 12-bit tables for long-range coulomb (../kspace.cpp:340)
  G vector (1/distance) = 0.37473512
  grid = 24 24 24
  stencil order = 5
  estimated absolute RMS force accuracy = 0.0031073949
  estimated relative force accuracy = 9.3578275e-06
  using double precision FFTW3
  3d grid and FFT values/proc = 3549 432
Last active /omp style is kspace_style pppm/tip4p/omp
Total wall time: 0:06:53
