LAMMPS (30 Jul 2021)
  using 1 OpenMP thread(s) per MPI task
package omp 0
using multi-threaded neighbor list subroutines
echo both

include		in.partitions
variable        pid world 0
include		in.temp
variable        temperature equal 262.24
variable	tempDamp equal 100.0
include		in.pressure
variable        pressure equal 3625.0
variable        pressureDamp equal 1000.0 # This is 1 ps
include		in.seed
variable        seed world 745823

units		real
atom_style	full

read_restart	restart.lmp.${pid}
read_restart	restart.lmp.0
Reading restart file ...
  restart file = 30 Jul 2021, LAMMPS = 30 Jul 2021
  restoring atom style full from restart
  orthogonal box = (-0.031615847 -0.013687371 -0.11144901) to (20.031617 20.013688 20.811447)
  4 by 4 by 4 MPI processor grid
  restoring pair style lj/cut/tip4p/long/omp from restart
  restoring bond style harmonic/omp from restart
  restoring angle style harmonic/omp from restart
  972 atoms
  648 bonds
  324 angles
Finding 1-2 1-3 1-4 neighbors ...
  special bond factors lj:    0        0        0       
  special bond factors coul:  0        0        0       
     2 = max # of 1-2 neighbors
     1 = max # of 1-3 neighbors
     1 = max # of 1-4 neighbors
     2 = max # of special neighbors
  special bonds CPU = 0.096 seconds
  read_restart CPU = 0.333 seconds
include 	in.setup
variable	out_freq equal 1000
variable	out_freq2 equal 10000
variable	out_freq3 equal 1000

timestep	2.0

neigh_modify    delay 7 every 1

include		in.tip4p
# This is TIP4P/Ice

# create groups ###
group ox type 2
324 atoms in group ox
group hy type 1
648 atoms in group hy

# set charges - beside manually ###
set group ox charge -1.1794
Setting atom values ...
  324 settings made for charge
set group hy charge 0.5897
Setting atom values ...
  648 settings made for charge

# ### TIP3P Potential Parameters ###
pair_style lj/cut/tip4p/long/omp 2 1 1 1 0.1577 8.5
pair_coeff 1 1*2 0.000 0.000
pair_coeff 2 2 0.21084 3.1668
bond_style  harmonic
bond_coeff  1 450 0.9572
angle_style harmonic
angle_coeff 1 55 104.52
kspace_style pppm/tip4p/omp 1.0e-5
pair_modify tail yes

thermo          ${out_freq}
thermo          1000
thermo_style    custom step temp pe etotal epair emol press lx ly lz vol pxx pyy pzz pxy pxz pyz enthalpy

restart 	${out_freq3} restart.lmp.${pid} restart2.lmp.${pid}
restart 	1000 restart.lmp.${pid} restart2.lmp.${pid}
restart 	1000 restart.lmp.0 restart2.lmp.${pid}
restart 	1000 restart.lmp.0 restart2.lmp.0


include         in.dump
dump            myDump all atom ${out_freq2} dump.water.${pid}
dump            myDump all atom 10000 dump.water.${pid}
dump            myDump all atom 10000 dump.water.0
dump            myDump2 all dcd ${out_freq2} dump.dcd
dump            myDump2 all dcd 10000 dump.dcd
dump_modify     myDump append yes
dump_modify     myDump2 append yes


variable natoms 	equal  "count(all)"                        # NUMBER ATOMS
variable H      	equal  "enthalpy/v_natoms"                 # ENTHALPY-per-atom
variable Vol      	equal  "vol/v_natoms"                 # volume-per-atom
fix AVG all 		ave/time ${out_freq} 1 ${out_freq} v_Vol v_H file vol_enthalpy.dat
fix AVG all 		ave/time 1000 1 ${out_freq} v_Vol v_H file vol_enthalpy.dat
fix AVG all 		ave/time 1000 1 1000 v_Vol v_H file vol_enthalpy.dat


timer           timeout 02:55:00 every 1000
New timer settings: style=normal  mode=nosync  timeout=02:55:00

fix 		1 all shake 1e-6 200 0 b 1 a 1
       0 = # of size 2 clusters
       0 = # of size 3 clusters
       0 = # of size 4 clusters
     324 = # of frozen angles
  find clusters CPU = 0.039 seconds
fix             2 all nph aniso ${pressure} ${pressure} ${pressureDamp}
fix             2 all nph aniso 3625 ${pressure} ${pressureDamp}
fix             2 all nph aniso 3625 3625 ${pressureDamp}
fix             2 all nph aniso 3625 3625 1000
fix             3 all temp/csvr ${temperature} ${temperature} ${tempDamp} ${seed}
fix             3 all temp/csvr 262.24 ${temperature} ${tempDamp} ${seed}
fix             3 all temp/csvr 262.24 262.24 ${tempDamp} ${seed}
fix             3 all temp/csvr 262.24 262.24 100 ${seed}
fix             3 all temp/csvr 262.24 262.24 100 745823


run             250000
PPPM initialization ...
  extracting TIP4P info from pair style
  using 12-bit tables for long-range coulomb (../kspace.cpp:340)
  G vector (1/distance) = 0.37211179
  grid = 24 24 25
  stencil order = 5
  estimated absolute RMS force accuracy = 0.0034436086
  estimated relative force accuracy = 1.0370325e-05
  using double precision FFTW3
  3d grid and FFT values/proc = 2366 288
Last active /omp style is kspace_style pppm/tip4p/omp
Neighbor list info ...
  update every 1 steps, delay 7 steps, check yes
  max neighbors/atom: 2000, page size: 100000
  master list distance cutoff = 10.8154
  ghost atom cutoff = 10.8154
  binsize = 5.4077, bins = 4 4 4
  1 neighbor lists, perpetual/occasional/extra = 1 0 0
  (1) pair lj/cut/tip4p/long/omp, perpetual
      attributes: half, newton on, omp
      pair build: half/bin/newton/omp
      stencil: half/bin/3d
      bin: standard
Per MPI rank memory allocation (min/avg/max) = 9.226 | 9.229 | 9.238 Mbytes
Step Temp PotEng TotEng E_pair E_mol Press Lx Ly Lz Volume Pxx Pyy Pzz Pxy Pxz Pyz Enthalpy 
 1500000    281.45373   -4676.6225   -4133.8153   -4676.6225            0    4183.2694    20.063233    20.027376    20.922896    8407.1104     4564.133    4831.1292    3154.5459    447.62949   -1533.7941   -219.86069   -3620.9085 
 1501000    265.20167    -4701.241   -4189.7773    -4701.241            0    3520.5796    19.893207    19.980356    21.173861    8416.0455    4571.8098    2926.2212    3063.7078   -69.631201   -52.759381   -401.85361   -3757.6635 
 1502000     274.4812    -4700.555   -4171.1949    -4700.555            0    5060.7688    19.895942    19.907346    21.013918    8323.0959    3456.4957    6287.4046    5438.4062    45.881857    1748.2796   -480.05721   -3556.8995 
 1503000    265.27615   -4694.5332   -4182.9258   -4694.5332            0    2649.5033    20.103259    20.139539    20.848074    8440.7674    1986.8766    2921.3207    3040.3126   -740.25883   -1040.4074    5.1024224   -3856.7721 
 1504000    251.37488    -4702.421   -4217.6234    -4702.421            0    2513.1647    20.270526    20.121836    20.666688    8429.5327    1475.5507     2611.575    3452.3684   -251.97589   -395.92602    1358.4405   -3908.6648 
 1505000    261.60886   -4689.3119   -4184.7772   -4689.3119            0    3869.9565    20.042731    19.942968    20.887644    8349.0323    4319.1847    3536.7037    3753.9811   -47.063678   -814.84449   -207.08596   -3713.5633 
 1506000    255.36168   -4646.6506   -4154.1642   -4646.6506            0    2157.9154    20.030326    20.262488    20.873296    8471.7246    2034.8077    1522.4322    2916.5063      352.511   -1466.0966    264.57199   -3887.5507 
 1507000    250.64409   -4658.9049   -4175.5167   -4658.9049            0    4313.9849    20.188522    20.085373    20.789364    8429.9621    2409.2422    5085.9517    5446.7609    219.90968     108.1948    426.19699   -3645.1453 
 1508000    266.38901    -4681.311   -4167.5574    -4681.311            0    2749.2864    20.042876     19.88561    21.230508     8461.734    145.13056    5228.1391    2874.5894     408.5733    267.97481   -800.08895   -3828.2798 
 1509000     269.3362   -4671.7165    -4152.279   -4671.7165            0    3870.4886    20.126903     19.87851    21.060569    8426.1827    3208.2669    2933.1454    5470.0536     239.5594   -826.31112   -733.91618   -3676.6454 
 1510000    267.54857   -4677.4558   -4161.4659   -4677.4558            0    4220.0846    19.946324    20.251011    20.743289     8378.904    3962.1377    3452.9511    5245.1652   -301.08967   -2331.5429    -1147.473   -3645.7812 
 1511000    255.34275   -4673.7383   -4181.2883   -4673.7383            0    4890.7546    20.246165    19.941666    20.817493    8404.9017    4671.1872    4485.0702    5516.0065   -248.62538   -392.49424    290.26883   -3581.7949 
 1512000    275.87394    -4667.454   -4135.4079    -4667.454            0    4892.0452    20.091829    20.057191    20.779436    8373.8149     4295.502    4789.5972    5591.0366   -969.77532    380.39767    1696.9588   -3537.9742 
 1513000      269.056   -4656.8803   -4137.9832   -4656.8803            0     2334.376    20.091805    19.857792    21.201726    8459.0408    3193.1592    2753.3936    1056.5753   -298.00899    995.10526   -444.31863   -3849.9995 
 1514000    259.94355   -4697.7858   -4196.4628   -4697.7858            0    2975.9595    20.146198    20.107982    20.828337    8437.5468    3577.0295    1050.3128    4300.5362    -308.9061   -90.101316   -1842.9755   -3830.2622 
 1515000    266.94174   -4691.0027   -4176.1831   -4691.0027            0    2182.7453    20.361359    20.191121    20.620779    8477.5868    3060.0252    687.03249    2801.1784   -199.22293   -233.16187   -143.06802   -3906.3152 
 1516000    259.99515   -4676.8431   -4175.4206   -4676.8431            0    4284.3764    20.150221    20.056058    20.795843    8404.3073    5125.8217    3561.2715     4166.036    581.37656    1610.7296     972.0627   -3650.2923 
 1517000    267.49087   -4698.1652   -4182.2865   -4698.1652            0     3270.668    20.057053    19.998218    21.209433    8507.2162    3959.6891    2925.5264    2926.7885    486.37241    192.11763    831.72736   -3776.4979 
 1518000    253.16669   -4688.3641   -4200.1109   -4688.3641            0     3609.877    20.070799    19.944994    20.998976    8406.1412    3574.7706    3422.4045    3832.4559    260.22747   -1313.8389   -337.38253   -3757.5582 
 1519000    257.90628   -4687.3626   -4189.9687   -4687.3626            0    2354.7849    20.268278    20.047667    20.958065     8515.926    1483.0042    2538.6502    3042.7004    45.853856    -1007.084    1339.0247   -3897.5137 
 1520000    261.64268   -4684.8706   -4180.2707   -4684.8706            0    4590.9457    20.020533    20.068386    20.768406    8344.3254     4573.384    4545.4918    4653.9613   -629.14419    98.352254     130.5946   -3621.5827 
 1521000    256.10175   -4689.3435   -4195.4297   -4689.3435            0    4198.6732    20.087885     20.26114    20.732516     8438.206    3931.5653    4847.7433     3816.711   -287.74757    952.65201    663.72258   -3678.7302 
 1522000    263.79092   -4673.5502   -4164.8072   -4673.5502            0    4435.0673    19.915864    19.903146    21.128722    8375.1791    3588.4034    6121.3946    3595.4039    -457.3709    344.95424    108.75466    -3623.093 
 1523000    258.99829   -4706.7764   -4207.2764   -4706.7764            0    2452.7208    20.117233    20.076275    21.036162    8496.0659     2024.204     3307.629    2026.3295    61.775929    586.59379   -113.69621   -3903.3686 
 1524000    265.58911   -4630.3528   -4118.1418   -4630.3528            0    4688.6562    20.026179    20.276215    20.726508    8416.1046    4514.9487    5038.1655    4512.8544    512.10967    770.21253   -78.075973    -3542.655 
 1525000    268.42375   -4656.8431   -4139.1653   -4656.8431            0    5065.0453    20.090017    19.939369    20.927078    8383.0167    4623.9004    7267.5669    3303.6687   -59.043427    914.22686   -703.69304   -3519.9245 
 1526000    279.01686   -4675.9034    -4137.796   -4675.9034            0    3242.5548    20.031255    19.915726     21.14142    8434.0947    3150.2013     3578.278     2999.185    259.51168    1059.5507   -178.95551   -3738.9532 
 1527000    274.25409   -4673.2214   -4144.2993   -4673.2214            0    3695.6281    19.949927     20.02565    20.997501    8388.7168    1134.0652    4849.1661    5103.6529    167.64669    816.37949    827.74323   -3692.1731 
 1528000    257.95276   -4687.6824   -4190.1988   -4687.6824            0    4614.8117    20.008441    20.046058    20.814422    8348.4641    3937.4312    5699.7035    4207.3003   -241.93568    1007.3542    140.15112    -3628.328 
 1529000    268.18844   -4679.2355   -4162.0116   -4679.2355            0    4829.4698    20.380678    19.769994    20.789444    8376.6048    3409.4775    7572.6309     3506.301    86.319665    118.54495    1249.6721   -3572.0233 
 1530000    276.20655   -4690.2972   -4157.6096   -4690.2972            0    2077.2718    20.077336    20.249238    20.860008    8480.6521     3211.388    1819.8754    1200.5519    -1037.273    228.14724    360.85388   -3900.6893 
 1531000    282.26619   -4693.7693   -4149.3952   -4693.7693            0    1675.4985    20.265073    20.089477     20.94843    8528.4144    363.44248    2327.3244    2335.7286     416.5121    268.61556    123.84969   -3940.9998 
 1532000    264.47423   -4672.6132   -4162.5524   -4672.6132            0    3692.7978    19.763555    20.043679    21.199522    8397.8588    2694.8087    5055.2847    3328.2999    174.99732   -366.20307   -669.95231   -3710.2801 
 1533000    259.53936   -4667.7472   -4167.2037   -4667.7472            0    4680.3744    20.046546    20.040389    20.903594    8397.8221    4071.8589    5573.1088    4396.1555   -417.51218   -757.94356    1438.6231   -3593.9813 
 1534000    256.14241   -4695.4137   -4201.4215   -4695.4137            0    4325.6623    19.973594    20.156694     20.90002    8414.3817    3282.8903    5590.3828    4103.7138    373.15327    584.78156   -45.342445   -3670.5973 
 1535000    266.84889   -4732.2376   -4217.5971   -4732.2376            0     3959.756     20.03561    19.846394    21.085062    8384.1506    4120.4672    4511.3803    3247.4205   -240.75685    69.174204    198.93554   -3733.4209 
 1536000    247.09673   -4680.9719   -4204.4251   -4680.9719            0    3894.1597     20.08056    20.110409    20.795069    8397.6367    4861.6006    3298.9489    3521.9295   -109.27889   -994.87694   -482.62112   -3727.5038 
 1537000    275.81468   -4706.5218     -4174.59   -4706.5218            0    4598.3396    20.277112    20.038802    20.557487    8353.1039     4690.038    4354.2924    4750.6884    51.918561    716.84356    1308.8432   -3614.4136 
 1538000    258.56737   -4653.6647   -4154.9958   -4653.6647            0    6303.7932    20.071119    20.075214    20.749035    8360.4504    6313.4828    5908.0694    6689.8275   -826.67142   -1319.9812    407.94285   -3386.3832 
 1539000    247.89192    -4675.567   -4197.4865    -4675.567            0    3132.3527    19.988807    20.353489    20.872309    8491.7312    3499.8569    2171.0444    3726.1566    557.47117    354.43274    631.31031    -3809.566 
 1540000    258.23828    -4676.973   -4178.9388    -4676.973            0    4392.8322    20.167887     19.96178     20.84499    8391.9204    3323.2291    5800.2516    4055.0159    411.92797    101.38562    -900.8215   -3641.3108 
 1541000    273.99243   -4684.1252   -4155.7078   -4684.1252            0    4190.4217    19.848593    20.262996    20.653998    8306.8719      5984.46     1589.548     4997.257   -462.90012    517.82049   -585.23781   -3648.0499 
 1542000    262.50236   -4703.8625   -4197.6046   -4703.8625            0     2007.265    20.288069    20.200839    20.803835    8526.1607     1622.862     2075.392     2323.541    226.49075    926.83407    1512.4655   -3948.0106 
 1543000    268.35173   -4674.5876   -4157.0487   -4674.5876            0    4311.0573    20.028084    20.030978    20.806447    8347.1745    5525.6806    3970.0775    3437.4137   -71.827985    501.85564    706.31699   -3632.2423 
 1544000    258.66293   -4713.6459   -4214.7927   -4713.6459            0    5374.6701    20.037365     19.82525     21.04994    8361.9995    5638.4419    5476.8999    5008.6685   -423.01416    375.77774    1960.9925   -3559.3453 
 1545000     249.7551   -4707.2552   -4225.5815   -4707.2552            0    3092.8894    20.016099    20.155564    20.993316    8469.4545    4561.4451    1195.8391    3521.3841    551.56747    912.44759    222.66097   -3843.5531 
 1546000    255.08102   -4687.0415   -4195.0963   -4687.0415            0     3974.307    20.107018     19.90834    20.957588    8389.2665    3859.4468    5234.3137    2829.1604    625.96685   -296.88419   -1398.2695   -3708.8444 
 1547000    268.01196   -4709.4021   -4192.5185   -4709.4021            0      5632.47     20.04678      19.8234     21.08498    8379.0727    5520.5904     6024.381    5352.4386   -201.06222    247.03954   -929.05597   -3504.2296 
 1548000    244.51037   -4674.9907   -4203.4319   -4674.9907            0    5472.6133    20.001054    20.067582    20.766435     8335.082    5271.6782    5257.9316    5888.2302    745.20836    1109.9592    541.15986   -3538.1885 
 1549000    266.27607   -4686.5833   -4173.0475   -4686.5833            0    3023.5958    20.081091    20.276521     20.76108    8453.3859    3655.1325    660.16151    4755.4933   -470.62611    1625.5806   -1683.4002   -3800.2866 
 1550000    259.67173   -4699.5703   -4198.7715   -4699.5703            0    1775.4711    20.226177    20.061761    20.881578    8473.1748    1886.8546    1838.0896     1601.469   -228.67343   -852.40888   -1045.8197    -3979.372 
 1551000    299.20401   -4692.8556   -4115.8155   -4692.8556            0    3349.7443    20.233068    19.967853    20.926929    8454.7079    1378.4702    5350.6648    3320.0979    193.01721   -1408.5615   -559.47565   -3702.7812 
 1552000    261.61756   -4709.9702   -4205.4187   -4709.9702            0    1545.4826    20.042928    20.131772    20.847722     8412.049    1467.4024    1739.5636     1429.482    291.38156    1012.9554   -440.87463   -4015.8172 
 1553000    247.63927   -4692.2006   -4214.6074   -4692.2006            0    3802.0087    20.148983     19.96109    20.902649    8406.9549    2983.1541    4030.3336    4392.5383    19.258736    24.415384    990.82489   -3748.4553 
 1554000    262.21485   -4658.5017   -4152.7983   -4658.5017            0    2014.2842    20.121349     20.05159    20.882557    8425.3817    696.63737    3528.3016    1817.9135   -93.532952   -185.90776   -1677.2844    -3905.292 
 1555000    275.80396   -4710.5831    -4178.672   -4710.5831            0    4338.2342    20.170449    19.961133     20.84379    8392.2318    4731.2475    3359.7544    4923.7007    151.91671   -92.663729   -153.92597   -3647.7064 
 1556000    276.12976   -4668.0755    -4135.536   -4668.0755            0    2286.0879    20.082587    20.285314    20.984252    8548.5981     2856.714    1318.6502    2682.8995    188.78108    552.07765   -892.62296   -3850.5237 
 1557000    259.34985   -4715.9676   -4215.7896   -4715.9676            0    3045.6564    20.181562    20.040134    20.824013     8422.089    746.30315    4619.6955    3770.9707   -228.72219    114.76443    1011.9824   -3841.6991 
 1558000    269.38929     -4686.94   -4167.4001     -4686.94            0    2984.7812    20.214465    19.801991    21.040996      8422.43    1773.9632    3686.4274    3493.9529    651.47907    31.245559   -523.00281   -3800.7719 
 1559000    258.60913   -4683.8503   -4185.1008   -4683.8503            0    4117.0214    20.143989    20.133304    20.693163    8392.4235    4746.3441     3638.071     3966.649   -63.422618    1319.3417   -150.62248   -3681.1984 
 1560000    264.51754   -4688.0332   -4177.8889   -4688.0332            0    3338.2208    20.022911    20.230503    20.827426    8436.6395    4655.5097    1813.2383    3545.9144    415.44382    666.14675    455.61786   -3767.1551 
 1561000    261.16194   -4671.3615   -4167.6888   -4671.3615            0     3579.036    20.094527    19.888787    20.958781     8376.298    2356.1895    4782.3746     3598.544    -395.8884   -550.25107   -9.5403057   -3730.4748 
 1562000    274.58535   -4660.5137   -4130.9528   -4660.5137            0    2853.7858     19.99816    20.083175    21.047741     8453.331    1806.9046    3509.7626    3244.6904   -185.32601   -933.63765    377.50337    -3779.129 
 1563000    259.48181   -4652.0864   -4151.6539   -4652.0864            0    3286.5907    20.203917    19.915506     21.09312    8487.2648    2706.7545     4051.441    3101.5764   -512.19972    580.37901   -1075.6249   -3744.8461 
 1564000    260.09981   -4672.3729   -4170.7485   -4672.3729            0    4035.5226     19.93295    20.201134    21.021793    8464.8075    4311.2583    3735.6521    4059.6574   -178.91523   -279.05381   -326.15848   -3672.5611 
 1565000    265.57783   -4705.9709   -4193.7817   -4705.9709            0    4228.6508    20.103722    19.948307     20.75388     8323.037    3695.9086    4645.7752    4344.2685    7.1472849    134.45404     352.5572   -3680.4956 
 1566000    267.72853   -4643.2476   -4126.9106   -4643.2476            0    5219.0344    19.894388    20.216192    20.792224    8362.3991    6282.8031    4108.7303    5265.5699   -112.11325    48.789635   -24.975781   -3490.4127 
 1567000    254.96912   -4681.8825   -4190.1531   -4681.8825            0    2455.3043    20.115012    20.140064    20.689072    8381.5078     1049.073    4293.9259     2022.914   -231.89117   -1164.8914   -345.29938   -3890.0273 
 1568000    250.16901    -4660.917    -4178.445    -4660.917            0    3712.7017    20.150264    19.929177    20.791022    8349.2208    2965.5996    4327.3017    3845.2038     131.3424    1767.8509    551.39056   -3726.3686 
 1569000    247.67655   -4691.6258   -4213.9607   -4691.6258            0    4657.6827    20.340727    20.008179    20.785795    8459.4217    3822.3543    4110.1005    6040.5932   -657.31562    472.16913   -42.581861   -3639.3332 
 1570000    276.77157   -4698.3599   -4164.5827   -4698.3599            0    3896.0297    20.064207    20.110767    20.706689    8355.2854    4919.9349    3991.8817    2776.2726    42.058875    686.91774   -306.10206   -3689.8387 
 1571000    265.46378   -4677.9315   -4165.9623   -4677.9315            0    2663.6323     19.92406    20.037912    21.256988    8486.5665    3759.4512    3601.4757    629.96994   -604.00929   -149.15315    1128.9038   -3836.2902 
 1572000    289.26815   -4671.2326   -4113.3547   -4671.2326            0    3794.6223    20.106288    19.928076    21.145023    8472.3799    3385.4944    3335.9194    4662.4531    167.58702    326.18458   -146.24409   -3644.4875 
 1573000    256.91878   -4714.4113   -4218.9218   -4714.4113            0    2390.5537    20.086482    20.159046    20.938383      8478.46     1384.525     2113.784    3673.3521    343.18297    1090.8445    -23.32836   -3923.3307 
 1574000    256.40183   -4692.6079   -4198.1154   -4692.6079            0    3853.3225    20.212568    19.987547    20.699986    8362.7876     3444.427    4292.8722    3822.6684   -1091.9318    944.17475   -1250.5716   -3728.1539 
 1575000    256.79134   -4678.5477    -4183.304   -4678.5477            0    3553.4858    20.130299    20.225099    20.720356    8436.0295    2571.6895    3673.3982    4415.3695    819.31393    -509.6335    286.05333   -3746.1157 
 1576000    258.16701   -4668.9497   -4171.0529   -4668.9497            0     4857.987    19.931067    20.092499    20.855565    8351.9225    4281.6829    7449.0493    2843.2287   -185.09933   -204.88552    -903.0327   -3579.3296 
 1577000    255.65772   -4715.5132   -4222.4557   -4715.5132            0    4000.6588    20.125751    19.995401     20.82837     8381.804    3286.3608    5030.1636     3685.452    365.24817    1048.7439   -723.62145   -3733.4152 
 1578000    278.87498   -4676.3215   -4138.4876   -4676.3215            0    5052.2575    19.988291    20.115371    20.843587    8380.6205    5176.3307    4774.9745    5205.4674   -237.33215   -142.52188   -533.14537   -3520.9868 
 1579000     270.0629   -4722.1918   -4201.3528   -4722.1918            0    3148.8546    20.133309    20.097211    20.744332    8393.6414    3565.2036    2279.7435    3601.6168    308.21663    167.19214   -296.49793   -3815.8931 
 1580000    270.96206   -4681.7815   -4159.2084   -4681.7815            0    3756.8077    20.120841    20.279062    20.674289     8435.767    5153.5409    2502.8109    3614.0714   -239.22802   -731.30702    142.68668   -3697.0196 
 1581000    265.43421   -4681.2773   -4169.3651   -4681.2773            0    3447.6922    20.134766    20.073748    20.745728    8385.0128    4915.7641     1914.623    3512.6894    99.267597    1758.8547    742.07851   -3747.7578 
 1582000     251.8213   -4698.5553   -4212.8968   -4698.5553            0    2034.7665    20.204703    19.970709     20.89132    8429.6947    1289.3686    2879.3793    1935.5517   -668.34896    337.13502    889.76105   -3962.7457 
 1583000    266.46099   -4668.0024     -4154.11   -4668.0024            0    4363.4243    20.073393    20.179131    20.711795    8389.5949    3296.6782    4572.8913    5220.7034   -735.18411    412.50017    459.20378   -3620.2292 
 1584000    258.67675   -4644.4455   -4145.5656   -4644.4455            0    3470.5971    20.192046    19.982294     21.00678    8475.8874    3365.5486    3212.3535    3833.8893   -151.76748    1297.5393   -1057.5062   -3716.5577 
 1585000    254.18086   -4692.5169   -4202.3077   -4692.5169            0      2433.07    20.171493    19.970716     20.98949    8455.3888    3073.2744    1553.7912    2672.1443   -312.03084    587.76272   -376.98816   -3902.2781 
 1586000    262.06051   -4691.7195   -4186.3138   -4691.7195            0    3124.6952    20.057324    20.160546    20.838735    8426.4881    3041.3669    3161.8667     3170.852    321.66988    540.06159   -308.03627   -3802.3147 
 1587000    254.28215   -4684.9206   -4194.5161   -4684.9206            0    1672.6553    19.971963    20.166065    20.881901    8410.3089    935.15956    2040.0404    2042.7661   -503.90324    913.97917   -248.65882   -3989.3553 
 1588000    263.26892   -4688.8793    -4181.143   -4688.8793            0    2769.8371    20.242992    19.967914    20.829947    8419.6795    1936.5076    3909.7355    2463.2681   -954.63834    763.10898    348.01207   -3841.0281 
 1589000    244.33847   -4698.9845   -4227.7572   -4698.9845            0    3117.5616    19.954936    20.401951    20.619058    8394.4236    2487.0594    2588.3519    4277.2734    532.09193    634.71434   -1310.2535   -3846.0926 
 1590000    259.07491   -4698.3219   -4198.6741   -4698.3219            0    3337.6599    20.111427    20.001201    20.869272    8394.7213    3866.9315    2324.5742     3821.474   -62.990913    650.19827    284.37062   -3790.0498 
 1591000    250.62516   -4677.2597    -4193.908   -4677.2597            0     3126.668     20.25714    20.132615     20.87934    8515.2047    1105.2599    4409.6625    3865.0815   -212.31565    498.87435    450.49393   -3805.6211 
 1592000    255.58248   -4683.5984   -4190.6861   -4683.5984            0    3371.0935    20.102821    20.152227    20.708996    8389.5587    3420.8374    2212.8816    4479.5614    121.58289   -1157.8531   -857.04902   -3778.2223 
 1593000    265.84444   -4666.9482   -4154.2449   -4666.9482            0    2553.2942    20.020987    20.219355    20.779625    8411.8302    2353.4241    1924.5704     3381.888    372.52498   -50.999651    71.707994   -3841.0121 
 1594000    260.69263   -4682.6357    -4179.868   -4682.6357            0    1685.4844    20.024308    20.262635    20.944686    8498.2069    2283.2067    922.46877    1850.7778    193.92793   -842.96078    425.07968   -3970.9731 
 1595000    260.11069   -4730.4119   -4228.7665   -4730.4119            0     3204.656    20.180263    19.908606    20.956614    8419.5478    2350.9968    3486.5072    3776.4641    491.78426   -68.223431    535.46265   -3835.2653 
 1596000    276.27237   -4704.1703   -4171.3558   -4704.1703            0     2877.968    20.252672    20.035984    20.834801    8454.3918    778.06608    3861.8543    3993.9837   -529.35192    644.84735   -1116.4363   -3816.5063 
 1597000    254.39919   -4668.8287   -4178.1985   -4668.8287            0    4103.6519    19.902617    20.177274     20.94452    8410.9121    4046.4852    5145.8356    3118.6347    192.62841    723.33333   -962.82078    -3674.826 
 1598000    269.19382   -4706.9304   -4187.7675   -4706.9304            0    3025.2181    20.215586    19.815388    21.002212    8413.0592    1851.3666    4830.8808    2393.4071    606.87623    2707.9411   -649.32327   -3816.5858 
 1599000    259.52336   -4697.3096    -4196.797   -4697.3096            0    4299.9433    19.898707    20.164481    21.118676    8473.8073    5731.1417    3316.6182    3852.0701   -830.07722   -690.09488   -385.68039   -3665.4023 
 1600000     270.8238   -4699.4014   -4177.0949   -4699.4014            0    2599.7193    20.271538    20.035863    20.803731    8449.5969    3125.2863    1493.3605    3180.5109    342.58864    978.64418    224.30865   -3856.7349 
 1601000    247.60021   -4702.6857   -4225.1679   -4702.6857            0     2165.818    20.345529    20.281266    20.610298    8504.4912    1479.4612    1208.6734    3809.3195    213.38047    652.19467   -301.66114    -3956.543 
 1602000    262.34561   -4681.7685   -4175.8129   -4681.7685            0    4168.8891     20.24042    19.823379    20.837209    8360.5869    2220.5325    6796.4446    3489.6902   -269.37088    214.66244    95.479673   -3667.4979 
 1603000    274.12301   -4685.8537   -4157.1844   -4685.8537            0    3528.6817    19.959675     20.22645    20.956923    8460.5901    4240.0131    2785.2172    3560.8149   -81.292349   -101.30722   -833.53041   -3721.7838 
 1604000    270.48552   -4686.2818   -4164.6277   -4686.2818            0    3879.7717    20.165039    20.182675    20.632294     8397.022    4269.2036    3871.9891    3498.1224   -506.30102   -1535.0937   -195.32309   -3689.5033 
 1605000    278.78619   -4671.8184   -4134.1558   -4671.8184            0    4020.2528    20.107355    20.158637     20.68601    8384.8028    3779.7833    2980.3871    5300.5881    544.56627    281.87029    640.40834   -3642.5442 
 1606000    255.56077   -4700.0903   -4207.2198   -4700.0903            0    2895.3844     20.08064    20.043666    20.947326    8431.0813    4121.5089    1494.3516    3070.2926   -442.69652   -541.72209    747.90452   -3851.2072 
 1607000    263.06267     -4685.06   -4177.7215     -4685.06            0    1844.7004    20.153095    20.056687    21.095081    8526.7227     2981.265     2141.445    411.39133    240.27473    274.49494    1540.0937   -3948.3265 
 1608000    269.98809   -4669.9945   -4149.2998   -4669.9945            0    3803.4419    20.020593    20.026544    20.847736    8358.7596    4726.0593    3309.2393    3375.0271    58.716765    65.929825    405.69534   -3685.6453 
 1609000    274.16374   -4709.8755   -4181.1277   -4709.8755            0    2719.7384    20.254997    20.050366    20.902192    8488.8009    1954.9232    3506.8419    2697.4501    142.08474     928.2694   -433.58951   -3844.4228 
 1610000    271.14983   -4677.5167   -4154.5814   -4677.5167            0    3806.8349    20.166231    20.039239    20.841287     8422.296    5079.9876    2561.8795    3778.6376   -271.21953   -109.32715   -1434.8631   -3686.9858 
 1611000    278.79066   -4672.0175   -4134.3463   -4672.0175            0    5346.2973    19.921286    20.168657    20.790038    8353.1375    6319.8468    4390.6408    5328.4042    182.48356   -1289.1672   -206.64266     -3483.05 
 1612000    246.51665   -4637.5759   -4162.1478   -4637.5759            0    5032.3358    19.962732    20.054661    20.910902    8371.5925     5805.663    2867.3697    6423.9748   -817.11813     527.4454    54.711469   -3547.7444 
 1613000    252.68185   -4696.2477   -4208.9295   -4696.2477            0    4856.2231    20.080368    19.884202    20.986646    8379.5919    4137.9672    6199.8401     4230.862   -948.55517    345.30247    -145.0512   -3615.4614 
 1614000    252.74352   -4662.9259   -4175.4888   -4662.9259            0     3478.152    20.234406    20.140642    20.774707    8466.3975    2550.7887    4083.2414    3800.4258    150.87388   -986.99987   -185.33583   -3746.0284 
 1615000    255.74893   -4672.9693    -4179.736   -4672.9693            0    4042.3883    19.978701    20.116042    20.810742    8363.6787    5187.9133    2667.3679    4271.8838   -139.11447   -144.73541   -613.98534    -3686.663 
 1616000    264.00524   -4714.8773    -4205.721   -4714.8773            0    4777.1151    19.959693    19.943195    21.101428    8399.6351    3673.3885    6505.1274    4152.8293    722.84761    -242.4435    34.693235   -3620.5241 
 1617000    247.80917    -4691.785   -4213.8641    -4691.785            0    4711.8841    20.044572    20.068202    20.855525    8389.3128    5645.7088    4938.6927    3551.2509    69.150397   -468.87947   -1346.8485   -3637.3674 
 1618000    252.08363   -4681.0258   -4194.8614   -4681.0258            0    1561.4191    19.981766    20.449847    20.613827    8423.3059    2666.5385   -943.44376    2961.1624   -141.98553    41.515849   -118.22589   -4003.0484 
 1619000    252.84611   -4699.3475   -4211.7125   -4699.3475            0    4581.8213    20.114521     20.19015     20.72087    8415.0599         3835     4417.802     5492.662   -553.41922   -1052.6887    481.46763   -3649.4084 
 1620000    256.16476   -4665.7999   -4171.7646   -4665.7999            0    3942.4316     20.10733     20.12718    20.926231    8468.9266    3566.9507    4722.2169    3538.1271   -366.54117   -122.80358    774.80959   -3684.8325 
 1621000    266.93843   -4732.0143   -4217.2011   -4732.0143            0    1319.3553    20.173334    20.077032     20.87301    8454.0002    668.73636    1666.4912    1622.8383   -146.07976   -352.06166   -229.30755   -4054.5339 
 1622000    272.65634   -4673.6572   -4147.8165   -4673.6572            0    1187.7511    20.034137    20.072434    21.156737    8507.8411    436.31121    2261.6384    865.30368    478.06334     837.3701    1045.5517   -4000.4425 
 1623000    267.21216    -4694.484   -4179.1429    -4694.484            0    3577.2006     20.20085    19.933414    20.882111    8408.6398    5274.9992     1875.978    3580.6248   -1181.5914   -11.081685     1166.193   -3740.4658 
 1624000    273.24917   -4700.1414   -4173.1574   -4700.1414            0    3707.9061    19.934816    20.185449    20.918753    8417.5642    3521.8606    3547.2208    4054.6368   -597.90952    759.67739    56.074897   -3717.9692 
 1625000    268.84856   -4666.0584   -4147.5613   -4666.0584            0    3406.9743    20.216464     19.93842    20.949592    8444.4526    3281.7818    3627.9762    3311.1649     46.79707    450.41273    578.63607   -3727.9799 
 1626000    244.22348   -4675.0295    -4204.024   -4675.0295            0    3594.9256    19.939609    20.059804    21.020509     8407.881     4857.833    3733.5465    2193.3972   -210.74727    157.77505    1042.2436    -3763.213 
 1627000    262.06797   -4688.9022   -4183.4821   -4688.9022            0    4775.2312    20.159094    19.945461    20.867671    8390.5238    4709.3723    4303.1664    5313.1549    840.99887    867.19273   -645.95514   -3599.1505 
 1628000     254.4723   -4687.5367   -4196.7655   -4687.5367            0    2911.2794    20.193743    20.258841    20.581809    8420.0559    2619.5258    2441.1678    3673.1446    630.09165    1085.4342   -907.87147   -3839.2665 
 1629000    263.35478   -4638.4474   -4130.5456   -4638.4474            0    2967.6082    20.084054    20.227089    20.907479    8493.4949    2515.9272    3360.3208    3026.5765    195.55499     554.4105    -433.8043   -3762.9512 
 1630000    254.72783   -4715.0284   -4223.7643   -4715.0284            0    3140.4432    20.122487    20.021453    20.807086    8382.7886    3278.3101    3811.0049    2332.0145   -429.42617   -511.89254   -173.58605   -3839.8314 
 1631000    241.07084   -4683.6168   -4218.6914   -4683.6168            0    4071.2997    19.891485    20.131829      20.9168     8376.174    6589.5684     1889.319    3735.0118   -872.71592    830.20634     759.8772     -3721.35 
 1632000    276.11775   -4678.0165   -4145.5002   -4678.0165            0     2886.433    20.105771    19.898055    20.932424    8374.3455    2080.7871     3982.486     2596.026    288.53054    507.17263   -450.39988   -3792.9765 
 1633000    268.32069   -4663.5244   -4146.0454   -4663.5244            0    3086.8763      20.2335    20.095125    20.799902    8457.1301    3033.2226    3182.5104    3044.8959    353.48848   -538.66066    923.92343   -3765.3145 
 1634000    256.24953   -4696.9534   -4202.7546   -4696.9534            0    3574.6174    20.289364    20.001776    20.598163    8359.2151    2403.7512    3890.4072    4429.6937   -393.33593    1163.7046    376.39339   -3766.9709 
 1635000    273.08394   -4722.9971   -4196.3317   -4722.9971            0    2898.5097    20.032434    20.185555    20.943948    8469.0165    2989.4009    2030.4796    3675.6487    -484.3664    1609.3139   -849.41604   -3838.3312 
 1636000    258.18661   -4676.6622   -4178.7276   -4676.6622            0     3445.871    20.188492    19.864093     20.90424    8383.1458    1513.8548    5018.8586    3804.8998    304.23974   -466.64246   -509.39924   -3757.4369 
 1637000    260.67777    -4698.366    -4195.627    -4698.366            0    3380.4662    20.379611    19.868509    20.719614    8389.6305    2244.9399     4087.836    3808.6225   -410.78395    -126.7237    274.27004    -3782.013 
 1638000    258.25982   -4698.2639   -4200.1881   -4698.2639            0    2569.3656    20.221121     20.09855    20.865461    8480.0406    3263.8682    1685.8676    2758.3612   -97.419332    868.27792   -18.717922   -3882.4277 
 1639000    245.71952   -4701.2392   -4227.3484   -4701.2392            0    4662.1705    19.991107    19.887417     21.17199    8417.3795    3124.7051    6689.4296    4172.3769    475.74342    412.14575    765.89899   -3655.0257 
 1640000      274.239   -4696.3639   -4167.4709   -4696.3639            0    1971.1783    20.083318    20.083035    21.080358    8502.4249    3569.9942    1990.4548    353.08586    -210.8197   -954.69561   -313.28431   -3923.0465 
 1641000    251.81637   -4675.7038   -4190.0547   -4675.7038            0    2423.9056    20.278215    20.028285    20.778709     8439.021    1351.3948    3272.2941    2648.0279    218.98303     1801.905   -879.46969   -3891.7338 
 1642000     268.3196   -4699.3199    -4181.843   -4699.3199            0    3004.1045    20.114813    20.213202    20.760656     8440.967    2397.2655    3539.7536    3075.2944     180.4666   -1217.5776    650.66741   -3812.0292 
 1643000    251.76693   -4676.0708   -4190.5171   -4676.0708            0    3369.8141    20.011899    20.124658    20.890927    8413.4578     3677.757    3148.8743    3282.8109    -617.0043   -1348.8578    -857.7916   -3777.0353 
 1644000    266.39476   -4678.1748   -4164.4101   -4678.1748            0    5328.0619    19.607677    19.960924    21.320275    8344.4863    5347.6677    6905.1587    3731.3594   -856.89784    140.27452   -2569.4951   -3516.0075 
 1645000    254.58486   -4675.2586   -4184.2703   -4675.2586            0    5167.6524    20.107064    19.963045      20.8501    8369.1932    3708.6328    7236.2899    4558.0345   -999.47533    -1616.946   -401.32305   -3553.5268 
 1646000    267.99946   -4722.7591   -4205.8996   -4722.7591            0     2618.818    20.010492    20.376577    20.645362    8418.0499    2933.7172    1985.2419     2937.495   -366.24359     201.9976   -222.30576   -3884.3909 
 1647000    256.08482   -4705.8003   -4211.9192   -4705.8003            0    3645.0837    20.105248    20.150521    20.595706    8343.9638    2344.7101    3259.9021    5330.6388    594.31302   -494.79681   -762.66729   -3768.3557 
 1648000    253.71575   -4693.0127   -4203.7006   -4693.0127            0    5687.7778    19.966297    20.042296    20.944246    8381.2679    4519.8983    5792.0802     6751.355   -199.34485   -38.429061   -522.04804    -3508.471 
 1649000    266.00267   -4667.4283   -4154.4197   -4667.4283            0    3599.1648    20.181944    19.844316    21.224526    8500.3566    1832.4079     6055.024    2910.0625    200.26928    -105.2838    1321.0488   -3708.2349 
 1650000     261.8529   -4692.5204   -4187.5151   -4692.5204            0    4054.4845    19.997203    20.321229    20.635741    8385.6996    3507.5551    3423.4338    5232.4648   -451.82072    299.15195    705.15707   -3691.6645 
 1651000     272.5909   -4662.4525   -4136.7381   -4662.4525            0    2404.0326    20.076017    20.177066    20.831986    8438.5192    3914.7041   -45.271691    3342.6655   -89.310392   -649.01607   -47.101065   -3840.8806 
 1652000     260.5415   -4661.1578   -4158.6816   -4661.1578            0    2841.6022    19.850585    20.145793    21.126628    8448.6604    4480.0179    2130.0681    1914.7205   -201.57043    212.38037    434.32198   -3808.5535 
 1653000    259.92478    -4680.355   -4179.0682    -4680.355            0     3953.215    20.057152    19.917217    21.047267    8408.0181    4377.1617    4813.4945    2668.9887    417.18822   -300.42548    1323.1645   -3694.3158 
 1654000    264.49551   -4689.1977   -4179.0959   -4689.1977            0    3812.4859    20.184063    20.066295    20.592589    8340.3974    4823.3982    1773.0961    4840.9634   -240.70256    468.77416    1949.4951   -3715.3598 
 1655000    257.98806   -4687.3004   -4189.7487   -4687.3004            0     3376.198    20.211552    20.131892    20.706789    8425.5262    4201.8441    2670.4709     3256.279   -691.33482   -679.06403    887.46285   -3774.8894 
 1656000    260.24868   -4706.0374   -4204.1259   -4706.0374            0    4374.7006    19.957453    20.136895    20.709015    8322.5623    4817.0224    4772.9446    3534.1347     262.6016    876.11846    220.16618   -3673.1421 
 1657000    276.31615   -4700.7046   -4167.8057   -4700.7046            0    4521.5473    20.076698    20.005395    20.881397    8386.8518    4762.5408    3993.7127    4808.3884   -723.19569    856.64626    864.30431   -3614.7588 
 1658000    249.97715   -4695.4155   -4213.3135   -4695.4155            0    3050.8648    20.120756    19.945094    20.996026    8425.9231    2616.6599    3143.4406    3392.4938    30.393244     94.91557   -1291.9933   -3838.4127 
 1659000    258.70981   -4700.1512   -4201.2075   -4700.1512            0    3578.4544    20.051181    20.290313    20.647852      8400.47    4449.0153    1564.9994    4721.3484   -468.71673   -927.19417    532.18589   -3762.8031 
 1660000    271.20345    -4703.061   -4180.0223    -4703.061            0    2552.1649     20.30481    20.139474    20.753998    8486.8947    4236.5184    992.58569    2427.3905   -381.06264   -1051.2122    578.72793   -3864.1341 
 1661000    258.44026   -4693.2796   -4194.8558   -4693.2796            0     4319.263    20.093576    19.936328    20.942461    8389.3849    4972.9015    4600.6297    3384.2577   -84.262969   -1081.9153    781.63207   -3666.3915 
 1662000    254.18143   -4671.0021   -4180.7919   -4671.0021            0    3056.5989    20.191525     19.91883    20.990531    8442.2143    3005.8679    2700.4954    3463.4335    87.934838   -378.15953   -184.51532   -3804.4602 
 1663000    268.88387   -4691.8869   -4173.3218   -4691.8869            0    3454.6788    20.002408    20.116243    20.863914    8395.0821     4911.749    1742.1848    3710.1025   -604.32629    740.79171    2037.3844   -3750.3528 
 1664000    252.97096   -4680.5677   -4192.6919   -4680.5677            0    3514.0069    20.240209    20.000278    20.789301    8415.7129    1875.2325    3581.4149    5085.3734   -123.27023   -490.71174   -249.79243   -3761.4019 
 1665000    267.10712   -4696.3641   -4181.2255   -4696.3641            0    3563.8909    20.350853    19.952192    20.711066    8409.6064    4667.3181    2096.5114    3927.8431   -170.85593   -1253.3619   -1244.7673   -3744.1304 
 1666000    261.11621   -4663.2981   -4159.7136   -4663.2981            0    4121.4422    20.054486    20.053597    20.918261    8412.5836    4165.9464    3695.8203    4502.5601    89.816835   -1019.1043    84.115642   -3654.0583 
 1667000    266.24564   -4687.3452   -4173.8681   -4687.3452            0    4100.0165    20.141968    19.920758    20.963213    8411.3482    3018.9526     4055.769    5225.3277   -648.83321    266.61899    55.595699   -3670.9154 
 1668000     269.1874   -4665.6832   -4146.5326   -4665.6832            0    4210.7682    19.803457    20.093747    21.137191    8411.0309     6251.622    3269.3619    3111.3207    192.55394   -852.39269   -410.37446   -3630.0135 
 1669000    273.99193   -4675.5603   -4147.1438   -4675.5603            0    5007.2113    19.974069    20.064205    20.790267    8331.9868    5466.1437    5319.5452    4235.9449   -255.55541   -809.82074    1579.2155   -3538.7001 
 1670000    259.42755   -4653.8574   -4153.5296   -4653.8574            0    2974.0424    20.012151    20.141932    20.813228    8389.4664    1184.5031    4067.9805    3669.6436   -254.15361    251.43055    1160.1136   -3789.6502 
 1671000    253.64844   -4650.3055   -4161.1231   -4650.3055            0    3308.2268    20.365255    20.133645    20.600277     8446.666    1798.3375    3754.6092    4371.7336    119.19504    2429.6965   -1949.7066    -3753.596 
 1672000    260.59576   -4690.1205   -4187.5397   -4690.1205            0    4713.6404    20.302821    20.013249    20.643439     8387.954    4967.6185    4389.4743    4783.8284   -491.06362   -380.95162    628.87547   -3610.9214 
 1673000    257.67313   -4705.9176   -4208.9733   -4705.9176            0     4144.034    20.060849    20.009178    20.880748    8381.5551    5294.9785     4044.409    3092.7144   -172.02029   -263.46736   -397.72313   -3702.4216 
 1674000    267.52147   -4698.9353   -4182.9976   -4698.9353            0    2509.5825    20.094087    19.976648    21.113012    8475.0267    2140.4269    3832.5406      1555.78   -87.526742    459.94319   -1257.6122   -3872.8143 
 1675000    257.90412   -4681.9304   -4184.5406   -4681.9304            0    5593.6521    20.060074    19.883557    20.849318    8316.0764     6390.038    4845.5234    5545.3948    201.46946      85.6488     -73.9218   -3506.1344 
 1676000     259.9565   -4705.3891   -4204.0411   -4705.3891            0    4813.8544    20.109986    19.780627      20.8652    8299.9287     5274.198    4785.5648    4381.8005   -347.71115    1698.4965     1080.628   -3621.3436 
 1677000    257.24282   -4673.2182   -4177.1038   -4673.2182            0    4163.0238     20.11473    20.145326    20.864923    8454.8381    3458.7089    5236.0791    3794.2834    251.42761   -87.936009   -677.02949   -3663.7816 
 1678000    256.25951   -4676.6943   -4182.4762   -4676.6943            0    3589.6403    20.155105    20.086241    20.741029    8396.8042    2256.6899    3592.4124    4919.8187   -6.2458508   -718.26269     313.4347   -3742.8933 
 1679000    263.10136   -4656.9824   -4149.5693   -4656.9824            0    2903.3142    20.250285    19.899916    20.864504    8407.9564    3473.7166    2408.3684    2827.8577    392.36408    1101.4143    764.80662   -3793.5608 
 1680000    259.28238   -4667.1479      -4167.1   -4667.1479            0    3018.4619    19.962261    20.022668    21.098202    8432.9036    4275.1935    3003.0491    1777.1431    568.10733   -1160.5771    592.35858   -3795.8738 
 1681000    255.19389    -4686.085   -4193.9222    -4686.085            0    4598.0101     20.07393    19.881833     21.09702    8419.9582    4909.4382    4991.6487    3892.9434    328.26239   -670.70244   -1146.0253   -3629.3028 
 1682000     253.7046    -4674.554   -4185.2633    -4674.554            0    3118.8493    20.005624    20.152252    20.922433    8435.0544    1410.9991    3768.7446    4176.8043     33.25299     254.3473    -1037.459    -3801.593 
 1683000    259.92113   -4714.6539   -4213.3741   -4714.6539            0    2776.7864     20.03134    20.276794     20.66195    8392.2926    2609.0278    1924.5452    3796.7862   -390.39594    313.59602   -203.90218    -3873.515 
 1684000    248.03209   -4687.5192   -4209.1685   -4687.5192            0    2961.5623    20.218881    20.144681    20.638253    8406.0205    2649.6313    2910.2127    3324.8429   -499.46197    230.21617       628.28   -3846.1011 
 1685000    264.68375    -4659.747   -4149.2821    -4659.747            0    5298.0191    20.067369    19.972584    20.886937    8371.4263     4118.455    6864.6381    4910.9642    726.19032    1168.3274   -1570.7988    -3502.454 
 1686000    271.55485   -4680.4493   -4156.7329   -4680.4493            0    2674.4582     20.18205    19.839706     21.07606    8438.9793    2590.1221    4708.3539    724.89863   -493.78263   -894.76435    908.10849    -3827.577 
 1687000    258.96207   -4696.7372   -4197.3071   -4696.7372            0    1873.8434    20.096033    19.983665    21.128421     8485.013    1101.6525    2948.9711    1570.9066      249.471   -1813.5526    473.74064    -3965.428 
 1688000    264.59068    -4665.043   -4154.7576    -4665.043            0    5832.0377    19.895141    19.994053    20.738942    8249.6297    8320.5321    3139.4444    6036.1366    712.24298    648.32682    64.992709   -3453.0912 
 1689000    255.99768   -4708.9574   -4215.2443   -4708.9574            0     2613.163    20.306801    20.019428    20.723045    8424.5506    2259.0296    2846.2253     2734.234     429.1422   -151.12491   -718.21627   -3894.1821 
 1690000    268.35184   -4650.3748   -4132.8357   -4650.3748            0    4680.7274    20.029513    20.124252    20.878721    8415.7732    5551.5971    3647.4493    4843.1359   -82.209513    142.96299   -864.78314   -3558.3447 
 1691000    267.20415   -4681.4607    -4166.135   -4681.4607            0    5339.4889    20.080623    19.964187    20.671643    8287.1234    7537.5874    3405.6336    5075.2457    1104.2774    270.01755    1062.1082   -3520.8087 
 1692000    266.45335   -4680.1168   -4166.2391   -4680.1168            0    2316.5186    19.975292    20.248879    20.680077    8364.6212    2254.0777    2603.8737    2091.6044    335.14164    18.600143   -475.58357   -3883.6483 
 1693000    265.21989   -4684.7717   -4173.2729   -4684.7717            0    3498.8911    20.192004    20.041849    20.773382    8406.6779    3347.7177    3532.4228    3616.5328   -43.093352   -1648.4504    -1038.523   -3744.2991 
 1694000    262.76284     -4663.11   -4156.3498     -4663.11            0    3009.4114     19.93157    20.187214       20.877    8400.1294     4623.977    1857.9972    2546.2598    284.00804   -659.07501   -300.44245    -3787.675 
 1695000    262.61581   -4683.3086   -4176.8319   -4683.3086            0    4588.7828     20.00158    19.941061    21.033044    8389.0871    4699.8732    3798.1158    5268.3595   -568.72773    253.79306    1037.9869   -3615.4116 
 1696000     250.3269   -4673.3864   -4190.6099   -4673.3864            0    2848.2845    20.112519    20.183038    20.845716    8461.9373    1808.9458    3583.8328    3152.0749   -197.01572   -955.62231    58.528428   -3839.1069 
 1697000    250.19955   -4654.9854   -4172.4545   -4654.9854            0    4042.2373    20.281054    20.038395    20.512349    8336.2139     3149.688    3384.6542    5592.3696   -674.91091    685.29893    1510.6013    -3681.019 
 1698000    273.20361   -4710.6667   -4183.7706   -4710.6667            0    4158.3255    19.960202    20.141608    20.877776    8393.5042    5142.1641    3969.0697    3363.7427    81.513041   -44.473269    1006.6618   -3674.7473 
 1699000    258.44806    -4657.696   -4159.2572    -4657.696            0    3249.7056     19.93236    20.141579    21.062389    8455.9003    4489.8091    1700.0295     3559.278    275.23327   -380.61796    775.14736   -3758.5015 
 1700000    257.22193   -4689.7633   -4193.6892   -4689.7633            0    4005.6255    20.168878     19.84195    21.006409    8406.5519    3781.8633    4590.4019    3644.6112   -447.57417   -454.83572   -893.14134   -3702.5957 
 1701000     253.1783   -4667.0091   -4178.7335   -4667.0091            0    3312.0037    19.968017    20.175536      20.9576    8443.0925    4129.5603    2227.7523    3578.6985    494.96392   -325.53488    430.81064   -3770.9138 
 1702000    259.51641   -4690.5672   -4190.0679   -4690.5672            0    2133.1799    20.388576    19.988854    20.802684    8478.0143    793.66438    3116.8237    2489.0516    57.821695   -1151.3603    297.01722   -3926.3149 
 1703000    243.08493   -4676.2396   -4207.4299   -4676.2396            0    3310.2639    20.009659    20.335219     20.73303    8436.2866     4137.904     3235.738    2557.1497    715.30966    810.48873   -359.01288   -3800.1529 
 1704000    248.25882   -4680.4308   -4201.6427   -4680.4308            0    3302.0592    20.155822    20.178606    20.623691    8387.9931    4154.6677    1957.7509    3793.7592    252.46179   -461.87666    -819.5677   -3797.7009 
 1705000    247.44502   -4696.1765    -4218.958   -4696.1765            0    4251.7762    20.197772    19.904415    20.810289    8366.2531    4211.1112    3865.6634     4678.554   -407.98737   -29.223978     599.0525   -3700.1851 
 1706000    258.79811    -4705.606   -4206.4921    -4705.606            0    5603.2488    19.858335     19.91213    21.007563     8306.847    7964.1445    4155.8436    4689.7584    254.94748    905.70283    712.53139   -3527.6762 
 1707000    261.93619   -4696.5491   -4191.3831   -4696.5491            0    2157.1243    20.205019    19.919718    21.001454    8452.6289    651.87532    2971.9556    2847.5421    14.050361   -624.15833    82.420532   -3925.4681 
 1708000    267.31785   -4677.6829   -4162.1379   -4677.6829            0    5197.5048    19.875069    20.037219    20.944331    8340.8935    7841.3656    3880.7492    3870.3995   -181.21057    334.90256   -269.43601   -3529.8959 
 1709000    263.50524   -4694.6568   -4186.4648   -4694.6568            0    4273.4146    20.250409    19.985991    20.911492    8463.3928    3246.4638     6452.963    3120.8169   -844.90466   -996.42568    226.11572   -3658.9976 
 1710000    267.14425   -4665.0918   -4149.8817   -4665.0918            0    5579.7437    20.122095    19.837066    20.874022    8332.1438     4680.785    6079.8738    5978.5725    297.05267    721.86797   -1065.3273   -3471.8548 
 1711000    265.25304   -4685.9839   -4174.4211   -4685.9839            0     4476.428    20.061067    19.883431    21.060327    8400.6027     3842.935    5949.9097    3636.4394   -470.69411    750.30182     92.24779   -3625.9952 
 1712000     253.6241   -4665.6147   -4176.4793   -4665.6147            0    3738.5799    20.161084    20.037946    20.833289    8416.3718     2165.187    5166.0957    3884.4572   -591.79069    99.672777   -731.41164   -3717.5905 
 1713000    279.15693   -4697.7575   -4159.3799   -4697.7575            0    2091.4951    19.963807    20.303486    20.854428    8453.0268    2774.8457    565.98578    2933.6537   -850.63262    501.31384   -1022.6573    -3901.543 
 1714000    262.39657   -4679.1024   -4173.0486   -4679.1024            0    3710.2546    20.093252     19.99396    20.998884    8436.1687    3417.9511    4700.6885    3012.1242    -247.0616   -117.42303    229.78686   -3716.5653 
 1715000    246.87437   -4712.0384   -4235.9205   -4712.0384            0    4164.7513    20.103107    20.089404     20.84996     8420.453    3463.7186    5528.3871    3502.1483    163.24989    541.94422    726.73484   -3724.4737 
 1716000    265.33043     -4707.26   -4195.5479     -4707.26            0    3548.9137    20.268286    19.942089    20.867847     8434.616    3049.2416    2852.6184     4744.881   -489.83346    462.91713   -129.49742   -3758.9952 
 1717000    249.44802   -4698.3712   -4217.2897   -4698.3712            0    3590.2216    19.821748    20.149906    21.102221    8428.3608    4313.9886    4349.6378    2107.0383    37.739639   -44.851174    24.607885   -3775.9833 
 1718000    273.83923    -4689.888   -4161.7661    -4689.888            0    5352.2501    19.993106    20.043266    20.952169    8396.1025    7053.3397    4105.9918    4897.4188     14.41659    1488.8856     461.9179   -3506.3908 
 1719000    267.19211    -4670.405   -4155.1026    -4670.405            0    2942.9198    19.790139    20.248751    20.933876      8388.74    3390.5646    3121.9411    2316.2537   -720.52521   -857.79433    1124.2045   -3795.0623 
 1720000    248.26691   -4686.2873   -4207.4837   -4686.2873            0    4776.3846    19.895455    19.982464    21.077441    8379.5521    3814.3589     5961.005    4553.7898   -114.16922    595.06501    73.285092   -3623.7753 
 1721000    259.71133   -4687.1632   -4186.2881   -4687.1632            0    1248.6648    20.272901    20.085704    20.863329    8495.4534    290.65526     1971.752     1483.587   -584.05983   -641.36516   -583.46858   -4031.5817 
 1722000    256.64625   -4696.7072   -4201.7434   -4696.7072            0    3481.5213    20.099239    20.250123    20.716513    8431.8704    5055.5067    797.02851    4592.0288   -658.70824   -1170.4942    203.86035     -3773.62 
 1723000    258.71051   -4703.9376   -4204.9926   -4703.9376            0    2662.2128    20.301543    20.101959    20.722664    8456.9355    864.46195    3592.6879    3529.4884   -222.91092   -849.16608   -1266.7731   -3876.6467 
 1724000    259.04641   -4693.5742   -4193.9815   -4693.5742            0    2156.2132    20.006898     20.28189     20.81258    8445.2808    2181.8568    1472.5467    2814.2361    22.590392    301.79832    -300.1511   -3928.4098 
 1725000    265.95931    -4717.314   -4204.3891    -4717.314            0    5669.5375    20.064238    19.950366    20.918661    8373.5076    6351.4793    6618.9732      4038.16   -202.25921    1530.6673    1352.0536   -3512.0308 
 1726000    264.94298     -4699.15   -4188.1852     -4699.15            0    2111.9366    20.048592    20.298729    20.778074    8455.8648    2330.3241    917.49983    3087.9857   -335.93692    6.8887806   -728.25373   -3927.7409 
 1727000    266.54584   -4629.5428   -4115.4868   -4629.5428            0    2791.8421     20.19338    20.228503    20.730323    8467.9608    1963.3613     2516.828    3895.3369     -588.676    567.31821    269.21446    -3770.704 
 1728000    281.70632   -4697.3563    -4154.062   -4697.3563            0    4331.3266    19.933872    20.043365    20.893474    8347.8174     3744.427    5023.1521    4226.4007    51.334235    1663.3264   -476.65557   -3626.7474 
 1729000    255.64455   -4662.1094   -4169.0774   -4662.1094            0    4572.5131    20.066462      19.8982    21.085456    8419.1373     3814.971    5627.0682    4275.5001   -111.11679    861.13754   -2.6455884   -3607.6437 
 1730000    279.11782   -4686.9289   -4148.6268   -4686.9289            0    3740.8575    19.933576    20.143886    21.112739    8477.6026    4416.5402    3131.7297    3674.3025   -10.634306   -352.96825   -13.234124   -3686.1178 
 1731000    281.08357   -4696.8527   -4154.7594   -4696.8527            0    4603.2824    20.042852     20.01961    20.828063    8357.2619    4977.9778    4421.4328    4410.4367    553.14258    441.13997     123.5197   -3593.7017 
 1732000    263.90655   -4678.8041   -4169.8381   -4678.8041            0    4314.5018    20.242602    19.982982    20.661286    8357.6464    5418.8388     3195.474    4329.1926    483.28401     405.3669    276.21824   -3643.9534 
 1733000    251.02523   -4670.0974   -4185.9741   -4670.0974            0     4120.359    20.204185    20.089762    20.669631    8389.7464    2609.6535    5788.8677    3962.5559    284.53539    1410.2386    302.93388   -3681.8241 
 1734000    273.69356   -4687.2573   -4159.4163   -4687.2573            0    4561.9555    19.756931    20.441278    20.895429    8438.7634    5482.1893    3815.9794    4387.6979   -482.58259     1517.023    413.23818   -3597.9732 
 1735000     248.2918   -4683.6079   -4204.7563   -4683.6079            0    3977.4829    20.195976    19.839956    20.956258    8396.9057    3432.1335    4821.9958    3678.3193   -104.48593    1057.1184    392.15198   -3717.6727 
 1736000    250.67667   -4682.1735   -4198.7225   -4682.1735            0    4013.7347     19.98416    20.077029    20.903213    8386.8407    4560.6937    3909.1441    3571.3662    369.22653    1942.9585    634.33555   -3707.7887 
 1737000    258.21217   -4669.5667   -4171.5828   -4669.5667            0     3283.929    19.924336    20.232572    20.867624    8412.1686    2853.8555    4115.9215      2882.01     36.73478    151.26003   -259.69105    -3768.701 
 1738000    261.79196   -4673.3145   -4168.4266   -4673.3145            0    4540.4887    20.253842    20.040624     20.60694    8364.3493    3340.4431    6764.1885    3516.8346   -615.93972   -88.052081   -978.41869   -3614.5531 
 1739000    256.54674   -4693.2848   -4198.5128   -4693.2848            0    2579.8252    20.079441    20.224118    20.861019    8471.4299     1702.351    2104.0301    3933.0945    111.29931    272.10946   -2364.9522   -3879.7828 
 1740000    263.01251   -4675.4371   -4168.1954   -4675.4371            0    2734.0187    20.128525    19.976742     20.93831    8419.3438    3722.6967    1587.4675    2891.8917   -1069.6645   -78.416548   -672.14555   -3832.4921 
 1741000    257.36369   -4706.5471   -4210.1996   -4706.5471            0    2963.7266    20.050755    19.951672    21.106671    8443.6409    3985.4738    2753.0095    2152.6965    15.525966   -753.29515    -115.1224   -3845.2408 
 1742000    264.26003   -4690.5698   -4180.9221   -4690.5698            0    3840.2757    19.835208    20.093004    21.049116    8389.1024    5065.1891     2812.753     3642.885   -280.29304    743.21981   -800.36957    -3711.078 
 1743000    268.39341   -4674.4018   -4156.7826   -4674.4018            0    2850.3385    19.900564    20.239318    20.973895    8447.7364    2860.3525    3211.2815    2479.3816   -153.25442    513.62627    1218.9338   -3805.6164 
 1744000    259.41752   -4663.2799   -4162.9714   -4663.2799            0    3628.6583    20.173736    20.222565    20.878238    8517.5838    3316.0351     3679.695    3890.2447   -489.94541   -1377.3052   -533.50071   -3712.2187 
 1745000    265.97175   -4646.1096   -4133.1607   -4646.1096            0    4925.6614    20.287294    19.791159    20.891149    8387.9857    1974.5613    8059.4801    4742.9427    283.59257     2019.202    1444.6999   -3530.6038 
 1746000    256.52749   -4650.7959    -4156.061   -4650.7959            0    2682.0177     19.91367    20.176583     20.94796    8416.6768    3030.1153    2774.7709     2241.167    -298.1473    43.681124   -499.23444   -3826.8471 
 1747000    255.15084   -4682.0343   -4189.9544   -4682.0343            0     3610.114    20.129207    19.927471    21.079602    8455.5384    3451.4417    4748.6213    2630.2789   -275.37446     558.0114    373.19929   -3744.7719 
 1748000     264.8548   -4670.3101   -4159.5154   -4670.3101            0    3000.9095    20.076192    20.052025    20.869277    8401.3096    3521.1531    2264.5396    3217.0357    199.07953   -138.26003    340.11325   -3791.8305 
 1749000    247.46302   -4670.2938   -4193.0406   -4670.2938            0    2271.2227    20.316957    20.114617    20.729511    8471.4837     2997.613    1395.0319    2421.0233    131.17607   -1123.6998   -311.89185   -3912.4358 
 1750000    264.62961   -4638.5383   -4128.1778   -4638.5383            0    3696.1673    20.037684    20.154459    20.612232    8324.2227    2887.2238    4257.1648    3944.1132    154.36414   -436.23797       1878.2   -3679.4622 
Loop time of 399.155 on 64 procs for 250000 steps with 972 atoms

Performance: 108.229 ns/day, 0.222 hours/ns, 626.323 timesteps/s
99.1% CPU use with 64 MPI tasks x 1 OpenMP threads

MPI task timing breakdown:
Section |  min time  |  avg time  |  max time  |%varavg| %total
---------------------------------------------------------------
Pair    | 20.068     | 27.934     | 35.924     |  78.3 |  7.00
Bond    | 0.26073    | 0.27906    | 0.29096    |   1.0 |  0.07
Kspace  | 162.69     | 174.83     | 185.96     |  38.9 | 43.80
Neigh   | 2.9825     | 3.4121     | 3.8238     |  12.8 |  0.85
Comm    | 80.816     | 88.617     | 96.303     |  38.2 | 22.20
Output  | 1.282      | 1.2831     | 1.2893     |   0.1 |  0.32
Modify  | 94.197     | 95.865     | 99.579     |  12.8 | 24.02
Other   |            | 6.934      |            |       |  1.74

Nlocal:        15.1875 ave          20 max          11 min
Histogram: 1 4 8 13 11 12 7 3 3 2
Nghost:        2215.09 ave        2251 max        2182 min
Histogram: 5 5 7 7 8 10 9 8 3 2
Neighs:        4726.42 ave        6996 max        3283 min
Histogram: 6 7 12 11 8 11 5 3 0 1

Total # of neighbors = 302491
Ave neighs/atom = 311.20473
Ave special neighs/atom = 2.0000000
Neighbor list builds = 8452
Dangerous builds = 0

unfix		3
unfix		2
unfix		1

write_data	data.final.${pid}
write_data	data.final.0
System init for write_data ...
PPPM initialization ...
  extracting TIP4P info from pair style
  using 12-bit tables for long-range coulomb (../kspace.cpp:340)
  G vector (1/distance) = 0.37122306
  grid = 24 24 24
  stencil order = 5
  estimated absolute RMS force accuracy = 0.0036302808
  estimated relative force accuracy = 1.0932483e-05
  using double precision FFTW3
  3d grid and FFT values/proc = 2197 216
Last active /omp style is kspace_style pppm/tip4p/omp
WARNING: Not all mixed pair coeffs generated from mixing. Use write_data with 'pair ij' option to store all pair coeffs. (../write_data.cpp:312)

write_restart   restart.lmp.${pid}
write_restart   restart.lmp.0
System init for write_restart ...
PPPM initialization ...
  extracting TIP4P info from pair style
  using 12-bit tables for long-range coulomb (../kspace.cpp:340)
  G vector (1/distance) = 0.37122306
  grid = 24 24 24
  stencil order = 5
  estimated absolute RMS force accuracy = 0.0036302808
  estimated relative force accuracy = 1.0932483e-05
  using double precision FFTW3
  3d grid and FFT values/proc = 2197 216
Last active /omp style is kspace_style pppm/tip4p/omp
Total wall time: 0:06:40
