LAMMPS (30 Jul 2021)
Processor partition = 0
  using 2 OpenMP thread(s) per MPI task
using multi-threaded neighbor list subroutines
variable        pid world 0 1
variable        phase world IceIII Liquid

shell cd ${phase}
shell cd IceIII
include Restart.lmp
echo both
log log.lammps
#include		in.partitions
include		in.temp
variable        temperature equal 261.46
variable	tempDamp equal 100.0
include		in.pressure
variable        pressure equal 8000.0
variable        pressureDamp equal 1000.0 # This is 1 ps
include		in.seed
variable        seed equal 745823

units		real
atom_style	full

read_restart	restart.lmp.${pid}
read_restart	restart.lmp.0
Reading restart file ...
  restart file = 30 Jul 2021, LAMMPS = 30 Jul 2021
  restoring atom style full from restart
  orthogonal box = (0.040997364 -0.033594973 0.049344121) to (19.959004 20.033596 20.650654)
  2 by 4 by 4 MPI processor grid
  restoring pair style lj/cut/tip4p/long/omp from restart
  restoring bond style harmonic/omp from restart
  restoring angle style harmonic/omp from restart
  972 atoms
  648 bonds
  324 angles
Finding 1-2 1-3 1-4 neighbors ...
  special bond factors lj:    0        0        0       
  special bond factors coul:  0        0        0       
     2 = max # of 1-2 neighbors
     1 = max # of 1-3 neighbors
     1 = max # of 1-4 neighbors
     2 = max # of special neighbors
  special bonds CPU = 0.002 seconds
  read_restart CPU = 0.007 seconds
include 	in.setup
variable	out_freq equal 1000
variable	out_freq2 equal 10000
variable	out_freq3 equal 1000

timestep	2.0

neigh_modify    delay 7 every 1

include		in.tip4p
# This is TIP4P/Ice

# create groups ###
group ox type 2
324 atoms in group ox
group hy type 1
648 atoms in group hy

# set charges - beside manually ###
set group ox charge -1.1794
Setting atom values ...
  324 settings made for charge
set group hy charge 0.5897
Setting atom values ...
  648 settings made for charge

# ### TIP3P Potential Parameters ###
pair_style lj/cut/tip4p/long/omp 2 1 1 1 0.1577 8.5
pair_coeff 1 1*2 0.000 0.000
pair_coeff 2 2 0.21084 3.1668
bond_style  harmonic
bond_coeff  1 450 0.9572
angle_style harmonic
angle_coeff 1 55 104.52
kspace_style pppm/tip4p/omp 1.0e-5
pair_modify tail yes

thermo          ${out_freq}
thermo          1000
thermo_style    custom step temp pe etotal epair emol press lx ly lz vol pxx pyy pzz pxy pxz pyz enthalpy

restart 	${out_freq3} restart.lmp.${pid} restart2.lmp.${pid}
restart 	1000 restart.lmp.${pid} restart2.lmp.${pid}
restart 	1000 restart.lmp.0 restart2.lmp.${pid}
restart 	1000 restart.lmp.0 restart2.lmp.0


include         in.dump
dump            myDump all atom ${out_freq2} dump.water.${pid}
dump            myDump all atom 10000 dump.water.${pid}
dump            myDump all atom 10000 dump.water.0
dump            myDump2 all dcd ${out_freq2} dump.dcd
dump            myDump2 all dcd 10000 dump.dcd
dump_modify     myDump append yes
dump_modify     myDump2 append yes


variable natoms 	equal  "count(all)"                        # NUMBER ATOMS
variable H      	equal  "enthalpy/v_natoms"                 # ENTHALPY-per-atom
variable Vol      	equal  "vol/v_natoms"                 # volume-per-atom
fix AVG all 		ave/time ${out_freq} 1 ${out_freq} v_Vol v_H file vol_enthalpy.dat
fix AVG all 		ave/time 1000 1 ${out_freq} v_Vol v_H file vol_enthalpy.dat
fix AVG all 		ave/time 1000 1 1000 v_Vol v_H file vol_enthalpy.dat


timer           timeout 02:55:00 every 1000
New timer settings: style=normal  mode=nosync  timeout=02:55:00

fix 		1 all shake 1e-6 200 0 b 1 a 1
Finding SHAKE clusters ...
       0 = # of size 2 clusters
       0 = # of size 3 clusters
       0 = # of size 4 clusters
     324 = # of frozen angles
  find clusters CPU = 0.000 seconds
fix             2 all nph aniso ${pressure} ${pressure} ${pressureDamp}
fix             2 all nph aniso 8000 ${pressure} ${pressureDamp}
fix             2 all nph aniso 8000 8000 ${pressureDamp}
fix             2 all nph aniso 8000 8000 1000
fix             3 all temp/csvr ${temperature} ${temperature} ${tempDamp} ${seed}
fix             3 all temp/csvr 261.46 ${temperature} ${tempDamp} ${seed}
fix             3 all temp/csvr 261.46 261.46 ${tempDamp} ${seed}
fix             3 all temp/csvr 261.46 261.46 100 ${seed}
fix             3 all temp/csvr 261.46 261.46 100 745823


run             250000
PPPM initialization ...
  extracting TIP4P info from pair style
  using 12-bit tables for long-range coulomb (../kspace.cpp:340)
  G vector (1/distance) = 0.37150644
  grid = 24 24 24
  stencil order = 5
  estimated absolute RMS force accuracy = 0.0035949107
  estimated relative force accuracy = 1.0825967e-05
  using double precision FFTW3
  3d grid and FFT values/proc = 3211 432
Last active /omp style is kspace_style pppm/tip4p/omp
Neighbor list info ...
  update every 1 steps, delay 7 steps, check yes
  max neighbors/atom: 2000, page size: 100000
  master list distance cutoff = 10.8154
  ghost atom cutoff = 10.8154
  binsize = 5.4077, bins = 4 4 4
  1 neighbor lists, perpetual/occasional/extra = 1 0 0
  (1) pair lj/cut/tip4p/long/omp, perpetual
      attributes: half, newton on, omp
      pair build: half/bin/newton/omp
      stencil: half/bin/3d
      bin: standard
Setting up Verlet run ...
  Unit style    : real
  Current step  : 24000000
  Time step     : 2
  Walltime left : 2:54:59.95
Per MPI rank memory allocation (min/avg/max) = 10.18 | 10.18 | 10.19 Mbytes
Step Temp PotEng TotEng E_pair E_mol Press Lx Ly Lz Volume Pxx Pyy Pzz Pxy Pxz Pyz Enthalpy 
24000000    265.33041    -4677.006    -4165.294    -4677.006            0    6539.4063    19.918006    20.067191     20.60131    8234.3113    4612.4866    7561.5271    7444.2052    1007.6277   -167.33028   -904.03103   -3379.9833 
24001000    259.93514   -4701.7241   -4200.4173   -4701.7241            0    6434.3709     19.98182    20.145388    20.262719    8156.5854    7128.1138    4675.8065    7499.1924   -872.52181    35.152061    388.26217    -3435.014 
24002000    266.23042   -4705.9274   -4192.4796   -4705.9274            0    9593.4945    20.022837    19.863856    20.324538    8083.6937    8702.8588    10861.114    9216.5104   -839.00078    380.75084   -563.58731   -3061.4797 
24003000     259.4066   -4700.6328   -4200.3454   -4700.6328            0         9514    20.046699    19.762703    20.434079    8095.5115    9961.4096    8785.2628    9795.3275    1103.1061   -857.87582   -598.07366   -3077.0775 
24004000    250.89148   -4709.2997   -4225.4344   -4709.2997            0    8154.8162    19.857716    19.800867    20.505052    8062.5865    9381.1143    6307.2607    8776.0738     395.6181   -617.10554    440.22959   -3266.5539 
24005000     265.0532   -4700.0399   -4188.8625   -4700.0399            0    8035.7948    19.800162    19.633954    20.758225     8069.874    9123.8427    7254.9164    7728.6254   -92.060733     490.1005   -1507.7218   -3243.1231 
24006000    258.85673   -4677.7472   -4178.5202   -4677.7472            0    7659.9958    19.915003    19.906724    20.522053    8135.8133    7452.9601    8197.8002    7329.2272    405.60069    302.83894   -258.77623   -3269.6426 
24007000    264.11733   -4702.6099   -4193.2374   -4702.6099            0    8340.0757     20.10683     19.87344    20.369667    8139.5535     8046.544     9032.146    7941.5371   -580.67304   -239.27567     94.31949   -3203.2117 
24008000    262.11267   -4706.5559   -4201.0496   -4706.5559            0    8847.8493    20.119258     20.03443    20.209009    8145.8044    6154.0811    9045.0197    11344.447   -601.79449   -766.50933   -72.692546    -3149.941 
24009000    267.18126   -4682.8933   -4167.6118   -4682.8933            0    8405.4674    19.718066    19.968848    20.604597    8112.9993    7723.4089    9543.3345    7949.6589    607.90959    651.15896   -1128.6226   -3173.0788 
24010000    269.17519   -4695.2938   -4176.1668   -4695.2938            0     7385.592    19.991107    19.987987    20.372503    8140.4853    5344.0034    8728.3483    8084.4242   -278.21112   -476.09162   -311.82982   -3299.3447 
24011000    253.69167   -4692.8111   -4203.5454   -4692.8111            0    7189.4517    19.936485    19.912195    20.552123    8158.7654    7285.3084    5979.0137    8304.0329   -76.860499   -1374.0222    839.13091   -3348.0925 
24012000    261.18242   -4650.8839   -4147.1716   -4650.8839            0    7843.6155    19.830399    20.017378    20.501604    8138.1646    8948.2713    7151.4679    7431.1074   -92.184168   -953.73944   -911.61852   -3216.2381 
24013000    269.87257   -4676.9142   -4156.4422   -4676.9142            0    8173.0886    19.980326    20.008495    20.312482    8120.4478     7338.342    8667.9808    8512.9429   -54.364062    730.59868    184.17088   -3188.5164 
24014000    266.08551   -4716.4585   -4203.2902   -4716.4585            0    9893.5294    19.868053    19.655608    20.631298    8056.9066    9964.7893    9834.8208    9880.9779   -186.67932   -209.01085    1034.6448   -3040.7835 
24015000    251.27602   -4688.9253   -4204.3183   -4688.9253            0    7707.9059    19.876269    20.109868    20.426516    8164.6652     7812.418    6940.0789    8371.2207    223.73171    2125.0409   -1957.4027   -3286.5128 
24016000     266.6997   -4702.7221   -4188.3693   -4702.7221            0    8954.0164    19.947213    20.035924    20.221722    8081.8304     7783.864    10090.516    8987.6693   -855.75721    471.49376    228.41317   -3133.0023 
24017000     275.7037   -4721.6281   -4189.9104   -4721.6281            0    9176.1972     19.66264     19.89036    20.685743    8090.1319    8007.8211      11547.5    7973.2702   -191.99568   -984.61234   -28.340273    -3107.245 
24018000    250.47583   -4704.1718   -4221.1081   -4704.1718            0    8339.0372    19.764638    19.780676    20.759035    8115.9085    9582.4245    9020.8044    6413.8825    317.58583    1790.2294   -380.47498   -3234.0813 
24019000    260.02016   -4709.6528   -4208.1821   -4709.6528            0    6152.2968    19.983627    19.885037     20.55316     8167.315    7807.9783    4930.3721    5718.5399   -904.01678     1844.107    1275.5667   -3475.3702 
24020000    261.61547    -4710.725   -4206.1776    -4710.725            0     8838.249    20.011488    19.838479    20.473907    8128.0898    8833.0273    8909.4687     8772.251     264.5805    801.00257    59.045488   -3158.4928 
24021000    252.59271   -4707.1065   -4219.9602   -4707.1065            0     8448.307    19.955499    19.973018     20.40823      8134.14    8649.8189    7813.5419    8881.5602   -434.24552    120.95565    1191.5003   -3217.7537 
24022000    267.40894   -4708.5757    -4192.855   -4708.5757            0     7237.433    20.047283    19.862678    20.441406    8139.6195    6267.0979    8602.6899    6842.5113    248.12362    908.77918    337.39174   -3333.7138 
24023000    261.89032   -4719.8948   -4214.8173   -4719.8948            0      9492.88    19.568782    19.941942    20.669526     8066.066    9971.4019    9584.4213    8922.8168    213.12381    659.55178    262.34208   -3098.1196 
24024000    272.58933   -4689.2537   -4163.5423   -4689.2537            0    8211.5801    19.875317    20.077087    20.632824    8233.2904    6769.8412     10015.89    7849.0095   -357.07043    998.13055   -404.11745   -3177.5442 
24025000    260.94797   -4659.0222   -4155.7621   -4659.0222            0    9084.9175    20.071821     19.85089    20.331588    8100.9893    7317.4522    10824.331    9112.9689    246.46469     94.92881    178.55404   -3082.4279 
24026000    271.74284   -4686.5857   -4162.5067   -4686.5857            0    6753.6247     19.85928    19.972688    20.552748    8152.1077    8815.1087    5789.1983    5656.5671     -2.35992    1056.4203    1723.9412   -3359.5674 
24027000     271.0028   -4671.7938   -4149.1421   -4671.7938            0    10517.514    19.901459    19.533685    20.746992    8065.3691    8824.6173    12063.108    10664.817    495.26046   -472.55538   -1035.6658   -2912.0181 
24028000    258.09341   -4700.1121   -4202.3573   -4700.1121            0     8381.504    19.930698    19.657498    20.609867    8074.6917    8241.0116    8011.5074    8891.9931    515.59284   -1231.2457    819.45299   -3215.3422 
24029000    264.54141    -4701.043   -4190.8526    -4701.043            0    9927.1735    19.871418    19.798707     20.55278    8086.0471    8824.7374    11319.608    9637.1753    690.63067    1704.2487   -743.34914   -3020.1738 
24030000    272.82833   -4707.5074    -4181.335   -4707.5074            0    8145.8477    20.059478    19.854178    20.517584    8171.4246    6545.5926    9392.3413    8499.6091    279.80258    917.39986   -921.89199   -3210.5793 
24031000    273.10606   -4685.4912   -4158.7832   -4685.4912            0    8882.0951    19.849694    19.845481    20.579291    8106.7326    6636.8577    10951.076    9058.3518   -386.41963    932.09696   -791.21885   -3108.6675 
24032000    268.75026   -4698.5187   -4180.2112   -4698.5187            0    6809.7477    19.977483     19.83279    20.657004    8184.4952    7865.1219    6281.4511    6282.6701    905.19631    1744.0545   -220.43659   -3367.3829 
24033000    270.31389   -4718.5278   -4197.2047   -4718.5278            0    8186.5301    20.057808    19.865456    20.324267    8098.3569    7178.8355    8381.9728    8998.7821   -469.38894    1049.7201   -277.42459   -3230.3245 
24034000    260.79246    -4719.372   -4216.4118    -4719.372            0    7848.6936    19.929689    19.903438     20.47449    8121.6023    8266.5004    6702.7679    8576.8123   -477.06101   -426.14141    71.697506   -3286.7714 
24035000    256.63641   -4742.6928   -4247.7479   -4742.6928            0    7688.5044    20.057809    19.689638    20.576912    8126.4603    7611.9661    8191.9749    7261.5722   -210.96704   -1050.8055    329.34888   -3336.5364 
24036000     245.9984   -4687.6152   -4213.1866   -4687.6152            0    9772.4749    19.523884    19.986836     20.64419    8055.7895     12220.42    8823.7798     8273.225   -438.01341    584.34652   -1023.7859   -3065.0632 
24037000    261.32287   -4704.5092   -4200.5261   -4704.5092            0    8168.2738    19.922228    19.847175    20.496903    8104.4742     7841.012    7701.9649    8961.8444   -680.32169    -285.1114    977.24842   -3235.0733 
24038000    271.44675   -4697.8819    -4174.374   -4697.8819            0    8187.0223    19.874677    19.798373    20.503228    8067.7383    8198.8344    8153.9046    8208.3278    113.61787   -98.995449    -350.9226   -3211.0915 
24039000    258.02439   -4715.9442   -4218.3225   -4715.9442            0    6715.3428    19.975552    19.810922    20.554265    8134.0238    5716.9878    8301.8686    6127.1719   -319.50967      288.464   -466.91051   -3421.7056 
24040000    258.69367   -4694.2397   -4195.3272   -4694.2397            0    8814.6702    19.811681      19.8496    20.510636    8065.8882    9620.0154    8140.1051      8683.89   -603.14285    195.71639    1127.4803   -3158.4337 
24041000    246.75217   -4658.6854   -4182.8031   -4658.6854            0    7369.1137     19.66987    19.857995    20.869274    8151.6255    9608.8491    5257.7437    7240.7485    386.17296   -948.40549    379.37578   -3306.7401 
24042000    269.20804   -4723.8834   -4204.6931   -4723.8834            0    8805.0489    19.900516    19.850973    20.473349    8087.8862    9329.1263    8235.9243    8850.0962   -1140.4349    1564.4584   -817.26305   -3166.1065 
24043000    266.72745   -4686.8987   -4172.4923   -4686.8987            0     9499.905    19.966902    19.822818    20.445528     8092.345     9130.072    10464.341    8905.3019    241.44471   -379.10585   -1265.1074   -3051.3273 
24044000    250.01421   -4702.6012   -4220.4277   -4702.6012            0    10365.741    19.844865    19.760473    20.535611    8052.9147    10658.155     11233.89    9205.1763   -10.861492   -102.44755    1295.5414   -3003.0389 
24045000    253.62814   -4731.5336   -4242.3904   -4731.5336            0    7463.3426    20.009888    19.766167    20.680076    8179.3584    7489.3582    7631.3471    7269.3226   -306.53016    1079.9638    154.87717   -3352.1065 
24046000    259.33168   -4718.4837   -4218.3408   -4718.4837            0    7429.5141    19.976032    19.955249    20.474273    8161.5918    8174.8087    6612.7156    7501.0179   -199.76403   -235.30438   -629.82653   -3334.0172 
24047000    259.39425   -4697.0284   -4196.7648   -4697.0284            0    8830.2854    19.845492    19.844867    20.503449     8074.897    8759.4859    9457.5664     8273.804    -239.8858    1206.3716   -283.91183   -3156.8743 
24048000    256.59373   -4706.4511   -4211.5885   -4706.4511            0    8619.9918    19.884126    19.718767    20.650236    8096.7602    8091.3853    10107.855    7660.7355   -333.75874    147.22062   -379.52946   -3193.7145 
24049000    265.74998   -4693.2244   -4180.7032   -4693.2244            0    6534.5147     19.96242     19.94472    20.501365    8162.5137    6570.1094     6183.788    6849.6466    -194.4418    836.43152    1063.1783   -3402.8222 
24050000    249.38101   -4713.5608   -4232.6085   -4713.5608            0    6079.9649    20.066798    19.659206    20.733015    8179.1188    7676.6648    5719.0786    4844.1515    45.704147   -616.33339   -171.51925   -3507.3656 
24051000    287.68503   -4679.7997    -4124.975   -4679.7997            0    8849.9456    19.903302      19.9132    20.524599    8134.6874    10043.124    6724.6212     9782.092    404.58896    782.13555   -74.644764   -3075.0522 
24052000     259.4015   -4718.0099   -4217.7323   -4718.0099            0    8742.8368    19.830481    20.201477    20.201796    8092.9405    10079.155    6398.8382    9750.5169    43.994224   -133.42928     349.8789   -3185.8394 
24053000    252.15632   -4714.1227    -4227.818   -4714.1227            0    8375.7489    20.047036    19.770056    20.433135    8098.2853    9197.2395    7159.1423    8770.8649   -147.55938    197.73903   -236.98961   -3238.5986 
24054000    266.05444   -4678.1966   -4165.0882   -4678.1966            0    9392.6391    19.583676    19.930789    20.732801    8092.3881     11505.01    8916.8665    7756.0405    -104.7999    1269.1495    50.899535   -3056.5767 
24055000    271.58979   -4717.2066   -4193.4228   -4717.2066            0    9647.7927     19.83037    19.816212    20.732167    8146.9704    11046.554    10217.559    7679.2649   -238.37963    269.23005    820.86813   -3047.1184 
24056000    272.50237   -4675.3928    -4149.849   -4675.3928            0    7518.6923    20.233748     19.91184    20.337913    8193.9651    6894.1127    7902.6318    7759.3324   -480.88558   -950.19474   -2192.7263   -3251.3609 
24057000    249.17848    -4718.293   -4237.7313    -4718.293            0    7012.9078    19.886327     19.96619    20.463247    8125.0176    7410.6728    6855.2884    6772.7623   -1017.9818    -167.7062   -579.05424   -3406.7365 
24058000    265.24252   -4714.0545    -4202.512   -4714.0545            0    8318.0243    19.912722    20.035429    20.294003    8096.4941    9877.7631    5501.2937    9575.0162   -1182.8727    624.28986      -1749.5   -3220.3275 
24059000    262.70644   -4700.7238   -4194.0723   -4700.7238            0    9693.1644    19.863885    20.006946    20.267236    8054.5173    9732.8408    9309.2011    10037.451     578.8877    1461.8568   -807.67629   -3055.4466 
24060000    256.51884   -4694.8612    -4200.143   -4694.8612            0    7577.1569     19.81825    19.980468    20.602321     8158.064    8147.6254    7494.2061    7089.6393    141.74287    1268.3816    936.97458   -3298.6357 
24061000    252.18605   -4674.6483   -4188.2863   -4674.6483            0    8251.1628    20.107394    19.592109    20.604793     8117.181      7620.78    10447.839    6684.8697   -244.45543   -732.38032   -718.96747   -3211.5074 
24062000     279.5724   -4695.0356   -4155.8567   -4695.0356            0    5662.9519    19.876084    20.045861    20.615195     8213.778    7542.8822    4167.8094    5278.1641   -1258.0352    891.73575    504.40015   -3477.4944 
24063000    273.77997    -4687.734   -4159.7263    -4687.734            0    9234.7972    20.023671    19.433302    20.795317    8091.9999    8420.7869    10846.255    8437.3493   -495.06214    1560.3685    561.38232   -3069.8954 
24064000    261.46253   -4694.7762   -4190.5237   -4694.7762            0    8163.9208    19.931499     19.82166     20.53589    8113.2247    8647.3264    7942.4925    7901.9434    3.8652223    397.16674   -1738.0885   -3224.5436 
24065000    260.48744   -4708.0918   -4205.7198   -4708.0918            0    8555.9729    20.045327    19.809883    20.413091    8105.9479    8527.0351    7066.0922    10074.791   -279.33244    769.34843    163.97018   -3194.2589 
24066000    268.60141   -4669.3881   -4151.3677   -4669.3881            0    9540.5351    19.887385     19.75868    20.559653    8078.8843    7933.5833    11817.035    8870.9864    247.26719    -793.1237   -967.21466   -3027.2805 
24067000    259.46479   -4717.1922   -4216.7925   -4717.1922            0     6460.564    19.926911    20.031791    20.487192    8177.9076    5914.5342    6453.8353    7013.3226     305.7631    1592.7513    958.52367   -3446.2643 
24068000    253.48917   -4683.5234   -4194.6482   -4683.5234            0    8357.1933    20.134465    19.713671    20.428708    8108.6489    7130.4486    9662.2945    8278.8369    55.702456    810.09273   -1530.9463   -3206.3572 
24069000    242.98372   -4704.5005   -4235.8859   -4704.5005            0    7441.0278    19.873004    19.819713    20.695148    8151.3476    8464.5908    7679.5396     6178.953    14.574845    375.19519   -220.13594   -3351.3037 
24070000    257.16161   -4680.9248   -4184.9671   -4680.9248            0    7240.9517      19.8472     19.93151    20.690126    8184.6969     7769.651    6270.9645    7682.2395   -67.907961   -143.83056    275.67813   -3320.6479 
24071000    248.25331   -4658.6986   -4179.9212   -4658.6986            0    10714.929    20.137216    19.827653    20.349888     8125.176    8389.5168    13005.632    10749.638    289.78764    131.08435    321.59156   -2910.2305 
24072000    273.23864   -4657.0583   -4130.0946   -4657.0583            0    9011.2684    19.899272    20.048812     20.35934    8122.4964    9523.5464    9704.8151    7805.4437   -372.26104   -410.68439    330.31935   -3062.6352 
24073000    256.01375   -4718.2765   -4224.5325   -4718.2765            0    8282.0966    19.945769    19.597723    20.726674    8101.8841    9713.7148    7602.2362    7530.3388   -263.12932    244.10454   -438.75859   -3245.9392 
24074000     252.8723   -4699.5926   -4211.9071   -4699.5926            0    7404.4443    19.970263    19.853099    20.478377    8119.0952    7097.8433    6555.9559    8559.5337   -755.67064    772.17753   -777.17863   -3335.1567 
24075000    255.60435   -4697.0458   -4204.0913   -4697.0458            0    9823.6337    19.999299    19.873418    20.320485    8076.4669    9393.5721    10248.854    9828.4755   -525.99098    588.41729    783.13438   -3046.9951 
24076000    259.61714   -4699.4929   -4198.7994   -4699.4929            0    9338.3632    19.866448    19.915044    20.482889    8103.8743    10930.626    8406.3347     8678.129    56.821502   -3.8832436   -298.15897   -3095.1291 
24077000    251.93834   -4723.5017   -4237.6174   -4723.5017            0    7844.3219    19.933982    19.723184    20.632393    8111.8643    8199.9562    9606.8391    5726.1703    28.734221   -661.66215    740.62039   -3309.6088 
24078000    270.74733   -4680.4475   -4158.2885   -4680.4475            0    8694.9651    19.859311     19.91937    20.567909    8136.3553    8288.3984    8023.1442    9773.3528   -264.11459    550.95226    1001.2278   -3126.5405 
24079000    250.19778    -4700.863   -4218.3356    -4700.863            0    8281.5357    19.829915     19.92876     20.57301    8130.1575     7539.559      10023.2    7281.8477    100.75697   -405.98225    323.60777   -3236.3938 
24080000    270.46873   -4688.1997    -4166.578   -4688.1997            0    8685.2313    20.170937    19.924797     20.24031    8134.6176    6917.8851     10490.07    8647.7386   -1038.1385   -950.70545   -1305.1219   -3136.2051 
24081000    263.66032   -4697.7588   -4189.2677   -4697.7588            0    7610.1467    19.943226    19.847327    20.497484    8113.3083    5430.4236    8895.6249    8504.3914    674.34298    424.59025    197.48055   -3288.8026 
24082000    261.38513   -4730.2108   -4226.1076   -4730.2108            0    7420.3984    20.067273    19.712937    20.575457    8139.3399    7402.9458    7282.3267    7575.9226    42.623643    267.82074   -1564.6951   -3345.2772 
24083000    268.44053   -4714.8308   -4197.1206   -4714.8308            0    6557.7434    19.992988    19.934188    20.660918    8234.2843    9965.2539    4768.5121    4939.4643   -272.94307   -103.75358    1392.3289   -3409.6105 
24084000    274.59982   -4682.6492   -4153.0603   -4682.6492            0    8338.4052    20.050148    19.720427    20.412986    8071.2431    9270.2225    7217.7814    8527.2117    809.82138     -520.071   -404.97176   -3171.5399 
24085000     257.1477   -4708.1022   -4212.1712   -4708.1022            0    9537.6908     19.78012    20.036967    20.300358    8045.7139    7026.1254    10888.549    10698.398    334.96603   -913.20611   -431.19819    -3093.033 
24086000    246.44061   -4684.4709   -4209.1895   -4684.4709            0    7713.0185    19.941989    20.036792    20.300375    8111.4917    7916.5501     5708.127    9514.3785     -24.3377    1665.6606   -5.2658834   -3296.7565 
24087000    256.50567   -4702.2215   -4207.5288   -4702.2215            0    8326.3036    19.837033    19.915378    20.419921    8067.1354    8826.1939    7581.3554    8571.3614    385.12664    2453.4407   -1102.0316   -3227.9317 
24088000    260.18247   -4701.4865   -4199.7027   -4701.4865            0    7182.3058    19.878617    19.949091    20.622025    8177.8768    8834.2091    5649.2449    7063.4633   -175.03166   -785.15821   -488.11209   -3343.0982 
24089000    243.07658   -4720.2406   -4251.4469   -4720.2406            0    8005.9969    19.968429    19.910845    20.529862     8162.433    8201.8486    7593.6932    8222.4489    -455.0076   -587.69497   -487.38268   -3298.4074 
24090000    258.34359   -4706.9479   -4208.7106   -4706.9479            0    7504.3923    19.979092    19.936788    20.390614    8121.9672     7447.972    7477.2123    7587.9927    356.78611     1465.454   -80.381971   -3319.8111 
24091000    263.41977   -4718.1143   -4210.0871   -4718.1143            0    7901.8979    19.891046    19.981056    20.478944    8139.2356    7900.5456    7528.4616    8276.6865    539.49293   -73.111715   -181.42536   -3272.1128 
24092000    256.95313    -4704.608   -4209.0523    -4704.608            0     7287.558    19.699645    19.979565    20.771631    8175.5131    8990.5291    7051.3406    5820.8043   -140.91324   -243.37992     -208.729    -3340.146 
24093000    273.92568   -4705.1448   -4176.8561   -4705.1448            0    6153.4749    20.028779    20.159704    20.305256    8198.7396    7051.4614    4092.2542    7316.7092    824.22565   -584.79836   -348.15985   -3441.0838 
24094000    259.36875   -4696.1625    -4195.948   -4696.1625            0    8015.8843    19.870798    20.116341    20.409605    8158.2855     9405.791    5724.0849     8917.777   -35.954786   -515.73094   -794.66126   -3242.2163 
24095000    261.12706    -4733.839   -4230.2334    -4733.839            0    8235.6032    19.890377    19.749509    20.589206    8087.9583     7914.435    8451.9657     8340.409    607.01262   -499.33605   -954.15558   -3258.8064 
24096000    264.39614   -4695.6792   -4185.7691   -4695.6792            0    8273.0617    19.954126    19.796932    20.580147    8129.7853     6966.052    9883.1869    7969.9462   -663.19858   -37.236757   -161.45935    -3204.877 
24097000    245.34563   -4670.4908   -4197.3211   -4670.4908            0    6803.2385     19.82574    20.126851     20.46347    8165.5326    6729.6432    6518.4098    7161.6624    301.35701    -271.1413    2045.9193   -3387.1512 
24098000     262.1764   -4701.0575   -4195.4282   -4701.0575            0    8741.7339    20.043313    19.598124    20.653542    8112.9451    9526.9544    8316.5583    8381.6891    534.50591     -273.197    250.17089   -3161.1152 
24099000    259.61429   -4705.8397   -4205.1517   -4705.8397            0    8149.3091    19.864836    19.842462    20.533822    8093.7599    7645.4775     7689.003    9113.4467    50.658888   -675.58436    -1132.607   -3243.2139 
24100000    259.01601   -4694.8508   -4195.3167   -4694.8508            0    7841.8828    19.826792    19.844423    20.645523    8123.0068    6263.9198    9131.9244    8129.8043    118.96723   -23.118137    2616.5619   -3266.3224 
24101000    243.96861   -4706.5435   -4236.0295   -4706.5435            0     7962.028    19.892664     19.58071    20.733911    8076.1176    7764.3197    8730.0338    7391.7305   -942.87983    162.61455   -465.62835   -3298.2468 
24102000    263.95752   -4708.3806   -4199.3163   -4708.3806            0    6803.1358    19.935598    19.858241    20.577504    8146.3437    6315.1411    6380.9775    7713.2887    572.59672    -329.0415    30.175245   -3391.0625 
24103000    264.56509   -4693.8331    -4183.597   -4693.8331            0    7417.4738    19.943372    19.888168    20.562143    8155.7093    8944.3996    6341.8257     6966.196      -48.764   -423.54374    1131.2574    -3301.343 
24104000     251.0915   -4662.5038   -4178.2527   -4662.5038            0    8373.7803    20.129335    19.824547    20.264228    8086.5406    9875.9263    6248.7189    8996.6955   -638.06795     -38.0751   -2854.5512   -3190.7001 
24105000    273.03421   -4682.8784   -4156.3089   -4682.8784            0    8126.2851    19.817737    19.825269    20.695553    8131.1166    8048.7112    9447.9452     6882.199   -44.926776   -299.78601    -746.4125   -3192.6616 
24106000     261.8342   -4736.8582   -4231.8889   -4736.8582            0    5969.1589    20.002614    19.762319    20.662659    8167.9087    7232.9972    6870.6064    3803.8732    378.67693    232.41566   -821.39918   -3520.8393 
24107000    265.41137   -4702.4073   -4190.5391   -4702.4073            0    7681.1701    19.994569    20.003216    20.324275    8128.8092    7826.9271    6436.0186    8780.5647    454.72057    1175.2588    10.306717   -3279.9338 
24108000    260.29825   -4679.9576   -4177.9505   -4679.9576            0    7298.7751    19.984753     19.88193     20.55163    8165.8913    6101.3309     8928.483    6866.5114    550.27074    2313.7333    852.48747    -3308.731 
24109000    277.21659   -4735.2025    -4200.567   -4735.2025            0     7585.867    20.085591    19.798516    20.470686    8140.4734    4275.6532    10943.536    7538.4123   -219.80779    480.96506   -390.47937   -3299.9694 
24110000    255.64596   -4659.0625   -4166.0278   -4659.0625            0    8022.0959    19.958045    19.961154    20.457516    8149.9799    8953.1489    7727.0565    7386.0823   -497.35735    2173.6946   -521.93106   -3212.5287 
24111000    268.17582   -4682.5286   -4165.3289   -4682.5286            0    7509.6469    19.964926    19.719837    20.716626    8156.2408    6385.2888    9910.2354    6233.4164   -232.44319   -408.54005    -1382.663   -3272.0534 
24112000    269.65276   -4699.0935   -4179.0454   -4699.0935            0    7715.8796    19.969027    19.701629    20.634074    8117.9062    7490.3167    8853.1068    6804.2153    156.17011   -10.359767   -304.98471   -3265.5522 
24113000    255.99335   -4721.1825   -4227.4778   -4721.1825            0    7214.3083    19.861523    19.947983    20.421836    8091.0765    6266.9357    8401.6964    6974.2927   -682.33144    656.85319    686.90965    -3376.189 
24114000    257.14752   -4669.8799   -4173.9493   -4669.8799            0    9481.9763    19.888525    19.996393     20.28115    8065.7883    7011.7144    10854.288    10579.927   -490.27246     94.19144    1299.8645   -3058.5726 
24115000    262.14472   -4703.6065   -4198.0384   -4703.6065            0    8725.6792    20.012279    19.776265    20.441619    8090.1413    7568.8233    10010.471    8597.7429    608.31345    45.734808   -1313.1362   -3168.5268 
24116000    244.48945   -4691.5318   -4220.0133   -4691.5318            0    9238.9666    20.083653    19.786466    20.363718    8092.2265    7094.1799    11406.353    9216.3667    524.38862    45.305913    -271.8868   -3129.6598 
24117000    255.34619   -4722.6705   -4230.2139   -4722.6705            0    7239.2297    19.752848    20.132925    20.388815    8108.2773    8437.9574    5520.4495    7759.2821    972.27691    17.332436   -547.83789   -3374.1685 
24118000     254.8605   -4711.9423   -4220.4224   -4711.9423            0    8272.3452    20.177185     19.64815    20.488227    8122.4422    5760.6889    10519.156    8537.1904    379.29217   -618.54953   -497.73595   -3240.5012 
24119000    258.61944   -4722.0182   -4223.2489   -4722.0182            0    6573.0464    19.992762    19.904705    20.511152    8162.4134    6382.3888    6761.8761    6574.8743    6.0081548   -389.37637   -519.41457   -3440.7906 
24120000    262.58837   -4705.5964   -4199.1726   -4705.5964            0    6956.4964    20.081976    19.762853    20.682012    8208.2176    5519.5645    8174.0409     7175.884    731.35168   -378.19525   -884.52437   -3366.4213 
24121000    253.42786   -4713.5382   -4224.7813   -4713.5382            0    7798.4707    19.708717    19.846079    20.786251    8130.3499    8072.9307    7292.6018    8029.8795    505.05206   -934.50293    692.07159   -3300.0946 
24122000    281.21903   -4710.2614   -4167.9068   -4710.2614            0    7370.2704    19.825825    19.936352    20.496148    8101.1973    7441.3824    7465.8614    7203.5675    506.27061     649.8378    1353.7075   -3297.1267 
24123000    268.97312   -4704.7368   -4185.9995   -4704.7368            0    7615.5894    19.931476    19.923486    20.311661    8065.8517    5843.9056    7650.3957    9352.4671    92.965491    716.75518   -559.14017   -3290.1612 
24124000     265.9598   -4706.7533   -4193.8275   -4706.7533            0    7172.5513    20.027568    19.854919     20.44303    8129.0838    6073.2933    6649.7362    8794.6243    344.97461   -532.13798   -498.53159   -3343.4903 
24125000    261.15563   -4674.8842   -4171.2236   -4674.8842            0    7407.0484    19.890286    19.794142    20.869841    8216.6893    8044.7741    8871.8671    5304.5038    8.3913489   -24.034743   -49.326282   -3283.6222 
24126000    250.28751   -4702.7625    -4220.062   -4702.7625            0    7682.6217    20.025475    19.717159    20.507751    8097.3928    5122.1704    10021.034     7904.661    437.03897   -1539.8132   -460.26026   -3312.8046 
24127000    269.38162   -4720.3737   -4200.8486   -4720.3737            0     7469.369    19.874585    19.944305    20.443102    8103.3343    7886.6461    7479.3692    7042.0917   -335.22807    18.026068    573.38824   -3318.1274 
24128000    251.71794   -4694.0786   -4208.6194   -4694.0786            0    8843.0139    19.943369     20.11215    20.214758    8108.2211    9161.9231    7418.1399    9948.9788   -96.972953   -757.35771    904.93285   -3162.9322 
24129000    278.90911   -4690.2829   -4152.3833   -4690.2829            0    7300.2396    20.088608    19.800358    20.549206    8173.6858    6257.4763    9061.6434    6581.5992   -769.32031   -243.22221    320.55118   -3282.1595 
24130000    251.45245   -4722.9602    -4238.013   -4722.9602            0    7185.8212     19.87163    19.766918    20.659192    8114.9487    7166.9422    8729.8743    5660.6472    173.33522    -779.3191    778.85343   -3387.5839 
24131000    247.80162   -4716.9517   -4239.0454   -4716.9517            0    8862.7659    19.886336    19.905188    20.459188    8098.5905     6954.348    10621.175    9012.7751    897.40504    1001.4214   -692.16494   -3192.2674 
24132000    272.13453   -4679.4048   -4154.5705   -4679.4048            0    9365.8353    20.136016    19.760972    20.359635    8101.2462    4800.8216    12979.112    10317.572    315.55279    607.86743    366.89757   -3048.0124 
24133000    266.20578   -4686.1657   -4172.7655   -4686.1657            0    8221.6562    19.822024    20.075213    20.494326    8155.3346    8070.1832    8384.8197    8209.9658     44.60173   -779.07573   -1171.3948   -3194.9048 
24134000    263.10858   -4717.5526   -4210.1256   -4717.5526            0    7529.7033    19.923282    19.811528    20.537527    8106.3807    7168.8846    8180.7563    7239.4691    526.89514    941.14741   -1391.2432   -3319.9396 
24135000    265.80452    -4718.113   -4205.4866    -4718.113            0    8308.2179     19.95021    19.839467    20.552933    8134.8823    8945.4819    7732.5287     8246.643   -498.11356    1130.8216    189.32378   -3219.8086 
24136000     265.8459   -4706.8669   -4194.1607   -4706.8669            0    8521.2469     19.90597    20.059382    20.326682    8116.4738    6497.5249    10259.564    8806.6521    419.05663    170.57311   -2174.1548   -3185.4969 
24137000    253.86936    -4712.269   -4222.6606    -4712.269            0    6802.5315    20.062609    19.751651    20.566593    8149.9169    5732.8967     7294.206    7380.4919   -204.23791    992.28627   -1704.5284   -3414.1241 
24138000      259.079   -4719.8699   -4220.2143   -4719.8699            0    7072.4009    19.940024    19.943097    20.548078    8171.2685    7897.1115    6021.6218    7298.4693    518.62034   -1148.1333   -355.14771   -3377.3993 
24139000    255.84199   -4730.9047   -4237.4919   -4730.9047            0    8185.0954    19.791369    20.026682    20.427373    8096.5006    8280.3829    8422.9342    7851.9691   -589.13621   -273.48731    22.334125   -3271.0027 
24140000    268.35427   -4689.1261   -4171.5823   -4689.1261            0    9184.0328    19.963116    19.507397    20.666697    8048.1995    9079.2876    10398.544    8074.2665    262.17181   -759.86567    78.216046   -3093.6089 
24141000     258.2825   -4706.8688   -4208.7493   -4706.8688            0    4563.0176    19.972834    19.979401    20.588298    8215.6626     3204.778    6260.1964    4224.0784    262.67854    291.26435    459.94895   -3662.0221 
24142000    249.80164   -4671.6296   -4189.8661   -4671.6296            0    7992.5317    19.967648     19.83724    20.389905     8076.503    7961.0232    6733.9986    9282.5733    169.82654   -170.86666   -776.87649   -3248.4457 
24143000    250.96011   -4693.2042   -4209.2065   -4693.2042            0    8350.4831    19.622041    19.939461    20.786045    8132.6011    9016.9152    8976.3133    7058.2209   -699.43448    13.619587   -466.50046   -3218.7921 
24144000    267.45868   -4712.5773   -4196.7607   -4712.5773            0    7647.9152    20.002775    19.790419    20.531005    8127.4714    6098.5418    9254.4233    7590.7805   -826.63406    104.25807   -928.24366    -3290.247 
24145000    244.81513   -4674.5742   -4202.4276   -4674.5742            0    6071.7185    19.712719    20.057745     20.64321    8162.1746     7378.498    5849.5845     4987.073   -60.332561    414.29882    1084.4794   -3479.6688 
24146000    248.64837   -4693.9469   -4214.4076   -4693.9469            0    8736.6077    19.953706    19.780885    20.436806    8066.4477    10041.064    8016.8529     8151.906    -579.2634    129.96036    210.68484   -3186.6255 
24147000    259.89944   -4732.1472   -4230.9093   -4732.1472            0    8414.1825    19.936201    20.035067    20.255475    8090.5046    7729.6841    8423.9775    9088.8859   -283.12521     989.9213   -49.275623   -3238.1055 
24148000    256.41855   -4706.6717   -4212.1469   -4706.6717            0     8863.505    19.970772    19.967509    20.413505    8140.2234    6474.6962    10435.993    9679.8254   -255.31646   -616.83884   -452.11042   -3159.8999 
24149000    275.00054   -4693.0798   -4162.7181   -4693.0798            0    7730.0511    19.738517    19.735395    20.925571    8151.5021    7820.1111    8272.0016    7098.0405   -239.91044   -574.77112    1000.9262   -3243.7596 
24150000    255.92832    -4694.512   -4200.9327    -4694.512            0     7443.516    20.023054    19.847275    20.542959    8163.8349     6076.541    8826.2754    7427.7315    692.52137    481.15082    779.48528   -3314.6991 
24151000    283.03611   -4688.6506   -4142.7917   -4688.6506            0    9465.2589    20.015556    19.946748    20.185449    8058.9445    9058.0083    8604.4235    10733.345   -132.11284   -1027.7556   -1570.8405   -3030.3262 
24152000     264.7863   -4693.9347   -4183.2721   -4693.9347            0    7454.0096    20.063413    19.944423     20.47085     8191.476    8190.0311    6133.5817     8038.416   -167.73476    208.92329    1492.7134   -3292.7842 
24153000    256.75181   -4711.3682   -4216.2008   -4711.3682            0    5447.1323    20.000213     19.95443    20.595083    8219.3505    4176.6823    6571.0302    5593.6843    633.50493   -235.98584   -539.00251   -3563.2487 
24154000     259.0364   -4704.3955    -4204.822   -4704.3955            0    8218.3599    19.879162    19.705414     20.78998    8143.9989    10471.696    7572.9331    6610.4511   -139.20827    215.98301   -619.76135    -3228.712 
24155000     261.4316   -4707.8082   -4203.6154   -4707.8082            0    8626.9674    19.945556    19.944444     20.32036    8083.5009    8225.7524     7514.506    10140.644    133.88303   -1159.2809    327.57269   -3186.5859 
24156000    254.43253   -4705.9356   -4215.2411   -4705.9356            0    7903.7737    20.070631    19.787827    20.520821    8149.9299    7725.6516    7646.7665    8338.9029   -760.79696   -510.84633   -10.361247   -3275.8114 
24157000    259.13997   -4699.9625   -4200.1892   -4699.9625            0    7605.8654    19.879925     19.90672    20.579791    8144.3308    6989.1966     7712.636    8115.7637   -744.79472    1190.4922    841.75736   -3296.7895 
24158000    253.86783   -4718.3617   -4228.7562   -4718.3617            0    10086.264    19.870023    19.684597    20.547845    8036.9487    9902.2581    9651.3728    10705.161     222.0283   -1474.0812   -760.08488   -3046.5386 
24159000    256.12305   -4721.1915   -4227.2367   -4721.1915            0    7939.7477    20.000889    19.903847    20.454799     8142.946    8641.6594    6967.6154    8209.9682   -125.00347    402.34558    609.97001   -3284.3399 
24160000    266.11931   -4712.5769   -4199.3434   -4712.5769            0    5921.4192    20.188144    20.022617    20.319412     8213.502    3143.3443    6805.2403    7815.6732   -39.097214     453.8491   -862.72341   -3490.0432 
24161000    262.18307   -4720.9065   -4215.2644   -4720.9065            0    7936.3502    19.839989    19.863952    20.516853    8085.7042    8643.7254    8062.6944    7102.6306    569.71963    856.36649    505.78348   -3279.3964 
24162000    262.38787   -4707.9394   -4201.9023   -4707.9394            0    6041.4972     20.09483    19.666139    20.725348    8190.4028    5628.2241    6012.3249    6483.9426   -30.570783    2562.3059   -167.86707   -3480.2538 
24163000    272.09922   -4710.8303   -4186.0641   -4710.8303            0    8108.3807    19.887792    19.822627    20.597002    8119.9206    7977.0648    7864.3437    8483.7335   -147.12218   -292.91506   -1904.7306   -3225.8639 
24164000    253.24127     -4692.97   -4204.5729     -4692.97            0    9808.3889    19.813793    19.764531     20.55767     8050.596     8983.829    11498.409    8942.9291   -668.50539   -1487.3786   -825.42945    -3052.973 
24165000    264.92849   -4717.8899   -4206.9531   -4717.8899            0    7131.3724     19.98221    19.962592    20.484131    8171.0524    6014.0809    6646.7101    8733.3263   -330.88604   -14.718992   -1422.8738    -3357.133 
24166000     266.6305   -4682.2622   -4168.0428   -4682.2622            0    9206.9008    20.025357    19.695826    20.567232    8112.0442    9723.9564    8787.1263    9109.6197    224.21291   -263.02635    -58.22687   -3078.8127 
24167000    267.93245    -4709.622   -4192.8918    -4709.622            0    9480.2325    19.700269    19.817932    20.713447    8086.9147    10097.655    8981.4469    9361.5955     722.6712    1827.3914    628.28886   -3074.7992 
24168000     263.4062    -4669.505    -4161.504    -4669.505            0    7483.5063    19.971162    19.881714    20.517391    8146.6546    6861.5687    7674.1636    7914.7867   -700.43966    1647.0282   -340.88272   -3272.3841 
24169000    270.54069   -4682.4995    -4160.739   -4682.4995            0    9326.2491    20.074105     19.99958    20.212307     8114.709    8365.7492    8967.6419    10645.356   -294.91901    235.18745   -829.96006   -3057.0268 
24170000    250.49423   -4677.0589   -4193.9597   -4677.0589            0    6955.9898    20.016086     19.92942    20.523879    8187.1599    5925.1225     7773.977    7168.8698   -370.48093    -2195.344   -1565.1022   -3363.4053 
24171000    272.60991   -4713.7442   -4187.9931   -4713.7442            0    6083.8324    19.966209    19.820599    20.722606    8200.8099    6013.2286    6047.1575    6191.1111   -354.65912   -1582.1115    -123.4844   -3460.3643 
24172000    251.89577   -4697.7287   -4211.9265   -4697.7287            0    7352.7327    19.729302    19.822516    20.787895    8129.8213    9582.6612    6292.6897    6182.8472    229.50427   -1102.7653   -812.02359    -3340.149 
24173000    263.14898   -4733.4879    -4225.983   -4733.4879            0    7786.8091    19.955667    19.698194    20.629461     8109.247    7716.9826    7531.0143    8112.4303    572.13993    786.59066    524.98312   -3305.0756 
24174000    262.29378   -4697.1879   -4191.3323   -4697.1879            0     8373.983    19.776884    19.697143    20.761729    8087.6925    7066.6684    10193.633    7861.6481    523.67466    1536.5727   -469.38286   -3203.6151 
24175000    264.73109   -4702.4529   -4191.8967   -4702.4529            0    8682.5449    19.789507    19.861277     20.50809    8060.5998    9535.0802    7794.9325    8717.6219   -172.81608    220.49188   -789.72928   -3171.2151 
24176000    255.55159   -4725.1578   -4232.3051   -4725.1578            0    7089.4482    20.024884    19.778074    20.575993    8149.1968    7022.3302    6141.6993    8104.3152   -1066.8395    -45.31378    464.46426   -3389.7407 
24177000    259.33411   -4694.0883   -4193.9406   -4694.0883            0    7947.4737     20.01605    19.709893    20.689506    8162.3037    8906.9946    7595.0407    7340.3859    809.84574   -867.43202    22.032555   -3247.8827 
24178000    261.79293   -4684.1375   -4179.2478   -4684.1375            0    9319.9616    20.005109    19.733833    20.458745    8076.6518    6100.5681    12318.514    9540.8029    66.248774    981.87382    204.34584   -3081.4525 
24179000    267.88093   -4684.6182   -4167.9873   -4684.6182            0     6884.025    19.828153    20.021148    20.521704    8146.7548    8666.6838    5015.3262     6970.065    35.756703    744.69458   -180.26515   -3350.0821 
24180000    265.11049     -4700.08   -4188.7921     -4700.08            0    7309.3324    20.068979    19.839217    20.534982    8176.0613    6879.8896    6767.3251    8280.7824    107.17828   -691.12573   -613.71768   -3317.2312 
24181000    258.93761   -4703.6813   -4204.2984   -4703.6813            0    9373.1469    19.786673    20.109969    20.365966    8103.8086      10950.6    8873.0189    8295.8217    -436.0718    388.44635   -250.32116   -3096.5261 
24182000    262.41905   -4712.2053   -4206.1081   -4712.2053            0    7400.7616    19.940903    19.839847    20.653605    8171.0715    6828.2164      8318.87    7055.1982    327.83169   -357.34098   -42.725471   -3324.1838 
24183000    260.58376   -4729.1107    -4226.553   -4729.1107            0    8025.8603    19.976876    19.893892    20.350134    8087.5054    7740.2233    8433.4808    7903.8767    -171.5695    2481.9618    346.30922   -3279.9191 
24184000    255.94461    -4709.058   -4215.4473    -4709.058            0     8335.756    19.895221    19.676658    20.671492    8092.2991    8072.7924    8420.4562    8514.0195   -12.895762    1033.3529   -234.23606   -3231.6791 
24185000    279.36581    -4716.546   -4177.7655    -4716.546            0    7007.5764    20.036423    19.752257    20.546804    8131.6973    6286.6117    8258.5985    6477.5192    265.21037    5.7929929    306.04226   -3346.7198 
24186000    261.01453    -4659.058   -4155.6695    -4659.058            0      9573.41    19.629156    20.044414    20.543621    8082.9892    11711.316    7237.7543    9771.1593    730.05852    849.61377    446.33906   -3027.1358 
24187000    259.78346   -4708.2225   -4207.2082   -4708.2225            0    8222.2521    19.887644    19.782872    20.558333    8088.3616    9022.1343    7402.8409    8241.7812   -436.91427   -418.84374    366.25575   -3237.3076 
24188000    270.89954   -4710.2931   -4187.8406   -4710.2931            0    6276.2756    20.102614    19.764576     20.63572     8198.977    6261.3261      6652.83    5914.6707   -15.661287   -747.88259   -465.33405   -3437.3633 
24189000    243.26812   -4697.6691    -4228.506   -4697.6691            0    9018.5299    20.071837    19.855955    20.410094    8134.3509    9896.9839    7971.1506    9187.4551    28.366301    913.12805   -683.36196   -3158.6273 
24190000    267.50524    -4671.702   -4155.7957    -4671.702            0    8809.0151    20.024656    19.852263    20.408785    8113.2013    8111.2621    9164.3308    9151.4524    297.32376   -867.48128   -23.946982   -3113.4891 
24191000    263.07633   -4705.6662   -4198.3014   -4705.6662            0    6653.5661    19.671111    20.229783    20.560453    8181.8745    6503.4903    6745.0118    6712.1961   -276.83649    1081.2756    16.806449   -3404.3697 
24192000    257.52246   -4681.4283   -4184.7746   -4681.4283            0    9114.5878    19.936915    19.808886    20.506716    8098.6782    8560.7567    8443.9393    10339.067   -467.91969    905.15917   -346.51757   -3108.2423 
24193000    269.32085   -4702.8241   -4183.4162   -4702.8241            0    7812.9836    20.138043    20.079359    20.032867    8100.4698    5295.1516    8525.7797    9618.0196      -1112.5   -627.07175    624.98818   -3260.4134 
24194000    265.58412   -4694.6056   -4182.4043   -4694.6056            0    8463.6084    20.021529    19.875418    20.480746    8150.0316     9113.425    6871.4373    9405.9627    368.79477   -341.55594   -516.04949   -3176.4211 
24195000    268.29027    -4718.342   -4200.9217    -4718.342            0    6931.7019    19.637365    20.219263    20.527716    8150.5926    9015.2649    5579.7941    6200.0467   -296.11359   -926.71435    694.67801   -3376.9639 
24196000    253.45017    -4696.494    -4207.694    -4696.494            0    7120.9076    20.127897    19.768825    20.526344    8167.5321    5925.7947    9234.4318    6202.4964   -29.124191   -517.67286   -1866.4293   -3359.4865 
24197000    254.75526   -4686.4538   -4195.1368   -4686.4538            0    8514.8994    19.961489    19.607754    20.764326    8127.1566    8983.9735     8703.683    7857.0416   -91.275358   -1633.4251   -294.49643   -3185.8978 
24198000    270.23053    -4715.099   -4193.9367    -4715.099            0    7255.1051    19.980084    19.751586    20.776236    8199.0998    7909.4724     7920.768    5935.0751   -350.47907    589.90956   -472.70603   -3326.4042 
24199000    262.59917   -4669.6991   -4163.2545   -4669.6991            0    9067.6899    20.004501     19.86165    20.426516    8115.9126    8803.1495    9157.5588    9242.3615   -274.32241   -147.25854    433.26625   -3089.9822 
24200000    249.34687   -4676.5974    -4195.711   -4676.5974            0    9110.3575    20.005672    19.919454    20.255665    8071.9244    8563.0121    10211.417    8556.6432    -364.1142    440.43076    927.08852    -3123.233 
24201000    259.88192   -4706.0859   -4204.8818   -4706.0859            0    8542.5776    19.801888    19.889552    20.636625    8127.7485    8331.1839    9158.9479    8137.6009   -42.336863    1996.4811    -682.7295   -3192.2884 
24202000    269.41846   -4703.3271    -4183.731   -4703.3271            0    7850.7818    20.052973    19.816477    20.426518    8117.0751    7047.0902    7236.0166    9269.2387   -938.05487   -1183.1193   -151.02911   -3254.3616 
24203000    259.26565   -4730.0264   -4230.0108   -4730.0264            0    7737.4998     19.88834    19.981338    20.467423    8133.6644    8158.7665    7482.8204    7570.9126    -54.48347    2133.7951   -612.61803   -3312.1796 
24204000    250.26344    -4701.186   -4218.5319    -4701.186            0    8288.1812    20.089276    19.670751    20.499032    8100.6258    7606.6106    9452.8661     7805.067    234.95575    7.2797521    613.03905   -3239.3718 
24205000    249.63142   -4720.0942   -4238.6591   -4720.0942            0     8008.608    19.829844    20.067441    20.461762    8142.4357    9353.9635    6893.8708    7777.9898   -171.23281     933.5669    616.55003   -3287.6443 
24206000    247.78632   -4706.5212   -4228.6444   -4706.5212            0    9165.9096    20.046353    19.912295    20.344844    8121.0293    8748.9663    9364.1294    9384.6329    288.60341    1082.5824   -287.41739   -3143.0627 
24207000    254.82554   -4693.9951   -4202.5426   -4693.9951            0    8793.8317    19.977037     19.79898     20.61943    8155.4992    9716.2098    8312.8672    8352.4181   -145.36136    1132.2634    548.43298   -3156.6079 
24208000    267.32262   -4702.3427   -4186.7886   -4702.3427            0    7735.0204    19.889176    19.844539    20.603484    8132.0209     9382.351     7828.122    5994.5884   -52.502067    1120.1862    460.22926    -3269.437 
24209000    249.31384   -4681.6478   -4200.8251   -4681.6478            0       9089.2    19.941009    19.744492    20.547929    8090.2352    8726.4476    9800.1254     8741.027   -36.297442    1109.1212   -234.34634   -3128.4106 
24210000    264.18874   -4680.7927   -4171.2825   -4680.7927            0    8933.9809    19.812063    19.799721    20.752409    8140.6165    9345.8443    8843.2055    8612.8928    715.92617   -1129.0449    743.27537   -3110.6176 
24211000    264.86745   -4694.3992     -4183.58   -4694.3992            0    9388.1976    19.976499    19.648348    20.508447    8049.6723    6374.5943    11881.709    9908.2899   -240.58626   -376.72701    229.19637   -3081.4412 
24212000    265.78396   -4709.8409   -4197.2542   -4709.8409            0    8640.2553    19.929744    19.924819    20.401915      8101.53    7505.1461    8250.2999     10165.32    548.22801     27.05298    233.33357   -3176.3864 
24213000     273.3587   -4685.3632    -4158.168   -4685.3632            0    9482.7818    19.856101    19.762095    20.559822     8067.636    10378.773    8524.1635    9545.4091   -541.90774    427.00414     1037.222    -3042.441 
24214000    260.04194   -4686.9745   -4185.4617   -4686.9745            0    8581.2945     20.00623    19.728551    20.626147    8141.0149    9336.3421    8268.2256    8139.3158   -80.567395   -1248.1902    430.93336   -3166.6187 
24215000    259.59819   -4750.8483   -4250.1914   -4750.8483            0    7445.3535    19.901226    19.986875    20.390816    8110.7188    6505.9193    6987.3824    8842.7588   -220.86397    1458.3201    877.30324   -3369.5065 
24216000    258.86807   -4714.2712   -4215.0224   -4714.2712            0    7571.3644     20.04081    19.734814     20.51023      8111.83    5949.8001    8399.9426    8364.3503    60.094169   -685.84241    86.814292   -3319.3094 
24217000    252.40828   -4720.8463   -4234.0557   -4720.8463            0    7596.6427     19.81223    20.001357    20.465652    8109.9545    6738.4313    7627.5955    8423.9012    417.85474    710.33428     161.4364     -3335.56 
24218000    275.30717   -4708.7199   -4177.7669   -4708.7199            0    8699.4581     20.01691    19.785326     20.55754    8141.6304    6925.6251    10125.797    9046.9527   -341.45683   -553.30904    185.23972   -3144.8165 
24219000    269.33853   -4703.9243   -4184.4823   -4703.9243            0    7498.5318    20.113514    20.001528    20.233936    8140.1334    8825.5106    4758.3282    8911.7566    531.52647    57.848902   -1612.7562   -3294.2904 
24220000    263.52976   -4732.1548   -4223.9155   -4732.1548            0    8621.9799    19.855139    19.704662    20.672522    8087.8926    10085.103    6694.3086    9086.5284   -144.53019    33.118656    758.77092   -3206.9218 
24221000    262.06395   -4707.7409   -4202.3285   -4707.7409            0     6247.902    20.082575    19.674442    20.664173    8164.6929    6135.6025    6590.4572    6017.6463    68.508452    112.03336   -567.86301   -3458.3679 
24222000    269.13741   -4739.6325   -4220.5784   -4739.6325            0     9215.738    19.756263    20.075308    20.421711    8099.5176    9565.1786    9315.4046    8766.6308    553.24793    715.77006    572.28597   -3131.9863 
24223000    247.87018   -4704.0535    -4226.015   -4704.0535            0     6029.194    20.118951    19.931328    20.552268    8241.4062    5389.1149    6205.2408    6493.2262   -517.41096   -775.97241     -70.0688   -3501.3514 
24224000    268.92382   -4716.4526   -4197.8104   -4716.4526            0    9158.6094    19.652059    20.007243    20.585155    8093.7434    11439.422    7479.0074    8557.3985   -420.39087    442.78944   -477.31351   -3116.7378 
24225000    255.63239   -4709.5359   -4216.5274   -4709.5359            0    8834.3993    19.838863    19.744894    20.647185    8087.8376    9524.8047    7444.2428    9534.1503    496.71411    1580.6389   -495.19808   -3174.4851 
24226000    258.37859   -4689.0147   -4190.7098   -4689.0147            0    9766.0842    19.995049    19.706404    20.452498    8058.9083    8858.2408    11044.814    9395.1973    -181.9983    936.03396   -195.65467   -3042.8931 
24227000    277.72192   -4663.2563   -4127.6462   -4663.2563            0    7667.2613    20.028426    19.948121    20.385345    8144.5462    9453.3285    4301.5566    9246.8987    346.41193   -682.62235    1379.3422   -3216.9301 
24228000    258.86959   -4659.4271   -4160.1753   -4659.4271            0    7476.2329    19.878899    19.911559    20.581067    8146.3951    8783.6992    5468.3811    8176.6184   -124.00163    -257.1703    1397.1315   -3271.9479 
24229000    268.68811   -4704.7156   -4186.5279   -4704.7156            0     7278.966    19.816421    19.960303    20.646973    8166.7403      9182.77    7027.6774    5626.4505    157.39674     262.2171   -446.59774   -3319.5774 
24230000    267.17247   -4685.5304   -4170.2658   -4685.5304            0    5405.7499    20.171311    19.922045    20.473396    8227.3113    3019.9072    7089.3556    6107.9868    676.16127    32.524158   -632.15539   -3521.6467 
24231000    272.00117   -4698.2658   -4173.6887   -4698.2658            0    7851.3194    19.944204    19.897808    20.404593    8097.4802     5849.588    8350.9566    9353.4137   -122.72281    -102.9886    295.93121   -3246.4993 
24232000    263.04032   -4701.4354     -4194.14   -4701.4354            0    8456.0157    19.957206    19.914986     20.46736    8134.7006    7227.5405    10144.995    7995.5119    596.65543    251.96926    447.24857   -3190.9499 
24233000    266.53775   -4734.5256   -4220.4852   -4734.5256            0    5374.3969    19.754868    19.958488     20.81948    8208.6487    5911.8793    4870.5259    5340.7854    1072.6588    168.90353    1883.4169   -3577.0907 
24234000    275.64357   -4717.2524   -4185.6506   -4717.2524            0    6841.3737    20.040323    19.620585    20.728437    8150.4809    6126.0693    8106.8827    6291.1692    296.18273    379.04852    125.01241   -3372.4411 
24235000    245.64494   -4687.4975   -4213.7506   -4687.4975            0    7948.5919    19.744071    20.059702    20.431864    8092.2476    6678.8589    9368.8205    7798.0964   -97.701239    324.70483   -257.72618   -3275.6806 
24236000    250.20389   -4699.3699   -4216.8306   -4699.3699            0    8356.1025    20.050629    19.834151    20.447313    8131.6348    7905.9883    8010.1676    9152.1515    80.992903    1205.7632     858.6534   -3225.8675 
24237000    256.20327   -4696.2292   -4202.1197   -4696.2292            0     6219.717    19.840074    19.965545    20.583272    8153.4023    6471.9903    6424.7978    5762.3627   -562.42651    1824.1423    151.08207   -3462.5393 
24238000    271.61112   -4716.1572   -4192.3323   -4716.1572            0    6786.4237    20.075152    19.850535    20.635319    8223.2265    6639.1951    8068.2879     5651.788    230.43634    883.08245    301.74032   -3378.4547 
24239000    263.66624   -4719.3521   -4210.8496   -4719.3521            0    6433.2172     19.91842    19.883367    20.626549    8169.0468    7726.5904    4158.3167    7414.7446    292.88552    799.82521    470.56381   -3444.4143 
24240000    273.22064   -4712.5149   -4185.5859   -4712.5149            0    9403.0317    19.840423    19.893656    20.448907    8071.1541    9074.6029    9805.6971     9328.795   -276.35887   -1412.6125    700.23088   -3078.7597 
24241000    255.48481   -4722.0216   -4229.2976   -4722.0216            0    7373.5839    19.838291     20.03669    20.531052    8160.9636    8761.1694    5909.4497    7450.1326   -31.223908    857.37261   -456.23802    -3351.699 
24242000    257.85721    -4700.034   -4202.7347    -4700.034            0    6861.2238    20.139447    19.902307    20.371319    8165.2618    5768.4217    7241.1527    7574.0971    719.55227    438.77062   -247.17653   -3385.6866 
24243000    264.77206   -4693.2706   -4182.6355   -4693.2706            0    8456.3194    19.927845    19.851457    20.704536    8190.6473    10026.947     6908.558    8433.4535   -26.735611    -1844.649   -794.85904   -3172.5096 
24244000    259.68611   -4679.8674   -4179.0409   -4679.8674            0    9100.1199    19.866414    19.791176    20.621984    8108.1456    9343.7662    9448.8458    8507.7477    19.529918   -1439.2267   -1199.1527   -3102.9609 
24245000    272.94645   -4680.2619   -4153.8617   -4680.2619            0      8244.47    19.799369    19.832938    20.716977    8135.1354    10528.088    7142.1616    7063.1604   -1064.7278    68.702823   -115.77903   -3175.7163 
24246000    269.18118   -4710.2877   -4191.1491   -4710.2877            0    6673.0636    20.026701    19.832235    20.628145    8192.9674    6462.9815    7089.4055    6466.8038    257.79214    1306.3952    824.79847   -3393.8113 
24247000    267.08672   -4713.3864   -4198.2872   -4713.3864            0    7363.8102    19.836693    19.973629    20.498424    8121.6957    8043.8367    5437.8738    8609.7201    -148.4685    1766.5166    522.85396   -3326.0689 
24248000     273.5315   -4698.2687   -4170.7402   -4698.2687            0    9681.8738    19.958506    19.745055    20.538755    8093.9495    7919.2301    12623.625     8502.766    389.18539    496.83292   -2333.3442    -3027.873 
24249000    247.51431    -4693.529   -4216.1768    -4693.529            0    7119.3223    19.637993    20.126967     20.56983    8130.2918    10654.726    4487.9319    6215.3089   -810.01507    1820.8142    4.1776389   -3372.0248 
24250000    269.69297   -4678.0439   -4157.9183   -4678.0439            0    6214.2685    20.086007    19.763154    20.630437    8189.5171    5730.9503    7889.1037    5022.7515   -352.60429   -1489.8042   -1373.7796   -3415.7128 
Loop time of 430.846 on 64 procs for 250000 steps with 972 atoms

Performance: 100.268 ns/day, 0.239 hours/ns, 580.254 timesteps/s
193.0% CPU use with 32 MPI tasks x 2 OpenMP threads

MPI task timing breakdown:
Section |  min time  |  avg time  |  max time  |%varavg| %total
---------------------------------------------------------------
Pair    | 27.645     | 35.689     | 43.503     |  68.7 |  8.28
Bond    | 0.79846    | 1.1515     | 1.4827     |  15.0 |  0.27
Kspace  | 184.14     | 193.8      | 204.44     |  40.3 | 44.98
Neigh   | 2.305      | 2.706      | 3.1039     |  17.3 |  0.63
Comm    | 84.488     | 93.542     | 101        |  50.4 | 21.71
Output  | 0.42058    | 0.42094    | 0.42249    |   0.0 |  0.10
Modify  | 83.658     | 87.097     | 91.922     |  20.2 | 20.22
Other   |            | 16.43      |            |       |  3.81

Nlocal:        30.3750 ave          36 max          23 min
Histogram: 1 1 2 5 3 4 8 1 3 4
Nghost:        2661.06 ave        2696 max        2616 min
Histogram: 1 0 2 5 5 3 5 6 3 2
Neighs:        9596.19 ave       11830 max        7092 min
Histogram: 1 0 5 5 4 6 3 4 2 2

Total # of neighbors = 307078
Ave neighs/atom = 315.92387
Ave special neighs/atom = 2.0000000
Neighbor list builds = 7928
Dangerous builds = 0

unfix		3
unfix		2
unfix		1

write_data	data.final.${pid}
write_data	data.final.0
System init for write_data ...
PPPM initialization ...
  extracting TIP4P info from pair style
  using 12-bit tables for long-range coulomb (../kspace.cpp:340)
  G vector (1/distance) = 0.37162833
  grid = 24 24 24
  stencil order = 5
  estimated absolute RMS force accuracy = 0.0035811948
  estimated relative force accuracy = 1.0784662e-05
  using double precision FFTW3
  3d grid and FFT values/proc = 3211 432
Last active /omp style is kspace_style pppm/tip4p/omp
WARNING: Not all mixed pair coeffs generated from mixing. Use write_data with 'pair ij' option to store all pair coeffs. (../write_data.cpp:312)

write_restart   restart.lmp.${pid}
write_restart   restart.lmp.0
System init for write_restart ...
PPPM initialization ...
  extracting TIP4P info from pair style
  using 12-bit tables for long-range coulomb (../kspace.cpp:340)
  G vector (1/distance) = 0.37162833
  grid = 24 24 24
  stencil order = 5
  estimated absolute RMS force accuracy = 0.0035811948
  estimated relative force accuracy = 1.0784662e-05
  using double precision FFTW3
  3d grid and FFT values/proc = 3211 432
Last active /omp style is kspace_style pppm/tip4p/omp
Total wall time: 0:07:10
