LAMMPS (30 Jul 2021)
  using 1 OpenMP thread(s) per MPI task
package omp 0
using multi-threaded neighbor list subroutines
echo both

include		in.partitions
variable        pid world 0
include		in.temp
variable        temperature equal 259.38
variable	tempDamp equal 100.0
include		in.pressure
variable        pressure equal 2625.0
variable        pressureDamp equal 1000.0 # This is 1 ps
include		in.seed
variable        seed world 745823

units		real
atom_style	full
read_restart	restart.lmp.${pid}
read_restart	restart.lmp.0
Reading restart file ...
  restart file = 30 Jul 2021, LAMMPS = 30 Jul 2021
  restoring atom style full from restart
  orthogonal box = (0.31000937 1.4566814 0.37821071) to (17.897563 22.172496 21.834985)
  4 by 4 by 4 MPI processor grid
  restoring pair style lj/cut/tip4p/long/omp from restart
  restoring bond style harmonic/omp from restart
  restoring angle style harmonic/omp from restart
  864 atoms
  576 bonds
  288 angles
Finding 1-2 1-3 1-4 neighbors ...
  special bond factors lj:    0        0        0       
  special bond factors coul:  0        0        0       
     2 = max # of 1-2 neighbors
     1 = max # of 1-3 neighbors
     1 = max # of 1-4 neighbors
     2 = max # of special neighbors
  special bonds CPU = 1.499 seconds
  read_restart CPU = 1.938 seconds
include 	in.setup
variable	out_freq equal 1000
variable	out_freq2 equal 10000
variable	out_freq3 equal 1000

timestep	2.0

neigh_modify    delay 7 every 1

include		in.tip4p
# This is TIP4P/Ice

# create groups ###
group ox type 2
288 atoms in group ox
group hy type 1
576 atoms in group hy

# set charges - beside manually ###
set group ox charge -1.1794
Setting atom values ...
  288 settings made for charge
set group hy charge 0.5897
Setting atom values ...
  576 settings made for charge

# ### TIP3P Potential Parameters ###
pair_style lj/cut/tip4p/long/omp 2 1 1 1 0.1577 8.5
pair_coeff 1 1*2 0.000 0.000
pair_coeff 2 2 0.21084 3.1668
bond_style  harmonic
bond_coeff  1 450 0.9572
angle_style harmonic
angle_coeff 1 55 104.52
kspace_style pppm/tip4p/omp 1.0e-5
pair_modify tail yes

thermo          ${out_freq}
thermo          1000
thermo_style    custom step temp pe etotal epair emol press lx ly lz vol pxx pyy pzz pxy pxz pyz enthalpy

restart 	${out_freq3} restart.lmp.${pid} restart2.lmp.${pid}
restart 	1000 restart.lmp.${pid} restart2.lmp.${pid}
restart 	1000 restart.lmp.0 restart2.lmp.${pid}
restart 	1000 restart.lmp.0 restart2.lmp.0


include         in.dump
dump            myDump all atom ${out_freq2} dump.water.${pid}
dump            myDump all atom 10000 dump.water.${pid}
dump            myDump all atom 10000 dump.water.0
dump            myDump2 all dcd ${out_freq2} dump.dcd
dump            myDump2 all dcd 10000 dump.dcd
dump_modify     myDump append yes
dump_modify     myDump2 append yes


variable natoms 	equal  "count(all)"                        # NUMBER ATOMS
variable H      	equal  "enthalpy/v_natoms"                 # ENTHALPY-per-atom
variable Vol      	equal  "vol/v_natoms"                 # volume-per-atom
fix AVG all 		ave/time ${out_freq} 1 ${out_freq} v_Vol v_H file vol_enthalpy.dat
fix AVG all 		ave/time 1000 1 ${out_freq} v_Vol v_H file vol_enthalpy.dat
fix AVG all 		ave/time 1000 1 1000 v_Vol v_H file vol_enthalpy.dat


timer           timeout 23:50:00 every 1000
New timer settings: style=normal  mode=nosync  timeout=23:50:00

fix 		1 all shake 1e-6 200 0 b 1 a 1
       0 = # of size 2 clusters
       0 = # of size 3 clusters
       0 = # of size 4 clusters
     288 = # of frozen angles
  find clusters CPU = 0.024 seconds
fix             2 all nph iso ${pressure} ${pressure} ${pressureDamp}
fix             2 all nph iso 2625 ${pressure} ${pressureDamp}
fix             2 all nph iso 2625 2625 ${pressureDamp}
fix             2 all nph iso 2625 2625 1000
fix             3 all temp/csvr ${temperature} ${temperature} ${tempDamp} ${seed}
fix             3 all temp/csvr 259.38 ${temperature} ${tempDamp} ${seed}
fix             3 all temp/csvr 259.38 259.38 ${tempDamp} ${seed}
fix             3 all temp/csvr 259.38 259.38 100 ${seed}
fix             3 all temp/csvr 259.38 259.38 100 745823

run             250000
PPPM initialization ...
  extracting TIP4P info from pair style
  using 12-bit tables for long-range coulomb (../kspace.cpp:340)
  G vector (1/distance) = 0.37289876
  grid = 24 24 25
  stencil order = 5
  estimated absolute RMS force accuracy = 0.0032264438
  estimated relative force accuracy = 9.7163397e-06
  using double precision FFTW3
  3d grid and FFT values/proc = 2730 288
Last active /omp style is kspace_style pppm/tip4p/omp
Neighbor list info ...
  update every 1 steps, delay 7 steps, check yes
  max neighbors/atom: 2000, page size: 100000
  master list distance cutoff = 10.8154
  ghost atom cutoff = 10.8154
  binsize = 5.4077, bins = 4 4 4
  1 neighbor lists, perpetual/occasional/extra = 1 0 0
  (1) pair lj/cut/tip4p/long/omp, perpetual
      attributes: half, newton on, omp
      pair build: half/bin/newton/omp
      stencil: half/bin/3d
      bin: standard
Per MPI rank memory allocation (min/avg/max) = 9.237 | 9.240 | 9.246 Mbytes
Step Temp PotEng TotEng E_pair E_mol Press Lx Ly Lz Volume Pxx Pyy Pzz Pxy Pxz Pyz Enthalpy 
 5500000    270.09677   -3858.5663   -3395.6296   -3858.5663            0    2088.2761    17.587554    20.715815    21.456774    7817.5721    2680.2771    2835.0218    749.52944   -491.35138    352.36018    114.52201   -3157.5426 
 5501000    275.05616   -3877.7823   -3406.3455   -3877.7823            0    2045.5172    17.575549    20.701675    21.442128    7801.5745    3438.8071    2242.2784    455.46624    528.95438    411.65043   -77.520332   -3173.6107 
 5502000    275.78462    -3898.171   -3425.4856    -3898.171            0    4288.6108     17.53974    20.659497    21.398442    7753.9872    3337.0664    4147.3473    5381.4186    552.98725   -69.037416   -1606.9244   -2940.5125 
 5503000     269.5414   -3889.9114   -3427.9267   -3889.9114            0    2030.2355    17.581359    20.708519    21.449217    7809.3147     2255.504    1964.7546    1870.4478   -669.09854     163.0551    887.56087   -3196.7014 
 5504000     239.4782   -3885.8365   -3475.3791   -3885.8365            0    1635.6477    17.693603    20.840727    21.586154     7959.841    1831.1814    1769.9725    1305.7892   -573.78337   -260.43532   -1028.9271   -3285.5031 
 5505000    257.24635   -3850.4898   -3409.5783   -3850.4898            0    1720.1988    17.578756    20.705452    21.446041    7805.8459   -319.01024    2538.7801    2940.8264   -894.68042    831.79887    724.66381   -3213.7505 
 5506000    257.33561   -3831.1982   -3390.1337   -3831.1982            0    3956.0019    17.569439    20.694479    21.434675     7793.442    4706.0529    2886.5423    4275.4103    1646.3766    37.150843   -328.91426   -2940.4971 
 5507000    255.66272   -3863.8596   -3425.6624   -3863.8596            0    2390.4508    17.673804    20.817406    21.561999    7933.1502    2785.9565     1220.827    3164.5688    1378.4998    559.25774    367.45499   -3149.0948 
 5508000    264.80254   -3861.1235    -3407.261   -3861.1235            0    2435.6546    17.632648     20.76893     21.51179    7877.8592    2290.5245    2321.3445     2695.095    935.89422   -676.03081    1180.5933   -3127.4274 
 5509000    270.60322   -3859.8521   -3396.0474   -3859.8521            0    3199.4278     17.60412    20.735328    21.476986    7839.6842    2822.1547    3063.4272    3712.7014    54.646716   -1014.4005    659.28166   -3030.2448 
 5510000    258.05301   -3857.8804   -3415.5864   -3857.8804            0    809.33071    17.637583    20.774743     21.51781    7884.4755   -57.627116   -210.67068    2696.2899    212.92824   -271.49514   -410.62601   -3322.5239 
 5511000    261.31595   -3858.1774   -3410.2908   -3858.1774            0    4130.0781    17.590697    20.719517    21.460609    7821.7643    5108.2794    3694.4262    3587.5288   -212.96189    85.209276    98.733806   -2939.1628 
 5512000    263.47018   -3808.5168    -3356.938   -3808.5168            0    4158.0362    17.563728    20.687751    21.427707    7785.8438    3429.4122    4065.9372    4978.7594    991.06512   -1062.4107   -272.74046    -2884.799 
 5513000    262.18183   -3844.8771   -3395.5064   -3844.8771            0    2109.1729     17.66587    20.808061     21.55232     7922.471    4245.7826    32.547212     2049.189    76.035009    694.92848   -1200.1757   -3151.8102 
 5514000    259.64016   -3894.6874    -3449.673   -3894.6874            0    2915.0786    17.527467    20.645041    21.383469    7737.7211    3814.1041    4643.7805    287.35136    344.94296   -527.22117   -686.61278   -3120.7159 
 5515000    261.55708   -3900.8926   -3452.5927   -3900.8926            0    2843.0229    17.644764    20.783201    21.526571    7894.1093    2127.8347    3791.1186    2610.1153   -58.631232   -190.65644    737.12805   -3125.2826 
 5516000    261.09347   -3883.8957   -3436.3904   -3883.8957            0    3909.2887    17.542486    20.662731    21.401792    7757.6287    1947.2374    5447.9262    4332.7025   -464.81869   -836.67826   -184.51891    -2994.105 
 5517000    273.33315   -3888.2802   -3419.7966   -3888.2802            0    3738.0403    17.505274    20.618901    21.356394    7708.3662    4227.7874    2578.3708    4407.9626   -213.44994   -855.10942    255.99339   -2999.5713 
 5518000    252.02308   -3890.5701   -3458.6112   -3890.5701            0    4591.2194    17.475028    20.583275    21.319494    7668.4794    3395.6488     5953.034    4424.9755      669.297    1813.7143    757.42467   -2945.1434 
 5519000    264.82855   -3872.7709   -3418.8638   -3872.7709            0    2088.7087    17.494684    20.606427    21.343474    7694.3847    1548.2809    988.99895    3728.8464    1032.6581   -378.73583   -163.52887     -3184.48 
 5520000    250.03372   -3877.3712    -3448.822   -3877.3712            0    1501.9939    17.545643    20.666449    21.405643    7761.8176    617.81095    1174.0089    2714.1617    218.98515   -707.17658   -285.52774    -3278.799 
 5521000    252.56695   -3902.9625   -3470.0714   -3902.9625            0    1936.1884    17.499779    20.612428     21.34969    7701.1092    2779.9542    982.70677    2045.9043   -1129.8236   -1711.9333   -1448.3917   -3252.6127 
 5522000    272.79363   -3886.0441   -3418.4851   -3886.0441            0    2553.6764    17.490539    20.601544    21.338417    7688.9168    3205.4347     1887.538    2568.0564   -841.21742    1093.2263   -790.45493   -3132.1287 
 5523000     260.7794   -3887.5896   -3440.6227   -3887.5896            0    3391.7427    17.453216    20.557583    21.292883    7639.7996     2173.092    4450.5277    3551.6084    767.14184    272.29214   -282.29854   -3062.7193 
 5524000     275.2988   -3867.4755   -3395.6228   -3867.4755            0    2114.9479    17.607743    20.739596    21.481406    7844.5256    570.03209    2530.7366    3244.0751    540.45866    888.63457   -1841.2159   -3153.6635 
 5525000    266.32486   -3906.0056   -3449.5339   -3906.0056            0    1398.1452    17.595069    20.724667    21.465943    7827.5979    1402.8514    1797.0585     994.5257   -1145.2475   -662.06842   -903.40122   -3289.9252 
 5526000    267.78772    -3849.905   -3390.9261    -3849.905            0     3569.305    17.523814    20.640738    21.379012    7732.8838    4008.8495    3451.0018    3248.0639    1138.3845     10.55056    321.40429   -2988.3935 
 5527000      273.297    -3870.102   -3401.6803    -3870.102            0    2963.1872     17.66587    20.808061     21.55232    7922.4711    2641.6535    3722.6775    2525.2307    795.89872   -446.38497    706.15482   -3059.3103 
 5528000    259.68576   -3890.2646    -3445.172   -3890.2646            0    3736.0323    17.535256    20.654215    21.392971    7748.0412    2868.3793    4541.4002    3798.3175    1289.2216   -384.12293   -1213.5412   -3023.0107 
 5529000    251.35422   -3881.3965    -3450.584   -3881.3965            0    2323.6929    17.645572    20.784153    21.527556    7895.1938    2139.6609    1997.3927    2834.0251    725.82684    418.48386    1496.0529   -3183.0263 
 5530000    266.48694   -3836.9602   -3380.2107   -3836.9602            0    3978.7021    17.581411     20.70858     21.44928    7809.3835    4052.5671    3933.5909    3949.9483    42.867965   -772.82769   -571.91873    -2927.069 
 5531000    261.77874   -3844.1382   -3395.4584   -3844.1382            0    2537.7992    17.574573    20.700526    21.440938    7800.2757    1757.5355    1795.3653     4060.497    801.65471    -683.9329   -1559.6106   -3106.7609 
 5532000    260.92301   -3858.7791   -3411.5659   -3858.7791            0     2970.632    17.624542    20.759382      21.5019     7866.999     2032.957    3692.8565    3186.0827     64.13074    991.18293    1440.3381   -3070.7391 
 5533000     259.5416   -3860.3805   -3415.5351   -3860.3805            0    4046.8652    17.549799    20.671345    21.410714    7767.3349    3136.4637    3999.8537    5004.2782   -807.74554    977.41314    67.190437   -2957.1118 
 5534000    248.69347   -3866.4873   -3440.2352   -3866.4873            0    3490.5212    17.506119    20.619896    21.357425    7709.4828     4439.755    3834.5601    2197.2486    612.06702    1493.2932    1020.1279   -3047.7788 
 5535000    259.97805   -3905.8879   -3460.2945   -3905.8879            0    2393.3593    17.584047    20.711684    21.452496    7812.8964    1942.2454    3011.3804    2226.4522   -925.00857    799.52705   -853.73693   -3187.5877 
 5536000    255.36808   -3861.6049   -3423.9128   -3861.6049            0    1654.6416    17.573169    20.698872    21.439226    7798.4066     3769.074    319.64511    875.20557    176.80008    -182.4222    -322.6089   -3235.7275 
 5537000    262.72392   -3855.9859   -3405.6861   -3855.9859            0    3926.8555    17.505096    20.618691    21.356176    7708.1307    4261.5808    3637.6047    3881.3811   -850.78593   -752.45879    187.22624   -2964.2479 
 5538000    259.91163   -3873.4676   -3427.9879   -3873.4676            0    1654.7434    17.672472    20.815838    21.560374    7931.3568    1847.4655     1834.994    1281.7707   -40.427914    846.71473    1113.1966   -3236.5826 
 5539000     267.4672   -3856.6094   -3398.1797   -3856.6094            0    2173.5667    17.550847    20.672579    21.411992    7768.7263      3484.56    1346.2566    1689.8835    -1470.901    725.63531    490.23418    -3151.917 
 5540000     266.2589   -3884.6971   -3428.3384   -3884.6971            0    2014.7021    17.566963    20.691562    21.431654    7790.1473    1210.9694    2807.5531    2025.5836     253.7881   -159.70514   -1284.7413   -3199.4455 
 5541000    260.32524   -3879.3337   -3433.1452   -3879.3337            0    1901.2446    17.616957    20.750448    21.492647    7856.8467    1245.4971    884.42508    3573.8115   -147.14926    1095.7875   -1399.4989   -3215.2929 
 5542000    256.60528   -3865.2192   -3425.4065   -3865.2192            0    4085.0782    17.524587    20.641649    21.379955    7733.9072    3385.3118     5373.433    3496.4898     -1120.38   -1392.9195   -644.97302    -2964.646 
 5543000    261.29263   -3888.9756    -3441.129   -3888.9756            0    2871.8145    17.543128    20.663487    21.402575    7758.4803    2413.0922    2270.6848    3931.6665    1428.5865   -18.317126   -358.39156   -3116.1847 
 5544000    259.66357   -3870.8491   -3425.7946   -3870.8491            0    1491.7833    17.524619    20.641686    21.379994    7733.9492    1314.4074    1998.5671    1162.3754     558.8369   -1053.7512   -470.92908   -3257.5338 
 5545000    251.47674   -3916.1709   -3485.1483   -3916.1709            0    2604.6945    17.453466    20.557878    21.293188    7640.1282     3804.425    2358.0433    1651.6151   -439.43438   -1070.5097   -359.64248   -3194.9243 
 5546000    258.69405   -3855.3449   -3411.9521   -3855.3449            0     3208.106    17.515503    20.630949    21.368873    7721.8871    4483.5355    1495.6913    3645.0912   -1145.7872    322.43412    1754.6218   -3050.6687 
 5547000    256.22889   -3915.6824   -3476.5149   -3915.6824            0    2269.3069    17.550182    20.671796    21.411181     7767.843    3053.3067    881.17093    2873.4431     822.2797    92.735634    788.69646   -3219.4341 
 5548000    262.29021   -3893.1564   -3443.5999   -3893.1564            0    3641.8228     17.49109    20.602194    21.339089    7689.6442    2741.5201    2827.9353    5356.0132   -45.084339    395.56401    45.477848   -3035.1856 
 5549000    267.47852   -3866.1589   -3407.7099   -3866.1589            0    3063.0423    17.539798    20.659565    21.398513    7754.0634    2851.4181    1708.7968     4628.912    910.57744   -58.269679   -846.76171   -3061.3256 
 5550000    260.75753   -3886.2404    -3439.311   -3886.2404            0    3015.0125    17.525964     20.64327    21.381635    7735.7301    4591.9595    2499.7137    1953.3644    26.655502   -586.94438   -1071.0953   -3099.1642 
 5551000    251.82061   -3850.1019     -3418.49   -3850.1019            0     1667.442    17.470004    20.577357    21.313364    7661.8663    2352.4762    1832.7314    817.11846    -938.2926    1281.6479     536.5488   -3232.1692 
 5552000    256.21106   -3895.6979   -3456.5609   -3895.6979            0     1670.665    17.603885    20.735051    21.476698    7839.3694    3104.5973    1371.8488    535.54877    650.44356   -2134.5257   -699.34655   -3265.5552 
 5553000     249.9061   -3873.8003   -3445.4698   -3873.8003            0    3406.8503    17.535924    20.655002    21.393787     7748.927    2642.5747     4070.675    3507.3012     256.2013   -618.02872     -1138.63   -3060.4611 
 5554000     257.6891   -3855.2823    -3413.612   -3855.2823            0     2469.128    17.545182    20.665907    21.405082    7761.2069    2662.7103    1837.6355    2907.0383    1408.1329   -812.79555   -1295.4827   -3134.1333 
 5555000    258.36892   -3882.1776   -3439.3421   -3882.1776            0    1517.4625    17.610692    20.743069    21.485004    7848.4678      871.553    1610.7338    2070.1007    364.01189     747.3504   -1536.2034   -3265.6505 
 5556000    276.99216   -3880.7524   -3405.9973   -3880.7524            0    3704.7309    17.549753    20.671291    21.410658    7767.2739    4306.6383    3679.5033     3128.051   -87.417203   -2449.5275    83.114809   -2986.3338 
 5557000    259.21215   -3882.7808   -3438.5001   -3882.7808            0    2387.6681    17.632733    20.769031    21.511893    7877.9732    1988.4206    2262.0913    2912.4925    230.92813    1490.4689   -922.32055   -3164.1757 
 5558000    259.88534    -3870.119   -3424.6844    -3870.119            0    2262.5276    17.558664    20.681787    21.421529     7779.111    1301.7874    3269.8075    2215.9877   -30.114521   -160.76552    -737.2246   -3167.9999 
 5559000    257.88906   -3863.9802   -3421.9672   -3863.9802            0    2705.0404    17.523724    20.640632    21.378902    7732.7646    2390.2913     3420.111    2304.7188   -267.38176     540.8631    453.50778   -3116.9078 
 5560000     254.3024   -3919.6183   -3483.7527   -3919.6183            0    2629.6705    17.519318    20.635442    21.373527    7726.9331    2011.7372    3970.9587    1906.3155   -485.04857     438.0474   -2015.5349   -3187.4167 
 5561000    256.17767    -3876.651   -3437.5712    -3876.651            0    3069.8365    17.543534    20.663965     21.40307    7759.0188    3195.9533    1871.1933     4142.363     197.9021    488.66833   -324.86223   -3090.1967 
 5562000    263.27744   -3881.7126   -3430.4641   -3881.7126            0       3076.6    17.533843    20.652551    21.391248    7746.1688    4116.5442    2968.9421    2144.3137   -1177.7717   -1404.5168    590.48235   -3082.9008 
 5563000    255.11354   -3828.2908   -3391.0349   -3828.2908            0    3309.9771        17.56     20.68336    21.423159    7780.8868    3846.8797    4076.5698    2006.4819    519.77415    574.13179   -1289.8273   -3015.4311 
 5564000    269.79442   -3878.1729   -3415.7544   -3878.1729            0    3760.1388    17.552214    20.674189     21.41366    7770.5413    2691.4673    5574.1399    3014.8091    34.966468    54.387327    -169.1747   -2989.6353 
 5565000    253.62359   -3897.9483   -3463.2461   -3897.9483            0    3308.0786    17.537018    20.656291    21.395121    7750.3776    3301.3033    4316.0426    2306.8899    2096.9841    505.71196   -67.650687   -3089.3297 
 5566000    266.07588   -3843.8104   -3387.7654   -3843.8104            0    1872.3587    17.634269    20.770839    21.513767    7880.0313    2409.1063     2189.079     1018.891    413.66158    651.90971   -857.40512   -3172.5899 
 5567000    250.94114   -3891.3972   -3461.2926   -3891.3972            0    3329.5975    17.520668    20.637033    21.375174    7728.7204    2122.1182    3685.3359    4181.3385   -860.95287   -513.66285    67.648197   -3085.9955 
 5568000    258.65213   -3867.0423   -3423.7214   -3867.0423            0    5459.2976    17.423459    20.522534     21.25658    7600.7903    5384.2302    6684.6226      4309.04    -135.0462    592.37532   -2015.5379   -2818.5598 
 5569000    249.20395   -3886.3975   -3459.2704   -3886.3975            0    3159.9472    17.469251     20.57647    21.312445    7660.8756    2765.1962    3139.9888    3574.6567   -744.74906    670.85472   -533.62562   -3106.2221 
 5570000    261.63903   -3902.7784    -3454.338   -3902.7784            0    263.74953     17.67703    20.821206    21.565935    7937.4947    577.02498    -519.5289     733.7525     94.60458   -1089.0802    22.796321   -3423.8063 
 5571000    261.20948   -3903.0883   -3455.3842   -3903.0883            0    3638.6905    17.539048    20.658682    21.397598    7753.0689    3875.2336    3904.6992    3136.1387    427.84454   -823.01565   -482.52241   -3043.9554 
 5572000    292.65664   -3886.1447   -3384.5413   -3886.1447            0    2139.7526    17.634695    20.771342    21.514287    7880.6033    1168.9881    3146.5357    2103.7339   -1080.7245    703.25087   -65.483942   -3138.6184 
 5573000    256.51065   -3898.4618   -3458.8113   -3898.4618            0    3164.3414    17.543465    20.663884    21.402986    7758.9275    2670.3834    4460.9426    2361.6982     673.8594   -1486.0257    -929.7353   -3100.7471 
 5574000     255.7437   -3858.3718   -3420.0359   -3858.3718            0    2651.5386    17.638963    20.776368    21.519494    7886.3262    2442.5042    2359.0069    3153.1048   -127.14541   -489.92011    1025.6246   -3115.0719 
 5575000    265.18542    -3873.184   -3418.6653    -3873.184            0    3041.0678    17.559078    20.682275    21.422034    7779.6617    2796.3993    3222.3146    3104.4896    243.83443    788.09978    243.12177   -3073.6307 
 5576000    247.10427   -3834.3323    -3410.804   -3834.3323            0    1823.0411    17.647323    20.786216    21.529693    7897.5451    666.94005    2884.1975    1917.9857   -87.164712   -1024.1013    1050.6668   -3200.8305 
 5577000    256.23753   -3870.3953   -3431.2129   -3870.3953            0    2132.2839    17.566853    20.691433     21.43152    7790.0007    1042.4728    1696.6128    3657.7662    189.28145   -1557.6916    1388.5833   -3188.9659 
 5578000    271.45992   -3814.4072   -3349.1342   -3814.4072            0    3925.9638    17.611865    20.744451    21.486435    7850.0362    3784.9516    4999.7766    2993.1633   -865.80189    1059.6747    909.62534   -2899.6713 
 5579000    271.99196   -3871.4005   -3405.2156   -3871.4005            0    2560.0891    17.669088    20.811852    21.556246    7926.8016    3146.6419    2410.0668    2123.5587    94.851569   -1453.1252    25.564107   -3109.2584 
 5580000    281.99837   -3849.0497   -3365.7141   -3849.0497            0    1963.6174    17.620057      20.7541    21.496429    7860.9956      1629.13    2161.3422      2100.38   -52.844898   -277.92097   -945.03412    -3140.596 
 5581000    251.16333   -3867.7845   -3437.2992   -3867.7845            0    2110.6171    17.692514    20.839444    21.584826    7958.3719     2624.292    1134.0189    2573.5406    226.71358    25.699329    133.79824   -3192.3311 
 5582000    254.36859   -3858.0731   -3422.0941   -3858.0731            0    2264.2126    17.592202     20.72129    21.462445    7823.7718    2404.0672    1458.9523    2929.6183    127.80572    1108.8201   -828.73605   -3163.7436 
 5583000    247.54364   -3861.1914   -3436.9101   -3861.1914            0    3181.1087    17.627914    20.763355    21.506014     7871.516    3273.9519    3467.2393    2802.1349    1137.5262     901.0178   -702.32778   -3071.7252 
 5584000    281.56418   -3855.1122   -3372.5208   -3855.1122            0    2344.1815    17.642758    20.780839    21.524124    7891.4175    3030.4393    2139.8545    1862.2506     569.2066    782.96025    453.31924   -3102.7332 
 5585000    259.19108   -3863.3514   -3419.1068   -3863.3514            0    1813.5437    17.613965    20.746924    21.488996    7852.8443    2583.3827    1208.2133     1649.035    329.09508    59.241301    702.98328   -3211.4095 
 5586000    260.90361    -3865.386   -3418.2061    -3865.386            0     908.6011    17.676926    20.821084    21.565809     7937.356     174.8073    1197.5964    1353.3996     632.6955    490.39991   -1072.8246   -3313.0281 
 5587000    267.69249   -3919.5983   -3460.7825   -3919.5983            0    1812.2847      17.6292    20.764869    21.507583    7873.2385    813.62843    2678.2618    1944.9638    417.05069    1164.6149   -802.04672   -3252.6903 
 5588000    263.95464   -3841.3891   -3388.9798   -3841.3891            0    930.70645    17.648725    20.787867    21.531404    7899.4275   -369.34143    762.88249    2398.5783    329.00515   -534.97607    246.58603   -3281.7578 
 5589000    251.72404   -3897.8529   -3466.4065   -3897.8529            0    3224.9242    17.568722    20.693634      21.4338    7792.4877     2296.314    3465.7044    3912.7542   -657.57487    1129.2301   -226.13584   -3099.9086 
 5590000    266.85085   -3888.6538   -3431.2806   -3888.6538            0    2617.8241    17.686792    20.832705    21.577845     7950.653    1336.8145    2859.2159    3657.4419    618.47601     381.5578    1216.5132   -3127.7384 
 5591000    255.79937   -3906.9951   -3468.5638   -3906.9951            0    2679.5128    17.561689     20.68535     21.42522    7783.1331    2196.3903    3195.6438    2646.5042    273.18361    1505.1759    156.12282   -3164.4149 
 5592000    257.86094   -3852.1345   -3410.1697   -3852.1345            0    3184.0222    17.667485    20.809964    21.554291    7924.6449    3440.7194    2914.0819    3197.2654    795.49951   -1042.1481    39.591058   -3042.1833 
 5593000    260.65432   -3904.7741   -3458.0215   -3904.7741            0    3447.4257    17.572775    20.698407    21.438744    7797.8811     1853.347    5221.9248    3267.0052   -1005.4524    -683.7443   -2449.6901   -3065.9662 
 5594000    250.37403   -3869.1969   -3440.0644   -3869.1969            0    2378.8229    17.587419    20.715657     21.45661    7817.3929    3022.4198    2586.6096    1527.4393    382.25819   -945.96664   -1204.0673    -3168.858 
 5595000    248.80312   -3883.2516   -3456.8116   -3883.2516            0    2507.0335    17.583301    20.710807    21.451587    7811.9033    754.47398    3040.5048    3726.1216    334.07908   -415.97868   -81.340818   -3171.1888 
 5596000    266.92859   -3900.2827   -3442.7763   -3900.2827            0    1855.6249    17.683395    20.828703      21.5737    7946.0723    780.76015    2814.7513    1971.3631    193.46231    511.16349    704.59546   -3227.7366 
 5597000    252.57383   -3891.4342   -3458.5313   -3891.4342            0    3587.3467    17.596347    20.726173    21.467502    7829.3038    3559.2365    3330.8479    3871.9558   -1708.1351   -669.69542    -189.7281   -3048.9196 
 5598000    248.66966   -3908.3206   -3482.1093   -3908.3206            0    2464.7967    17.612721    20.745459    21.487479    7851.1807    1672.0716    3255.9277    2466.3908    837.90409    1086.6475    360.11013   -3199.8866 
 5599000    264.01336   -3879.6674   -3427.1575   -3879.6674            0    2883.5896    17.635482    20.772268    21.515247    7881.6581    1341.6329    2883.3164    4425.8197    418.27523    1307.9227    2063.0184   -3095.7007 
 5600000    251.82704   -3881.6431   -3450.0202   -3881.6431            0    2940.1178    17.529031    20.646884    21.385377     7739.793    2725.2476    3277.7672    2817.3386    708.38591    918.66685   -72.952054   -3118.1487 
 5601000    243.74395   -3889.3658    -3471.597   -3889.3658            0     3783.988    17.572654    20.698266    21.438597    7797.7209    3761.8322    3240.1764    4349.9552   -285.32288     861.2298    596.00927   -3041.2752 
 5602000    258.87711   -3864.6274   -3420.9209   -3864.6274            0     4374.096    17.589129    20.717671    21.458696    7819.6731    4801.8153    3004.6554    5315.8173    43.275854    508.68099    138.98968   -2922.0906 
 5603000    256.75287   -3873.8437    -3433.778   -3873.8437            0    1454.0596    17.748642    20.905555    21.653301    8034.3538    1901.7589    214.23665    2246.1833   -896.37412   -20.341471    417.05073   -3263.4018 
 5604000    251.99254   -3860.2395   -3428.3329   -3860.2395            0    2030.4543    17.731079    20.884869    21.631875    8010.5266    1909.5353    1896.1428    2285.6848   -359.27069   -46.005067   -186.60368   -3191.1244 
 5605000     270.9897   -3857.2908   -3392.8237   -3857.2908            0    4199.3338    17.620926    20.755123    21.497488    7862.1576    4448.7649     4443.032    3706.2046    776.37408   -348.85437   -32.976755   -2911.3218 
 5606000    253.14963   -3857.1698     -3423.28   -3857.1698            0    3209.5175    17.611022    20.743457    21.485405    7848.9082     2277.374     3398.925    3952.2534   -341.04096   -153.29031   -64.089508   -3055.8921 
 5607000    250.40845   -3854.6824   -3425.4909   -3854.6824            0    2573.9904    17.608805    20.740846      21.4827    7845.9441    1924.6155    2200.9579    3596.3978   -292.19413    -1060.965   -1288.7278   -3130.9619 
 5608000    253.25306    -3858.751   -3424.6839    -3858.751            0    2156.9107    17.659042    20.800018    21.543989     7913.288    1767.9413    1989.7337     2713.057     15.68913   -487.88931    2109.0954   -3175.7609 
 5609000    261.17173   -3900.8479   -3453.2085   -3900.8479            0    3643.0827    17.590403    20.719171     21.46025     7821.372     3105.792    4354.8529    3468.6033    327.35551    134.47699   -1919.3571   -3037.6541 
 5610000    251.96209   -3874.0882   -3442.2338   -3874.0882            0    1728.9955    17.600711    20.731313    21.472826    7835.1305    835.64253    1315.0424    3036.3015   -597.31014    -608.7152   -574.02903   -3244.6661 
 5611000     256.1127   -3863.4804    -3424.512   -3863.4804            0    4177.6102    17.601052    20.731715    21.473243    7835.5862    4232.8261    5082.7693    3217.2352   -101.69208   -297.97307     1630.682   -2947.1199 
 5612000    259.23896   -3874.9544   -3430.6277   -3874.9544            0    3393.5283    17.688766     20.83503    21.580253    7953.3156    3883.1385    3672.9904    2624.4561   -400.95429   -228.91819   -1540.6986   -3037.0091 
 5613000    250.74174   -3893.6966   -3463.9339   -3893.6966            0    2980.9592    17.664079    20.805952    21.550136    7920.0626    2262.4332    3274.8085    3405.6358    46.927729   -565.22245   -108.10337   -3119.6152 
 5614000    275.03517   -3908.4205   -3437.0197   -3908.4205            0    3111.7398    17.656061    20.796508    21.540354    7909.2824     2153.085    3180.7431    4001.3913   -1442.0529   -793.38499    85.728366   -3078.0843 
 5615000    259.32398   -3872.7916   -3428.3191   -3872.7916            0    4835.1336    17.609076    20.741165    21.483031    7846.3063    5479.4783     3506.414    5519.5085   -336.95757    28.794078    683.63637   -2875.0332 
 5616000    248.57586   -3884.7425    -3458.692   -3884.7425            0    2688.9694    17.559679    20.682982    21.422767    7780.4602    3711.1416    1416.6045     2939.162    202.15725   -903.15328   -1670.8965   -3153.5746 
 5617000    253.19024   -3923.2939   -3489.3345   -3923.2939            0    2434.2229    17.536106    20.655216    21.394008    7749.1679    1429.2073    3669.4379    2204.0234   -361.13391   -301.44809   -901.88801   -3214.2341 
 5618000    250.94397   -3904.5483   -3474.4389   -3904.5483            0    2169.7266    17.579657    20.706514    21.447141    7807.0472    2214.3965    1903.6869    2391.0964   -498.54229    493.97503   -527.29281   -3227.3987 
 5619000    268.67411    -3896.009   -3435.5108    -3896.009            0    2580.6206    17.561953    20.685661    21.425542     7783.484    3435.1315    1532.3249    2774.4054    109.53223    330.80629   -258.23876   -3142.5739 
 5620000    250.99985   -3885.1588   -3454.9537   -3885.1588            0    3118.2414    17.555135     20.67763    21.417224     7774.422    2207.3654    5174.9953    1972.3634    326.70689   -203.01491    513.57739   -3101.4013 
 5621000    253.22687   -3880.5073   -3446.4851   -3880.5073            0    2569.3279    17.576568    20.702875    21.443372    7802.9321    658.74043    4990.3808    2058.8626   -2.8627921   -810.15551   -633.48587   -3154.1014 
 5622000    262.72857   -3838.9731   -3388.6653   -3838.9731            0    2226.5336    17.552712    20.674777    21.414268    7771.2037    1682.0834    3061.3888    1936.1286   -1113.6363   -251.05797   -947.62803    -3136.321 
 5623000    249.78457   -3877.8897   -3449.7675   -3877.8897            0    1977.6557    17.663264    20.804992    21.549141    7918.9657    2974.3819    2123.3747     835.2105    997.35811   -709.72851   -281.41042   -3221.3681 
 5624000    263.48319   -3858.7199   -3407.1187   -3858.7199            0    3241.5626    17.660767     20.80205    21.546094    7915.6076    2822.0941    2204.6022    4697.9913   -394.72701     1074.525   -133.97452   -3032.9094 
 5625000    282.02494   -3872.7031    -3389.322   -3872.7031            0    2224.1957     17.71491    20.865824    21.612149    7988.6329    2002.6569    3485.1641    1184.7662    483.06878   -748.51538   -17.754392   -3130.1898 
 5626000    261.77951    -3910.376   -3461.6949    -3910.376            0     2631.235    17.742225    20.897998    21.645474    8025.6436    1594.5211    3273.4277    3025.7562    -17.15954   -912.18084   -1887.1583   -3153.7199 
 5627000    267.79741   -3883.5072   -3424.5116   -3883.5072            0    2933.1884    17.693174    20.840222    21.585631    7959.2629    3613.0115     2729.495    2457.0588     1233.581   -549.95609   -306.14173   -3084.0339 
 5628000    258.70671   -3880.0537   -3436.6392   -3880.0537            0    3614.6064      17.5774    20.703856    21.444387    7804.0405    2891.2242    3943.5401    4009.0549    1527.7431   -84.142159   -865.63484   -3025.2467 
 5629000    267.79349   -3869.4809    -3410.492   -3869.4809            0    3498.6235    17.644764    20.783201    21.526571    7894.1096    3155.2657    3404.8599     3935.745    900.26755   -709.37552   -928.43136   -3007.7043 
 5630000    256.77789   -3919.7921   -3479.6836   -3919.7921            0    4167.8614    17.654214    20.794332      21.5381    7906.8002    3596.4644    4818.4464    4088.6735    676.80913   -864.67099   -472.55365   -2999.0768 
 5631000    256.08398   -3937.1379   -3498.2187   -3937.1379            0    3321.1464    17.701231    20.849712    21.595461     7970.141    2171.3944     3737.822    4054.2229   -1019.0834    1236.6469   -833.66826   -3112.1808 
 5632000    261.99724   -3854.7412   -3405.6869   -3854.7412            0     2090.118    17.734145     20.88848    21.635615    8014.6828    2525.2329    2651.3052     1093.816   -123.24415    1638.8196    23.364339   -3161.3815 
 5633000    257.05361   -3897.3702   -3456.7892   -3897.3702            0    2097.1148     17.69782    20.845694    21.591299     7965.534     58.19348    2058.7614    4174.3895    36.368384    446.82495    1115.7059   -3213.1691 
 5634000    250.03869   -3918.5819   -3490.0241   -3918.5819            0    2219.1929    17.700968    20.849402    21.595139    7969.7852    3569.8769    1969.0207     1118.681    40.564842     201.7868   -702.64462   -3232.0848 
 5635000    248.01762   -3895.9856   -3470.8919   -3895.9856            0    2265.1899    17.637487     20.77463    21.517693    7884.3472    1813.9774    1576.5563    3405.0361    4.8662162    1532.9933   -1349.7269   -3210.4288 
 5636000    248.77768   -3874.9085    -3448.512   -3874.9085            0    2472.7353    17.735597     20.89019    21.637386    8016.6514    1721.3686    2486.4966    3210.3406    1148.9458   -836.06894   -2989.4463   -3159.4131 
 5637000    262.06999   -3906.9306   -3457.7516   -3906.9306            0    3637.1569    17.648678    20.787811    21.531345    7899.3635    2853.2498    5591.6062    2466.6147    603.17484   -231.73812   -325.94926   -3038.7362 
 5638000    262.89978   -3871.1527   -3420.5515   -3871.1527            0    3583.8941    17.584334    20.712023    21.452847    7813.2798    4348.4517    3619.6313    2783.5994   -95.274255    1410.8826   -368.14297   -3012.1715 
 5639000    246.43968   -3905.5805   -3483.1913   -3905.5805            0    539.22036    17.707136    20.856668    21.602665    7978.1203    182.74669    1184.2979    250.61648    93.135426   -866.91662   -471.28688   -3420.4516 
 5640000    258.75876   -3865.9682   -3422.4645   -3865.9682            0    2433.3991    17.528179    20.645879    21.384337    7738.6634    1556.5542    3271.3533    2472.2897   -137.23214    512.49273   -161.23165     -3147.83 
 5641000     246.1887   -3880.0308   -3458.0717   -3880.0308            0    2363.7216    17.641513    20.779372    21.522605    7889.7471    2029.2126    1171.3498    3890.6023    376.65137   -397.64721   -2044.4218   -3186.0928 
 5642000    258.15524    -3915.179   -3472.7097    -3915.179            0    2099.9714    17.666044    20.808266    21.552532    7922.7049    683.69788    2322.0822     3294.134     936.9577   -1449.7796    348.31984   -3230.0696 
 5643000    252.60794   -3889.4794   -3456.5181   -3889.4794            0    3929.0417    17.609733    20.741939    21.483833    7847.1851    2217.4929    3267.8609    6301.7713    215.32965    1289.7999    338.02352   -3006.8662 
 5644000    259.04792   -3884.8623   -3440.8631   -3884.8623            0    2983.1997    17.654632    20.794824     21.53861    7907.3614    3988.0423    2669.6123    2291.9446   -1188.0307    81.235905    265.99207   -3096.8382 
 5645000    262.44555   -3847.7653   -3397.9426   -3847.7653            0    2400.4369    17.631481    20.767555    21.510365    7876.2947    1439.7845    2607.5074     3154.019   -416.45772   -1918.1586    725.18487     -3122.21 
 5646000    252.05429   -3893.2194    -3461.207   -3893.2194            0    2664.9301    17.603393    20.734472    21.476099    7838.7131    2184.7761    2720.7053    3089.3088    87.811396   -378.99048   -628.10371   -3156.5533 
 5647000    256.97222   -3908.1454   -3467.7038   -3908.1454            0     3919.687    17.486273    20.596519    21.333212    7683.2918    3508.4294    3760.6713    4489.9603    650.09702   -962.70667    263.19002   -3028.4914 
 5648000    258.12904   -3914.5234    -3472.099   -3914.5234            0    1397.1246    17.591219    20.720132    21.461246    7822.4605    1893.0169    2620.9215   -322.56445   -521.01322    331.72477    923.10027   -3312.7115 
 5649000    266.87115   -3880.0493   -3422.6413   -3880.0493            0    2456.2681    17.578211    20.704811    21.445377    7805.1208    3362.0003     2190.088    1816.7159    1205.4053   -627.05363    656.29527   -3143.0451 
 5650000    256.34116   -3897.0569   -3457.6969   -3897.0569            0    1373.2212    17.555376    20.677914    21.417518    7774.7422    63.741356    3135.2961    920.62619    338.21364   -113.90677    282.50475    -3301.992 
 5651000    257.85398   -3845.9724   -3404.0195   -3845.9724            0    2755.4493    17.676245    20.820281    21.564977    7936.4374    2856.6002    2927.3704    2482.3775   -20.465267   -1095.4538    309.71501   -3085.0906 
 5652000    249.32331   -3891.7805   -3464.4489   -3891.7805            0    1407.8807    17.635871    20.772727    21.515722    7882.1801    2054.0882    1003.5076    1166.0462   -11.661508   -699.89266    443.93914   -3302.6081 
 5653000    256.66935   -3875.8832   -3435.9607   -3875.8832            0    2893.1783    17.524863    20.641974    21.380292    7734.2727    3906.1862    2796.7191    1976.6295   -343.06781   -686.74214    327.94453   -3109.6205 
 5654000    247.32866   -3877.8377   -3453.9249   -3877.8377            0     1886.162    17.548887    20.670271    21.409601    7766.1237    3029.6175    980.20705    1648.6613    382.12805   -337.96825    217.77272   -3240.2964 
 5655000    249.07973   -3874.4883   -3447.5742   -3874.4883            0    2012.0896    17.614146    20.747137    21.489216    7853.0856    703.81262    3388.2324    1944.2238   -1555.7022    903.29918     719.6433   -3217.1311 
 5656000    246.46199   -3902.2615   -3479.8341   -3902.2615            0    2806.9076    17.553496    20.675699    21.415224    7772.2444    4567.1921    2401.7025    1451.8283    406.32017    100.77367    428.37835   -3161.6705 
 5657000    246.75373   -3874.6663   -3451.7388   -3874.6663            0    3224.1905    17.543181     20.66355    21.402639    7758.5507    4000.8037     2774.813    2896.9548    780.56512   -1437.6703    430.10004     -3086.92 
 5658000    264.05909   -3899.0456   -3446.4574   -3899.0456            0    1970.5738      17.5381    20.657566    21.396442    7751.8123    1726.8488    1824.7828    2360.0899   -769.84016   -216.66219    1393.7907   -3223.6796 
 5659000    259.11466   -3876.6091   -3432.4955   -3876.6091            0    2751.1932    17.623607    20.758281    21.500759    7865.7466    3091.2267    2598.8684    2563.4844   -571.96198   -277.41654   -395.40783   -3116.8955 
 5660000    268.77015   -3847.8741   -3387.2113   -3847.8741            0    1158.6677    17.677806     20.82212    21.566881    7938.5402    864.38134    454.85925    2156.7626     318.2153   -9.8202969   -187.62093    -3253.066 
 5661000    252.91527   -3894.7789   -3461.2907   -3894.7789            0    3918.4252    17.526286     20.64365    21.382028    7736.1566    5360.8159    3827.5385    2566.9214   -1313.7199    157.32581   -785.75469   -3019.1987 
 5662000    240.55816   -3887.3622   -3475.0537   -3887.3622            0    1599.1416    17.642771    20.780854     21.52414    7891.4354    2779.1921    1456.3566    561.87602    311.68962    -348.8312   0.37997621   -3291.0109 
 5663000    259.67483   -3907.6536   -3462.5798   -3907.6536            0    1693.3295    17.701745    20.850318    21.596088    7970.8359    2055.4947    1911.8779     1112.616   -579.63627    895.76165   -849.08536   -3265.7363 
 5664000    251.41896   -3905.4539   -3474.5304   -3905.4539            0    2027.4224    17.647034    20.785875    21.529341    7897.1572    3424.9335    153.97691    2503.3569    467.06735   -1490.7929   -870.08535   -3241.0282 
 5665000    253.50252    -3899.924   -3465.4294    -3899.924            0    2601.9065    17.643782    20.782045    21.525373     7892.792    2684.5845    2054.3043    3066.8306    514.46088   -60.417539     332.5997   -3165.9284 
 5666000    260.66069   -3895.1841   -3448.4206   -3895.1841            0    2061.6715    17.647681    20.786637    21.530129    7898.0247    2010.0747    3154.4579     1020.482   -607.11609   -156.64067    184.57771   -3210.9478 
 5667000    232.92496   -3899.0954     -3499.87   -3899.0954            0    403.21042    17.655523    20.795874    21.539696    7908.5585   -662.30641    468.65094    1403.2867   -729.71906    953.79867   -1332.8619   -3453.3644 
 5668000    271.34815   -3885.2939   -3420.2124   -3885.2939            0    2827.3457    17.712946    20.863511    21.609753     7985.976    2431.9983    3077.0518    2972.9871   -110.88878   -626.92151    -960.9366   -3090.9192 
 5669000    270.00892   -3884.6764   -3421.8904   -3884.6764            0     1700.858    17.710394    20.860505     21.60664    7982.5248    1639.9771       2424.4    1038.1971   -35.184345    1493.8237   -898.47216   -3223.8817 
 5670000    259.91947     -3877.16   -3431.6669     -3877.16            0    1919.9573    17.593939    20.723336    21.464564    7826.0895    1169.4762    1950.6552    2639.7405   -506.87021    1832.0453    420.50322   -3212.5317 
 5671000    263.36025   -3907.5342   -3456.1438   -3907.5342            0     980.1335    17.623775    20.758479    21.500964    7865.9718    2050.2507    644.90344    245.24642    598.29511    246.00454     166.7638   -3343.7057 
 5672000    255.38303   -3897.3051   -3459.5873   -3897.3051            0     2378.542     17.64046    20.778131     21.52132     7888.334    1685.2778    3491.7696    1958.5786   -237.11475    -1129.768    473.32952   -3185.9521 
 5673000    251.59815   -3866.2408   -3435.0102   -3866.2408            0       1631.8    17.533504    20.652151    21.390834    7745.7187    1241.9514    2290.6844    1362.7641    561.47595   -427.46631   -263.73436   -3250.6765 
 5674000    259.91106   -3893.2301   -3447.7515   -3893.2301            0    3233.5034    17.566882    20.691466    21.431555    7790.0391     2702.973    3559.6469    3437.8903    221.91354   -1237.0196    2.6491168    -3080.394 
 5675000    258.27351   -3864.4779   -3421.8059   -3864.4779            0     4571.341    17.491053     20.60215    21.339044    7689.5945    4247.5312    4399.3056    5067.1864    1555.3571   -555.14394    -1667.849   -2909.1536 
 5676000    254.94914    -3875.542   -3438.5679    -3875.542            0     1948.493    17.534916    20.653815    21.392557    7747.5908    2156.1693    1633.7079    2055.6017    20.234327    177.29514    482.32477   -3218.4064 
 5677000    269.49253   -3865.9235   -3404.0225   -3865.9235            0    960.08464    17.552406    20.674416    21.413894    7770.7968    -677.5378    2210.5883    1347.2034   -923.14508    51.629767   -150.57815    -3295.217 
 5678000    253.06762   -3853.0714   -3419.3221   -3853.0714            0    3430.2418    17.513263     20.62831    21.366139     7718.924    5736.5741    1105.1222     3449.029   -1097.7505    787.81616    1032.6324    -3033.171 
 5679000     256.2743   -3889.7177   -3450.4723   -3889.7177            0    3813.7985    17.522375    20.639043    21.377257    7730.9791    3397.8199    3392.9375     4650.638    1733.6078   -63.770127    576.41858   -3020.4726 
 5680000    253.60205   -3889.6734   -3455.0081   -3889.6734            0    940.59431    17.522529    20.639225    21.377445    7731.1834     177.8312    651.33897    1992.6128    1000.8687   -615.50112    721.80002   -3348.9548 
 5681000    264.86559   -3901.6721   -3447.7015   -3901.6721            0    3768.8173    17.513339      20.6284    21.366233    7719.0256    4248.6119    2355.5987    4702.2412    1179.0237    730.56049   -866.07484   -3023.4304 
 5682000    277.59533   -3881.4617   -3405.6728   -3881.4617            0    2047.7163    17.515318    20.630732    21.368648    7721.6427     1906.012     3078.386     1158.751   -551.76237   -1816.6033   -543.58601   -3175.0749 
 5683000    254.22168   -3902.8331   -3467.1059   -3902.8331            0    1945.2027    17.598599    20.728825     21.47025    7832.3102    2637.5383    2163.8636    1034.2063   -375.53313    463.89045    527.80095   -3244.9127 
 5684000    263.96167   -3925.8272    -3473.406   -3925.8272            0    3775.5586    17.443216    20.545805    21.280683    7626.6759     4929.187    2942.6816    3454.8073   -118.80938   -1381.2235    1049.6425    -3053.461 
 5685000    258.98272   -3863.5948   -3419.7073   -3863.5948            0    2387.4198    17.546488    20.667445    21.406674     7762.939    2576.1294    2274.5846    2311.5453   -1124.9044    466.75846   -326.75136   -3149.4167 
 5686000    275.83626   -3902.8191   -3430.0452   -3902.8191            0    1883.7572    17.586719    20.714832    21.455756    7816.4595    2728.3335    1021.9877    1900.9503   -830.39438    -120.8008   -129.88162   -3215.3063 
 5687000    256.84769   -3897.5794   -3457.3512   -3897.5794            0    2520.4286    17.572976    20.698645     21.43899    7798.1493    3681.5688    2384.6261    1495.0908    171.34406    587.72481   -473.58389   -3170.7079 
 5688000    273.51453   -3874.3004   -3405.5058   -3874.3004            0    3524.9241    17.533521    20.652172    21.390855    7745.7417    3211.3396    2511.3125    4852.1202    198.62253    -187.7303    -1434.043   -3007.3174 
 5689000    256.04557   -3916.8845   -3478.0311   -3916.8845            0    5705.7822    17.478606    20.587489    21.323859    7673.1904    5053.0714    4627.6132     7436.662    1230.6079    -805.3874    297.42818   -2839.5221 
 5690000     260.9526   -3842.7289   -3395.4651   -3842.7289            0    3341.9625    17.647666     20.78662    21.530112    7898.0058    3622.0755      5549.58    854.23194    36.455471    245.90336   -1254.0692   -3010.5234 
 5691000    269.55088   -3870.7896   -3408.7886   -3870.7896            0    2667.1987       17.602    20.732831    21.474399    7836.8519    2955.2297    2035.4707    3010.8957   -396.30493   -19.174786   -1210.9876   -3103.9479 
 5692000     258.6359   -3869.0607   -3425.7677   -3869.0607            0    3027.1291    17.583804    20.711399      21.4522    7812.5735    4669.5349    2029.0534     2382.799    418.11552   -1018.9184   -1137.0222   -3080.8615 
 5693000    257.57679    -3851.186   -3409.7082    -3851.186            0    2527.2738    17.551318    20.673134    21.412567    7769.3517    2411.3744    2292.4199    2878.0273   -54.896878    769.71435    1382.5442   -3123.3478 
 5694000    269.85789   -3855.1696   -3392.6424   -3855.1696            0     1807.948    17.570504    20.695732    21.435973    7794.8583     1927.562    2702.4842    793.79777    864.11217    775.39367    563.80803   -3187.1149 
 5695000    254.63934   -3877.2341    -3440.791   -3877.2341            0    2496.9629    17.593073    20.722316    21.463508    7824.9339    2942.2169    1326.9043    3221.7675   -1030.7355    399.27106    529.79765    -3155.841 
 5696000    254.10874   -3867.0635   -3431.5298   -3867.0635            0    2285.6246    17.598544     20.72876    21.470182    7832.2364    2565.5955    2368.8535    1922.4249    1667.0827   -132.41031    1162.0004    -3170.454 
 5697000    249.11137   -3860.9295   -3433.9612   -3860.9295            0    2898.4129      17.5995    20.729886    21.471349    7833.5128    3387.9868    2105.9668    3201.2851    502.92635    1252.8231    273.06263   -3102.8356 
 5698000    262.42002    -3885.644   -3435.8651    -3885.644            0    1608.8792    17.649331    20.788581    21.532143     7900.241    1273.7955    2491.5663    1061.2758   -929.90042   -220.46297   -603.89175    -3250.495 
 5699000    262.94396   -3883.9419   -3433.2649   -3883.9419            0    2907.8857    17.552538    20.674572    21.414056    7770.9728      3373.07    3857.0774    1493.5097   -377.27114    6.9716789   -417.06319   -3103.7094 
 5700000    248.34371   -3851.9131   -3426.2605   -3851.9131            0    2062.4991    17.609284     20.74141    21.483285    7846.5843    438.05543    3205.3155    2544.1264    365.06264    1398.2139   -571.79669   -3190.2397 
 5701000      262.375   -3907.8391   -3458.1374   -3907.8391            0    2263.0759    17.645459     20.78402    21.527419     7895.043    1105.0821    3048.0849    2636.0606   -294.11649    169.39415    751.86787   -3197.5643 
 5702000    268.28765   -3887.4909   -3427.6551   -3887.4909            0    2252.2876    17.581739    20.708966    21.449681    7809.8209    2759.6432    1039.1621    2958.0574   -536.30134    1049.1226    1416.8093   -3171.1235 
 5703000    256.19202   -3904.5301   -3465.4258   -3904.5301            0    2653.8801    17.517679    20.633512    21.371528    7724.7652    3093.4426    2834.2764    2033.9213    339.52879   -2343.5056    311.60056   -3166.4456 
 5704000    246.03058   -3903.0293   -3481.3413   -3903.0293            0    3919.3592    17.589361    20.717944    21.458979    7819.9822    2694.2959    4607.5072    4456.2745   -1511.1697   -412.52497    539.15413   -3034.3524 
 5705000     248.2476    -3908.223   -3482.7352    -3908.223            0    2235.6999    17.568816    20.693745    21.433915    7792.6126    3568.0424     2007.959    1131.0984   -237.24849    -509.7651    586.32919    -3228.654 
 5706000    256.20356   -3898.2144   -3459.0903   -3898.2144            0    4257.7426    17.467358     20.57424    21.310136    7658.3857    5423.3996    4816.7937    2533.0345   -724.04389   -212.56095    920.64576   -2983.5443 
 5707000    258.13285   -3910.4828   -3468.0519   -3910.4828            0    3490.3369    17.517561    20.633373    21.371384    7724.6092     3015.004    5640.9565    1815.0501    1580.7369    110.87659    668.92779   -3074.8463 
 5708000     266.2605   -3901.7287   -3445.3673   -3901.7287            0    3319.6744    17.522711     20.63944    21.377667    7731.4245    1832.0393    4301.5867    3825.3972   -190.52196    13.309655   -14.838296   -3071.0578 
 5709000    255.50071   -3895.4574   -3457.5379   -3895.4574            0    4685.9749    17.536288    20.655431    21.394231    7749.4096    5881.8505    3263.9916    4912.0827   -1059.8632   -77.549487   -1470.5801   -2927.9422 
 5710000    261.59491   -3855.7621   -3407.3974   -3855.7621            0    2039.0265    17.488314    20.598923    21.335702    7685.9824    2869.9066    2946.4165    300.75628   -337.62535    620.08959   -1190.3144   -3178.8385 
 5711000     265.7926   -3900.3017   -3444.7423   -3900.3017            0    2313.2625    17.577843    20.704377    21.444927    7804.6298    1650.0344    1816.2325    3473.5207   -185.08642    637.88467   -1683.8395   -3181.4409 
 5712000    255.85756   -3847.9932   -3409.4621   -3847.9932            0     2230.073    17.574832    20.700831    21.441254    7800.6208    2345.5715    1690.3477    2654.2998   -27.125669    1005.2543    220.77349     -3155.76 
 5713000    269.06935   -3853.4681   -3392.2924   -3853.4681            0    485.47719    17.643838    20.782111    21.525441    7892.8668    1144.2795    734.36483   -422.21276    385.82686    1357.8887    96.955018   -3336.4094 
 5714000    256.85618   -3884.3166   -3444.0739   -3884.3166            0    2575.1854     17.67543    20.819321    21.563983    7935.3397    3320.6566     1873.876    2531.0236    677.79014   -593.49811    209.26552   -3146.0509 
 5715000    250.24024   -3923.8558   -3494.9526   -3923.8558            0    3080.3357    17.556045    20.678702    21.418333    7775.6305    4478.7707    3126.6104    1635.6258   -916.23503    700.16733   -431.15284   -3145.6438 
 5716000    271.54334   -3917.2193   -3451.8033   -3917.2193            0    1971.5305    17.618314    20.752047    21.494302    7858.6623    2913.0693    1991.8679    1009.6544    -858.8815    561.80556    51.409658   -3225.8452 
 5717000    261.86825   -3910.5804   -3461.7472   -3910.5804            0    2197.8545    17.582775    20.710187    21.450945    7811.2021   -144.80635    2584.8053    4153.5645    1522.2244    216.08438   -1446.2659   -3211.3712 
 5718000    264.85965   -3892.5767   -3438.6163   -3892.5767            0    3666.9313    17.514029    20.629213    21.367074    7719.9375    3622.1199    3994.9773    3383.6969   -1061.8702    292.46593    -180.2788   -3025.7662 
 5719000    258.52971   -3845.4085   -3402.2974   -3845.4085            0    1949.0433    17.592557    20.721708    21.462878    7824.2459    1720.6166    2046.3821    2080.1313   -59.327885    51.448855    395.02665   -3179.8948 
 5720000    249.80202   -3897.5768   -3469.4247   -3897.5768            0    3239.8116     17.54471     20.66535    21.404505    7760.5793    1252.6788    3681.7602    4784.9958    146.61012    638.64841    1283.4171   -3102.7425 
 5721000    253.91611   -3870.4163   -3435.2128   -3870.4163            0    1027.8972    17.615061    20.748215    21.490333    7854.3102    658.55386    1311.5679    1113.5699   -199.70449    654.62503    1348.7899   -3317.4702 
 5722000    259.93429    -3933.117   -3487.5985    -3933.117            0    1414.6257    17.566676    20.691224    21.431304    7789.7657    1245.0054   -730.10082    3728.9724    924.29661   -611.23589    -624.5397   -3326.8889 
 5723000    252.89892   -3920.1137   -3486.6536   -3920.1137            0    2600.6633    17.549469    20.670957    21.410311    7766.8971    4750.8573    1376.5205     1674.612    318.79541   -966.65915   -136.42472   -3192.0707 
 5724000    257.19651   -3885.8851   -3445.0591   -3885.8851            0    2565.5443    17.591201    20.720111    21.461224    7822.4367    3536.6865    393.38208    3766.5643    1007.7721   -1481.1736    1469.9452   -3152.3761 
 5725000    255.30258   -3893.6641   -3456.0842   -3893.6641            0    2697.9593    17.634628    20.771263    21.514205    7880.5136    1798.6247    2588.8346    3706.4186    1763.2333    185.42379   -438.50384   -3146.0099 
 5726000    247.48708   -3844.8397   -3420.6553   -3844.8397            0    2097.7285    17.596578    20.726444    21.467784    7829.6118    2417.4156    847.77315    3027.9966   -61.942538   -706.47216    356.85553   -3181.1223 
 5727000    268.85143   -3838.3605   -3377.5583   -3838.3605            0    1555.5183    17.603524    20.734626    21.476258    7838.8877    1250.9485    2412.5374     1003.069    51.059758   -1080.0566   -678.61752   -3199.7282 
 5728000    275.96388   -3858.2705   -3385.2779   -3858.2705            0    3554.6906    17.487083    20.597473      21.3342    7684.3595    3610.2302     4900.164    2153.6777   -127.44061    341.91637   -1026.0853    -2986.909 
 5729000    262.01109   -3848.2401   -3399.1621   -3848.2401            0    2265.6897    17.658856      20.7998    21.543763    7913.0388     2761.872    1321.6344    2713.5627    586.89911   -240.00397    906.49546   -3137.6935 
 5730000    268.18902    -3841.041   -3381.3742    -3841.041            0    3896.7438    17.546104    20.666993    21.406206    7762.4303    4595.2979    5582.1779    1512.7555    1084.5929   -126.12563   -591.61166   -2940.2352 
 5731000    271.24065   -3837.5563   -3372.6592   -3837.5563            0    3233.6904    17.488718      20.5994    21.336195    7686.5155    2986.9796    3651.6258    3062.4658    306.95676   -157.21471   -126.36539   -3010.1626 
 5732000    260.45911   -3852.7466   -3406.3286   -3852.7466            0    2986.2471    17.578846    20.705559    21.446152    7805.9669    2843.6562    3485.9002    2629.1848   -265.29662   -824.77779    416.88491   -3066.3682 
 5733000     244.7336   -3851.6196   -3432.1546   -3851.6196            0    3189.0238    17.570379    20.695586    21.435822    7794.6929    3525.5064    2731.4481    3310.1169    324.57103   -414.64804    607.55007    -3069.634 
 5734000    259.59349   -3808.5962   -3363.6619   -3808.5962            0     4131.503    17.622064    20.756463    21.498876    7863.6809    5371.5898    3424.4509    3598.4683    876.11459    943.78422    -569.4988   -2889.8458 
 5735000     251.3579   -3859.6819   -3428.8631   -3859.6819            0    2336.6426    17.640733    20.778454    21.521653    7888.7008     3354.323    2947.2276    708.37717    254.23148   -213.06871     1551.882   -3160.0356 
 5736000    258.46462   -3865.4242   -3422.4247   -3865.4242            0    1632.9254    17.701749    20.850322    21.596092    7970.8403    947.59726    1077.2081    2873.9709   -1206.3547   -261.75087    546.58916   -3232.6028 
 5737000    249.36754   -3871.8458   -3444.4383   -3871.8458            0    2413.7702    17.674129    20.817789    21.562396    7933.5875    1394.5106    2305.1828    3541.6173    80.882614   -333.03562    767.44056   -3165.1573 
 5738000    268.12564   -3892.2175   -3432.6593   -3892.2175            0    1395.6237    17.678233    20.822623    21.567402    7939.1154    1580.2057    1673.6472    933.01824   -639.00468   -1.5856239   -1240.0527   -3271.0686 
 5739000    250.55135   -3878.5411   -3449.1047   -3878.5411            0    3597.0988    17.563492    20.687474    21.427419    7785.5303    2547.0459    4216.6365    4027.6141   -881.84692    1017.6479    3.1524377   -3040.6758 
 5740000    252.59061    -3873.739   -3440.8074    -3873.739            0    2941.7481    17.707766    20.857409    21.603433    7978.9715    1620.3665    2990.7655    4214.1123    370.39486   -1272.6143   -172.25668   -3098.4905 
 5741000    254.41324   -3905.6299   -3469.5744   -3905.6299            0    2512.6655    17.697486    20.845301    21.590892    7965.0836     3331.956    1162.7971    3043.2433    335.24512   -398.68531    240.43132   -3177.6967 
 5742000    257.69594   -3847.9483   -3406.2662   -3847.9483            0    2066.8907    17.654403    20.794555    21.538331    7907.0544    2644.0621   -126.75715     3683.367    344.79852    263.89339   -1514.0221   -3167.9201 
 5743000    269.76367   -3869.3104   -3406.9447   -3869.3104            0    2993.5773    17.659424    20.800468    21.544455    7913.8015    2707.6838    2547.3918    3725.6564    330.52385   -678.02951   -720.43829   -3061.4419 
 5744000    258.68295   -3859.7256   -3416.3518   -3859.7256            0    2971.0875    17.631382    20.767439    21.510245    7876.1624    2734.2278     2484.386    3694.6488     229.5953   -197.53542   -461.93587   -3075.0757 
 5745000    264.22056   -3851.0934   -3398.2284   -3851.0934            0    1656.0373    17.710445    20.860565    21.606702    7982.5934     1995.664      1779.57    1192.8778    689.57779    1467.2561    -158.3975   -3205.4359 
 5746000    254.93329   -3871.7953   -3434.8484   -3871.7953            0    1551.0633    17.591682    20.720678    21.461811    7823.0788    692.44712    2394.7665    1565.9763   -381.88816    874.75662   -128.37848   -3257.8851 
 5747000    268.53263   -3889.7766   -3429.5209   -3889.7766            0    2801.7062    17.454575    20.559184    21.294541    7641.5845    5495.3761     2485.508    424.23458    435.82522   -444.04797    1075.4885   -3117.2856 
 5748000    264.10253   -3853.0822   -3400.4195   -3853.0822            0    1249.9008    17.559646    20.682943    21.422727    7780.4164    1431.7364    122.72536    2195.2406   -1016.1028    505.86079    -356.0945    -3258.594 
 5749000    238.24298   -3880.3534   -3472.0131   -3880.3534            0    1290.6422    17.628493    20.764037    21.506721    7872.2916     752.5077    3922.4131   -802.99421   -405.49973   -515.19555    1211.0937   -3323.8354 
 5750000     271.4245   -3884.6745   -3419.4622   -3884.6745            0    2532.4016    17.588708    20.717175    21.458183    7819.1119    2387.9973    2127.1885     3082.019    168.83794   -379.05862    2142.5635    -3130.683 
Loop time of 458.864 on 64 procs for 250000 steps with 864 atoms

Performance: 94.146 ns/day, 0.255 hours/ns, 544.824 timesteps/s
99.0% CPU use with 64 MPI tasks x 1 OpenMP threads

MPI task timing breakdown:
Section |  min time  |  avg time  |  max time  |%varavg| %total
---------------------------------------------------------------
Pair    | 19.677     | 24.131     | 28.396     |  44.8 |  5.26
Bond    | 0.27204    | 0.27911    | 0.29487    |   1.0 |  0.06
Kspace  | 212.94     | 220.61     | 225.62     |  18.9 | 48.08
Neigh   | 5.0883     | 5.5996     | 5.8577     |   8.2 |  1.22
Comm    | 94.967     | 98.66      | 105.27     |  21.0 | 21.50
Output  | 1.1631     | 1.1645     | 1.1782     |   0.2 |  0.25
Modify  | 98.373     | 101.75     | 106.45     |  15.0 | 22.17
Other   |            | 6.675      |            |       |  1.45

Nlocal:        13.5000 ave          19 max           8 min
Histogram: 4 5 6 11 7 11 3 6 5 6
Nghost:        2068.50 ave        2107 max        2026 min
Histogram: 3 4 8 7 4 7 16 7 4 4
Neighs:        3949.56 ave        6043 max        2228 min
Histogram: 3 4 9 14 12 6 6 4 4 2

Total # of neighbors = 252772
Ave neighs/atom = 292.56019
Ave special neighs/atom = 2.0000000
Neighbor list builds = 13785
Dangerous builds = 0

unfix		3
unfix		2
unfix		1

write_data	data.final.${pid}
write_data	data.final.0
System init for write_data ...
PPPM initialization ...
  extracting TIP4P info from pair style
  using 12-bit tables for long-range coulomb (../kspace.cpp:340)
  G vector (1/distance) = 0.37289332
  grid = 24 24 25
  stencil order = 5
  estimated absolute RMS force accuracy = 0.0032270744
  estimated relative force accuracy = 9.7182387e-06
  using double precision FFTW3
  3d grid and FFT values/proc = 2730 288
Last active /omp style is kspace_style pppm/tip4p/omp
WARNING: Not all mixed pair coeffs generated from mixing. Use write_data with 'pair ij' option to store all pair coeffs. (../write_data.cpp:312)

write_restart   restart.lmp.${pid}
write_restart   restart.lmp.0
System init for write_restart ...
PPPM initialization ...
  extracting TIP4P info from pair style
  using 12-bit tables for long-range coulomb (../kspace.cpp:340)
  G vector (1/distance) = 0.37289332
  grid = 24 24 25
  stencil order = 5
  estimated absolute RMS force accuracy = 0.0032270744
  estimated relative force accuracy = 9.7182387e-06
  using double precision FFTW3
  3d grid and FFT values/proc = 2730 288
Last active /omp style is kspace_style pppm/tip4p/omp
Total wall time: 0:07:42
