LAMMPS (30 Jul 2021)
Processor partition = 1
  using 2 OpenMP thread(s) per MPI task
using multi-threaded neighbor list subroutines
variable        pid world 0 1
variable        phase world IceVI IceV

shell cd ${phase}
shell cd IceV
include Restart.lmp
echo both
log log.lammps
#include		in.partitions
include		in.temp
variable        temperature equal 228.27
variable	tempDamp equal 100.0
include		in.pressure
variable        pressure equal 8366.5
variable        pressureDamp equal 1000.0 # This is 1 ps
include		in.seed
variable        seed equal 745823

units		real
atom_style	full
read_restart    restart.lmp.${pid}
read_restart    restart.lmp.1
Reading restart file ...
  restart file = 30 Jul 2021, LAMMPS = 30 Jul 2021
  restoring atom style full from restart
  triclinic box = (-3.1301425 -0.066126422 -0.048674982) to (14.740142 22.646125 19.278673) with tilt (-0.33373071 -6.4414774 0.25697942)
  2 by 4 by 4 MPI processor grid
  restoring pair style lj/cut/tip4p/long/omp from restart
  restoring bond style harmonic/omp from restart
  restoring angle style harmonic/omp from restart
  1008 atoms
  672 bonds
  336 angles
Finding 1-2 1-3 1-4 neighbors ...
  special bond factors lj:    0        0        0       
  special bond factors coul:  0        0        0       
     2 = max # of 1-2 neighbors
     1 = max # of 1-3 neighbors
     1 = max # of 1-4 neighbors
     2 = max # of special neighbors
  special bonds CPU = 0.002 seconds
  read_restart CPU = 0.007 seconds

include 	in.setup
variable	out_freq equal 1000
variable	out_freq2 equal 10000
variable	out_freq3 equal 1000

timestep	2.0

neigh_modify    delay 7 every 1

include		in.tip4p
# This is TIP4P/Ice

# create groups ###
group ox type 2
336 atoms in group ox
group hy type 1
672 atoms in group hy

# set charges - beside manually ###
set group ox charge -1.1794
Setting atom values ...
  336 settings made for charge
set group hy charge 0.5897
Setting atom values ...
  672 settings made for charge

# ### TIP3P Potential Parameters ###
pair_style lj/cut/tip4p/long/omp 2 1 1 1 0.1577 8.5
pair_coeff 1 1*2 0.000 0.000
pair_coeff 2 2 0.21084 3.1668
bond_style  harmonic
bond_coeff  1 450 0.9572
angle_style harmonic
angle_coeff 1 55 104.52
kspace_style pppm/tip4p/omp 1.0e-5
pair_modify tail yes

thermo          ${out_freq}
thermo          1000
thermo_style    custom step temp pe etotal epair emol press lx ly lz vol pxx pyy pzz pxy pxz pyz enthalpy

restart 	${out_freq3} restart.lmp.${pid} restart2.lmp.${pid}
restart 	1000 restart.lmp.${pid} restart2.lmp.${pid}
restart 	1000 restart.lmp.1 restart2.lmp.${pid}
restart 	1000 restart.lmp.1 restart2.lmp.1


include         in.dump
dump            myDump all atom ${out_freq2} dump.water.${pid}
dump            myDump all atom 10000 dump.water.${pid}
dump            myDump all atom 10000 dump.water.1
dump            myDump2 all dcd ${out_freq2} dump.dcd
dump            myDump2 all dcd 10000 dump.dcd
dump_modify     myDump append yes
dump_modify     myDump2 append yes


variable natoms 	equal  "count(all)"                        # NUMBER ATOMS
variable H      	equal  "enthalpy/v_natoms"                 # ENTHALPY-per-atom
variable Vol      	equal  "vol/v_natoms"                 # volume-per-atom
fix AVG all 		ave/time ${out_freq} 1 ${out_freq} v_Vol v_H file vol_enthalpy.dat
fix AVG all 		ave/time 1000 1 ${out_freq} v_Vol v_H file vol_enthalpy.dat
fix AVG all 		ave/time 1000 1 1000 v_Vol v_H file vol_enthalpy.dat



fix 		1 all shake 1e-6 200 0 b 1 a 1
Finding SHAKE clusters ...
       0 = # of size 2 clusters
       0 = # of size 3 clusters
       0 = # of size 4 clusters
     336 = # of frozen angles
  find clusters CPU = 0.001 seconds
fix             2 all nph tri ${pressure} ${pressure} ${pressureDamp}
fix             2 all nph tri 8366.5 ${pressure} ${pressureDamp}
fix             2 all nph tri 8366.5 8366.5 ${pressureDamp}
fix             2 all nph tri 8366.5 8366.5 1000
fix             3 all temp/csvr ${temperature} ${temperature} ${tempDamp} ${seed}
fix             3 all temp/csvr 228.27 ${temperature} ${tempDamp} ${seed}
fix             3 all temp/csvr 228.27 228.27 ${tempDamp} ${seed}
fix             3 all temp/csvr 228.27 228.27 100 ${seed}
fix             3 all temp/csvr 228.27 228.27 100 745823


run             250000
PPPM initialization ...
  extracting TIP4P info from pair style
  using 12-bit tables for long-range coulomb (../kspace.cpp:340)
  G vector (1/distance) = 0.38015866
  grid = 24 27 32
  stencil order = 5
  estimated absolute RMS force accuracy = 0.0023450625
  estimated relative force accuracy = 7.0620861e-06
  using double precision FFTW3
  3d grid and FFT values/proc = 5355 672
Last active /omp style is kspace_style pppm/tip4p/omp
Neighbor list info ...
  update every 1 steps, delay 7 steps, check yes
  max neighbors/atom: 2000, page size: 100000
  master list distance cutoff = 10.8154
  ghost atom cutoff = 10.8154
  binsize = 5.4077, bins = 5 5 4
  1 neighbor lists, perpetual/occasional/extra = 1 0 0
  (1) pair lj/cut/tip4p/long/omp, perpetual
      attributes: half, newton on, omp
      pair build: half/bin/newton/tri/omp
      stencil: half/bin/3d/tri
      bin: standard
Setting up Verlet run ...
  Unit style    : real
  Current step  : 7250000
  Time step     : 2
Per MPI rank memory allocation (min/avg/max) = 10.31 | 10.32 | 10.33 Mbytes
Step Temp PotEng TotEng E_pair E_mol Press Lx Ly Lz Volume Pxx Pyy Pzz Pxy Pxz Pyz Enthalpy 
 7250000    225.98048   -4860.2003   -4408.2114   -4860.2003            0    10222.314    17.870284    22.712252    19.327348    7844.4756    9860.7497    10909.321    9896.8712    1382.1962    225.03837    -687.6212   -3238.7416 
 7251000    222.00984   -4894.4318   -4450.3847   -4894.4318            0    7857.9036    17.947697    22.848124    19.274996    7904.1209    7851.9599    7597.1884    8124.5624    143.01857    688.36907    951.53747   -3544.5766 
 7252000    236.13794   -4913.7838   -4441.4787   -4913.7838            0    7697.0916    18.018494    22.954062    19.168781    7928.1623    5386.2134    8616.9305     9088.131    191.83942   -107.53504   -1127.9032   -3551.5093 
 7253000    219.64053   -4891.7021   -4452.3939   -4891.7021            0    6987.2995    17.960747    22.834686    19.345794     7934.252    6527.2176    7676.6243    6758.0566    1124.0156     421.6508    385.15196   -3643.8731 
 7254000    218.81552   -4917.3904   -4479.7324   -4917.3904            0    8681.7448    17.885692     22.88534    19.208764    7862.5339    10633.987    7046.4704    8364.7768   -934.47082   -949.56583   -1334.2521   -3484.2228 
 7255000    231.54796   -4908.1966   -4445.0721   -4908.1966            0    8782.0246    17.958886    22.834615    19.160094    7857.2529    8624.3685    8665.0641    9056.6411   -825.84495    -928.7297    446.08273   -3438.7401 
 7256000    233.93018   -4894.8433   -4426.9541   -4894.8433            0    8811.9519    17.865369    22.710052    19.417905    7878.2995    8292.1684    9440.2054     8703.482   -970.38397   -33.168594   -195.69558    -3414.488 
 7257000     231.5523   -4901.5281   -4438.3949   -4901.5281            0    9956.5037    17.972155    22.630207    19.291934     7846.292    10055.333    9328.1921    10485.986   -635.35154   -422.90088    712.30516    -3299.071 
 7258000     226.7439   -4898.7945   -4445.2787   -4898.7945            0     8751.656    18.068686    22.740769    19.251431    7910.3325     8078.081    9527.2273    8649.6596    645.52327    394.62133    816.06531   -3435.6519 
 7259000    231.20978   -4871.5435   -4409.0954   -4871.5435            0    9818.9088    17.994905    22.469705    19.421325    7852.8225    9743.8336    9864.9462    9847.9465    1118.6716    364.26205    1474.4727   -3284.5813 
 7260000    233.90505   -4903.0219   -4435.1829   -4903.0219            0    7414.3945     17.96587    22.646578    19.421521    7901.9462    7586.2258    8702.6767    5954.2808    530.68706   -836.63044   -196.13821   -3580.7349 
 7261000    232.31082   -4913.0079   -4448.3575   -4913.0079            0    8749.0063     18.10597    22.685787      19.2354    7900.9053    8539.8306     8196.767    9510.4212   -169.54062    -533.4907   -8.0035434   -3440.2393 
 7262000    231.05098   -4866.6787   -4404.5482   -4866.6787            0    8383.7626    17.798594    22.820009    19.588528    7956.1566    9728.2441    8423.6652    6999.3787    -1538.288   -908.80119   -816.45059   -3431.7602 
 7263000      234.528   -4880.0733   -4410.9884   -4880.0733            0    8685.6144    17.867112    22.947319     19.27102    7901.1627    9725.1571    8831.2233    7500.4627   -2040.7415     40.65406    754.29482    -3410.142 
 7264000    230.73216    -4903.883   -4442.3901    -4903.883            0    7644.3795    18.007668    22.931409    19.099206    7886.8489    7369.9332    7716.0059    7847.1994    662.69878   -150.37054   -424.02121   -3563.1214 
 7265000    227.22619   -4892.5753   -4438.0949   -4892.5753            0    9895.9266    17.644709      22.8094    19.507094     7850.927    10989.689    9556.0767    9142.0139   -793.23737    146.94007    928.85137   -3305.0339 
 7266000     240.0392   -4920.7574   -4440.6494   -4920.7574            0    7798.5885    17.939008    22.938573    19.241178     7917.653    7076.3192    7830.4077    8489.0385    324.58854     937.8094    1469.5155   -3540.1397 
 7267000    236.73365   -4914.1446   -4440.6481   -4914.1446            0    9125.8909    17.912378    22.941709    19.141894    7866.1808    8646.4983    8714.1703    10017.004   -554.33041   -83.877016    -1524.977   -3393.7242 
 7268000     221.3102    -4905.294   -4462.6463    -4905.294            0    8342.6045    17.680425    23.239307    19.221499    7897.7455    9194.0594    8250.2944    7583.4597   -652.22691     562.7449    604.66547   -3501.7408 
 7269000    223.34015    -4889.052   -4442.3441    -4889.052            0    8949.5327    17.978988    23.116638    18.937253    7870.5827    7556.7009    8293.3038    10998.593    350.50092   -465.10852    1336.2342   -3415.0776 
 7270000    231.02337   -4912.3261   -4450.2508   -4912.3261            0    9439.4749     17.86622    23.008497    19.110734    7855.9427    9137.3141    8977.7059    10203.405    445.04615    585.26932   -631.55335    -3368.762 
 7271000    222.37987   -4913.2743   -4468.4871   -4913.2743            0    7473.6256    17.831968    22.876307    19.399085    7913.4604    7063.2577    8029.4999    7328.1193   -179.57255    459.95858   -1363.3836   -3605.9582 
 7272000    229.53004   -4903.6986   -4444.6101   -4903.6986            0    8156.7231    18.057647     22.77265    19.212953    7900.7593    6707.4168    8046.4513    9716.3011     362.5538    176.96212    -380.7146    -3504.756 
 7273000    225.03101   -4925.8962   -4475.8063   -4925.8962            0    7386.4343    17.983948    22.729423    19.368725    7917.2524    6620.9587    7573.9245    7964.4196   -269.49027   -762.71386    495.04816   -3622.9317 
 7274000    245.05097   -4901.9093   -4411.7771   -4901.9093            0    6727.4613    18.203614    22.402223    19.552775    7973.6493    7524.3273    7181.8573    5476.1991   -971.66385   -1328.4384    134.89326   -3629.4575 
 7275000    235.45474   -4892.2264   -4421.2878   -4892.2264            0    8149.0188     18.15651    22.611673    19.318164    7931.0542    6691.0074    8672.2665    9083.7824    1927.4156   -444.80729    452.81087    -3478.721 
 7276000    249.57615   -4932.7461   -4433.5629   -4932.7461            0    6332.2597    18.007756    22.684805     19.48871    7961.1852    6344.4186    7575.5921    5076.7684   -897.01519    1417.6788   -222.34403   -3698.3513 
 7277000    234.72765   -4883.9022   -4414.4179   -4883.9022            0    9467.7976    18.145231    22.775716    19.068436    7880.4244    7762.0629    10315.051     10326.28    137.70512    206.82714    329.92015   -3326.3037 
 7278000    238.25834   -4919.4944   -4442.9482   -4919.4944            0    10434.917    17.952679    22.739661    19.127088    7808.4014    10577.548    10661.705    10065.499   -326.62616    1251.3118   -2389.5467   -3254.6457 
 7279000    226.23658   -4893.4023   -4440.9012   -4893.4023            0    8236.4619    17.840704    23.044007     19.20292    7894.7293    8273.2247    8393.6131     8042.548    594.39716    1077.3547    190.91763   -3492.5835 
 7280000    239.35595   -4889.2738   -4410.5323   -4889.2738            0    9919.0096     17.88583      23.0346    19.055236    7850.6225    10437.221    9055.8715    10263.936    238.91378   -354.23316    575.01522   -3274.8724 
 7281000     239.6713   -4893.2642   -4413.8919   -4893.2642            0    9083.4722    17.922649    22.925414    19.195277    7887.0351    8445.1823    8808.8501    9996.3841   -634.10794   -824.79321    213.75884   -3369.0718 
 7282000    232.43441   -4900.8144   -4435.9169   -4900.8144            0     8770.432    17.884095    22.853823    19.283033    7881.3604    10186.199    8807.4362    7317.6608   -133.81602   -447.68153   -927.52273   -3427.8298 
 7283000    228.78884   -4899.1063   -4441.5003   -4899.1063            0    7003.6303    17.803644    23.025951    19.265688    7897.8884    8359.4556    5773.2997    6878.1355    671.27524    678.88265    510.68672    -3634.804 
 7284000    218.32439   -4905.1885   -4468.5127   -4905.1885            0    8930.9292    18.002255    22.897433    19.105101    7875.2263    9466.3794     7261.318     10065.09   -1444.7342    399.78357   -542.78619   -3442.7768 
 7285000    221.20969   -4916.8442   -4474.3975   -4916.8442            0    9388.9696    18.043926    22.832865    19.145099    7887.6759    10370.153    8231.8685    9564.8874   -33.173156     504.2486    1894.5681     -3394.35 
 7286000    222.69138   -4910.7869   -4465.3766   -4910.7869            0    7713.1538    17.971227    22.842786    19.232977    7895.3852    8279.2991    7665.6607    7194.5016   -598.45903    1130.9863    774.93226   -3577.2371 
 7287000    235.65967   -4912.3057   -4440.9573   -4912.3057            0    7687.2605    17.783627    22.924715    19.374785    7898.8009    8229.6443    7522.2934    7309.8439   -1148.6842   -910.60991    -1330.051   -3555.4163 
 7288000    232.99833   -4914.3471   -4448.3216   -4914.3471            0    7508.1529    17.966811    22.886593    19.244793    7913.4413     10920.87    5180.6464    6422.9425    -428.6815   -2186.0601    445.42285     -3581.81 
 7289000    236.36285   -4921.3985   -4448.6436   -4921.3985            0    8313.1871    17.809268    22.944137    19.301353    7886.8856    8545.7704    7458.4541    8935.3368   -1351.8267   -633.96491   -581.83432    -3492.443 
 7290000    228.11086    -4889.365   -4433.1152    -4889.365            0    9943.9153    17.812719    22.874087    19.237621    7838.3627    11046.827    9722.5627     9062.356    58.403127   -1308.8843    973.59107   -3296.3816 
 7291000    232.82017   -4903.3924   -4437.7233   -4903.3924            0    8288.6986    17.902241     22.92265    19.244469     7897.291     8467.426     8378.161    8020.5086   -1678.9645    1007.9381    347.46536   -3483.0816 
 7292000    235.77945    -4913.184   -4441.5959    -4913.184            0    10020.956    17.928834    22.838166    19.173707    7850.8982    10334.592    9296.2498    10432.027   -528.96137    322.42996   -711.62206   -3294.2236 
 7293000    232.45657   -4895.8076   -4430.8657   -4895.8076            0    7016.3234    17.964907    22.940299    19.213442    7918.2499    6614.2695    6886.0027    7548.6978    1509.0656    -840.2689    2190.0906   -3620.6239 
 7294000     220.3324   -4914.6541   -4473.9621   -4914.6541            0    7468.1418    17.836377    22.931114    19.332942    7907.3281    7500.1598    7492.9509    7411.3148   -1073.2058    978.33707   -306.42308   -3612.7339 
 7295000    224.67297   -4923.5206   -4474.1469   -4923.5206            0    8032.4094      17.9054    23.059162    19.122682    7895.4402    7038.0697    8120.2845     8938.874   -1149.5958    139.90617    219.43009   -3549.2399 
 7296000    223.78476   -4914.8156   -4467.2184   -4914.8156            0    7783.1142    17.967671    22.794536    19.293151    7901.7944    6646.4043    8066.7944    8636.1439   -367.75076   -1223.5464    441.14369   -3570.2957 
 7297000    233.19598   -4902.7537   -4436.3329   -4902.7537            0     9108.462    17.806094    22.688492    19.469505     7865.552    9696.1335    9494.3263    8134.9262   -1074.2671   -756.20177   -970.53061    -3391.492 
 7298000    226.53716   -4911.9218   -4458.8195   -4911.9218            0     9363.808    18.066483    22.684801    19.130287    7840.2526    8423.6579    8754.3395    10913.426    491.07498    -655.7332   -105.31475   -3388.1426 
 7299000     229.3329   -4884.6295   -4425.9353   -4884.6295            0    9648.4947    17.937826    22.882576    19.179586    7872.5232    7767.3016    10481.578    10696.604   -330.95919   -719.20236     33.85318   -3318.1658 
 7300000    234.96681   -4937.8424   -4467.8797   -4937.8424            0    6182.1159     17.96598    22.672657      19.4958    7941.3508    6741.2214    7092.0411    4713.0853    1677.0224     1247.815    744.51193    -3751.889 
 7301000    244.39987   -4880.5427   -4391.7127   -4880.5427            0    8118.0264    18.146703    22.669675    19.315815    7946.1374    8962.8639    8034.5404    7356.6748   -513.70313    357.86153   -949.55009    -3450.945 
 7302000    225.33462   -4902.1167   -4451.4196   -4902.1167            0    8309.8789    18.059638    22.576756    19.350883    7889.8974    7554.6142    8998.5802    8376.4423   -96.640563    1041.4265    1477.6611   -3495.2346 
 7303000    216.55102   -4916.6149   -4483.4861   -4916.6149            0     8938.817     18.01573    22.630572     19.31324    7874.1295    9873.6669    9548.0445    7394.7396   -1452.5682   -491.43068    856.06886   -3456.9872 
 7304000    233.69558   -4878.1579   -4410.7379   -4878.1579            0    8462.5397    17.990709    22.698732    19.397897    7921.4471    7122.2379    9442.2231    8823.1581   -1936.1924   -29.892683   -817.09192    -3433.093 
 7305000    235.63453   -4904.8977   -4433.5996   -4904.8977            0    7262.5609    18.065476    22.854616    19.165865    7913.1931    8385.8238    5809.2791    7592.5798   -666.02008   -1177.7167    82.314673   -3595.4579 
 7306000     243.1712   -4892.0379   -4405.6654   -4892.0379            0    7330.4271     17.75865    23.211848     19.26354    7940.6447    9726.6645    5850.6434    6413.9732    408.30254   -220.35594   -1998.6655   -3556.7568 
 7307000    222.92242   -4915.8327   -4469.9603   -4915.8327            0    7713.1405    17.784795     23.29725    19.084908      7907.58    9149.9726    5848.6089      8140.84    1743.1271   -150.90438    1199.8416   -3580.4506 
 7308000    228.98244   -4895.2302    -4437.237   -4895.2302            0    9887.5046    17.809437    22.920137    19.235097    7851.6654    9188.5066    10024.042    10449.965    258.79538   -230.01875   -2330.1528   -3305.0338 
 7309000    227.88363    -4908.147   -4452.3516    -4908.147            0    8067.3144    18.037364    22.905388    19.163835    7917.5927    5838.6822    8223.7412     10139.52    1006.6514    88.990415   -1404.9325    -3520.819 
 7310000     220.2258   -4878.1475   -4437.6687   -4878.1475            0    11168.215    17.665885    22.936977    19.268673    7807.7048    11224.039    10986.114    11294.491   -40.434369    149.63524   -1885.5978   -3165.9735 
 7311000    227.71759    -4873.049   -4417.5857    -4873.049            0    9777.7071    17.709245    23.019124    19.313516    7873.1797    11118.669    8594.5375    9619.9151    588.68185   -273.95914   -431.07708   -3294.8874 
 7312000    236.75734   -4870.1764   -4396.6324   -4870.1764            0    8672.9418    17.930892    23.103369    19.062028    7896.7125    8376.0856     8743.544    8899.1959   -156.91034   -505.55579    1873.1906   -3397.8092 
 7313000    232.65591   -4877.6047   -4412.2642   -4877.6047            0     9654.223    17.811769    23.011884    19.193393    7867.0334    10509.096    9648.7048    8804.8686    291.34889    404.78375    896.51546   -3304.6099 
 7314000    227.13011   -4904.9623   -4450.6741   -4904.9623            0    6764.4327    18.158035    22.804076    19.207039     7953.197    5943.9574    7211.5171    7137.8235    713.39995   -366.22998    868.44332   -3666.0728 
 7315000    220.58162   -4906.9976   -4465.8071   -4906.9976            0    8624.5076    18.152098    22.704504    19.155895    7894.8027    7264.0579    9696.4616    8913.0032    -498.8045    1201.1936   -961.72663    -3472.802 
 7316000    233.88717   -4882.6675   -4414.8643   -4882.6675            0    7625.3106    17.922987    22.776987     19.41603    7926.2378    7083.7922    9000.6738    6791.4658    1489.5068    405.24155    226.99398   -3533.4086 
 7317000    230.73404   -4917.7443   -4456.2477   -4917.7443            0    8031.0282    17.802706    22.848508    19.399533    7891.0564    9348.4411    7283.0436    7461.5997    -1381.146    349.26375   -3381.5988   -3532.0132 
 7318000    225.57543    -4896.391   -4445.2122    -4896.391            0    7136.7921    18.039325    22.948997    19.175618    7938.4072    6574.8436    6318.6121    8516.9205    312.70007    283.15254   -556.43954   -3618.9607 
 7319000    224.11112   -4932.2787   -4484.0287   -4932.2787            0    7219.9495    18.004236    22.873452    19.244727    7925.3447    7563.4879    6884.8552    7211.5052    1745.6651   -61.427798    1717.4111   -3649.5251 
 7320000    230.58691   -4893.1813    -4431.979   -4893.1813            0    8366.3249    17.912254    22.784918    19.365588    7903.6626    8563.3909     9294.602    7240.9819   -439.41569    621.71204     -964.285   -3467.6194 
 7321000    225.19549   -4894.9863   -4444.5675   -4894.9863            0    6006.6522    18.122207    22.684713    19.367291    7961.8362    6827.6833    5967.3444     5224.929   -1115.2889    89.693352    1063.3235   -3747.1038 
 7322000    232.77051   -4856.5622   -4390.9924   -4856.5622            0    8448.1733    17.940857    22.782813     19.35834    7912.5898    10038.458    8627.6129    6678.4488    174.84319   -502.61876    -399.2351   -3416.0985 
 7323000    224.89373   -4931.1561   -4481.3409   -4931.1561            0    7824.8657    17.851043    22.832224    19.341999    7883.3932     9326.434     7923.379    6224.7843    708.17773   -280.38821    2148.4239   -3581.7066 
 7324000    220.34553   -4918.1317   -4477.4134   -4918.1317            0    6753.9598    18.075259    22.884761    19.129603    7912.9213    5448.2012    6945.7486    7867.9297    -256.7547    993.42526   -739.65513    -3697.994 
 7325000    225.46888   -4897.1469   -4446.1813   -4897.1469            0    8922.8113    18.043038    22.840271     19.09422    7868.8782    7677.1166    10097.211    8994.1065    1274.5245     745.5997    521.57704   -3422.2038 
 7326000    226.43439   -4889.8144   -4436.9176   -4889.8144            0    8800.0873    17.855789    22.821977    19.384385    7899.2222    10546.584    7757.2383    8096.4401    782.79528   -635.71704    106.14515   -3423.1295 
 7327000    221.04909   -4930.5477   -4488.4222   -4930.5477            0    7442.2769    18.019929    22.817552    19.210121    7898.6384    8403.0478    6522.4576    7401.3254     1347.039   -759.51722   -333.54689     -3631.12 
 7328000    241.04141   -4890.1235   -4408.0109   -4890.1235            0    9298.5514    17.979396     22.75871    19.342189    7914.5892    9444.5842    9402.7154    9048.3548    1947.6105    821.48732   -313.38704   -3334.7147 
 7329000     231.5235   -4920.1552   -4457.0796   -4920.1552            0    9690.6563    17.924636    22.873747    19.129545    7843.1819     10307.96    8854.3192    9909.6896    1234.7128    1045.7349     52.05087   -3348.6162 
 7330000    235.24806   -4897.7637   -4427.2385   -4897.7637            0    7297.3441    17.993844     22.87089    19.298126     7941.859    6388.1883    9603.9298    5899.9142   -1124.7589     1601.509    185.03875   -3582.0319 
 7331000    221.74879   -4877.0437   -4433.5188   -4877.0437            0    7964.7682    17.947649    22.992134    19.207453    7926.0469    6573.1051    7802.3778    9518.8218   -500.38814    87.144984    2177.3501   -3512.8452 
 7332000    219.22314   -4908.9797   -4470.5064   -4908.9797            0    7364.9123    17.861229    22.955697    19.308769     7916.923    8139.5548    7006.9639    6948.2182   -609.80576   -2193.5772   -95.081264   -3620.1521 
 7333000    233.33338   -4901.9549   -4435.2593   -4901.9549            0    6921.3712    17.901079    23.015708    19.326259    7962.5346    7355.3058    5416.8086    7991.9991   -325.86192   -1355.7707    -1563.535   -3631.5124 
 7334000    233.97552     -4881.55   -4413.5701     -4881.55            0    7994.1925    18.012425    22.975038    19.211844    7950.5554    6779.4418     8223.005    8980.1308   -1213.8804   -748.14752    764.32274   -3486.6379 
 7335000     225.5478   -4900.9279   -4449.8044   -4900.9279            0    9799.1302    17.798515     22.98058    19.164143    7838.5214    10734.699    9972.7483    8689.9436    1138.3839    -591.7379     1387.013   -3329.5993 
 7336000    222.59268   -4905.9194   -4460.7065   -4905.9194            0    6639.3759    17.971549    22.921496    19.294933    7948.2543    6085.1066    6615.3883    7217.6328   -1336.0924    167.00979     1900.884   -3691.0891 
 7337000    220.63539   -4902.1726   -4460.8746   -4902.1726            0    8833.3951    17.893865      22.9454    19.250737    7904.0039    8885.1983    8645.9066    8969.0803   -980.64671    1133.9881   -303.89903   -3442.6333 
 7338000     230.3091   -4905.5176    -4444.871   -4905.5176            0    7554.1851    17.932694    22.950277    19.221249    7910.7029    7072.8033    8063.9127    7525.8393    1830.2808    948.55977     2031.792   -3573.3485 
 7339000    217.93401   -4926.6606   -4490.7656   -4926.6606            0    7738.8272    17.850058     22.96812    19.260633    7896.5179    8951.3489    6967.8556    7297.2771   -1524.8918    495.66336   -1396.4655   -3599.5421 
 7340000    230.36211   -4910.2231   -4449.4704   -4910.2231            0    8921.3975    17.889365    22.882666    19.249498    7879.9047    9646.0234    9162.6518    7955.5173   -819.44503   -272.57581    826.01779   -3424.2205 
 7341000    222.37793    -4900.423   -4455.6396    -4900.423            0    8651.3591    17.905695    22.778784    19.339819    7888.1316    10106.191    7973.7764    7874.1101   -1179.2714   -898.30793   -1847.5115   -3460.3846 
 7342000    228.26073   -4913.0079   -4456.4582   -4913.0079            0    7200.0976    17.995779    22.889017    19.241684    7925.7589    6199.9382    7417.0688    7983.2856    450.53158    12.526946    190.39326   -3624.2057 
 7343000    234.82078    -4890.723   -4421.0524    -4890.723            0    7112.0483    17.828198    22.945989    19.350465    7915.9974    7869.6555    6860.4259    6606.0635   -1010.4764    618.16104   -887.09528   -3599.9899 
 7344000      228.128   -4906.5006   -4450.2164   -4906.5006            0    7978.1782    17.855396    22.893923    19.319381    7897.3777    8775.6915    7193.2958    7965.5473     -17.7924   -103.80401   -2646.1351   -3531.3285 
 7345000    209.53456   -4898.4331   -4479.3381   -4898.4331            0    8906.1646    17.937805    22.784644    19.294482    7885.7804    9919.5812    8626.0299    8172.8825    30.048988   -43.840665   -392.21301   -3455.0756 
 7346000    230.13736   -4891.5516   -4431.2485   -4891.5516            0    8772.8993    17.981122    22.892364    19.130192    7874.5684    7910.7022    8981.9603    9426.0354   -561.46997    1376.8556    190.16884   -3423.7468 
 7347000    231.40726   -4910.3739   -4447.5308   -4910.3739            0    8350.0284    17.856546    22.911164    19.223624    7864.6588    10144.963    7366.1887    7538.9339    1166.7434    137.02615   -1035.4046   -3489.7994 
 7348000    229.92424   -4906.3369     -4446.46   -4906.3369            0    8435.0081    18.016607    22.881438    19.099801     7873.814    7416.6313     7433.666    10454.727    815.43679   -151.03271    3266.8995   -3477.8554 
 7349000    225.42767   -4897.3756   -4446.4925   -4897.3756            0    9136.4047    17.906708    22.819562    19.199982    7845.5588    7772.4103    9111.4588    10525.345   -1136.4567   -138.27743    4.0507002   -3401.1103 
 7350000    234.62162   -4920.0662    -4450.794   -4920.0662            0    6845.1699     17.76625    23.147167     19.24409    7913.9077      6457.14    7074.1223    7004.2473     177.5255    -1586.119   -273.09435   -3660.7503 
 7351000    216.93701   -4922.2363   -4488.3355   -4922.2363            0    6953.0846    17.770222    23.046356    19.394349    7942.7395     7736.536     6768.497    6354.2206     519.6288    -1797.916     194.1891   -3682.9131 
 7352000    217.01928   -4882.7041   -4448.6388   -4882.7041            0    7770.7877    17.895085    22.906353    19.372079    7940.8306    8713.0511    6901.0425    7698.2693   -2101.0334    12.013637   -1749.9685   -3548.7126 
 7353000    224.26854   -4887.3084   -4438.7436   -4887.3084            0    8597.1461    18.097355    22.737715    19.213817    7906.3414     6929.811     10284.17    8577.4572    690.75233    1746.5665    -14.04731   -3447.4421 
 7354000    240.08015   -4915.4602   -4435.2702   -4915.4602            0    7601.0083    17.974072    22.773108    19.327741    7911.3371    8047.9088     7366.563    7388.5532    450.91112    447.94394   -204.02595   -3558.2755 
 7355000    243.15012   -4892.5615   -4406.2313   -4892.5615            0    7322.3029    17.945453    22.737706    19.453026    7937.5826    7393.3514    8254.0078    6319.5494   -743.45392    405.86458    279.96324   -3558.5905 
 7356000     223.5994   -4917.6747   -4470.4483   -4917.6747            0    6953.7156    18.094829     22.60937    19.348621    7915.7664    7247.9493    6779.0866    6834.1109    1327.7525   -421.68461    319.28123   -3667.6882 
 7357000    227.44907   -4890.0762     -4435.15   -4890.0762            0     9187.935    18.047054    22.655841    19.251119    7871.2279    8677.7603    9271.2971    9614.7476   -390.39596   -382.93842   -800.52274   -3380.4322 
 7358000    231.12445   -4884.6829   -4422.4054   -4884.6829            0    7464.6261     17.97557    22.831074    19.277065    7911.3379    9091.2594    6690.1201    6612.4989   -1081.7344   -2801.2825   -760.16646   -3561.1462 
 7359000    225.59255   -4901.3964   -4450.1834   -4901.3964            0    9412.3981    17.893443     22.80781    19.274895    7866.2827    8875.1984    10209.773    9152.2227   -976.88531    195.15391   -1064.2112   -3370.3775 
 7360000    238.46383   -4900.7043   -4423.7472   -4900.7043            0     8036.839    17.824475    22.923364     19.30627    7888.4825    10276.386    7390.9914    6443.1395    1523.8338   -39.186124    2484.7205   -3499.1456 
 7361000    236.64599   -4887.3506   -4414.0294   -4887.3506            0    7960.6895    17.855052    23.141238    19.137723    7907.4774     7690.438    7637.1968    8554.4337   -1176.8342    -371.5398   -254.85236   -3495.9832 
 7362000    226.67005   -4892.1054   -4438.7373   -4892.1054            0      7507.06    17.869841    23.273416      19.0806    7935.4735    7321.4612    7778.6893    7421.0294    -1034.112    768.46248   -442.52927   -3569.9396 
 7363000    237.79426   -4931.9153   -4456.2974   -4931.9153            0    8748.0114    17.719547    23.148179    19.224979    7885.6107     11101.59    7281.3946    7861.0493    151.77701    804.82411    2444.3275   -3450.2451 
 7364000    234.07095   -4895.3518    -4427.181   -4895.3518            0    8132.3227    17.933697    22.927669    19.237909    7910.2028    7772.9934    8542.2325    8081.7421   -1222.8293   -123.42724   -971.46724   -3489.0184 
 7365000    226.31863   -4898.4218   -4445.7566   -4898.4218            0    7693.3755       18.041    22.899466    19.181708    7924.5249    6676.1983     6936.762    9467.1662   -1343.5371   -1446.4488    470.46773    -3556.625 
 7366000    222.65889   -4912.9197   -4467.5744   -4912.9197            0    8892.2553    18.022646    22.742659    19.237491    7885.1185    7822.6976    8998.4679    9855.6005   -147.52798   -689.82746    210.75109   -3444.9974 
 7367000     222.6552   -4922.4085   -4477.0706   -4922.4085            0    7829.0466    18.045618    22.559272    19.372938    7886.6454    7453.2441    7718.3419    8315.5538   -1800.1157   -137.22218    284.87266   -3576.5843 
 7368000    227.75328   -4919.4099   -4463.8752   -4919.4099            0    9237.2054    18.025433    22.670189    19.216594    7852.6686    8518.5904     10078.74    9114.2859     1348.405    163.50527    1655.9759   -3406.0016 
 7369000    232.42912   -4923.3627   -4458.4757   -4923.3627            0    10268.259    17.801983     22.73229    19.310183    7814.4422    10817.249    10475.228    9512.2985   -844.20679   -171.72331   -790.98548   -3288.2472 
 7370000    226.81932    -4903.995   -4450.3284    -4903.995            0    7702.0802    17.846674    22.988163     19.25798    7900.8223    6501.4062    7630.4595     8974.375   -164.50917    685.93276   -710.98569   -3562.8532 
 7371000    227.56533   -4925.2339   -4470.0751   -4925.2339            0    8162.7288    18.008591    22.912759    19.165168    7908.0563    7366.4383    7488.0002    9633.7479   -817.30472   -372.09386    144.91102   -3528.6603 
 7372000    225.09266   -4873.6543   -4423.4412   -4873.6543            0    7146.2665    17.857041    22.821045    19.491413    7943.0692    7363.8495    7233.3751     6841.575    966.52695    1242.4378   -1576.0497   -3595.6068 
 7373000    233.15487   -4912.5833   -4446.2448   -4912.5833            0    6992.0788    18.013055    22.773227    19.373646    7947.3681    7375.9093    6763.1582     6837.169     407.5005    -553.9508   -724.34072   -3635.8334 
 7374000     236.1508   -4902.5402   -4430.2094   -4902.5402            0    9657.8674     18.09367    22.426809    19.371083    7860.4617    11023.695    9734.9174    8214.9903    100.52274   -1294.8788   -2991.3611   -3323.0626 
 7375000     228.1579   -4863.0444   -4406.7004   -4863.0444            0    11691.898    17.921436    22.425363    19.423433    7806.1751    11822.743    13549.353    9703.5961    279.56466   -868.95418    401.61309   -3075.6356 
 7376000    224.20832   -4906.5811   -4458.1368   -4906.5811            0    7725.9767    17.988437    22.682574    19.317495    7882.0027    9068.1445    6382.6811    7727.1045     830.1688   -694.75655   -543.16097   -3570.0286 
 7377000    225.39676   -4910.6971   -4459.8757   -4910.6971            0    7826.8304    18.005225    22.737594    19.324703    7911.4464    6937.4417    7868.7246     8674.325    377.94556   -120.46273    181.62977   -3556.8134 
 7378000    224.87875   -4909.4538   -4459.6685   -4909.4538            0    9362.9248    17.932483     22.79335    19.215747    7854.2705    9236.2428     8768.006    10084.526   -703.45638   -131.73029   -1470.6037   -3387.1784 
 7379000    240.04642   -4881.8105    -4401.688   -4881.8105            0      8663.46    17.859103    22.865288    19.304305    7882.9811    9625.0559    7495.4665    8869.8575    885.38925   -773.49366    2574.5985   -3405.6917 
 7380000    222.75199   -4911.0466   -4465.5151   -4911.0466            0    10090.278    17.982886    22.754016    19.130874    7828.0264    9108.0037    9606.8521    11555.979   -368.01027   -678.18254     1511.555   -3313.5712 
 7381000    215.66432   -4900.1812   -4468.8259   -4900.1812            0    9539.9558    17.934733     22.79085    19.173772    7837.2371     8901.481    10167.379    9551.0076    172.49765    105.40306    511.03584   -3378.4274 
 7382000    231.69175   -4888.6801    -4425.268   -4888.6801            0    8241.7586    17.862897    22.858478    19.423747    7931.0776    9540.7061    8665.2832    6519.2865   -1265.9627   -487.95466   -1262.7973   -3471.9716 
 7383000     223.9827   -4880.6283   -4432.6352   -4880.6283            0    6705.4218    18.087403    22.716008    19.373709    7960.1456    8012.1253    5801.9404    6302.1997   -789.89712   -478.98272   -333.45748    -3654.199 
 7384000    217.72724   -4911.3007   -4475.8193   -4911.3007            0     8542.826    18.048795    22.636882    19.347546    7904.7971    8392.2049    7997.6473    9238.6258   -210.82884    179.67221    1246.5533   -3490.9737 
 7385000    224.75227   -4905.0993    -4455.567   -4905.0993            0     8935.912    17.978691    22.705071    19.277737    7869.3161     9424.626    8289.8133    9093.2967   -880.80097    35.125748   -476.49775   -3430.0289 
 7386000    232.43792   -4890.4119   -4425.5074   -4890.4119            0    9599.3857    18.011344     22.83602    19.204677    7899.0261    9900.5681    8296.4515    10601.137    970.98772   -670.49778    729.68003   -3319.6659 
 7387000    224.17704   -4903.5807   -4455.1989   -4903.5807            0    7940.5223    18.034431    22.923881    19.123551    7906.0424    7424.4909    6960.4161    9436.6598   -227.46108   -1238.6217   -1739.1684   -3539.6446 
 7388000    220.23559   -4883.0994    -4442.601   -4883.0994            0    8830.0438     17.74165    23.032069    19.307406    7889.5254    11328.778    7777.8128    7383.5402    1428.2159   -1046.0724     1961.694   -3426.6105 
 7389000     219.0032    -4910.716   -4472.6825    -4910.716            0    8195.6916    17.953345    22.866524    19.157653    7864.8025    6929.0452    7980.3536    9677.6761    126.25686   -1560.2347   -410.31361    -3532.636 
 7390000    241.46323   -4915.3452   -4432.3889   -4915.3452            0    8347.2427    17.876963    22.976519    19.219864    7894.5664     8702.058    7421.8163    8917.8538   -732.75544    90.056753   -262.96426   -3471.3362 
 7391000    232.55367   -4920.4414   -4455.3054   -4920.4414            0    7650.8802    17.923893    22.942577    19.200783    7895.7518    8227.2406    7487.4884    7237.9117   -807.77111   -532.30212    -501.5669   -3574.2955 
 7392000    216.02069   -4888.1987   -4456.1306   -4888.1987            0    7642.7564    17.921445    23.020505    19.270808    7950.3783    7270.5682     7587.345    8070.3559   -1330.9853    1376.7701   -988.34472   -3569.9675 
 7393000    226.95164   -4914.7295   -4460.7981   -4914.7295            0    7150.6341     17.87409    22.717542    19.515574    7924.4039    6063.5264    8844.3731    6544.0029    137.33163    53.809022   -344.76796   -3634.4043 
 7394000    242.18068   -4928.2969   -4443.9056   -4928.2969            0    8472.6933    18.007004    22.754282    19.257835    7890.6365    8382.4448    9221.3641    7814.2712    1126.9001    516.80414   -216.21978   -3468.8949 
 7395000    229.79539   -4912.4451   -4452.8259   -4912.4451            0    8446.3853    17.931831    22.840918    19.293359    7902.1639     9652.049     8199.828    7487.2788    322.24654    51.431189    -811.6141   -3479.4226 
 7396000    218.75235   -4898.6614   -4461.1296   -4898.6614            0    7474.1154    18.036053    22.708209    19.349409    7924.8688    6218.0429    8225.9118    7978.3916    15.316086    734.24812    -657.9214   -3597.3007 
 7397000    223.94249   -4926.7107   -4478.7981   -4926.7107            0    7188.9778    18.094974    22.706844    19.270052    7917.6742    6631.3414    7435.1061     7500.486   -356.22396   -137.35498    1270.2998   -3648.6785 
 7398000     235.0936   -4926.4272   -4456.2109   -4926.4272            0    8681.8655    17.875249     22.76106    19.318993    7860.1179     8780.306    8220.5389    9044.7516   -804.65717    -648.7633   -522.37901   -3460.9934 
 7399000    229.55813   -4886.6422   -4427.4975   -4886.6422            0    7378.0598    17.906317    22.936272    19.274181    7915.9864    7738.8845    8267.8223    6127.4727    152.33839   -151.80545   -408.84539    -3575.726 
 7400000    228.56193   -4927.9084   -4470.7563   -4927.9084            0    8083.2604    18.079731    22.643144    19.288301    7896.2824    7722.6532    8200.4031    8326.7251   -205.29186   -1328.7501    1892.9449   -3539.8946 
 7401000    236.53984   -4879.8225   -4406.7136   -4879.8225            0    8620.8294    17.915532    22.683351    19.409731    7887.8102    8802.2252    9025.9907    8034.2724   -483.47891   -306.13523   -1048.6814   -3415.0111 
 7402000    233.27258   -4905.3928   -4438.8188   -4905.3928            0    8721.9095    18.110542    22.697765     19.20196    7893.3272    7832.4351    8385.7736    9947.5198    104.05994    -156.2847   -544.62646   -3434.7868 
 7403000    234.71055    -4897.387   -4427.9369    -4897.387            0    8955.2092    18.000185    22.497028    19.398145    7855.2913    9020.4535    9096.8978    8748.2762     487.4107   -974.38921    1052.6976   -3402.0159 
 7404000    229.25716     -4908.63   -4450.0874     -4908.63            0      7962.58    17.934877    22.655579    19.359454    7866.2306    7918.5208    8703.3051    7265.9141    476.74883    230.60992   -981.39357    -3536.613 
 7405000    220.27112   -4899.8853   -4459.3158   -4899.8853            0    7047.4496    18.178442    22.761881    19.093019    7900.2239     6144.433    6681.1055    8316.8105   -129.17383   -311.33239    775.92235   -3647.3322 
 7406000    220.76371   -4911.5476   -4469.9929   -4911.5476            0    8260.5487    17.789607    22.992609    19.272364    7882.9649    8818.3963    7480.2949    8482.9549    1978.4165    26.714122    1288.8019   -3520.3193 
 7407000    230.55583   -4904.4848   -4443.3446   -4904.4848            0    9587.3642    17.821155    22.982768    19.200527    7864.1418    9977.5447    9481.2016    9303.3463    1596.1306    459.68662   -332.68916   -3343.7656 
 7408000    211.50609   -4899.4143    -4476.376   -4899.4143            0    7467.1808    17.942415    22.873974    19.303823    7922.5655    7154.8905    7654.6119    7592.0401    282.15918   -385.31651    -733.8184   -3613.5993 
 7409000    223.54652   -4920.9528   -4473.8321   -4920.9528            0    7895.6841    18.042836    22.640449    19.380419    7916.8604    7722.5619    8900.8015    7063.6889    778.77325    308.80321   -262.00673    -3562.202 
 7410000    237.10163   -4903.1485   -4428.9159   -4903.1485            0    8747.8044    18.124494     22.50632    19.353698    7894.6765    8017.7437     9339.982    8885.6877    1329.9236   -330.32751    315.05593   -3421.7308 
 7411000    220.81363   -4903.8175   -4462.1629   -4903.8175            0     7969.813    17.998677    22.583189    19.429551    7897.4813    8348.7409    8373.9197    7186.7785    272.88195   -498.54418    137.32094   -3544.2265 
 7412000    221.70782    -4887.281    -4443.838    -4887.281            0    7843.2495    18.028675    22.858646    19.195178    7910.5463    6728.9237    7817.8133    8983.0114    676.31379    606.76013    167.18942   -3538.9843 
 7413000    219.22276   -4889.4212   -4450.9486   -4889.4212            0      7839.02    17.800285    23.080533    19.226142    7898.8693    7579.8472    7941.6523    7995.5606     618.6144   -201.35368    1707.9233   -3547.9178 
 7414000     224.6015   -4907.7567    -4458.526   -4907.7567            0    8953.4556    17.786925    23.144826    19.137639    7878.4933    9974.0519    7546.8232    9339.4916   -137.54826   -601.00961   -2897.8312   -3429.7762 
 7415000    220.06006   -4896.5607   -4456.4134   -4896.5607            0    8505.9269    17.705844    23.217942    19.182547    7885.8155    7610.8657    8741.5829    9165.3321   -1228.0062    1929.5169   -1755.5446   -3478.1762 
 7416000    237.13962   -4881.8013   -4407.4927   -4881.8013            0    7061.2566    18.024617    22.737028    19.414075     7956.397    7284.2617    6187.5244    7711.9836  -0.36265567    150.38694   -648.08838   -3588.1336 
 7417000    223.98739   -4903.0849   -4455.0825   -4903.0849            0    7495.8917    18.032827    22.578621    19.484131    7933.0877    8510.2828    8187.3622    5790.0301      -850.17     497.5138    -745.2702   -3587.8382 
 7418000    235.22632   -4892.0149   -4421.5331   -4892.0149            0    9618.5955    17.992163    22.637795     19.30878    7864.5219    8914.0135    10394.217    9547.5565    194.60123    624.38315   -283.14618   -3318.3189 
 7419000    238.13618   -4884.1957   -4407.8939   -4884.1957            0    9122.7823    18.032967    22.875946    19.080816    7871.2408    9972.5555    8006.9151    9388.8762    1125.9365   -541.63871    883.82698   -3360.6534 
 7420000    230.52235   -4894.9434   -4433.8702   -4894.9434            0    10292.181    17.799998    23.061386    19.095938    7838.7415    11034.911    9837.9411     10003.69   -500.45279   -314.50216    249.40781   -3257.2681 
 7421000    230.68963   -4894.2188    -4432.811   -4894.2188            0    7542.6089    17.854541    22.992182    19.299131    7922.5799    8824.3835    6590.3965    7213.0466    1059.9156    143.89513    1502.5193   -3561.3176 
 7422000    219.75411   -4900.5778   -4461.0424   -4900.5778            0     8152.903    18.040096    22.726288    19.281683    7905.1896    7841.8284     8895.698    7721.1827   -532.39972   -288.91469   -520.58139   -3521.1017 
 7423000    229.30946    -4931.054   -4472.4068    -4931.054            0    8073.0685     17.97398    22.851445     19.21382    7891.7195    7512.2759    8775.7821    7931.1475    -180.6723   -120.10502    577.18709   -3543.2561 
 7424000     225.0847   -4907.9915   -4457.7943   -4907.9915            0    8905.4893     17.98019    22.805284    19.278341    7904.9552     9952.654    8808.9246    7954.8893    574.86149    827.05474    719.59999    -3431.119 
 7425000    224.66309   -4902.7728   -4453.4189   -4902.7728            0    8203.4342    17.853081    22.771009    19.393495    7884.0896    8467.0903    7191.6346    8951.5777   -59.457801   -1104.8977    1352.8761   -3510.1769 
 7426000    215.53186   -4890.9314    -4459.841   -4890.9314            0    8135.7554    18.110246    22.696595    19.247089    7911.3413    6735.9448    9149.2419    8522.0796    527.47159   -140.11077   -585.65252   -3521.1474 
 7427000    239.55435   -4911.2426   -4432.1043   -4911.2426            0    6946.6231    18.004799    22.740606    19.379124    7934.5894     6622.479    7344.0186    6873.3716   -426.82534   -219.21795    2223.4836   -3628.2561 
 7428000     232.1753   -4901.4662   -4437.0869   -4901.4662            0    7683.8233    17.796607    22.946393    19.432405    7935.5711    8414.5376     7237.164    7399.7684   -96.470658   -881.35739    1299.3435   -3547.8214 
 7429000    231.20291   -4897.9316   -4435.4972   -4897.9316            0     7328.956    18.043907    22.897856    19.210402    7937.1001    6953.7906    6495.6203    8537.4572   -97.146448   -188.80177    2302.0834   -3587.1378 
 7430000    233.01341   -4910.9823   -4444.9267   -4910.9823            0    7049.9279    18.060038    22.989411    19.088651    7925.4097     5391.782    6346.9671    9411.0347   -1471.7642    161.24382   -221.83686    -3630.068 
 7431000    226.63068   -4915.8607   -4462.5713   -4915.8607            0    8402.7266    17.825539    22.897288    19.335285    7891.8223    10195.304    8645.3362      6367.54   -1661.2077    496.82126    48.342252   -3495.4668 
 7432000    235.54985   -4901.8249   -4430.6961   -4901.8249            0    9472.6233    17.876771    22.898561    19.184477    7853.2105    10029.134    9104.4397    9284.2961    161.61193   -509.65757    251.86256   -3345.7869 
 7433000    217.15743   -4898.8788   -4464.5372   -4898.8788            0    9190.9699    18.095968    22.762306    19.113284     7872.876     10166.27    7173.9358    10232.704   -488.28571   -1085.9814     100.0438     -3409.25 
 7434000    223.14649   -4915.7005     -4469.38   -4915.7005            0    9150.2642    17.917634    22.772903    19.284401    7868.7401    7075.3251    9310.7552    11064.712   -254.39677    356.21287    -474.7083   -3419.3185 
 7435000    236.08569   -4891.2968   -4419.0963   -4891.2968            0    8910.5678    18.112488    22.701453    19.156993    7876.9687    7146.1741    8599.1111    10986.418    1681.5731   -828.77804    358.75109   -3395.4725 
 7436000    236.99895   -4908.8033   -4434.7761   -4908.8033            0    7919.2184    18.042727    22.602681    19.387438     7906.469    7330.4863    8226.8285    8200.3406     570.7711    640.96297   -1965.8745   -3521.6289 
 7437000    223.33909   -4901.9394   -4455.2337   -4901.9394            0    9235.1417    18.021585    22.612259    19.328734    7876.6281    8891.8439     9051.147    9762.4342   -810.27215   -148.21246    404.88247   -3394.3695 
 7438000    237.21001   -4888.8413    -4414.392   -4888.8413            0    10456.866    17.930674    22.725987    19.209411    7827.6863    9701.9152     10924.66    10744.023   -597.60431   -85.826287    1619.2606   -3220.6489 
 7439000    221.01562   -4916.6826   -4474.6241   -4916.6826            0    7503.9136    17.952408    22.822867    19.261683     7892.001    6576.4228    7418.7763    8516.5417    373.88545   -563.31319    423.85053   -3610.9481 
 7440000     245.3035   -4898.4737   -4407.8364   -4898.4737            0    7585.0975     17.91341    22.890692    19.248709    7892.9395    5911.4053    8467.3477    8376.5395   -44.032585    781.92115   -39.663211   -3534.7126 
 7441000    239.31123   -4925.0375   -4446.3855   -4925.0375            0    5655.8444    17.963389    22.927895     19.32698    7960.0622    5563.4561     5100.379    6303.6982     1381.501   -1005.2379    642.05405   -3789.8022 
 7442000    232.39176   -4896.8446   -4432.0324   -4896.8446            0    8462.0079     17.84718    23.039405    19.266726    7922.2543    8195.9261    8074.7023    9115.3955    925.31619     1334.129   -1033.3415   -3454.3493 
 7443000    230.19149   -4910.7181   -4450.3067   -4910.7181            0    8270.0051    17.919683    23.065848     19.14366    7912.7006    8484.1901    7423.4885    8902.3367    408.31876    192.21113    189.21915   -3495.9595 
 7444000    225.87969   -4895.1948   -4443.4075   -4895.1948            0    9313.0614    17.736421    23.027608    19.320714    7891.1082    10658.364    8508.2762    8772.5437   -716.65793   -197.44484   -1172.3256   -3371.6258 
 7445000    228.27246   -4895.1607   -4438.5876   -4895.1607            0    8981.2985    17.998679    22.727665    19.268342    7882.0607    9616.1327    8852.7102    8475.0526    1537.2851    795.03952    540.21671   -3406.1714 
 7446000    219.38694   -4896.9351   -4458.1342   -4896.9351            0     9134.194    18.078951    22.538148    19.367882     7891.755    8334.7195    10269.643    8798.2197   -647.53997    383.95672   -1428.1025    -3406.851 
 7447000      226.918   -4894.2913   -4440.4273   -4894.2913            0    9594.1602    18.053987    22.568997    19.295757    7862.2565    11096.314    8759.8985    8926.2675   -212.03561   -758.16235   -1.6480079   -3340.3326 
 7448000    224.61653   -4900.5469   -4451.2861   -4900.5469            0    7692.0091    18.158931     22.75348    19.236955    7948.3035    6647.9731    7546.4807    8881.5736    -244.6991    667.99907    1093.0778   -3559.6449 
 7449000    235.12003    -4900.993   -4430.7239    -4900.993            0    6801.6474    18.001514    22.854413    19.346514    7959.4273    6791.1198    6146.5879    7467.2344   -1558.9374   -819.25015   -276.83314   -3641.1881 
 7450000    227.79658   -4914.2248   -4458.6035   -4914.2248            0    7153.1911    17.862249    22.879786    19.374294     7917.972    9195.4002    6491.1551     5773.018     274.0754   -1178.0664    294.05383   -3632.5852 
 7451000    234.59292   -4911.9803   -4442.7655   -4911.9803            0    8301.4035    17.949635    22.792979    19.234858    7869.4741     8516.245    7434.5452    8953.4202    166.29638   -505.88716    1790.2954   -3490.0283 
 7452000     231.2633   -4918.6037   -4456.0485   -4918.6037            0    8583.7546    18.052746    22.866642    19.116191    7891.2721    7072.2446    8881.7509    9797.2682    609.93089    176.72912    1083.4697   -3468.1776 
 7453000     215.3613   -4903.2466   -4472.4974   -4903.2466            0    9273.1003    17.806506     22.73723    19.496019    7893.3655    9127.4866    10559.444    8132.3699    228.00362    757.33323   -1972.7097   -3405.0092 
 7454000    218.06545   -4919.1602   -4483.0023   -4919.1602            0    7995.0508    17.976269    22.814773    19.228297    7885.9956    8322.7748    8184.6034    7477.7742   -45.655375   -701.19626   -567.55761   -3563.4983 
 7455000    214.53254   -4906.2891   -4477.1975   -4906.2891            0    7767.9224    18.028943     22.80752    19.203197    7896.2675    6581.0012    7989.7726    8732.9936    728.06661   -1111.9751     -384.952   -3582.6516 
 7456000    226.88126   -4908.7103   -4454.9198   -4908.7103            0    10127.203    17.885046    22.607747      19.3779    7835.2717    8675.2024    11330.911    10375.497    976.12223    993.61715    549.80807   -3297.6903 
 7457000    222.18904   -4890.8127   -4446.4072   -4890.8127            0    8390.5305     18.04577      22.7451    19.238471    7896.4855    9973.6455    6785.4966    8412.4493    1063.8936   -1414.9267    1887.5795   -3480.1357 
 7458000    237.16267   -4903.3169   -4428.9622   -4903.3169            0    7662.3506    17.917591    22.778337    19.337727    7892.3633    7233.5596    8756.1615    6997.3307   0.43993364   -50.803284    141.97998   -3547.0102 
 7459000    234.79453   -4921.2816   -4451.6635   -4921.2816            0    7501.0024    17.940162    22.827699    19.323152    7913.4608    8714.9796    7103.9036    6684.1239    204.00848   -595.66402    153.19458    -3585.975 
 7460000    228.86198   -4891.2324   -4433.4801   -4891.2324            0    7152.4585    17.985594    23.015678    19.177363    7938.4819    8328.2608    6308.7576    6820.3571    1666.5091     879.7544    -355.7199    -3605.407 
 7461000    235.04562    -4923.811   -4453.6907    -4923.811            0     6999.225    18.039538    22.837198    19.317171    7958.1431    6756.2077    7871.6087    6369.8585    16.496111    385.34676   -1478.3722   -3641.3511 
 7462000    223.87546   -4897.3351   -4449.5566   -4897.3351            0    8306.5607    17.999758    22.660059    19.352752    7893.5149    7829.2237    9912.9803    7177.4779   -726.27614   -756.05695   -91.717755   -3493.3151 
 7463000    224.75589   -4898.6679   -4449.1283   -4898.6679            0    8546.2468    18.030245    22.659146    19.411937     7930.746    8808.0303    8920.9506    7909.7596   -234.24199    864.44888    1958.7528   -3460.6541 
 7464000    224.43748   -4899.9029   -4451.0002   -4899.9029            0     7815.994    17.969813    22.792804    19.228885    7875.8137    6422.0447    8871.0853     8154.852   -208.39853   -359.89063   -813.45262   -3553.2499 
 7465000     231.4679   -4944.2804    -4481.316   -4944.2804            0    9289.4246    17.768224    22.815013    19.366677    7850.9072    8502.2689    9138.7414    10227.263   -179.03205    5.5799504    538.82626   -3417.7008 
 7466000    228.10712   -4901.0149   -4444.7725   -4901.0149            0    8871.9113    17.908374    22.915456    19.165427    7865.0799    8750.2298    9224.1863    8641.3179     1013.633    457.96841    1148.2939   -3427.1277 
 7467000    221.70418   -4921.3812   -4477.9454   -4921.3812            0    7701.9599    17.906314    22.826276     19.31107    7893.0999    8953.6376    7317.2039    6835.0384   -304.24505    186.98527   -1361.4001   -3591.3515 
 7468000    233.80488   -4897.8465   -4430.2078   -4897.8465            0    7400.3611    18.021051    22.970399    19.171038    7935.8651     6066.739    8007.2177    8127.1268    171.92375   -319.30218   -1102.7055   -3573.7163 
 7469000    230.40529   -4907.3642   -4446.5251   -4907.3642            0    8721.0048    17.961184    22.895378    19.167219     7882.099    9665.7169    8535.7197    7961.5777   -1005.5369   -1136.3977   -1276.0703   -3444.0253 
 7470000    215.05368   -4904.9155   -4474.7815   -4904.9155            0    8455.1308    17.937779    22.696201    19.344941    7875.7014    8858.6303     8695.146     7811.616    369.98936   -980.74563   -963.51383   -3503.6334 
 7471000    227.77009   -4913.5263    -4457.958   -4913.5263            0    8048.8544    17.891936    22.648541    19.517223    7908.8912    8479.4284    8404.2199     7262.915   -513.82319    -517.0595    -830.2481   -3529.5784 
 7472000    226.77822   -4939.4852   -4485.9008   -4939.4852            0    7733.5321    18.018437    22.722457    19.257676    7884.5389    8130.9196    7349.0385    7720.6381   -811.57204   -773.11974   -2402.0031   -3596.6381 
 7473000    216.22483   -4907.5279   -4475.0516   -4907.5279            0    7819.5621    18.158087    22.602275    19.245803    7898.7485    8200.0089    7809.3098    7449.3676    3558.6299    452.91609      2775.08    -3574.276 
 7474000    230.78622   -4903.1615   -4441.5606   -4903.1615            0     8588.749    17.851453    22.753884    19.365847    7866.2113    7530.5518    9183.4258    9052.2694   -478.87003    375.77192   -34.662804   -3456.2539 
 7475000    223.37573    -4908.316   -4461.5369    -4908.316            0    9088.7612    17.993327    22.871296    19.073274    7849.2378    10748.397    7407.9442     9109.942   -2111.9627   -509.85482   -1789.9597   -3421.1184 
 7476000    225.99246   -4897.7782   -4445.7653   -4897.7782            0    7967.6814    17.777616    23.115114    19.234392    7904.0197    7656.3543    7753.2939    8493.3962   -967.96602   -327.64921   -189.63589   -3527.3146 
 7477000    228.40734   -4843.9524   -4387.1095   -4843.9524            0    8216.2754    17.772015    23.302045    19.123629    7919.5593    7784.0095    7989.6639    8875.1528    2017.3732   -1919.9101    359.72769   -3438.1408 
 7478000    241.76825   -4904.4817   -4420.9153   -4904.4817            0    9118.9949    17.825827    23.125848    19.086018    7867.9696    9047.1417     8636.907     9672.936   -470.93643    12.818324    1897.9589   -3374.5447 
 7479000    233.91951   -4900.8764   -4433.0084   -4900.8764            0    8543.6365    17.789004    23.080471    19.251078    7904.0806    10604.724    6733.1342     8293.051    874.33776   -685.71639   -683.89155   -3448.1586 
 7480000    245.73828   -4895.5371   -4404.0302   -4895.5371            0    9239.3327    17.750625    23.143549    19.190549    7883.7162    9810.0544    8434.2153    9473.7284   -529.98611   -66.893752   -55.892436   -3341.7295 
 7481000    233.01546   -4886.2899   -4420.2302   -4886.2899            0    9083.6621    17.910163     22.72625    19.327581    7866.9215    9729.3147    9102.8692    8418.8023    532.00697   -634.08399    777.28669   -3378.0527 
 7482000    226.52008   -4896.0375   -4442.9693   -4896.0375            0    8427.0829    18.118124    22.612761     19.30031    7907.3526    7907.1297    8631.0915    8743.0276   -1444.8614   -824.85521     -672.115   -3471.1529 
 7483000    219.22044   -4896.4789   -4458.0109   -4896.4789            0    9164.8494    18.169045    22.526104    19.198285    7857.4315    7566.3862    9936.7456    9991.4166    1029.0483   -556.92626    934.83462   -3407.7872 
 7484000    232.52944   -4886.7028   -4421.6152   -4886.7028            0    9879.6342    17.959137    22.634773    19.341955    7862.5237     8634.901    11184.573    9819.4283    1430.9817   -354.49338    892.85038   -3288.7487 
 7485000    228.45729   -4935.0353   -4478.0925   -4935.0353            0    6264.4454    17.893921    22.950785     19.39295    7964.2873    5548.0049    7310.7713    5934.5601    333.95821    753.72484   -1518.9511   -3750.4712 
 7486000    230.88473   -4922.0203   -4460.2223   -4922.0203            0     8803.486    17.995919    22.789285    19.201086    7874.6367    7433.7339    10183.807    8792.9169    130.68402     1045.773   -574.32177   -3449.1992 
 7487000    215.46368   -4885.6198   -4454.6658   -4885.6198            0    9880.5949    17.973278    22.840605    19.112775    7846.1869    8347.8206    10231.243    11062.722    -345.0297    880.39826   -1290.4622   -3324.0433 
 7488000    233.85506   -4895.6951   -4427.9561   -4895.6951            0    8299.9525    17.985299    22.792069    19.244259    7888.6484     7247.021    8673.5857    8979.2509    1687.7421    611.28146    138.93772   -3473.0645 
 7489000    229.33596   -4902.0797   -4443.3795   -4902.0797            0    7143.7652    18.038335    22.726315    19.324107    7921.8189    7052.1603    7288.8376    7090.2975   -1259.5447   -759.60267   -2895.4971   -3618.0488 
 7490000    224.86119   -4882.3768   -4432.6266   -4882.3768            0    7757.8615    18.102076    22.425245    19.519857    7923.9587    7604.9446    8465.2486    7203.3913     1715.704   -334.16634      2013.94   -3536.1063 
 7491000    219.72816   -4901.5881   -4462.1046   -4901.5881            0    9087.4898     17.96871    22.617658    19.362977    7869.3099    10288.784    9516.2619    7457.4239     169.9059   -1445.9892    139.88793   -3419.1714 
 7492000    226.47672   -4916.4247   -4463.4433   -4916.4247            0     7384.098    18.061423    22.759919    19.270888    7921.8096    6948.2532    8220.4032    6983.6378   -1224.2887    884.47932    123.40643   -3610.3476 
 7493000    238.31311    -4898.503   -4421.8474    -4898.503            0    8311.9391    18.020941    22.710879    19.329614    7911.0584    8435.4461    6827.8471     9672.524    2758.7775   -1092.0206    1285.6469   -3462.8601 
 7494000     234.5153   -4905.2307   -4436.1711   -4905.2307            0     7252.192    18.072264    22.796525    19.262009    7935.6553    6844.0302    7069.2188    7843.3271   -1117.1912   -183.17463    1791.0005   -3596.8503 
 7495000    238.80054   -4893.1164   -4415.4858   -4893.1164            0    7815.6998    18.063554    22.801454    19.225278     7918.417    7327.8739    7701.8547    8417.3707   -1229.4541   -176.77938    -520.9392   -3512.9133 
 7496000    223.61214   -4901.9827   -4454.7308   -4901.9827            0      7063.15    17.887882    22.995179    19.281894    7931.3188    6792.3201    7136.1303    7260.9997   -260.79333    66.850508    515.00531   -3637.7352 
 7497000    230.90193   -4906.0593   -4444.2269   -4906.0593            0    8925.9125    17.836137    23.040003    19.150854    7869.9412    9074.2635     8509.449    9194.0252   -283.89459    1906.3445   -452.02087   -3419.7551 
 7498000    227.57922   -4879.2141   -4424.0275   -4879.2141            0    8308.9242    17.961192    23.029751    19.104877    7902.5755    8784.8078    7196.2755    8945.6893    1572.0206    922.43557    948.05544    -3466.416 
 7499000    221.98424   -4900.7694   -4456.7735   -4900.7694            0    8816.6567    17.869533    22.881455    19.285739    7885.5703    8868.5578    9025.2256    8556.1867    160.77335   -235.94984   -1846.4407    -3442.832 
 7500000    236.28673    -4886.036   -4413.4334    -4886.036            0    8813.6165    17.864322    22.844208    19.327087    7887.3128    8182.7285    8858.3323    9399.7888    802.72257   -110.88581     416.1301   -3399.6175 
Loop time of 550.475 on 64 procs for 250000 steps with 1008 atoms

Performance: 78.478 ns/day, 0.306 hours/ns, 454.154 timesteps/s
191.6% CPU use with 32 MPI tasks x 2 OpenMP threads

MPI task timing breakdown:
Section |  min time  |  avg time  |  max time  |%varavg| %total
---------------------------------------------------------------
Pair    | 37.429     | 40.667     | 44.613     |  23.6 |  7.39
Bond    | 0.9051     | 1.0352     | 1.2947     |  10.0 |  0.19
Kspace  | 269.09     | 274.87     | 280.74     |  14.3 | 49.93
Neigh   | 3.5525     | 3.7066     | 3.8514     |   3.7 |  0.67
Comm    | 92.653     | 96.173     | 100.45     |  19.8 | 17.47
Output  | 0.61778    | 0.6181     | 0.61973    |   0.0 |  0.11
Modify  | 105.49     | 107.67     | 109.94     |  11.2 | 19.56
Other   |            | 25.74      |            |       |  4.68

Nlocal:        31.5000 ave          35 max          27 min
Histogram: 1 0 7 5 0 0 8 5 3 3
Nghost:        2920.62 ave        2943 max        2899 min
Histogram: 3 2 3 2 3 8 4 4 2 1
Neighs:        10597.3 ave       11920 max        9183 min
Histogram: 1 4 3 5 0 6 4 3 3 3

Total # of neighbors = 339113
Ave neighs/atom = 336.42163
Ave special neighs/atom = 2.0000000
Neighbor list builds = 7123
Dangerous builds = 0

unfix		3
unfix		2
unfix		1

write_data	data.final.${pid}
write_data	data.final.1
System init for write_data ...
PPPM initialization ...
  extracting TIP4P info from pair style
  using 12-bit tables for long-range coulomb (../kspace.cpp:340)
  G vector (1/distance) = 0.37961665
  grid = 24 27 32
  stencil order = 5
  estimated absolute RMS force accuracy = 0.0024092916
  estimated relative force accuracy = 7.2555102e-06
  using double precision FFTW3
  3d grid and FFT values/proc = 5355 672
Last active /omp style is kspace_style pppm/tip4p/omp
WARNING: Not all mixed pair coeffs generated from mixing. Use write_data with 'pair ij' option to store all pair coeffs. (../write_data.cpp:312)

write_restart   restart.lmp.${pid}
write_restart   restart.lmp.1
System init for write_restart ...
PPPM initialization ...
  extracting TIP4P info from pair style
  using 12-bit tables for long-range coulomb (../kspace.cpp:340)
  G vector (1/distance) = 0.37961665
  grid = 24 27 32
  stencil order = 5
  estimated absolute RMS force accuracy = 0.0024092916
  estimated relative force accuracy = 7.2555102e-06
  using double precision FFTW3
  3d grid and FFT values/proc = 5355 672
Last active /omp style is kspace_style pppm/tip4p/omp
Total wall time: 0:09:10
