LAMMPS (30 Jul 2021)
Processor partition = 0
  using 4 OpenMP thread(s) per MPI task
using multi-threaded neighbor list subroutines
variable        pid world 0 1
variable        phase world IceII IceIh

shell cd ${phase}
shell cd IceII
include Restart.lmp
echo both
log log.lammps
#include		in.partitions
include		in.temp
variable        temperature equal 55.10
variable	tempDamp equal 100.0
include		in.pressure
variable        pressure equal 2010.3
variable        pressureDamp equal 1000.0 # This is 1 ps
include		in.seed
variable        seed equal 745823

units		real
atom_style	full
box tilt large
read_restart	restart.lmp.${pid}
read_restart	restart.lmp.0
Reading restart file ...
  restart file = 30 Jul 2021, LAMMPS = 30 Jul 2021
  restoring atom style full from restart
  triclinic box = (-10.604310 -9.1440442 0.10030363) to (12.584310 12.134042 21.759695) with tilt (-9.2317395 1.7329434 2.7830600)
  2 by 2 by 4 MPI processor grid
  restoring pair style lj/cut/tip4p/long/omp from restart
  restoring bond style harmonic/omp from restart
  restoring angle style harmonic/omp from restart
  1296 atoms
  864 bonds
  432 angles
Finding 1-2 1-3 1-4 neighbors ...
  special bond factors lj:    0        0        0       
  special bond factors coul:  0        0        0       
     2 = max # of 1-2 neighbors
     1 = max # of 1-3 neighbors
     1 = max # of 1-4 neighbors
     2 = max # of special neighbors
  special bonds CPU = 0.001 seconds
  read_restart CPU = 0.005 seconds
include 	in.setup
variable	out_freq equal 1000
variable	out_freq2 equal 10000
variable	out_freq3 equal 1000

timestep	2.0

neigh_modify    delay 7 every 1

include		in.tip4p
# This is TIP4P/Ice

# create groups ###
group ox type 2
432 atoms in group ox
group hy type 1
864 atoms in group hy

# set charges - beside manually ###
set group ox charge -1.1794
Setting atom values ...
  432 settings made for charge
set group hy charge 0.5897
Setting atom values ...
  864 settings made for charge

# ### TIP3P Potential Parameters ###
pair_style lj/cut/tip4p/long/omp 2 1 1 1 0.1577 8.5
pair_coeff 1 1*2 0.000 0.000
pair_coeff 2 2 0.21084 3.1668
bond_style  harmonic
bond_coeff  1 450 0.9572
angle_style harmonic
angle_coeff 1 55 104.52
kspace_style pppm/tip4p/omp 1.0e-5
pair_modify tail yes

thermo          ${out_freq}
thermo          1000
thermo_style    custom step temp pe etotal epair emol press lx ly lz vol pxx pyy pzz pxy pxz pyz enthalpy

restart 	${out_freq3} restart.lmp.${pid} restart2.lmp.${pid}
restart 	1000 restart.lmp.${pid} restart2.lmp.${pid}
restart 	1000 restart.lmp.0 restart2.lmp.${pid}
restart 	1000 restart.lmp.0 restart2.lmp.0


include         in.dump
dump            myDump all atom ${out_freq2} dump.water.${pid}
dump            myDump all atom 10000 dump.water.${pid}
dump            myDump all atom 10000 dump.water.0
dump            myDump2 all dcd ${out_freq2} dump.dcd
dump            myDump2 all dcd 10000 dump.dcd
dump_modify     myDump append yes
dump_modify     myDump2 append yes


variable natoms 	equal  "count(all)"                        # NUMBER ATOMS
variable H      	equal  "enthalpy/v_natoms"                 # ENTHALPY-per-atom
variable Vol      	equal  "vol/v_natoms"                 # volume-per-atom
fix AVG all 		ave/time ${out_freq} 1 ${out_freq} v_Vol v_H file vol_enthalpy.dat
fix AVG all 		ave/time 1000 1 ${out_freq} v_Vol v_H file vol_enthalpy.dat
fix AVG all 		ave/time 1000 1 1000 v_Vol v_H file vol_enthalpy.dat


timer           timeout 10:00:00 every 1000
New timer settings: style=normal  mode=nosync  timeout=10:00:00

fix 		1 all shake 1e-6 200 0 b 1 a 1
Finding SHAKE clusters ...
       0 = # of size 2 clusters
       0 = # of size 3 clusters
       0 = # of size 4 clusters
     432 = # of frozen angles
  find clusters CPU = 0.000 seconds
fix             2 all nph tri ${pressure} ${pressure} ${pressureDamp}
fix             2 all nph tri 2010.3 ${pressure} ${pressureDamp}
fix             2 all nph tri 2010.3 2010.3 ${pressureDamp}
fix             2 all nph tri 2010.3 2010.3 1000
fix             3 all temp/csvr ${temperature} ${temperature} ${tempDamp} ${seed}
fix             3 all temp/csvr 55.1 ${temperature} ${tempDamp} ${seed}
fix             3 all temp/csvr 55.1 55.1 ${tempDamp} ${seed}
fix             3 all temp/csvr 55.1 55.1 100 ${seed}
fix             3 all temp/csvr 55.1 55.1 100 745823


run             250000
PPPM initialization ...
  extracting TIP4P info from pair style
  using 12-bit tables for long-range coulomb (../kspace.cpp:340)
  G vector (1/distance) = 0.36880158
  grid = 30 40 32
  stencil order = 5
  estimated absolute RMS force accuracy = 0.004211304
  estimated relative force accuracy = 1.2682217e-05
  using double precision FFTW3
  3d grid and FFT values/proc = 11832 2400
Last active /omp style is kspace_style pppm/tip4p/omp
Neighbor list info ...
  update every 1 steps, delay 7 steps, check yes
  max neighbors/atom: 2000, page size: 100000
  master list distance cutoff = 10.8154
  ghost atom cutoff = 10.8154
  binsize = 5.4077, bins = 7 5 5
  1 neighbor lists, perpetual/occasional/extra = 1 0 0
  (1) pair lj/cut/tip4p/long/omp, perpetual
      attributes: half, newton on, omp
      pair build: half/bin/newton/tri/omp
      stencil: half/bin/3d/tri
      bin: standard
Setting up Verlet run ...
  Unit style    : real
  Current step  : 37250000
  Time step     : 2
  Walltime left : 9:59:59.97
Per MPI rank memory allocation (min/avg/max) = 12.75 | 12.76 | 12.76 Mbytes
Step Temp PotEng TotEng E_pair E_mol Press Lx Ly Lz Volume Pxx Pyy Pzz Pxy Pxz Pyz Enthalpy 
37250000    54.502808   -6869.6601   -6729.4549   -6869.6601            0    1860.4112     23.18862    21.278086    21.659392    10686.949    2010.4486    1738.5845    1832.2004    95.619443     268.2212    206.93179   -6439.4946 
37251000    56.853169    -6885.441   -6739.1897    -6885.441            0    2139.2344    23.163265    21.307617    21.634337    10677.713    2352.2268    2147.0312    1918.4454    -292.8908   -537.70163   -119.27962   -6406.0606 
37252000    55.360384   -6881.7174   -6739.3062   -6881.7174            0    2163.7076    23.205513    21.315634    21.568366    10668.581    2104.5519    1820.5485    2566.0223    -728.0763    12.436972   -128.60851   -6402.6543 
37253000    55.856652   -6884.6283   -6740.9404   -6884.6283            0    1928.0293    23.155363    21.284833    21.672563    10681.497    2161.3174    1831.3196     1791.451    94.284865  -0.88212166     271.2034   -6440.5946 
37254000    53.827412   -6885.7756   -6747.3079   -6885.7756            0    1827.2423    23.207495     21.36492     21.54233    10681.253    1723.1181     1442.391    2316.2177   -495.71961   -129.04994    371.05101    -6462.669 
37255000    54.736189    -6880.532   -6739.7265    -6880.532            0    1734.4195    23.091381      21.3266    21.713038    10692.817    2337.3683    1438.9789    1426.9113    -589.2465   -13.013369   -39.905459   -6469.2546 
37256000    55.890674   -6879.3463   -6735.5709   -6879.3463            0    2228.3763    23.227866    21.290773    21.583585    10673.929    2068.7382    2539.0705    2077.3202    246.02154    586.40875   -499.85582   -6388.6833 
37257000    54.009501   -6882.3974   -6743.4613   -6882.3974            0    1465.2676    23.175372    21.371229    21.613757    10704.995    672.02462    1794.2297    1929.5484    229.76968    161.62187    271.36122   -6514.7017 
37258000    55.464287   -6879.5671   -6736.8886   -6879.5671            0    2198.8197    23.177082    21.313566    21.610291    10675.187    2403.3312    1698.7771    2494.3509    235.93433    -315.1566    415.07451   -6394.5617 
37259000     55.95387   -6875.2358   -6731.2979   -6875.2358            0    2335.6656    23.122294    21.385351    21.594305    10677.917    2541.8137    1421.5697    3043.6134    472.77689   -255.04381     192.5104   -6367.5729 
37260000    55.492353   -6880.0734   -6737.3227   -6880.0734            0    1871.2329    23.201454    21.331081    21.585804    10683.075    939.46103     2128.865    2545.3728    397.26714    785.68995     122.7955   -6445.7814 
37261000    55.762485   -6882.7704   -6739.3248   -6882.7704            0    2881.1913    23.100494    21.291103    21.657743    10652.036    3081.4935    3437.2893    2124.7911    478.57319   -205.10944   -76.218187   -6291.7345 
37262000    55.857583   -6873.7918   -6730.1015   -6873.7918            0    2003.7128    23.211701    21.363115    21.545043    10683.632    2488.1378    1549.2854    1973.7152    7.9391768   -156.03786    333.63152   -6417.9034 
37263000    56.552792   -6880.9565   -6735.4779   -6880.9565            0    2272.2465    23.164384    21.269195    21.674201    10678.615    1645.0557    3515.7926    1655.8911    1148.2925   -61.428563    227.20295   -6381.6058 
37264000    53.702545   -6885.6888   -6747.5423   -6885.6888            0    1418.4182    23.281562    21.306845    21.568527    10699.211    831.60203    1648.7934    1774.8593    148.74394    58.182508    91.834911   -6526.2166 
37265000    55.632351     -6882.61   -6739.4991     -6882.61            0    2002.1041    23.224781    21.265515    21.626115    10680.856    1806.9152    2436.7665    1762.6306    91.116233   -230.82259   -556.91906   -6427.6327 
37266000    54.646533   -6881.3059    -6740.731   -6881.3059            0    2094.4666    23.282734    21.238057     21.60393    10682.712    1354.9067    2968.8761    1959.6168    -216.5435   -302.73021   -233.27873   -6414.4207 
37267000     56.02854   -6884.0421   -6739.9121   -6884.0421            0    1723.6401    23.232104     21.26594    21.658019    10700.199    2205.8927    1937.3681    1027.6594   -225.58303   -666.53607    -169.3786   -6470.9356 
37268000    54.890982    -6888.214   -6747.0103    -6888.214            0    1856.1551    23.231255    21.261129    21.643163     10690.05    1711.5063    2119.9683    1736.9909   -168.40636     460.0386   -290.63639   -6457.6294 
37269000    55.156212   -6882.0781   -6740.1921   -6882.0781            0    1901.3981    23.166765    21.327755    21.609252    10677.025    1909.3027    1388.7627    2406.1291     292.7142    208.30472   -82.883739   -6444.1189 
37270000    55.618746   -6886.2877   -6743.2118   -6886.2877            0    2202.7689    23.099566    21.390402    21.592278    10668.939    2953.5212    1397.3026    2257.4827   -780.41714    218.12164    17.145283   -6400.4709 
37271000    55.611855   -6891.3892   -6748.3311   -6891.3892            0    1404.3741    23.147663    21.371685    21.621006     10696.01     1584.233    1068.1566    1560.7326    504.98538    110.40881    173.36275   -6529.2623 
37272000    54.610622   -6877.5871   -6737.1046   -6877.5871            0    2171.3314    23.093153    21.398556    21.590513    10669.171    2593.8625    1725.0459    2195.0859   -325.84503   -58.783626    114.41358   -6399.2477 
37273000    53.799788   -6881.4587    -6743.062   -6881.4587            0    2117.4078    23.135338    21.354337    21.606684    10674.562    2377.0237    1989.7553    1985.4444    287.70982   -418.72965   -213.89296   -6413.4292 
37274000    59.760315   -6877.7319   -6724.0022   -6877.7319            0    1328.4094    23.191693    21.324253    21.651099    10707.454    1521.7446    1332.5152    1130.9685   -123.16066   -9.9655226    186.32501   -6516.5614 
37275000    58.317871   -6879.7234   -6729.7043   -6879.7234            0      2544.72    23.226115    21.226581    21.624745    10661.237    2555.7608    2778.5015    2299.8979    32.849121     189.4497    334.94102    -6334.043 
37276000    54.573769   -6872.2189   -6731.8312   -6872.2189            0    2044.5282     23.27977    21.247165     21.61015    10689.009    2063.7628     2030.806    2039.0157   -76.711953   -570.14821    -214.1192   -6413.1134 
37277000    56.656483   -6882.4953     -6736.75   -6882.4953            0    2249.9186     23.30159    21.154838    21.633991    10664.289    1890.6498    2671.3093    2187.7965   -610.17215    136.77348     338.3619   -6386.8253 
37278000    54.946592   -6888.4954   -6747.1486   -6888.4954            0    1778.5523    23.237616    21.249195    21.643614    10687.198    1125.4114    2313.8211    1896.4243    89.145668    170.00993   -38.931008   -6469.9402 
37279000    56.552725   -6889.7875    -6744.309   -6889.7875            0    1961.2505    23.212724    21.260091    21.627917    10673.477    1432.8537    2360.2898     2090.608    649.55846   -60.834188     87.02063   -6439.0174 
37280000    56.202229   -6876.0116   -6731.4348   -6876.0116            0    2157.9841    23.109592    21.377099    21.621178    10681.209    2716.0896    1599.3856    2158.4772    14.521846   -6.5408135    587.94784    -6395.276 
37281000    56.840298   -6879.7784   -6733.5602   -6879.7784            0    2017.3128     23.09757    21.453989    21.561437    10684.447    2292.3449    1111.7504     2647.843    460.69326    185.22338    531.83345   -6419.2191 
37282000    55.333508   -6877.0295   -6734.6874   -6877.0295            0    1874.9199    23.116382    21.398492    21.604754    10686.915    1852.2917    1795.9712    1976.4968    473.35931    37.730475   -79.492131   -6442.4667 
37283000    55.911994   -6883.0171   -6739.1869   -6883.0171            0    2471.3536    23.087703    21.424283    21.558399    10663.592    2596.6638    2130.4297    2686.9674    230.01994    1050.6806   -206.00534   -6354.8481 
37284000    56.038667   -6886.8798   -6742.7238   -6886.8798            0     2025.789    23.143324    21.379398    21.567254    10671.269    2122.2487     1538.921    2416.1974    505.61503    107.19216    558.31476   -6427.4512 
37285000    53.708998   -6884.7774   -6746.6143   -6884.7774            0    2112.7637    23.175361    21.315665    21.629124    10684.749     2094.405    1784.6723    2459.2138   -15.297367    616.09737    99.174446   -6417.3906 
37286000    56.190208   -6888.7196   -6744.1738   -6888.7196            0    1833.9669    23.245508    21.235627    21.641838    10683.124    959.06783    2393.6828    2149.1499   -91.334726     83.44035    67.142778   -6458.4373 
37287000    53.586253   -6875.6799   -6737.8325   -6875.6799            0    2378.6724    23.234307    21.252124    21.612486    10671.778    2263.7008    2261.2244     2611.092   -312.70097   -397.80594    613.31662   -6367.6232 
37288000    55.015942   -6882.5929   -6741.0677   -6882.5929            0    1874.2745    23.305978    21.227097    21.597555    10684.705    964.04691    2226.5983    2432.1782    74.501257   -145.91035    93.339057   -6449.0081 
37289000    54.408117   -6878.4598   -6738.4982   -6878.4598            0    2206.0645    23.228986    21.209011     21.65547    10668.867    1570.9083    3420.1916    1627.0936    231.84816    432.62069   -287.98646   -6395.2468 
37290000    55.409556   -6885.5595   -6743.0218   -6885.5595            0    1992.6808    23.237724    21.272978    21.577355    10666.455    1775.3162    2335.2791     1867.447   -212.64694    294.05212    91.971841   -6433.0418 
37291000    54.037086   -6885.9306   -6746.9235   -6885.9306            0    1874.1183    23.119402    21.311914    21.676405     10680.37    1879.9486    1678.5583    2063.8479    638.23822     -264.826    369.20219   -6455.0067 
37292000    54.925059   -6881.7267   -6740.4353   -6881.7267            0    2228.8852     23.16007    21.359047    21.562967    10666.704    2679.7451    1794.0573    2212.8533   -143.49876   -167.32805    91.067248   -6393.7034 
37293000    55.880411   -6881.3892   -6737.6403   -6881.3892            0    2035.4294    23.090183    21.387118    21.619077    10676.202    2368.2232    1787.2797    1950.7853     282.4882   -224.10505   -64.406294    -6420.721 
37294000    56.185754   -6882.0028   -6737.4684   -6882.0028            0    1764.7123    23.067819    21.510897    21.529701    10683.242    2215.2984    758.11594    2320.7225    -86.98369    220.75147   -228.01837    -6462.519 
37295000    52.371903   -6889.5498   -6754.8263   -6889.5498            0    1693.8739    23.083168    21.407768    21.620441    10683.938    2026.2972    1081.4521    1973.8725     63.10963   -220.70143    61.858293   -6490.8966 
37296000    55.522801   -6879.1181   -6736.2891   -6879.1181            0    2321.4995    23.153599     21.37195    21.538595    10658.106     1930.612    2003.7846    3030.1021    3.4455432    195.14733    126.82487   -6375.4409 
37297000    55.753746   -6888.2418   -6744.8187   -6888.2418            0    1522.7473    23.186949    21.342652    21.604734    10691.556    1212.2447    1976.6434    1379.3538     608.9036    187.54039    54.027811   -6507.3837 
37298000    54.985694   -6877.7498   -6736.3024   -6877.7498            0    2087.4329     23.11558    21.321973    21.667935     10679.47    2543.9208    1985.4782    1732.8997    40.129361   -268.61031   -274.64584   -6411.1866 
37299000     54.44771   -6875.9286   -6735.8652   -6875.9286            0    1856.0024    23.218473      21.3442    21.555777    10682.606    1679.5677    2030.0515     1858.388   -293.37402   -500.32233   -207.23707   -6446.7095 
37300000    58.682353   -6890.7208    -6739.764   -6890.7208            0    1966.5494    23.238394    21.155252    21.712136    10673.992     1925.597    2360.2521    1613.7992    105.91808   -148.14653    181.39572   -6433.6328 
37301000    56.107783   -6881.4717   -6737.1378   -6881.4717            0    1861.5524    23.286054    21.256639    21.588094    10685.745    1280.8669    2087.6342    2216.1561   -852.38439   -177.40682    152.47691   -6447.0323 
37302000     53.86587   -6884.5559   -6745.9892   -6884.5559            0    1658.2109    23.328308    21.129493    21.687284    10689.995    1282.3113    2160.7768    1531.5446   -99.096681     26.06341    325.87933   -6487.4698 
37303000    54.910666   -6885.3961   -6744.1418   -6885.3961            0    2250.8332    23.276745    21.197653    21.626619    10670.841    2540.7304    2382.8803     1828.889    -170.4538   -983.50417    206.61112   -6393.8598 
37304000    54.546871   -6877.0886   -6736.7701   -6877.0886            0    1920.5736    23.282087    21.225116    21.633456    10690.497    1457.5096    2580.2099    1724.0014    188.02137   -847.87807    -85.80265   -6437.3336 
37305000    57.244695   -6883.3647   -6736.1062   -6883.3647            0    2025.3718    23.234555    21.201754    21.680647    10680.176    1765.8531    2521.9625    1788.2996    469.68378    6.8063785    235.70131   -6420.6355 
37306000    55.786258    -6875.169   -6731.6622    -6875.169            0     2475.113     23.18694    21.343519    21.555143    10667.444    2554.7595    1953.1887    2917.3909    50.277805   -183.14787    326.12169   -6346.5996 
37307000    55.907169   -6884.0653   -6740.2475   -6884.0653            0    2003.6239    23.111757    21.343751     21.64668    10678.125    2944.2693    1507.9808    1558.6215   -423.77102   -351.35887    246.20445   -6428.2242 
37308000    52.898984   -6876.9991   -6740.9197   -6876.9991            0    1906.9963    23.159148    21.382045    21.583266    10687.816    2067.1523    1091.4267      2562.41   -126.72774    85.979923    140.49356   -6443.6745 
37309000    54.276624   -6876.4294   -6736.8061   -6876.4294            0    2446.9473    23.095505    21.384854    21.613492    10674.774    2717.5095    2306.3075    2317.0248    262.64223   -194.76179   -418.00831   -6355.8638 
37310000    53.462771   -6886.3714   -6748.8416   -6886.3714            0    2647.5023    23.132538    21.328839    21.579223    10646.976    2835.2118    2495.4183    2611.8767    317.03044    235.19945    803.31238   -6337.7501 
37311000    53.389416   -6878.7781   -6741.4371   -6878.7781            0    1444.6037    23.161152    21.427354    21.600868    10720.127    1881.2315    736.24157     1716.338    701.92255   -362.29651    363.53122   -6515.5848 
37312000    57.394883   -6883.1672   -6735.5223   -6883.1672            0    1920.8151    23.189454    21.336859    21.591887    10683.453    1685.7218    1940.6422    2136.0815   -173.12492    230.90029    301.99689   -6436.2455 
37313000    56.826989   -6876.3764   -6730.1925   -6876.3764            0    2307.2563    23.165937    21.319419    21.626922    10681.197    2319.2887     2066.826    2535.6541    319.73939   -24.772796    -262.9056   -6370.7812 
37314000    53.012241   -6879.5038    -6743.133   -6879.5038            0    1656.7699    23.197719    21.318192    21.624488    10694.032    1528.4509    1973.5881    1468.2706   -359.90727     647.7563   -143.43786   -6484.7407 
37315000    54.943956   -6892.4903   -6751.1503   -6892.4903            0    1245.3533    23.218248    21.308507      21.6429    10707.743    1218.9958    1187.9776    1329.0864   -243.65432    198.20618    10.882979   -6556.6742 
37316000    56.228585   -6877.8103   -6733.1656   -6877.8103            0     1987.123    23.243168    21.276211    21.611668    10687.544    1824.4779    2135.3533    2001.5377    370.79802   -512.49844   -106.89456    -6423.439 
37317000    51.887775   -6881.4996   -6748.0214   -6881.4996            0    2532.8364    23.196308    21.239964    21.633954    10658.806    2307.4611    2790.1656    2500.8823    -490.2329   -67.692695    183.91045   -6354.2977 
37318000     55.72878   -6890.3163   -6746.9574   -6890.3163            0    1370.7431    23.264286    21.265405    21.645252    10708.436    1240.7073    1465.4287    1406.0933   -168.48834     143.4046    156.46283   -6532.8863 
37319000    53.115423   -6885.9947   -6749.3586   -6885.9947            0    2111.0781    23.290415    21.186828     21.61902    10667.906     1945.618    1914.6264    2472.9898   -39.147906    179.58609    420.31408    -6420.916 
37320000    55.373476   -6885.1468   -6742.7019   -6885.1468            0    2025.4489    23.221889    21.292355    21.634765    10697.282    1779.9725     2286.651    2009.7231    9.6322225    337.53269   -79.936483   -6426.7139 
37321000    53.727781   -6877.5179   -6739.3065   -6877.5179            0    2003.2696    23.250523    21.258478    21.609975    10681.178    1405.0948     2714.892    1889.8221    191.54647    146.67139     264.6869   -6427.2491 
37322000    57.406499   -6876.0059   -6728.3312   -6876.0059            0    1626.3387    23.232071    21.374512    21.577058    10714.609    1207.0633    1306.5651    2365.3877   -144.66766     393.2908    -58.57749   -6474.1969 
37323000    54.336205    -6887.355   -6747.5784    -6887.355            0    2018.9427    23.162184    21.311218    21.636495    10680.085    2242.5593    1773.1196    2041.1492    361.45383   -36.411661    235.63052   -6433.1118 
37324000    55.575354   -6886.3023   -6743.3381   -6886.3023            0    2322.0501     23.13822    21.331404    21.626755    10674.333    2569.6304    2166.9218    2229.5979    378.93561   -184.27319   -146.94154   -6381.8549 
37325000    56.709999   -6887.8629   -6741.9798   -6887.8629            0     1642.651    23.181422    21.398295    21.565948    10697.636    1977.7026    1220.5449    1729.7054   -114.33922   -169.22468   -407.38384   -6485.7032 
37326000    55.494912   -6885.1886   -6742.4313   -6885.1886            0    1576.4652     23.15528    21.313941    21.688918    10704.137    1774.3888     1316.862    1638.1447    468.89148    267.76144     591.9789   -6496.3311 
37327000    54.898743   -6886.6624   -6745.4387   -6886.6624            0    1805.7152    23.201231    21.377582    21.578784    10702.779    1720.4442    1289.5073    2407.1942   -23.262063   -182.14151    113.27722   -6463.5863 
37328000    56.270543   -6877.1093   -6732.3567   -6877.1093            0    1704.9016    23.157726    21.367036    21.639425    10707.446    1910.6754    707.71389    2496.3155   -334.46104    618.96346    854.73903   -6466.1242 
37329000    54.608137   -6886.1554   -6745.6793   -6886.1554            0     2159.518    23.177906    21.350353    21.574982     10676.52    1618.0205    2456.8509    2403.6826    403.72038     -55.0146    -51.90453   -6409.4292 
37330000    56.907195   -6879.8762   -6733.4859   -6879.8762            0    2305.0414     23.17893    21.314276    21.620299    10681.338    2457.8887    2778.9234     1678.312   -3.9830467    -279.6112    112.02792    -6374.415 
37331000    53.835979   -6882.5986   -6744.1088   -6882.5986            0    2241.9024    23.184637    21.296903    21.591932    10661.253    1900.0056    2634.1641    2191.5376   -92.665688    1.6755785    480.38975   -6395.5301 
37332000     54.05221   -6883.0332   -6743.9872   -6883.0332            0    2587.9299    23.210556    21.249981    21.617741    10662.386    2248.5725    3450.0974    2065.1199    311.42288   -128.96983   -532.38057   -6341.5642 
37333000    55.356922   -6885.6628   -6743.2605   -6885.6628            0    1425.7003    23.238797    21.274715    21.651105     10704.28    884.94653    1407.0472    1985.1073   -22.013523    -574.0368    212.25408    -6520.693 
37334000    57.773544   -6878.2049    -6729.586   -6878.2049            0    2242.0491    23.256206     21.26638    21.582205    10674.026     1903.401    2294.6018    2528.1446   -413.68095    252.89773   -26.413094   -6380.5668 
37335000     54.27996   -6882.9019     -6743.27   -6882.9019            0    2416.8273     23.22458    21.238711    21.635259    10671.811    2139.2401      2268.08    2843.1619   -186.63849   -99.159019   -137.04056   -6367.1212 
37336000    54.997166   -6885.6487   -6744.1718   -6885.6487            0     1990.718    23.147848    21.302511    21.640894    10671.282    2002.5211    1785.9862    2183.6469    20.055219    186.09521    522.58755    -6434.357 
37337000    52.720286   -6883.0898   -6747.4701   -6883.0898            0    2162.5425    23.186033    21.324498    21.575194    10667.434    2304.8353    2225.3824    1957.4098    1.1531011    70.329628   -182.82818   -6411.0356 
37338000    56.991688   -6886.9781   -6740.3704   -6886.9781            0    2003.8334    23.158683    21.285059    21.651883    10672.948    1866.7735    2262.4038    1882.3227    457.92358    335.34762   -48.124682   -6428.4657 
37339000    53.671968   -6888.9699   -6750.9021   -6888.9699            0    1601.2909    23.163944    21.384139    21.587392     10693.12    1269.1749    1342.9042    2191.7935    -307.3035    357.67953    232.86682   -6501.1836 
37340000    56.507462   -6889.2054   -6743.8434   -6889.2054            0    2065.1671    23.140251    21.367456    21.586655    10673.485    2361.7451    1499.0008    2334.7554    309.22042   -62.087816    204.42597   -6422.3757 
37341000    54.413346   -6889.7683   -6749.7933   -6889.7683            0    1908.6414    23.111587    21.342524    21.643608    10675.917    1954.3382    1956.8686    1814.7172   -51.520713    288.31208    144.18092    -6452.623 
37342000    55.181399   -6882.2973   -6740.3465   -6882.2973            0      1508.07    23.156033    21.431505    21.567149    10703.099    2110.0784    1017.9674    1396.1641   -114.75766   -609.62782   -292.17368   -6504.9463 
37343000    53.773754   -6879.1612   -6740.8315   -6879.1612            0    2380.9143    23.127563    21.326939    21.628991    10668.286     2399.696    2313.8877    2429.1592    27.654947    40.899874   -53.014959   -6370.3946 
37344000    56.580683   -6883.7027   -6738.1524   -6883.7027            0     2414.367    23.158692    21.357391    21.544516    10656.117    2549.4599    1984.6523    2708.9889     195.7082   -456.14569   -257.94261   -6362.9391 
37345000     51.88411   -6883.5009   -6750.0322   -6883.5009            0    2004.9886    23.168592    21.335004    21.599314    10676.584    2036.7794    2365.5606    1612.6259    330.08724    129.08862   -120.83439   -6437.8414 
37346000     56.99666   -6880.6926   -6734.0722   -6880.6926            0    2056.7859     23.18235    21.289625    21.641667    10681.105    1689.0718    2287.2394    2194.0464   -75.575756    669.99386   -63.658411   -6413.6806 
37347000    55.907295    -6886.365   -6742.5469    -6886.365            0    1533.0687     23.27315      21.2948    21.589594    10699.739    1352.8706    1552.8115    1693.5242    229.86362    190.31171   -318.04085   -6503.3196 
37348000    53.091148   -6888.0286   -6751.4549   -6888.0286            0    1423.0348    23.210509    21.289849    21.677433    10711.865    1829.7275    1132.0565    1307.3202   -485.28595   -393.46399    280.53206   -6529.1461 
37349000    55.625339   -6883.3343   -6740.2415   -6883.3343            0    1766.9522    23.320564    21.248586    21.582281    10694.646      1161.13    2304.8933    1834.8333    304.27172   -45.884893    288.38714   -6464.6492 
37350000    53.079103   -6882.7005   -6746.1578   -6882.7005            0     1990.867    23.240734    21.246777    21.657078    10694.064    1719.6563     1945.543    2307.4016    301.87422   -7.3746019    235.76066   -6435.6583 
37351000    54.908481   -6890.1375   -6748.8888   -6890.1375            0    1736.5883    23.218101    21.273735    21.644744    10691.112    2040.1772    1602.4278      1567.16   -244.16126    110.07496    342.93038   -6478.1218 
37352000    55.812279   -6883.5481   -6739.9744   -6883.5481            0    2335.1914    23.198983    21.307798    21.590533    10672.616    2277.7493    2447.5982    2280.2268   -429.47982    528.69476   -144.33686   -6376.5038 
37353000    56.607661   -6880.6402   -6735.0204   -6880.6402            0    2119.4253    23.175052    21.291057    21.652109    10683.613     2258.162    2400.7005    1699.4135    1161.5557   -254.96122   -526.81144   -6404.7937 
37354000    58.138089   -6890.0193   -6740.4626   -6890.0193            0    1308.6952    23.181997    21.385876    21.590806    10704.016    1117.5372    1318.5718    1489.9765    468.24743    259.55265    358.18229    -6536.166 
37355000    56.670712   -6883.1797   -6737.3977   -6883.1797            0    1833.5301    23.078779    21.479689    21.559018    10687.344    2745.0244    723.17506    2032.3908    401.44518   -118.12345   -144.13551   -6451.6165 
37356000    55.331082   -6887.6366   -6745.3008   -6887.6366            0    1705.4362    23.156369    21.355849    21.612369    10687.833    1794.5102    1438.6553    1883.1432   -112.71589    292.04933    148.29037   -6479.4726 
37357000    54.130503   -6880.8403   -6741.5929   -6880.8403            0    1644.5011    23.116091    21.446756    21.568443    10692.883    1818.5872    1470.2653    1644.6508    230.08328   -74.832399   -274.63412   -6485.1416 
37358000    53.192736   -6877.6679   -6740.8328   -6877.6679            0    2402.6406    23.101569    21.397563    21.573772    10664.288    2788.9644    1721.4992    2697.4581    553.76886   -129.85866   -301.14385   -6367.1556 
37359000    53.989669   -6883.2065   -6744.3213   -6883.2065            0    2144.1368    23.162876    21.337265    21.601021    10675.925    1768.1158    2419.3685    2244.9259    -39.64685    478.28798    55.826195   -6410.4848 
37360000    54.417622   -6886.1238   -6746.1378   -6886.1238            0    1241.2842    23.181619    21.412055    21.591857    10717.466      755.565    1030.0449    1938.2426    173.57242    -386.4729    412.69967    -6552.121 
37361000    54.712357   -6881.6559   -6740.9117   -6881.6559            0    1810.7902    23.219969    21.294972    21.633937    10697.302    2233.6572    1007.7401    2190.9732   -309.11975    617.63184    326.85839   -6458.4118 
37362000    54.234668   -6878.8939   -6739.3785   -6878.8939            0    1956.1136    23.239702    21.258303    21.627772    10684.911    1893.6878    1673.8559    2300.7972   -71.757414    201.39454   -480.33088   -6434.5603 
37363000    55.693908   -6881.2717   -6738.0025   -6881.2717            0    2012.5596    23.321033    21.255253    21.535373    10674.965    1578.4773    2317.3847    2141.8166   -633.21701    222.78266   -197.94018   -6424.6804 
37364000    55.468647   -6878.9163   -6736.2266   -6878.9163            0    2290.5208     23.15241    21.237841    21.698873    10669.492    2647.6609    2575.4674    1648.4342    193.36322   -283.76865    19.161992   -6379.8133 
37365000    55.790853   -6881.1815    -6737.663   -6881.1815            0    2183.3286    23.277108    21.283952    21.519764    10661.512    1756.3099     2377.386      2416.29    512.41747    -257.5581   -54.011548   -6398.1833 
37366000    52.802261   -6887.0206     -6751.19   -6887.0206            0     1588.347    23.153843    21.271911    21.694602    10685.166    1801.8691    1654.5412    1308.6307    80.894119   -191.98907   -224.73721   -6503.6744 
37367000    52.500744   -6891.6031   -6756.5482   -6891.6031            0    2131.3797    23.189618    21.308871    21.587394    10667.294    2206.9357    1681.3386    2505.8647   -82.541544    544.63518    542.35959   -6424.9662 
37368000    53.666012   -6886.9377   -6748.8851   -6886.9377            0     1265.155    23.194548    21.383369    21.591554    10708.927    918.31536    1193.4286    1683.7209   -89.392786    161.90101   -213.51108   -6551.2949 
37369000    54.906448   -6883.3609   -6742.1174   -6883.3609            0    2188.5346    23.129206    21.315419     21.64765    10672.481    2372.7052    2453.0397    1739.8588     447.0449    11.012674    432.22673   -6401.4782 
37370000    55.669887   -6886.7205   -6743.5131   -6886.7205            0    1920.9517    23.139555    21.421324    21.552951    10683.365    2344.9099    1163.8042    2254.1411    189.86308   -23.076176    193.11577   -6444.2174 
37371000    54.223909   -6882.1091   -6742.6214   -6882.1091            0    1733.9365    23.139631    21.379089    21.606813    10688.982    1569.4632    1494.8021    2137.5442    525.59806    450.98455    184.09158   -6472.3218 
37372000    57.256956   -6879.2373   -6731.9473   -6879.2373            0    2154.1282    23.070353    21.347792    21.672117    10673.542    2628.7614    2105.2129    1728.4102   -14.868498   -93.941333   -55.765948     -6396.63 
37373000     54.25702   -6882.6829   -6743.1101   -6882.6829            0    2226.4431    23.175868    21.395464    21.498953    10660.438    1842.8034    1771.8655    3064.6604   -177.87935   -608.15803    155.86479   -6396.9615 
37374000    55.220567   -6879.5008   -6737.4493   -6879.5008            0    2358.2503    23.143026    21.272937    21.661771    10664.526    3157.1745    1796.1435    2121.4329   -435.57853    35.075876    322.85223   -6370.6678 
37375000    56.405518   -6881.5067   -6736.4069   -6881.5067            0    2047.5862    23.237203    21.296503    21.568484     10673.62    1768.7662    2048.1802     2325.812   -270.25535   -310.31977    -450.6881   -6417.6719 
37376000      56.5481   -6886.6914   -6741.2248   -6886.6914            0    2404.6341    23.225943    21.215134    21.648706    10667.216    2053.9844    2769.0478    2390.8699   -706.31696     573.8542   -156.16175   -6367.1349 
37377000    56.457704   -6887.2527   -6742.0187   -6887.2527            0    2042.5653    23.217325    21.258695    21.642551    10682.114    2129.5937    2219.8083    1778.2939   -33.805006   -376.94324    -168.2608   -6423.8122 
37378000    53.763408    -6879.254   -6740.9509    -6879.254            0    2162.6433     23.24535    21.232113    21.632597    10676.723    2147.3924    2366.0419    1974.4954   -594.88176   -448.41184   -410.77655   -6404.2078 
37379000    55.509713   -6873.5667   -6730.7713   -6873.5667            0    2031.4609    23.246582    21.258307    21.616814    10682.661    2152.3457    1958.5445    1983.4925   -171.34367   -622.60973    205.48621   -6414.2786 
37380000     51.73991   -6884.9258    -6751.828   -6884.9258            0    2344.6872    23.231225     21.24591     21.62093     10671.41    1704.2581    3406.9894    1922.8141    247.77591    33.829587    64.456087   -6386.9207 
37381000    53.199979   -6887.3342   -6750.4805   -6887.3342            0    2022.4121    23.173311    21.311912    21.626715    10680.733    1809.5197    2085.8766      2171.84   -160.18095    -65.55629    176.43952   -6435.4544 
37382000    56.229983   -6878.4397   -6733.7915   -6878.4397            0    1170.6157    23.168902    21.371589     21.63239    10711.413    2143.1624    122.69129    1245.9933   -354.29404    131.10853    180.23387   -6550.9238 
37383000    57.001189   -6882.7693   -6736.1372   -6882.7693            0    2839.4218    23.030822    21.388722    21.629526    10654.701     3438.494     2706.993    2372.7785   -158.54629   -258.66435   -15.767808   -6294.9254 
37384000    52.013109   -6882.3432   -6748.5426   -6882.3432            0    1951.3423    23.131862    21.409641    21.558583    10676.777    1746.6126    2011.9189    2095.4952    148.40139    36.272248    144.84633   -6444.6994 
37385000    52.486922   -6883.1265   -6748.1071   -6883.1265            0    1699.1869     23.10846    21.403571    21.617891    10692.286     1506.449    1453.6937     2137.418    741.97948   -53.123434    491.83892   -6483.1426 
37386000     56.84566   -6878.4222   -6732.1902   -6878.4222            0    3018.6215    23.031395    21.432247    21.554817    10639.771    3927.0971    1900.8373    3227.9302   -649.78141    191.70101    60.517785   -6263.7903 
37387000    54.303153   -6883.9783   -6744.2867   -6883.9783            0    2149.4139    23.163274    21.344811    21.578217    10668.609    1821.5698    2334.5645    2292.1074    368.75539   -66.056571   -455.04372   -6409.8579 
37388000    52.399594   -6883.3256   -6748.5309   -6883.3256            0    1348.2028    23.144576    21.345157    21.674076    10707.527    2149.5344    966.46763    928.60649   -425.86581   -727.31619   -204.64279   -6537.9978 
37389000    54.092422   -6882.9292   -6743.7797   -6882.9292            0    1617.4303    23.250519    21.299417    21.585134    10689.444    1540.8233    1676.0106     1635.457    1.2161184    -199.8911    48.216129   -6491.6311 
37390000    54.551906   -6881.0885   -6740.7571   -6881.0885            0    2191.9379    23.238408     21.24792    21.624682    10677.572    1812.9448    2825.7962    1937.0728   -139.42649   -444.01655   -79.298529   -6399.4254 
37391000    54.185464   -6885.0314   -6745.6426   -6885.0314            0    2076.0346    23.284022    21.189873    21.647426    10680.526    1722.7993    2089.7407    2415.5637   -179.87896    115.43447    278.50421   -6422.2701 
37392000     55.54107   -6885.4343   -6742.5583   -6885.4343            0    1685.6271    23.282184    21.210484     21.66119    10696.868    1594.9814    1822.0435    1639.8562    242.78121    -537.8632    510.88469   -6479.5956 
37393000    53.443654   -6878.0334   -6740.5529   -6878.0334            0      1606.95    23.241157    21.278424    21.636858    10700.188    1277.2168    1674.1772    1869.4559    148.21697   -156.98854    333.25712   -6489.7863 
37394000    54.054799   -6881.0065   -6741.9538   -6881.0065            0    2364.9822    23.238147    21.233317    21.614844     10665.26    2156.8138    2810.8505    2127.2824    398.46112   -260.13171    280.10756   -6374.1001 
37395000    56.117043   -6877.5789   -6733.2212   -6877.5789            0    2119.7471      23.1702    21.352838    21.599714    10686.449    1857.7558    2268.4997    2232.9857    249.23084   -18.557516   -152.21401   -6402.8567 
37396000     54.07132    -6883.521   -6744.4259    -6883.521            0    1988.0924    23.144749    21.316169    21.654499    10683.407     1702.717    2313.5635    1947.9966    83.283809    224.00849    5.2411852   -6434.6681 
37397000    55.212469   -6889.8347   -6747.8039   -6889.8347            0    1980.2979    23.153428    21.371411    21.570031    10673.313    2576.6386     1442.619    1921.6361   -670.78247    633.62293    -882.0853   -6439.5521 
37398000    53.610441    -6886.158   -6748.2484    -6886.158            0    1515.9631     23.13903    21.386127    21.600599    10689.148    1985.4453    1277.6758    1284.7682    107.71141   -383.07169   -199.74402   -6511.9245 
37399000    56.548018   -6880.4129   -6734.9465   -6880.4129            0    2421.9411    23.094118    21.400203    21.590082    10670.225    2743.8972    2589.4674    1932.4587    65.100582   -231.37835   -476.52488   -6358.0579 
37400000     54.30557   -6885.4416   -6745.7438   -6885.4416            0    1220.2576    23.133547    21.432346       21.601     10709.91    1559.9107      587.454     1513.408    784.69905    94.911933    102.51958   -6555.1481 
37401000    56.685481   -6881.5356   -6735.7157   -6881.5356            0    2166.5903    23.109124    21.342621    21.645038    10675.533    2445.9316    1968.3081    2085.5312   -100.33968    248.52864    142.03027   -6398.3955 
37402000    53.952284   -6887.6343   -6748.8453   -6887.6343            0    1949.3174    23.187894    21.320407    21.595573    10676.319     1874.791    1960.5533    2012.6079    646.78868    62.892139   -400.56775   -6445.3304 
37403000    57.953237   -6882.4702    -6733.389   -6882.4702            0    2565.4962     23.12664    21.251616    21.683881    10657.161    2584.4757    2773.9027    2338.1104   -538.00328     762.3531   -246.56688     -6334.65 
37404000    54.748849   -6882.2709   -6741.4329   -6882.2709            0     2015.627    23.276457    21.262624     21.55311    10667.034    1792.8817    2321.0639    1932.9356    223.68936   -155.48967   -312.86498   -6427.8663 
37405000    53.495947   -6884.8922   -6747.2772   -6884.8922            0    1384.3835    23.237344     21.20782    21.714771     10701.33    762.28989    1937.3539    1453.5067   -9.4187489   -18.031703    184.35496   -6531.2193 
37406000    52.134865   -6886.4735   -6752.3597   -6886.4735            0    2299.5595    23.298841    21.216981    21.576092    10665.733    1171.3829    2831.7865     2895.509   -490.20609    604.19351    441.30704   -6394.6661 
37407000     54.49065   -6886.2023   -6746.0284   -6886.2023            0    2328.6264    23.222504    21.208591    21.657696    10666.775    2122.1403    2611.5664    2252.1727   -381.07262   -31.745076   -103.41249    -6383.778 
37408000    53.387817   -6883.5521   -6746.2152   -6883.5521            0    1612.2322    23.238874     21.25824    21.647295    10694.144    1610.1966     1592.522     1633.978   -101.55815   -197.74092    112.75486   -6494.7664 
37409000     55.90076   -6883.7558   -6739.9545   -6883.7558            0    2500.8177    23.193648    21.301298    21.564007    10653.802    2950.9776    2263.7539    2287.7217    4.4430623   -336.45035    475.32933   -6351.3905 
37410000    53.417292   -6880.8839   -6743.4712   -6880.8839            0    2267.1165    23.113731    21.318069    21.647939    10666.808    2492.6981    2136.8538    2171.7977    407.13546    75.401489    65.464256   -6390.7884 
37411000    51.446969   -6881.4239   -6749.0797   -6881.4239            0    2095.1516    23.070069    21.441624    21.570206    10669.913    2372.8937      2075.97    1836.5909   -412.46304    116.13218   -405.84287   -6423.0538 
37412000    55.506345   -6883.9544   -6741.1677   -6883.9544            0    1884.8548    23.097301    21.392656    21.600032    10672.849    2220.4251    1567.1734    1866.9659     336.6962   -98.687557    54.508524   -6447.7852 
37413000    54.604409   -6882.5143   -6742.0478   -6882.5143            0    2315.7356    23.032045     21.42862    21.626225    10673.514    2570.1312    1841.9025    2535.1731    259.63784   -189.20405    482.20712   -6381.5752 
37414000    54.715638   -6887.5894   -6746.8368   -6887.5894            0    1235.6015     23.14384    21.432631    21.587871    10708.305    1865.7944    319.12281    1521.8872    473.51232   -215.02134   -217.70259   -6553.8733 
37415000    55.107535   -6883.3457   -6741.5849   -6883.3457            0    2057.9095    23.155212    21.336948    21.611988    10677.652    1764.4656    2336.6265    2072.6363   -197.97776    75.924035    234.72454   -6421.1219 
37416000    55.839854   -6878.4777   -6734.8331   -6878.4777            0    2385.6084    23.202678    21.322544     21.58304    10677.996    2443.0487    2109.9143    2603.8623   -212.07177   -355.92993    414.76515    -6363.328 
37417000    54.843992   -6885.1939   -6744.1111   -6885.1939            0    1968.6292    23.226094    21.263732    21.639498    10687.173    2149.6564    1695.5674    2060.6638    102.51285   -151.47621    82.844181   -6437.2777 
37418000    55.786291      -6878.6   -6735.0932      -6878.6            0    1810.6678    23.249855    21.279456    21.638914    10705.729     1875.155    1538.6111    2018.2372    -651.1641    212.54636   -132.42207   -6452.3898 
37419000    56.924701   -6876.5717   -6730.1364   -6876.5717            0    2086.9567    23.262474     21.28854    21.564537    10679.279    1850.3643    2212.7009    2197.8049    60.921914    165.20093    67.828744   -6405.1005 
37420000    56.026389   -6887.8859   -6743.7614   -6887.8859            0    1458.9061    23.182605    21.307248    21.690334    10714.103    2006.1749    1493.6967    876.84682   -409.46683   -254.44922   -151.85282   -6515.8012 
37421000    55.749439   -6884.6488   -6741.2367   -6884.6488            0    2071.1947    23.239792    21.283734    21.573241    10670.763    2470.1892    1917.8382    1825.5568   -253.56822   -193.98013   -210.25278    -6418.913 
37422000     55.18601   -6882.2894   -6740.3268   -6882.2894            0    2358.9122    23.118772    21.290643    21.699178    10680.629     2466.158     2604.315    2006.2637     220.2233   -18.760793   -163.37106   -6372.8884 
37423000    54.762233   -6886.5658   -6745.6933   -6886.5658            0      2118.75    23.200445    21.298493    21.613962    10680.205    2053.3535    2340.3899    1962.5065    388.11035    33.917444    -20.34906   -6415.6771 
37424000    55.661489   -6890.9226   -6747.7368   -6890.9226            0    2001.4617      23.1309     21.41054    21.545646    10670.375    1662.8195    1886.0949    2455.4708    104.21759    21.521796   -117.75539   -6436.2764 
37425000    54.835702   -6880.3225    -6739.261   -6880.3225            0    2265.0213    23.077032    21.377608    21.645294     10678.31    2370.9198    2251.2779    2172.8663    499.84471    304.07579   -62.602984   -6386.5243 
37426000    55.494736    -6888.622   -6745.8652    -6888.622            0     2316.775    23.116248    21.396016    21.542057    10654.607    2418.7038    2007.8985    2523.7228    117.40206    209.64947   -25.736285   -6385.8696 
37427000    56.636787   -6876.9261   -6731.2314   -6876.9261            0    2119.2731    23.046928    21.401545    21.652937    10680.092      2648.19    1492.2961    2217.3333   -101.97713    425.97898   -90.357405   -6401.1373 
37428000    56.255215   -6883.2957   -6738.5826   -6883.2957            0    2024.0172    23.188646     21.38092    21.522294    10670.637    2052.8126    1314.4673    2704.7716   -687.47762    789.24761    483.11837   -6423.6045 
37429000      54.9548   -6883.5993   -6742.2314   -6883.5993            0    1914.2854    23.132432    21.321757    21.670559    10688.442     1925.363    2232.3676    1585.1257    -92.83798     80.26407   -512.58499   -6443.8326 
37430000    56.200282   -6883.0296   -6738.4578   -6883.0296            0    2059.5388    23.301432    21.283154    21.519363    10672.054    1165.7929     2600.754    2412.0694   -219.30264    437.74963   -648.46965   -6417.9092 
37431000    53.966733   -6882.9327   -6744.1066   -6882.9327            0    2195.7058    23.227547     21.22412    21.666823    10681.403    1224.1827     3218.653    2144.2818    202.16419    651.59563    19.944626   -6402.0655 
37432000     55.61368   -6881.6506   -6738.5878   -6881.6506            0     1300.917     23.34323    21.225142     21.63029    10717.016    618.43264    1528.6939    1755.6245   -12.929958    654.08261    474.43236   -6535.2588 
37433000    52.871586   -6882.8599   -6746.8509   -6882.8599            0    1855.0847     23.28713     21.24876    21.610516    10693.373    1637.9974    1982.4691    1944.7875   -280.45518   -78.264221   -294.35379    -6457.547 
37434000    54.126329   -6884.6877    -6745.451   -6884.6877            0    2221.0944    23.226491    21.198733    21.674222    10671.784    2015.5293    2739.5422    1908.2118     172.4143     284.4687    450.66502   -6399.7665 
37435000    54.864696    -6879.402   -6738.2659    -6879.402            0    1592.7472    23.248258    21.355503    21.551776    10699.988    1089.2497    1676.9317    2012.0601   -420.80797   -184.28441   -164.53485   -6489.7203 
37436000    56.858319   -6881.8565   -6735.5919   -6881.8565            0    1723.3864    23.151563    21.308529    21.669988    10690.363     2190.772    2035.2285    944.15859    337.93151    84.774682   -386.89866   -6466.9022 
37437000    54.219083   -6888.4729   -6748.9976   -6888.4729            0    2223.0134    23.096015    21.454524    21.533792    10670.295    2397.5161    1666.9895    2604.5346    660.48127   -46.864603   -341.17368   -6403.0627 
37438000    56.167825   -6878.8913    -6734.403   -6878.8913            0    2327.1567    23.103421    21.405299    21.584725    10674.416    2502.5717    2080.4514    2398.4469    80.684436    70.754652     121.8693    -6372.122 
37439000    52.861132   -6885.9984   -6750.0163   -6885.9984            0    1908.3506     23.10591     21.40629    21.622178    10694.585     1708.779    1748.7888    2267.4841    423.77679    8.3390885    259.24025   -6452.3717 
37440000    57.417854   -6876.2687   -6728.5647   -6876.2687            0    1809.6923    23.109293    21.400672    21.613699     10689.15    2124.9479    1402.4036    1901.7255     105.5284   -147.14154    199.05079   -6446.4513 
37441000    54.132789   -6875.3085   -6736.0552   -6875.3085            0    1993.7802    23.175162    21.361379    21.585393    10685.923    2474.6442     1768.812    1737.8843   -61.554598   -419.70571   -483.26952    -6425.338 
37442000    54.591991   -6879.4318   -6738.9973   -6879.4318            0    2086.0144    23.195137    21.319342    21.608853    10685.687    2037.3827    2274.9142    1945.7463   -234.72699   -62.566566   -236.11213   -6413.9132 
37443000    54.464407   -6885.3584    -6745.252   -6885.3584            0    1843.4692    23.302021    21.204136    21.635628    10690.147    1334.6939    2215.7934    1979.9204    390.72059   -60.809055    62.786865   -6457.8463 
37444000    53.052498   -6876.0535   -6739.5792   -6876.0535            0    1790.1816    23.294497    21.220615    21.652838    10703.508    1242.1305    2547.6975    1580.7167   -616.59223   -652.33774    18.666523   -6460.1324 
37445000    56.979633   -6882.6031   -6736.0264   -6882.6031            0    1998.7216    23.296375    21.198348    21.635992    10684.819    1477.1381    2249.7775    2269.2491   -365.19308    84.092008    324.16967   -6424.5714 
37446000     54.11966   -6883.5492   -6744.3297   -6883.5492            0    1949.7804    23.255094    21.257741    21.618957    10687.347    1573.6594    2061.8234    2213.8583    105.64009    111.51112     204.8775   -6440.4291 
37447000    54.069377   -6879.2969   -6740.2067   -6879.2969            0    2031.5086    23.176902     21.29761    21.659578    10691.441    2175.3599    2061.6802    1857.4857   -93.726812   -262.84587   -83.592802   -6423.4464 
37448000    56.047164   -6880.6855   -6736.5076   -6880.6855            0    2146.1792    23.176821    21.322243    21.597985    10673.332    2109.1111    2365.8299    1963.5967    114.54233    99.410452    70.494196   -6402.4342 
37449000    56.026274   -6881.1156   -6736.9914   -6881.1156            0    2040.5111     23.14034    21.364619    21.618162    10687.685    2206.4684    2157.3935    1757.6713   -76.175619    -138.4492   -454.60724   -6418.9391 
37450000    55.535281   -6888.6548   -6745.7937   -6888.6548            0    1818.0894      23.1386    21.383076    21.601989    10688.112     2391.143    1172.9395    1890.1856    320.92071   -175.08022    225.99937   -6462.3987 
37451000    57.570542   -6887.2081   -6739.1114   -6887.2081            0    2179.5067    23.080556    21.413774    21.598212     10674.74    2540.4555     2141.059    1857.0057   -293.03813    268.69717   -435.45215   -6399.8055 
37452000    54.581565   -6883.1419   -6742.7342   -6883.1419            0    2240.2167    23.135453    21.366612    21.610642    10682.708    2244.0776    1943.5193    2533.0532    1115.0682   -415.35717   -95.929679   -6393.7166 
37453000    53.300919   -6891.0373    -6753.924   -6891.0373            0    1549.9058    23.172282    21.395978     21.56313    10690.863    1592.1515    1078.2358      1979.33   -294.10665   -77.043648    724.82067     -6512.27 
37454000    53.411834   -6880.1296   -6742.7309   -6880.1296            0    2376.5041    23.152074    21.348724    21.602741    10677.527    2957.8703    2030.1407    2141.5012   -156.14864   -445.47102     21.34711   -6372.6598 
37455000    55.775085   -6891.3511   -6747.8731   -6891.3511            0    1844.9227    23.202999    21.281037    21.662565    10696.626    1860.2663    2059.1897    1615.3121    188.57193   -9.4647735    77.254977   -6460.0665 
37456000    53.660212    -6887.057   -6749.0194    -6887.057            0    1996.0814     23.25118    21.273102    21.599529    10683.662    2042.8611    2403.1361    1542.2469    -262.7599    75.906484   -430.06103   -6438.0095 
37457000    52.741688   -6882.9428   -6747.2681   -6882.9428            0    2910.2845    23.237627    21.184485    21.632004    10648.941    2632.0313    3591.6369    2507.1852   -266.76623   -118.28203    -501.0705   -6295.2896 
37458000    55.652339   -6885.6694   -6742.5071   -6885.6694            0    1779.1142    23.267552    21.267587    21.607052    10692.135    1134.6985    1514.7442       2687.9   -362.69556   -126.27773    136.67708    -6465.083 
37459000    55.075646   -6877.2037   -6735.5249   -6877.2037            0    2414.6004    23.240788    21.222334    21.642173    10674.434    2457.0823      2024.65     2762.069   -887.75722    247.51727     9.588237   -6359.6304 
37460000    54.849681   -6884.9989   -6743.9015   -6884.9989            0    2153.9029    23.210485    21.266756    21.637813    10680.678    1699.9447    3269.1857    1492.5784   -282.73348    43.976644   -597.39118   -6408.3951 
37461000    55.065954   -6879.1266   -6737.4728   -6879.1266            0    1408.0585    23.253283     21.33607    21.568962    10701.088     1129.974    1496.4753    1597.7264   -422.64286    261.00088   -251.70402    -6517.725 
37462000    54.283444   -6886.3092   -6746.6684   -6886.3092            0    1665.2059    23.116532    21.355333    21.680479    10702.812    2036.5042    1269.5411    1689.5725    73.344458   -239.80612    260.19724   -6486.7471 
37463000    55.108745   -6884.9327   -6743.1688   -6884.9327            0     2028.487    23.170568    21.386011     21.54497    10676.094    2412.4702    1308.3897    2364.6013    483.88962    354.87058    390.41836   -6427.3336 
37464000    56.572272   -6887.4815   -6741.9528   -6887.4815            0    1856.1539    23.078763    21.400728    21.635292    10685.721    1847.0186    1732.9804    1988.4626    337.63031    353.73004   -77.242477   -6452.6893 
37465000     52.44897   -6884.5115   -6749.5897   -6884.5115            0    2054.3888    23.116398    21.400272    21.586965    10679.012    2470.3351    1800.9047    1891.9267    48.819025     432.2366   -108.99556   -6429.6342 
37466000    54.691502   -6883.5622   -6742.8716   -6883.5622            0    2391.6421     23.10054      21.3835    21.591924    10665.771    2765.3396    2092.8147     2316.772    402.49246   -321.35923   -322.18841   -6370.8533 
37467000    54.875319   -6884.0008   -6742.8374   -6884.0008            0    1827.9154    23.125552    21.390529    21.632143    10700.724    2867.2806    1306.2245    1310.2411   -355.84378   -381.23651    81.043967   -6457.5745 
37468000    54.494065    -6877.876   -6737.6933    -6877.876            0    2133.4527    23.186902    21.348033    21.574633     10679.33     2630.565    1117.8169    2651.9762    16.830845   -305.08852    79.292363   -6405.4143 
37469000     56.76292    -6889.294   -6743.2748    -6889.294            0    2041.8506     23.15519     21.29781     21.64374    10673.715    1904.3258    2286.3944    1934.8315   -712.05324    175.83066    147.38937   -6425.4298 
37470000    54.766292   -6891.5186   -6750.6357   -6891.5186            0    1825.4259     23.23577    21.288125    21.607811    10688.217    1410.1775    1888.2046    2177.8956    294.37295    -419.6095    189.14042   -6466.0944 
37471000    51.767674   -6878.0242    -6744.855   -6878.0242            0     1728.896    23.259801    21.259251    21.632292    10696.865    1362.1264    1927.8511    1896.7105   -329.88231    247.16793   -12.220367   -6475.1424 
37472000    54.689362   -6886.2256   -6745.5405   -6886.2256            0    1837.5738    23.277239    21.200004     21.67207     10694.68    1337.1732    2485.0904    1690.4577    286.47717    -212.7384   -329.00426   -6458.9324 
37473000    55.055381   -6886.1839   -6744.5573   -6886.1839            0    2679.8053    23.263106    21.197345    21.598808     10650.72    2132.7839    3076.8452    2829.7868   -489.34247    205.06472    274.57533   -6328.3036 
37474000    58.160813    -6884.948   -6735.3328    -6884.948            0    2204.5444    23.222756    21.286783    21.593835    10674.648    2234.9294    2338.3747     2040.329    235.56112    -392.1335   -571.20287    -6392.132 
37475000    54.053164   -6885.7332   -6746.6847   -6885.7332            0    1606.6456    23.198728    21.319788    21.629137    10697.597    1565.7309    1467.4372    1786.7688   -309.52797   -125.69456   -537.50772   -6496.0263 
37476000    52.788648   -6878.3336    -6742.538   -6878.3336            0    2162.3351    23.123051    21.342587    21.636656    10677.814    2558.6639    2209.2782    1719.0632    236.50803    218.23903   -50.421534   -6405.8084 
37477000    56.474837   -6874.4347   -6729.1566   -6874.4347            0    2906.7673    23.109741    21.362937     21.57593    10651.863    3097.3007    2309.4708    3313.5304   -314.74378    207.62995   -347.09375   -6277.6005 
37478000    57.116698   -6880.4467   -6733.5174   -6880.4467            0    1396.8829      23.0949    21.402206     21.64941    10700.909    1814.0073    833.68507    1542.9562    142.79883    611.81697     266.6749   -6515.5174 
37479000    55.382565   -6880.2613   -6737.7931   -6880.2613            0    1921.4847    23.108524    21.434861    21.572497    10685.462    2277.8509    1498.6572    1987.9459    244.08002   -389.96014   -185.45022   -6438.3556 
37480000    53.750514   -6871.5665   -6733.2965   -6871.5665            0    2454.5004    23.098492    21.388499    21.593525    10668.109    2545.3702    2815.7668    2002.3642   -5.3373747    205.61952   -131.34939   -6351.4169 
37481000    55.872418   -6878.9163   -6735.1879   -6878.9163            0    2066.9994    23.123191     21.36712    21.599096    10671.595    2067.9874    1781.6435    2351.3674     728.3982   -180.32001   -71.341695    -6413.492 
37482000    56.103278    -6884.008   -6739.6857    -6884.008            0     2302.498    23.149147    21.366615     21.56329    10665.611    2792.1067    1616.7106    2498.6767   -536.67212   -71.542237   -71.489913    -6381.539 
37483000    54.971425   -6887.0822   -6745.6715   -6887.0822            0    1613.4207    23.160511    21.309645    21.657272    10688.779    1823.6496    1391.2147    1625.3977   -154.51258    68.697304   -90.117354   -6494.1637 
37484000    54.286406   -6880.1732   -6740.5247   -6880.1732            0    2286.9525    23.215697    21.260492    21.603053    10662.773    1593.0784    2856.2007    2411.5784   -213.84422    46.613191    233.49386   -6384.8907 
37485000    56.004597   -6887.4282   -6743.3598   -6887.4282            0    1960.4471    23.246906    21.241765    21.607103    10669.702    1578.1336    2547.0224    1756.1853    191.08306   -690.88025   -168.56162   -6438.3012 
37486000    54.780993   -6884.3957    -6743.475   -6884.3957            0    2395.5362    23.202019    21.272375    21.602735     10662.29    2523.4133    1640.1588    3023.0366   -674.66016   -238.92353    551.80027   -6370.9725 
37487000    53.985204   -6885.5173   -6746.6437   -6885.5173            0    1797.0859    23.303924    21.214416    21.599823    10678.502    904.48774    2052.8448    2433.9253    259.57902    373.68921    38.572921   -6466.7745 
37488000    54.855444   -6874.8263    -6733.714   -6874.8263            0    2782.6404     23.20163    21.240401    21.625231    10657.171    2743.1311    2734.1648    2870.6252   -733.59406   -106.73388   -68.881328   -6301.2252 
37489000    53.806249   -6881.7467   -6743.3334   -6881.7467            0    1837.7729    23.208228    21.298055    21.609349    10681.288    1647.2304    1784.2491    2081.8393   -575.76651    12.337049    288.12106   -6457.0532 
37490000    55.400489    -6882.503   -6739.9886    -6882.503            0    2211.5306    23.161049    21.309206    21.628909    10674.809    2511.1341    1776.4671    2346.9906     373.0464    35.704002     110.7261    -6395.695 
37491000    54.035093   -6884.1955   -6745.1935   -6884.1955            0    1528.9293    23.177589    21.357145    21.605617    10694.934    2086.7704    1116.3036    1383.7139    24.473513    228.41395    20.103245   -6506.7193 
37492000    53.169916   -6881.4037   -6744.6273   -6881.4037            0    2127.1321    23.122986    21.353394    21.629308    10679.562    2562.8831    1472.4235    2346.0898    672.01131   -428.51319    113.93609   -6413.3255 
37493000    53.179564   -6873.3363   -6736.5351   -6873.3363            0    2471.5201    23.074124    21.435669    21.547392     10657.54     2580.948    1952.0584    2881.5539    57.540592     629.0778    67.717896   -6352.3885 
37494000    55.564051   -6884.0842    -6741.149   -6884.0842            0    2561.9123    23.058629    21.393929    21.580435    10645.945    2612.8818    2097.7864    2975.0686    723.28479    375.29142    299.41007    -6343.386 
37495000    56.687758   -6876.9617   -6731.1359   -6876.9617            0    2761.6731    23.082641    21.382107    21.571016    10646.494    2832.1044    2702.1561    2750.7588    42.168323    264.43289   -26.528404   -6302.3359 
37496000    54.336709    -6885.959   -6746.1811    -6885.959            0    1672.8702    23.147456    21.343299    21.642143     10692.15    1522.2236    1997.4649    1498.9222     769.0787   -275.91238   -69.046109   -6485.3237 
37497000    54.615601   -6880.6593    -6740.164   -6880.6593            0    2354.8167    23.183739     21.32161    21.553798    10654.357    2102.5048    2583.6523    2378.2931   -72.567282      353.881    4.2638259   -6374.2658 
37498000    56.805554   -6884.6334   -6738.5045   -6884.6334            0    1785.6344     23.18021    21.347037    21.590922     10683.81    1805.8496    1704.9043    1846.1493   -27.482184   -213.16546    -151.1145   -6460.2806 
37499000    54.357384   -6884.5901   -6744.7591   -6884.5901            0    1842.4141    23.220765    21.242898    21.657903    10683.332    1935.1766     2113.545    1478.5209    517.24471   -444.26756    164.91568   -6457.7009 
37500000     57.82901    -6878.628   -6729.8664    -6878.628            0    2190.6289    23.299029    21.232769    21.583459      10677.4    1966.2833    2293.3342    2312.2694    -740.3183   -59.164674    23.373219    -6388.744 
Loop time of 500.54 on 64 procs for 250000 steps with 1296 atoms

Performance: 86.307 ns/day, 0.278 hours/ns, 499.460 timesteps/s
391.6% CPU use with 16 MPI tasks x 4 OpenMP threads

MPI task timing breakdown:
Section |  min time  |  avg time  |  max time  |%varavg| %total
---------------------------------------------------------------
Pair    | 39.399     | 49.078     | 58.803     |  74.6 |  9.80
Bond    | 1.4992     | 1.7148     | 2.1167     |  10.1 |  0.34
Kspace  | 249.66     | 260.35     | 272.48     |  35.0 | 52.01
Neigh   | 0.18002    | 0.18622    | 0.19305    |   1.0 |  0.04
Comm    | 48.44      | 51.809     | 55.807     |  29.4 | 10.35
Output  | 0.39783    | 0.39813    | 0.39932    |   0.1 |  0.08
Modify  | 123.89     | 126.16     | 128.21     |  12.4 | 25.21
Other   |            | 10.84      |            |       |  2.17

Nlocal:        81.0000 ave          97 max          64 min
Histogram: 2 0 2 2 1 3 1 2 1 2
Nghost:        3705.50 ave        3746 max        3674 min
Histogram: 2 3 0 3 0 2 3 1 1 1
Neighs:        26154.2 ave       31159 max       20666 min
Histogram: 2 0 2 2 1 3 1 1 2 2

Total # of neighbors = 418468
Ave neighs/atom = 322.89198
Ave special neighs/atom = 2.0000000
Neighbor list builds = 429
Dangerous builds = 0

unfix		3
unfix		2
unfix		1

write_data	data.final.${pid}
write_data	data.final.0
System init for write_data ...
PPPM initialization ...
  extracting TIP4P info from pair style
  using 12-bit tables for long-range coulomb (../kspace.cpp:340)
  G vector (1/distance) = 0.36742156
  grid = 27 40 32
  stencil order = 5
  estimated absolute RMS force accuracy = 0.0045328472
  estimated relative force accuracy = 1.3650535e-05
  using double precision FFTW3
  3d grid and FFT values/proc = 10353 2240
Last active /omp style is kspace_style pppm/tip4p/omp
WARNING: Not all mixed pair coeffs generated from mixing. Use write_data with 'pair ij' option to store all pair coeffs. (../write_data.cpp:312)

write_restart   restart.lmp.${pid}
write_restart   restart.lmp.0
System init for write_restart ...
PPPM initialization ...
  extracting TIP4P info from pair style
  using 12-bit tables for long-range coulomb (../kspace.cpp:340)
  G vector (1/distance) = 0.36742156
  grid = 27 40 32
  stencil order = 5
  estimated absolute RMS force accuracy = 0.0045328472
  estimated relative force accuracy = 1.3650535e-05
  using double precision FFTW3
  3d grid and FFT values/proc = 10353 2240
Last active /omp style is kspace_style pppm/tip4p/omp
Total wall time: 0:08:20
