#include		in.partitions
include		in.temp
variable        temperature equal 112.02
variable	tempDamp equal 100.0
include		in.pressure
variable        pressure equal 3418.8
variable        pressureDamp equal 1000.0 # This is 1 ps
include		in.seed
variable        seed equal 745823

units		real
atom_style	full
box tilt large
read_restart	restart.lmp.${pid}
read_restart	restart.lmp.0
Reading restart file ...
  restart file = 30 Jul 2021, LAMMPS = 30 Jul 2021
  restoring atom style full from restart
  triclinic box = (-10.650342 -9.1698669 0.18037044) to (12.630342 12.159865 21.679629) with tilt (-9.2045752 1.8898694 2.7691299)
  4 by 4 by 4 MPI processor grid
  restoring pair style lj/cut/tip4p/long/omp from restart
  restoring bond style harmonic/omp from restart
  restoring angle style harmonic/omp from restart
  1296 atoms
  864 bonds
  432 angles
Finding 1-2 1-3 1-4 neighbors ...
  special bond factors lj:    0        0        0       
  special bond factors coul:  0        0        0       
     2 = max # of 1-2 neighbors
     1 = max # of 1-3 neighbors
     1 = max # of 1-4 neighbors
     2 = max # of special neighbors
  special bonds CPU = 0.008 seconds
  read_restart CPU = 0.019 seconds
include 	in.setup
variable	out_freq equal 1000
variable	out_freq2 equal 10000
variable	out_freq3 equal 1000

timestep	2.0

neigh_modify    delay 7 every 1

include		in.tip4p
# This is TIP4P/Ice

# create groups ###
group ox type 2
432 atoms in group ox
group hy type 1
864 atoms in group hy

# set charges - beside manually ###
set group ox charge -1.1794
Setting atom values ...
  432 settings made for charge
set group hy charge 0.5897
Setting atom values ...
  864 settings made for charge

# ### TIP3P Potential Parameters ###
pair_style lj/cut/tip4p/long/omp 2 1 1 1 0.1577 8.5
pair_coeff 1 1*2 0.000 0.000
pair_coeff 2 2 0.21084 3.1668
bond_style  harmonic
bond_coeff  1 450 0.9572
angle_style harmonic
angle_coeff 1 55 104.52
kspace_style pppm/tip4p/omp 1.0e-5
pair_modify tail yes

thermo          ${out_freq}
thermo          1000
thermo_style    custom step temp pe etotal epair emol press lx ly lz vol pxx pyy pzz pxy pxz pyz enthalpy

restart 	${out_freq3} restart.lmp.${pid} restart2.lmp.${pid}
restart 	1000 restart.lmp.${pid} restart2.lmp.${pid}
restart 	1000 restart.lmp.0 restart2.lmp.${pid}
restart 	1000 restart.lmp.0 restart2.lmp.0


include         in.dump
dump            myDump all atom ${out_freq2} dump.water.${pid}
dump            myDump all atom 10000 dump.water.${pid}
dump            myDump all atom 10000 dump.water.0
dump            myDump2 all dcd ${out_freq2} dump.dcd
dump            myDump2 all dcd 10000 dump.dcd
dump_modify     myDump append yes
dump_modify     myDump2 append yes


variable natoms 	equal  "count(all)"                        # NUMBER ATOMS
variable H      	equal  "enthalpy/v_natoms"                 # ENTHALPY-per-atom
variable Vol      	equal  "vol/v_natoms"                 # volume-per-atom
fix AVG all 		ave/time ${out_freq} 1 ${out_freq} v_Vol v_H file vol_enthalpy.dat
fix AVG all 		ave/time 1000 1 ${out_freq} v_Vol v_H file vol_enthalpy.dat
fix AVG all 		ave/time 1000 1 1000 v_Vol v_H file vol_enthalpy.dat


timer           timeout 10:00:00 every 1000
New timer settings: style=normal  mode=nosync  timeout=10:00:00

fix 		1 all shake 1e-6 200 0 b 1 a 1
       0 = # of size 2 clusters
       0 = # of size 3 clusters
       0 = # of size 4 clusters
     432 = # of frozen angles
  find clusters CPU = 0.003 seconds
fix             2 all nph tri ${pressure} ${pressure} ${pressureDamp}
fix             2 all nph tri 3418.8 ${pressure} ${pressureDamp}
fix             2 all nph tri 3418.8 3418.8 ${pressureDamp}
fix             2 all nph tri 3418.8 3418.8 1000
fix             3 all temp/csvr ${temperature} ${temperature} ${tempDamp} ${seed}
fix             3 all temp/csvr 112.02 ${temperature} ${tempDamp} ${seed}
fix             3 all temp/csvr 112.02 112.02 ${tempDamp} ${seed}
fix             3 all temp/csvr 112.02 112.02 100 ${seed}
fix             3 all temp/csvr 112.02 112.02 100 745823


run             250000
PPPM initialization ...
  extracting TIP4P info from pair style
  using 12-bit tables for long-range coulomb (../kspace.cpp:340)
  G vector (1/distance) = 0.36877625
  grid = 30 40 32
  stencil order = 5
  estimated absolute RMS force accuracy = 0.0042191737
  estimated relative force accuracy = 1.2705916e-05
  using double precision FFTW3
  3d grid and FFT values/proc = 5168 640
Last active /omp style is kspace_style pppm/tip4p/omp
Neighbor list info ...
  update every 1 steps, delay 7 steps, check yes
  max neighbors/atom: 2000, page size: 100000
  master list distance cutoff = 10.8154
  ghost atom cutoff = 10.8154
  binsize = 5.4077, bins = 7 5 4
  1 neighbor lists, perpetual/occasional/extra = 1 0 0
  (1) pair lj/cut/tip4p/long/omp, perpetual
      attributes: half, newton on, omp
      pair build: half/bin/newton/tri/omp
      stencil: half/bin/3d/tri
      bin: standard
Per MPI rank memory allocation (min/avg/max) = 9.444 | 9.450 | 9.455 Mbytes
Step Temp PotEng TotEng E_pair E_mol Press Lx Ly Lz Volume Pxx Pyy Pzz Pxy Pxz Pyz Enthalpy 
 5500000    113.25882   -6714.4563   -6423.1049   -6714.4563            0    4392.4797    23.280684    21.329732    21.499258    10675.903    3972.3661    4527.3145    4677.7584      405.569    728.49705    465.96084   -5739.2086 
 5501000    110.28389   -6723.8614   -6440.1628   -6723.8614            0    3613.9662    23.201599    21.291547    21.748187    10743.559    4247.3533    4091.9713    2502.5738   -883.01401    267.97099   -671.59274   -5873.9129 
 5502000    113.74231    -6730.531   -6437.9358    -6730.531            0    3566.2264    23.250234    21.330985    21.624988    10724.922    4233.5965    3061.9849    3403.0978    375.57546   -588.18863   -88.085924   -5880.1353 
 5503000    110.29843   -6723.6915   -6439.9555   -6723.6915            0     3302.786    23.216145      21.4305    21.525323    10709.571    3586.9211    1886.7961    4434.6408   -980.42306    662.20583    42.394514   -5924.0996 
 5504000    109.93196   -6738.1521   -6455.3589   -6738.1521            0    3207.0216     23.11168    21.278864    21.802713    10722.362    3474.7688    3320.0733    2826.2227    52.000053    -419.3529     366.5038    -5953.862 
 5505000    114.76564   -6733.4849   -6438.2573   -6733.4849            0     4538.762    23.233727    21.293319    21.560735    10666.595     4494.015     4576.519    4545.7519   -190.01955    61.154424    10.437894   -5732.2013 
 5506000    112.65686   -6719.3966   -6429.5937   -6719.3966            0     3013.114    23.329751    21.319549    21.594303     10740.57    2750.1076    2890.2955     3398.939    173.39913    284.08375    -79.94245    -5957.619 
 5507000    110.43074   -6727.4719   -6443.3955   -6727.4719            0    3636.3084    23.224817    21.214218    21.771653    10726.814    3491.6498    4116.3309    3300.9445   -421.40083     679.4226   -589.34005    -5874.533 
 5508000    115.99632   -6734.6004   -6436.2069   -6734.6004            0    2787.5928    23.287735    21.445879    21.478524    10726.932    2622.9937     2231.494    3508.2908   -35.377342    739.66979   -566.23672   -6000.1122 
 5509000    116.66536   -6721.7054   -6421.5909   -6721.7054            0    3566.7082    23.128299    21.384057    21.679206    10722.033    3829.7166    3256.8299    3613.5781   -306.31752   -73.286374    537.29871   -5863.8652 
 5510000    111.37465   -6722.9192   -6436.4147   -6722.9192            0    4005.3844    23.142084    21.365927    21.658053    10708.869    5376.8695    3050.5726    3588.7111    249.23427   -40.567914    159.08359   -5810.8622 
 5511000    112.63725   -6728.4808   -6438.7283   -6728.4808            0    4240.0926    23.289812    21.428242    21.412567     10686.15    3168.8851    3463.3207    6088.0719   -149.04267      86.4378    435.93469   -5777.9246 
 5512000    117.28847    -6720.756   -6419.0385    -6720.756            0    3253.9984    23.120119     21.34856    21.745061    10732.954    3770.7079     3939.573    2051.7144   -1613.6354    318.22512   -1400.5782    -5909.693 
 5513000    113.36811   -6721.7415   -6430.1089   -6721.7415            0    3141.0323    23.268424    21.409481    21.571674     10746.25    3412.4826    1842.1938    4168.4207   -69.517052     -321.186    496.64145   -5937.8368 
 5514000    109.13851   -6734.4699   -6453.7177   -6734.4699            0    2950.7941    23.240552    21.341637    21.644744    10735.607    3509.1387    2990.4941    2352.7495    618.82485   -254.38551   -789.78295   -5991.7183 
 5515000    115.40747    -6734.934   -6438.0553    -6734.934            0    4523.3785    23.168569    21.283303    21.670131    10685.622    4426.7059    4770.1511    4373.2786    -52.06931    168.77437    67.975486   -5733.1373 
 5516000     113.8065   -6730.9495   -6438.1892   -6730.9495            0    3654.8719    23.226152    21.360891    21.538846    10686.095    3388.2829    3401.3947    4174.9381    199.46459   -49.419054    826.93977    -5868.593 
 5517000    110.28158   -6720.0643   -6436.3717   -6720.0643            0    4048.1924    23.041427    21.412889    21.700403    10706.621    4965.0808    3149.1481    4030.3483    1045.3493   -211.06354    271.87225   -5804.2663 
 5518000    109.54863   -6734.0754   -6452.2682   -6734.0754            0    3549.2034    23.184294    21.362487    21.617707    10706.692    3592.2278    2608.8811    4446.5013   -401.77565    1126.4894    677.21714   -5898.0738 
 5519000    114.26323   -6737.7191   -6443.7839   -6737.7191            0     3332.091    23.219711    21.333991    21.629393    10714.533    3391.2951    2991.3207    3613.6572   -26.478944   -162.07921    562.12124   -5923.1098 
 5520000     114.5199   -6741.6096   -6447.0141   -6741.6096            0    3273.8298    23.312132    21.329276    21.594543    10737.474    2990.6355    2861.6163    3969.2376    358.80243    206.56181    90.834508   -5934.3486 
 5521000    110.76394   -6734.8676   -6449.9341   -6734.8676            0    4372.8574     23.18778    21.295901    21.622493    10677.288    4787.9552    3919.7018    4410.9153   -90.523293     426.6297   -918.23986   -5769.0046 
 5522000    110.53273   -6719.2893   -6434.9506   -6719.2893            0    3501.4468    23.258889    21.402001    21.534411    10719.545    3932.7517    2893.8104    3677.7782   -220.89075   -428.36665   -75.075257   -5887.5569 
 5523000    112.66775   -6736.2799    -6446.449   -6736.2799            0    2626.6095    23.114159    21.384396    21.740269     10745.83     2686.827    2878.4994    2314.5023   -388.67373    203.96467   -332.84944   -6034.8149 
 5524000    121.18663   -6723.1242   -6411.3789   -6723.1242            0    3237.9643    23.260977    21.359292    21.626755    10744.994     3487.701    2705.6021    3520.5896    -610.9898    734.90833   -89.769576   -5903.9747 
 5525000    119.41107   -6728.3526    -6421.175   -6728.3526            0    3912.6661    23.235159     21.32454    21.614606    10709.585    3217.7376    4289.1061    4231.1546    -73.66782     16.20074    328.23866   -5810.0622 
 5526000    112.48471   -6710.7779   -6421.4179   -6710.7779            0    4688.1403    23.101488     21.30974    21.692819    10679.086    5088.3045    4251.3934    4724.7229   -1270.5359    643.08941    152.47596   -5691.2704 
 5527000     113.5158   -6718.2452   -6426.2327   -6718.2452            0    3901.8474    23.183474    21.438665    21.540843    10706.289    4362.7582    2948.4344    4394.3496     1659.921   -905.10032    190.08505   -5816.9973 
 5528000    104.87623   -6722.8266   -6453.0389   -6722.8266            0    2919.0267    23.241657      21.3448    21.650366    10740.498    2597.0954    3345.5363    2814.4483    482.94072    710.42777    78.922042    -5995.805 
 5529000    110.97138   -6735.8249   -6450.3578   -6735.8249            0    2781.3985    23.277323    21.274574    21.704327    10748.311    2496.3385    3302.2481    2545.6089   -290.50578   -860.78011   -394.47621    -6014.365 
 5530000    116.24693   -6717.5259   -6418.4877   -6717.5259            0     4526.823       23.293     21.27718    21.552427    10681.585    4016.6727    5230.8881     4332.908    442.17926   -42.906595   -44.661512   -5713.2995 
 5531000    113.43218   -6716.1908   -6424.3934   -6716.1908            0    4474.3951    23.171106    21.322491    21.661796     10702.35    3822.1986    4646.4017     4954.585    -64.00733   -484.88655   -336.40437   -5726.0173 
 5532000    112.65376   -6718.4471   -6428.6521   -6718.4471            0     4304.111     23.16532    21.458609    21.521637     10698.31    4240.0102    3530.4097     5141.913   -110.12957   -412.59745   -155.44777   -5757.1081 
 5533000    111.04347   -6724.2792   -6438.6266   -6724.2792            0    2604.1982    23.193313    21.477856    21.637177    10778.401    3290.2441    1782.5833    2739.7671   -48.447302     275.4464   -500.95995   -6029.2677 
 5534000    109.15703   -6728.3284   -6447.5286   -6728.3284            0    2948.7567    23.152637    21.315357    21.754049     10735.77    3196.6391    3135.9712    2513.6596    225.27375    695.91742    209.66076   -5985.8412 
 5535000     110.8019   -6735.4689   -6450.4377   -6735.4689            0    2983.6461    23.348445    21.307558    21.548094    10720.141    2081.8458    3222.2785    3646.8141    118.62171    414.51198    947.25242   -5983.9678 
 5536000    111.47075   -6733.7424   -6446.9907   -6733.7424            0    3369.6279    23.240582    21.165427     21.76069    10704.015    3487.3778    4863.9754    1757.5305    510.38387   0.25366302    -376.0977   -5920.9679 
 5537000    114.02565   -6729.0487   -6435.7246   -6729.0487            0    3456.6553    23.204841    21.373242     21.60692    10716.226    3751.5679    3027.2914    3591.1068   -192.94919     300.8145   -422.16137   -5895.5007 
 5538000    110.19654   -6720.6829    -6437.209   -6720.6829            0    3529.4198     23.21096    21.462532    21.509772    10715.437    3024.8824    3307.7521    4255.6249   -715.57648     397.4676   -314.85367   -5885.6537 
 5539000    113.69734   -6730.2963   -6437.8168   -6730.2963            0    3605.8865    23.173379       21.423    21.622718    10734.453    3730.7122    4157.5778    2929.3694   -4.9311311   -604.68259   -1349.4089   -5873.3117 
 5540000    108.94958   -6727.3544   -6447.0882   -6727.3544            0    3400.4939    23.298219    21.319523    21.584088    10720.966    2823.6836    3329.0967    4048.7015   -380.28234    902.13189    421.68462   -5915.4064 
 5541000    111.78043   -6733.0313    -6445.483   -6733.0313            0    3996.8453    23.224716    21.221707    21.694313    10692.435    3290.8869    4672.3326    4027.3165    396.18438     11.23303    317.10801   -5822.2221 
 5542000    113.45689   -6733.5982   -6441.7372   -6733.5982            0    2684.2435    23.294498    21.286566      21.6572    10738.936    2639.7567    3699.0367    1713.9371    67.209176   -184.06769    181.93907   -6021.3408 
 5543000    118.58708   -6741.2734   -6436.2153   -6741.2734            0    2814.7777    23.182535    21.404066    21.653666     10744.56    3105.0844    3359.3981    1979.8506   -172.84186   -412.76106   -598.64783   -5995.1442 
 5544000    116.62103   -6734.8697   -6434.8692   -6734.8697            0    3517.9367    23.168425    21.459828    21.540215    10709.588    3040.4162    2991.3641    4522.0298    528.44417    194.70943    223.34991   -5885.4084 
 5545000    104.80766   -6742.2934   -6472.6821   -6742.2934            0    2562.8994    23.288066    21.336947    21.641989    10753.823    2346.0822    3365.7655    1976.8506   -310.58577    120.70382    -965.0869   -6070.7337 
 5546000    117.90178   -6735.9675   -6432.6724   -6735.9675            0    4251.5155     23.23227    21.250596     21.66103    10694.041    4435.4506    4741.1801    3577.9158   -63.999161    535.18549    -209.2074   -5769.5991 
 5547000    108.10744   -6726.5417   -6448.4419   -6726.5417            0    3515.6789    23.296207    21.318396     21.56548    10710.232     3711.597     3396.883    3438.5566    237.23647   -544.49093     896.6339   -5899.3008 
 5548000    116.42957   -6728.6248   -6429.1169   -6728.6248            0     3896.299    23.063852     21.30528     21.80912    10716.605    4639.9501    3889.5178    3159.4291    444.39365   -1125.6298    349.84344   -5820.1616 
 5549000    116.38753   -6728.5468    -6429.147   -6728.5468            0    3247.8123    23.216195    21.425531    21.565261    10726.977    1803.3477    2904.4091      5035.68   -90.121941    1116.9121    100.43164   -5921.0528 
 5550000    112.76419   -6728.7852   -6438.7062   -6728.7852            0    3839.2315    23.094838    21.399181    21.678835     10713.91    5564.6453    2682.0697    3270.9795   -241.12893   -1044.0695   -603.67524    -5838.821 
 5551000    116.41737   -6724.0398   -6424.5632   -6724.0398            0    3554.8145    23.165286    21.441287    21.590095    10723.661    3902.8599    3104.0992    3657.4845   -1278.8528    1250.0759    67.921568    -5868.613 
 5552000    110.40218   -6734.7515   -6450.7486   -6734.7515            0     3210.035    23.331342     21.28429     21.54956    10701.319    2301.9594    3830.1867    3497.9591    144.23011   -71.620544   -228.58464   -5949.7656 
 5553000    114.40307   -6742.4092   -6448.1143   -6742.4092            0    3305.5633    23.258366    21.216599    21.735958      10725.9     3289.334    3748.7307    2878.6252   -583.54785    141.88262   -16.341234   -5931.0374 
 5554000    113.24837     -6721.74   -6430.4155     -6721.74            0    4003.7908    23.236769    21.349663    21.554418    10693.087    3615.4198    4948.2728    3447.6799    5.0438867   -195.98207   -232.41874   -5806.0335 
 5555000    114.63992   -6728.0324   -6433.1282   -6728.0324            0     3247.151    23.075614    21.459699    21.655171    10723.549     3583.147    3281.1384    2877.1675    661.89953   -34.435867   -87.818148   -5925.2999 
 5556000    118.12943   -6726.3216   -6422.4408   -6726.3216            0    3669.8941    23.056546     21.41559    21.683709    10706.755     4517.092    3621.2105    2871.3798    78.396827   -33.003332   -54.846982   -5849.3977 
 5557000    114.24057   -6732.3846   -6438.5077   -6732.3846            0    4276.3062     23.23055    21.314859    21.558441    10674.789    4631.9867    4117.4045    4079.5274    489.51657   -948.69248    738.23265   -5772.7687 
 5558000    110.18286   -6721.1063   -6437.6676   -6721.1063            0     4037.372    23.318119    21.112518    21.745009    10705.159    4076.9541    4782.8794    3252.2825   -947.79654    352.23948     303.5572   -5807.3379 
 5559000    108.60383   -6714.8469   -6435.4702   -6714.8469            0    2936.6581    23.384762    21.241981    21.613534    10736.278    1671.7334    3630.0095    3508.2313     494.0613   -108.57248   -415.72086   -5975.6553 
 5560000    108.01148   -6735.8063   -6457.9534   -6735.8063            0    3054.4208     23.25264     21.36155    21.607222    10732.576    3004.9664    3264.1424    2894.1535     21.66939     806.2989   -941.57605   -5979.8644 
 5561000     108.8026   -6720.1493   -6440.2612   -6720.1493            0    2464.6906    23.145679    21.545835     21.57826    10760.927    3182.0748    1789.4483    2422.5485    112.22819    47.472134    113.38005   -6053.4599 
 5562000     113.6599   -6727.4957   -6435.1126   -6727.4957            0    2777.8422    23.234397    21.451354    21.550533    10740.986    3221.2975    1555.8492    3556.3799   -197.02045   -21.807161   -39.580206    -5999.974 
 5563000    117.99344   -6721.6274   -6418.0965   -6721.6274            0      4006.77    23.221676    21.242481     21.71218    10710.314    4063.7672    4778.2689    3178.2739    100.05238    516.66498    72.922466   -5792.2432 
 5564000    110.91067   -6728.1809     -6442.87   -6728.1809            0    3396.5396    23.238071    21.258766    21.682566    10711.464    3757.1768    4089.0916    2343.3505    65.423263    144.73036    42.320675   -5912.2771 
 5565000    107.96487   -6737.2815   -6459.5484   -6737.2815            0     3608.006    23.263002     21.22589    21.642016     10686.35    3289.2974    4707.7339    2826.9867   -399.57841   -411.01555    12.793783   -5897.2427 
 5566000    117.11075   -6724.0834   -6422.8232   -6724.0834            0    4053.5403    23.134831    21.312302    21.680755    10689.837     4144.423    4261.1423    3755.0556    830.97485   -754.69512   -95.638903    -5790.875 
 5567000    108.16209   -6736.3541   -6458.1137   -6736.3541            0    3210.2663    23.159358    21.444398    21.599977     10727.38     3969.753    2196.0001     3465.046   -474.31544   -432.87594   -280.59615   -5955.8745 
 5568000    106.42509   -6727.1405   -6453.3684   -6727.1405            0    3336.3572    23.217477    21.447288    21.547741    10729.739     3142.335    2929.4892    3937.2475   -148.44787   -851.88687   -386.38565   -5931.2878 
 5569000     105.8264   -6732.7157   -6460.4837   -6732.7157            0     4500.887    23.273118    21.192063    21.634578     10670.29    4036.0884    5361.8265     4104.746      713.196     625.7676   -467.16436   -5760.0771 
 5570000    112.44213   -6735.0306     -6445.78   -6735.0306            0    2757.8374    23.307209    21.285481    21.648825    10740.094    2887.0474    2886.4486     2500.016    843.92248   -558.89353    662.75447    -6013.811 
 5571000     115.7514   -6734.5623   -6436.7989   -6734.5623            0    3465.2757    23.257952    21.232706    21.687576    10709.959    3844.8348    3522.8485    3028.1438    27.540972    64.683563    13.930305   -5895.5444 
 5572000    114.38025    -6709.556   -6415.3197    -6709.556            0    4180.4231    23.091204    21.393786    21.689452    10714.769    3620.3692    4704.6976    4216.2025    321.36962     536.2538    211.02652   -5762.0704 
 5573000    109.65399   -6732.6743    -6450.596   -6732.6743            0    3164.7635    23.184731    21.522402    21.511122    10733.859    2829.6611    2563.4464    4101.1831    653.98645    -842.8102   -759.60133   -5955.1766 
 5574000    108.57687   -6720.9241   -6441.6168   -6720.9241            0    3499.6307    23.183859    21.359243    21.673758    10732.621    3746.8622    3587.8534    3164.1765   -390.95152    91.953383     148.0406   -5893.8396 
 5575000    112.23776   -6727.7046   -6438.9798   -6727.7046            0    3541.4149    23.334348    21.299869    21.532767    10702.185    2533.0054    4308.3032    3782.9361    211.86509    -480.8606     68.09515   -5886.2344 
 5576000    112.41736   -6733.2241   -6444.0373   -6733.2241            0    2748.3538    23.281948    21.287134    21.675054    10742.285    1849.9398    3298.1774    3096.9442   -457.68436   -29.978458   -481.13941   -6013.4658 
 5577000    109.20131     -6731.64   -6450.7263     -6731.64            0    2755.4376    23.183761    21.368513    21.698656    10749.568     3153.663     2897.754    2214.8958    634.68336   -543.74007    -92.62377   -6018.7524 
 5578000     113.6545   -6717.3515   -6424.9822   -6717.3515            0     2739.562    23.235843    21.395204    21.637557      10756.8    2875.7268    2281.4319    3061.5274    351.41448   -908.60454   -61.136685   -5995.2082 
 5579000    109.26818   -6731.6242   -6450.5384   -6731.6242            0    4072.1247    23.173172    21.352589    21.618134    10696.809    4878.6182    2851.6088    4486.1472    -115.2419   -528.97785    70.109722   -5815.2789 
 5580000    116.76557   -6727.1403    -6426.768   -6727.1403            0    3172.1087    23.330172    21.376832    21.536851     10740.97    2972.0779    3320.6622    3223.5859   -1047.2432    91.813561   -72.101568   -5929.8697 
 5581000    110.60978   -6732.1756   -6447.6386   -6732.1756            0    4150.6766    23.163971    21.341983    21.614796      10685.6    4117.8448    4494.0947    3840.0902   -367.87279    51.730823   -524.93497   -5800.8033 
 5582000    108.39699   -6723.8571   -6445.0124   -6723.8571            0    3817.9826    23.217512    21.356367    21.594761    10707.583    3869.5399    2770.7539    4813.6539     288.7699   -297.63813    183.61917   -5848.7997 
 5583000    112.06832   -6726.4482   -6438.1592   -6726.4482            0    3476.0679    23.238735    21.322763    21.606124    10706.138    3279.5572    3783.3984    3365.2481   -679.77923     972.0974    435.38905   -5895.4128 
 5584000    120.16912   -6727.4414   -6418.3136   -6727.4414            0    3180.4285    23.207299    21.327083    21.687513    10734.105    2580.5047    3212.1023    3748.6785     97.80213    41.317939    1158.9317   -5920.4306 
 5585000    113.51907   -6738.8226   -6446.8017   -6738.8226            0    3159.9747    23.316082    21.331947    21.563058    10724.978    1875.6682    3737.8074    3866.4484    532.85302   -24.912225    97.250257   -5952.5412 
 5586000    113.87365   -6737.9022   -6444.9691   -6737.9022            0    3863.0533    23.193655     21.29881    21.641503    10690.843     3506.872    4286.6593    3795.6287   -1182.5493    346.71323   -720.64777   -5842.6613 
 5587000    108.05859   -6733.1481   -6455.1739   -6733.1481            0     2702.317    23.307895    21.373611    21.573208    10747.208    2541.7123    2434.3027    3130.9359   -205.01165    45.947657   -24.051823   -6031.6208 
 5588000    111.98034   -6724.8504   -6436.7878   -6724.8504            0     3227.604    23.160441    21.367864    21.663669    10721.114    3743.0503    3580.5133    2359.2482   -147.39995     63.52143   -297.63003   -5932.1311 
 5589000    109.02592   -6742.6133   -6462.1508   -6742.6133            0    3612.1871    23.114182    21.413717    21.619763     10700.93    3940.9164    3961.4686    2934.1763    752.66478   -1028.0437    426.61159   -5898.4253 
 5590000    109.52448   -6730.3172   -6448.5721   -6730.3172            0    3231.8756    23.156249    21.370402    21.658978    10718.126    3544.5468     3497.051     2654.029     451.5407     123.8052    298.62138   -5943.3884 
 5591000    108.97375   -6736.1866   -6455.8582   -6736.1866            0    3373.9319    23.323978    21.264024    21.597128    10711.347    2779.7006    4111.5015    3230.5937    419.85963   -91.765358   -126.11808   -5928.8028 
 5592000    111.10304   -6724.0161   -6438.2103   -6724.0161            0    3823.0568    23.254274    21.264592    21.637478    10699.574    3680.3848    4650.0781    3138.7074    198.51422   -861.50625   -565.03202   -5841.6516 
 5593000    109.22835     -6723.92   -6442.9367     -6723.92            0    3892.6429    23.216514    21.349521    21.620531    10716.463    3386.9443    4239.7431    4051.2411   -975.48951    2.0711573   -573.75514   -5834.5609 
 5594000    115.98076   -6733.0364    -6434.683   -6733.0364            0    3517.6806    23.250853    21.395426    21.502971    10696.909    2537.3921    3268.1246    4747.5251    252.71844    459.32055   -104.23012   -5885.9127 
 5595000    105.03644   -6729.6606   -6459.4608   -6729.6606            0    3615.6385    23.049856    21.443887    21.681367    10716.634    4113.2839    3964.1722    2769.4592   -171.73993    185.00499   -693.95263   -5894.3686 
 5596000    112.06127    -6715.266   -6426.9952    -6715.266            0     3890.301    23.176215    21.479408    21.495697    10700.803    3503.1811    3522.7765    4644.9455   -97.013803    41.604015     500.0434   -5819.8739 
 5597000    109.63741   -6722.6377   -6440.6022   -6722.6377            0    3194.2108    23.236143    21.281206     21.69992    10730.462    3014.0552    3857.2858    2711.2914   -173.52689     548.0417    577.37121   -5940.7312 
 5598000    111.29465   -6743.4891   -6457.1904   -6743.4891            0    3244.1095    23.340072     21.23794    21.622107    10717.971    2955.0912    3921.7045    2855.5329    225.47542   -534.92516   -937.14049   -5950.1017 
 5599000    108.61941   -6718.8904   -6439.4736   -6718.8904            0    1852.5983    23.285636    21.407703    21.618664    10776.731    2128.1272    1073.4384    2356.2293    14.990818   -235.56743   -296.20536   -6148.3053 
 5600000    112.20252   -6743.2333   -6454.5991   -6743.2333            0    2527.7778    23.208846    21.386059    21.637308    10739.586     3215.941    1962.3481    2405.0442   -512.28327    43.220241   -206.62732   -6058.6838 
 5601000    112.54467   -6745.3799   -6455.8656   -6745.3799            0    3971.8587    23.124384    21.369252    21.608397    10677.806    3546.7712    4366.4469    4002.3581    1009.5184    92.227034    303.10729   -5837.3485 
 5602000    114.43206   -6734.2788   -6439.9093   -6734.2788            0    4763.3858    23.190497    21.270269    21.627559    10668.185    5124.8704    4690.3687    4474.9183    778.40659   -741.78301    491.86747   -5698.8001 
 5603000    117.69088   -6729.6795   -6426.9269   -6729.6795            0    2906.2826    23.270469    21.317708    21.660571    10745.226    3664.7433    2513.5208    2540.5837   -87.831576   -696.55506    199.42752   -5971.4888 
 5604000    112.16759   -6728.3357   -6439.7914   -6728.3357            0    3086.4735     23.29965    21.372953    21.550465    10731.751    2764.7741    3099.7415    3394.9048    233.39832    389.37533   -469.75425   -5956.7226 
 5605000     111.2676   -6718.0737   -6431.8446   -6718.0737            0    4196.0655    23.104567    21.379667    21.686626    10712.498    4304.8661     4647.688    3635.6425    720.85599   -420.12988   -169.46388   -5776.2899 
 5606000     109.2841   -6731.8829   -6450.7562   -6731.8829            0    3447.9393    23.192194    21.394429    21.589584    10712.401    2977.4689    4217.3871     3148.962    270.48866    82.335954   -1137.5015   -5912.0868 
 5607000    110.55618   -6727.4446   -6443.0456   -6727.4446            0    4118.6606    23.250189    21.324844    21.523909    10671.697     3354.117    4178.5954    4823.2694    906.16386   -55.034077    890.70473   -5802.0347 
 5608000    111.45791   -6734.4241   -6447.7054   -6734.4241            0    3429.2274    23.199164      21.2137    21.829884    10743.361    4122.1862    3946.3161    2219.1798   -677.10167   -584.31482    428.58299   -5910.4109 
 5609000    109.86414   -6734.0914   -6451.4726   -6734.0914            0    3124.9676     23.28995    21.363303     21.54609    10720.263    2189.0125    3192.5262    3993.3643    401.02984    -163.2562    566.10331   -5962.9025 
 5610000    106.40436   -6721.8848    -6448.166   -6721.8848            0     2924.969    23.238411    21.386308    21.610608    10740.123     2458.859    3093.3639    3222.6841    23.033513    311.90185   -391.66417   -5990.0174 
 5611000    114.39101   -6732.2131   -6437.9492   -6732.2131            0    3705.6863    22.975002    21.434128    21.771561    10721.386    4613.5364    3746.0526    2757.4698    -186.0903    -355.7533    72.186074   -5858.5265 
 5612000    115.40779   -6736.7538   -6439.8743   -6736.7538            0    3520.1473    23.237923    21.414648     21.50753    10702.833    2946.1098    3823.9564    3790.3755   -107.29368    779.07672   -239.23868    -5890.415 
 5613000    112.79183   -6728.8988   -6438.7487   -6728.8988            0    3182.5802    23.180844    21.346252    21.714629    10744.923    3148.7059    3630.8767    2768.1579    338.43963    596.38877    -241.4189   -5940.0267 
 5614000    112.34877   -6719.4495   -6430.4392   -6719.4495            0    4207.9917    23.199763    21.243575    21.703529    10696.496    4643.3181    3585.1749    4395.4822   -507.00005   -970.03729    1086.2613   -5774.0033 
 5615000    110.97843   -6719.4005   -6433.9152   -6719.4005            0    3347.5468    23.199777    21.363967    21.598642    10705.135    3295.0582    3200.8777    3546.7044   -188.74471     247.1371    52.851474   -5911.2848 
 5616000    108.02476   -6735.8026   -6457.9155   -6735.8026            0    3501.9852    23.169875    21.352047    21.663832    10717.623    2900.0044    3920.7457    3685.2056    690.48384    277.67778   -14.230442   -5910.5358 
 5617000    109.44377   -6750.8393   -6469.3019   -6750.8393            0    3705.0485    23.130948    21.440208    21.564678    10694.621    3821.9782    2880.7773    4412.3899   -548.69321    446.76477   -408.65368   -5891.4252 
 5618000    107.17087   -6732.7069   -6457.0163   -6732.7069            0    2502.3804    23.203627    21.490638    21.592705    10767.435    2850.9221    1591.2017    3065.0174   -135.98384    -425.1372    251.84265   -6064.0625 
 5619000    107.37196   -6721.5337   -6445.3259   -6721.5337            0    3127.3283    23.265917    21.308853    21.656374    10736.581    2459.9908     4101.174    2820.8201     456.5019    966.57561   -483.32196   -5955.6425 
 5620000    110.86748   -6729.0896   -6443.8898   -6729.0896            0    4078.5799    23.442655    21.164856    21.558922    10696.684    3353.5105    4505.5257    4376.7037   -144.40041   -98.121719    347.01366   -5807.6306 
 5621000    110.79068   -6732.8942   -6447.8919   -6732.8942            0    3463.7531    23.270933    21.317491    21.610617    10720.549    3599.3797    2956.1915    3835.6881   -197.67134   -334.87335     783.0278   -5906.3403 
 5622000    117.10744   -6721.4413   -6420.1895   -6721.4413            0    4106.9772    23.123525    21.293844    21.719521    10694.447    5241.8815    4319.2453    2759.8049   -272.60869    372.97915   -511.15019   -5779.6344 
 5623000    112.46656   -6733.2355   -6443.9221   -6733.2355            0     3912.849    23.087076    21.456367    21.557129    10678.642    4371.3677    3357.7707    4009.4086    48.040877    804.86933     320.3704   -5834.5466 
 5624000    112.14952   -6724.0311   -6435.5333   -6724.0311            0    4150.3473     23.15438    21.355602    21.632014    10696.506    4419.0084    3828.6492    4203.3844    333.82744   -797.75818    268.19211   -5788.0892 
 5625000    115.67689   -6726.0359   -6428.4641   -6726.0359            0    3251.9515    23.310778    21.286697    21.653486    10744.665     2921.489    4765.0916    2069.2737    180.39645    220.50891   -986.02237   -5918.8836 
 5626000    116.27118   -6743.5731   -6444.4725   -6743.5731            0    2943.0373    23.316274    21.292603    21.628632    10737.841    2678.4902    3735.4913    2415.1305   -465.71878    -297.9056   -374.74561   -5983.5917 
 5627000    111.42635   -6730.5892   -6443.9517   -6730.5892            0    3250.9624    23.262277    21.334021    21.596273    10717.753    3258.2828    2853.8549    3640.7496    32.025631    268.29399    257.33792   -5935.8021 
 5628000    109.12492   -6722.6168   -6441.8996   -6722.6168            0    2734.4368    23.189848    21.331952    21.739463    10754.181    3045.3513    2995.7675    2162.1917    120.58276     293.7152   -413.68559   -6013.0341 
 5629000     116.4181   -6727.9259   -6428.4474   -6727.9259            0    2907.6213     23.26131    21.389121    21.623015    10758.292    3198.5041    2455.1746    3069.1853    -30.60165    177.32366    198.22909   -5972.2456 
 5630000    109.80369   -6745.8992   -6463.4359   -6745.8992            0    3671.1494    23.226194    21.343063    21.573922    10694.584    3104.7596     3545.982    4362.7065   -272.74452    921.80855    162.75455   -5890.8484 
 5631000    107.48947   -6735.9218   -6459.4117   -6735.9218            0    3389.3312    23.165478    21.350049    21.681112    10723.134    3974.4677    3062.0869     3131.439   -300.89852   -576.16074   -591.69558   -5929.3681 
 5632000    112.78481   -6713.2128   -6423.0808   -6713.2128            0    3181.1873    23.229595    21.350905    21.598881    10712.459      3188.64    3649.8053    2705.1165     92.33842    324.42447   -125.57502   -5926.0831 
 5633000    115.97482   -6735.8666   -6437.5284   -6735.8666            0    3024.1426    23.223712    21.459247    21.522595    10726.073    3084.1408    2691.7002     3296.587    827.05012    -246.4491    85.522651   -5964.4655 
 5634000    110.09991   -6739.5146   -6456.2893   -6739.5146            0     4109.308    23.080237    21.333017    21.659007    10664.269     4535.885    4506.6666    3285.3724    73.114768    749.93651   -342.23984   -5817.1792 
 5635000     109.4387   -6739.6778   -6458.1534   -6739.6778            0    3490.2646    23.234942    21.336643    21.613791    10715.159    4356.5899    3264.8405    2849.3633   -159.88648   -5.3174855   -803.36166   -5912.7312 
 5636000    116.48658   -6730.1465   -6430.4918   -6730.1465            0    3379.2279    23.295135    21.282507    21.602228    10709.928    3030.3905    3911.8704    3195.4228   -415.07086   -442.74045    -297.8449    -5902.679 
 5637000    112.95649   -6739.9077    -6449.334   -6739.9077            0    2498.6624    23.275662    21.360596    21.660756    10769.338    2249.4137    2042.7448    3203.8288    1.5521493     972.4982     192.0564   -6056.8947 
 5638000    108.37714   -6733.5532   -6454.7597   -6733.5532            0    3157.4391    23.210593    21.355875    21.596382    10704.949    3307.9714    3239.8831     2924.463     218.0966   -218.32056    40.761035   -5961.8181 
 5639000    113.66366   -6741.6766   -6449.2837   -6741.6766            0    2422.6982    23.176627    21.429191    21.626091    10740.736    2526.8798    2572.8544    2168.3604    588.55658    373.66633   -120.85587    -6069.786 
 5640000    112.05291   -6727.7087   -6439.4594   -6727.7087            0    3616.5904    23.152735    21.357649    21.625456    10693.528    3792.3952    4223.4512    2833.9248    646.09491    15.422433    437.91209   -5875.4371 
 5641000    108.40795   -6728.7799    -6449.907   -6728.7799            0    3433.9934    23.250988    21.310321    21.599458    10702.229    3159.6785    3987.9209    3154.3809   -736.68827    979.31382   -164.44583   -5913.9258 
 5642000    114.47624   -6737.2355   -6442.7523   -6737.2355            0    3374.4795    23.235982    21.271235    21.696596    10723.717    3540.6362    3432.6546    3150.1479   -32.036324   -214.55713   -5.2066336   -5915.0026 
 5643000    112.31834   -6727.4019   -6438.4699   -6727.4019            0    3282.2575    23.265437    21.365526    21.584705    10729.288    2711.4949    3067.4348     4067.843   -153.92344   -403.72809    273.28305   -5924.8764 
 5644000    108.82025   -6726.0306   -6446.0972   -6726.0306            0    2766.5114    23.229055    21.423902    21.621863    10760.272    2937.7158    2233.7955    3128.0227    596.95498   -671.87283    78.136023   -6011.9554 
 5645000    116.69365   -6724.6822   -6424.4949   -6724.6822            0    3588.9467    23.041399     21.39234    21.768097    10729.701     4351.621     3414.434     3000.785    264.66186    -159.8927   -52.052931   -5862.8905 
 5646000    109.39106   -6728.1011   -6446.6993   -6728.1011            0    3138.7389    23.250099    21.415446    21.508144    10709.147    2903.3784    3040.8725    3471.9658   -746.05461     531.2812   -106.14813    -5956.485 
 5647000     109.4011   -6732.9484   -6451.5207   -6732.9484            0    3211.5195    23.154019    21.247148     21.78404    10716.808    3525.3041    3876.9694    2232.2851     531.6731    393.39539    294.59508   -5949.5806 
 5648000    107.55947   -6731.9846   -6455.2944   -6731.9846            0    2860.0718    23.293194    21.281114    21.660115     10737.03     2424.769    3528.7926    2626.6539   -324.64889    450.10268   -320.55512   -6007.4398 
 5649000    111.87057   -6712.7976   -6425.0174   -6712.7976            0    4233.1515    23.274888    21.339029    21.542689    10699.468    3811.4826    4307.2622    4580.7097    50.943587    10.080639    283.51678   -5764.4732 
 5650000    108.86324   -6727.8255   -6447.7815   -6727.8255            0    3624.7338    23.138209    21.319454    21.719881    10714.286    3868.3011    4411.5328    2594.3676    -388.5202   -230.95616   -486.16298   -5881.3919 
 5651000    111.79776   -6718.0414   -6430.4485   -6718.0414            0    3050.8978    23.270184    21.351555    21.588204    10726.199       2072.9    3832.0008    3247.7927   -35.333684     741.1913   -738.11059   -5953.1947 
 5652000     109.3101   -6737.4666    -6456.273   -6737.4666            0    3628.7184    23.109347    21.382454     21.67888    10712.284    4223.9329    3410.1332     3252.089    579.00088   -435.19185    77.343053   -5889.3668 
 5653000    113.91321   -6719.4433   -6426.4085   -6719.4433            0    3354.0263    23.103326    21.380441    21.707484    10722.613    3874.3797    3496.7023     2690.997   -704.05592    1107.4185   -251.86033   -5901.9115 
 5654000    110.65479   -6725.8638   -6441.2111   -6725.8638            0    3789.9953    23.267893    21.350664    21.548724    10705.082    3861.1716    3547.2419    3961.5725   -3.8815083    87.824316    634.15072    -5849.507 
 5655000    108.23586   -6733.2532    -6454.823   -6733.2532            0    3028.6805    23.305953     21.28611     21.62947    10730.231    2754.9574    3184.4359    3146.6482   -518.47728    716.34212   -739.10448   -5980.8666 
 5656000    106.49614   -6742.7855   -6468.8307   -6742.7855            0    2326.8273    23.345612    21.305495    21.615622     10751.39    1866.4871    3279.8617    1834.1329   -924.50676    83.321065   -357.08179   -6103.9888 
 5657000    109.62203   -6734.4436   -6452.4476   -6734.4436            0    3189.6637    23.256058    21.331598    21.615459    10723.189    2880.0859    3044.3391    3644.5663    467.44931    600.96279    431.52269   -5953.6266 
 5658000    111.17222   -6736.6366   -6450.6528   -6736.6366            0    4055.7098    23.111135    21.334437    21.656018    10677.782    4985.5837    3151.2214    4030.3244    152.08177    546.83504    523.37012   -5819.0794 
 5659000    113.99421   -6733.4455   -6440.2023   -6733.4455            0    4116.1691    23.097214    21.370086    21.637846    10680.213     4316.809    4739.4048    3292.2934    1010.3129    267.65967   -162.17059    -5799.068 
 5660000    112.33476   -6733.4231   -6444.4488   -6733.4231            0    3660.6951    23.166759     21.40029    21.576571    10697.132    4178.8976    3037.4751    3765.7127   -1253.9912   -932.77382     83.29863   -5873.3558 
 5661000    107.17423   -6733.2385   -6457.5393   -6733.2385            0    3324.0237    23.199152    21.353638    21.655445    10727.811    3123.1757     3111.446    3737.4494   -363.49024    93.014494    687.52736   -5937.4821 
 5662000    114.67342    -6734.206   -6439.2156    -6734.206            0    3569.1058    23.314293    21.279483    21.564348    10698.421    3210.7548    3886.6136    3609.9491    89.856054   -107.69496   -732.39176   -5882.3441 
 5663000    112.07605   -6731.2176   -6442.9088   -6731.2176            0    3680.3975    23.193413    21.279573    21.700232    10710.061    3803.1486    4773.0164    2465.0276    -152.8708    421.38827   -1777.1761   -5868.0481 
 5664000    108.92481   -6730.0396   -6449.8371   -6730.0396            0    3601.7084    23.222656    21.403925    21.520826    10697.055    4282.4437    2695.6457    3827.0356   -280.70146   -371.43927    438.53982   -5887.9505 
 5665000    112.02826   -6728.1499    -6439.964   -6728.1499            0    3737.1071    23.155417    21.381634    21.614475    10701.341    3938.9706    4028.4812    3243.8695    -348.5251    516.54065   -668.97799   -5856.7209 
 5666000    113.96887    -6723.638   -6430.4601    -6723.638            0    3098.9252    23.201289    21.352856    21.689195    10745.127    3287.7345    3007.3003    3001.7406   -114.77753    532.25541    49.431672   -5944.8379 
 5667000    110.82311    -6731.153   -6446.0673    -6731.153            0    3288.5548    23.342841    21.338588    21.496334    10707.394    2625.0102    3049.5037    4191.1504   -81.983555     532.8699    264.50751   -5932.5386 
 5668000    116.87583   -6732.6547   -6431.9988   -6732.6547            0    2579.3516    23.234088    21.305359    21.755241    10769.075    3043.3709    2939.4308     1755.253    131.45453   -518.83587   -79.055598   -6026.8964 
 5669000    115.88523    -6719.056   -6420.9484    -6719.056            0    3183.9805     23.22681    21.378265    21.616738    10733.768    3545.2422     3409.519    2597.1802    -352.0648   -87.632928   -62.205906   -5922.5249 
 5670000    110.39479   -6730.3588   -6446.3749   -6730.3588            0    3216.0703    23.238237    21.377125    21.601506    10730.909    2732.0767    3466.8891    3449.2452   -613.68687    611.89704    248.07276   -5943.0622 
 5671000    112.50992   -6730.8257   -6441.4008   -6730.8257            0    3847.6757    23.123898     21.30699    21.743324    10712.951    3876.9405    4742.5895     2923.497    1134.5767    283.20362    -292.3314     -5840.25 
 5672000    110.32556   -6719.4059   -6435.6001   -6719.4059            0    3642.2586    23.344007    21.416249    21.389967    10693.723    2610.3521    3653.6001    4662.8237   -36.586647    364.58943   -158.06661   -5867.5644 
 5673000    108.45897   -6728.0672   -6449.0631   -6728.0672            0     4166.388    23.155888    21.267607     21.70691    10690.009    5145.4264    3708.7892    3644.9485   -827.40919   -146.09164    196.68111   -5799.5115 
 5674000    111.48999   -6734.9199   -6448.1187   -6734.9199            0    4014.5172    23.189164     21.27542    21.628298     10670.52    4020.7399     4628.467    3394.3448   -51.668397   -42.038334   -122.44186   -5823.3852 
 5675000    112.22336   -6724.7646   -6436.0769   -6724.7646            0    3654.6607    23.220538    21.376373    21.556209    10699.875    3166.8525    3656.1878    4140.9417    1747.6942   -623.50371    34.262256   -5865.7792 
 5676000    109.24239   -6730.9031   -6449.8837   -6730.9031            0    3224.9498    23.140253    21.352993    21.714771    10729.565    4044.2918    3285.9937    2344.5638   -296.11348    -322.4634   -56.117355   -5945.2445 
 5677000    116.41112   -6725.2866   -6425.8261   -6725.2866            0     2560.943     23.30078    21.381797    21.587201    10755.014    2632.2094    1964.5895      3086.03   -351.78878   -684.06438    476.40703     -6024.14 
 5678000    116.07788   -6731.3517   -6432.7485   -6731.3517            0    3653.4932    23.323592    21.309468    21.572056      10721.6    2891.5914    3587.6262     4481.262   -627.99017   -233.38591   -294.59657   -5861.4754 
 5679000    108.26013   -6722.5605   -6444.0679   -6722.5605            0    3793.9547    23.283313    21.322752    21.590984    10719.153    4329.7947    3681.6745    3370.3947   -291.32086   -860.47381   -1267.0094   -5850.9671 
 5680000    114.14906   -6731.2038   -6437.5623   -6731.2038            0    3931.0819    23.138701     21.38028     21.65561    10713.288    4206.7749    3931.2662    3655.2046   -534.66841     678.1137   -91.199975    -5823.361 
 5681000    109.69509   -6727.7444   -6445.5605   -6727.7444            0    4041.9995    23.151532    21.350146    21.637368    10695.104    4424.4479    3290.3078    4411.2428    650.73231   -27.506703    344.63059   -5815.1011 
 5682000    114.08678   -6728.4331   -6434.9518   -6728.4331            0    3305.6053     23.21805    21.365095    21.646334    10737.791    3428.2839    3464.7162    3023.8158    -504.7827    80.536328    389.12343   -5917.2951 
 5683000     111.1098     -6738.93   -6453.1069     -6738.93            0     3595.841    23.238315    21.370016     21.58743    10720.386     3356.924    3223.9135    4206.6853   -745.80142    476.77636   -113.58846   -5890.9121 
 5684000    109.69219   -6731.1411   -6448.9646   -6731.1411            0    3788.5007    23.313928    21.240367    21.627458    10709.839    3479.8719     4428.848    3456.7822    1119.7613    -185.9748   -662.12917    -5857.231 
 5685000    110.02592   -6717.1556   -6434.1207   -6717.1556            0    3237.6073    23.241905    21.322244    21.643548    10725.884    3181.9416    3443.0972     3087.783    56.469108    637.51194    153.99453   -5927.6747 
 5686000    112.36819   -6720.8449   -6431.7846   -6720.8449            0    2887.1876    23.225374    21.439142    21.567258     10739.03    2781.9313    1910.1299    3969.5016    -791.6178    312.30412    163.05473   -5979.5998 
 5687000    109.03827   -6741.0708   -6460.5765   -6741.0708            0    2708.2388    23.043202     21.36822    21.794181    10731.285    3748.9152    2018.7407    2357.0606    74.823581    39.266378    565.46706   -6036.7241 
 5688000    113.21116    -6719.209   -6427.9802    -6719.209            0     3388.464    23.337271    21.325184     21.54452    10722.096    3276.6661    3092.0227    3796.7032    29.141132   -256.71204    357.82122   -5898.1235 
 5689000    105.76364   -6732.7997   -6460.7292   -6732.7997            0    3545.2826    23.296815    21.211636    21.693918    10720.344    2808.9963    4264.4508    3562.4006   -889.67183    323.87569   -684.06264   -5906.4413 
 5690000    117.33609   -6719.7235   -6417.8835   -6719.7235            0    3098.8766      23.3004    21.375443    21.569365     10742.76    2183.7085    3634.6867    3478.2346    33.974932    382.13578     54.89758   -5932.3759 
 5691000    115.86868   -6727.2857   -6429.2205   -6727.2857            0    4234.9617    23.125348    21.379296    21.606454     10682.31    4290.2056     4733.746    3680.9336    206.24951     1100.361   -637.03995   -5769.4536 
 5692000    111.29847   -6723.6369   -6437.3283   -6723.6369            0    3785.0154     23.07302    21.412555    21.683598    10712.831    4127.5021    4030.6595    3196.8845    545.47751    517.13484   -261.35337    -5845.974 
 5693000    112.67044   -6736.1532   -6446.3153   -6736.1532            0    3826.7588    23.183447    21.429627    21.557246    10709.912    4302.2054    3028.3085    4149.7625    -335.8728     212.9914    287.91965   -5848.6021 
 5694000    112.34997   -6725.2837   -6436.2702   -6725.2837            0    3726.0379     23.24148    21.304158    21.627465    10708.626    3666.4845    3085.5186    4426.1105   -228.39165   -683.72083   -361.71689   -5854.3588 
 5695000    114.05017   -6727.0908   -6433.7037   -6727.0908            0    2612.0431    23.350434    21.366386    21.567421    10760.297    2333.8826    1842.3183    3659.9285   -500.64314   -499.25252   -19.611933   -6023.8013 
 5696000     114.1895   -6742.5089   -6448.7634   -6742.5089            0    3315.3772     23.28942    21.344373    21.518405    10696.757    2651.3151    2804.5318    4490.2847    123.50277    265.95094    100.20987   -5931.5605 
 5697000    113.51681   -6731.0883   -6439.0733   -6731.0883            0    3320.3442    23.125458    21.371076    21.697962    10723.478    4313.0244      2584.75    3063.2583     648.6083   -535.30515    649.71122   -5919.8016 
 5698000    114.00386   -6727.1776   -6433.9096   -6727.1776            0    2937.1608     23.17303    21.390611    21.649303     10731.24    3158.7757    3068.2909    2584.4159   -92.808036    285.38131    232.12375   -5974.2318 
 5699000    113.58054   -6719.9792   -6427.8001   -6719.9792            0    3893.8373    23.297203    21.382198    21.431374     10675.94    3163.4044    3365.8344     5152.273    825.00613    -1151.352    153.33696   -5821.5389 
 5700000    111.77161   -6738.1972   -6450.6715   -6738.1972            0    2909.5655     23.21365    21.320638    21.686167    10733.131    3921.2205    3305.0824    1502.3934    96.600672   -1061.3091   -537.90228   -5995.2323 
 5701000    115.35372    -6735.739   -6438.9986    -6735.739            0    3421.8894    23.316568    21.256495    21.606277    10708.687    2103.2865    5207.7139    2954.6679   -111.34569    554.65238   -546.90742   -5904.5843 
 5702000    113.56936   -6735.5144   -6443.3641   -6735.5144            0    2881.9203    23.265055     21.37628    21.577532    10730.945    2962.1621    2186.0943    3497.5044   -137.10459   -191.58918   -389.98968   -5992.3441 
 5703000    107.44281   -6740.1152   -6463.7251   -6740.1152            0    3173.3998    23.100327    21.401349    21.680188    10718.211    3863.0036    2600.0303    3057.1655   -82.982705    -216.6267    521.54333   -5967.6779 
 5704000    109.42557   -6730.9258   -6449.4352   -6730.9258            0    2666.3751    23.247932    21.421601    21.561011    10737.554    2279.3273    2690.2542    3029.5438    481.19401   -669.56337   -91.632371   -6031.8909 
 5705000    108.79284   -6732.6708   -6452.8079   -6732.6708            0     3032.713     23.16603    21.334233    21.733976    10741.572    3168.0913    2918.1981    3011.8494    569.12188   -561.76466   -92.995489   -5977.7188 
 5706000     106.8927   -6732.0455   -6457.0705   -6732.0455            0    2925.2733    23.337115    21.325307    21.549066    10724.349    2928.9171    3405.9587     2440.944    383.43309   -1019.9524   -801.04423   -5999.5472 
 5707000    110.43485   -6738.9202   -6454.8333   -6738.9202            0     3632.164    23.292448     21.28593    21.591668     10705.18    3490.6071    3928.2224    3477.6626   -1282.7319    64.260333    244.44949   -5887.7651 
 5708000    112.25106   -6729.8419   -6441.0829   -6729.8419            0    3615.7085    23.178814    21.302413    21.724723    10726.901     3868.322    3808.4926     3170.311    690.92575   -206.59437   -503.79535   -5875.4384 
 5709000    115.93365   -6732.3743    -6434.142   -6732.3743            0    3124.2116    23.231565    21.447226    21.513786      10719.3    2899.6443    2251.7949    4221.1956    746.92288    593.43781    125.24032    -5945.734 
 5710000    108.28478   -6724.9308   -6446.3748   -6724.9308            0    2581.8013    23.151517    21.437927    21.711387    10775.807    3106.2859    2323.5834    2315.5344   -49.384244   -273.36033    553.19237   -6040.6341 
 5711000    111.38061   -6719.6829   -6433.1631   -6719.6829            0     4668.247    23.180492    21.331455    21.543453    10652.669    4452.1559    4663.6604    4888.9246    186.79923     235.9113    193.42502   -5707.9124 
 5712000    111.99757   -6738.9638   -6450.8569   -6738.9638            0     3620.218    23.238775    21.300987    21.639081    10711.537    3154.7356    3558.4026    4147.5157       -155.3    586.50329    115.84944   -5885.3181 
 5713000    109.04213   -6727.3142   -6446.8099   -6727.3142            0    3866.1519    23.242198    21.313031    21.597908    10698.776    3896.3187    3946.7918    3755.3452   -75.239534   -425.80494   -764.40558   -5843.5716 
 5714000    113.26162    -6735.565   -6444.2063    -6735.565            0    3333.9665    23.332605    21.283228    21.630756    10741.685    3073.2031      3904.14    3024.5562    140.34379   -624.09577   -797.02358    -5921.919 
 5715000    105.64803   -6733.6591    -6461.886   -6733.6591            0    3760.3904    23.226287    21.301478    21.650512    10711.683    3397.1714    4671.3436    3212.6562     457.1171    945.05781   0.53821439   -5874.4419 
 5716000    109.69472    -6724.891    -6442.708    -6724.891            0     3656.528    23.175202    21.374426    21.614751     10707.01    3683.7984    4053.4958    3232.2898    326.78841   -633.51731   -262.73808   -5871.7384 
 5717000    116.17883   -6746.4391   -6447.5761   -6746.4391            0      2490.47    23.153892    21.403899    21.660098    10734.388    2459.0616    1213.5458    3798.8027    1068.2812   -602.06902    844.36297   -6057.6929 
 5718000    115.15978   -6728.9466    -6432.705   -6728.9466            0    4273.0083    23.189695     21.30636     21.62987    10687.059    4546.5733     3548.428    4724.0235    407.28345    6.5192146   -453.83078   -5766.7149 
 5719000    109.34896   -6727.8715    -6446.578   -6727.8715            0    3407.2875    23.327466    21.275592    21.621392    10730.819    3085.7878    3363.1718    3772.9029    -601.4257   -394.06701     17.03298   -5913.3443 
 5720000    105.62536   -6738.0245   -6466.3097   -6738.0245            0    2658.5431    23.326877    21.304203    21.644046    10756.236    2420.1174     3035.875    2519.6368   -926.35937    496.18123   -731.43866   -6049.2675 
 5721000    106.87631   -6724.4933   -6449.5605   -6724.4933            0    2511.0749    23.312129    21.378669    21.599962    10765.038    2492.2385    1931.5007    3109.4855    606.02614   -29.083394   -517.02598   -6055.3292 
 5722000    107.32709   -6728.7944    -6452.702   -6728.7944            0    3640.5341    23.111405    21.413162    21.614826    10696.923    4168.6103    3244.5142    3508.4777    782.96316   -525.57328    87.674168   -5884.7654 
 5723000    110.37028   -6735.5981   -6451.6773   -6735.5981            0    2775.6311      23.0899    21.509752    21.628402    10741.919    3971.3299     1704.537    2651.0263   -985.94314   -391.56797    30.169274   -6016.8473 
 5724000    114.38124   -6724.9922   -6430.7534   -6724.9922            0    3475.0857    23.203372    21.412214    21.570178    10716.832     3071.859    2852.4878    4500.9103    743.85863    613.69399    453.24912   -5887.6184 
 5725000    110.78341   -6735.4161   -6450.4325   -6735.4161            0    3325.7035    23.224254     21.27373    21.711685    10727.016    4127.6969    3606.5994    2242.8141    213.18001   -593.43553   -86.554513    -5930.151 
 5726000    112.19243    -6733.988   -6445.3798    -6733.988            0    3812.2115    23.337476     21.18954    21.620034    10691.331     3543.326    4366.7695     3526.539   -628.95068   -668.49816    902.67021   -5850.9718 
 5727000    120.70234   -6726.7285   -6416.2291   -6726.7285            0     3519.113    23.268484    21.234823    21.698393    10721.223    3126.1617     3928.394    3502.7833   -840.10284   -85.000842   -124.34636   -5865.9875 
 5728000     116.8356   -6723.3258   -6422.7733   -6723.3258            0    3529.7236    23.132156    21.457079    21.580563     10711.48    3615.3394    3256.1558    3717.6755    357.92844    590.22856   -336.81343   -5871.3742 
 5729000    109.10799   -6719.1381   -6438.4645   -6719.1381            0     2944.233    23.160586    21.483751    21.568168    10731.808    3183.4613    2286.2312    3363.0065    14.776922    257.53746    230.64917   -5977.6555 
 5730000    116.41879   -6726.7409   -6427.2607   -6726.7409            0    4141.3276    23.105296    21.322018    21.718797    10699.799    4633.0267    3976.0856    3814.8705    113.42158    433.26313   -293.59305   -5781.0248 
 5731000    114.39683   -6719.6702   -6425.3913   -6719.6702            0    3517.0886     23.29747    21.295091    21.555879     10694.34    3240.6373    4068.9708    3241.6578    447.89116   -268.61435   -3.5706508   -5876.8452 
 5732000    115.85809   -6734.4828    -6436.445   -6734.4828            0     3013.933    23.246277    21.260533    21.752328    10750.615    2881.6497    2918.1232    3242.0261    457.90631    97.847289    1078.9646   -5963.9004 
 5733000    109.47186   -6731.1136   -6449.5039   -6731.1136            0    3687.0377    23.257132    21.193064    21.714946    10703.077    3289.5896    4306.5845    3464.9391    649.08427   -207.54997    119.73108   -5873.9817 
 5734000    111.99692   -6729.8109   -6441.7056   -6729.8109            0    2799.3909    23.344784    21.369584    21.519564    10735.428    1870.3153    2784.5531    3743.3044     1236.523   -194.02561   -473.49093   -6003.4184 
 5735000    112.69784   -6737.2532   -6447.3449   -6737.2532            0    3591.5748    23.172996    21.370461    21.650318    10721.619    3811.7711    4307.2779    2655.6755    174.71592   -459.78472   -878.09679   -5885.7526 
 5736000    111.33748   -6734.4574   -6448.0485   -6734.4574            0    2884.4273    23.154422    21.398536    21.709095    10756.221    3256.7765     2898.924    2497.5815   -169.91574    438.11207   -536.27447   -5995.5729 
 5737000    106.74672   -6726.9257   -6452.3263   -6726.9257            0    4294.1726    23.323302    21.228184    21.589877    10689.393    3601.2394    4977.1009    4304.1773    940.43381   -145.68069   -465.60823   -5782.8912 
 5738000    114.45881      -6721.5   -6427.0617      -6721.5            0    3479.0539    23.256189    21.239374    21.708273    10722.734    3770.0257    3783.6743    2883.4617   -1113.9691     120.8965   -106.97757    -5883.007 
 5739000    107.54868   -6721.9207   -6445.2583   -6721.9207            0    4504.1624    23.180204    21.293349    21.640377    10681.348    5402.2714    3489.9119    4620.3039   -296.85421   -154.02434    738.08554   -5743.6156 
 5740000    113.17264    -6724.865   -6433.7353    -6724.865            0    3559.6698    23.100532    21.433187    21.635726    10712.238     4000.429    3155.3997    3523.1806    1093.2182   -287.44823   -394.90519   -5877.6188 
 5741000    112.05777   -6741.0931   -6452.8313   -6741.0931            0     2738.876    23.210319    21.455806    21.556869    10735.237    3391.0285    1205.4756    3620.1237    94.545088   -354.14658    366.90415   -6024.0262 
 5742000     109.1141   -6729.3942   -6448.7048   -6729.3942            0    3450.1084    23.273206    21.325824    21.598488    10719.768    2754.0966    3777.7063    3818.5223    -176.9711    23.085447   -177.10246   -5909.3258 
 5743000    112.85069   -6724.4529   -6434.1514   -6724.4529            0    3847.7865     23.34578    21.111317    21.717705    10703.791    3660.8816    4842.6816    3039.7962    897.11534   -236.31858   -375.48839   -5833.4972 
 5744000     109.9723   -6725.4176   -6442.5206   -6725.4176            0    3493.4227    23.300579    21.270443    21.632922    10721.571    2735.5168    3807.9261    3936.8252    570.63504    297.01162    296.49861   -5896.2781 
 5745000    115.12377   -6716.6209    -6420.472   -6716.6209            0    3566.7536    23.082254    21.415026     21.71179    10732.292    4017.0825    4087.0203    2596.1582    283.64331   -538.75919    -89.68035   -5862.2057 
 5746000    110.60338   -6731.5821   -6447.0616   -6731.5821            0    4108.3247    23.167105    21.485442    21.435841    10669.808    3871.5143    3206.4453    5247.0146    221.01269    1047.9336    88.793717   -5807.7726 
 5747000    109.46293   -6722.9104   -6441.3237   -6722.9104            0     4023.352    23.168806    21.346191    21.641199    10702.996    3717.6153    4165.3936     4187.047    618.51598   -84.070578   -211.83122   -5813.3098 
 5748000    113.42563   -6727.1377   -6435.3572   -6727.1377            0    3523.9771    23.279244    21.291064    21.629968    10720.675    4583.1822    2484.8942     3503.855   -136.18729   -1085.7296     565.9205   -5884.3832 
 5749000    114.89095   -6741.5361   -6445.9861   -6741.5361            0    4722.0053    23.322427    21.233795    21.510777    10652.645     3319.165    5998.7335    4848.1174    269.80475   -384.93989     179.7118   -5712.3853 
 5750000     117.2484   -6717.7465   -6416.1321   -6717.7465            0     3610.181    23.196081    21.278376    21.760131    10740.255    3313.6778    3965.6633    3551.2019   -487.38419    1131.7042    389.91248   -5850.6493 
Loop time of 518.65 on 64 procs for 250000 steps with 1296 atoms

Performance: 83.293 ns/day, 0.288 hours/ns, 482.021 timesteps/s
99.2% CPU use with 64 MPI tasks x 1 OpenMP threads

MPI task timing breakdown:
Section |  min time  |  avg time  |  max time  |%varavg| %total
---------------------------------------------------------------
Pair    | 29.556     | 40.847     | 52.299     | 112.8 |  7.88
Bond    | 0.28113    | 0.28839    | 0.29894    |   0.7 |  0.06
Kspace  | 260.21     | 271.82     | 283.37     |  43.9 | 52.41
Neigh   | 1.5156     | 1.5456     | 1.5643     |   0.8 |  0.30
Comm    | 90.176     | 90.854     | 92.116     |   5.8 | 17.52
Output  | 0.58812    | 0.58933    | 0.59115    |   0.1 |  0.11
Modify  | 101.36     | 102.65     | 105.06     |   7.2 | 19.79
Other   |            | 10.06      |            |       |  1.94

Nlocal:        20.2500 ave          27 max          13 min
Histogram: 5 5 7 3 3 15 5 13 2 6
Nghost:        2603.09 ave        2627 max        2579 min
Histogram: 1 4 6 12 6 13 8 9 4 1
Neighs:        6502.83 ave        8753 max        4168 min
Histogram: 5 6 6 3 11 7 10 8 3 5

Total # of neighbors = 416181
Ave neighs/atom = 321.12731
Ave special neighs/atom = 2.0000000
Neighbor list builds = 2887
Dangerous builds = 0

unfix		3
unfix		2
unfix		1

write_data	data.final.${pid}
write_data	data.final.0
System init for write_data ...
PPPM initialization ...
  extracting TIP4P info from pair style
  using 12-bit tables for long-range coulomb (../kspace.cpp:340)
  G vector (1/distance) = 0.36799039
  grid = 30 40 32
  stencil order = 5
  estimated absolute RMS force accuracy = 0.0043816365
  estimated relative force accuracy = 1.3195168e-05
  using double precision FFTW3
  3d grid and FFT values/proc = 5168 640
Last active /omp style is kspace_style pppm/tip4p/omp
WARNING: Not all mixed pair coeffs generated from mixing. Use write_data with 'pair ij' option to store all pair coeffs. (../write_data.cpp:312)

write_restart   restart.lmp.${pid}
write_restart   restart.lmp.0
System init for write_restart ...
PPPM initialization ...
  extracting TIP4P info from pair style
  using 12-bit tables for long-range coulomb (../kspace.cpp:340)
  G vector (1/distance) = 0.36799039
  grid = 30 40 32
  stencil order = 5
  estimated absolute RMS force accuracy = 0.0043816365
  estimated relative force accuracy = 1.3195168e-05
  using double precision FFTW3
  3d grid and FFT values/proc = 5168 640
Last active /omp style is kspace_style pppm/tip4p/omp
Total wall time: 0:08:38
