LAMMPS (30 Jul 2021)
  using 1 OpenMP thread(s) per MPI task
package omp 0
using multi-threaded neighbor list subroutines
echo both

include		in.partitions
variable        pid world 0
include		in.temp
variable        temperature equal 265
variable	tempDamp equal 100.0
include		in.pressure
variable        pressure equal 6000
variable        pressureDamp equal 1000.0 # This is 1 ps
include		in.seed
variable        seed world 745823

units		real
atom_style	full
include		in.box
read_data       iceIII.data
Reading data file ...
  orthogonal box = (0.0071020000 0.0044740000 -0.050387000) to (46.652896 19.995527 20.750385)
  8 by 2 by 2 MPI processor grid
  reading atoms ...
  2268 atoms
  scanning bonds ...
  2 = max bonds/atom
  scanning angles ...
  1 = max angles/atom
  reading bonds ...
  1512 bonds
  reading angles ...
  756 angles
Finding 1-2 1-3 1-4 neighbors ...
  special bond factors lj:    0        0        0       
  special bond factors coul:  0        0        0       
     2 = max # of 1-2 neighbors
     1 = max # of 1-3 neighbors
     1 = max # of 1-4 neighbors
     2 = max # of special neighbors
  special bonds CPU = 0.003 seconds
  read_data CPU = 0.038 seconds
include 	in.setup
variable	out_freq equal 500
variable	out_freq2 equal 500

timestep	2.0

neigh_modify    delay 7 every 1

include		in.tip4p
# This is TIP4P/Ice

# create groups ###
group ox type 2
756 atoms in group ox
group hy type 1
1512 atoms in group hy

# set charges - beside manually ###
set group ox charge -1.1794
Setting atom values ...
  756 settings made for charge
set group hy charge 0.5897
Setting atom values ...
  1512 settings made for charge

# ### TIP3P Potential Parameters ###
pair_style lj/cut/tip4p/long 2 1 1 1 0.1577 8.5
pair_coeff 1 1*2 0.000 0.000
pair_coeff 2 2 0.21084 3.1668
bond_style  harmonic
bond_coeff  1 450 0.9572
angle_style harmonic
angle_coeff 1 55 104.52
kspace_style pppm/tip4p 1.0e-5
pair_modify tail yes

thermo          ${out_freq}
thermo          500
thermo_style 	custom step temp pe etotal epair emol press lx ly lz xy xz yz vol pxx pyy pzz pxy pxz pyz cella cellb cellc cellalpha cellbeta cellgamma

restart 	${out_freq} restart.lmp.${pid} restart2.lmp.${pid}
restart 	500 restart.lmp.${pid} restart2.lmp.${pid}
restart 	500 restart.lmp.0 restart2.lmp.${pid}
restart 	500 restart.lmp.0 restart2.lmp.0


include         in.dump
dump            myDump all atom ${out_freq2} dump.water.${pid}
dump            myDump all atom 500 dump.water.${pid}
dump            myDump all atom 500 dump.water.0
dump            myDump2 all dcd ${out_freq2} dump.dcd
dump            myDump2 all dcd 500 dump.dcd
dump_modify     myDump append yes
dump_modify     myDump2 append yes


timer           timeout 04:55:00 every 1000
New timer settings: style=normal  mode=nosync  timeout=04:55:00

fix 		1 all shake 1e-6 200 0 b 1 a 1
       0 = # of size 2 clusters
       0 = # of size 3 clusters
       0 = # of size 4 clusters
     756 = # of frozen angles
  find clusters CPU = 0.002 seconds
fix             2 all nph aniso ${pressure} ${pressure} ${pressureDamp}
fix             2 all nph aniso 6000 ${pressure} ${pressureDamp}
fix             2 all nph aniso 6000 6000 ${pressureDamp}
fix             2 all nph aniso 6000 6000 1000
fix             3 all temp/csvr ${temperature} ${temperature} ${tempDamp} ${seed}
fix             3 all temp/csvr 265 ${temperature} ${tempDamp} ${seed}
fix             3 all temp/csvr 265 265 ${tempDamp} ${seed}
fix             3 all temp/csvr 265 265 100 ${seed}
fix             3 all temp/csvr 265 265 100 745823
velocity 	all create ${temperature} ${seed} dist gaussian
velocity 	all create 265 ${seed} dist gaussian
velocity 	all create 265 745823 dist gaussian

run             500000
PPPM initialization ...
  extracting TIP4P info from pair style
  using 12-bit tables for long-range coulomb (../kspace.cpp:340)
  G vector (1/distance) = 0.3731327
  grid = 48 27 27
  stencil order = 5
  estimated absolute RMS force accuracy = 0.0032773105
  estimated relative force accuracy = 9.8695233e-06
  using double precision FFTW3
  3d grid and FFT values/proc = 6292 1344
Last active /omp style is kspace_style pppm/tip4p/omp
Neighbor list info ...
  update every 1 steps, delay 7 steps, check yes
  max neighbors/atom: 2000, page size: 100000
  master list distance cutoff = 10.8154
  ghost atom cutoff = 10.8154
  binsize = 5.4077, bins = 9 4 4
  1 neighbor lists, perpetual/occasional/extra = 1 0 0
  (1) pair lj/cut/tip4p/long/omp, perpetual
      attributes: half, newton on, omp
      pair build: half/bin/newton/omp
      stencil: half/bin/3d
      bin: standard
Per MPI rank memory allocation (min/avg/max) = 9.589 | 9.604 | 9.621 Mbytes
Step Temp PotEng TotEng E_pair E_mol Press Lx Ly Lz Xy Xz Yz Volume Pxx Pyy Pzz Pxy Pxz Pyz Cella Cellb Cellc CellAlpha CellBeta CellGamma 
       0          265   -11706.567   -10513.006   -11706.567            0     2327.638    46.645794    19.991053    20.800772            0            0            0     19396.69    5296.8319    3300.8829   -1614.8009    1637.4705   -1528.8494   -180.25186    46.645794    19.991053    20.800772           90           90           90 
     500    271.00265   -10943.613   -9723.0161   -10943.613            0    5508.6183    46.842124    19.911385    20.678175            0            0            0    19286.359    4944.3533    6267.8209    5313.6806    175.28106    499.25636    839.91055    46.842124    19.911385    20.678175           90           90           90 
    1000     267.4723   -10939.783   -9735.0864   -10939.783            0    4824.6558    46.268183    20.088662    20.719004            0            0            0    19257.607    5333.4947    4093.8036    5046.6691    8.1675117   -553.76748    722.26136    46.268183    20.088662    20.719004           90           90           90 
    1500    266.79166   -10896.477   -9694.8459   -10896.477            0    5360.1216    46.713716    19.973343    20.609542            0            0            0    19229.302    5973.9411    5015.2963    5091.1274   -33.328844    64.680335   -471.31381    46.713716    19.973343    20.609542           90           90           90 
    2000     258.0972   -10881.068   -9718.5969   -10881.068            0    6748.9132    46.782042    19.882518    20.660204            0            0            0    19216.981    7286.7268    6313.4814    6646.5314   -119.57757   -790.88305    823.19272    46.782042    19.882518    20.660204           90           90           90 
    2500    270.23749   -10909.577   -9692.4259   -10909.577            0    5860.0177    46.752753    19.865594    20.682299            0            0            0    19209.123    4747.3463    7251.5368    5581.1698   -457.76032   -882.10473    284.10772    46.752753    19.865594    20.682299           90           90           90 
    3000    267.70144   -10924.031   -9718.3029   -10924.031            0     6876.601    46.288348    20.050246    20.619781            0            0            0     19137.07    6060.0578    7249.5271    7320.2181   -131.98115   -161.64423   -544.51439    46.288348    20.050246    20.619781           90           90           90 
    3500    259.04129   -10936.447    -9769.724   -10936.447            0    5640.7217    46.640805    19.993933    20.694273            0            0            0    19298.095    5144.9263    5888.3394    5888.8994    98.435958   -189.71591    178.37301    46.640805    19.993933    20.694273           90           90           90 
    4000    254.88527   -10930.875   -9782.8704   -10930.875            0    6138.0019    46.795021    19.899689    20.743248            0            0            0    19316.244    5903.2808    6377.7773    6132.9475   -3.2611846   -719.48246    811.37564    46.795021    19.899689    20.743248           90           90           90 
    4500     269.4192   -10956.439   -9742.9743   -10956.439            0    5105.2729    46.386318    20.028205    20.795413            0            0            0     19319.66    5609.5486    5695.0366    4011.2334   -66.495557   -762.37319   -422.00926    46.386318    20.028205    20.795413           90           90           90 
    5000    267.83677   -10889.343   -9683.0048   -10889.343            0    5952.6184    46.762229    19.973022    20.607786            0            0            0    19247.323    5923.7181     5943.279    5990.8581   -277.75433    72.024831    539.20816    46.762229    19.973022    20.607786           90           90           90 
    5500    250.17235   -10903.144   -9776.3668   -10903.144            0    5873.3373     46.48757    19.959577    20.664113            0            0            0    19173.657    6241.3915    6123.7026    5254.9177   -337.39706    407.86993    194.91863     46.48757    19.959577    20.664113           90           90           90 
    6000    267.94384    -10873.32   -9666.4996    -10873.32            0    5691.3642    46.723168     19.92608    20.757025            0            0            0     19324.99    6282.3561    5450.4015     5341.335   -124.02402    157.60094   -87.823356    46.723168     19.92608    20.757025           90           90           90 
    6500    261.01391   -10928.359   -9752.7514   -10928.359            0    6496.8414    46.391315    20.132589     20.56997            0            0            0    19211.886    7847.4262    6272.2332    5370.8649    353.04584    115.77219      816.203    46.391315    20.132589     20.56997           90           90           90 
    7000    266.66855   -10926.218   -9725.1415   -10926.218            0    6688.0792    46.598029    19.899837    20.680768            0            0            0    19177.135    8225.0785    5562.9578    6276.2014    126.61035    207.21071    105.75499    46.598029    19.899837    20.680768           90           90           90 
    7500    263.84463   -10881.185   -9692.8277   -10881.185            0    8484.5546     46.32827    20.026069    20.525232            0            0            0    19042.759    7299.5815    9449.0819    8705.0005   -236.40932    670.87226    1227.6509     46.32827    20.026069    20.525232           90           90           90 
    8000    268.47309   -10932.847   -9723.6431   -10932.847            0    6257.5214    46.719574    19.857386     20.71809            0            0            0    19220.766    5679.7426    7353.4276    5739.3939   -325.28715   -12.102557    498.39042    46.719574    19.857386     20.71809           90           90           90 
    8500    260.95461    -10948.48   -9773.1394    -10948.48            0    5333.3125    46.852176    19.899528     20.75545            0            0            0    19351.057    4892.9369    6153.5284    4953.4722   -164.37925   -486.45945    1052.3275    46.852176    19.899528     20.75545           90           90           90 
    9000    268.43633   -10866.705   -9657.6665   -10866.705            0    7295.2271    46.574922    20.048362    20.525174            0            0            0    19165.399    6769.8526    6793.8288         8322    -158.5319    438.36859   -199.31489    46.574922    20.048362    20.525174           90           90           90 
    9500    267.39185   -10890.281   -9685.9466   -10890.281            0    5518.7489    46.702283    19.816952    20.725717            0            0            0    19181.587    4626.0754     6454.978    5475.1932   -615.72477    296.62569    310.79713    46.702283    19.816952    20.725717           90           90           90 
   10000    270.63804   -10924.619   -9705.6643   -10924.619            0    5073.8642     46.44816     20.16049    20.692746            0            0            0    19377.053    4332.7457    4551.1574    6337.6895   -88.166728   -1174.5439    1082.8054     46.44816     20.16049    20.692746           90           90           90 
   10500    265.94095   -10881.759     -9683.96   -10881.759            0    5802.0358    46.662826    19.986006    20.669565            0            0            0    19276.509    5363.3882    6330.9929    5711.7262   -150.34536   -817.96222    509.64279    46.662826    19.986006    20.669565           90           90           90 
   11000    265.55945   -10922.195   -9726.1147   -10922.195            0    6224.5695    46.349791    20.033494    20.740889            0            0            0    19258.917    6537.0479    5374.1977    6762.4628   -193.96748   -709.70954    488.67881    46.349791    20.033494    20.740889           90           90           90 
   11500    267.71073    -10924.21   -9718.4394    -10924.21            0    5731.3504    46.650417    19.984206    20.636199            0            0            0    19238.541    6251.4514    4768.0766    6174.5231   -15.323876    934.52204    612.35348    46.650417    19.984206    20.636199           90           90           90 
   12000    273.82741   -10903.971   -9670.6511   -10903.971            0    5169.6611    46.748423    19.989667    20.582115            0            0            0    19233.686    5725.0832    4036.1609    5747.7391   -309.00006   -86.536046   -475.24832    46.748423    19.989667    20.582115           90           90           90 
   12500    269.10861   -10916.323   -9704.2565   -10916.323            0    5192.5381    46.441627    19.868319    20.902078            0            0            0    19286.703    5873.5063     5108.692     4595.416    -51.58661   -606.53952    1363.3023    46.441627    19.868319    20.902078           90           90           90 
   13000    271.01678   -10912.307   -9691.6467   -10912.307            0    6560.1911      46.6681    20.099254    20.424464            0            0            0    19158.025    6176.6191    6841.9294    6662.0246   -77.626151    395.51182   -168.94252      46.6681    20.099254    20.424464           90           90           90 
   13500    262.46521   -10965.014   -9782.8698   -10965.014            0     6402.632    46.503869    19.926373    20.758394            0            0            0    19235.837    6059.5362    6712.5583    6435.8014    16.776729   -103.40708   -1025.2736    46.503869    19.926373    20.758394           90           90           90 
   14000    258.33117    -10947.04   -9783.5155    -10947.04            0    5020.2419    46.952434    19.885494    20.661128            0            0            0    19290.724     3698.056    5995.3846     5367.285   -169.85679    21.824397   -483.42098    46.952434    19.885494    20.661128           90           90           90 
   14500     265.6728   -10965.679    -9769.088   -10965.679            0    5758.9331    46.638497     19.97886    20.641574            0            0            0    19233.489    6018.3122    5078.3614    6180.1259    278.56171   -616.10512    952.84617    46.638497     19.97886    20.641574           90           90           90 
   15000    268.69024   -10928.425   -9718.2429   -10928.425            0    6844.0515    46.300416    19.910306    20.802222            0            0            0    19176.642    7947.5492    6505.4158    6079.1897   -392.59668    59.210138   -48.977355    46.300416    19.910306    20.802222           90           90           90 
   15500    264.53367   -10926.323   -9734.8624   -10926.323            0    5839.2961    47.191576    20.047681    20.467527            0            0            0    19363.952    3865.2015    7070.9413    6581.7454    362.37816    385.87839    1187.7946    47.191576    20.047681    20.467527           90           90           90 
   16000    272.09886   -10923.971   -9698.4368   -10923.971            0    6616.6814    46.630408    19.852152    20.717199            0            0            0      19178.2    7170.0898    6513.8169    6166.1376   -251.67356    174.30493    362.64197    46.630408    19.852152    20.717199           90           90           90 
   16500    270.86297   -10893.561   -9673.5936   -10893.561            0    7427.8077    46.315508    20.009474    20.614939            0            0            0    19104.873    8600.8038    7452.2584    6230.3608   -343.44733   -157.17094    730.70928    46.315508    20.009474    20.614939           90           90           90 
   17000    268.82622    -10909.95    -9699.156    -10909.95            0    6000.2462     46.60576    19.978292    20.634175            0            0            0    19212.552    7186.7007     4338.565    6475.4729    92.795205    305.47595    660.01915     46.60576    19.978292    20.634175           90           90           90 
   17500    258.73132   -10924.275   -9758.9476   -10924.275            0     5325.705    46.536623     19.93537    20.784741            0            0            0     19282.52    5131.3397    5472.9349    5372.8405      165.845   -92.100206    686.18129    46.536623     19.93537    20.784741           90           90           90 
   18000    254.90151   -10913.911   -9765.8336   -10913.911            0    5892.0935     46.93815    19.839778    20.697162            0            0            0    19274.076    5034.7203    6252.7956    6388.7644   -173.16073   -6.8127811    717.01008     46.93815    19.839778    20.697162           90           90           90 
   18500    265.66054   -10948.804   -9752.2677   -10948.804            0    4672.8778    46.834228    20.012378    20.664487            0            0            0    19368.086    4652.3523    4159.6888    5206.5923    8.0993783    393.89871    134.01192    46.834228    20.012378    20.664487           90           90           90 
   19000    259.12028   -10907.695   -9740.6166   -10907.695            0    5629.9674    46.262873    20.022376    20.755335            0            0            0    19225.514    6397.0343    5562.1228    4930.7451    -405.1114    72.126557   -534.68519    46.262873    20.022376    20.755335           90           90           90 
   19500    265.18257   -10912.613   -9718.2292   -10912.613            0    6628.7774    46.623561    20.104877    20.507374            0            0            0    19222.812    7488.5324    5042.2724    7355.5274   -291.01103    992.93927   -434.48543    46.623561    20.104877    20.507374           90           90           90 
   20000    270.23355   -10966.789   -9749.6565   -10966.789            0    6197.7752    46.446229    19.853017    20.855822            0            0            0    19231.108    7235.0939     5498.622    5859.6097   -564.96633    234.88152    120.42775    46.446229    19.853017    20.855822           90           90           90 
   20500    261.99241   -10924.271   -9744.2566   -10924.271            0     5738.409    46.829292    19.954121    20.646511            0            0            0    19292.872    4750.2887     6728.884    5736.0542   -304.98045   -539.83293    166.68993    46.829292    19.954121    20.646511           90           90           90 
   21000    266.40161   -10959.866   -9759.9916   -10959.866            0    6188.7561    46.552786    20.056744    20.686694            0            0            0    19315.111    7906.7647    4480.7013    6178.8025   -350.83201    -1366.158    353.01789    46.552786    20.056744    20.686694           90           90           90 
   21500    252.21588   -10923.942    -9787.961   -10923.942            0    6068.3427    46.122958    19.979138    20.810172            0            0            0     19176.51    7250.0105    5715.2399    5239.7778   -435.74726   -346.18808    178.87345    46.122958    19.979138    20.810172           90           90           90 
   22000     272.9655   -10902.677   -9673.2392   -10902.677            0    7543.9251    46.606346    20.016326    20.500709            0            0            0    19124.862    7223.6876    7043.1419    8364.9458   -7.6520996   -471.31363    332.67078    46.606346    20.016326    20.500709           90           90           90 
   22500    268.93193   -10932.126   -9720.8557   -10932.126            0    4905.6935    46.596413    20.007435    20.789851            0            0            0    19381.852    5121.0152    5072.5981    4523.4672   -156.66752    194.95533    47.355385    46.596413    20.007435    20.789851           90           90           90 
   23000     263.1903   -10982.836   -9797.4261   -10982.836            0    5272.9247    46.540856    20.102928    20.576402            0            0            0    19251.435    5268.7229    5102.2972    5447.7541    157.72532    124.39048    -206.6673    46.540856    20.102928    20.576402           90           90           90 
   23500    259.41392   -10906.966   -9738.5646   -10906.966            0     5066.184    46.635414    20.005085    20.741147            0            0            0    19350.358    5269.0483    4175.1344    5754.3694   -170.33707   -156.21929    308.76622    46.635414    20.005085    20.741147           90           90           90 
   24000    273.45308   -10881.147   -9649.5133   -10881.147            0    6368.0556    46.500406    20.076315    20.510033            0            0            0    19147.281    6701.0818    6189.3544    6213.7304   -397.95421    1047.3863   -562.86182    46.500406    20.076315    20.510033           90           90           90 
   24500    266.03381   -10946.966   -9748.7487   -10946.966            0    6568.8545    46.629686    19.952104    20.733082            0            0            0    19289.238    6987.6607    7025.9753    5692.9275    535.02083    691.01507    569.31278    46.629686    19.952104    20.733082           90           90           90 
   25000    266.67632   -10912.593   -9711.4813   -10912.593            0    5853.3701    46.755976    19.915315    20.705924            0            0            0    19280.528    4985.1517    6960.3406    5614.6181   -375.41829   -185.94395    711.86907    46.755976    19.915315    20.705924           90           90           90 
   25500    257.90592   -10917.015   -9755.4056   -10917.015            0    5735.4863    46.850362    19.774014    20.625455            0            0            0    19107.828    4417.7695    7354.8149    5433.8744    283.34871   -479.04504   -424.44645    46.850362    19.774014    20.625455           90           90           90 
   26000    273.73701   -10914.036   -9681.1232   -10914.036            0    5993.3283    46.580685    20.103294     20.62761            0            0            0    19316.213    4971.0397    6386.4595    6622.4858   -334.66058     327.4198   -152.26185    46.580685    20.103294     20.62761           90           90           90 
   26500    263.53864    -10977.78    -9790.801    -10977.78            0    5963.8017    46.410325    19.972089    20.685791            0            0            0     19173.89     6563.688    5673.1081    5654.6091   -330.15462   -434.44855    758.07619    46.410325    19.972089    20.685791           90           90           90 
   27000    267.95524   -10952.458   -9745.5868   -10952.458            0    5651.5128    46.931818    19.971685     20.56778            0            0            0    19278.335    4686.8674     5357.354     6910.317   -20.211289   -327.87317   -327.97724    46.931818    19.971685     20.56778           90           90           90 
   27500     267.7751   -10920.012   -9713.9519   -10920.012            0    6861.5397    46.642057    19.934827    20.700112            0            0            0    19246.992    6029.5174    8228.6269    6326.4748    60.887643    1025.9157    474.82681    46.642057    19.934827    20.700112           90           90           90 
   28000    261.79346   -10925.122   -9746.0029   -10925.122            0    7607.4624    46.146593    19.941572    20.753221            0            0            0    19097.853    8400.8624    6533.8196     7887.705   -591.71678   -1315.5649   -117.56495    46.146593    19.941572    20.753221           90           90           90 
   28500    264.75659   -10929.407   -9736.9425   -10929.407            0    5293.8545    46.876058     20.00512    20.535023            0            0            0    19256.948      5226.98    4432.6348    6221.9486   -148.27637   -28.234976   -378.64355    46.876058     20.00512    20.535023           90           90           90 
   29000     262.7024   -10938.691    -9755.478   -10938.691            0    6899.5662    46.596079    19.950973    20.663696            0            0            0    19209.739    7654.8819    6415.1438    6628.6728    -208.8852    226.11496    1112.6782    46.596079    19.950973    20.663696           90           90           90 
   29500    263.85242   -10895.353   -9706.9607   -10895.353            0    6907.9942    46.702934    19.832214    20.722821            0            0            0    19193.945    6943.1958    7442.7453    6338.0415    213.04245    198.81215   -548.73188    46.702934    19.832214    20.722821           90           90           90 
   30000    274.11189   -10918.769   -9684.1677   -10918.769            0    5474.7881    46.540128    20.041995     20.65122            0            0            0     19262.57    5169.0836    5406.5169    5848.7639    339.00294   -623.11663     726.8453    46.540128    20.041995     20.65122           90           90           90 
   30500    253.85198   -10926.422    -9783.072   -10926.422            0    6734.1729    46.191435    20.132705    20.651117            0            0            0    19204.683    6932.8852    6592.7234    6676.9101   -143.23604   -35.768121    651.46104    46.191435    20.132705    20.651117           90           90           90 
   31000    265.12196   -10872.186   -9678.0754   -10872.186            0    6630.0742    46.799762    19.957959    20.637619            0            0            0    19276.109    6310.8275    7293.4277    6285.9672   -259.47058    313.43112   -374.05579    46.799762    19.957959    20.637619           90           90           90 
   31500    264.76467   -10941.795    -9749.294   -10941.795            0    5859.8537    46.715054    19.874499    20.792719            0            0            0    19304.756    7018.6523    4629.3381    5931.5706   -169.91064   -417.15916    503.30228    46.715054    19.874499    20.792719           90           90           90 
   32000    268.14773   -10908.264   -9700.5258   -10908.264            0    4530.7033    46.469707    20.143435    20.708368            0            0            0    19384.265    5764.0149    3745.8406    4082.2545   -377.38162    45.928401   -381.68391    46.469707    20.143435    20.708368           90           90           90 
   32500    271.67614    -10926.18   -9702.5499    -10926.18            0    5848.3053    46.847517    19.954725    20.605818            0            0            0    19262.923    6213.7425    6384.9544    4946.2191    316.45817   -489.50496   -142.13205    46.847517    19.954725    20.605818           90           90           90 
   33000    267.53937   -10900.299   -9695.3002   -10900.299            0    7311.4531    46.519371    19.853151    20.745086            0            0            0    19159.251    7880.3036    7480.2675    6573.7883    134.17032    633.29941    98.759646    46.519371    19.853151    20.745086           90           90           90 
   33500    264.38952   -10973.157   -9782.3453   -10973.157            0    5472.2887    46.455627    20.078853    20.682009            0            0            0    19291.675    4955.2366     5904.149    5557.4804    381.88062   -437.07187    146.24262    46.455627    20.078853    20.682009           90           90           90 
   34000    263.98927   -10928.458   -9739.4489   -10928.458            0    6710.3252    46.941102    19.977804    20.390662            0            0            0    19121.957    5074.4625    7232.9063    7823.6069   -340.45598    -414.5584    183.14157    46.941102    19.977804    20.390662           90           90           90 
   34500    257.53715    -10938.04   -9778.0915    -10938.04            0    6925.9449    46.439255    19.830899    20.797972            0            0            0    19153.521    6820.2796    7847.2564    6110.2986   -392.19122   -990.79422    1143.4742    46.439255    19.830899    20.797972           90           90           90 
   35000    258.86588   -10954.493   -9788.5601   -10954.493            0    7168.4324     46.41075    19.975052    20.615612            0            0            0    19111.851    6353.0098    7922.5664    7229.7211    135.93849   -348.45675    205.76641     46.41075    19.975052    20.615612           90           90           90 
   35500    260.49229   -10883.205   -9709.9469   -10883.205            0    4617.7093    46.751503    20.025669    20.623543            0            0            0    19308.382    3759.6569    5384.4046    4709.0665   -286.96663   -212.46089    491.85405    46.751503    20.025669    20.623543           90           90           90 
   36000    261.59703   -10904.495   -9726.2608   -10904.495            0    8373.7399     46.26633    19.872014    20.727561            0            0            0    19057.027    8914.5787    7797.1936    8409.4474    67.887049   -743.43957   -212.92361     46.26633    19.872014    20.727561           90           90           90 
   36500    270.49179   -10928.553   -9710.2564   -10928.553            0    5561.2731    46.650704     20.04333    20.654181            0            0            0    19312.391    6352.5653    4700.0522    5631.2019   -41.708317   -50.830834    227.78322    46.650704     20.04333    20.654181           90           90           90 
   37000    262.98035   -10910.553   -9726.0883   -10910.553            0    6605.3773    46.613854    19.888007    20.652064            0            0            0    19145.633    5083.7422    7571.3623    7161.0274    323.94782   -115.73873    587.20633    46.613854    19.888007    20.652064           90           90           90 
   37500    261.87216   -10924.149   -9744.6758   -10924.149            0    6715.2209    46.273362     20.07708    20.676316            0            0            0        19209    7066.3941    7194.0052    5885.2634   -379.44469     1116.805   -1161.2214    46.273362     20.07708    20.676316           90           90           90 
   38000    273.21171    -10928.24   -9697.6936    -10928.24            0    6131.9927    46.646477    19.901376     20.81399            0            0            0    19322.233    5816.7759    6406.1796    6173.0225    165.05307    134.03866    1492.7133    46.646477    19.901376     20.81399           90           90           90 
   38500    270.33443    -10933.26   -9715.6726    -10933.26            0     5550.356    46.979929    19.944311    20.567576            0            0            0    19271.456    5783.7795    5835.1204    5032.1682    -49.01266   -514.19965    675.55716    46.979929    19.944311    20.567576           90           90           90 
   39000    263.37214   -10931.473    -9745.244   -10931.473            0    5531.3078    46.468404    19.919548    20.744619            0            0            0    19201.833    4638.8651     7398.848    4556.2101    78.175399    122.93545   -193.63851    46.468404    19.919548    20.744619           90           90           90 
   39500     280.0891   -10943.139    -9681.617   -10943.139            0    5687.1777    46.320149    20.087151    20.758021            0            0            0     19314.09     6205.058    5670.1784    5186.2966   -182.10337    633.58011    319.52954    46.320149    20.087151    20.758021           90           90           90 
   40000    268.12749    -10939.13   -9731.4827    -10939.13            0    5582.2745    46.762307    19.926008    20.642948            0            0            0    19234.812    4698.7664    6458.9276    5589.1295   -400.56557    70.360221    269.28476    46.762307    19.926008    20.642948           90           90           90 
   40500    265.61603   -10937.472   -9741.1367   -10937.472            0    7088.0953    46.334074    19.929013     20.56538            0            0            0    18989.914    6206.1295    7624.4796    7433.6767    58.470317    262.82548   -560.93895    46.334074    19.929013     20.56538           90           90           90 
   41000    256.55797   -10943.957   -9788.4192   -10943.957            0    4972.8978    46.818331    19.984375    20.636264            0            0            0    19308.012    3852.1063    5524.0447    5542.5425     421.4573    516.48743    70.250926    46.818331    19.984375    20.636264           90           90           90 
   41500    273.81779   -10909.806   -9676.5292   -10909.806            0    5351.7089    46.729478    19.969334    20.708016            0            0            0     19323.82    5555.1473    5632.4938    4867.4856    76.585625   -130.46791   -249.34653    46.729478    19.969334    20.708016           90           90           90 
   42000    255.38415   -10900.443   -9750.1921   -10900.443            0    7040.8646    46.563436    20.000938    20.604568            0            0            0    19189.289    6833.2776    7904.8092    6384.5069    612.05749    80.321552    193.70386    46.563436    20.000938    20.604568           90           90           90 
   42500    265.71721   -10929.774   -9732.9825   -10929.774            0    7276.1655    46.558369    19.970977    20.556119            0            0            0    19113.411    6208.1763    7735.0748    7885.2453    15.031753    711.58571   -309.81962    46.558369    19.970977    20.556119           90           90           90 
   43000    268.79248   -10919.642   -9708.9998   -10919.642            0    6019.8122    46.704902    19.825792     20.78442            0            0            0    19245.577    6093.6779    7294.8755    4670.8832   -190.89518      102.285    884.32388    46.704902    19.825792     20.78442           90           90           90 
   43500    267.85964   -10887.275   -9680.8345   -10887.275            0    6571.5685    47.033879    19.786086    20.631442            0            0            0    19199.958    6069.7632    7313.1606    6331.7816   -194.11333    157.30429    536.36347    47.033879    19.786086    20.631442           90           90           90 
   44000    260.88732    -10928.49   -9753.4528    -10928.49            0    5251.3941    46.555285    20.121026    20.634363            0            0            0    19329.036    5699.4233    5159.3101    4895.4488    429.54968    42.453755    1246.9983    46.555285    20.121026    20.634363           90           90           90 
   44500    258.75008    -10904.48   -9739.0684    -10904.48            0    5746.5467    46.549458    19.936819    20.728415            0            0            0    19236.967    6029.6584    5234.7439    5975.2377   -439.63218   -978.54247    38.673156    46.549458    19.936819    20.728415           90           90           90 
   45000    256.96322   -10954.992    -9797.629   -10954.992            0    5112.4305      46.7096      20.0213    20.653383            0            0            0    19314.773     4695.487    5422.4333    5219.3714   -41.523107    5.2065171    331.99125      46.7096      20.0213    20.653383           90           90           90 
   45500    266.11694   -10937.752     -9739.16   -10937.752            0    6418.5697    46.495943    19.904491    20.726067            0            0            0     19181.52    6688.5138    6969.3023     5597.893   -46.830132    734.51874    721.62624    46.495943    19.904491    20.726067           90           90           90 
   46000    267.91941   -10900.475   -9693.7651   -10900.475            0    6175.2095     46.38454    20.115231    20.484473            0            0            0    19112.745    5935.2527    5809.4563    6780.9195    526.43545   -1401.5561    926.30428     46.38454    20.115231    20.484473           90           90           90 
   46500    270.47094   -10940.348   -9722.1459   -10940.348            0    7001.7612    46.323795    19.948037    20.776901            0            0            0    19199.285    6953.7506    7272.7727    6778.7604    357.12342    232.07872    819.75901    46.323795    19.948037    20.776901           90           90           90 
   47000    255.62161    -10926.25   -9774.9288    -10926.25            0    5912.1537    46.667395    19.913221    20.776907            0            0            0    19307.942    6515.1986     5739.056    5482.2065   -575.83581   -1025.1054    170.61237    46.667395    19.913221    20.776907           90           90           90 
   47500    272.77049   -10917.397    -9688.838   -10917.397            0    6074.3957    46.860399    19.895648    20.560458            0            0            0    19168.885    4423.7067    7921.7998    5877.6804   -469.52197    25.570363    1074.7138    46.860399    19.895648    20.560458           90           90           90 
   48000    259.03778    -10924.65   -9757.9431    -10924.65            0    5487.5732    46.491141    19.904733    20.832506            0            0            0    19278.271    4600.5721    6090.2617    5771.8859   -73.099509   -261.28904    35.624274    46.491141    19.904733    20.832506           90           90           90 
   48500     266.0662   -10893.107   -9694.7439   -10893.107            0    6046.4351    46.563095    20.059322    20.513232            0            0            0    19159.854    5241.9651    6793.3362    6104.0041   -123.14692   -694.02817   -251.96008    46.563095    20.059322    20.513232           90           90           90 
   49000    269.91693   -10920.742   -9705.0349   -10920.742            0    5609.1531    46.595105    20.007699    20.648189            0            0            0    19249.498    4478.8783    6640.0223    5708.5588   -289.92559   -344.06993    727.69929    46.595105    20.007699    20.648189           90           90           90 
   49500    266.86098   -10876.605   -9674.6623   -10876.605            0    6641.2284    46.503432    19.932349    20.733265            0            0            0    19218.133    7187.2839    7067.4333     5668.968   -503.49415   -280.91107    355.45503    46.503432    19.932349    20.733265           90           90           90 
   50000     267.1825   -10906.777   -9703.3863   -10906.777            0    5820.2661    46.852092    19.964276    20.642413            0            0            0    19308.255     5139.405    6899.3606    5422.0327   -383.75847    633.00816    -9.695078    46.852092    19.964276    20.642413           90           90           90 
   50500    264.57348   -10932.705   -9741.0651   -10932.705            0    7579.6456    46.353609    19.823574    20.733715            0            0            0     19052.09    7870.6473     7326.423    7541.8664    107.49541   -817.24405    925.48257    46.353609    19.823574    20.733715           90           90           90 
   51000    275.06484   -10964.771   -9725.8779   -10964.771            0    5159.0591    46.805888    20.082011    20.556162            0            0            0    19321.895    5952.8579    3825.5649    5698.7547   -338.54313   -550.44326   -424.24976    46.805888    20.082011    20.556162           90           90           90 
   51500    273.88903   -10975.168   -9741.5703   -10975.168            0    5830.8514    46.555665    19.966332    20.707801            0            0            0    19248.851    7012.1476    5551.6544    4928.7521   -225.12332   -145.14737    433.89631    46.555665    19.966332    20.707801           90           90           90 
   52000    260.81396   -10926.426   -9751.7185   -10926.426            0    6494.6331    46.724926    19.928827     20.64764            0            0            0    19226.524    5381.1848    7936.7207    6165.9939   -315.52067   -786.72592   -197.99466    46.724926    19.928827     20.64764           90           90           90 
   52500    272.71544   -10923.606    -9695.295   -10923.606            0    5141.4309    46.601888    20.025703    20.751329            0            0            0    19365.878    6191.9661    4055.0329    5177.2936    765.39024    897.33289    12.381524    46.601888    20.025703    20.751329           90           90           90 
   53000    263.09512   -10910.292   -9725.3104   -10910.292            0    6484.9968    46.527243    19.865192    20.697153            0            0            0    19129.812    6317.7919    6822.3289    6314.8696    839.98559   -26.586469   -268.25922    46.527243    19.865192    20.697153           90           90           90 
   53500    262.63468   -10908.646   -9725.7387   -10908.646            0    5745.2491    46.791041    20.160895    20.557536            0            0            0    19392.937      6166.92    4802.5888    6266.2384   -318.32783    2.7169055    247.65674    46.791041    20.160895    20.557536           90           90           90 
   54000    270.53144   -10906.851   -9688.3765   -10906.851            0    5772.9392    46.336077    19.944932    20.785271            0            0            0    19209.122    5548.4373    5986.7559    5783.6246    154.40042    19.925368   -759.03386    46.336077    19.944932    20.785271           90           90           90 
   54500    264.89262   -10951.353   -9758.2756   -10951.353            0    5458.4667    46.661386    20.006834    20.584798            0            0            0    19216.868    5421.6408    5545.8526    5407.9068    308.05265     984.7303    1119.5375    46.661386    20.006834    20.584798           90           90           90 
   55000    269.16246   -10906.427   -9694.1187   -10906.427            0     5833.632    46.732071    19.876647    20.646247            0            0            0    19177.821    4536.6386    6513.5771    6450.6803   -472.51436    865.24749   -220.14108    46.732071    19.876647    20.646247           90           90           90 
   55500    270.21866   -10973.983   -9756.9166   -10973.983            0    6505.8539    46.626358    19.795454    20.709401            0            0            0    19114.568    5798.3952    7146.2541    6572.9123   -557.83046    856.72609    1526.8071    46.626358    19.795454    20.709401           90           90           90 
   56000    265.89871   -10864.441   -9666.8324   -10864.441            0    4936.5353    46.771844     20.05291    20.623361            0            0            0     19342.89    5884.3274    4130.3484    4794.9301   -128.01773   -11.333855    43.655608    46.771844     20.05291    20.623361           90           90           90 
   56500     259.9399   -10929.475   -9758.7044   -10929.475            0     6104.202    46.347057    20.042637    20.738081            0            0            0    19263.961     6906.837    6288.0739    5117.6953    215.50779   -162.74266   -90.302776    46.347057    20.042637    20.738081           90           90           90 
   57000    261.87602   -10927.217   -9747.7261   -10927.217            0    5429.9167     46.62205    19.953239    20.686315            0            0            0     19243.67    5413.7646    6080.0087    4795.9768    710.71563   -908.78471    774.29166     46.62205    19.953239    20.686315           90           90           90 
   57500    264.40578    -10920.61   -9729.7251    -10920.61            0    6030.0314    47.105564    19.891376    20.531315            0            0            0    19237.729    5126.0112    6665.0357    6299.0474    260.62897    1309.2014    1180.5947    47.105564    19.891376    20.531315           90           90           90 
   58000    265.16848   -10928.737   -9734.4168   -10928.737            0    6096.1633    46.439624    19.955111     20.76148            0            0            0    19239.826    6748.0243    6132.6712    5407.7942   -49.178047   -755.04775   -419.38293    46.439624    19.955111     20.76148           90           90           90 
   58500    275.53354    -10922.26   -9681.2559    -10922.26            0     5780.439    46.695792    19.966494    20.630854            0            0            0    19235.202    4721.4284    6197.7293    6422.1593   -255.62919    511.60755    597.38359    46.695792    19.966494    20.630854           90           90           90 
   59000    268.98033    -10932.41    -9720.922    -10932.41            0    5748.5945    46.645046    19.994437    20.741251            0            0            0     19344.15    5234.5606    6962.4101    5048.8127     738.0597   -284.20911    638.05096    46.645046    19.994437    20.741251           90           90           90 
   59500    268.67605     -10904.3   -9694.1819     -10904.3            0    6376.0213     46.37054    20.057184    20.704337            0            0            0    19256.327    7810.9577    5018.4041    6298.7021    137.55479   -636.66526   -319.91155     46.37054    20.057184    20.704337           90           90           90 
   60000    262.99985   -10985.916   -9801.3636   -10985.916            0    4482.5493    46.933411    19.957966    20.586357            0            0            0    19283.146    4428.8246     4114.401    4904.4224   -374.39285   -289.82636    900.17371    46.933411    19.957966    20.586357           90           90           90 
   60500    258.23597   -10934.063    -9770.967   -10934.063            0    6501.0134    46.360683    19.947282    20.757476            0            0            0    19195.884    7648.6941    5922.1616    5932.1846   -219.27826    992.67662     1121.375    46.360683    19.947282    20.757476           90           90           90 
   61000    260.39714   -10943.617   -9770.7867   -10943.617            0    5552.1346    46.787577    19.948337    20.583083            0            0            0    19210.899    4484.3357     6330.127    5841.9412    15.486501   -470.32277     953.0615    46.787577    19.948337    20.583083           90           90           90 
   61500    262.74118   -10871.278   -9687.8905   -10871.278            0    5017.0316    46.682896    19.909052    20.871415            0            0            0    19398.148    4028.1424     6517.841    4505.1115   -556.04828   -886.42738   -1055.6343    46.682896    19.909052    20.871415           90           90           90 
   62000     277.5954   -10960.388   -9710.0969   -10960.388            0    6881.4771    46.521127    20.049794    20.640917            0            0            0    19252.589    7942.8397    5965.7953    6735.7963   -125.17061    7.9716409     21.59622    46.521127    20.049794    20.640917           90           90           90 
   62500    260.82269   -10961.035   -9786.2886   -10961.035            0    6019.0504     46.46889    20.022544    20.667805            0            0            0    19229.851    5634.9432    6234.3137    6187.8942    -276.7436   -110.82543    267.01245     46.46889    20.022544    20.667805           90           90           90 
   63000    274.53309    -10894.84   -9658.3423    -10894.84            0    5205.9734    46.639019    20.043013    20.692657            0            0            0    19343.216    4715.1203    5791.9944    5110.8054    615.34428   -177.13036    339.18303    46.639019    20.043013    20.692657           90           90           90 
   63500    266.72267   -10981.369   -9780.0492   -10981.369            0    5671.0272    46.961177    19.853982    20.664995            0            0            0    19267.346    4502.7858    7432.1107    5078.1852     256.5809    619.55409    864.35234    46.961177    19.853982    20.664995           90           90           90 
   64000    274.39521   -10925.125   -9689.2484   -10925.125            0    6714.1244    46.593837     19.86497    20.717377            0            0            0    19175.696    7078.6748    6603.3811    6460.3172     193.3218    61.787109   -654.65377    46.593837     19.86497    20.717377           90           90           90 
   64500    250.95434   -10909.651   -9779.3515   -10909.651            0    6020.9433    46.650342    20.007605    20.608771            0            0            0    19235.436    5201.6328    6678.9227    6182.2744    522.36892    191.24558    400.50978    46.650342    20.007605    20.608771           90           90           90 
   65000    259.12191   -10964.195   -9797.1086   -10964.195            0    5597.0368    46.528542    19.979518    20.713143            0            0            0    19255.308    5835.6918    5452.1828    5503.2357   -136.64417   -484.32708   -97.751242    46.528542    19.979518    20.713143           90           90           90 
   65500    265.41682   -10923.808   -9728.3692   -10923.808            0    6315.1225    46.940872    19.913256    20.485183            0            0            0    19148.434    4473.3292    7299.7524     7172.286    298.56249    277.15117   -24.477828    46.940872    19.913256    20.485183           90           90           90 
   66000    269.40485   -10880.133   -9666.7329   -10880.133            0    5901.6305    46.402298     19.88763     20.85305            0            0            0    19243.856    6322.4699    5915.1002    5467.3215    89.409841    143.50341     419.6205    46.402298     19.88763     20.85305           90           90           90 
   66500    266.92783   -10875.696   -9673.4521   -10875.696            0    5165.6831    46.797235    20.101228    20.583579            0            0            0      19362.6    5097.7101    5158.1042    5241.2351   -253.98734     381.7066   -520.98869    46.797235    20.101228    20.583579           90           90           90 
   67000     261.1636   -10942.842   -9766.5605   -10942.842            0    6869.2813    46.346069    20.033511     20.67531            0            0            0    19196.498    8678.1917    5620.3929    6309.2593    196.11015    552.39031    691.95016    46.346069    20.033511     20.67531           90           90           90 
   67500    265.79013   -10934.871   -9737.7509   -10934.871            0    6168.6253    46.390906    19.897408    20.762604            0            0            0    19165.105    6594.8682    6581.8702    5329.1376    -226.5583    56.159286   -44.013686    46.390906    19.897408    20.762604           90           90           90 
   68000    264.30326   -10961.547   -9771.1238   -10961.547            0    5256.3322    46.950241    19.995205    20.548031            0            0            0    19290.074     5025.014     4581.941    6162.0415    355.49138    -688.8074    179.47057    46.950241    19.995205    20.548031           90           90           90 
   68500    267.76827    -10912.46   -9706.4302    -10912.46            0    5393.2657    46.551004    19.921888    20.740032            0            0            0    19233.972    6114.3511    5447.5699     4617.876   -77.468627    221.58404    46.962521    46.551004    19.921888    20.740032           90           90           90 
   69000    260.24492   -10946.899   -9774.7548   -10946.899            0    6975.2954    46.602425    19.967375    20.570573            0            0            0    19141.497    5993.8703    8021.2941    6910.7219    168.77398    538.28228   -401.09822    46.602425    19.967375    20.570573           90           90           90 
   69500    266.15644   -10953.187   -9754.4172   -10953.187            0    5739.4991    46.498028     20.02306    20.614291            0            0            0    19192.581    5665.2962    5711.8883    5841.3129   -83.417488    299.43105   -1025.5139    46.498028     20.02306    20.614291           90           90           90 
   70000    267.60215   -10954.001   -9748.7198   -10954.001            0    6090.9216    46.383713    19.927234    20.733622            0            0            0    19164.068    6821.2931    6092.7128    5358.7588     187.3342    65.081895    51.037119    46.383713    19.927234    20.733622           90           90           90 
   70500    259.38816   -10912.399   -9744.1135   -10912.399            0    5627.2096    47.008323    19.895674     20.56799            0            0            0    19236.465    5944.7408    5425.7718    5511.1161   -478.44974   -253.07777    472.02921    47.008323    19.895674     20.56799           90           90           90 
   71000    258.65487   -10912.073   -9747.0899   -10912.073            0     6012.901    46.547037    19.982012    20.645278            0            0            0    19202.244    5374.1657      6409.34    6255.1975   -30.687228    278.30792    -532.3535    46.547037    19.982012    20.645278           90           90           90 
   71500    261.81151   -10917.309   -9738.1094   -10917.309            0    6568.5656    46.557078    19.807875    20.775724            0            0            0    19159.306     7881.333    5496.6477     6327.716   -321.17439    -850.0362    467.17244    46.557078    19.807875    20.775724           90           90           90 
   72000    271.00663   -10883.527   -9662.9118   -10883.527            0    6231.3658    46.902435    19.997641     20.53306            0            0            0    19258.738    6123.8823    5798.1502     6772.065    129.84075   -263.89939    542.03907    46.902435    19.997641     20.53306           90           90           90 
   72500    264.28237   -10992.407   -9802.0778   -10992.407            0     7161.498    46.523673    19.857301    20.720941            0            0            0    19142.722    7577.5946    7159.4687    6747.4307    -5.167796    86.866303     198.0703    46.523673    19.857301    20.720941           90           90           90 
   73000    260.39294   -10948.867   -9776.0559   -10948.867            0    5118.9179    46.794578    20.016964    20.637515            0            0            0    19330.858    5156.0109    5272.8678    4927.8751   -187.90331    908.42449   -400.12494    46.794578    20.016964    20.637515           90           90           90 
   73500    268.60972   -10878.916   -9669.0968   -10878.916            0     5213.964    46.597336    20.004551    20.684784            0            0            0    19281.503    4509.7371    6767.1887    4364.9661   -110.20108    241.36871   -725.94553    46.597336    20.004551    20.684784           90           90           90 
   74000    271.60598    -10920.19   -9696.8757    -10920.19            0    5800.1873    46.701313    19.871045    20.740174            0            0            0    19246.962     5724.461    6682.1753    4993.9257    -255.5347    464.65366    -244.2082    46.701313    19.871045    20.740174           90           90           90 
   74500    262.47375   -10860.215   -9678.0324   -10860.215            0    6708.0382    46.496094    20.165246    20.465673            0            0            0    19188.721    6408.9893    6707.4113     7007.714   -1.4192502    669.04237   -479.51068    46.496094    20.165246    20.465673           90           90           90 
   75000    266.62325    -10895.05   -9694.1783    -10895.05            0    5947.8793    46.506865    19.922695     20.81483            0            0            0    19285.816    5486.2601    6728.4643    5628.9134    640.00495   -763.27859   -9.5061159    46.506865    19.922695     20.81483           90           90           90 
   75500    265.14229   -10904.035   -9709.8329   -10904.035            0    6484.0203    46.918305    19.803704    20.592553            0            0            0    19133.699    6268.8942    7318.0797    5865.0871   -300.49527    1191.1138   -113.45712    46.918305    19.803704    20.592553           90           90           90 
   76000    264.82164   -10932.041   -9739.2836   -10932.041            0    5752.1584    46.467918     20.02946    20.588823            0            0            0    19162.579    5943.0606    5467.4459    5845.9688    370.45585   -710.58478    799.90303    46.467918     20.02946    20.588823           90           90           90 
   76500    253.81741   -10954.266   -9811.0718   -10954.266            0    5386.6228    46.662209    19.823641    20.786006            0            0            0    19227.364    6697.3558    5168.5201    4293.9926    110.23801    76.549641   -602.76991    46.662209    19.823641    20.786006           90           90           90 
   77000    254.78733   -10931.313   -9783.7496   -10931.313            0    6622.5751    46.678292    20.010223    20.487515            0            0            0     19136.22    5802.8057    7336.0728    6728.8467    522.72785    709.76383   -51.118725    46.678292    20.010223    20.487515           90           90           90 
   77500    267.73674    -10924.84   -9718.9524    -10924.84            0    5865.1452    46.677284    19.897817    20.732525            0            0            0    19255.872    5253.9257    6767.5271    5573.9829   -16.575862    187.65655   -392.37525    46.677284    19.897817    20.732525           90           90           90 
   78000    270.42778   -10879.426   -9661.4177   -10879.426            0    6576.1768    46.529604    19.924249    20.683294            0            0            0    19174.809    7268.1104      6065.42    6394.9999    162.36613   -414.12965     567.6477    46.529604    19.924249    20.683294           90           90           90 
   78500    261.42091   -10957.011   -9779.5702   -10957.011            0     6440.682    46.685537    19.991657    20.556614            0            0            0    19185.925    6105.3955    5860.1226    7356.5279   -166.45055   -365.62099    27.496952    46.685537    19.991657    20.556614           90           90           90 
   79000    249.19351   -10895.713   -9773.3441   -10895.713            0    5863.5077    46.494702    19.879622     20.76664            0            0            0    19194.545    6238.3486    6342.8802    5009.2944   -185.49365   -743.11549   -280.45847    46.494702    19.879622     20.76664           90           90           90 
   79500     268.1038    -10940.47   -9732.9293    -10940.47            0    5272.4782    46.363272    20.105531    20.752787            0            0            0     19344.88    6181.0029    4170.1491    5466.2826    197.50437   -40.916108    194.81587    46.363272    20.105531    20.752787           90           90           90 
   80000    254.98669   -10899.872   -9751.4111   -10899.872            0    5125.5066     46.77666    19.966259    20.626295            0            0            0    19264.029    4523.2036    4314.0917    6539.2244    201.04233    38.477989   -69.326897     46.77666    19.966259    20.626295           90           90           90 
   80500     260.6461   -10905.557   -9731.6063   -10905.557            0    6853.0182    46.596666    19.889363    20.748105            0            0            0    19228.887    9401.6471     5849.351    5308.0564   -20.772012   -93.852575    290.16347    46.596666    19.889363    20.748105           90           90           90 
   81000    267.07819   -10908.263   -9705.3419   -10908.263            0     6684.731    46.646847    19.919771    20.585673            0            0            0    19128.095    5539.6105    7574.3789    6940.2036    369.10398   -103.29676    344.22751    46.646847    19.919771    20.585673           90           90           90 
   81500    265.37536   -10946.721   -9751.4697   -10946.721            0    5714.1241    46.875346    19.882249    20.704864            0            0            0     19296.67    4471.5428    6530.1713    6140.6581    43.449901   -366.96886    431.67078    46.875346    19.882249    20.704864           90           90           90 
   82000    264.22084   -10925.347   -9735.2948   -10925.347            0    6861.1303    46.484722    19.933517     20.69946            0            0            0    19180.203    6925.1971     6631.805    7026.3889    151.97856   -744.28426    633.51299    46.484722    19.933517     20.69946           90           90           90 
   82500    270.93899   -10872.213   -9651.9029   -10872.213            0     5801.525    46.565061    20.224528    20.478448            0            0            0    19285.709    6282.3054    4809.1921    6313.0776   -182.80175     935.2418   -274.83165    46.565061    20.224528    20.478448           90           90           90 
   83000    256.13801   -10925.342   -9771.6957   -10925.342            0    7138.9638    46.169081    19.919697    20.837706            0            0            0    19163.899     7561.407    6431.0031    7424.4813   -229.92761   -76.493171   -561.05158    46.169081    19.919697    20.837706           90           90           90 
   83500    272.13247   -10939.353   -9713.6671   -10939.353            0     5169.304    46.908074    19.886657    20.677125            0            0            0    19288.548    3479.2426    6849.5501    5179.1194   -455.11514   -381.20298   -266.45177    46.908074    19.886657    20.677125           90           90           90 
   84000    270.19643   -10889.178   -9672.2125   -10889.178            0    5396.1991    46.653005    19.983857     20.74609            0            0            0    19341.724    6422.7997    4162.0146     5603.783   -21.760539   -18.926828    436.07949    46.653005    19.983857     20.74609           90           90           90 
   84500    263.13539    -10939.38    -9754.217    -10939.38            0    5840.6755    46.521877    20.057865    20.584741            0            0            0     19208.23     6515.996    5359.7397    5646.2908    126.39219   -404.72252   -225.40321    46.521877    20.057865    20.584741           90           90           90 
   85000    260.04498   -10921.782    -9750.538   -10921.782            0    5299.4534     46.42175    20.030966    20.766866            0            0            0    19310.538    4121.1365     6458.783    5318.4406    595.60432    363.92416   -326.55157     46.42175    20.030966    20.766866           90           90           90 
   85500    276.98335   -10915.688   -9668.1536   -10915.688            0    6184.7125    46.822544    19.922862    20.735361            0            0            0    19342.755    5586.0146    6929.0389     6039.084    193.47141    1058.8106    878.63298    46.822544    19.922862    20.735361           90           90           90 
   86000    276.04612   -10948.691   -9705.3785   -10948.691            0     6051.852    46.393884    20.033609    20.639325            0            0            0    19182.951    7675.5799    4611.2919    5868.6842   -179.43927    26.330559    772.85114    46.393884    20.033609    20.639325           90           90           90 
   86500    259.25413   -10933.402   -9765.7206   -10933.402            0    5510.8625    46.930275    19.920745    20.599349            0            0            0    19258.044    6100.7971    4111.5301    6320.2602    -174.6611    695.53105    626.76056    46.930275    19.920745    20.599349           90           90           90 
   87000    267.73328   -10940.495   -9734.6229   -10940.495            0    6063.5848    46.545696    19.892027    20.830034            0            0            0    19286.283    6060.0444    6799.9364    5330.7737    169.13405    -523.0128   -1039.4518    46.545696    19.892027    20.830034           90           90           90 
   87500    270.00871   -10921.232   -9705.1116   -10921.232            0     7950.761    46.549461    19.926278    20.561757            0            0            0    19072.212    7811.0768    8653.8616    7387.3444    557.71133    706.48627    176.99707    46.549461    19.926278    20.561757           90           90           90 
   88000    261.04447   -10852.848    -9677.103   -10852.848            0    5496.2385    46.657158    20.033635    20.613873            0            0            0    19268.044    4321.2259    6674.5873    5492.9022   -521.80457   -383.94537    -410.8403    46.657158    20.033635    20.613873           90           90           90 
   88500    267.98715    -10930.45    -9723.435    -10930.45            0    6714.9613    46.449884     19.94886    20.688181            0            0            0    19170.128    7059.1026    6744.3863     6341.395    53.161127   -443.08342    374.80781    46.449884     19.94886    20.688181           90           90           90 
   89000    253.39665   -10945.138   -9803.8383   -10945.138            0    6079.8232    46.872034    20.114832    20.418209            0            0            0    19250.759    5872.8151    5697.8225    6668.8321   -17.113454    264.92165    1284.9853    46.872034    20.114832    20.418209           90           90           90 
   89500    267.69212   -10922.807   -9717.1205   -10922.807            0    6971.3807    46.494421    19.804001    20.826585            0            0            0     19176.61    6062.2326    8462.4518    6389.4579   -54.097967    343.10468    345.38603    46.494421    19.804001    20.826585           90           90           90 
   90000    261.39368   -10941.324   -9764.0063   -10941.324            0    5791.2275    46.668515    20.020622    20.579176            0            0            0    19227.797     5381.183    5209.7443    6782.7552    306.20212    353.87574    424.57149    46.668515    20.020622    20.579176           90           90           90 
   90500    270.66741   -10915.251   -9696.1634   -10915.251            0    6032.9024    46.671242    19.920184    20.694954            0            0            0    19240.094    5976.9271    5173.8616    6947.9185   -49.811439    576.42149    466.06912    46.671242    19.920184    20.694954           90           90           90 
   91000    268.33001   -10968.871   -9760.3112   -10968.871            0    6439.4452    46.437555    19.979806    20.697809            0            0            0    19203.703    7376.4814     5404.633    6537.2211    124.98794   -913.46339    621.21464    46.437555    19.979806    20.697809           90           90           90 
   91500     268.4469   -10941.491    -9732.405   -10941.491            0    6409.5529    46.483253    20.119068    20.502076            0            0            0    19173.536    7649.2531    5033.8323    6545.5734   -79.938513   -1194.6774    197.72627    46.483253    20.119068    20.502076           90           90           90 
   92000    256.08428   -10913.638   -9760.2334   -10913.638            0    5221.2484    46.359129    20.002194    20.829636            0            0            0    19314.994    4310.1902    5670.7276    5682.8274    172.06199    838.29969   -310.15202    46.359129    20.002194    20.829636           90           90           90 
   92500    267.19517   -10942.564   -9739.1164   -10942.564            0    7319.4279    46.656713    19.898261    20.564728            0            0            0    19092.036    7872.8845     6544.302    7541.0972   -388.89446    262.95459   -14.752132    46.656713    19.898261    20.564728           90           90           90 
   93000    266.95524   -10946.268   -9743.9004   -10946.268            0    4899.9684     46.79252    19.903656    20.676293            0            0            0    19256.705    5520.7596      4306.16    4872.9856    81.758403   -1054.6617    506.53759     46.79252    19.903656    20.676293           90           90           90 
   93500    267.50571   -10942.134    -9737.287   -10942.134            0    6637.2778    46.343425    20.011577    20.671767            0            0            0    19171.101    7410.0034    6015.2797    6486.5504   -515.23637   -160.61566    1223.4689    46.343425    20.011577    20.671767           90           90           90 
   94000    265.24392   -10926.927   -9732.2672   -10926.927            0    5594.3771      46.4874    20.023406    20.639296            0            0            0    19211.802    7065.3631    4280.9706    5436.7977     247.1844     356.1103    441.69461      46.4874    20.023406    20.639296           90           90           90 
   94500    276.79274   -10969.446   -9722.7701   -10969.446            0    6278.4736    47.088968    19.743168     20.62946            0            0            0    19178.908    4182.0647    8156.9815    6496.3745   -158.45039   -238.57562    -156.7332    47.088968    19.743168     20.62946           90           90           90 
   95000    266.58036   -10949.562   -9748.8833   -10949.562            0    6401.8684    46.425857    19.983192    20.699786            0            0            0    19203.954    7075.8696    5798.4797     6331.256    472.17569    430.20924    -1121.562    46.425857    19.983192    20.699786           90           90           90 
   95500    262.78904   -10920.655    -9737.052   -10920.655            0    6033.9093    46.430727    20.020968    20.638359            0            0            0    19185.173    6410.2215    5926.3543    5765.1521    146.91473    712.51191    1.9787151    46.430727    20.020968    20.638359           90           90           90 
   96000    262.29133   -10927.095    -9745.734   -10927.095            0    5620.7671    47.205354    19.859545    20.629017            0            0            0    19339.227    4506.5243    6506.1867    5849.5903   -209.78435   -121.28272    1115.5178    47.205354    19.859545    20.629017           90           90           90 
   96500    255.29257   -10897.184   -9747.3448   -10897.184            0    5509.5396    46.424099    19.938437    20.793758            0            0            0    19247.201    5262.9719    6141.4303    5124.2166    73.506767   -276.91587    841.81652    46.424099    19.938437    20.793758           90           90           90 
   97000    264.73273     -10902.9   -9710.5424     -10902.9            0    6684.9294    46.519944     19.98242    20.611423            0            0            0    19159.988    7448.2123    5687.3469     6919.229   -433.68229    902.97647    620.98923    46.519944     19.98242    20.611423           90           90           90 
   97500    260.92606   -10915.409   -9740.1969   -10915.409            0    5110.1194    46.647611    20.004645    20.702393            0            0            0    19318.828     5853.381    5254.4365    4222.5409   -691.42679    41.200531   -218.13874    46.647611    20.004645    20.702393           90           90           90 
   98000    266.24989   -10974.449   -9775.2586   -10974.449            0     6977.014    46.266593    20.098214    20.615659            0            0            0    19170.004    7668.3779    6717.3549    6545.3094    140.06575   -498.90643   -203.25311    46.266593    20.098214    20.615659           90           90           90 
   98500    251.35479   -10918.138   -9786.0346   -10918.138            0     6488.145    46.416624    19.859786    20.755285            0            0            0    19132.724    6877.2299    6315.6204    6271.5848   -114.31709    -553.5596   -294.78106    46.416624    19.859786    20.755285           90           90           90 
   99000     265.5022   -10895.644   -9699.8214   -10895.644            0    5973.3924    46.993736     19.79609    20.607077            0            0            0    19170.604    6199.7553    5630.6534    6089.7683   -236.33179    -340.6473    1094.6315    46.993736     19.79609    20.607077           90           90           90 
   99500    270.26145   -10882.364   -9665.1055   -10882.364            0    6963.4613    46.470556    20.036958    20.617107            0            0            0    19197.178    7090.1318    6974.7765    6825.4757    343.99642    472.92077    769.52247    46.470556    20.036958    20.617107           90           90           90 
  100000    258.98324   -10943.594   -9777.1324   -10943.594            0    4110.4358    46.704165    19.985636    20.702366            0            0            0    19323.846    4935.6113    4423.0641    2972.6319    122.50081    -1095.292    -446.4822    46.704165    19.985636    20.702366           90           90           90 
  100500    265.92642   -10955.142   -9757.4088   -10955.142            0       6830.3    46.229617    19.953005    20.706664            0            0            0    19100.236     6942.601    7002.3448    6545.9541   -369.13347   -517.32558      870.943    46.229617    19.953005    20.706664           90           90           90 
  101000    264.52535    -10943.07   -9751.6472    -10943.07            0    5594.1521    46.869244    19.965704    20.615472            0            0            0    19291.495    5592.4586    5351.8244    5838.1733    104.75399   -444.08461    414.21737    46.869244    19.965704    20.615472           90           90           90 
  101500    255.57976   -10904.607   -9753.4751   -10904.607            0    5166.5681    46.905166    19.943054    20.698095            0            0            0    19361.666     4856.728    5042.3058    5600.6704   -220.96398    505.61042   -1116.9595    46.905166    19.943054    20.698095           90           90           90 
  102000     267.3753    -10881.15   -9676.8904    -10881.15            0    6391.7103    46.665156    19.873675    20.717873            0            0            0    19213.923     5641.357    6500.7417    7033.0321   -475.01673    633.60129    1087.8531    46.665156    19.873675    20.717873           90           90           90 
  102500    259.09915   -10946.105    -9779.121   -10946.105            0    5788.5418    46.290097    19.935883    20.803576            0            0            0    19198.247    4886.5061    7166.6666    5312.4526    198.57123   -382.38345   -776.89917    46.290097    19.935883    20.803576           90           90           90 
  103000    259.43487   -10932.309   -9763.8133   -10932.309            0     5313.802    46.488005    20.254151     20.49334            0            0            0    19296.018    6303.7883    3531.8448    6105.7728    300.21953   -460.83498    171.14052    46.488005    20.254151     20.49334           90           90           90 
  103500    257.18449   -10902.339   -9743.9795   -10902.339            0    6122.2148     46.57562    19.946394    20.724681            0            0            0    19253.553    6661.1137    5372.7086    6332.8219     503.7035    395.31277    269.92297     46.57562    19.946394    20.724681           90           90           90 
  104000    267.85328   -10953.913   -9747.5007   -10953.913            0    5104.2715    46.820365    19.860265    20.775606            0            0            0    19318.506    5166.8542    5822.5469    4323.4133    760.91344    220.17802   -524.21872    46.820365    19.860265    20.775606           90           90           90 
  104500    257.95455    -10949.07    -9787.242    -10949.07            0    6394.7034    46.953623    19.897652     20.53854            0            0            0    19188.478    6055.0253    6813.0844    6316.0004   -198.67076    132.42069    118.32328    46.953623    19.897652     20.53854           90           90           90 
  105000     269.5252   -10934.756    -9720.813   -10934.756            0    5797.0517     46.48999    19.985787     20.78211            0            0            0     19309.47    5310.3079    6709.6376    5371.2095   -506.03974    729.51374   -656.12992     46.48999    19.985787     20.78211           90           90           90 
  105500     264.6224   -10846.459    -9654.599   -10846.459            0    6918.4779    46.683948    19.943996     20.61812            0            0            0    19196.799    6641.6121    7849.1495    6264.6721   -635.75874   -258.80062    719.46373    46.683948    19.943996     20.61812           90           90           90 
  106000    268.11771     -10948.1   -9740.4964     -10948.1            0    6231.7486    46.587252    20.087856    20.579298            0            0            0    19258.889    6346.8774    5492.3153    6856.0532   -106.75961    225.77134    621.33728    46.587252    20.087856    20.579298           90           90           90 
  106500     274.2281   -10947.795   -9712.6707   -10947.795            0    5804.2152    46.497793    19.766454    20.917962            0            0            0    19225.626    6816.2835    6090.6292    4505.7329    495.53222    -248.9568    273.37713    46.497793    19.766454    20.917962           90           90           90 
  107000    258.73206   -10897.582   -9732.2518   -10897.582            0    6532.7215    46.820225    19.938281    20.554686            0            0            0    19188.104    7485.3916    5721.3523    6391.4204   -199.00876    1090.9255    69.631684    46.820225    19.938281    20.554686           90           90           90 
  107500    273.09899   -10922.418   -9692.3793   -10922.418            0    6150.7591    46.538491    19.948384    20.727088            0            0            0     19242.36    7152.9473    5227.2671     6072.063    95.424845    331.98081    485.64185    46.538491    19.948384    20.727088           90           90           90 
  108000    270.41109   -10956.969   -9739.0359   -10956.969            0    5501.3474    46.667346     19.92292    20.766032            0            0            0    19307.214    5351.8538    5014.4478    6137.7407    120.81195    283.35449   -771.94788    46.667346     19.92292    20.766032           90           90           90 
  108500    265.76003   -10903.909    -9706.925   -10903.909            0      4651.18     46.56424    20.088858    20.619077            0            0            0    19287.547    5017.7999     4068.132     4867.608    208.11045   -12.786673    8.7515403     46.56424    20.088858    20.619077           90           90           90 
  109000    257.79443   -10936.587   -9775.4796   -10936.587            0    5786.3342    46.672164    19.789413    20.771838            0            0            0    19185.176    4830.5901    7585.6728    4942.7399    -140.3372   -576.75959    458.17981    46.672164    19.789413    20.771838           90           90           90 
  109500    260.37391   -10971.346   -9798.6211   -10971.346            0    5571.5464    46.815813     19.92632    20.659898            0            0            0    19272.934    6264.5624    4002.9733    6447.1036   -394.07772   -438.53419   -557.82654    46.815813     19.92632    20.659898           90           90           90 
  110000    262.87281   -10910.213   -9726.2328   -10910.213            0    5368.6026    46.453192    20.060948    20.664156            0            0            0    19256.825    6165.1672    4593.4505    5347.1901   -123.91735     657.3131    402.67767    46.453192    20.060948    20.664156           90           90           90 
  110500    262.87862    -10939.22   -9755.2141    -10939.22            0    6752.7998    46.613724    19.769566    20.733537            0            0            0     19106.64    7388.0086    6594.0641    6276.3268    -262.4736    268.53104   -143.55136    46.613724    19.769566    20.733537           90           90           90 
  111000    261.97923   -10946.893   -9766.9373   -10946.893            0    5158.4987    46.950257      20.0338    20.589659            0            0            0    19366.469     4332.701    5626.0089    5516.7861    -28.98952    373.85145   -53.547117    46.950257      20.0338    20.589659           90           90           90 
  111500    265.69225   -10910.085   -9713.4065   -10910.085            0    6875.5579    46.256286    19.989877    20.759027            0            0            0    19194.989    6516.1174    6062.8649    8047.6914    127.17495   -989.54018    626.31364    46.256286    19.989877    20.759027           90           90           90 
  112000    251.15647   -10887.944   -9756.7343   -10887.944            0    5723.1788    46.503222    20.157342    20.598675            0            0            0    19308.814    7343.3012    3792.0962     6034.139   -79.116034    -256.1557   -204.35006    46.503222    20.157342    20.598675           90           90           90 
  112500    259.58944    -10910.84   -9741.6481    -10910.84            0    5677.3142    46.753706    19.930478    20.629449            0            0            0    19223.009    5148.0171    5836.2184    6047.7073    64.877471   -345.66977    -39.45407    46.753706    19.930478    20.629449           90           90           90 
  113000    264.21652   -10901.052   -9711.0194   -10901.052            0    6852.1031    46.567024     19.91815    20.700691            0            0            0    19200.491    8491.2792    5430.1397    6634.8904    -330.9856   -219.12795    491.06285    46.567024     19.91815    20.700691           90           90           90 
  113500    267.55213   -10939.017   -9733.9611   -10939.017            0    5534.1337     46.38374    20.109059    20.620279            0            0            0    19233.222    5818.3838    5374.9896    5409.0278    673.91708   -158.33837    824.69866     46.38374    20.109059    20.620279           90           90           90 
  114000    267.37539   -10890.701   -9686.4414   -10890.701            0    6038.3021    46.554804    19.986121    20.761846            0            0            0    19317.858    6279.3295    6103.7282    5731.8485   -34.265517   -744.45163    -644.4662    46.554804    19.986121    20.761846           90           90           90 
  114500    260.68104   -10879.551   -9705.4422   -10879.551            0    6876.3158    46.853337    19.877871    20.555071            0            0            0    19143.854    5658.9033    7798.6506    7171.3934   -748.77151   -334.62398    1432.3212    46.853337    19.877871    20.555071           90           90           90 
  115000    265.38486    -10875.65   -9680.3558    -10875.65            0    5417.7435    46.779569    19.858723    20.825151            0            0            0    19346.201    4220.4011    6806.1073    5226.7222   -95.721973    8.9406491   -941.10626    46.779569    19.858723    20.825151           90           90           90 
  115500    265.13939   -10924.899   -9730.7099   -10924.899            0    4734.8495    46.652558    19.994033    20.633565            0            0            0    19246.428    5275.5466    4616.0408    4312.9611   -232.54097   -474.49957   -408.60262    46.652558    19.994033    20.633565           90           90           90 
  116000    260.62843   -10948.233   -9774.3616   -10948.233            0    7117.5364    46.374437    19.952765    20.680742            0            0            0    19135.854    8317.2876    6162.2452    6873.0765   -311.62528    7.9836183   -12.711724    46.374437    19.952765    20.680742           90           90           90 
  116500    267.63995   -10912.475   -9707.0234   -10912.475            0    6078.9815    47.055253    19.816096    20.577041            0            0            0    19187.091    5174.3937     6756.291    6306.2598   -476.33083   -170.64278   -397.11469    47.055253    19.816096    20.577041           90           90           90 
  117000    263.55902   -10924.079   -9737.0081   -10924.079            0    5893.5277     46.64533    19.957152    20.664662            0            0            0    19236.898    5162.5193    7174.5293    5343.5345   -233.95279   -957.13623    652.72657     46.64533    19.957152    20.664662           90           90           90 
  117500    255.18844   -10924.236   -9774.8666   -10924.236            0    6374.4056    46.508485    19.969409    20.672104            0            0            0    19199.153    5730.3686     6708.273    6684.5751    320.08694   -128.27977   -334.87377    46.508485    19.969409    20.672104           90           90           90 
  118000    268.59943   -10974.405   -9764.6318   -10974.405            0    4507.3371    46.735943    19.825006     20.70774            0            0            0    19186.557     4159.146    4833.4984     4529.367   -179.09593    142.88019   -368.06887    46.735943    19.825006     20.70774           90           90           90 
  118500    270.58664   -10961.861   -9743.1381   -10961.861            0    6135.2014    46.880717    19.910993    20.616211            0            0            0    19244.029    5695.7967    6062.8547    6646.9527   -283.83503    411.53145   -123.12526    46.880717    19.910993    20.616211           90           90           90 
  119000    269.92375    -10922.73    -9706.992    -10922.73            0    5710.1497     46.67318    19.949103    20.651733            0            0            0    19228.583    4336.5414    6538.2376      6255.67    -82.11208    842.90939    612.75453     46.67318    19.949103    20.651733           90           90           90 
  119500    266.38762   -10920.274   -9720.4627   -10920.274            0    5878.1935    46.244313    19.979756    20.728848            0            0            0    19152.421     6434.081    6045.3555    5155.1439   -8.8130077    439.01687    387.33031    46.244313    19.979756    20.728848           90           90           90 
  120000    269.99771   -10911.307   -9695.2358   -10911.307            0    7405.7653     46.58139    20.036485    20.489403            0            0            0     19123.32    8086.6914    6568.3326    7562.2718    275.60291    1970.9054    304.03401     46.58139    20.036485    20.489403           90           90           90 
  120500    264.45453    -10879.73   -9688.6254    -10879.73            0     5609.413    46.626077    19.931287    20.760399            0            0            0    19293.007     4998.181    6293.0498    5537.0082   -258.96003   -280.43245    76.451769    46.626077    19.931287    20.760399           90           90           90 
  121000    273.43818   -10952.294   -9720.7269   -10952.294            0    5862.7571    46.620944    19.962335    20.613733            0            0            0    19184.437    5379.9085    5939.5976    6268.7653   -1.3310893    176.65455    419.76747    46.620944    19.962335    20.613733           90           90           90 
  121500    262.51002   -10961.832   -9779.4855   -10961.832            0    6078.4497    47.027259    19.831984    20.637487            0            0            0    19247.425    4127.6041    8122.7402    5985.0048    135.59681    171.92565    1035.0089    47.027259    19.831984    20.637487           90           90           90 
  122000    265.55177   -10919.358   -9723.3122   -10919.358            0    6133.9045    46.439664    19.991768    20.756922            0            0            0    19270.955    6129.0672    6150.2553     6122.391    104.21591    662.35151   -56.787525    46.439664    19.991768    20.756922           90           90           90 
  122500    267.91108   -10936.768   -9730.0951   -10936.768            0    5549.5711    46.765013    20.034902    20.607628            0            0            0    19307.955    5652.6889    4768.1885    6227.8359   -28.775944    43.983641    688.09955    46.765013    20.034902    20.607628           90           90           90 
  123000    265.47429   -10966.472   -9770.7743   -10966.472            0    7091.5154    46.301857    19.928268    20.705121            0            0            0    19104.943    7225.4184    5993.5292    8055.5986   -591.83438    571.01114   -2.7081121    46.301857    19.928268    20.705121           90           90           90 
  123500     261.1242    -10915.17    -9739.066    -10915.17            0    6516.5207     46.73576    19.923758    20.708019            0            0            0    19282.313    5516.2836    7631.5911    6401.6875   -189.25463    56.234247   -250.34242     46.73576    19.923758    20.708019           90           90           90 
  124000    266.17887   -10916.221   -9717.3504   -10916.221            0    5910.1226     46.86439    19.844762    20.623961            0            0            0    19180.545    5892.4479    5848.3418    5989.5781     62.86132   -221.08186   -300.46671     46.86439    19.844762    20.623961           90           90           90 
  124500    271.43311   -10945.205   -9722.6697   -10945.205            0    6514.8324    46.311304    20.075449    20.688966            0            0            0     19234.95    6995.7243    5530.5092    7018.2637   -294.44635   -329.06129    52.114833    46.311304    20.075449    20.688966           90           90           90 
  125000    269.42996    -10860.79   -9647.2768    -10860.79            0    6768.3837    46.572058    20.005372    20.594472            0            0            0    19187.691    6976.6852    6520.5065    6807.9595   -365.41181    492.73707   -427.96268    46.572058    20.005372    20.594472           90           90           90 
  125500    258.82232   -10930.897   -9765.1598   -10930.897            0    4550.1647    46.815528    19.838111    20.862869            0            0            0    19376.007     4548.114    4760.9487    4341.4315    100.46215     366.0678    248.32399    46.815528    19.838111    20.862869           90           90           90 
  126000    271.29091    -10907.98   -9686.0844    -10907.98            0    6918.2203    46.639606     20.01414    20.560204            0            0            0    19191.955    7375.6524    6865.6067    6513.4019    1265.7926   -1125.6634    117.29153    46.639606     20.01414    20.560204           90           90           90 
  126500    265.40384   -10938.464   -9743.0843   -10938.464            0    6706.6081    46.625995    19.997189    20.582998            0            0            0    19191.357     6042.688    6522.0556    7555.0807   -33.529396   -549.82504    51.570778    46.625995    19.997189    20.582998           90           90           90 
  127000    272.72815   -10954.002   -9725.6334   -10954.002            0    5008.9775     46.36537    19.969985    20.799001            0            0            0    19258.123    5661.7796    4948.5872    4416.5656   -100.46679    -674.4587    136.35513     46.36537    19.969985    20.799001           90           90           90 
  127500    261.53481   -10917.939   -9739.9855   -10917.939            0     5775.196    46.627786    19.994358    20.605441            0            0            0    19210.301    5689.4613    5760.5488    5875.5778    41.341348   -584.18286   -21.519604    46.627786    19.994358    20.605441           90           90           90 
  128000    265.11393   -10910.154   -9716.0802   -10910.154            0    6073.6787    46.798536    19.749182    20.729586            0            0            0    19158.963    6403.4165    6187.4497    5630.1698    253.81295      219.876    286.90587    46.798536    19.749182    20.729586           90           90           90 
  128500    268.22569   -10934.969   -9726.8797   -10934.969            0    6528.0652    46.428709    19.993124    20.624452            0            0            0    19144.749    6421.9573    7485.6331    5676.6053    412.48723   -34.971243    9.2602203    46.428709    19.993124    20.624452           90           90           90 
  129000    258.54665   -10914.362   -9749.8671   -10914.362            0    5128.6703    46.738099    20.097743    20.559614            0            0            0    19312.269    5159.9729    4356.6032    5869.4346    -298.6741   -587.34961   -579.96613    46.738099    20.097743    20.559614           90           90           90 
  129500    270.67661   -10944.192   -9725.0633   -10944.192            0      5733.43    46.529779    19.925463    20.755932            0            0            0    19243.394    5811.3842    6154.0887     5234.817    49.859659    290.17595   -663.65049    46.529779    19.925463    20.755932           90           90           90 
  130000    270.99264   -10961.075   -9740.5231   -10961.075            0    4573.8871     46.86889    19.987099    20.623504            0            0            0    19319.544    4361.2935    5127.3672    4233.0004   -66.975988    109.63571    317.78865     46.86889    19.987099    20.623504           90           90           90 
  130500    281.13337   -10987.752   -9721.5261   -10987.752            0    5260.7373    46.546984    19.931068    20.862071            0            0            0    19354.393     5299.587    5516.3845    4966.2403    535.95281   -303.59571    -17.26553    46.546984    19.931068    20.862071           90           90           90 
  131000    258.62987   -10981.641   -9816.7711   -10981.641            0    5684.5176    46.743365    19.970965     20.64927            0            0            0    19276.301    6797.7344    5217.8802    5037.9382   -352.44476    117.86848    579.82201    46.743365    19.970965     20.64927           90           90           90 
  131500    249.21596   -10907.798   -9785.3286   -10907.798            0    6424.4272    46.519917    20.145993    20.507761            0            0            0    19219.667    6650.6639    6476.6338     6145.984   -357.24844    149.27126   -247.12787    46.519917    20.145993    20.507761           90           90           90 
  132000    263.32628     -10950.8   -9764.7773     -10950.8            0    6128.7692    46.456732    19.872936    20.809954            0            0            0    19212.408    6338.4476    6186.9429    5860.9172   -451.03722    -231.0648   -203.69434    46.456732    19.872936    20.809954           90           90           90 
  132500    266.37048   -10892.736   -9693.0022   -10892.736            0    6745.0454    46.859701    19.947593    20.585354            0            0            0    19241.918    7164.9394    5956.5625    7113.6343   -339.39054   -45.115416   -37.081916    46.859701    19.947593    20.585354           90           90           90 
  133000    261.31293   -10899.615   -9722.6604   -10899.615            0    6920.6325    46.627141    19.903615    20.656182            0            0            0    19169.941    6004.8729    7660.4812    7096.5435   -500.49899    582.53495     532.5699    46.627141    19.903615    20.656182           90           90           90 
  133500    256.93284   -10970.191   -9812.9646   -10970.191            0    5117.9126    46.926857    19.920186    20.659675            0            0            0    19312.493    4148.4651    5949.3848    5255.8879    239.96058   -733.25993   -289.04808    46.926857    19.920186    20.659675           90           90           90 
  134000    262.48133   -10918.516   -9736.2992   -10918.516            0    5467.8512    46.750257     19.92752     20.66488            0            0            0    19251.747    4213.0173    6608.1778    5582.3584    283.76363   -221.91236   -688.39322    46.750257     19.92752     20.66488           90           90           90 
  134500    267.99202   -10869.453   -9662.4159   -10869.453            0    6573.3378    46.525885    19.982108    20.613413            0            0            0    19163.986     5890.814    6535.9424    7293.2569    339.99821     82.05102    389.76423    46.525885    19.982108    20.613413           90           90           90 
  135000    260.26696   -10956.606   -9784.3628   -10956.606            0    6172.7867    46.635434    19.935275    20.562074            0            0            0    19116.358    5067.5751    7263.8609    6186.9241    96.876697    267.81529     -986.858    46.635434    19.935275    20.562074           90           90           90 
  135500    260.54747   -10909.331    -9735.824   -10909.331            0    6140.3037     46.65681      19.7993    20.738978            0            0            0    19158.091    5573.9986    7033.6978    5813.2148   -264.31566    127.02459    1499.0287     46.65681      19.7993    20.738978           90           90           90 
  136000    262.66403   -10918.777   -9735.7374   -10918.777            0    6143.7978    46.835173    19.986591    20.555117            0            0            0    19241.141    5561.9517    6463.7896     6405.652    202.46787   -42.417496    113.09297    46.835173    19.986591    20.555117           90           90           90 
  136500    263.96152    -10940.88    -9751.996    -10940.88            0    4659.7376    46.565403     20.06594     20.73219            0            0            0    19371.714    4874.8878     4881.273     4223.052   -190.73724   -146.91709    1593.8731    46.565403     20.06594     20.73219           90           90           90 
  137000    265.01855   -10918.912   -9725.2673   -10918.912            0    6441.1233    46.833669    19.826435    20.762042            0            0            0    19278.483    6009.1094    6944.0955    6370.1651    599.35578    18.006347    339.64079    46.833669    19.826435    20.762042           90           90           90 
  137500     273.9573   -10873.071   -9639.1666   -10873.071            0    6558.8423    46.436558    20.008179    20.567587            0            0            0     19109.57    5844.0484    6790.0021    7042.4763   -291.77259    631.62031    115.73589    46.436558    20.008179    20.567587           90           90           90 
  138000    266.12273   -10931.266    -9732.648   -10931.266            0    5836.8682    46.373966    20.085689    20.753736            0            0            0    19331.131    8349.6722    4289.1105     4871.822    378.73316    1204.5122    449.58229    46.373966    20.085689    20.753736           90           90           90 
  138500    261.57294   -10919.866   -9741.7407   -10919.866            0    7245.9417    46.527672    20.001847    20.625839            0            0            0    19195.218    6861.8728    6904.2191    7971.7331     34.13581   -396.54666    160.43678    46.527672    20.001847    20.625839           90           90           90 
  139000    261.88337   -10976.648   -9797.1238   -10976.648            0    7171.1957    46.739934    19.938537    20.583717            0            0            0    19182.499    5984.0735     7878.106    7651.4075   -186.93619    172.50724   -288.39165    46.739934    19.938537    20.583717           90           90           90 
  139500    268.12309   -10913.075   -9705.4473   -10913.075            0    6815.5662    46.360069     19.94127    20.716041            0            0            0    19151.537    6384.6123    6944.9534    7117.1331    182.88532   -535.14181    53.212206    46.360069     19.94127    20.716041           90           90           90 
  140000    266.40057   -10925.765   -9725.8958   -10925.765            0    6925.5465    46.688464    19.917679    20.649286            0            0            0    19202.305    7066.5601    6985.6381    6724.4412   -750.02426   -131.00718   -466.06485    46.688464    19.917679    20.649286           90           90           90 
  140500    264.62209   -10874.786   -9682.9274   -10874.786            0    5526.5842    46.765246    19.996301    20.665197            0            0            0    19324.685    4778.6825    5815.9502    5985.1199   -25.639153   -109.98425    694.07097    46.765246    19.996301    20.665197           90           90           90 
  141000    262.87271   -10933.687    -9749.707   -10933.687            0    5227.8396    46.663067    19.848987    20.722123            0            0            0    19193.134    5966.2342     5042.507    4674.7777   -360.49386   -415.95219   -102.80261    46.663067    19.848987    20.722123           90           90           90 
  141500    259.74891   -10913.982   -9744.0715   -10913.982            0    5819.9853    46.413473    20.115845     20.64725            0            0            0    19277.227    6139.3438    5369.3321    5951.2801    326.14923    597.85995    358.56182    46.413473    20.115845     20.64725           90           90           90 
  142000    265.36943   -10913.023   -9717.7981   -10913.023            0    6321.2708    46.878098    19.921764    20.580361            0            0            0    19219.884    5061.4135    7177.8539    6724.5451   -102.85406   -68.429925    57.835751    46.878098    19.921764    20.580361           90           90           90 
  142500    271.27876   -10895.621   -9673.7799   -10895.621            0    7942.2691    46.503335     19.86546    20.786106            0            0            0    19202.415    7547.5997    8115.2709    8163.9368   -94.212659    487.63622    -161.9934    46.503335     19.86546    20.786106           90           90           90 
  143000    265.99639   -10948.442   -9750.3936   -10948.442            0    6252.9617    46.558711    20.110603    20.583502            0            0            0    19272.822    5995.3751    5389.2301    7374.2798   -86.772788    506.91712   -108.25393    46.558711    20.110603    20.583502           90           90           90 
  143500    261.16524   -10897.205   -9720.9153   -10897.205            0    6099.5065    46.787099    19.994161      20.6508            0            0            0    19318.179    6779.5542    5627.6499    5891.3153    335.33291    227.71243    327.82577    46.787099    19.994161      20.6508           90           90           90 
  144000     261.4481   -10899.335   -9721.7718   -10899.335            0       5992.8    46.100714     19.93794    20.819895            0            0            0    19136.675    7395.3456    5020.1837    5562.8707    352.53139   -471.80288     661.7581    46.100714     19.93794    20.819895           90           90           90 
  144500    268.16389   -10949.455   -9741.6438   -10949.455            0    5136.2889     46.83917    19.954284       20.592            0            0            0     19246.15    5916.0429    4524.6511    4968.1727    48.345205   -310.23734    657.92361     46.83917    19.954284       20.592           90           90           90 
  145000    263.11407   -10973.922   -9788.8551   -10973.922            0    4761.5733     46.65445    19.965709    20.760603            0            0            0    19338.277    5753.8643    4622.7998    3908.0559    454.85259   -131.43979    760.05257     46.65445    19.965709    20.760603           90           90           90 
  145500      262.542   -10950.194   -9767.7034   -10950.194            0    5205.4591    46.774569    19.841171    20.685593            0            0            0    19197.517    4308.9394    6040.3362    5267.1018   -183.44809   -348.50247   -340.61621    46.774569    19.841171    20.685593           90           90           90 
  146000    261.15268   -10939.187   -9762.9542   -10939.187            0    4271.3381    46.733427    19.941556    20.746942            0            0            0    19334.848    4524.1023    4165.6809    4124.2311   -8.4197107   -198.47428   -200.89799    46.733427    19.941556    20.746942           90           90           90 
  146500    266.65148   -10947.449   -9746.4498   -10947.449            0     5804.142    46.193324     20.18742    20.694626            0            0            0    19298.236    7261.4489    5059.2315    5091.7457    27.505295    -248.1709    912.21953    46.193324     20.18742    20.694626           90           90           90 
  147000     265.9449   -10921.763   -9723.9462   -10921.763            0    6021.9327    46.663452    20.002664    20.663487            0            0            0    19287.161     5650.335    5998.0197    6417.4434    297.14719   -71.595008   -17.206063    46.663452    20.002664    20.663487           90           90           90 
  147500     272.8525   -10914.329   -9685.4003   -10914.329            0    6256.0567    46.771713    19.847489    20.728409            0            0            0    19242.204     5290.802    7243.0057    6234.3625    -314.9716   -994.35271    -935.3716    46.771713    19.847489    20.728409           90           90           90 
  148000    258.75895   -10929.071   -9763.6193   -10929.071            0    5028.0346    46.698485    19.935388    20.677459            0            0            0    19249.731    4984.8457    5174.4292    4924.8289    804.18941    68.633377    547.09398    46.698485    19.935388    20.677459           90           90           90 
  148500    267.69202   -10904.322   -9698.6358   -10904.322            0    4824.8556    46.862996    20.021866     20.62473            0            0            0    19351.867    5111.4668     4088.308     5274.792    49.587164     543.3001    131.02879    46.862996    20.021866     20.62473           90           90           90 
  149000    278.12779   -10922.959   -9670.2708   -10922.959            0     5949.108    46.231896    20.133416    20.643413            0            0            0    19215.013    6296.5989     5946.192    5604.5331   -127.11583    205.12664    580.32672    46.231896    20.133416    20.643413           90           90           90 
  149500    263.53002   -10905.547   -9718.6063   -10905.547            0    5881.6561    46.543321      19.9484     20.77459            0            0            0    19288.475    5567.5301    7201.0523    4876.3858    6.5928157    490.15109    93.355024    46.543321      19.9484     20.77459           90           90           90 
  150000    252.42672   -10910.065   -9773.1343   -10910.065            0    5046.7882    46.942267    19.949932    20.652464            0            0            0    19340.931    4231.9678    5315.0453    5593.3516    147.77645    -166.5439    456.86507    46.942267    19.949932    20.652464           90           90           90 
  150500    269.45932   -10931.439   -9717.7928   -10931.439            0     6694.614    46.741565    19.976315    20.573566            0            0            0    19210.037    7720.9954    6018.4963    6344.3504    27.329119   -1315.4766    691.91298    46.741565    19.976315    20.573566           90           90           90 
  151000    257.30356   -10925.285   -9766.3887   -10925.285            0     4879.516    46.454437    19.883771    20.840156            0            0            0     19249.83    5084.7818    5765.0648    3788.7015    243.36157   -575.89491    40.098258    46.454437    19.883771    20.840156           90           90           90 
  151500    266.78421   -10922.893   -9721.2955   -10922.893            0    5728.5864    46.920775     20.03556    20.490844            0            0            0    19263.114    5844.8058    4550.0372    6790.9163   -348.10158    13.101555   -49.040233    46.920775     20.03556    20.490844           90           90           90 
  152000     261.6458   -10952.917   -9774.4628   -10952.917            0     5602.617     46.66945    19.811139    20.787922            0            0            0    19219.992    6541.5819    4971.2048    5295.0642   -226.98927    188.60039   -263.71186     46.66945    19.811139    20.787922           90           90           90 
  152500    265.32985   -10971.215   -9776.1678   -10971.215            0    5531.1164    46.664307    19.965765    20.680158            0            0            0    19267.467    6266.2083    4626.7817    5700.3591   -106.38578    1391.8255   -113.33614    46.664307    19.965765    20.680158           90           90           90 
  153000    257.19134   -10913.868   -9755.4767   -10913.868            0    7432.1035    46.567908    19.981124    20.595445            0            0            0    19163.632    6385.2072    8262.2767    7648.8265   -395.13319   -346.57574    143.95316    46.567908    19.981124    20.595445           90           90           90 
  153500    261.40946   -10937.083    -9759.694   -10937.083            0    5849.5183    46.506447    19.928808    20.769497            0            0            0    19249.545    6093.1668    5314.9984    6140.3897   -291.21148   -439.41867    540.77987    46.506447    19.928808    20.769497           90           90           90 
  154000    270.15076    -10914.64   -9697.8795    -10914.64            0     6335.399    46.646015    20.028151    20.615683            0            0            0     19259.86    6690.8356     5209.541    7105.8203    258.80427   -82.211339    181.06836    46.646015    20.028151    20.615683           90           90           90 
  154500    260.07113   -10960.634   -9789.2727   -10960.634            0    5736.0485    46.803213    19.838603    20.700497            0            0            0    19220.626    5735.8773     5753.374    5718.8941   -440.76178   -820.73453   -588.06838    46.803213    19.838603    20.700497           90           90           90 
  155000      271.656   -10928.327    -9704.787   -10928.327            0     5613.588    46.462727    19.999625    20.775484            0            0            0     19305.35    6151.4333    5117.2709    5572.0599   -166.82862   -959.08619    936.27092    46.462727    19.999625    20.775484           90           90           90 
  155500    267.08201   -10922.155   -9719.2167   -10922.155            0    6131.5838    46.472807     20.05484    20.603323            0            0            0    19202.394    5724.6796    6788.2075    5881.8644   -474.20771   -816.53307   -365.23588    46.472807     20.05484    20.603323           90           90           90 
  156000    261.85777   -10974.614   -9795.2057   -10974.614            0    6901.1541    46.689958    19.788829    20.751098            0            0            0    19172.761    6346.0692    8017.6961     6339.697    135.30153   -194.30546   -64.471681    46.689958    19.788829    20.751098           90           90           90 
  156500    256.69335   -10952.025   -9795.8776   -10952.025            0    5689.8961    46.639603    19.937705    20.643983            0            0            0    19196.565    6097.8541    5736.7711    5235.0631    990.71879    652.77633    230.80415    46.639603    19.937705    20.643983           90           90           90 
  157000    257.05582   -10960.631   -9802.8506   -10960.631            0    5614.7607    46.734124    19.952408    20.683255            0            0            0    19286.273    6285.1875    5009.4764    5549.6183   -174.21193   -821.04655    268.85893    46.734124    19.952408    20.683255           90           90           90 
  157500    264.20357   -10951.082   -9761.1081   -10951.082            0    6038.4556    46.288233    20.050076    20.723901            0            0            0    19233.491    7370.3714    5685.3067    5059.6888     354.6828    537.32535    450.81722    46.288233    20.050076    20.723901           90           90           90 
  158000    246.01902   -10875.003    -9766.932   -10875.003            0    4453.7525    46.524704    20.147651    20.645131            0            0            0    19351.992    4510.8188    3414.7071    5435.7317    339.18219    1658.0206     599.1025    46.524704    20.147651    20.645131           90           90           90 
  158500    269.25097   -10931.436   -9718.7282   -10931.436            0    5174.4332    46.730007    19.938555    20.727707            0            0            0    19312.602    5403.0753    5182.3115    4937.9129    341.25125   -991.06375     382.1018    46.730007    19.938555    20.727707           90           90           90 
  159000    268.60835   -10890.536   -9680.7227   -10890.536            0    5702.6251    46.803237    19.948974     20.59008            0            0            0    19224.475    5217.7574    5353.6771    6536.4408    -820.7367   -136.84848   -36.287666    46.803237    19.948974     20.59008           90           90           90 
  159500     267.2832   -10924.679   -9720.8344   -10924.679            0     7456.077     46.71584    19.814874    20.684491            0            0            0    19146.981    6675.1536    8134.2955    7558.7819    239.80211   -1027.2644   -196.49869     46.71584    19.814874    20.684491           90           90           90 
  160000     262.7343   -10918.618   -9735.2619   -10918.618            0    5325.0013    46.593357    20.080911    20.761008            0            0            0    19424.769    5170.8471    4724.1456    6080.0112    694.95002   -546.56009    -296.2373    46.593357    20.080911    20.761008           90           90           90 
  160500    274.85445   -10876.809   -9638.8633   -10876.809            0    5955.0675    46.435407    20.058776    20.530895            0            0            0    19123.245    7083.4249    4263.3129    6518.4649     589.1227   -676.41793     586.1567    46.435407    20.058776    20.530895           90           90           90 
  161000    266.44627   -10992.382   -9792.3071   -10992.382            0    6674.3766    46.374375    20.000361    20.711893            0            0            0    19210.368    7585.1753    6007.1348    6430.8198   -331.14834    14.124978    884.45084    46.374375    20.000361    20.711893           90           90           90 
  161500    263.77673   -10897.827   -9709.7752   -10897.827            0    5187.2944    46.883083    19.881054    20.708227            0            0            0     19301.83    4519.6827    5972.2718    5069.9287   -193.69449   -201.51733    419.26935    46.883083    19.881054    20.708227           90           90           90 
  162000    252.37843   -10934.493   -9797.7797   -10934.493            0    5900.6675    46.773071    19.891381    20.670102            0            0            0     19231.07    4812.2912    7224.7257    5664.9855   -572.15311    109.75942   -872.90889    46.773071    19.891381    20.670102           90           90           90 
  162500    259.44222   -10929.532   -9761.0033   -10929.532            0    5478.0777     46.67243    20.061191    20.630294            0            0            0    19316.238    4665.3667    6086.7604    5682.1059   -145.97106   -758.23554   -191.94317     46.67243    20.061191    20.630294           90           90           90 
  163000    267.44174   -10976.359   -9771.8002   -10976.359            0    6121.7945    46.216779    20.057225    20.671848            0            0            0    19162.397    6066.4488    6131.0911    6167.8434    197.73539    -784.7815    5.4921971    46.216779    20.057225    20.671848           90           90           90 
  163500      254.545   -10915.764   -9769.2921   -10915.764            0    4894.4059     46.97904    19.897469    20.649902            0            0            0    19302.784    4518.2014    5141.7357    5023.2806   -420.62982     28.65133    318.77119     46.97904    19.897469    20.649902           90           90           90 
  164000     259.6905   -10887.938   -9718.2906   -10887.938            0    7666.9068    46.347791    19.938974    20.554171            0            0            0    18994.673    6900.1362    8802.7374    7297.8468    406.80376    195.73061    516.23194    46.347791    19.938974    20.554171           90           90           90 
  164500    273.77998   -10878.494   -9645.3881   -10878.494            0    6220.4235    46.529758    19.965397    20.707111            0            0            0    19236.597    5734.9198    6258.0684    6668.2823   -241.83526     512.8571     644.7972    46.529758    19.965397    20.707111           90           90           90 
  165000    265.75775   -10895.808   -9698.8337   -10895.808            0    6166.3417    46.431626    20.011887    20.707119            0            0            0    19240.733    7558.6506    5555.6218    5384.7529   -94.503122    686.50353    325.45072    46.431626    20.011887    20.707119           90           90           90 
  165500    270.24633   -10947.701   -9730.5106   -10947.701            0    6989.2194    46.421672    19.924143    20.616825            0            0            0    19068.749    7004.4333    6989.7119     6973.513    -549.2453    414.34746   -225.25268    46.421672    19.924143    20.616825           90           90           90 
  166000    264.52675    -10912.64   -9721.2108    -10912.64            0    5501.5777    46.884946    20.033824    20.643406            0            0            0    19390.037    5756.7793    5302.8542    5445.0995    767.23039   -345.98172    696.16666    46.884946    20.033824    20.643406           90           90           90 
  166500    250.88279   -10946.337   -9816.3599   -10946.337            0    6220.2537    46.101474    20.019119    20.807586            0            0            0    19203.549    6576.5514    5857.1238     6227.086   -542.34396   -1033.7244   -539.19919    46.101474    20.019119    20.807586           90           90           90 
  167000    263.74001   -10983.651   -9795.7651   -10983.651            0    5415.7597     46.64407    19.941432    20.634299            0            0            0    19192.984    4392.5314      5727.43    6127.3177    151.48729    140.68206   -511.88725     46.64407    19.941432    20.634299           90           90           90 
  167500    267.49203   -10972.646   -9767.8604   -10972.646            0    6465.8127    46.892752    19.877955     20.66839            0            0            0    19265.668    6372.4645    5862.6298    7162.3438     223.1723    -296.6039    907.15502    46.892752    19.877955     20.66839           90           90           90 
  168000    271.12584   -10908.664   -9687.5125   -10908.664            0    5289.7634    46.597679    20.018219     20.66226            0            0            0    19273.808    6209.2446     4431.109    5228.9364   -58.071773   -1119.2886     93.82285    46.597679    20.018219     20.66226           90           90           90 
  168500    264.45049   -10880.477    -9689.391   -10880.477            0    7425.8612    46.118807     20.01324    20.640218            0            0            0    19050.648    6862.4968    8205.5142    7209.5726    69.195507    81.803254    -317.7858    46.118807     20.01324    20.640218           90           90           90 
  169000    264.72882   -10945.965   -9753.6251   -10945.965            0     5562.618    46.611708    19.934351    20.777203            0            0            0     19305.64    6792.8833    5021.9972    4872.9735    33.597768   -21.465094    909.58359    46.611708    19.934351    20.777203           90           90           90 
  169500    266.74718   -10927.954   -9726.5236   -10927.954            0    4849.0599    46.918139     19.97057     20.63686            0            0            0    19336.366    3474.1135    4996.3988    6076.6673   -439.18238   -289.41301    247.81461    46.918139     19.97057     20.63686           90           90           90 
  170000    260.28033   -10927.066   -9754.7623   -10927.066            0    7486.7565    46.511709    19.937018    20.638579            0            0            0    19138.253    6581.7471    7627.5945     8250.928   -306.95313    409.22867   -173.27535    46.511709    19.937018    20.638579           90           90           90 
  170500    256.24434    -10979.48   -9825.3546    -10979.48            0    6380.2247    46.514466    19.954524    20.643228            0            0            0    19160.508    7200.4005    6433.0915    5507.1822    132.40924    375.93091    205.56157    46.514466    19.954524    20.643228           90           90           90 
  171000    262.14149   -10918.285    -9737.599   -10918.285            0    7534.4956    46.400744    19.894131    20.633526            0            0            0    19046.859    7293.7337    7701.2267    7608.5263    120.66101   -262.09839    803.70352    46.400744    19.894131    20.633526           90           90           90 
  171500    264.36799   -10921.786   -9731.0717   -10921.786            0    5863.7486     46.94597    19.887266    20.583919            0            0            0    19217.702    4248.2302    7605.5986     5737.417   -357.31107    -955.5079    254.94162     46.94597    19.887266    20.583919           90           90           90 
  172000    274.62577   -10921.701   -9684.7851   -10921.701            0    6691.4267    46.465657    19.980178    20.691743            0            0            0    19210.051    6808.6045    7256.9544    6008.7213   -278.04194    180.97259    355.21092    46.465657    19.980178    20.691743           90           90           90 
  172500    267.53906    -10878.97    -9673.973    -10878.97            0    6545.9945    46.410115    20.032102    20.666036            0            0            0    19213.052    7275.0504    5993.0892     6369.844    -346.6243   -142.93924   -336.81925    46.410115    20.032102    20.666036           90           90           90 
  173000    268.22799    -10938.58   -9730.4799    -10938.58            0    5680.6453    46.789967    19.869291    20.694099            0            0            0    19238.962    6426.6293    5642.0098    4973.2967    459.40788    38.699012    441.58742    46.789967    19.869291    20.694099           90           90           90 
  173500    264.29651    -10925.02   -9734.6278    -10925.02            0     6387.498     46.94299    19.805755    20.719972            0            0            0    19264.215    4709.0163    8411.2923    6042.1854    385.91559    329.84362   -755.01507     46.94299    19.805755    20.719972           90           90           90 
  174000    261.04589   -10981.392   -9805.6402   -10981.392            0    5592.3483    46.604843    20.067625    20.532189            0            0            0    19202.699    4566.0654    6499.4579    5711.5215   -259.16771   -588.69975   -216.26367    46.604843    20.067625    20.532189           90           90           90 
  174500    266.03801   -10919.979   -9721.7431   -10919.979            0    4950.3208    46.329424    20.000766    20.827106            0            0            0    19298.896    6414.9725    3921.7244    4514.2654    213.21842    930.07068      408.406    46.329424    20.000766    20.827106           90           90           90 
  175000    263.49912   -10939.553   -9752.7518   -10939.553            0    5128.6554    46.404425    20.053068    20.718527            0            0            0    19279.647    6257.4137    4010.1921    5118.3605    248.66949    5.1701455   -288.71606    46.404425    20.053068    20.718527           90           90           90 
  175500    261.45857   -10932.858   -9755.2478   -10932.858            0    6217.3855    46.592547    19.947381    20.616892            0            0            0    19161.324     6232.023     6552.252    5867.8815   -140.44112   -1090.1374   -4.6276171    46.592547    19.947381    20.616892           90           90           90 
  176000    260.95688   -10940.055   -9764.7044   -10940.055            0     6279.644    46.549502    19.914379    20.692067            0            0            0    19181.638    6753.6541    6012.2063    6073.0717   -209.24508    595.17348    592.64974    46.549502    19.914379    20.692067           90           90           90 
  176500    271.42051   -10907.189   -9684.7095   -10907.189            0    7521.6705     46.57927    20.040909    20.593111            0            0            0    19223.483    8439.5257      6480.32    7645.1657   -284.74026   -567.23901   -347.39909     46.57927    20.040909    20.593111           90           90           90 
  177000    262.53407   -10938.597   -9756.1422   -10938.597            0     6577.495    46.645862     20.04203    20.630389            0            0            0    19286.892    5998.9114    6711.8147     7021.759    162.54833    640.54349   -153.77611    46.645862     20.04203    20.630389           90           90           90 
  177500    268.47027   -10970.248   -9761.0564   -10970.248            0    6482.7975    46.741435    19.808005    20.784578            0            0            0    19243.497    5889.6556    7695.2637    5863.4733    178.08923    689.56601   -515.68423    46.741435    19.808005    20.784578           90           90           90 
  178000    262.82286   -10893.349   -9709.5935   -10893.349            0     6656.292    46.398958    19.986582     20.60823            0            0            0    19111.177    7547.6767    5667.7464     6753.453    286.30058    -874.3646    -546.0395    46.398958    19.986582     20.60823           90           90           90 
  178500    257.20484   -10959.608   -9801.1565   -10959.608            0    6833.2335    46.591299     19.92766    20.685821            0            0            0    19205.866    7112.1942    6595.5223     6791.984   -222.76985   -435.57261    546.05384    46.591299     19.92766    20.685821           90           90           90 
  179000     262.1153   -10969.669   -9789.1009   -10969.669            0    6547.5387    46.597626    19.935856    20.701207            0            0            0    19230.667    6820.0179    6574.0536    6248.5446   -585.49164   -212.04164    495.75181    46.597626    19.935856    20.701207           90           90           90 
  179500    264.80468   -10875.032   -9682.3509   -10875.032            0    6226.7195    46.361059    20.102864    20.699091            0            0            0    19291.347    6108.3476    5706.6953    6865.1155   -146.03994    -552.8928    94.050271    46.361059    20.102864    20.699091           90           90           90 
  180000    253.12938   -10901.699   -9761.6032   -10901.699            0    5324.0169    46.717103    19.944229    20.646819            0            0            0    19237.397    7305.6314    3814.9012    4851.5182   -143.04491    251.16991    232.13356    46.717103    19.944229    20.646819           90           90           90 
  180500    274.98837   -10923.798   -9685.2496   -10923.798            0    5929.0737    46.744552    19.974687    20.636019            0            0            0    19268.012    5516.7744    5739.9824    6530.4644   -291.34538   -416.19054   -517.16475    46.744552    19.974687    20.636019           90           90           90 
  181000     260.2592   -10916.503    -9744.295   -10916.503            0    6344.4716    46.842816    19.836338     20.73598            0            0            0    19267.663    6417.3658    6910.2352    5705.8138   -331.40302    1037.7904   -503.23061    46.842816    19.836338     20.73598           90           90           90 
  181500    263.52953   -10931.736   -9744.7977   -10931.736            0    7226.6856    46.506453    19.948957    20.570317            0            0            0    19084.219    7008.0974    6682.9588    7989.0008   -130.66824    660.29825   -112.84411    46.506453    19.948957    20.570317           90           90           90 
  182000    262.94483   -10952.283   -9767.9787   -10952.283            0    5591.1375    46.571094     20.05113     20.68053            0            0            0    19311.542     6090.031    5466.0692    5217.3124   -273.30624   -765.66565   -401.02673    46.571094     20.05113     20.68053           90           90           90 
  182500    272.62757   -10960.732    -9732.816   -10960.732            0    6964.4466    46.505625    19.970322    20.552702            0            0            0    19087.959    7638.0905    6584.4586    6670.7907   -113.91626   -666.30858    327.52153    46.505625    19.970322    20.552702           90           90           90 
  183000    257.60991   -10865.361   -9705.0847   -10865.361            0    7271.9563     46.66715    19.943532    20.683545            0            0            0    19250.336    6644.4773    8060.0913    7111.3002     160.6543    86.570455   -530.57468     46.66715    19.943532    20.683545           90           90           90 
  183500    274.70145   -10926.398   -9689.1414   -10926.398            0    5540.0237    46.888764    19.980553     20.63902            0            0            0    19335.943    4916.3202    6581.8937    5121.8571   -468.43495    723.83236    1041.8146    46.888764    19.980553     20.63902           90           90           90 
  184000    260.82207   -10892.803   -9718.0598   -10892.803            0    5285.9282    46.539609    19.965709    20.745787            0            0            0    19276.909    5563.6839    4594.7656    5699.3351   -89.013733    621.47566    88.110736    46.539609    19.965709    20.745787           90           90           90 
  184500    260.41813   -10894.638   -9721.7138   -10894.638            0    4775.9995    46.290721    20.068532    20.748619            0            0            0    19275.193    4673.3954    4631.8896    5022.7135   -243.43699   -323.01038    -187.3978    46.290721    20.068532    20.748619           90           90           90 
  185000    261.16229    -10951.72   -9775.4439    -10951.72            0    6641.4398    46.543207    19.927501    20.597369            0            0            0     19103.85    5733.0128    7572.2018    6619.1047    33.586821    489.32132   -248.27592    46.543207    19.927501    20.597369           90           90           90 
  185500    270.09583   -10926.683   -9710.1705   -10926.683            0    4572.3169    46.914115    19.840099    20.761388            0            0            0    19324.299    4229.1823    5386.4798    4101.2887    142.17045    19.141712   -59.544462    46.914115    19.840099    20.761388           90           90           90 
  186000    271.14534    -10935.16   -9713.9208    -10935.16            0    5562.9588    46.756331    20.043392    20.550386            0            0            0    19258.906     5350.487    5064.1145     6274.275   -450.27814    122.83771   -504.20861    46.756331    20.043392    20.550386           90           90           90 
  186500    260.80804   -10947.106   -9772.4256   -10947.106            0    4481.4303    46.416585    20.041708    20.804836            0            0            0    19354.065    4690.9291     3721.466    5031.8957    192.57685   -810.69439   -540.06997    46.416585    20.041708    20.804836           90           90           90 
  187000     263.7369   -10940.189   -9752.3169   -10940.189            0    6024.8853    46.530637    20.026935     20.57965            0            0            0    19177.477     5949.542    5956.7691    6168.3448    141.32112   -370.50045    1319.3621    46.530637    20.026935     20.57965           90           90           90 
  187500    264.29934   -10943.152   -9752.7465   -10943.152            0    4239.3026    46.844403    19.936313    20.722303            0            0            0    19352.656    3786.5117    4871.6241    4059.7721    -280.0812     143.1333    527.18072    46.844403    19.936313    20.722303           90           90           90 
  188000    276.18798   -10928.515   -9684.5634   -10928.515            0     7621.307    46.162327    20.015151    20.700148            0            0            0    19125.818    6770.5328    8292.5707    7800.8176   -25.568301    -883.1038    360.21281    46.162327    20.015151    20.700148           90           90           90 
  188500    268.47249   -10921.977   -9712.7756   -10921.977            0    5728.0833    46.475763    20.100088    20.634346            0            0            0    19275.924    5087.6173    5583.2641    6513.3687   -256.12388   -252.78777    48.064441    46.475763    20.100088    20.634346           90           90           90 
  189000    263.22552   -10954.667   -9769.0979   -10954.667            0    5919.8357     46.75114    19.909969    20.674612            0            0            0    19244.213    5004.6736    6645.0936      6109.74   -31.159643    216.27734    86.414744     46.75114    19.909969    20.674612           90           90           90 
  189500    265.95509   -10953.601   -9755.7386   -10953.601            0    5878.0139    46.125218    20.032435    20.792924            0            0            0     19212.67     5731.439    6371.4052    5531.1977   -361.92962   -120.47467    229.81907    46.125218    20.032435    20.792924           90           90           90 
  190000    265.68673   -10881.069   -9684.4149   -10881.069            0    6149.6869    46.722418    20.012353    20.582935            0            0            0     19245.57    5656.1843    5799.2748    6993.6017   -57.857892    36.841503    115.27553    46.722418    20.012353    20.582935           90           90           90 
  190500    266.31785   -10891.704   -9692.2074   -10891.704            0    6795.8354    46.215799    19.971224    20.785294            0            0            0    19184.537    7296.9407    7253.2674    5837.2981   -378.01604    703.50693   -684.26171    46.215799    19.971224    20.785294           90           90           90 
  191000    261.49752   -10913.942    -9736.156   -10913.942            0    5234.9556    46.681744    20.027788     20.63589            0            0            0    19293.156    4934.6196     4789.405    5980.8423    481.01766    568.90649    603.98217    46.681744    20.027788     20.63589           90           90           90 
  191500     271.3877   -10933.503   -9711.1719   -10933.503            0    6315.0591    46.463606    20.107338    20.558155            0            0            0     19206.65    5661.0152    6517.3728    6766.7891   -595.96627    104.37367    455.62238    46.463606    20.107338    20.558155           90           90           90 
  192000    256.67541   -10963.959   -9807.8924   -10963.959            0    5719.4919    46.447133      19.7697    20.881804            0            0            0    19174.631    5486.7682    7032.0082    4639.6993   -527.07614   -134.15054   -12.822649    46.447133      19.7697    20.881804           90           90           90 
  192500    273.06725   -10947.957   -9718.0606   -10947.957            0     5905.733    46.837292    20.025595    20.576136            0            0            0    19299.276    5161.7389     7463.037    5092.4229    92.819023   -179.66837    145.83738    46.837292    20.025595    20.576136           90           90           90 
  193000    258.85878   -10887.057   -9721.1563   -10887.057            0    6119.9465    46.410939    20.069826    20.584351            0            0            0    19173.489    5111.5871    7148.0442    6100.2084    273.26599    573.43195    408.70447    46.410939    20.069826    20.584351           90           90           90 
  193500    258.46922   -10943.127   -9778.9807   -10943.127            0    6661.0636    46.620363    19.777889    20.843757            0            0            0    19219.035    5778.0756    7980.6016    6224.5136     313.4597    178.05055   -414.10584    46.620363    19.777889    20.843757           90           90           90 
  194000    261.43892   -10890.892   -9713.3704   -10890.892            0    6093.8065    46.827819     19.98745    20.590966            0            0            0    19272.499    7147.7675     5489.871    5643.7808    297.75188   -32.044502    664.49425    46.827819     19.98745    20.590966           90           90           90 
  194500    270.66287   -10902.161   -9683.0943   -10902.161            0    6360.5162    46.592804    20.020588    20.647386            0            0            0    19260.197    6443.3419    6431.8509     6206.356    527.72624   -403.20906   -530.94056    46.592804    20.020588    20.647386           90           90           90 
  195000    260.59397   -10910.957   -9737.2411   -10910.957            0    5042.1321     46.19585    20.059801     20.81954            0            0            0    19293.042    5611.6949     4600.583    4914.1184   -166.70178    163.60364   -503.38942     46.19585    20.059801     20.81954           90           90           90 
  195500    269.15754   -10887.234    -9674.947   -10887.234            0    5349.1675    46.780583    20.035663    20.629867            0            0            0    19335.961    3851.3238     7070.543    5125.6358    758.13845   -252.26478   -135.42216    46.780583    20.035663    20.629867           90           90           90 
  196000    280.17119   -10972.609   -9710.7166   -10972.609            0    4685.6343    46.983086    19.774831    20.724124            0            0            0    19254.424    4506.5828    5244.3096    4306.0105   -127.17127   -402.80329   -119.88867    46.983086    19.774831    20.724124           90           90           90 
  196500    264.17814   -10897.023   -9707.1634   -10897.023            0    5669.2184    46.564424     20.01071    20.704096            0            0            0    19291.812    4597.7668    6298.5849    6111.3035   -245.99152    399.09409    281.47429    46.564424     20.01071    20.704096           90           90           90 
  197000    275.21958   -10926.973   -9687.3827   -10926.973            0    6483.1362    46.824061    19.967989    20.578218            0            0            0     19240.27    7263.4027    5049.3649    7136.6411   -122.90231    154.31858    -901.5148    46.824061    19.967989    20.578218           90           90           90 
  197500    265.30079   -10951.931   -9757.0149   -10951.931            0    6469.8999    46.656938    19.817767    20.826191            0            0            0    19256.653    6522.0134    6569.6069    6318.0795    568.81924   -34.444638   -1332.3254    46.656938    19.817767    20.826191           90           90           90 
  198000    256.36455   -10883.269   -9728.6019   -10883.269            0    4885.7948      46.5359    20.108482    20.589245            0            0            0    19266.722    4823.8063    4199.0176    5634.5603   -197.47389   -402.57042    185.66459      46.5359    20.108482    20.589245           90           90           90 
  198500    261.17485   -10917.244   -9740.9115   -10917.244            0    6206.1033    46.610908     19.98029    20.599954            0            0            0    19184.726    7775.6128    4897.6814    5945.0157   -127.80423    302.10255    174.77709    46.610908     19.98029    20.599954           90           90           90 
  199000    266.86036   -10923.016   -9721.0755   -10923.016            0    5581.9422    46.770339    19.935921    20.781682            0            0            0    19377.043    5295.3388    5624.9361    5825.5517    33.735879    776.43524    95.609871    46.770339    19.935921    20.781682           90           90           90 
  199500    258.60943   -10856.795   -9692.0168   -10856.795            0     6689.276     46.72784    19.940761    20.640332            0            0            0    19232.428    7483.5276    7208.3697    5375.9306   -148.44697     175.0339    982.83659     46.72784    19.940761    20.640332           90           90           90 
  200000    264.59765   -10925.026    -9733.277   -10925.026            0    6601.3193    46.170433    20.109049    20.636917            0            0            0    19160.211    7470.6328    5557.0694    6776.2558    124.74364   -240.06698    306.93952    46.170433    20.109049    20.636917           90           90           90 
  200500    263.43524   -10971.733   -9785.2196   -10971.733            0    6292.3339    46.601655    19.924681    20.645454            0            0            0    19169.781    7924.2815    4876.2813     6076.439    256.04807    28.207795    1166.1545    46.601655    19.924681    20.645454           90           90           90 
  201000    262.15642   -10883.302   -9702.5489   -10883.302            0    5449.7986    47.082713    19.883788    20.662828            0            0            0    19344.182    4605.6379    5729.5566    6014.2011    51.891471   -1060.3051     -57.7299    47.082713    19.883788    20.662828           90           90           90 
  201500     265.6601   -10930.983   -9734.4489   -10930.983            0    5916.6735    46.595433    19.929792    20.773036            0            0            0    19290.616    5716.7695     6811.224     5222.027   -290.20122   -152.46364    227.61828    46.595433    19.929792    20.773036           90           90           90 
  202000    258.12737   -10887.211    -9724.604   -10887.211            0    5546.2758    46.478889    20.043904    20.577218            0            0            0    19170.115    5832.3821    4912.7754      5893.67    5.9376525   -18.589313    304.19479    46.478889    20.043904    20.577218           90           90           90 
  202500    254.94315    -10919.03   -9770.7646    -10919.03            0    5051.3502    46.770107    19.951693    20.689432            0            0            0    19306.195    7080.7883    3500.7251    4572.5371    25.458128    674.55044   -370.18281    46.770107    19.951693    20.689432           90           90           90 
  203000    255.03043   -10940.402    -9791.744   -10940.402            0    5475.0274    46.442989    19.905997    20.814199            0            0            0    19242.602    5395.2598    6122.9281    4906.8943    798.04993     405.0897    264.98237    46.442989    19.905997    20.814199           90           90           90 
  203500    271.09273    -10952.24   -9731.2369    -10952.24            0    6341.2379     46.60844    20.081233    20.599632            0            0            0    19280.328    7111.7825    5817.0463     6094.885    331.44418    683.83943     805.7568     46.60844    20.081233    20.599632           90           90           90 
  204000    263.09064    -10908.29   -9723.3286    -10908.29            0    6100.8641    46.596072    19.853247    20.789272            0            0            0    19231.809    6506.7961     6033.447    5762.3491    -53.75061   -1152.3059     137.6511    46.596072    19.853247    20.789272           90           90           90 
  204500    265.24957   -10958.044   -9763.3588   -10958.044            0    5655.5468    46.820072    20.112214    20.464828            0            0            0    19270.814    5263.0634    5409.8313    6293.7458    67.949227   -270.39065    46.930476    46.820072    20.112214    20.464828           90           90           90 
  205000     263.6007    -10948.82    -9761.561    -10948.82            0    6477.1678    46.472048    20.013078    20.627942            0            0            0     19184.99    7923.9661    5275.9462     6231.591   -205.29116   -466.47982    332.81532    46.472048    20.013078    20.627942           90           90           90 
  205500    269.07549   -10901.735   -9689.8183   -10901.735            0    6297.4409    46.290124    20.017206    20.741708            0            0            0    19219.244    6969.3166    5903.9616    6019.0444    264.64594    262.25258   -368.41297    46.290124    20.017206    20.741708           90           90           90 
  206000    266.73035   -10974.784   -9773.4298   -10974.784            0    6164.5879     46.63166      20.1133     20.54685            0            0            0    19271.231    5857.9083    6166.9803    6468.8752   -249.92999   -1353.2726     1284.245     46.63166      20.1133     20.54685           90           90           90 
  206500    271.72086   -10919.871   -9696.0393   -10919.871            0     5176.914    46.782476    19.895136    20.833482            0            0            0    19390.632    5767.1611    4383.7966    5379.7842   -257.17654    807.55359    208.77639    46.782476    19.895136    20.833482           90           90           90 
  207000    266.52387   -10907.438   -9707.0136   -10907.438            0    7618.9341    46.593312    19.819981    20.650434            0            0            0    19070.233    6277.0043    8313.7856    8266.0123   -368.20306   -309.77428   -661.47862    46.593312    19.819981    20.650434           90           90           90 
  207500     265.6923   -10931.966   -9735.2866   -10931.966            0    6273.3501    46.666554    20.108522    20.521311            0            0            0    19257.105    5987.0156    5837.3727     6995.662   -146.47114     468.4732    869.41818    46.666554    20.108522    20.521311           90           90           90 
  208000    271.27743   -10949.141   -9727.3065   -10949.141            0    5633.7534     46.61673    19.834339    20.773199            0            0            0    19207.149     5561.364    5778.9488    5560.9474    -97.13046    344.94636    501.08501     46.61673    19.834339    20.773199           90           90           90 
  208500    264.09154   -10905.334   -9715.8645   -10905.334            0    6715.0496    46.637067    19.997836    20.532624            0            0            0    19149.555    6646.4385    6381.5343    7117.1761   -372.50137   -552.04948    345.75092    46.637067    19.997836    20.532624           90           90           90 
  209000    272.29666   -10904.309   -9677.8842   -10904.309            0    5532.6266     46.67728    20.047457    20.793103            0            0            0     19457.37    5466.4384     5534.772    5596.6693   -303.05808    1546.9553   -93.675407     46.67728    20.047457    20.793103           90           90           90 
  209500    271.84721    -10923.49   -9699.0893    -10923.49            0    6310.7833    46.437516    19.957572    20.673421            0            0            0    19159.715    5903.1926    6765.7592    6263.3981   -270.24146    691.74539    362.59728    46.437516    19.957572    20.673421           90           90           90 
  210000    258.70338   -10913.705   -9748.5039   -10913.705            0     5269.042      46.8505    19.952479    20.632512            0            0            0    19286.934    4667.6684    5198.5802    5940.8775   -594.81257   -725.81602    1639.9905      46.8505    19.952479    20.632512           90           90           90 
  210500    267.81162   -10916.674   -9710.4493   -10916.674            0    6855.8039    46.385241    19.898077    20.684266            0            0            0    19091.104    7485.2465    7620.6058    5461.5594    135.30243   -270.33682   -564.15765    46.385241    19.898077    20.684266           90           90           90 
  211000    262.00299   -10905.577   -9725.5143   -10905.577            0    5912.1169     46.65516    20.040322     20.68126            0            0            0    19336.656    4817.1702     7301.066    5618.1146   -111.57139   -1084.9231     336.6128     46.65516    20.040322     20.68126           90           90           90 
  211500    262.11806   -10971.481   -9790.9001   -10971.481            0    6244.0687    46.651657    19.928221     20.60012            0            0            0    19151.613     6145.287    7274.2689    5312.6502    286.13831   -764.43323    572.11123    46.651657    19.928221     20.60012           90           90           90 
  212000    260.22348   -10931.295   -9759.2479   -10931.295            0    5301.2621     46.45269    19.845084    20.901684            0            0            0    19268.375     4899.716    6385.5877    4618.4828   -50.269703    57.897307   -1283.3292     46.45269    19.845084    20.901684           90           90           90 
  212500     281.6876   -10940.671   -9671.9492   -10940.671            0    6163.9544    46.663628    20.064649    20.518225            0            0            0    19210.995    6299.2409    5539.6235    6652.9989   -78.782894   -612.27819    1253.2873    46.663628    20.064649    20.518225           90           90           90 
  213000     261.4459   -10973.225   -9795.6721   -10973.225            0    5628.6684      46.5517    19.925801    20.743986            0            0            0    19241.705    4838.0261    6197.8786    5850.1004   -13.898398    428.71492   -234.33825      46.5517    19.925801    20.743986           90           90           90 
  213500    265.27248   -10892.576   -9697.7876   -10892.576            0    6737.8905    46.969135    19.739942    20.648115            0            0            0    19144.271    6576.7803    7549.1345    6087.7566   -64.724246    -143.0717    216.02471    46.969135    19.739942    20.648115           90           90           90 
  214000     267.7279   -10905.618     -9699.77   -10905.618            0    6388.2557    46.527736    19.999892     20.56251            0            0            0    19134.437    6502.4097    5873.9013     6788.456    213.21025    -495.3507   -729.68054    46.527736    19.999892     20.56251           90           90           90 
  214500    266.46066   -10938.576   -9738.4366   -10938.576            0    6682.0976    46.590641    19.883287    20.754448            0            0            0    19226.404    6231.0205    8082.2166    5733.0556   -5.6417615   -210.91623     239.1704    46.590641    19.883287    20.754448           90           90           90 
  215000    261.42641   -10979.629    -9802.163   -10979.629            0    5847.9892    46.268465    20.147217    20.579588            0            0            0    19183.897    7134.8477    3831.8529    6577.2669    -133.6194   -251.18891    1075.7945    46.268465    20.147217    20.579588           90           90           90 
  215500    267.84515   -10907.599   -9701.2238   -10907.599            0    6250.5472    46.589735    19.901251    20.697352            0            0            0    19190.461    6528.5793    6410.6387    5812.4235   -375.19076   -473.27119    406.69024    46.589735    19.901251    20.697352           90           90           90 
  216000    265.13989   -10937.292   -9743.1012   -10937.292            0    5590.3637    46.855713    19.866946    20.728803            0            0            0    19296.026    5291.6643    6452.2775    5027.1494    434.16324   -649.17335    -724.1859    46.855713    19.866946    20.728803           90           90           90 
  216500    272.37016   -10936.148    -9709.392   -10936.148            0    6019.0783    46.729432    20.062876    20.570621            0            0            0    19285.508    6581.1565    5612.1254    5863.9532   -57.679229   -445.41931   -534.32172    46.729432    20.062876    20.570621           90           90           90 
  217000    267.59285   -10908.849   -9703.6093   -10908.849            0    5764.5646    46.236814     20.00896    20.803717            0            0            0     19246.57    5765.8059    6133.5366    5394.3513    17.015378    93.084968    45.739519    46.236814     20.00896    20.803717           90           90           90 
  217500    266.04236   -10953.647   -9755.3911   -10953.647            0    5369.4344    46.672652    20.038169     20.56788            0            0            0    19235.791    4776.8546    4745.9879    6585.4609   -197.39119    321.30125    566.74208    46.672652    20.038169     20.56788           90           90           90 
  218000    259.12194     -10910.4   -9743.3136     -10910.4            0    5659.4925    46.952533    19.896879    20.697917            0            0            0    19336.177    4212.1529    6175.8946    6590.4302    217.45843   -400.37081    503.27516    46.952533    19.896879    20.697917           90           90           90 
  218500    269.85439   -10924.647   -9709.2213   -10924.647            0    5100.8476    46.623612    19.909363    20.722518            0            0            0    19235.603    4899.4667    5085.1516    5317.9246   -268.30005   -92.225749    530.66141    46.623612    19.909363    20.722518           90           90           90 
  219000    271.32766   -10956.866    -9734.805   -10956.866            0    6114.9591     46.36933    20.127497    20.568597            0            0            0    19196.642    7126.1414     3977.716    7241.0199   -558.37592   -328.42115    810.95677     46.36933    20.127497    20.568597           90           90           90 
  219500    259.19548   -10947.366   -9779.9489   -10947.366            0    6167.9574     46.60418    19.859457    20.756604            0            0            0    19210.936    5383.6972    6947.9789     6172.196   -456.21119    146.20334    156.55197     46.60418    19.859457    20.756604           90           90           90 
  220000    265.09586   -10919.504   -9725.5108   -10919.504            0      6268.56    46.923875    19.838255    20.629968            0            0            0    19204.185    5989.9248    6632.1028    6183.6523    83.276872    67.082297   -242.33632    46.923875    19.838255    20.629968           90           90           90 
  220500     260.2669     -10934.3   -9762.0573     -10934.3            0     6034.612    46.459765    20.000471    20.662498            0            0            0    19199.947    5819.1876    5787.0812    6497.5672   -157.11782     107.1225    1222.3826    46.459765    20.000471    20.662498           90           90           90 
  221000    257.26379   -10882.364   -9723.6471   -10882.364            0    5703.8462    46.576889    20.025565    20.627958            0            0            0    19240.284    5570.1789    5905.3173    5636.0426   -298.47616    112.24963   -239.53347    46.576889    20.025565    20.627958           90           90           90 
  221500    258.41314   -10918.489   -9754.5955   -10918.489            0    5435.1344    46.310453    19.972858    20.789169            0            0            0    19228.986    8412.4871    2767.8873    5125.0288    310.86074    -190.3779    881.09611    46.310453    19.972858    20.789169           90           90           90 
  222000    261.10309   -10946.289   -9770.2795   -10946.289            0    7474.5977    46.800658    19.878766    20.573907            0            0            0    19140.716     7162.618    7353.7739    7907.4013    361.45788    335.33198    576.74559    46.800658    19.878766    20.573907           90           90           90 
  222500    266.52556    -10916.81    -9716.378    -10916.81            0    6311.0762    46.767935    19.835041    20.736158            0            0            0    19235.771    6020.1985    7110.7417    5802.2883      221.522    161.49842   -414.48152    46.767935    19.835041    20.736158           90           90           90 
  223000    272.63197   -10924.231   -9696.2959   -10924.231            0     5650.422    46.563447    20.006402    20.676494            0            0            0     19261.54    5794.0301    5510.7046    5646.5315    27.162119   -640.81658     389.2035    46.563447    20.006402    20.676494           90           90           90 
  223500    261.67566   -10873.725   -9695.1372   -10873.725            0    6123.9037    46.902869    19.912525    20.569985            0            0            0    19211.431    4586.2644    7013.3637     6772.083    99.265868    355.26149   -340.59253    46.902869    19.912525    20.569985           90           90           90 
  224000    268.66965   -10932.453   -9722.3635   -10932.453            0    4921.6569    46.768655    19.885456    20.814711            0            0            0    19358.015    3840.7678    5500.4674    5423.7354    274.78179   -36.893228    1169.8053    46.768655    19.885456    20.814711           90           90           90 
  224500    264.10394   -10929.277   -9739.7515   -10929.277            0    5721.5518    46.736642    19.928827    20.675474            0            0            0     19257.27    5493.4275    5830.4775    5840.7503   -429.68491    140.90664    541.76608    46.736642    19.928827    20.675474           90           90           90 
  225000    265.56118   -10895.242   -9699.1535   -10895.242            0    5815.4257    46.672086    20.054023    20.603822            0            0            0    19284.417    6191.6651    5651.0096    5603.6024    477.17102    152.00051    422.42689    46.672086    20.054023    20.603822           90           90           90 
  225500    271.09364   -10938.999   -9717.9927   -10938.999            0    5713.2676    46.048272    19.978489    20.931565            0            0            0    19256.514    6339.3838    5367.9399    5432.4791    167.34186    281.15485    93.653601    46.048272    19.978489    20.931565           90           90           90 
  226000    262.18606   -10957.882   -9776.9949   -10957.882            0    5684.6071    46.853602    19.938911    20.537718            0            0            0    19186.537    5168.1672    5918.9582     5966.696    444.19492    133.59787    985.56066    46.853602    19.938911    20.537718           90           90           90 
  226500    268.91053   -10949.931   -9738.7573   -10949.931            0    5564.2641    46.742073    19.983523    20.632022            0            0            0     19271.78    5799.2289    5371.3652    5522.1982    444.32211   -12.406775   -369.24817    46.742073    19.983523    20.632022           90           90           90 
  227000    267.19508   -10947.291   -9743.8432   -10947.291            0    5177.3609    46.585967    19.935098    20.748921            0            0            0    19269.436    5657.1688    4407.8859    5467.0279    272.67709    135.43574   -513.47367    46.585967    19.935098    20.748921           90           90           90 
  227500    269.26154   -10931.393   -9718.6383   -10931.393            0    5470.8377    46.521195    20.147933    20.494321            0            0            0    19209.448    5147.2401    5180.7823    6084.4908   -257.28471   -827.79645   -30.666535    46.521195    20.147933    20.494321           90           90           90 
  228000     268.4235   -10907.089    -9698.108   -10907.089            0    5572.1262    46.636166    19.875739    20.780185            0            0            0    19261.741    4951.0859    6715.4525    5049.8402    92.281905   -90.011666     125.6737    46.636166    19.875739    20.780185           90           90           90 
  228500    268.02333   -10900.091   -9692.9128   -10900.091            0    6484.7598    46.608388    19.926235    20.600572            0            0            0    19132.362    5260.4966     7185.575    7008.2078   -22.830116   -631.17467    1278.5935    46.608388    19.926235    20.600572           90           90           90 
  229000     263.1924   -10896.513   -9711.0938   -10896.513            0    5273.8512    46.669998    20.076205    20.593063            0            0            0    19294.803    4812.1583    5426.5767    5582.8185   -172.65057   -8.6625884    1056.0926    46.669998    20.076205    20.593063           90           90           90 
  229500    264.63338   -10931.068   -9739.1583   -10931.068            0    5735.2368    46.495736    19.851794    20.846469            0            0            0    19241.787    6496.1815    5798.5543    4910.9746    137.17077   -229.44882    623.77002    46.495736    19.851794    20.846469           90           90           90 
  230000    263.40395   -10971.778   -9785.4053   -10971.778            0    6309.2391    46.677087    20.078796    20.480392            0            0            0    19194.626     6241.511    5858.0281    6828.1781   -38.976989   -438.58646   -596.28297    46.677087    20.078796    20.480392           90           90           90 
  230500    268.05217   -10952.638   -9745.3301   -10952.638            0    6226.7256    46.507515    19.915336    20.743014            0            0            0    19212.445    5795.4471    6844.9107     6039.819   -327.99794    368.95744    244.76808    46.507515    19.915336    20.743014           90           90           90 
  231000    267.55078    -10914.05   -9709.0005    -10914.05            0    5006.9535    46.738506    19.879049    20.754332            0            0            0    19283.203    4403.5361    5461.7847    5155.5396   -261.43027    1078.4455    292.57889    46.738506    19.879049    20.754332           90           90           90 
  231500    256.47776   -10929.396   -9774.2192   -10929.396            0    5830.3022    46.890996    19.980121    20.619575            0            0            0    19318.228    5798.4077    6288.7379    5403.7609   -343.74525   -144.10068    650.21747    46.890996    19.980121    20.619575           90           90           90 
  232000     269.7314   -10953.676    -9738.805   -10953.676            0    5682.7083    46.566651    19.895829    20.800819            0            0            0    19271.587    6077.2265    5411.8287    5559.0697   -767.05257   -152.99882    356.20124    46.566651    19.895829    20.800819           90           90           90 
  232500    260.76485   -10915.025   -9740.5387   -10915.025            0     5667.522    46.559242    20.217385    20.512732            0            0            0     19308.76    6959.9883    3715.0084    6327.5691   -583.72744    936.46193    4.4156137    46.559242    20.217385    20.512732           90           90           90 
  233000    266.19494   -10917.761    -9718.818   -10917.761            0    6991.2791    46.431875     19.95766    20.668001            0            0            0    19152.448    7231.1179    7264.3015    6478.4179    220.00318   -13.780537    -18.41157    46.431875     19.95766    20.668001           90           90           90 
  233500      258.308   -10895.136    -9731.716   -10895.136            0    6795.4008    46.754122    19.894742     20.76977            0            0            0    19319.235     6703.343    6727.3815    6955.4777   -217.16531     -1116.99     412.1342    46.754122    19.894742     20.76977           90           90           90 
  234000    266.48654   -10938.718   -9738.4615   -10938.718            0    5950.3693    46.658015    20.061545    20.616295            0            0            0    19297.509     6539.966    4610.5962    6700.5456    83.277484    204.75128   -89.191538    46.658015    20.061545    20.616295           90           90           90 
  234500    260.85983   -10933.723   -9758.8097   -10933.723            0    7154.2118    46.548055    19.851351    20.669702            0            0            0    19099.668    6575.2785    8232.9804    6654.3764   -311.61032   -360.04184    480.90049    46.548055    19.851351    20.669702           90           90           90 
  235000    267.03205   -10951.361   -9748.6476   -10951.361            0    6348.0735    46.379584    19.887025    20.753929            0            0            0    19142.427    8782.3988    4820.4437    5441.3781    182.13953   -652.36341     -85.1805    46.379584    19.887025    20.753929           90           90           90 
  235500    274.90908   -10877.888    -9639.696   -10877.888            0    4701.5487    46.957004    20.088801     20.60958            0            0            0    19441.221    4730.6844    3784.5001    5589.4615    34.102594   -661.58494   -172.15817    46.957004    20.088801     20.60958           90           90           90 
  236000     262.6446   -10950.822   -9767.8693   -10950.822            0    5429.4712    46.633616     19.87629    20.727247            0            0            0    19212.153     6358.794    5103.5288    4826.0908    230.24199   -188.56657   -719.41376    46.633616     19.87629    20.727247           90           90           90 
  236500    262.43184   -10907.359   -9725.3652   -10907.359            0    7324.5839    46.488911    19.933174    20.587807            0            0            0    19078.135    7767.1811    6932.2109    7274.3598    370.86548    30.758614    51.836472    46.488911    19.933174    20.587807           90           90           90 
  237000    260.87084   -10924.413   -9749.4492   -10924.413            0    5723.5662    46.657235     19.92858    20.682982            0            0            0    19231.295    6410.3625    4485.1745    6275.1615   -399.38056   -905.18547    496.85766    46.657235     19.92858    20.682982           90           90           90 
  237500    266.46498   -10985.961    -9785.802   -10985.961            0    5415.3178    46.325865    20.070978    20.657308            0            0            0    19207.277    5455.9535    4362.0308    6427.9691    455.48328   -52.748628    292.12725    46.325865    20.070978    20.657308           90           90           90 
  238000    275.22275   -10929.547   -9689.9429   -10929.547            0    5647.3088    46.819066    19.964684     20.65171            0            0            0    19303.729    6908.8056    2818.3832    7214.7376    40.530995   -416.76634   -63.082988    46.819066    19.964684     20.65171           90           90           90 
  238500    266.51191   -10931.401   -9731.0305   -10931.401            0    6665.1918    46.585246     19.87842    20.645054            0            0            0    19118.168    6257.8203    7235.0233    6502.7317    71.640251    982.10234   -93.421568    46.585246     19.87842    20.645054           90           90           90 
  239000    262.52941   -10920.667   -9738.2336   -10920.667            0    6367.8037    46.664813    20.034441    20.673837            0            0            0    19328.041    7407.9803    5568.6568    6126.7738   -219.22621    -745.8129   -88.362827    46.664813    20.034441    20.673837           90           90           90 
  239500    274.47326   -10904.809     -9668.58   -10904.809            0    6223.7071    46.354099    20.052435    20.685382            0            0            0    19227.322    5913.1634    6236.8681    6521.0897    238.10492   -1195.2573   -265.33579    46.354099    20.052435    20.685382           90           90           90 
  240000    258.96691   -10919.179   -9752.7914   -10919.179            0    5615.5664    46.542624    20.057824    20.690754            0            0            0    19315.724    6034.2658    5092.5632    5719.8702    727.13218   -759.33829   -301.27628    46.542624    20.057824    20.690754           90           90           90 
  240500    260.16544   -10920.121   -9748.3348   -10920.121            0    5183.2425    46.947597    20.010195    20.660433            0            0            0    19409.042    4123.5251    5657.8482    5768.3541   -425.42011   -595.81834    672.53501    46.947597    20.010195    20.660433           90           90           90 
  241000     268.2173   -10962.377   -9754.3254   -10962.377            0     5309.668    46.425962    19.963996     20.78403            0            0            0    19263.631    5395.3139    5295.8361     5237.854    595.98378   -168.54469   -231.45374    46.425962    19.963996     20.78403           90           90           90 
  241500    275.07003   -10890.971    -9652.055   -10890.971            0    6249.0748    46.756139    19.984331    20.571542            0            0            0    19221.847    6530.5127    5506.5424    6710.1693   -187.11313    218.23531    -164.7491    46.756139    19.984331    20.571542           90           90           90 
  242000    270.70617   -10926.133   -9706.8711   -10926.133            0    5568.7824    46.353199    20.076632    20.640417            0            0            0    19208.305    5538.4882    5505.6693    5662.1895   -266.10975   -266.70181    569.00255    46.353199    20.076632    20.640417           90           90           90 
  242500    271.66284   -10911.079   -9687.5085   -10911.079            0     6910.136    46.313301    19.901729    20.811954            0            0            0    19182.686    8866.8567    7150.2571    4713.2941    263.90175   -400.83144    93.353161    46.313301    19.901729    20.811954           90           90           90 
  243000    263.96141   -10883.853   -9694.9694   -10883.853            0    6464.2067    46.591958    19.975632    20.596735            0            0            0     19169.46     5834.465    7001.7224    6556.4327   -937.34192    1573.3953   -738.48174    46.591958    19.975632    20.596735           90           90           90 
  243500    265.60912   -10976.123   -9779.8183   -10976.123            0    5540.8292    46.875097    19.828946     20.74178            0            0            0    19279.148    6190.6715      5807.41     4624.406   -88.197866    184.32371    509.68397    46.875097    19.828946     20.74178           90           90           90 
  244000    269.88374   -10938.934   -9723.3768   -10938.934            0    4267.2219    46.585846    20.075743    20.740832            0            0            0    19397.769    4428.5126    3922.5892    4450.5638   -72.268501    559.45362    255.90012    46.585846    20.075743    20.740832           90           90           90 
  244500    276.90392   -10936.728   -9689.5521   -10936.728            0    5586.5976    46.831927    20.052214    20.548777            0            0            0    19297.024    4514.9505    7414.5662     4830.276   -126.70902    1207.6602   -552.64789    46.831927    20.052214    20.548777           90           90           90 
  245000    266.42986   -10913.152    -9713.151   -10913.152            0     6042.075    46.363374    19.878389    20.810896            0            0            0    19179.929    4841.7607    7196.5645    6087.8998    280.95675   -49.636234    53.792964    46.363374    19.878389    20.810896           90           90           90 
  245500    278.83074   -10903.817   -9647.9618   -10903.817            0    6148.5148    46.565778    19.972359    20.677614            0            0            0    19230.769    6060.7433    6326.2487    6058.5526   -419.71033    304.71196   -312.41629    46.565778    19.972359    20.677614           90           90           90 
  246000     261.6175    -10927.86   -9749.5337    -10927.86            0    5385.9284    46.839335    20.025597     20.54822            0            0            0    19273.935    4924.0212    6380.4217    4853.3424    393.86234   -174.33858    329.46426    46.839335    20.025597     20.54822           90           90           90 
  246500    265.18481   -10949.481   -9755.0879   -10949.481            0    5721.7204    46.440293    19.977122    20.717463            0            0            0     19220.49    6175.6847    5326.8862    5662.5903   -393.40629    121.63542     1211.548    46.440293    19.977122    20.717463           90           90           90 
  247000    266.92396   -10911.146   -9708.9198   -10911.146            0    6029.0552    46.669917    19.922364    20.823122            0            0            0     19360.82    5918.4919    7208.6852    4959.9887   -154.97941    1091.0373   -194.11957    46.669917    19.922364    20.823122           90           90           90 
  247500    267.59825   -10985.123   -9779.8593   -10985.123            0    6649.4856    46.936556    19.962092     20.42599            0            0            0    19138.169    6023.8359    6415.4261    7509.1948   -11.033796    586.99411   -141.81292    46.936556    19.962092     20.42599           90           90           90 
  248000    257.60668   -10958.015   -9797.7533   -10958.015            0    5716.5521    46.450453    19.901742    20.811622            0            0            0    19239.199    7015.3597     5245.674    4888.6226   -105.68138    611.81792  -0.10861256    46.450453    19.901742    20.811622           90           90           90 
  248500    263.84836   -10906.157    -9717.783   -10906.157            0    5562.0794    46.777016    19.900514    20.738164            0            0            0     19304.88     5395.838    5530.2217    5760.1787    541.37952    222.29111   -795.80372    46.777016    19.900514    20.738164           90           90           90 
  249000    258.87541   -10928.638   -9762.6622   -10928.638            0     4423.118    46.723192       20.072    20.561632            0            0            0    19283.272    3689.2906     4576.929    5003.1345    405.14683    127.88774    310.00548    46.723192       20.072    20.561632           90           90           90 
  249500    250.16374   -10924.745   -9798.0068   -10924.745            0    6415.7981    46.294436    20.050965    20.767535            0            0            0    19277.425    7278.9391    6132.8765    5835.5787    385.18133    255.62647   -111.06884    46.294436    20.050965    20.767535           90           90           90 
  250000     267.6035   -10886.584   -9681.2965   -10886.584            0     6483.189    46.658872    19.967411    20.567333            0            0            0    19161.697    5402.8791    6706.8394    7339.8485    137.89927   -477.20229    81.677826    46.658872    19.967411    20.567333           90           90           90 
  250500    260.26205   -10885.727   -9713.5057   -10885.727            0    6458.7101    46.593942    19.940782    20.677717            0            0            0    19212.073    6562.7989    5854.9323     6958.399   -60.032074    218.37945    421.92425    46.593942    19.940782    20.677717           90           90           90 
  251000    272.81619   -10923.728   -9694.9627   -10923.728            0    6223.0808    46.619861    20.006708    20.589049            0            0            0    19203.611    5684.0385     6608.402    6376.8018    -363.8024    814.33561    258.46969    46.619861    20.006708    20.589049           90           90           90 
  251500    268.13131   -10909.859   -9702.1947   -10909.859            0    6124.0763    46.307278    19.995991    20.786683            0            0            0    19247.635     5421.906    6777.1701    6173.1527    281.30926    53.073129    885.78948    46.307278    19.995991    20.786683           90           90           90 
  252000    259.77863   -10964.517   -9794.4733   -10964.517            0     6571.215    46.400674     19.95744    20.671826            0            0            0     19142.91    7271.3254    6075.2838    6367.0356   -483.38645    743.30383   -367.73995    46.400674     19.95744    20.671826           90           90           90 
  252500    271.22625   -10941.672   -9720.0676   -10941.672            0    6079.2341    46.780381    19.964412    20.539058            0            0            0    19182.305    5981.0219     6163.463    6093.2174   -55.764071   -18.467894   0.94926927    46.780381    19.964412    20.539058           90           90           90 
  253000    267.17585    -10960.92   -9757.5588    -10960.92            0    5346.2899    46.505039    19.900596    20.863358            0            0            0    19308.578    6121.7853    4964.4199    4952.6645   -299.93748    377.45781   -213.92742    46.505039    19.900596    20.863358           90           90           90 
  253500     266.9494   -10911.022   -9708.6809   -10911.022            0     6635.326      46.5808    20.091818    20.618662            0            0            0    19296.861    6883.0344    5717.3741    7305.5696   -483.69386    559.85317    1431.2409      46.5808    20.091818    20.618662           90           90           90 
  254000    264.82313   -10933.345   -9740.5807   -10933.345            0    6200.4181    46.786244    19.857968     20.70851            0            0            0    19239.857     6111.075    5778.6843    6711.4951  -0.36045525    131.67065     72.32052    46.786244    19.857968     20.70851           90           90           90 
  254500    271.44219   -10911.723   -9689.1468   -10911.723            0    6567.9649     46.65634    19.864666    20.763112            0            0            0    19243.515    6548.5935    6950.0386    6205.2625    13.309798   -2.5259132    1011.5067     46.65634    19.864666    20.763112           90           90           90 
  255000    269.71716   -10964.519   -9749.7119   -10964.519            0    7378.4168    46.729161    19.924011    20.500906            0            0            0    19087.005     6396.298    9228.6377    6510.3147   -133.31322   -1353.6134    442.72504    46.729161    19.924011    20.500906           90           90           90 
  255500    260.77189   -10950.773   -9776.2554   -10950.773            0    5466.6838    46.622557    19.981053    20.703214            0            0            0    19286.447    5744.9302      6373.03    4282.0911   -98.173064   -519.68862   -991.74562    46.622557    19.981053    20.703214           90           90           90 
  256000     267.6406   -10882.686   -9677.2318   -10882.686            0    6121.4398    46.571797    19.953316    20.798043            0            0            0    19326.826    6076.0707    6607.7714    5680.4773   -831.66838    56.595251    365.94288    46.571797    19.953316    20.798043           90           90           90 
  256500    263.34934    -10903.37   -9717.2435    -10903.37            0    5920.0935    46.556228    20.011096    20.603692            0            0            0    19195.248    5838.5352    6047.9336    5873.8117   -605.77451     1031.373    112.91469    46.556228    20.011096    20.603692           90           90           90 
  257000    266.91917   -10914.719   -9712.5141   -10914.719            0    5289.4654     46.82221    19.942255    20.611634            0            0            0    19245.916    5498.3538    4897.9008    5472.1415    105.66489    147.77456    213.37488     46.82221    19.942255    20.611634           90           90           90 
  257500    255.50067   -10917.004   -9766.2282   -10917.004            0    5643.4963    46.242144    19.923986    20.914645            0            0            0    19269.244    6497.8413    5167.7923    5264.8552   -288.20672   -68.749643    1321.3206    46.242144    19.923986    20.914645           90           90           90 
  258000    265.09168   -10954.054   -9760.0799   -10954.054            0     5684.552    46.732968    20.015868    20.467459            0            0            0     19145.28    5105.0655    5617.9639    6330.6267   -75.208114    283.85019   -685.44986    46.732968    20.015868    20.467459           90           90           90 
  258500    261.78176   -10923.089   -9744.0234   -10923.089            0    5266.1501    46.902677    19.962497    20.608325            0            0            0    19295.463    5699.4218    4949.9537    5149.0749   -154.32913   -974.81656   -151.72176    46.902677    19.962497    20.608325           90           90           90 
  259000    264.26465    -10906.86   -9716.6111    -10906.86            0    6478.4833    46.500363    19.907734    20.772369            0            0            0    19229.332    6593.3406    6641.3801    6200.7292   -123.85509    775.28542    237.84069    46.500363    19.907734    20.772369           90           90           90 
  259500    265.18872   -10950.096   -9755.6848   -10950.096            0    5325.0531    46.561204    20.227849    20.499438            0            0            0    19307.047    5417.7004     4702.033    5855.4258    278.32516   -755.24502    60.373069    46.561204    20.227849    20.499438           90           90           90 
  260000    257.20529   -10976.722   -9818.2681   -10976.722            0    5117.6057    46.458809    19.919493    20.839871            0            0            0    19285.965    4556.5486    5579.3453    5216.9234    255.68942   -711.61253   -1168.9654    46.458809    19.919493    20.839871           90           90           90 
  260500    262.50119   -10915.631   -9733.3248   -10915.631            0    6898.9246    46.637947    20.020365    20.580273            0            0            0     19215.98    5986.6315    7418.4035    7291.7387   -1.5476128    689.87804    880.09377    46.637947    20.020365    20.580273           90           90           90 
  261000    264.28023   -10942.652   -9752.3325   -10942.652            0    5740.3406    46.694796    19.851764    20.734074            0            0            0    19219.949    5216.5238    6527.7896    5476.7084   -249.67432   -1050.4852    1009.5625    46.694796    19.851764    20.734074           90           90           90 
  261500     267.8704   -10886.211   -9679.7214   -10886.211            0    6226.0205    46.581045    20.005223    20.666477            0            0            0     19258.35    6588.1074     5698.616     6391.338   -115.43901   -659.72515   -165.64572    46.581045    20.005223    20.666477           90           90           90 
  262000    262.70393   -10860.535    -9677.315   -10860.535            0    4730.7243    46.814183    20.104088    20.593075            0            0            0    19381.305    4716.3563      4488.62    4987.1967     111.2714    193.84606   -1277.4425    46.814183    20.104088    20.593075           90           90           90 
  262500    261.50062   -10960.736   -9782.9366   -10960.736            0     5815.128    46.894696    19.941678    20.668663            0            0            0    19328.485    6002.4726     5945.537    5497.3743   -502.12595    582.48029    359.56622    46.894696    19.941678    20.668663           90           90           90 
  263000    270.25947   -10874.291   -9657.0417   -10874.291            0    7860.5542    46.532594    19.828991    20.757495            0            0            0    19152.824    8708.5975    6752.5216    8120.5434   -875.05044    150.38899    362.04359    46.532594    19.828991    20.757495           90           90           90 
  263500    261.90017   -10870.934   -9691.3345   -10870.934            0    6189.4098    46.603904    20.165326    20.367678            0            0            0    19141.196    7143.2372    4114.0003    7310.9918    275.65194   -38.461969    37.858233    46.603904    20.165326    20.367678           90           90           90 
  264000    259.64282   -10926.419   -9756.9865   -10926.419            0    4846.8939    46.633643    19.996643     20.74584            0            0            0    19345.834    5032.4484    4824.9868    4683.2465   -83.207302   -415.52497   -273.89251    46.633643    19.996643     20.74584           90           90           90 
  264500    259.94603   -10918.899   -9748.1012   -10918.899            0    5475.7796    46.613955    19.945865    20.782045            0            0            0    19322.223    5881.6375    5217.4545    5328.2469    179.04036   -213.90097    7.9536392    46.613955    19.945865    20.782045           90           90           90 
  265000    273.32394   -10943.534    -9712.482   -10943.534            0     5423.772    46.461385    20.070936     20.55886            0            0            0    19171.621    5294.8725    4834.5633    6141.8802    199.53359    720.68643    66.962118    46.461385    20.070936     20.55886           90           90           90 
  265500    264.41647    -10943.12    -9752.187    -10943.12            0    5754.0423    46.178257     20.02663    20.751408            0            0            0    19190.796    7594.9036    3965.1537    5702.0695   -56.738622   -643.73186    374.04844    46.178257     20.02663    20.751408           90           90           90 
  266000     261.0314   -10958.234   -9782.5478   -10958.234            0    5091.3265    46.519387    19.996925    20.723915            0            0            0    19278.311    6926.2668    3678.3014    4669.4112   -134.11517   -184.75122   -358.02108    46.519387    19.996925    20.723915           90           90           90 
  266500    259.07096   -10879.878   -9713.0211   -10879.878            0    7000.0187    46.716448    19.939179    20.610179            0            0            0    19198.127    6343.3848    6784.6728    7871.9985   -157.09287    300.83415    -173.7777    46.716448    19.939179    20.610179           90           90           90 
  267000    273.87716   -10936.039   -9702.4956   -10936.039            0    3733.3469    46.671687    20.026782    20.801675            0            0            0    19442.987    3422.7023    3089.9709    4687.3675   -540.58062    431.50684   -207.24231    46.671687    20.026782    20.801675           90           90           90 
  267500    256.47082   -10912.256   -9757.1103   -10912.256            0    5077.2985    46.736623    19.885622    20.742354            0            0            0     19277.67    4805.8793    4708.1579    5717.8582   -505.73608    54.678269   -619.02007    46.736623    19.885622    20.742354           90           90           90 
  268000    268.55424   -10971.237   -9761.6681   -10971.237            0    7227.7816    46.421337    20.057765    20.503364            0            0            0    19090.852    8360.1639    6365.6662    6957.5148   -181.53018   -432.32682    -224.8732    46.421337    20.057765    20.503364           90           90           90 
  268500    264.49561   -10939.851   -9748.5619   -10939.851            0    5800.9049    46.578472    19.882354    20.797956            0            0            0    19260.772    5683.8757    5768.8324    5950.0067    39.914215    428.98514   -85.145621    46.578472    19.882354    20.797956           90           90           90 
  269000    262.96124   -10968.381   -9784.0022   -10968.381            0    6195.1147    46.609515    20.007966    20.664517            0            0            0    19270.935    5525.7452    6140.4382    6919.1608   -356.14918   -678.44211    110.75148    46.609515    20.007966    20.664517           90           90           90 
  269500    274.46578   -10894.009   -9657.8144   -10894.009            0    6334.8289    46.495442    20.022298    20.588462            0            0            0    19166.739    6556.5423    5942.1168    6505.8276   -252.47625    382.59278   -502.42141    46.495442    20.022298    20.588462           90           90           90 
  270000    257.26623   -10883.301   -9724.5729   -10883.301            0     6910.961    46.898085    19.839015    20.643241            0            0            0    19206.715    7157.8209    6556.4113    7018.6507    242.76526    451.37122     953.0449    46.898085    19.839015    20.643241           90           90           90 
  270500    259.25452   -10929.753   -9762.0693   -10929.753            0     7314.012    46.371316    19.921237    20.624948            0            0            0    19052.791    7459.9888    7150.7667    7331.2805   -152.78666    158.92946   -751.48069    46.371316    19.921237    20.624948           90           90           90 
  271000    268.34939   -10969.758    -9761.111   -10969.758            0      4546.61    46.642571    20.036475    20.735651            0            0            0    19378.559    3848.7902    4706.9573    5084.0824    284.37101   -277.66987    214.66664    46.642571    20.036475    20.735651           90           90           90 
  271500    270.62437   -10906.452   -9687.5589   -10906.452            0    5881.3631    46.885825    19.990038    20.578433            0            0            0    19287.124    4535.4265    6924.4504    6184.2124   -398.64609    469.66805   -671.29975    46.885825    19.990038    20.578433           90           90           90 
  272000    271.47747   -10940.868   -9718.1325   -10940.868            0    4982.2621    46.539558    19.811981    20.915911            0            0            0    19285.325    4883.1667    5324.4363    4739.1834   -347.58179    105.55488   -497.12914    46.539558    19.811981    20.915911           90           90           90 
  272500    262.31632   -10907.709   -9726.2353   -10907.709            0    5540.3493    46.978283    19.922191    20.572656            0            0            0    19254.161    4401.3315    6422.9218    5796.7945   -325.91017     383.7754    523.46991    46.978283    19.922191    20.572656           90           90           90 
  273000    273.11197   -10945.428   -9715.3308   -10945.428            0    7157.0327    46.393248    20.003333    20.680367            0            0            0    19191.785    7446.3249    6658.5589    7366.2143   -526.42311   -91.781626   -81.920598    46.393248    20.003333    20.680367           90           90           90 
  273500    265.06233   -10920.075   -9726.2328   -10920.075            0    5799.4188    46.744345    19.998742    20.643235            0            0            0    19297.876    6570.9602    5133.3591    5693.9369   -241.91862    1158.1618    1049.7717    46.744345    19.998742    20.643235           90           90           90 
  274000    262.08282   -10920.652   -9740.2302   -10920.652            0    5074.2631    46.612177    20.081934    20.686197            0            0            0    19363.576    5236.6234     4530.764     5455.402    307.71754    802.39959    667.73877    46.612177    20.081934    20.686197           90           90           90 
  274500    266.04059   -10972.747   -9774.4987   -10972.747            0    5363.6108    46.664727    19.826647    20.734101            0            0            0    19183.296     4229.157    6682.9191    5178.7564   -313.80968   -1063.3733    614.55304    46.664727    19.826647    20.734101           90           90           90 
  275000    260.00992   -10925.932   -9754.8466   -10925.932            0    6420.1529    46.854991    19.909745    20.549526            0            0            0    19170.055    5556.8995    6719.7095    6983.8497   -332.84224    281.95709   -776.16744    46.854991    19.909745    20.549526           90           90           90 
  275500     265.4232   -10984.049   -9788.5819   -10984.049            0    5263.1796    46.567546    19.946794    20.724611            0            0            0    19250.537    5018.3349    5883.2079     4887.996   -432.09922    961.77843   -293.14963    46.567546    19.946794    20.724611           90           90           90 
  276000    266.80906   -10903.247    -9701.538   -10903.247            0    6046.4727    46.620871    20.031756    20.594891            0            0            0    19233.525    5522.5746    6031.5942    6585.2491    91.856403    391.81327    412.16685    46.620871    20.031756    20.594891           90           90           90 
  276500     262.7877   -10966.291   -9782.6946   -10966.291            0    6023.3102    46.462988     20.06191    20.594506            0            0            0    19196.886    6339.8697    5441.2557    6288.8051   -664.25246    872.35392    197.30939    46.462988     20.06191    20.594506           90           90           90 
  277000    262.80085   -10899.488   -9715.8315   -10899.488            0    5415.6927    46.260201    20.004783     20.81759            0            0            0    19265.125    5678.8286    5872.0362    4696.2133    83.600649   -211.01845    63.532765    46.260201    20.004783     20.81759           90           90           90 
  277500    270.04198   -10996.569   -9780.2986   -10996.569            0    6861.5817    46.647164    19.981301    20.534999            0            0            0    19140.077    6357.5315    7052.8278    7174.3856    56.381539   -83.957746     351.6309    46.647164    19.981301    20.534999           90           90           90 
  278000     263.7734     -10947.4   -9759.3632     -10947.4            0    5646.0086    46.542524    19.862378    20.784441            0            0            0    19214.077     6671.825    5031.8767    5234.3242   -151.30627    82.493245   -48.924929    46.542524    19.862378    20.784441           90           90           90 
  278500    263.50051   -10913.618    -9726.811   -10913.618            0    5040.7425    46.724479    20.005309    20.718123            0            0            0     19366.01    5514.5365    4494.1623    5113.5288   -564.73912    703.63869    136.45958    46.724479    20.005309    20.718123           90           90           90 
  279000    266.47875   -10913.752   -9713.5304   -10913.752            0    6077.7244    46.600549    20.025998     20.58911            0            0            0     19214.22    7191.1371    4985.9449    6056.0913    312.10994   -150.36762   -143.09384    46.600549    20.025998     20.58911           90           90           90 
  279500    263.42898   -10913.286   -9726.8011   -10913.286            0    6519.4194    46.460343    19.893867    20.788357            0            0            0    19214.178    6263.1369    7263.1092    6032.0121   -189.66955   -423.73915   -381.98551    46.460343    19.893867    20.788357           90           90           90 
  280000    274.45212   -10887.555   -9651.4211   -10887.555            0    6954.2294     47.01823    19.866586    20.587421            0            0            0    19230.539    8172.3204    5780.6232    6909.7447     31.08704   -196.31388    -415.4448     47.01823    19.866586    20.587421           90           90           90 
  280500    268.56523   -10860.987   -9651.3684   -10860.987            0    6391.5958    46.676304    19.892673    20.662836            0            0            0    19185.784    6730.5617    5922.8277    6521.3979   -209.63066     326.1387    190.72011    46.676304    19.892673    20.662836           90           90           90 
  281000    260.29947   -10905.791   -9733.4014   -10905.791            0    5976.9896    46.522051     20.03677    20.642441            0            0            0    19241.885    5561.3796    5695.6368    6673.9524    294.61314   -246.26867    670.29933    46.522051     20.03677    20.642441           90           90           90 
  281500    262.03767   -10928.156   -9747.9377   -10928.156            0    4088.5079    46.610587    20.120894    20.678276            0            0            0    19393.052     3525.538    4576.6507    4163.3349    -282.7274    415.78985    120.23206    46.610587    20.120894    20.678276           90           90           90 
  282000    268.44502   -10943.473   -9734.3958   -10943.473            0     6008.967    46.757953    19.862398    20.706358            0            0            0    19230.513    6457.7479    6031.4098    5537.7433   -263.01869    449.67095   -286.36195    46.757953    19.862398    20.706358           90           90           90 
  282500    262.12929   -10908.743   -9728.1112   -10908.743            0     5819.877    47.027463    19.846425    20.602531            0            0            0    19228.899    5170.1614    5690.2109    6599.2588    167.37151    732.12938    1064.1744    47.027463    19.846425    20.602531           90           90           90 
  283000    263.89268   -10915.489   -9726.9156   -10915.489            0    5520.0472    46.385566    19.994219    20.740508            0            0            0    19235.642    4819.9349    5910.5997    5829.6069   -110.27074     888.4038   -22.456386    46.385566    19.994219    20.740508           90           90           90 
  283500    263.56698   -10951.427     -9764.32   -10951.427            0    5983.3568    46.452813     20.12177    20.577654            0            0            0    19234.197    6761.2589    5843.2265    5345.5851   -75.315886   -924.80123   -85.731313    46.452813     20.12177    20.577654           90           90           90 
  284000    270.20202   -10918.729   -9701.7378   -10918.729            0    5066.1601    46.658184    19.959197    20.736335            0            0            0    19310.917    5119.0339    5323.7228    4755.7236    -323.6444   -41.341127    189.16166    46.658184    19.959197    20.736335           90           90           90 
  284500    274.59242   -10924.641   -9687.8758   -10924.641            0    6416.0689      47.1553    19.939648    20.470964            0            0            0     19248.03    6558.9108    6177.8035    6511.4923    181.39559    1054.1007    745.91549      47.1553    19.939648    20.470964           90           90           90 
  285000    270.49828    -10961.12   -9742.7944    -10961.12            0    4680.0471    46.645259    19.963881    20.759825            0            0            0    19331.973    4715.3292    5721.8852     3602.927   -194.72358   -655.76839   -131.89427    46.645259    19.963881    20.759825           90           90           90 
  285500    266.87505   -10920.855   -9718.8489   -10920.855            0    6668.3336    46.569032     19.90411    20.642568            0            0            0    19133.909    5844.0859    7388.2043    6772.7107   -87.816951    120.28054    180.00152    46.569032     19.90411    20.642568           90           90           90 
  286000    270.49839   -10952.756   -9734.4303   -10952.756            0    6389.2503    46.645215    20.066907    20.491743            0            0            0    19180.787     5771.796    6192.5608    7203.3941   -682.50746   -48.537859    283.91118    46.645215    20.066907    20.491743           90           90           90 
  286500    275.72361   -10943.976   -9702.1154   -10943.976            0    5685.0109    46.531672    19.895514    20.829465            0            0            0    19283.327    6469.5677    5813.0259     4772.439   -48.409955    635.47489   -320.27831    46.531672    19.895514    20.829465           90           90           90 
  287000    268.19516   -10957.188   -9749.2363   -10957.188            0    5390.5435    46.797398    19.977213    20.654968            0            0            0    19309.949    4784.5708    6275.4993    5111.5605     570.7235    -283.1175    329.14381    46.797398    19.977213    20.654968           90           90           90 
  287500    275.83455   -10886.098   -9643.7383   -10886.098            0    5705.7894    46.576077     20.07691    20.574048            0            0            0    19238.869    6266.8869    5287.4936    5562.9877    64.945143    75.732502   -710.70076    46.576077     20.07691    20.574048           90           90           90 
  288000    254.28729   -10938.781   -9793.4702   -10938.781            0    6192.1119     46.26199    19.958331    20.822734            0            0            0    19225.882    7103.3033    5530.6966    5942.3357    402.75125    427.90674   -39.280295     46.26199    19.958331    20.822734           90           90           90 
  288500     270.9223   -10905.132   -9684.8967   -10905.132            0    5665.7423    46.933855    19.852815    20.646763            0            0            0    19238.016    6193.1175    4702.5979    6101.5113   -53.847203    291.17236     -757.022    46.933855    19.852815    20.646763           90           90           90 
  289000    267.23495   -10885.198    -9681.571   -10885.198            0    6208.2323    46.529009    20.036997    20.670298            0            0            0    19270.952    5480.1718    7038.7839     6105.741    495.43033   -89.625111   -463.19967    46.529009    20.036997    20.670298           90           90           90 
  289500    252.60058   -10872.582   -9734.8684   -10872.582            0    6794.1112    46.613672    19.883227    20.724464            0            0            0    19208.059    7209.0661    6483.9152    6689.3523    62.601194    1326.1744   -85.914538    46.613672    19.883227    20.724464           90           90           90 
  290000    268.34503   -10909.451   -9700.8237   -10909.451            0    6173.1298    47.002661    19.990903    20.441313            0            0            0    19207.182    5653.9339    5995.7357    6869.7198    1194.4694   -183.79349    1170.0585    47.002661    19.990903    20.441313           90           90           90 
  290500     267.5157   -10933.325   -9728.4327   -10933.325            0    6242.8372    46.287151    19.949999    20.822018            0            0            0    19227.647    7326.9958    6052.4283    5349.0875   -198.15961   -992.55993   -450.10265    46.287151    19.949999    20.822018           90           90           90 
  291000     265.9939   -10912.887   -9714.8494   -10912.887            0    6943.1292    46.567219    20.002393    20.671855            0            0            0     19254.92    8203.7922      5574.96    7050.6352   -143.60705    609.29955   -992.51599    46.567219    20.002393    20.671855           90           90           90 
  291500    270.58183    -10929.17   -9710.4684    -10929.17            0    5272.1639    46.716193     19.97768    20.632637            0            0            0    19256.052    5310.9537     5370.956    5134.5819    -419.4157     -642.105    111.18465    46.716193     19.97768    20.632637           90           90           90 
  292000    252.76915   -10910.452   -9771.9783   -10910.452            0    4783.6355    46.821532    19.805454     20.77109            0            0            0    19261.482    3607.9619    6271.3127    4471.6318    123.93163    689.77531   -420.58358    46.821532    19.805454     20.77109           90           90           90 
  292500    265.68148   -10927.686   -9731.0555   -10927.686            0    6048.5623    46.877262    19.994043    20.575907            0            0            0    19285.098    4973.6003    6454.2364    6717.8502    243.80186    504.88091   -685.27982    46.877262    19.994043    20.575907           90           90           90 
  293000    264.75571   -10917.394   -9724.9334   -10917.394            0     5835.664    46.418054    20.092426    20.587438            0            0            0    19200.901    5031.7105    5591.2726     6884.009   -186.70146    560.82434     327.4075    46.418054    20.092426    20.587438           90           90           90 
  293500    266.74307   -10937.191   -9735.7791   -10937.191            0    4771.5139    46.589126    19.883264    20.773875            0            0            0    19243.752    4485.0093    5540.7435    4288.7891    111.11619   -580.87162   -62.460213    46.589126    19.883264    20.773875           90           90           90 
  294000    262.73892   -10873.263   -9689.8863   -10873.263            0    6111.2639    46.914322     19.81875    20.669845            0            0            0    19218.475    4931.7954     6687.335    6714.6613   -38.180635   -561.38684    332.84679    46.914322     19.81875    20.669845           90           90           90 
  294500    271.59858   -10893.949   -9670.6682   -10893.949            0    5575.7561     47.13858     19.87997    20.608396            0            0            0    19312.407    5635.3552     5392.522    5699.3912   -90.306011   -87.219059   -356.01176     47.13858     19.87997    20.608396           90           90           90 
  295000     264.7797   -10865.302   -9672.7327   -10865.302            0    6970.1639    46.347208    20.015343    20.653395            0            0            0     19159.23    6907.2842    6989.3143    7013.8933   -397.50717   -216.04654    112.89827    46.347208    20.015343    20.653395           90           90           90 
  295500     264.2173   -10926.126     -9736.09   -10926.126            0    5883.9605    46.571991    20.057657     20.70624            0            0            0    19342.217    6313.9987    5463.5877     5874.295   -234.54511   -324.54604    531.51025    46.571991    20.057657     20.70624           90           90           90 
  296000    269.24803   -10893.522   -9680.8281   -10893.522            0    6869.6128    46.962263    19.846931    20.595273            0            0            0    19195.964    5747.2363    8045.2911    6816.3109    39.998172     283.4073   -88.705519    46.962263    19.846931    20.595273           90           90           90 
  296500    269.35722   -10940.249   -9727.0629   -10940.249            0     6536.081    46.384618    19.958561     20.67948            0            0            0    19144.446    9048.3468     4962.861    5597.0354    306.37551    383.00725   -85.860872    46.384618    19.958561     20.67948           90           90           90 
  297000    254.02294   -10901.778   -9757.6577   -10901.778            0    4528.4589    46.601976    20.006331    20.782015            0            0            0    19375.791    4791.1641    4072.5981    4721.6144   -250.37059   -371.73875      192.556    46.601976    20.006331    20.782015           90           90           90 
  297500    263.34415   -10897.734    -9711.631   -10897.734            0    5825.5947    46.786846    20.041935    20.505928            0            0            0    19228.387    5083.1012    6380.5182    6013.1648    427.14811    355.24191    963.12908    46.786846    20.041935    20.505928           90           90           90 
  298000    260.01188    -10977.02   -9805.9253    -10977.02            0    5400.2186    46.488072    19.790627    20.905406            0            0            0    19233.561    5974.1851    5239.3477    4987.1229   -549.85312   -553.05324    444.92226    46.488072    19.790627    20.905406           90           90           90 
  298500    266.64479   -10942.648   -9741.6784   -10942.648            0    5654.3214    46.533389    20.031784    20.610737            0            0            0    19212.233    5916.6063    4872.1485    6174.2093   -181.43328   -666.21514    774.05973    46.533389    20.031784    20.610737           90           90           90 
  299000    270.64765   -10946.801   -9727.8028   -10946.801            0    7311.0438    46.433055    19.927326    20.667529            0            0            0    19123.388    6527.7047    7255.1365      8150.29   -746.89839    16.047023    938.60741    46.433055    19.927326    20.667529           90           90           90 
  299500    257.25023   -10969.652   -9810.9963   -10969.652            0    5092.9711    46.572997    19.988425    20.795369            0            0            0    19358.843    5623.8309    4587.8141    5067.2685    288.57938   -856.38519    748.30856    46.572997    19.988425    20.795369           90           90           90 
  300000    269.92539   -10881.327   -9665.5823   -10881.327            0    5978.6555    46.427406      19.9936    20.658706            0            0            0    19176.464    6849.6806    6029.0794    5057.2064    186.10877   -65.524148   -164.72527    46.427406      19.9936    20.658706           90           90           90 
  300500    264.76578   -10955.889   -9763.3827   -10955.889            0    4271.8757    46.346966    20.082832    20.771413            0            0            0    19333.582    5929.3917    3758.1305    3128.1049    224.18446    245.95971    372.52761    46.346966    20.082832    20.771413           90           90           90 
  301000    264.56808   -10926.056   -9734.4398   -10926.056            0    5620.5543    46.658944    19.975377    20.699674            0            0            0    19292.716    5044.3158    5572.5399     6244.807    188.75436   -477.96878   -729.57986    46.658944    19.975377    20.699674           90           90           90 
  301500    256.89062   -10934.035   -9776.9989   -10934.035            0    6077.8574    46.542417    19.990558    20.647795            0            0            0    19210.892    5105.9821    6194.0208    6933.5694    197.67866    1015.3581    1227.1588    46.542417    19.990558    20.647795           90           90           90 
  302000     258.3626   -10925.079   -9761.4129   -10925.079            0    5731.6975    46.480807    20.105978    20.759939            0            0            0    19401.036    7200.2219    5660.3654    4334.5052    426.26861   -689.52377    1005.1323    46.480807    20.105978    20.759939           90           90           90 
  302500    261.78947   -10957.382   -9778.2808   -10957.382            0    6168.3231    46.438335    20.048268    20.531014            0            0            0    19114.542    6421.2274    5431.0002    6652.7417    541.92891   -51.137811   -338.65154    46.438335    20.048268    20.531014           90           90           90 
  303000    264.91837   -10920.772   -9727.5791   -10920.772            0    5901.1824    46.501448     19.88337    20.761945            0            0            0    19196.609    6304.5343    5283.9539    6115.0592   -401.14157    376.00139    145.03883    46.501448     19.88337    20.761945           90           90           90 
  303500    266.88192   -10865.929   -9663.8915   -10865.929            0    6462.2483    46.872578    19.886603    20.633786            0            0            0    19233.503    5996.9875    6018.9839    7370.7736    24.194484    629.87991   -244.81354    46.872578    19.886603    20.633786           90           90           90 
  304000    265.89053   -10937.626   -9740.0541   -10937.626            0    6538.9253    46.525332    19.960747     20.61596            0            0            0    19145.638    6715.1852    6479.8459    6421.7446   -620.86028   -915.87564    -390.5031    46.525332    19.960747     20.61596           90           90           90 
  304500    261.35586   -10931.685   -9754.5371   -10931.685            0    6203.2695     46.36994    19.973961     20.69376            0            0            0    19166.382    6975.2092    5246.0735    6388.5258    482.38527    622.94692    703.60375     46.36994    19.973961     20.69376           90           90           90 
  305000    267.75875    -10872.47   -9666.4832    -10872.47            0    5375.9629    46.636675    20.115233    20.573987            0            0            0    19300.613    6647.7988    3783.4837    5696.6061   -227.51291    153.05041    93.997052    46.636675    20.115233    20.573987           90           90           90 
  305500    272.16269   -10931.558    -9705.736   -10931.558            0    5277.1262    46.360586    19.972914     20.73253            0            0            0    19197.411    5080.9781    6163.4794    4586.9211   -61.261128    412.24356    435.37372    46.360586    19.972914     20.73253           90           90           90 
  306000    263.16408   -10934.537    -9749.245   -10934.537            0    6332.0417    46.693737    19.908192    20.691526            0            0            0    19234.592    6769.6151    5852.4552    6374.0549    204.42712   -33.665155    601.04698    46.693737    19.908192    20.691526           90           90           90 
  306500    261.24631   -10966.953   -9790.2987   -10966.953            0    4963.6738    46.637543    19.994297    20.630506            0            0            0    19237.635    4081.5647    5560.2344    5249.2223   -377.95742   -603.58581   -385.50748    46.637543    19.994297    20.630506           90           90           90 
  307000    261.12814   -10896.884   -9720.7617   -10896.884            0    6256.5533    46.358297    20.060113     20.73553            0            0            0    19283.062    6132.8393    6270.8445     6365.976    -254.2345    512.87487    368.52484    46.358297    20.060113     20.73553           90           90           90 
  307500    263.78359   -10940.358   -9752.2754   -10940.358            0    5446.8507    46.814774      20.0307    20.560605            0            0            0    19280.352    6703.7944    4723.5512    4913.2065    185.66613   -749.90841    512.94491    46.814774      20.0307    20.560605           90           90           90 
  308000     266.8238   -10923.232   -9721.4563   -10923.232            0    7263.6847    46.080233    19.868011    20.838347            0            0            0    19077.978    9197.4548    6461.9365     6131.663    80.380069    350.95232     102.2249    46.080233    19.868011    20.838347           90           90           90 
  308500    267.11619   -10898.463   -9695.3705   -10898.463            0    4734.2565     46.94665    19.991764    20.670586            0            0            0    19400.302    3758.7035    4619.4222    5824.6439    371.89705   -786.12471    135.21771     46.94665    19.991764    20.670586           90           90           90 
  309000    266.03926   -10912.964   -9714.7217   -10912.964            0    6864.6547     46.53383    19.991203     20.63558            0            0            0    19196.604    7527.0995    6188.7201    6878.1444    576.67867    806.91891   -653.92952     46.53383    19.991203     20.63558           90           90           90 
  309500    263.70033   -10872.715   -9685.0072   -10872.715            0    6861.6463    46.179108    20.040346    20.662353            0            0            0    19121.877    7457.8692    6695.1674    6431.9023     344.4147    491.83812    440.22543    46.179108    20.040346    20.662353           90           90           90 
  310000    265.15231   -10886.869   -9692.6223   -10886.869            0    6530.9371    46.825035     19.99278    20.543801            0            0            0    19232.338    6057.7931    6482.1549    7052.8634   -118.63645    1067.2873    239.73607    46.825035     19.99278    20.543801           90           90           90 
  310500    275.83618   -10891.649   -9649.2815   -10891.649            0    5827.5664    46.732418    19.889642    20.849399            0            0            0     19379.33    5393.0629    6356.5327    5733.1037   -553.07406      415.802   -150.48451    46.732418    19.889642    20.849399           90           90           90 
  311000    265.03502   -10896.442   -9702.7231   -10896.442            0    5296.5636    46.584103    20.033489    20.641488            0            0            0    19263.505    5457.3305    4640.8087    5791.5516   -62.108832    261.88688   -217.72613    46.584103    20.033489    20.641488           90           90           90 
  311500    268.22731   -10931.389   -9723.2922   -10931.389            0    6637.8828    46.536974    19.975627    20.568594            0            0            0    19120.673    6056.8892    6483.2094    7373.5497   -50.761235   -337.17769   -260.27231    46.536974    19.975627    20.568594           90           90           90 
  312000    275.16405   -10976.756   -9737.4162   -10976.756            0    6165.4039    46.704726    19.832522    20.719717            0            0            0    19192.103    5527.5818    6841.2387    6127.3911   -97.716702   -70.597339   -89.672712    46.704726    19.832522    20.719717           90           90           90 
  312500    258.94839   -10875.612   -9709.3069   -10875.612            0    6036.1303    46.711558    20.031639    20.657913            0            0            0    19329.796    6118.3488    6048.3116    5941.7307    217.76959    1538.1175   -6.9086407    46.711558    20.031639    20.657913           90           90           90 
  313000    255.77635   -10903.701   -9751.6829   -10903.701            0    5456.1434     46.52391    19.969926     20.72204            0            0            0    19252.413    6329.9973     4790.792     5247.641    415.88535    224.40066   -621.79606     46.52391    19.969926     20.72204           90           90           90 
  313500    254.86916   -10927.045   -9779.1134   -10927.045            0    5539.8436    46.873794    19.869454    20.681603            0            0            0    19261.949    4395.4777    5776.7642     6447.289    82.233978    924.76444   -640.92806    46.873794    19.869454    20.681603           90           90           90 
  314000    274.45147   -10918.837   -9682.7066   -10918.837            0    4688.1351    46.822051    19.975494    20.660424            0            0            0    19323.563    3392.6091    5613.8677    5057.9285    476.13577    9.9179126   -281.87391    46.822051    19.975494    20.660424           90           90           90 
  314500    257.32463   -10855.671   -9696.6796   -10855.671            0    4981.3382     46.35639    20.118091    20.713384            0            0            0    19317.345    4550.6085     5504.157    4889.2491   -414.14564    497.88189    354.14535     46.35639    20.118091    20.713384           90           90           90 
  315000    260.22113   -10899.739   -9727.7017   -10899.739            0     6119.955    46.821539    19.983081    20.602141            0            0            0    19276.159    6058.4866    5295.6981    7005.6802   -44.073923    333.95118    86.174866    46.821539    19.983081    20.602141           90           90           90 
  315500    263.80509    -10917.99   -9729.8113    -10917.99            0     5873.393    46.511957    19.939631    20.705732            0            0            0    19203.143    6365.8469    5306.9294    5947.4027    629.82273    1132.9865    786.76935    46.511957    19.939631    20.705732           90           90           90 
  316000    259.96473   -10861.485   -9690.6033   -10861.485            0    6059.4407    46.666491    19.927395    20.634163            0            0            0    19188.566    5487.2693    7000.1994    5690.8533    -113.7095   -541.79613     548.8057    46.666491    19.927395    20.634163           90           90           90 
  316500    261.33944   -10896.412    -9719.338   -10896.412            0    5486.7323     46.83271    19.929555    20.739021            0            0            0     19356.87    4899.0072    4357.6233    7203.5665   -37.084397   -214.52499   -42.843397     46.83271    19.929555    20.739021           90           90           90 
  317000    259.21395   -10952.375    -9784.874   -10952.375            0    6270.7656    46.479384    20.038397    20.626116            0            0            0    19210.594    6315.9093     5498.418    6997.9695    -463.4629    56.991445    292.45162    46.479384    20.038397    20.626116           90           90           90 
  317500    260.01829   -10965.372   -9794.2487   -10965.372            0    5919.8782    46.198088    20.025291    20.733406            0            0            0    19181.099    7977.7215    3707.1671    6074.7462    275.51231   -622.16228   -522.06826    46.198088    20.025291    20.733406           90           90           90 
  318000     267.6858   -10926.438   -9720.7797   -10926.438            0    5260.3936    46.976709    19.900281    20.679038            0            0            0    19331.793    5179.5283     5645.042    4956.6105   -404.92622   -406.17914     930.1212    46.976709    19.900281    20.679038           90           90           90 
  318500    265.30236   -10912.364   -9717.4414   -10912.364            0    5083.2846     46.86779    19.927961    20.627686            0            0            0    19265.836    3802.2035    6856.0881    4591.5624   -330.44712   -1035.6466    -348.5449     46.86779    19.927961    20.627686           90           90           90 
  319000    266.12061   -10930.634   -9732.0252   -10930.634            0    6946.8625    46.284536    19.925741     20.80286            0            0            0    19185.514    7772.4689    6453.7947    6614.3238   -455.11273    446.26852    440.36797    46.284536    19.925741     20.80286           90           90           90 
  319500    256.96045    -10874.51   -9717.1593    -10874.51            0    5584.9103    46.764715    20.056675    20.459583            0            0            0    19189.957     6216.776    4404.0892    6133.8656     58.13661   -83.891189   -711.82929    46.764715    20.056675    20.459583           90           90           90 
  320000    269.90402   -10913.866   -9698.2171   -10913.866            0    6308.2838    46.642077    19.931625    20.626322            0            0            0    19175.309    5377.0135    6615.6051    6932.2328   -186.63233    1105.4535   -634.63041    46.642077    19.931625    20.626322           90           90           90 
  320500    272.55071   -10961.047   -9733.4773   -10961.047            0    5889.6571    46.623283    19.882127      20.7479            0            0            0    19232.681     6412.281    5789.4562    5467.2341    10.446557   -578.71199    496.25915    46.623283    19.882127      20.7479           90           90           90 
  321000    264.63987   -10931.449     -9739.51   -10931.449            0    6378.2602    46.590441    20.093432    20.529196            0            0            0    19218.651    7497.0693    5137.1308    6500.5806   -28.629374   -445.24201    -99.46972    46.590441    20.093432    20.529196           90           90           90 
  321500     261.0484   -10937.173   -9761.4097   -10937.173            0     6917.351    46.215519    19.977661    20.765547            0            0            0    19172.372    7642.4136    7010.9024    6098.7369   -15.326856   -11.532132    7.8204714    46.215519    19.977661    20.765547           90           90           90 
  322000    256.99853   -10904.923   -9747.4009   -10904.923            0    5310.5061    46.515121    20.021034    20.750423            0            0            0    19324.471    5647.2371    5781.5811    4502.7001    43.008411    497.58215      1021.13    46.515121    20.021034    20.750423           90           90           90 
  322500      264.488    -10918.35    -9727.095    -10918.35            0    5435.6172    46.703987    19.979202    20.616875            0            0            0    19237.779    5576.5343    4700.9403    6029.3769    325.26446    432.84854     196.7458    46.703987    19.979202    20.616875           90           90           90 
  323000    272.36722   -10945.063   -9718.3201   -10945.063            0    6356.8111    46.634512    19.873465    20.698546            0            0            0    19183.191    6425.6019    6514.1125    6130.7189   -10.154902    408.49351    -585.8716    46.634512    19.873465    20.698546           90           90           90 
  323500    274.86031   -10957.991   -9720.0193   -10957.991            0    5202.9938    46.523594    20.011943    20.662045            0            0            0    19236.933    3617.8731    6919.4544     5071.654   -605.44189   -574.65591       215.48    46.523594    20.011943    20.662045           90           90           90 
  324000    262.17182    -10950.28    -9769.457    -10950.28            0    4858.6268    46.718772    20.019135    20.637549            0            0            0    19301.668    5375.5841    3886.2532    5314.0432   -248.43945   -551.17015   -389.80921    46.718772    20.019135    20.637549           90           90           90 
  324500     263.8419   -10934.847   -9746.5022   -10934.847            0    6084.9314    46.132159    19.866122    20.864331            0            0            0    19121.472    6718.0743    5722.0481    5814.6718   -177.65713    -21.80035   -226.09538    46.132159    19.866122    20.864331           90           90           90 
  325000    268.78907   -10905.244   -9694.6174   -10905.244            0    6816.7014    46.686586    20.063918    20.518001            0            0            0    19219.536    6855.5747    6215.7602    7378.7694    403.95878   -480.99348    636.21388    46.686586    20.063918    20.518001           90           90           90 
  325500    260.15323   -10941.305   -9769.5737   -10941.305            0    5476.1308    46.737006    19.976386     20.68368            0            0            0    19311.038    4770.2776    6468.4305    5189.6842    326.73736    185.64705    120.18303    46.737006    19.976386     20.68368           90           90           90 
  326000    269.32263   -10948.124   -9735.0938   -10948.124            0    6496.6464    46.362581    19.880268     20.73201            0            0            0    19108.705    6927.5157    6150.7431    6411.6803   -244.91094     60.96795   -1109.7624    46.362581    19.880268     20.73201           90           90           90 
  326500    269.47119   -10930.649     -9716.95   -10930.649            0    6034.1624    46.824404    19.945077    20.592002            0            0            0    19231.208    6342.5573    4375.8981    7384.0317    142.47145    443.73807   -98.185054    46.824404    19.945077    20.592002           90           90           90 
  327000    274.27899   -10921.697   -9686.3436   -10921.697            0    5665.7951     46.57115    20.023123    20.585185            0            0            0    19195.682    5961.1718     5183.554    5852.6595   -26.176211    273.20331    80.821624     46.57115    20.023123    20.585185           90           90           90 
  327500     265.1474   -10975.793   -9781.5676   -10975.793            0    5127.0674    46.284647    20.041863    20.784223            0            0            0     19280.08    5422.3577    4551.7671    5407.0776   -197.43718   -216.05612    527.38393    46.284647    20.041863    20.784223           90           90           90 
  328000    261.14873   -10885.509   -9709.2939   -10885.509            0    5844.0475    46.627053    19.975711    20.637018            0            0            0    19221.494    5954.3856    5377.2116    6200.5452   -98.000203      42.8001   -612.26403    46.627053    19.975711    20.637018           90           90           90 
  328500    267.50972   -10954.501   -9749.6358   -10954.501            0    5898.6009    46.542273    20.062474    20.630982            0            0            0    19264.245    8110.9125    3729.8061    5855.0841   -118.22467    -1108.086    596.29335    46.542273    20.062474    20.630982           90           90           90 
  329000    261.73825   -10909.292   -9730.4219   -10909.292            0    5883.3201    46.467537    19.876715    20.873688            0            0            0    19279.398    6167.9202    6756.2981    4725.7421    234.34049    -885.4438   -113.18372    46.467537    19.876715    20.873688           90           90           90 
  329500    260.52057   -10946.163   -9772.7777   -10946.163            0    5936.3176    46.678712      20.1292    20.432853            0            0            0    19198.814    5679.0484    5506.2237    6623.6807    240.41777    -1247.116   -465.07248    46.678712      20.1292    20.432853           90           90           90 
  330000    269.32363   -10848.687   -9635.6522   -10848.687            0    5208.3431     46.67173    19.897218    20.766209            0            0            0    19284.282    6046.0062    4810.6226    4768.4004    77.118667    896.16191    350.08756     46.67173    19.897218    20.766209           90           90           90 
  330500    260.60359   -10924.578   -9750.8187   -10924.578            0    5527.0896    46.688187    19.938572    20.730435            0            0            0    19297.875    5189.8609       5340.7    6050.7079   -764.65207    -447.0629   -216.85318    46.688187    19.938572    20.730435           90           90           90 
  331000    262.82586   -10949.266   -9765.4968   -10949.266            0    6694.8552    46.542587    20.043028    20.551751            0            0            0     19171.79    6806.5842    5542.4933     7735.488    90.798549   -739.41458    982.97168    46.542587    20.043028    20.551751           90           90           90 
  331500    258.72967   -10900.468   -9735.1483   -10900.468            0    5790.6519    46.634263    19.940192     20.77369            0            0            0    19317.374    5812.1046    5960.0419    5599.8092   -160.17998    16.390711   -144.19198    46.634263    19.940192     20.77369           90           90           90 
  332000    259.12821   -10904.238   -9737.1231   -10904.238            0    5566.1869    46.550305    20.035979    20.617033            0            0            0    19229.114    5577.9859    5385.0059    5735.5689    189.05767   -400.02115     275.0447    46.550305    20.035979    20.617033           90           90           90 
  332500    266.41952   -10913.002   -9713.0472   -10913.002            0    6767.4041    46.619996    19.948836     20.60814            0            0            0    19165.873      6394.95    7192.5639    6714.6985   -319.92323    503.48136    77.049396    46.619996    19.948836     20.60814           90           90           90 
  333000    276.91599   -10940.618   -9693.3871   -10940.618            0    5204.3704    46.958103    19.829337    20.757153            0            0            0    19327.983    4453.5659    5656.4042    5503.1411   -336.41765   -156.33272    302.89373    46.958103    19.829337    20.757153           90           90           90 
  333500    276.73237   -10907.209   -9660.8054   -10907.209            0    5605.3601     46.52186    20.050901    20.630261            0            0            0    19244.015    4796.3065    5387.2452    6632.5285    -133.7185    90.072569   -213.14131     46.52186    20.050901    20.630261           90           90           90 
  334000    266.68927   -10888.856   -9687.6864   -10888.856            0    6437.6889    46.294662    20.095556    20.674017            0            0            0     19233.39    6735.3856    5963.8765    6613.8047    90.298799   -401.81055    316.79618    46.294662    20.095556    20.674017           90           90           90 
  334500    264.46696   -10932.271   -9741.1106   -10932.271            0    6342.5751    46.676291    19.925113    20.674479            0            0            0    19227.894    5864.3951    6475.3716    6687.9586   -207.91627   -296.41504   -754.13834    46.676291    19.925113    20.674479           90           90           90 
  335000     256.1533   -10948.245   -9794.5297   -10948.245            0    6667.1768    46.535591    20.055334    20.564892            0            0            0    19192.943    7095.8849     5779.018    7126.6276    183.56445   -86.191665    754.58963    46.535591    20.055334    20.564892           90           90           90 
  335500    275.83466     -10884.1   -9641.7395     -10884.1            0    5650.0957    46.653705    19.886278    20.754578            0            0            0    19255.445    5593.5458    5961.6883    5395.0529   -403.72349   -336.47472   -121.42993    46.653705    19.886278    20.754578           90           90           90 
  336000    267.50262    -10943.87   -9739.0374    -10943.87            0    4547.8251    46.663489    20.134971    20.653202            0            0            0    19405.088    4243.4547    4418.5352    4981.4852    5.7157503   -98.595844    345.69308    46.663489    20.134971    20.653202           90           90           90 
  336500    266.68572   -10892.263    -9691.109   -10892.263            0    6132.7385     46.70599    19.922529    20.659842            0            0            0    19224.013    5951.8689    5948.6475    6497.6991   -122.74848   -344.58716   -194.62556     46.70599    19.922529    20.659842           90           90           90 
  337000    267.02791   -10894.282   -9691.5873   -10894.282            0    7489.1581    46.522769    19.831822    20.722643            0            0            0    19119.359     8114.892     7737.665    6614.9172   -266.57343    1277.6084    771.18005    46.522769    19.831822    20.722643           90           90           90 
  337500    282.60288   -10961.691   -9688.8467   -10961.691            0    5674.2435    46.522578     20.10564    20.585851            0            0            0    19255.309     6680.251    4495.5237    5846.9557    196.46007    241.79263    17.236923    46.522578     20.10564    20.585851           90           90           90 
  338000    257.57791   -10964.382   -9804.2497   -10964.382            0    5835.4316    46.257323    19.938202    20.837778            0            0            0    19218.429    6188.6505    6443.6529    4873.9914   -150.95038    568.39783   -289.77779    46.257323    19.938202    20.837778           90           90           90 
  338500    263.68819   -10922.643   -9734.9899   -10922.643            0    6426.6257    46.659934    19.971494    20.651045            0            0            0     19244.06    7811.4389    5761.4125    5707.0257    123.62728    2.9609874    74.881542    46.659934    19.971494    20.651045           90           90           90 
  339000    274.49382   -10920.943    -9684.622   -10920.943            0    5656.6618    46.785256    19.767111    20.687221            0            0            0    19131.735    6352.9157    5310.7608    5306.3088     290.5056     390.1991   -586.51592    46.785256    19.767111    20.687221           90           90           90 
  339500      265.284   -10923.718   -9728.8779   -10923.718            0    6828.3146    46.678499    20.099807     20.54296            0            0            0    19273.997    7483.2988     5510.642    7491.0031    87.413343    99.453041   -1392.3621    46.678499    20.099807     20.54296           90           90           90 
  340000    269.18017   -10921.376   -9708.9876   -10921.376            0    6873.8625    46.282957    19.920047    20.752908            0            0            0    19133.323     6781.042    6969.7204    6870.8251    219.53899   -366.63846   -179.25065    46.282957    19.920047    20.752908           90           90           90 
  340500    273.17563   -10922.136   -9691.7524   -10922.136            0    6538.9214    46.948536    19.795341    20.657301            0            0            0    19198.116    5694.0093    7183.7839    6738.9709   -1058.1203    294.04249     459.7835    46.948536    19.795341    20.657301           90           90           90 
  341000    258.13124   -10928.051   -9765.4272   -10928.051            0    5659.7362    46.731823    20.016294    20.569297            0            0            0    19240.477    5548.7276    5606.5365    5823.9444     89.54867   -734.75858   -59.671409    46.731823    20.016294    20.569297           90           90           90 
  341500    265.45048   -10929.731   -9734.1413   -10929.731            0     6547.415    46.501737    19.918628    20.765548            0            0            0    19234.106    7129.3516    6283.2464     6229.647    601.84044    562.87263    560.62584    46.501737    19.918628    20.765548           90           90           90 
  342000    260.41743   -10928.813   -9755.8915   -10928.813            0    5748.7197     47.01811    19.966852    20.622299            0            0            0    19360.289    4889.4672    5942.9991    6413.6929    330.10543   -138.70499    93.680472     47.01811    19.966852    20.622299           90           90           90 
  342500    263.96423   -10936.055   -9747.1588   -10936.055            0    6821.2744    46.615505    19.910363    20.640337            0            0            0    19156.949    5057.0443    8531.0481    6875.7308    380.55373   -137.62099   -514.44857    46.615505    19.910363    20.640337           90           90           90 
  343000    263.22178   -10925.232   -9739.6802   -10925.232            0    5065.8773    46.417632    19.972866    20.792242            0            0            0    19276.345    5207.1807    4918.6586    5071.7926    508.53219   -509.17933   -166.70384    46.417632    19.972866    20.792242           90           90           90 
  343500     270.9058   -10938.287   -9718.1263   -10938.287            0    6006.9766    46.301448    20.261222    20.492883            0            0            0    19224.863    5806.2369    4897.8602    7316.8327    -277.2237    320.23524    346.66548    46.301448    20.261222    20.492883           90           90           90 
  344000    265.07298   -10955.686   -9761.7967   -10955.686            0    6576.6924    46.731288    19.821114    20.713509            0            0            0    19186.223    6104.8019    7681.5767    5943.6986    221.36224    176.18072    253.68659    46.731288    19.821114    20.713509           90           90           90 
  344500    258.70394    -10915.82   -9750.6163    -10915.82            0    5786.1547    46.748595    19.891955    20.641226            0            0            0    19194.709     6074.732    5477.0138    5806.7182   -5.6878099    -282.5147    52.240797    46.748595    19.891955    20.641226           90           90           90 
  345000    270.37177   -10912.844   -9695.0881   -10912.844            0    6285.6769    46.363704    20.011944    20.714417            0            0            0    19219.413     6216.773    7024.9877      5615.27   -162.50325   -1493.5345   -640.20426    46.363704    20.011944    20.714417           90           90           90 
  345500    269.16895   -10975.832   -9763.4943   -10975.832            0    5658.7296    46.553253    19.907862    20.659372            0            0            0    19146.605    5344.3639    5464.5519    6167.2732    37.983658   -600.85898    542.29682    46.553253    19.907862    20.659372           90           90           90 
  346000    257.60878   -10955.097   -9794.8261   -10955.097            0     6106.048    46.958479    19.947534    20.511356            0            0            0    19213.107    5382.2802    6648.5884    6287.2754   -464.32823    684.40412   -125.45039    46.958479    19.947534    20.511356           90           90           90 
  346500    274.43289   -10961.375   -9725.3285   -10961.375            0    6232.7654    46.701668     19.81208    20.834862            0            0            0    19277.606    5032.6832    7437.7763    6227.8367     306.1066    47.580402    250.61517    46.701668     19.81208    20.834862           90           90           90 
  347000    259.73946   -10908.929   -9739.0614   -10908.929            0    6453.2585    46.703086    20.035135    20.524329            0            0            0    19204.669    7383.7315    5102.3753    6873.6687    421.32662   -317.21329     356.1531    46.703086    20.035135    20.524329           90           90           90 
  347500    268.89868    -10918.45   -9707.3297    -10918.45            0    6298.8227    46.254119     20.14198       20.687            0            0            0    19273.034    6563.6063    6385.1481    5947.7137   -165.68336   -1432.0036     163.6634    46.254119     20.14198       20.687           90           90           90 
  348000    252.78147   -10956.685   -9818.1566   -10956.685            0    6317.4817    46.442521    20.008084    20.642736            0            0            0    19181.765    6858.1853     5002.674    7091.5858   -117.98853    456.53292    547.57797    46.442521    20.008084    20.642736           90           90           90 
  348500    257.16472   -10969.408   -9811.1374   -10969.408            0    5454.7081    46.511581    19.929854    20.757103            0            0            0    19241.191     5444.937     5349.796    5569.3913     97.69969   -311.16718     844.6953    46.511581    19.929854    20.757103           90           90           90 
  349000    263.34596   -10948.359    -9762.248   -10948.359            0    6125.5432    47.099882    19.896802    20.597506            0            0            0    19302.685    4703.8786    7017.4662    6655.2849    98.603885    163.23499    530.80523    47.099882    19.896802    20.597506           90           90           90 
  349500    274.51032    -10940.07   -9703.6743    -10940.07            0    4313.0744     46.52989    20.060722    20.704854            0            0            0     19326.39    4414.6996    4851.4988    3673.0248   -220.64829    332.53456      -291.04     46.52989    20.060722    20.704854           90           90           90 
  350000    269.23357   -10942.523   -9729.8941   -10942.523            0    6185.8436    46.495482    19.950419     20.73556            0            0            0    19234.396    7060.7474    5613.1367    5883.6468    305.35386   -220.52432    258.11514    46.495482    19.950419     20.73556           90           90           90 
  350500    275.99151   -10907.219   -9664.1523   -10907.219            0    6403.2655    46.609134    19.996333    20.490672            0            0            0    19097.547    6540.2282    6213.9931    6455.5751   -114.29395    763.88169    181.64273    46.609134    19.996333    20.490672           90           90           90 
  351000    263.42961   -10932.913   -9746.4252   -10932.913            0    6068.1557    46.703714    19.846284    20.775369            0            0            0    19256.589    5829.1888    6320.8528    6054.4256   -632.39808   -530.42746    1311.1736    46.703714    19.846284    20.775369           90           90           90 
  351500    263.48485   -10879.596   -9692.8588   -10879.596            0    6639.8222    46.450859    20.112069    20.510587            0            0            0     19161.46    6771.6202    5523.0513    7624.7951    160.95214    48.097542    375.92827    46.450859    20.112069    20.510587           90           90           90 
  352000    262.22877   -10920.338   -9739.2589   -10920.338            0    5284.1263    46.423697    20.107529    20.697581            0            0            0    19320.484    5771.7901    4833.6453    5246.9434   -42.101267    764.37074    397.64324    46.423697    20.107529    20.697581           90           90           90 
  352500    262.32239   -10939.005   -9757.5038   -10939.005            0    5031.8931    46.773968    19.857381    20.744218            0            0            0    19267.406    4963.2156    5326.5008     4805.963   -445.06632    692.68703    356.66567    46.773968    19.857381    20.744218           90           90           90 
  353000    259.76625   -10967.072   -9797.0833   -10967.072            0    4606.4021    46.999816    19.896064    20.609902            0            0            0    19272.553    4539.5417    5122.4808    4157.1837   -255.54084   -394.20829   -737.50351    46.999816    19.896064    20.609902           90           90           90 
  353500    261.45027   -10926.462   -9748.8885   -10926.462            0    6422.6552    46.535821    19.881892    20.702556            0            0            0    19154.422    6268.3418    6940.7411    6058.8826   -230.55095    716.39077    27.134562    46.535821    19.881892    20.702556           90           90           90 
  354000    266.10212   -10893.128   -9694.6025   -10893.128            0    5076.2351    46.423336    20.132746    20.694779            0            0            0    19341.946    5384.8029    4486.9536    5356.9486    204.47175    576.89509   -740.83639    46.423336    20.132746    20.694779           90           90           90 
  354500    259.94131   -10870.818   -9700.0413   -10870.818            0    6567.0476    46.580423    20.018508    20.611872            0            0            0    19219.964    7991.3151    5828.9206    5880.9072    191.29561    518.28326   -111.40779    46.580423    20.018508    20.611872           90           90           90 
  355000    269.29607   -10933.058   -9720.1475   -10933.058            0    6392.1456    46.565549    19.842435    20.764722            0            0            0     19186.06    5737.9109    7680.0616    5758.4642   -68.076084    -578.7017   -87.501883    46.565549    19.842435    20.764722           90           90           90 
  355500    268.43656   -10986.536   -9777.4969   -10986.536            0    5158.8823    46.910745    20.007751    20.495705            0            0            0    19236.829    3738.9989    6148.9747    5588.6733   -125.12488     385.6299    293.89547    46.910745    20.007751    20.495705           90           90           90 
  356000    260.95009   -10918.744   -9743.4237   -10918.744            0    5116.9258    46.508151    19.962509    20.733841            0            0            0      19249.7    4689.2833    5136.3413    5525.1528   -184.18896   -278.74633    721.89116    46.508151    19.962509    20.733841           90           90           90 
  356500    267.53384    -10871.56   -9666.5862    -10871.56            0    5988.0734    46.462495    20.008286    20.747771            0            0            0    19287.852    6332.7609    5678.2463     5953.213    243.84066   -68.137445   -413.74267    46.462495    20.008286    20.747771           90           90           90 
  357000    261.78911   -10915.819   -9736.7199   -10915.819            0    5740.8487    46.712513    20.040821    20.626985            0            0            0    19310.098    5048.8183    5760.3026    6413.4251   -122.21328    547.58695   -469.03098    46.712513    20.040821    20.626985           90           90           90 
  357500    270.84933   -10923.227   -9703.3207   -10923.227            0    6392.6468    46.753799    19.984817    20.654028            0            0            0    19298.424    6495.1224    6214.9394    6467.8787   -45.312687   -580.23425   -637.20097    46.753799    19.984817    20.654028           90           90           90 
  358000    260.68495   -10934.389   -9760.2626   -10934.389            0    5592.3978    46.385128    19.897484      20.7998            0            0            0     19197.12    6337.1489    5229.7866     5210.258    84.781208    942.64863   -368.81904    46.385128    19.897484      20.7998           90           90           90 
  358500    259.75912   -10904.045   -9734.0891   -10904.045            0     5709.568    46.716814    20.055867    20.538295            0            0            0    19243.277    6616.5206    4072.4466     6439.737     149.5935   -144.38399    423.33499    46.716814    20.055867    20.538295           90           90           90 
  359000    268.61297   -10914.189   -9704.3552   -10914.189            0    6396.8792    46.691977    19.882952    20.666256            0            0            0    19186.021    5477.0851    7245.1148    6468.4378    423.82518   -444.86705   -265.10235    46.691977    19.882952    20.666256           90           90           90 
  359500    267.39389   -10899.012   -9694.6692   -10899.012            0    5929.2926    46.817788    19.838647    20.741351            0            0            0    19264.599     4704.756    7317.4257    5765.6962    -229.7816   -11.293184    338.06249    46.817788    19.838647    20.741351           90           90           90 
  360000    260.71751   -10956.984    -9782.711   -10956.984            0    5329.0636    46.581163    20.085624    20.660562            0            0            0    19330.264    5185.3932     5612.924    5188.8735   -83.767225    74.419175    369.77256    46.581163    20.085624    20.660562           90           90           90 
  360500    257.63648   -10914.798   -9754.4022   -10914.798            0     5414.756    46.444959    20.051284    20.714896            0            0            0     19291.39    5764.9021    4190.4207    6288.9451   -181.51582   -340.82357    -211.8282    46.444959    20.051284    20.714896           90           90           90 
  361000    261.76602   -10879.155   -9700.1593   -10879.155            0    6765.3512    46.621697    19.935171    20.693368            0            0            0    19232.655    7248.4837     6695.969    6351.6009    102.42397   -991.00787    1136.0122    46.621697    19.935171    20.693368           90           90           90 
  361500    260.83534   -10896.366   -9721.5622   -10896.366            0    5801.7162    46.812616    20.065326     20.49611            0            0            0    19252.209    5763.9785     5641.701    5999.4692    539.52954   -77.788028    555.68491    46.812616    20.065326     20.49611           90           90           90 
  362000    260.13728   -10932.725   -9761.0654   -10932.725            0     5955.064    46.645403    19.850337    20.847671            0            0            0    19303.421    5984.5184    6697.7053    5182.9684    556.38228   -79.245568    116.35414    46.645403    19.850337    20.847671           90           90           90 
  362500    270.73117   -10888.172    -9668.798   -10888.172            0      6471.18    46.539574    20.006135    20.686321            0            0            0    19260.557    5913.0602      7552.24    5948.2398   -29.728777   -461.93795      35.9511    46.539574    20.006135    20.686321           90           90           90 
  363000    271.37618   -10931.066   -9708.7868   -10931.066            0    6100.5434    46.631712    20.069031     20.58828            0            0            0    19267.609    5923.9555    6440.0323    5937.6424    15.506995   -959.03435     -277.176    46.631712    20.069031     20.58828           90           90           90 
  363500    273.24178   -10925.576   -9694.8942   -10925.576            0    6720.1541     46.51808     19.95054    20.685855            0            0            0    19197.732    6851.5486    6708.5678     6600.346   -149.62625   -298.20678    35.869701     46.51808     19.95054    20.685855           90           90           90 
  364000    265.07806   -10908.175   -9714.2624   -10908.175            0    5339.6601    46.632025    19.968612    20.750906            0            0            0    19322.763    6622.0278    4215.3288    5181.6236   -302.26844   -3.3668061   -117.11329    46.632025    19.968612    20.750906           90           90           90 
  364500    259.45581   -10917.195   -9748.6048   -10917.195            0     5368.887    46.246614    20.133441    20.679776            0            0            0    19255.012    5612.9529    5236.3751    5257.3329   -537.95381    649.86608    155.79973    46.246614    20.133441    20.679776           90           90           90 
  365000     268.2171    -10935.99   -9727.9396    -10935.99            0    6055.6196    46.505661    20.009216    20.675336            0            0            0    19239.265    5644.1169    6295.3812    6227.3606    7.2943246    529.27505    290.99472    46.505661    20.009216    20.675336           90           90           90 
  365500    271.69527   -10947.709   -9723.9922   -10947.709            0    7322.5893     46.78779      19.8725    20.583758            0            0            0    19138.579    6121.4053    8700.2624    7146.1001    43.525954   -818.49576   -605.23798     46.78779      19.8725    20.583758           90           90           90 
  366000    269.33447   -10900.263   -9687.1794   -10900.263            0    7017.8619    46.670837    19.948005    20.716069            0            0            0    19286.454    6979.8411    7234.7164    6839.0282    517.68576   -805.33917    195.00155    46.670837    19.948005    20.716069           90           90           90 
  366500    264.94034   -10944.284   -9750.9918   -10944.284            0    4522.7558    46.546365     20.12287    20.664284            0            0            0    19355.129    4663.9315    4100.8268     4803.509   -244.17311   -1007.4419    931.71909    46.546365     20.12287    20.664284           90           90           90 
  367000    257.89118   -10923.722   -9762.1794   -10923.722            0    6698.6514    46.609974    19.829981    20.604814            0            0            0    19044.512    8478.4459    4678.3023    6939.2061   -718.27821    648.15515   -393.72077    46.609974    19.829981    20.604814           90           90           90 
  367500    257.14354   -10905.271   -9747.0955   -10905.271            0    5824.1496    46.601208    19.999747    20.692407            0            0            0    19285.579    4610.7132     7014.163    5847.5726    70.031738     346.2674    301.17301    46.601208    19.999747    20.692407           90           90           90 
  368000    275.97777   -10950.647   -9707.6422   -10950.647            0    5603.2788    46.766504    19.923323    20.656479            0            0            0    19246.554    4602.2825    6273.3523    5934.2014   -678.79515    294.23517   -524.76006    46.766504    19.923323    20.656479           90           90           90 
  368500    259.25223   -10931.901   -9764.2281   -10931.901            0    5017.3274    46.653131    20.068015    20.718021            0            0            0    19396.951    5599.8775    5051.7989    4400.3058   -232.05762    376.79878   -808.79496    46.653131    20.068015    20.718021           90           90           90 
  369000    273.95069   -10938.143   -9704.2677   -10938.143            0    6870.0016    46.458064    19.921887    20.717983            0            0            0    19175.162    6854.1879    6678.4382    7077.3787   -327.43336    1415.6482    375.48043    46.458064    19.921887    20.717983           90           90           90 
  369500    265.69402   -10895.309   -9698.6224   -10895.309            0    5984.8849     46.46938    20.067693     20.57488            0            0            0     19186.76    5263.3982    6138.2545    6553.0021   -320.11086   -122.36999   -734.35053     46.46938    20.067693     20.57488           90           90           90 
  370000    262.26991   -10906.785   -9725.5206   -10906.785            0    6363.2678    46.542582    19.986355    20.712064            0            0            0    19266.705    6566.7799    5826.0959    6696.9278   -24.133453    66.725174    198.30373    46.542582    19.986355    20.712064           90           90           90 
  370500     266.5669   -10918.028   -9717.4094   -10918.028            0    6610.4974     46.71027    19.868218     20.64028            0            0            0    19155.208    6103.7576    8222.4647    5505.2699   -228.63599   -785.72428    81.989765     46.71027    19.868218     20.64028           90           90           90 
  371000    258.81691   -10946.592   -9780.8793   -10946.592            0    5786.1166    46.623904    19.951214    20.650518            0            0            0    19209.183    3884.9829    7627.8978    5845.4691   -146.17803   -1.2546327    268.42744    46.623904    19.951214    20.650518           90           90           90 
  371500    264.79526   -10964.588   -9771.9495   -10964.588            0    5630.4636    46.303019     20.01942    20.754362            0            0            0    19238.455    5750.4295    5164.6759    5976.2854    185.62298     466.7358     765.0979    46.303019     20.01942    20.754362           90           90           90 
  372000    267.13259   -10938.427   -9735.2607   -10938.427            0    5612.5084    46.759857    20.029806    20.508923            0            0            0     19208.47    6193.4962    4423.1871    6220.8418   -1007.9249   -440.37635   -339.14854    46.759857    20.029806    20.508923           90           90           90 
  372500    262.64798   -10933.132   -9750.1645   -10933.132            0    5908.9706    46.923281     19.78943    20.772217            0            0            0    19288.769    5260.9252    7460.8791    5005.1076    191.74311   -1012.9649     64.42198    46.923281     19.78943    20.772217           90           90           90 
  373000    262.20084   -10988.527   -9807.5731   -10988.527            0    5158.2789    46.552156    20.011031    20.669716            0            0            0    19255.011     4065.604    5671.3869    5737.8458   -452.06604     151.5334   -635.61298    46.552156    20.011031    20.669716           90           90           90 
  373500    269.34066   -10910.725   -9697.6135   -10910.725            0    6733.6579    46.582013    20.039986    20.615666            0            0            0    19244.784    5600.0657    7473.3999    7127.5082    2.6976258   -384.73883    -1059.217    46.582013    20.039986    20.615666           90           90           90 
  374000    266.44922   -10869.071    -9668.983   -10869.071            0    7856.6224     46.46159    19.961727    20.662446            0            0            0    19163.459    7748.0026    7634.1096     8187.755    21.546119    261.07566   -139.86027     46.46159    19.961727    20.662446           90           90           90 
  374500     269.9646   -10906.569   -9690.6474   -10906.569            0    5177.2079    46.678918    19.979073    20.757985            0            0            0    19358.928    6431.0692     4069.604    5030.9504   -402.63098    790.62829    -395.1799    46.678918    19.979073    20.757985           90           90           90 
  375000    256.15612   -10919.722   -9765.9934   -10919.722            0    5798.2027    46.791667    19.955904     20.59337            0            0            0    19229.472    3759.8109    7069.7591    6565.0382    55.652839   -382.20576   -53.496847    46.791667    19.955904     20.59337           90           90           90 
  375500    261.21052   -10909.151   -9732.6576   -10909.151            0    6260.9659     46.43343    19.842039    20.828082            0            0            0    19189.619    6887.1396    4901.3967    6994.3613    190.20061    49.325163    418.83466     46.43343    19.842039    20.828082           90           90           90 
  376000    267.34811   -10903.557   -9699.4197   -10903.557            0    6654.2327    46.412344     20.01694    20.604412            0            0            0    19142.182     6149.758    6898.9002    6914.0401   -171.40159   -447.03937    61.965369    46.412344     20.01694    20.604412           90           90           90 
  376500    269.38808   -10918.853   -9705.5278   -10918.853            0    5980.3455    46.432841     19.99978    20.650886            0            0            0    19177.375    6197.2312    5546.4906    6197.3146    264.66077    282.55363    9.4493713    46.432841     19.99978    20.650886           90           90           90 
  377000    248.56079   -10920.616   -9801.0969   -10920.616            0    5750.9161    46.699112    19.847546    20.803279            0            0            0    19281.785    5817.7098    6649.9901    4785.0485    199.27211    151.37644   -341.88584    46.699112    19.847546    20.803279           90           90           90 
  377500    267.27854   -10941.964   -9738.1405   -10941.964            0    5917.3314     46.87812    19.891721    20.613552            0            0            0    19221.859    5356.8971    7168.1222    5226.9749    59.628692   -151.29934   -164.29319     46.87812    19.891721    20.613552           90           90           90 
  378000    267.04559   -10925.719   -9722.9449   -10925.719            0     5347.171    46.749571    19.936397    20.693365            0            0            0    19286.589    3741.4339    6664.2663     5635.813   -128.36093   -46.862905   -993.23352    46.749571    19.936397    20.693365           90           90           90 
  378500    263.24124   -10912.038   -9726.3986   -10912.038            0    5244.9757    46.464132    19.959596    20.705077            0            0            0    19201.998    5479.1003    5036.5858    5219.2411   -211.92622    -989.7887    407.83715    46.464132    19.959596    20.705077           90           90           90 
  379000    255.55839    -10904.98   -9753.9443    -10904.98            0    6280.3256    46.571015    20.055409    20.558025            0            0            0    19201.211    6708.2107    5830.7113    6302.0547   -109.14154    386.86185    401.34646    46.571015    20.055409    20.558025           90           90           90 
  379500    261.71481   -10945.288    -9766.523   -10945.288            0    7897.7363    46.439963    19.857312    20.702669            0            0            0    19091.439    7672.3252    9734.6631    6286.2206   -376.52231    -170.3326   -1468.0821    46.439963    19.857312    20.702669           90           90           90 
  380000    253.44653   -11024.675    -9883.151   -11024.675            0    4657.6128    46.958231    19.812391      20.7356            0            0            0    19291.466    3947.9526    5489.0112    4535.8745    253.41392   -445.29811    -572.3831    46.958231    19.812391      20.7356           90           90           90 
  380500    270.48868   -10886.853   -9668.5706   -10886.853            0    6002.0824     46.55561    20.075395    20.674659            0            0            0    19322.996     6026.322    6008.8092    5971.1161   -520.91493   -356.18448   -179.22121     46.55561    20.075395    20.674659           90           90           90 
  381000    259.98744   -10868.789   -9697.8049   -10868.789            0    6934.1316    46.250221    19.988323    20.752432            0            0            0    19184.884    6948.9115    7257.5385    6595.9448    177.40858   -844.96792    -362.1482    46.250221    19.988323    20.752432           90           90           90 
  381500    276.89494   -10907.142   -9660.0059   -10907.142            0    6513.1416    46.781212    19.983495    20.531028            0            0            0    19193.475    5648.8584    6635.9077    7254.6589    52.443215    710.56389    293.45389    46.781212    19.983495    20.531028           90           90           90 
  382000    268.36756   -10948.846   -9740.1177   -10948.846            0     5907.307    46.479227    19.969512    20.713824            0            0            0    19225.898    5374.7714    6177.5413    6169.6084    -172.5715    -429.0377    232.02211    46.479227    19.969512    20.713824           90           90           90 
  382500    266.31497   -10922.054   -9722.5706   -10922.054            0     5635.329    46.657123    20.031264    20.683085            0            0            0    19330.435    6451.0619    5311.9678    5142.9574    47.239441   -141.27058    107.42014    46.657123    20.031264    20.683085           90           90           90 
  383000    265.37934   -10898.167   -9702.8976   -10898.167            0    5373.9332    46.697202    20.012135    20.597199            0            0            0    19248.303    4984.8109    5485.7268     5651.262   -529.62631    377.05299   -115.47522    46.697202    20.012135    20.597199           90           90           90 
  383500    266.37051   -10908.284   -9708.5507   -10908.284            0    6238.6809    46.446462    19.872845    21.002728            0            0            0    19386.007    6311.2864    6084.3273    6320.4289    33.883641    426.49655   -786.56624    46.446462    19.872845    21.002728           90           90           90 
  384000    256.39749   -10946.606   -9791.7906   -10946.606            0    6126.0265    46.563764    20.020194    20.559916            0            0            0    19166.274    6228.5733    5952.7642     6196.742    176.83014   -350.60797    219.77776    46.563764    20.020194    20.559916           90           90           90 
  384500    258.27776   -10956.296   -9793.0124   -10956.296            0    5252.5981    46.804487    19.928879    20.679175            0            0            0    19288.727    4895.6679    4865.5564    5996.5702    32.635339    101.35884    930.32516    46.804487    19.928879    20.679175           90           90           90 
  385000    260.94215   -10886.784   -9711.4994   -10886.784            0    5711.6874    46.465045    20.019821    20.661011            0            0            0    19219.325    5715.0944    5767.3702    5652.5976    320.92367    1514.0214   -270.40366    46.465045    20.019821    20.661011           90           90           90 
  385500    259.98391   -10894.466   -9723.4971   -10894.466            0    7062.7925    46.190364    20.162803    20.539153            0            0            0    19128.672    7352.7372    6177.5207    7658.1196    252.82491    229.37058    306.43064    46.190364    20.162803    20.539153           90           90           90 
  386000    263.89848   -10906.477   -9717.8775   -10906.477            0    6261.1908    46.632961    19.827136    20.671544            0            0            0    19112.869    5788.9326    6880.7454    6113.8943   -387.80016    186.49726   -633.10006    46.632961    19.827136    20.671544           90           90           90 
  386500     270.6382   -10936.441    -9717.485   -10936.441            0    6533.6512    46.498652    19.959933    20.686275            0            0            0    19199.138    8111.6334    4946.0663    6543.2539   -114.05467   -182.23183   -382.40159    46.498652    19.959933    20.686275           90           90           90 
  387000    267.89655   -10944.721   -9738.1139   -10944.721            0     5998.393    46.731093    19.861267    20.733377            0            0            0     19243.45    5877.6962    6451.0009    5666.4818    143.81388    273.40594    1661.3812    46.731093    19.861267    20.733377           90           90           90 
  387500    255.64931   -10916.058   -9764.6122   -10916.058            0    6059.3081    46.628753    19.973095    20.601936            0            0            0    19187.005    5915.1007    5790.9598    6471.8637   -766.80831    1128.7457   -667.72854    46.628753    19.973095    20.601936           90           90           90 
  388000    265.92068   -10942.998   -9745.2901   -10942.998            0    5017.8662    46.395109    20.052026    20.802958            0            0            0    19353.323    4658.8886    5649.1767    4745.5334    507.36878   -679.38725   -38.291038    46.395109    20.052026    20.802958           90           90           90 
  388500     265.5076   -10983.568   -9787.7204   -10983.568            0    6388.9083    46.420053    20.014647    20.678556            0            0            0    19212.054    7060.3458    5352.4089    6753.9701   -147.98575   -534.23612    1285.1225    46.420053    20.014647    20.678556           90           90           90 
  389000    259.60348   -10906.709   -9737.4541   -10906.709            0    5538.8461    46.743174    20.017423    20.603579            0            0            0    19278.313    5412.1323    6094.5317    5109.8743    57.371071    -1582.646   -654.45534    46.743174    20.017423    20.603579           90           90           90 
  389500    269.90781   -10955.049   -9739.3831   -10955.049            0    5832.9799    46.674948    19.930627    20.804582            0            0            0    19353.691    3947.1758    7597.8884    5953.8755   -390.78113    279.25686   -101.68584    46.674948    19.930627    20.804582           90           90           90 
  390000    268.65999    -10956.82    -9746.774    -10956.82            0    6150.4792    46.345076    20.060492    20.638785            0            0            0    19187.982    7505.7739    4760.2264    6185.4373    432.56511    371.92647     964.9842    46.345076    20.060492    20.638785           90           90           90 
  390500    263.59907     -10891.6   -9704.3491     -10891.6            0    6751.5907    46.498331    19.954597    20.670262            0            0            0    19179.014    7755.6672    5960.6687    6538.4362    341.53978   -121.83988    86.607538    46.498331    19.954597    20.670262           90           90           90 
  391000    270.72266   -10950.793   -9731.4572   -10950.793            0    5844.8242    46.596613    20.023491    20.697415            0            0            0    19311.245    5833.3007    5050.8087    6650.3632    115.11774    -199.3616   -585.19836    46.596613    20.023491    20.697415           90           90           90 
  391500    268.06503   -10893.667   -9686.3011   -10893.667            0    7145.9743    46.409716    19.946788    20.641272            0            0            0    19108.136    6436.0163    7382.9375    7618.9689    355.66767   -188.78299    268.32196    46.409716    19.946788    20.641272           90           90           90 
  392000    261.59964   -10967.623   -9789.3769   -10967.623            0    6457.1185    46.638055    19.878794    20.703494            0            0            0     19194.38    7056.0896     5985.801     6329.465    -428.6175   -744.96036    384.39866    46.638055    19.878794    20.703494           90           90           90 
  392500    266.99181   -10900.432   -9697.9003   -10900.432            0    6080.3361    46.673861    20.118864    20.447464            0            0            0    19200.681    4298.4128    6663.3872    7279.2082    464.71684   -360.57143    415.44106    46.673861    20.118864    20.447464           90           90           90 
  393000    274.60045   -10905.329   -9668.5279   -10905.329            0    7059.2175    46.492049    19.855476    20.798933            0            0            0    19199.947    7538.0986    7434.7972    6204.7566   -71.364335   -148.88176    520.78064    46.492049    19.855476    20.798933           90           90           90 
  393500    258.75354   -10933.661   -9768.2337   -10933.661            0    6572.2494    46.794311    19.970997    20.593547            0            0            0    19245.267    7201.3072     5959.235     6556.206     -268.059   -614.13009    534.41204    46.794311    19.970997    20.593547           90           90           90 
  394000    265.27827   -10968.928   -9774.1135   -10968.928            0    5850.8056    46.658843    19.984074    20.594745            0            0            0    19203.235    5710.6867     5233.439    6608.2912    158.70512   -623.70377    271.24287    46.658843    19.984074    20.594745           90           90           90 
  394500    256.80324   -10901.092   -9744.4488   -10901.092            0    5693.3492     46.11733    19.977981    20.964557            0            0            0    19315.299    7199.1102    4008.8696    5872.0679    495.97511    463.38764   -513.83267     46.11733    19.977981    20.964557           90           90           90 
  395000    266.76465   -10922.272   -9720.7632   -10922.272            0    6725.2004    46.639307    20.008457    20.514442            0            0            0    19143.679    5034.5977    7195.5927    7945.4107   -338.29903    -198.3572    250.71139    46.639307    20.008457    20.514442           90           90           90 
  395500    257.31536   -10984.039     -9825.09   -10984.039            0     5531.484    46.713813    19.851741    20.692816            0            0            0    19189.494    4729.5156    6629.3952    5235.5411   -734.43665    178.11233   -744.52459    46.713813    19.851741    20.692816           90           90           90 
  396000    262.10619   -10948.425   -9767.8976   -10948.425            0    4648.2399    46.868443    19.890753    20.694566            0            0            0    19292.481    4511.0043    5345.5338    4088.1815    240.67167   -235.07683     327.3932    46.868443    19.890753    20.694566           90           90           90 
  396500    271.24027   -10871.656   -9649.9892   -10871.656            0    6710.9899    46.398032    20.043611    20.600112            0            0            0    19157.777    6944.7716    7068.4102    6119.7881    11.506782   -56.659061    -217.8304    46.398032    20.043611    20.600112           90           90           90 
  397000    257.68838   -10971.829   -9811.1992   -10971.829            0    5345.9379    46.570923    19.951731    20.731836            0            0            0    19263.411    4144.1142    6388.3194    5505.3801   -664.49945   -248.02177    793.67595    46.570923    19.951731    20.731836           90           90           90 
  397500    259.64038   -10895.828    -9726.407   -10895.828            0    6571.2777    46.711889    19.913239    20.633347            0            0            0     19192.83    5803.6462     7257.634    6652.5531    131.57353    31.936812    -587.0778    46.711889    19.913239    20.633347           90           90           90 
  398000    265.32909   -10914.959   -9719.9161   -10914.959            0    6469.3926    46.370098    20.037914    20.586661            0            0            0    19128.303    7333.4912    5618.2079    6456.4788    372.05451    819.23284    180.51957    46.370098    20.037914    20.586661           90           90           90 
  398500    271.10454   -10896.157   -9675.1009   -10896.157            0    6425.2937    46.361443    19.929309    20.803993            0            0            0    19221.881    7599.3352    6541.3925    5135.1532    8.6478229    147.24426   -86.549769    46.361443    19.929309    20.803993           90           90           90 
  399000    250.80553   -10919.637   -9790.0079   -10919.637            0    5797.4594    46.844356    19.997491     20.58924            0            0            0    19287.374    6315.2689     4482.502    6594.6072    133.40586    389.77402   -138.10024    46.844356    19.997491     20.58924           90           90           90 
  399500    265.55149   -10949.266   -9753.2215   -10949.266            0    5984.4362    46.540397    19.971364    20.590391            0            0            0    19138.258    5750.6603    5148.0871    7054.5612   -489.74815   -372.96252   -405.82457    46.540397    19.971364    20.590391           90           90           90 
  400000    268.20604   -10964.386   -9756.3845   -10964.386            0    6260.8743    46.516791    19.916329    20.719105            0            0            0    19195.084    8154.6388    5358.5711    5269.4131   -383.37225    281.55212    1099.1284    46.516791    19.916329    20.719105           90           90           90 
  400500    263.23396   -10915.686   -9730.0787   -10915.686            0    6127.3419    46.736028    19.989058    20.598172            0            0            0    19243.001    6390.9226    5423.8661    6567.2371    252.59237    255.18013   -176.16922    46.736028    19.989058    20.598172           90           90           90 
  401000    269.21062   -10881.065   -9668.5394   -10881.065            0    6352.7537    46.888877    19.805648    20.759968            0            0            0    19279.047    6189.9419    7141.3166    5727.0026    220.73875    -449.0551    39.706969    46.888877    19.805648    20.759968           90           90           90 
  401500     266.3003   -10889.132   -9689.7143   -10889.132            0    5978.0763    46.340631    20.079206    20.701007            0            0            0    19261.937    7536.6041    5143.9586    5253.6663   -124.83815   -189.48957    321.94362    46.340631    20.079206    20.701007           90           90           90 
  402000    269.12886    -10924.16   -9712.0026    -10924.16            0    6130.6207    46.482233    20.086462    20.554826            0            0            0    19191.293    5991.2231    6177.4087    6223.2303     284.0719    646.23702   -133.39835    46.482233    20.086462    20.554826           90           90           90 
  402500    260.88169   -10916.662     -9741.65   -10916.662            0     4324.916    46.839845     19.90546    20.817177            0            0            0    19409.284    4163.1963    3938.5466     4873.005    183.08566    531.69185    13.151241    46.839845     19.90546    20.817177           90           90           90 
  403000    261.17311   -10916.826    -9740.501   -10916.826            0    5546.3539    46.820967    19.907052    20.668241            0            0            0    19264.194    4151.7876     6377.333     6109.941    170.29168   -145.12176    215.49972    46.820967    19.907052    20.668241           90           90           90 
  403500    261.56878   -10924.912   -9746.8055   -10924.912            0    5452.7989    46.601953    19.976427    20.635094            0            0            0    19210.045    6242.5027    4735.2299     5380.664   -618.42095   -233.38791     301.0651    46.601953    19.976427    20.635094           90           90           90 
  404000    262.48693   -10968.397   -9786.1546   -10968.397            0    6625.2243    46.516305    19.763678    20.746893            0            0            0    19073.309    6990.3867    6360.9664    6524.3197   -244.82111   -497.92251   -369.45036    46.516305    19.763678    20.746893           90           90           90 
  404500    262.77693    -10930.89   -9747.3416    -10930.89            0    5512.4403     46.50935    20.128965    20.653272            0            0            0    19335.285    3880.0481    6473.3692    6183.9036    -205.3632    402.42147    848.95217     46.50935    20.128965    20.653272           90           90           90 
  405000    263.32643   -10957.622   -9771.5991   -10957.622            0    5407.6459    46.741549    19.957812    20.665361            0            0            0     19277.87    3761.9077    5473.6921    6987.3379   -452.74477    182.91235    1168.7421    46.741549    19.957812    20.665361           90           90           90 
  405500    270.48262   -10897.742   -9679.4868   -10897.742            0     5568.648    46.588133    19.990636    20.697435            0            0            0    19276.068    7241.1682    4657.2338    4807.5421    70.767039    22.564035    418.12123    46.588133    19.990636    20.697435           90           90           90 
  406000    263.53149   -10902.681   -9715.7339   -10902.681            0    6321.7849    46.379983    19.992044    20.698789            0            0            0    19192.551    7362.0776    5967.6158    5635.6612   -198.24564    66.278607   -764.50901    46.379983    19.992044    20.698789           90           90           90 
  406500    262.92447   -10946.912   -9762.6992   -10946.912            0    5296.2126    46.915466    19.976188    20.558544            0            0            0    19267.306    6981.8086    3689.4961    5217.3332    170.95229    787.34022   -279.07572    46.915466    19.976188    20.558544           90           90           90 
  407000    269.12497   -10956.943   -9744.8032   -10956.943            0    6059.6764    46.812047    19.866625    20.704057            0            0            0    19254.719    5876.8249    6645.4812     5656.723    166.80864   -35.754227     100.1998    46.812047    19.866625    20.704057           90           90           90 
  407500    264.63165   -10946.236   -9754.3345   -10946.236            0    6019.2247    46.474454    19.896148    20.804104            0            0            0    19236.778    7470.1938    4941.0183    5646.4621    146.12564    337.99152    952.00642    46.474454    19.896148    20.804104           90           90           90 
  408000    261.34584   -10902.714   -9725.6117   -10902.714            0    6094.4936    46.613156    20.086003    20.584738            0            0            0    19272.914    6721.8521     5590.575    5971.0537   -383.97889    316.36522    635.55596    46.613156    20.086003    20.584738           90           90           90 
  408500     268.6021   -10938.285   -9728.5004   -10938.285            0    5971.3948    46.706093    19.927146    20.761376            0            0            0     19323.01    5915.6047    6055.2486    5943.3312    295.73114    79.473845    57.454848    46.706093    19.927146    20.761376           90           90           90 
  409000    270.24958   -10920.096   -9702.8911   -10920.096            0    6110.3068    46.803711    19.968585    20.575393            0            0            0    19229.842    4919.8385    6188.6314    7222.4506     167.9561   -1680.4565    259.10799    46.803711    19.968585    20.575393           90           90           90 
  409500    251.87534    -10908.85   -9774.4021    -10908.85            0    5366.0747    46.404698    20.082268    20.601083            0            0            0    19198.388    5643.9345    5435.1058    5019.1837   -458.17218    538.08922    573.04476    46.404698    20.082268    20.601083           90           90           90 
  410000    257.04833   -10922.066    -9764.319   -10922.066            0    5028.7188    46.516835    19.935423    20.784893            0            0            0    19274.513    5899.3823    4603.1415    4583.6326   -289.95981    862.71294    343.39182    46.516835    19.935423    20.784893           90           90           90 
  410500    273.17776   -10927.603   -9697.2092   -10927.603            0    5444.8997    46.682057    20.042425    20.583101            0            0            0    19257.995    5951.8497    5075.6838    5307.1655     420.5736    23.312588    397.77342    46.682057    20.042425    20.583101           90           90           90 
  411000    277.23455   -10892.093   -9643.4277   -10892.093            0    6684.8541    46.449375    19.942683     20.75234            0            0            0    19223.415    6613.3964      7754.24    5686.9258   -203.82927   -404.26501    205.59448    46.449375    19.942683     20.75234           90           90           90 
  411500    253.03456   -10944.437   -9804.7685   -10944.437            0    6066.6001    46.429031    19.981224    20.745653            0            0            0    19245.926    6357.1626    5759.2047     6083.433    30.168254    665.50433   -99.477481    46.429031    19.981224    20.745653           90           90           90 
  412000    265.78189   -10935.488   -9738.4049   -10935.488            0    5034.6765    46.861173    20.062883    20.602066            0            0            0    19369.449    4862.4829    4940.2414    5301.3051   -307.46665    45.764194   -768.87496    46.861173    20.062883    20.602066           90           90           90 
  412500    265.16819    -10907.33    -9713.011    -10907.33            0    6196.2281    46.491709    19.876141    20.764331            0            0            0    19187.815    6467.5787    6546.1913    5574.9143    647.24358    74.559493    219.52184    46.491709    19.876141    20.764331           90           90           90 
  413000    263.95483   -10943.298   -9754.4446   -10943.298            0    7186.4683    46.397114    19.915442    20.614279            0            0            0    19047.986    8152.2926    6852.8064    6554.3059    39.235087   -149.53191   -216.29242    46.397114    19.915442    20.614279           90           90           90 
  413500    266.95518   -10916.716   -9714.3491   -10916.716            0    6887.0872    47.055657    19.920764    20.509152            0            0            0    19224.964    6440.2659    7775.7002    6445.2957    68.471944   -1119.3263    977.57288    47.055657    19.920764    20.509152           90           90           90 
  414000    263.41127   -10933.267    -9746.862   -10933.267            0    5399.4583    46.724673    19.914609     20.70336            0            0            0     19264.55    5683.7581    6187.0371    4327.5799    474.70251   -331.47618    1246.1449    46.724673    19.914609     20.70336           90           90           90 
  414500    260.48331   -10953.716   -9780.4981   -10953.716            0    4834.9865    46.566018    20.077573    20.632681            0            0            0    19290.167    5274.3603    3536.2195    5694.3798    20.522642    412.10653   -5.4700901    46.566018    20.077573    20.632681           90           90           90 
  415000    263.49676   -10949.677   -9762.8861   -10949.677            0    6548.4472    46.224618    19.998722    20.725653            0            0            0    19159.483    8184.6165    5662.4024    5798.3227   -365.46299   -419.85822    -272.7334    46.224618    19.998722    20.725653           90           90           90 
  415500    271.91519   -10982.532   -9757.8249   -10982.532            0    7053.0551    46.572726     19.87606    20.666474            0            0            0    19130.589    5632.2568    8914.8978    6612.0106    23.496735    -147.0679    309.60933    46.572726     19.87606    20.666474           90           90           90 
  416000    265.32497   -10949.903   -9754.8786   -10949.903            0    6240.0186    46.763302    19.915914    20.607676            0            0            0    19192.627    6783.7289    5658.9145    6277.4124    -528.5695   -145.38308   -102.28349    46.763302    19.915914    20.607676           90           90           90 
  416500     258.2357   -10937.599   -9774.5041   -10937.599            0     3927.321    46.747286    20.100691    20.696712            0            0            0    19447.722    4368.9784    3093.4327    4319.5519   -238.35957    463.03444   -755.13988    46.747286    20.100691    20.696712           90           90           90 
  417000    261.46799   -10930.212   -9752.5586   -10930.212            0    5259.7451    46.573274    19.892551    20.726434            0            0            0    19202.237    5131.4347    5415.7728    5232.0279   -376.94852     5.629842   -807.32777    46.573274    19.892551    20.726434           90           90           90 
  417500    255.68016    -10887.23   -9735.6457    -10887.23            0    5542.2649    46.811055    19.947569    20.602989            0            0            0    19238.385    4035.1821      6348.49    6243.1225   -300.23682    230.39496   -602.48038    46.811055    19.947569    20.602989           90           90           90 
  418000    262.22792   -10932.725   -9751.6491   -10932.725            0    7252.7557    46.651568    19.855471    20.594034            0            0            0    19076.024    6044.9279    8472.7353    7240.6039    94.636214   -795.37333    370.24273    46.651568    19.855471    20.594034           90           90           90 
  418500    263.86007    -10918.78    -9730.353    -10918.78            0    6111.5826     46.67092    19.829711    20.722791            0            0            0    19178.339     5349.796    6990.9452    5994.0065   -112.70188   -489.68529    315.13148     46.67092    19.829711    20.722791           90           90           90 
  419000    256.47008   -10890.144   -9735.0016   -10890.144            0    5866.3879    46.523583    20.122362    20.568208            0            0            0    19255.224    6137.2578    4718.7673    6743.1386   -80.676282    101.99792    731.60592    46.523583    20.122362    20.568208           90           90           90 
  419500    265.19054   -10902.127   -9707.7077   -10902.127            0    6545.6615    46.527896    19.997809    20.745487            0            0            0    19302.763    7442.2618    5660.3151    6534.4077   -984.23074    723.98961    924.10597    46.527896    19.997809    20.745487           90           90           90 
  420000    266.76181   -10968.197   -9766.7009   -10968.197            0    4822.4432    46.703184    20.037136    20.628783            0            0            0    19304.375    4963.7561     4490.063    5013.5106   -381.81465   -305.37356    266.57916    46.703184    20.037136    20.628783           90           90           90 
  420500    266.77796   -10836.983   -9635.4139   -10836.983            0    7132.0895    46.420281    19.947002    20.668255            0            0            0    19137.676    6978.4924    7613.0946    6804.6816    353.92794    138.48568   -241.07174    46.420281    19.947002    20.668255           90           90           90 
  421000    266.33689   -10921.001   -9721.4182   -10921.001            0    5833.7599    46.679297    19.925002    20.730499            0            0            0    19281.128    5211.7091    6051.7167    6237.8539    99.298163    216.98471    1165.2716    46.679297    19.925002    20.730499           90           90           90 
  421500    270.06895   -10895.774   -9679.3819   -10895.774            0    5111.0173    46.883627    20.012161    20.600225            0            0            0    19328.011    4754.1358     4231.528    6347.3881    56.398564    104.62424     749.6392    46.883627    20.012161    20.600225           90           90           90 
  422000    270.18021   -10917.948   -9701.0554   -10917.948            0    6256.1824    46.329509    20.033931    20.679541            0            0            0    19193.968    5324.6846    6873.7302    6570.1323   -845.86667    15.538067    547.10848    46.329509    20.033931    20.679541           90           90           90 
  422500    267.38452   -10911.022   -9706.7211   -10911.022            0    7252.5114    46.629292    19.865769    20.682499            0            0            0    19158.751    6117.6628    8365.0614      7274.81   -213.80283    22.556494   -389.47032    46.629292    19.865769    20.682499           90           90           90 
  423000    265.40466   -10920.566   -9725.1829   -10920.566            0    5743.0924    46.830955    19.993893    20.641062            0            0            0    19326.909    5672.0342    5562.8346    5994.4085   -353.13644    832.29291    867.91768    46.830955    19.993893    20.641062           90           90           90 
  423500    258.58416   -10929.096   -9764.4323   -10929.096            0    6627.5286    46.581423    19.947283    20.726453            0            0            0    19258.456    7117.6261    6761.0928    6003.8669   -2.8765156    1241.6271    593.17005    46.581423    19.947283    20.726453           90           90           90 
  424000    250.62509   -10927.063   -9798.2464   -10927.063            0    4204.7112    46.946489    19.960633    20.692122            0            0            0    19390.207    4420.8244    3991.7896    4201.5196    143.89327    107.51016    893.65778    46.946489    19.960633    20.692122           90           90           90 
  424500    263.69603   -10872.407   -9684.7193   -10872.407            0    6653.6872    46.597793    19.975081    20.584761            0            0            0    19160.186    6724.0192    6660.6507    6576.3915   -124.08913   -8.0647978    135.39138    46.597793    19.975081    20.584761           90           90           90 
  425000    273.45179   -10922.954   -9691.3262   -10922.954            0    6595.4718    46.358157    19.919602    20.821653            0            0            0    19227.465    6490.0632    7527.3977    5768.9546   -149.75271   -198.51849    266.71397    46.358157    19.919602    20.821653           90           90           90 
  425500    275.17447   -10903.383   -9663.9956   -10903.383            0     6796.894    46.602598    20.009779     20.51202            0            0            0    19127.617     6157.591    6633.6138    7599.4772   -118.65074   -512.83789   -24.986189    46.602598    20.009779     20.51202           90           90           90 
  426000    274.22365   -10952.639   -9717.5342   -10952.639            0    5250.8928      46.7692    20.009939    20.732356            0            0            0    19402.352    4881.4347    6115.8665    4755.3772    374.70919   -186.83369   -123.28256      46.7692    20.009939    20.732356           90           90           90 
  426500    266.02787   -10924.371   -9726.1808   -10924.371            0     5738.308    46.488548    20.002836    20.699847            0            0            0    19248.846    6560.2469    5395.3542    5259.3228   -66.490343   -496.02919    855.84426    46.488548    20.002836    20.699847           90           90           90 
  427000    261.21124   -10947.785   -9771.2883   -10947.785            0    5660.7253    46.762584    19.983152    20.671614            0            0            0    19316.875    5772.6476    5026.4874    6183.0411     191.2935    117.54447     440.2742    46.762584    19.983152    20.671614           90           90           90 
  427500    270.77802   -10913.668    -9694.083   -10913.668            0    5533.1988    46.989216    19.818921    20.673544            0            0            0    19252.766    4286.3371     6478.972    5834.2873    333.91842    294.87647    349.93385    46.989216    19.818921    20.673544           90           90           90 
  428000    271.14823   -10960.995   -9739.7419   -10960.995            0    4880.2711    46.606477    20.042601    20.665741            0            0            0    19304.179    4513.6009     5415.731    4711.4812   -288.12221   -172.63522    61.182781    46.606477    20.042601    20.665741           90           90           90 
  428500     269.5341   -10917.517    -9703.534   -10917.517            0    6920.2466     46.46553    19.910189    20.645544            0            0            0    19099.968    6322.2794     7902.021    6536.4393    74.107623   -163.06144   -291.52557     46.46553    19.910189    20.645544           90           90           90 
  429000     264.4243   -10874.578   -9683.6099   -10874.578            0    6025.8879    46.647223    19.917563    20.729786            0            0            0    19260.023    5120.7592    6255.3477    6701.5568     460.2905    313.51211   -404.41055    46.647223    19.917563    20.729786           90           90           90 
  429500    274.46075   -10888.253   -9652.0806   -10888.253            0    6329.1214    46.681286    20.082607    20.476597            0            0            0     19196.44    6423.3554    6059.8603    6504.1484    151.25069   -449.21461    100.41923    46.681286    20.082607    20.476597           90           90           90 
  430000    260.09947   -10931.681   -9760.1917   -10931.681            0    5328.9443    46.496786    19.873278    20.795582            0            0            0    19216.023     6010.985    4906.0768    5069.7712   -199.97528    920.31815    335.14144    46.496786    19.873278    20.795582           90           90           90 
  430500    268.70345   -10926.296   -9716.0546   -10926.296            0    7256.2437    46.675448    19.956077    20.494158            0            0            0    19089.465    7190.8859    6622.9087    7954.9365   -33.418055    67.142455    248.38966    46.675448    19.956077    20.494158           90           90           90 
  431000    261.35205   -10983.138   -9806.0076   -10983.138            0    5612.1257    46.554622    20.006766      20.7088            0            0            0    19288.329    6826.2378    4687.0282    5323.1111   -542.19531   -145.30431    460.04674    46.554622    20.006766      20.7088           90           90           90 
  431500    269.00389   -10948.661    -9737.066   -10948.661            0    6130.7945    46.653353    19.901673    20.738468            0            0            0    19255.248     4917.869    6830.8129    6643.7016   -431.29074   -808.94734   -433.06712    46.653353    19.901673    20.738468           90           90           90 
  432000    265.24208   -10906.367   -9711.7153   -10906.367            0    5791.4981    46.833265     20.03459     20.54683            0            0            0    19278.788    5962.7026    5573.1345    5838.6573     353.8522    480.40146    6.4337608    46.833265     20.03459     20.54683           90           90           90 
  432500    259.67013   -10924.753   -9755.1973   -10924.753            0    5926.0437    46.846349    19.916705    20.679448            0            0            0     19294.44    5192.2462    6955.1702    5630.7147   -301.32669    275.98375    1387.3265    46.846349    19.916705    20.679448           90           90           90 
  433000    260.53877   -10902.808   -9729.3408   -10902.808            0     5763.332    46.437308    19.917921    20.807492            0            0            0     19245.57     7002.537    4783.7305    5503.7284   -7.0617643   -75.074035    201.61448    46.437308    19.917921    20.807492           90           90           90 
  433500    269.85435   -10949.182   -9733.7565   -10949.182            0     6740.686    46.491862    20.059109    20.513964            0            0            0    19131.022    6756.9341    6406.7624    7058.3613    160.75185    31.089999    481.03141    46.491862    20.059109    20.513964           90           90           90 
  434000    270.96406    -10927.96   -9707.5373    -10927.96            0    5121.3106    46.608345    19.938894    20.674129            0            0            0    19212.858    4206.7717    6049.1541    5108.0061   -99.230598   -59.889482    942.37677    46.608345    19.938894    20.674129           90           90           90 
  434500     269.5154    -10887.09   -9673.1919    -10887.09            0    5721.0572    46.672968    19.936563    20.694645            0            0            0    19256.337    5461.8235    5528.2373    6173.1109    605.56493   -160.44707    882.80948    46.672968    19.936563    20.694645           90           90           90 
  435000    259.23037   -10983.877   -9816.3023   -10983.877            0    5350.1194    46.630607    19.876384    20.744429            0            0            0    19226.929    5777.1621    5065.9716    5207.2246    5.5167932    56.594798    949.76144    46.630607    19.876384    20.744429           90           90           90 
  435500     262.4904   -10966.789   -9784.5309   -10966.789            0    4844.4833    46.639685    20.125053    20.631873            0            0            0    19365.616    3767.4626    5154.0747    5611.9127    280.55327    244.46007    -383.2454    46.639685    20.125053    20.631873           90           90           90 
  436000    271.72792   -10926.453   -9702.5889   -10926.453            0    6315.4027    46.547052     20.03553    20.605121            0            0            0     19216.23    6507.6345    5506.5438    6932.0296   -68.699166   -269.31024    36.468985    46.547052     20.03553    20.605121           90           90           90 
  436500    258.10576   -10952.997   -9790.4876   -10952.997            0    5896.5565    46.260214    19.935626    20.808004            0            0            0    19189.689    6908.1855    5700.5717    5080.9122   -363.37758   -398.44515   -302.20244    46.260214    19.935626    20.808004           90           90           90 
  437000    266.85243   -10943.016   -9741.1116   -10943.016            0    6379.7051     46.88268    19.938592    20.545659            0            0            0    19205.561    6090.3823    6129.1041     6919.629    495.20712    667.75976    375.24273     46.88268    19.938592    20.545659           90           90           90 
  437500    275.25928   -10918.315   -9678.5459   -10918.315            0     6025.309    46.611744    19.940732    20.672261            0            0            0    19214.293    5078.5682    7418.3396    5579.0192   -304.60087    469.54251    726.59251    46.611744    19.940732    20.672261           90           90           90 
  438000    257.02517   -10899.728   -9742.0857   -10899.728            0    5934.7008    46.634165    19.890522    20.783134            0            0            0    19277.976    5825.9092    5804.7623     6173.431   -333.10887    40.994837     493.5208    46.634165    19.890522    20.783134           90           90           90 
  438500    269.59339   -10931.969    -9717.719   -10931.969            0    7349.4617    46.415007    20.078038     20.44851            0            0            0    19056.422     7274.965    6724.4207    8048.9994   -379.45107    592.94345    204.94009    46.415007    20.078038     20.44851           90           90           90 
  439000    267.65939   -10895.326   -9689.7873   -10895.326            0    5397.6652     46.65479    19.904139    20.806899            0            0            0    19321.774    6388.1114    5568.1293     4236.755    610.82904    365.75291    122.33543     46.65479    19.904139    20.806899           90           90           90 
  439500    274.04782   -10919.841   -9685.5284   -10919.841            0    5294.7246    46.660096    19.996436    20.611511            0            0            0    19231.273    5213.0041    5344.0062    5327.1636   -158.64662    683.21652   -1285.2324    46.660096    19.996436    20.611511           90           90           90 
  440000    262.43847     -10988.5   -9806.4763     -10988.5            0    4701.6771    46.819062    19.927841    20.704693            0            0            0    19317.537    4519.8357    5231.7742    4353.4215   -548.21151    250.91356     742.8822    46.819062    19.927841    20.704693           90           90           90 
  440500    264.78177   -10924.393   -9731.8145   -10924.393            0    5968.3167    46.360056    19.979026    20.747381            0            0            0    19216.821    5370.3881    6391.3446    6143.2174    389.54655    492.41895   -579.79772    46.360056    19.979026    20.747381           90           90           90 
  441000    259.58348   -11007.849   -9838.6838   -11007.849            0    4866.8319    46.593085    20.013545    20.593146            0            0            0    19202.961    5229.0987    5184.0307    4187.3662    224.37489    334.35919    1202.9902    46.593085    20.013545    20.593146           90           90           90 
  441500    259.16775   -10879.092   -9711.7993   -10879.092            0    5662.7953    46.949983    19.834762    20.682368            0            0            0    19260.284    5132.2644    6770.4489    5085.6724    387.69503    47.824975    308.52802    46.949983    19.834762    20.682368           90           90           90 
  442000    267.42457   -10956.565   -9752.0834   -10956.565            0    5694.7703    46.517748    19.832083    20.812426            0            0            0    19200.376    6452.0442    4555.9957    6076.2711   -19.738481    390.66992    797.68971    46.517748    19.832083    20.812426           90           90           90 
  442500    264.88494   -10884.415   -9691.3719   -10884.415            0    7358.8531    46.487092    20.073234    20.538827            0            0            0     19165.73    7325.8823    7415.5173    7335.1598    485.74861    35.439514    366.83617    46.487092    20.073234    20.538827           90           90           90 
  443000    264.85188   -10945.723   -9752.8295   -10945.723            0     5289.302    46.680003    19.999325    20.729477            0            0            0    19352.387    5300.6006     5382.464    5184.8412    303.07101    864.37755   -18.276994    46.680003    19.999325    20.729477           90           90           90 
  443500    266.46364    -10910.26   -9710.1069    -10910.26            0    5725.7823    46.618019    19.911953    20.694982            0            0            0    19210.238    5333.9592    6176.6827    5666.7051    156.57955   -561.62664   -1121.1445    46.618019    19.911953    20.694982           90           90           90 
  444000    265.53271   -10930.482   -9734.5217   -10930.482            0    4770.4742    46.672444    20.069605    20.604896            0            0            0    19300.555    4099.4784    4701.0671    5510.8772   -513.46634    -376.9586    902.27963    46.672444    20.069605    20.604896           90           90           90 
  444500    256.10871   -10940.036   -9786.5212   -10940.036            0    5487.7831    46.647476    19.900381    20.780591            0            0            0    19290.676    5316.6002    6272.3018    4874.4474    343.23196    819.35135    297.53771    46.647476    19.900381    20.780591           90           90           90 
  445000    261.07885   -10885.922   -9710.0219   -10885.922            0    5315.6498     46.65769    19.944765    20.686212            0            0            0    19250.105    4911.0946    6411.7128    4624.1422   -600.73152    796.44076   -279.47206     46.65769    19.944765    20.686212           90           90           90 
  445500    266.73334   -10912.796   -9711.4279   -10912.796            0    5599.4372    46.705143    20.034629    20.638118            0            0            0    19311.504    5768.7302     5472.014    5557.5674    196.93079   -509.09486   -148.65672    46.705143    20.034629    20.638118           90           90           90 
  446000    265.98344   -10899.888   -9701.8975   -10899.888            0    7010.3136    46.244115    19.907231    20.785247            0            0            0    19134.738    7052.1636    7661.9209    6316.8562   -425.91705   -1320.6293    -1102.913    46.244115    19.907231    20.785247           90           90           90 
  446500    263.83817   -10951.226   -9762.8979   -10951.226            0    6264.3229    46.872072     19.98251    20.612477            0            0            0    19306.092    5197.2538      6819.04    6776.6749   -377.16004   -431.88101   -635.43283    46.872072     19.98251    20.612477           90           90           90 
  447000     269.6678   -10905.559   -9690.9745   -10905.559            0    5663.9111    46.930656    19.859689    20.714493            0            0            0    19306.492    4937.7753    6245.4909     5808.467   -386.07638    612.62471     1600.082    46.930656    19.859689    20.714493           90           90           90 
  447500    264.69514   -10950.776   -9758.5883   -10950.776            0    4665.9115    46.434502    20.026863    20.734117            0            0            0    19281.431    5439.9953    4267.1082    4290.6311   -23.389762    265.22648   -443.38677    46.434502    20.026863    20.734117           90           90           90 
  448000    265.94647    -10921.28   -9723.4558    -10921.28            0    6670.6209    46.833732    19.963643    20.441179            0            0            0    19111.928    6260.8614    6663.8115    7087.1899    90.757666    47.081886    1186.6913    46.833732    19.963643    20.441179           90           90           90 
  448500    267.95468   -10968.791   -9761.9219   -10968.791            0    5425.4839     46.44445    19.863824    20.899823            0            0            0    19281.432    5648.6102    6657.7291    3970.1122    291.75205    233.23541    140.41041     46.44445    19.863824    20.899823           90           90           90 
  449000    269.62512   -10972.938   -9758.5453   -10972.938            0    5572.2009    46.708481    19.943335    20.633854            0            0            0    19220.907     4802.675    6073.4534    5840.4742    263.89582    114.97003   -7.8768301    46.708481    19.943335    20.633854           90           90           90 
  449500    256.20674   -10898.496   -9744.5396   -10898.496            0    5450.8533    46.628714    19.946971    20.631969            0            0            0    19189.828    5348.6751    5101.4038    5902.4809   -504.48023    935.15991    41.939168    46.628714    19.946971    20.631969           90           90           90 
  450000    269.17069   -10925.148    -9712.802   -10925.148            0    6633.6511    46.254503     20.18606    20.659963            0            0            0    19290.128    8784.4434    4230.1994    6886.3104   -424.08513    -594.2852   -1164.6186    46.254503     20.18606    20.659963           90           90           90 
  450500    262.10869   -10884.471   -9703.9322   -10884.471            0     5882.972    46.693437    19.966266    20.581484            0            0            0    19187.985    5148.8902    5493.9399     7006.086    93.169957   -295.04562   -978.48173    46.693437    19.966266    20.581484           90           90           90 
  451000     252.2885   -10968.365   -9832.0568   -10968.365            0    5865.4212    46.491209    19.984696    20.716877            0            0            0    19248.313    5679.4014    5758.0673     6158.795    142.51613   -148.83431    762.72141    46.491209    19.984696    20.716877           90           90           90 
  451500    258.71313   -10919.677   -9754.4316   -10919.677            0    6456.0841    46.402949    19.968601    20.731572            0            0            0    19209.916    6694.3311    6488.6335    6185.2876   -385.97771    240.32167    39.224978    46.402949    19.968601    20.731572           90           90           90 
  452000    265.32057   -10902.472   -9707.4672   -10902.472            0    6460.9396    46.805892    20.025543    20.491942            0            0            0    19207.373    6409.6107    6538.7476    6434.4605    93.869466    390.31951    599.46722    46.805892    20.025543    20.491942           90           90           90 
  452500    258.15029   -10916.583   -9753.8736   -10916.583            0    6196.5821    46.722827    19.815864    20.752008            0            0            0    19213.313    5934.5118    6413.1264    6242.1079   -248.80525    602.06974    383.82117    46.722827    19.815864    20.752008           90           90           90 
  453000    263.91781   -10989.115   -9800.4283   -10989.115            0    5669.2218    46.895477     19.91734    20.673554            0            0            0    19309.786    4680.5947    6760.8547    5566.2159    110.13076    18.551641    19.388875    46.895477     19.91734    20.673554           90           90           90 
  453500    272.84346   -10873.144   -9644.2558   -10873.144            0    5813.8996    46.321371    20.173686    20.545815            0            0            0    19199.505    5044.8604    6074.3386    6322.4998    124.79148   -229.51586     417.0462    46.321371    20.173686    20.545815           90           90           90 
  454000    258.41114   -10873.557    -9709.672   -10873.557            0    6379.4828    46.460471    19.896994     20.77441            0            0            0    19204.358    6088.9049    6452.8972    6596.6464    63.882178    611.01333    619.82853    46.460471    19.896994     20.77441           90           90           90 
  454500    269.81877   -10873.287   -9658.0222   -10873.287            0    7242.1437    46.688626    19.893464    20.599134            0            0            0    19132.445    8009.6873    7234.5137    6482.2302   -267.16686    401.95881  -0.89201305    46.688626    19.893464    20.599134           90           90           90 
  455000    266.26686   -10910.905   -9711.6381   -10910.905            0    5144.4969    46.248069     20.05156     20.83167            0            0            0    19318.165    5898.7261    4741.2052    4793.5593   -446.36563    214.12756    1803.6103    46.248069     20.05156     20.83167           90           90           90 
  455500    259.41082   -10916.391   -9748.0034   -10916.391            0     6866.505    46.707417    19.985695    20.461946            0            0            0     19100.82    7918.2407    6332.2918    6348.9823   -167.26396   -297.82887    706.02301    46.707417    19.985695    20.461946           90           90           90 
  456000    264.53466   -10880.323   -9688.8582   -10880.323            0    5519.3736    46.831181    19.797864    20.890312            0            0            0    19368.606    4525.9234    6310.4503    5721.7472   -456.81485   -414.37793    980.91153    46.831181    19.797864    20.890312           90           90           90 
  456500    258.28386   -10932.578   -9769.2663   -10932.578            0    6596.1081    46.518911    20.047889    20.582885            0            0            0    19195.722     5833.304    6581.4727    7373.5476    117.39824    -184.2858    186.13492    46.518911    20.047889    20.582885           90           90           90 
  457000    268.98744   -10969.468   -9757.9471   -10969.468            0    5004.3234    46.612805    20.002296    20.656259            0            0            0    19259.134    5832.0413    4827.0377    4353.8913   -524.60042    718.90979    -537.3289    46.612805    20.002296    20.656259           90           90           90 
  457500    261.48358   -10874.943   -9697.2195   -10874.943            0    6020.0276    46.169044    20.080124    20.689765            0            0            0     19181.07    7472.4398    5275.0429       5312.6    190.80715   -1261.5599     790.5021    46.169044    20.080124    20.689765           90           90           90 
  458000    265.34539   -10951.232   -9756.1148   -10951.232            0    5691.5898    46.675344    20.021905    20.576664            0            0            0    19229.495    5696.5698    5286.4236     6091.776   -271.47475    168.13485   -119.51288    46.675344    20.021905    20.576664           90           90           90 
  458500    260.17966   -10907.911   -9736.0606   -10907.911            0    5673.4422    46.717159    19.906434    20.756798            0            0            0    19303.241    4939.7657    6115.5394    5965.0217   -97.637187   -489.26417    237.96047    46.717159    19.906434    20.756798           90           90           90 
  459000    266.32212   -10946.275   -9746.7592   -10946.275            0    7017.8781    46.716219    19.902879    20.539269            0            0            0    19097.151    6173.1635    7644.2398    7236.2311   -380.85198    160.09037    156.76066    46.716219    19.902879    20.539269           90           90           90 
  459500    254.98216   -10920.094   -9771.6538   -10920.094            0     5742.607    46.323074    20.152847    20.668344            0            0            0    19294.764    5743.2985    5275.6561    6208.8664   -107.03004    402.76126    198.66497    46.323074    20.152847    20.668344           90           90           90 
  460000    272.10713   -10881.879   -9656.3069   -10881.879            0    5522.3732    46.621309    19.913902    20.687595            0            0            0    19206.615    5856.8939    5083.0519    5627.1739    448.07619    -304.6096   -25.909192    46.621309    19.913902    20.687595           90           90           90 
  460500    272.59222    -10919.76   -9692.0038    -10919.76            0    4549.0379    46.724005    20.050726    20.613715            0            0            0    19311.963    5274.9235    3064.8292    5307.3612    486.78813   -107.93934   -154.12356    46.724005    20.050726    20.613715           90           90           90 
  461000    274.93854   -10930.572   -9692.2481   -10930.572            0    6663.6044    46.473306    19.935844     20.72281            0            0            0    19199.364    6864.9913    6629.7695    6496.0524   -286.42537   -472.81469    825.55794    46.473306    19.935844     20.72281           90           90           90 
  461500    257.52461   -10939.014   -9779.1222   -10939.014            0    5620.9481    46.906906    19.958389    20.635075            0            0            0    19318.274    6039.1921    4579.3247    6244.3276    378.52827    752.47518   -1075.2383    46.906906    19.958389    20.635075           90           90           90 
  462000    264.68099   -10880.998   -9688.8741   -10880.998            0    7126.8966    46.505696    19.777141    20.789983            0            0            0    19121.581    7659.6139    7211.4371    6509.6388   -22.270297   -68.213556    70.445164    46.505696    19.777141    20.789983           90           90           90 
  462500    277.01904    -10915.39   -9667.6954    -10915.39            0    5965.6929    46.643697    20.095596    20.508199            0            0            0    19223.009    5414.1138    6298.3606    6184.6043    54.913244   -525.70066    44.816327    46.643697    20.095596    20.508199           90           90           90 
  463000    271.07403   -10903.648   -9682.7292   -10903.648            0    6184.5543    46.649414    19.902535    20.687432            0            0            0    19207.073    4692.3603    8446.9294    5414.3731    15.423098   -659.62393     145.4953    46.649414    19.902535    20.687432           90           90           90 
  463500    265.01202   -10936.223   -9742.6075   -10936.223            0    5134.4358     46.58198    20.038338    20.774191            0            0            0    19391.159    5308.3957    4821.2236    5273.6881   -443.66169   -305.24587   -1703.2767     46.58198    20.038338    20.774191           90           90           90 
  464000    275.50923   -10921.013    -9680.118   -10921.013            0    6325.2656    46.512498    20.053559    20.566162            0            0            0    19182.904    6200.4575    6511.3276    6264.0116    261.92244   -188.10844    782.11264    46.512498    20.053559    20.566162           90           90           90 
  464500    263.66655   -10940.351   -9752.7963   -10940.351            0    5843.5278    46.398494    19.821318    20.801522            0            0            0    19130.729    5890.3659    6083.9988    5556.2187   -120.49233   -676.67718    65.938828    46.398494    19.821318    20.801522           90           90           90 
  465000     265.8842   -10925.167   -9727.6232   -10925.167            0    5498.7924    46.580066    20.015557    20.670493            0            0            0    19271.637    6637.5627    4077.4949    5781.3196    -729.9847    503.11856    73.438375    46.580066    20.015557    20.670493           90           90           90 
  465500    268.99307   -10949.019   -9737.4736   -10949.019            0    6358.6118    46.380775    19.975337    20.596576            0            0            0    19082.142    6562.5229    6318.1729    6195.1396   -208.50761   -387.03715    843.78779    46.380775    19.975337    20.596576           90           90           90 
  466000    264.33738   -10888.523   -9697.9467   -10888.523            0    3710.0904    46.701358    19.885174    20.812587            0            0            0    19327.913    3030.4898    4071.7561    4028.0253   -376.77985    189.56311   -248.79607    46.701358    19.885174    20.812587           90           90           90 
  466500    265.36546   -10905.992   -9710.7853   -10905.992            0    5742.0117    46.580132    20.091691    20.625331            0            0            0    19302.703    4697.5607    6093.7411    6434.7333   -463.22065     753.3457   -190.78267    46.580132    20.091691    20.625331           90           90           90 
  467000    271.23234   -10895.223   -9673.5914   -10895.223            0    5856.2746    46.586254    19.949155    20.715645            0            0            0    19252.217    5912.2267    6940.1091     4716.488   -383.79358   -694.02624   -408.45444    46.586254    19.949155    20.715645           90           90           90 
  467500    253.53742   -10945.082   -9803.1486   -10945.082            0    5327.0137    46.733228    19.976369    20.678135            0            0            0    19304.285    5212.7461    5615.8046    5152.4904   -462.41053   -297.50839    -469.5833    46.733228    19.976369    20.678135           90           90           90 
  468000    265.72748   -10943.506   -9746.6683   -10943.506            0    6140.4773     46.46719    20.025462    20.680107            0            0            0    19243.397     7248.283    4839.3633    6333.7856   -141.21915    196.92836    20.369394     46.46719    20.025462    20.680107           90           90           90 
  468500    256.75424   -10907.134   -9750.7115   -10907.134            0    5935.9966    46.399745    20.097872    20.752017            0            0            0    19352.005    6770.4593    5451.6565    5585.8738   -318.65351   -188.61809    362.73835    46.399745    20.097872    20.752017           90           90           90 
  469000    264.26644   -10914.329   -9724.0718   -10914.329            0    6016.6971    46.799813    19.994014     20.70439            0            0            0    19373.431    6829.4019    4836.5659    6384.1234    153.97017     323.7653    604.07695    46.799813    19.994014     20.70439           90           90           90 
  469500    258.20007   -10896.663   -9733.7288   -10896.663            0    6559.8246    46.501423    20.009914    20.582089            0            0            0    19151.417    6755.0885    6078.0764    6846.3089   -379.86244    -1065.317   -76.084566    46.501423    20.009914    20.582089           90           90           90 
  470000    275.38727    -10920.61   -9680.2643    -10920.61            0    5236.1601     46.38749    20.072846    20.732643            0            0            0    19304.764    5783.5675    5142.5467    4782.3661   -639.44703    125.78248    43.824315     46.38749    20.072846    20.732643           90           90           90 
  470500    268.21807   -10944.589   -9736.5341   -10944.589            0     5917.109    46.924868    19.826121    20.676796            0            0            0    19236.411    4166.8348    7215.5522    6368.9401    -66.66423    497.98668   -520.53883    46.924868    19.826121    20.676796           90           90           90 
  471000    265.80564   -10931.864   -9734.6745   -10931.864            0     4466.977     46.62063    20.006759    20.717064            0            0            0     19323.38     4436.756    4217.2928    4746.8823    309.02552     17.11698   -212.04707     46.62063    20.006759    20.717064           90           90           90 
  471500    268.30274   -10908.117   -9699.6802   -10908.117            0    6961.7638    46.443387     20.02736    20.613988            0            0            0    19173.862    6378.4788    6319.9988    8186.8139     660.7681    104.43131    287.67989    46.443387     20.02736    20.613988           90           90           90 
  472000    269.37058   -10868.391   -9655.1453   -10868.391            0    7878.6769    46.471631    19.904256    20.747806            0            0            0    19191.373    8277.2021    8021.3044    7337.5242   -668.99668    769.86784     -431.593    46.471631    19.904256    20.747806           90           90           90 
  472500    267.90629    -10918.55   -9711.8989    -10918.55            0    6141.3238    46.715276    20.040115    20.598054            0            0            0    19283.476    4997.7013    6766.2659    6660.0042    433.87493    1537.0349    528.32726    46.715276    20.040115    20.598054           90           90           90 
  473000    273.11758   -10894.348   -9664.2258   -10894.348            0    5547.7818    46.665281    20.021657    20.572861            0            0            0    19221.558    6224.4704    5282.7064    5136.1687    429.39205   -35.577685   -526.75765    46.665281    20.021657    20.572861           90           90           90 
  473500    276.05398   -10931.261   -9687.9131   -10931.261            0     5543.057    46.764181    19.864924    20.793879            0            0            0    19316.826    5575.0465     5708.238    5345.8865   -251.46483   -677.20911    198.10118    46.764181    19.864924    20.793879           90           90           90 
  474000    265.17679   -10917.889   -9723.5317   -10917.889            0    6414.4934    46.623972    19.969748    20.565019            0            0            0     19147.45    5381.0232    6578.6172    7283.8399    56.012412    1038.1587   -86.578029    46.623972    19.969748    20.565019           90           90           90 
  474500    263.15797    -10880.36   -9695.0958    -10880.36            0    4181.2234    46.322532    20.157257    20.700199            0            0            0    19328.504    5484.3106    3018.6225     4040.737   -261.25885   -173.75743   -809.94553    46.322532    20.157257    20.700199           90           90           90 
  475000    267.98932   -10964.319   -9757.2938   -10964.319            0    6106.3109    46.582018    19.903685    20.762235            0            0            0    19249.786    7541.1625    6125.3912     4652.379   -4.6146203    -31.53231   -47.445773    46.582018    19.903685    20.762235           90           90           90 
  475500    260.42587   -10932.612   -9759.6533   -10932.612            0    6305.0612      46.4762    19.959964    20.614432            0            0            0    19123.252    6740.5359    6798.2986     5376.349   -274.62334    1214.6046   -176.88579      46.4762    19.959964    20.614432           90           90           90 
  476000    271.88941   -10869.456   -9644.8648   -10869.456            0    4974.7403    46.634328    19.996988    20.801869            0            0            0    19398.702     5774.123    4486.9445    4663.1532   -638.60054    161.14396   -1001.1425    46.634328    19.996988    20.801869           90           90           90 
  476500    266.40583   -10911.677   -9711.7836   -10911.677            0    5199.3844    46.814216    20.027404    20.484308            0            0            0    19205.416    5383.1742     4855.484    5359.4951   -333.84111   -899.41364    654.02161    46.814216    20.027404    20.484308           90           90           90 
  477000    271.87666   -10928.936   -9704.4023   -10928.936            0    7004.0853    46.339469    19.889746    20.779876            0            0            0    19152.402    8792.4177    5672.6292    6547.2089   -46.754023    671.77901   -868.73824    46.339469    19.889746    20.779876           90           90           90 
  477500    281.98614   -10915.546   -9645.4789   -10915.546            0    6184.8652     46.50911    20.044552    20.639026            0            0            0    19240.821    5784.4847    6289.8641    6480.2467    70.042471   -143.93479    18.865932     46.50911    20.044552    20.639026           90           90           90 
  478000    262.67971   -10912.055   -9728.9441   -10912.055            0    5987.5426     46.66494    19.973567    20.689362            0            0            0    19283.836    5163.9122     6568.382    6230.3334   -403.00681    855.17814    453.73927     46.66494    19.973567    20.689362           90           90           90 
  478500    261.53383   -10936.934   -9758.9843   -10936.934            0    5718.0805    46.652633    19.854806    20.763634            0            0            0    19232.917    6300.5942    3975.5689    6878.0783   -42.711164    709.29366   -99.044491    46.652633    19.854806    20.763634           90           90           90 
  479000    261.12037   -10920.951   -9744.8637   -10920.951            0    5798.9279    46.760989    20.039926    20.525566            0            0            0    19234.237     5160.522    5249.7481    6986.5134    90.410803    -619.0386    1369.4682    46.760989    20.039926    20.525566           90           90           90 
  479500    264.50643   -10933.968   -9742.6297   -10933.968            0    6045.2761    46.507245    19.914022    20.802568            0            0            0    19266.221    5159.4877    6275.6794    6700.6611    192.11182    612.89172    415.86105    46.507245    19.914022    20.802568           90           90           90 
  480000    267.96327    -10930.54   -9723.6325    -10930.54            0    5365.0518    46.595807     20.01006    20.674363            0            0            0    19276.464    6319.2763    4089.4314    5686.4477     96.76706    433.98294   -490.07347    46.595807     20.01006    20.674363           90           90           90 
  480500    269.07738   -10892.007   -9680.0813   -10892.007            0    6065.9129    46.265458    20.137645    20.695745            0            0            0    19281.757    6516.7976    5312.8759    6368.0651    157.65274    294.34068     52.23132    46.265458    20.137645    20.695745           90           90           90 
  481000    254.30824   -10984.299   -9838.8942   -10984.299            0    5855.9211    46.889698    19.752642    20.677488            0            0            0    19151.395    5056.3768    5422.1823    7089.2041   -464.57258    197.35724   -275.75419    46.889698    19.752642    20.677488           90           90           90 
  481500    256.68841   -10865.344   -9709.2185   -10865.344            0    4879.3637    46.844472    20.016539      20.6769            0            0            0    19387.989    3992.8586     5574.721    5070.5115    131.01556   -387.86074    1446.1744    46.844472    20.016539      20.6769           90           90           90 
  482000     263.9828   -11004.845   -9815.8649   -11004.845            0    7085.2633    46.574212    19.939971    20.580442            0            0            0    19112.818     7557.217    6391.8586    7306.7143    63.141382    1329.1367    583.41652    46.574212    19.939971    20.580442           90           90           90 
  482500    267.12968   -10892.896   -9689.7428   -10892.896            0    5402.5128    46.655363    19.823143    20.848633            0            0            0    19281.982    5954.8804    5797.8261    4454.8319   -163.85594    673.63314   -18.668252    46.655363    19.823143    20.848633           90           90           90 
  483000    258.88228   -10953.808   -9787.8012   -10953.808            0     5774.141     46.64399    20.032261    20.560839            0            0            0    19211.731    6053.0365    4870.0488    6399.3376   -416.87805    -537.2582    262.65015     46.64399    20.032261    20.560839           90           90           90 
  483500    260.12804   -10891.386   -9719.7683   -10891.386            0    5407.4111    46.869527    19.931285    20.660053            0            0            0        19300    4933.5527    5743.2362    5545.4443    170.17446    121.78401    1430.8231    46.869527    19.931285    20.660053           90           90           90 
  484000    257.04809   -10857.763   -9700.0172   -10857.763            0    6803.0635    46.457899    19.863316      20.8111            0            0            0    19204.649    6611.1935     8108.874    5689.1231   -231.18215   -664.38326   -382.49034    46.457899    19.863316      20.8111           90           90           90 
  484500    267.13063   -10946.239   -9743.0816   -10946.239            0    6419.8118     46.50713    20.091182    20.593114            0            0            0     19241.86    6980.1651    5803.2567    6476.0134   -194.26618   -122.21967   -8.4652257     46.50713    20.091182    20.593114           90           90           90 
  485000    269.00557   -10912.625   -9701.0225   -10912.625            0    6521.7957     46.82207    19.916129    20.694065            0            0            0    19297.513    5411.9245    6792.7121    7360.7506    153.35812     71.07182   -1134.4293     46.82207    19.916129    20.694065           90           90           90 
  485500    262.09504   -10902.306   -9721.8291   -10902.306            0     7065.737    46.465082    20.015743     20.61619            0            0            0     19173.74    6278.1332     6830.127    8088.9508    368.80362    494.23838    685.18293    46.465082    20.015743     20.61619           90           90           90 
  486000     247.5285   -10949.289   -9834.4195   -10949.289            0    5967.2439    46.946957    19.879447    20.532755            0            0            0    19162.801    6487.0831     5150.995    6263.6535    42.321837    -511.3516   -105.88608    46.946957    19.879447    20.532755           90           90           90 
  486500    263.83582   -10926.537   -9738.2191   -10926.537            0    6341.4005     46.43194    19.932465    20.805225            0            0            0    19255.299     7308.478    5757.9442    5957.7794   -96.766344   -255.50102      636.276     46.43194    19.932465    20.805225           90           90           90 
  487000    260.54343   -10966.665    -9793.176   -10966.665            0    5172.5869    46.536503    20.113705    20.593781            0            0            0    19276.222    5276.9925    4716.0034    5524.7648   -463.10569   -334.87046   -551.11055    46.536503    20.113705    20.593781           90           90           90 
  487500    264.04799   -10920.391   -9731.1183   -10920.391            0    6493.2023    46.796104    19.725435    20.699456            0            0            0    19107.119    6863.5544    6938.6842    5677.3684    432.13454    1276.1909   -810.67839    46.796104    19.725435    20.699456           90           90           90 
  488000    271.22709   -10933.869   -9712.2608   -10933.869            0    6749.5518    46.614317    19.960817     20.56293            0            0            0    19132.981     5904.928    6688.4524    7655.2751   -7.9948767    267.67696    602.58119    46.614317    19.960817     20.56293           90           90           90 
  488500     259.3912   -10893.386   -9725.0872   -10893.386            0    5207.1468    46.391482    20.053181    20.723035            0            0            0    19278.573    5121.4781    4751.6616    5748.3008   -863.94852   -8.4420299    751.26001    46.391482    20.053181    20.723035           90           90           90 
  489000     262.7543   -10934.983   -9751.5371   -10934.983            0     6020.415    46.555788    19.996338    20.697466            0            0            0    19268.208    6543.3588    4985.7851    6532.1011   -373.14759    966.16994    548.86671    46.555788    19.996338    20.697466           90           90           90 
  489500    266.98934   -10931.085   -9728.5642   -10931.085            0    6418.0799    46.476282    19.877066    20.756898            0            0            0    19175.474    7060.7195    6741.1955    5452.3248    594.25225    379.63011    426.69658    46.476282    19.877066    20.756898           90           90           90 
  490000    265.23375   -10916.186   -9721.5726   -10916.186            0    5658.7641    46.846835    19.931777    20.605727            0            0            0    19240.406    6422.0744    4588.9307    5965.2873   -374.73478    176.58371    341.49511    46.846835    19.931777    20.605727           90           90           90 
  490500    270.38555   -10886.446   -9668.6282   -10886.446            0    5504.6744    46.224792     20.06642    20.790214            0            0            0    19284.298    5023.7784    5853.5381    5636.7068    -376.6397    280.54385     208.9281    46.224792     20.06642    20.790214           90           90           90 
  491000    268.41199   -10903.402   -9694.4729   -10903.402            0    5053.4915    46.648583    19.954416    20.660129            0            0            0    19231.383    4007.5418    5495.3213    5657.6114    51.300924   -969.09492     792.7032    46.648583    19.954416    20.660129           90           90           90 
  491500    266.27018   -10969.408   -9770.1258   -10969.408            0    5360.9988    46.784731    20.037815    20.648754            0            0            0    19357.459    5227.2172    5849.6392    5006.1401   -102.57052     703.3312    420.46305    46.784731    20.037815    20.648754           90           90           90 
  492000    262.52422   -10920.784   -9738.3737   -10920.784            0    5834.5244    46.266377    20.016022    20.775947            0            0            0    19239.956      6493.66    5755.6721    5254.2411   -182.15256    125.31473   -252.56218    46.266377    20.016022    20.775947           90           90           90 
  492500    258.46674   -10966.463   -9802.3282   -10966.463            0    5515.3865    46.591935    20.120809    20.451187            0            0            0    19172.322    5304.1974    5537.1369    5704.8254    29.728511    723.55053   -129.64434    46.591935    20.120809    20.451187           90           90           90 
  493000    261.11544   -10951.611   -9775.5461   -10951.611            0    5839.6484    46.364456    19.880646    20.781815            0            0            0    19155.749    5465.2291    6144.8357    5908.8805   -338.20551   -1202.9849   -239.46579    46.364456    19.880646    20.781815           90           90           90 
  493500    274.43132   -10912.171   -9676.1308   -10912.171            0    6021.0372    46.645287    19.892037    20.672224            0            0            0    19181.133    6079.0618    7014.7739    4969.2757   -348.68341    868.07793   -528.65598    46.645287    19.892037    20.672224           90           90           90 
  494000    272.99654   -10890.638   -9661.0607   -10890.638            0    5963.8081    46.502266    20.107422    20.599191            0            0            0    19261.083    5381.7171    6668.8641     5840.843   -107.02255   -53.692449   -1423.8929    46.502266    20.107422    20.599191           90           90           90 
  494500    266.23544   -10931.758   -9732.6328   -10931.758            0    5021.7039     46.64893    19.836485    20.796606            0            0            0    19244.156    4111.4222    6484.2933    4469.3962   -389.44214    814.29608   -280.82106     46.64893    19.836485    20.796606           90           90           90 
  495000    270.26933   -10915.861   -9698.5668   -10915.861            0    5817.3881     46.58408    19.892132    20.681732            0            0            0    19164.865    6751.8959    5387.9046    5312.3639    232.96142    6.6522481    256.05707     46.58408    19.892132    20.681732           90           90           90 
  495500    259.97065   -10904.149   -9733.2404   -10904.149            0    5902.1348    46.789378    19.942724    20.594015            0            0            0    19216.433    5394.1608    5855.3919    6456.8516   -126.95102   -276.79546    587.52774    46.789378    19.942724    20.594015           90           90           90 
  496000    268.90135   -10936.775    -9725.642   -10936.775            0    5308.7593    46.469272    20.023807    20.685383            0            0            0    19247.578    5853.5687    5796.1513    4276.5578    377.29298   -615.10812    1842.9778    46.469272    20.023807    20.685383           90           90           90 
  496500    270.68801   -10971.221   -9752.0409   -10971.221            0    5121.2879     46.59035    20.008585    20.723992            0            0            0     19319.05    4907.2691    5049.5134    5407.0813   -692.99953   -451.56901   -18.337817     46.59035    20.008585    20.723992           90           90           90 
  497000    260.19813   -10919.895   -9747.9615   -10919.895            0    5214.8654    46.978375    19.918822    20.649014            0            0            0    19322.395    3775.5884    6410.9134    5458.0944   -264.96997   -1342.6201     725.3802    46.978375    19.918822    20.649014           90           90           90 
  497500    260.95828   -10961.549   -9786.1914   -10961.549            0    6454.3111    46.655352    19.863861    20.691057            0            0            0    19175.549    6465.1423    7116.0685    5781.7224    369.73378   -1118.3869    89.703765    46.655352    19.863861    20.691057           90           90           90 
  498000    266.56972   -10930.216   -9729.5851   -10930.216            0    5997.7969    46.461958    20.020945    20.700589            0            0            0    19255.942    5898.3369    5784.3915    6310.6624   -412.47401    489.08786    638.03595    46.461958    20.020945    20.700589           90           90           90 
  498500    262.30449   -10954.543   -9773.1221   -10954.543            0    4168.4769    46.743237    20.042068    20.636383            0            0            0    19332.807    3837.9404    4138.1995    4529.2908   -371.48752    575.29165   -95.368877    46.743237    20.042068    20.636383           90           90           90 
  499000     271.0014   -10891.114   -9670.5222   -10891.114            0    5968.8353    46.601289    19.867853     20.72032            0            0            0    19184.273    6281.0204     5500.563    6124.9224   -380.97935   -783.29682   -30.999187    46.601289    19.867853     20.72032           90           90           90 
  499500    260.54542   -10933.767   -9760.2694   -10933.767            0    5352.2796    46.792124    20.172753    20.550361            0            0            0    19398.019    5389.2602    5189.6346    5477.9441   -135.06497     51.60536    -633.4452    46.792124    20.172753    20.550361           90           90           90 
  500000    261.88163   -10872.932    -9693.416   -10872.932            0    5529.7933    46.529983    19.978883    20.724792            0            0            0    19266.121    6021.6643    4773.5655    5794.1501   -468.76089    616.90246    279.58872    46.529983    19.978883    20.724792           90           90           90 
Loop time of 1456.2 on 32 procs for 500000 steps with 2268 atoms

Performance: 59.333 ns/day, 0.404 hours/ns, 343.361 timesteps/s
99.1% CPU use with 32 MPI tasks x 1 OpenMP threads

MPI task timing breakdown:
Section |  min time  |  avg time  |  max time  |%varavg| %total
---------------------------------------------------------------
Pair    | 247.93     | 286.42     | 335.09     | 154.1 | 19.67
Bond    | 0.59431    | 0.61631    | 0.63832    |   1.3 |  0.04
Kspace  | 643.82     | 692.84     | 733.1      | 101.8 | 47.58
Neigh   | 19.199     | 19.647     | 20.001     |   5.4 |  1.35
Comm    | 159.64     | 170.63     | 180.34     |  44.5 | 11.72
Output  | 3.8872     | 3.8904     | 3.9154     |   0.2 |  0.27
Modify  | 221.08     | 246.87     | 274.18     | 101.3 | 16.95
Other   |            | 35.28      |            |       |  2.42

Nlocal:        70.8750 ave          78 max          63 min
Histogram: 4 0 2 0 6 6 6 4 1 3
Nghost:        3186.03 ave        3236 max        3132 min
Histogram: 2 3 4 4 1 2 4 7 4 1
Neighs:        22226.7 ave       26061 max       18246 min
Histogram: 2 2 3 5 5 4 2 4 1 4

Total # of neighbors = 711253
Ave neighs/atom = 313.60362
Ave special neighs/atom = 2.0000000
Neighbor list builds = 22309
Dangerous builds = 0

unfix		3
unfix		2
unfix		1

write_data	data.final.${pid}
write_data	data.final.0
System init for write_data ...
PPPM initialization ...
  extracting TIP4P info from pair style
  using 12-bit tables for long-range coulomb (../kspace.cpp:340)
  G vector (1/distance) = 0.37333092
  grid = 48 27 27
  stencil order = 5
  estimated absolute RMS force accuracy = 0.003253329
  estimated relative force accuracy = 9.7973036e-06
  using double precision FFTW3
  3d grid and FFT values/proc = 6292 1344
Last active /omp style is kspace_style pppm/tip4p/omp
WARNING: Not all mixed pair coeffs generated from mixing. Use write_data with 'pair ij' option to store all pair coeffs. (../write_data.cpp:312)

write_restart   restart.lmp.${pid}
write_restart   restart.lmp.0
System init for write_restart ...
PPPM initialization ...
  extracting TIP4P info from pair style
  using 12-bit tables for long-range coulomb (../kspace.cpp:340)
  G vector (1/distance) = 0.37333092
  grid = 48 27 27
  stencil order = 5
  estimated absolute RMS force accuracy = 0.003253329
  estimated relative force accuracy = 9.7973036e-06
  using double precision FFTW3
  3d grid and FFT values/proc = 6292 1344
Last active /omp style is kspace_style pppm/tip4p/omp
Total wall time: 0:24:16
