#include		in.partitions
include		in.temp
variable        temperature equal 215.22
variable	tempDamp equal 100.0
include		in.pressure
variable        pressure equal 1619.0
variable        pressureDamp equal 1000.0 # This is 1 ps
include		in.seed
variable        seed equal 745823

units		real
atom_style	full

read_restart	restart.lmp.${pid}
read_restart	restart.lmp.1
Reading restart file ...
  restart file = 30 Jul 2021, LAMMPS = 30 Jul 2021
  restoring atom style full from restart
  orthogonal box = (-0.095437971 -0.017034116 -0.17845118) to (20.095439 20.017035 20.878449)
  4 by 2 by 4 MPI processor grid
  restoring pair style lj/cut/tip4p/long/omp from restart
  restoring bond style harmonic/omp from restart
  restoring angle style harmonic/omp from restart
  972 atoms
  648 bonds
  324 angles
Finding 1-2 1-3 1-4 neighbors ...
  special bond factors lj:    0        0        0       
  special bond factors coul:  0        0        0       
     2 = max # of 1-2 neighbors
     1 = max # of 1-3 neighbors
     1 = max # of 1-4 neighbors
     2 = max # of special neighbors
  special bonds CPU = 0.002 seconds
  read_restart CPU = 0.007 seconds
include 	in.setup
variable	out_freq equal 1000
variable	out_freq2 equal 10000
variable	out_freq3 equal 1000

timestep	2.0

neigh_modify    delay 7 every 1

include		in.tip4p
# This is TIP4P/Ice

# create groups ###
group ox type 2
324 atoms in group ox
group hy type 1
648 atoms in group hy

# set charges - beside manually ###
set group ox charge -1.1794
Setting atom values ...
  324 settings made for charge
set group hy charge 0.5897
Setting atom values ...
  648 settings made for charge

# ### TIP3P Potential Parameters ###
pair_style lj/cut/tip4p/long/omp 2 1 1 1 0.1577 8.5
pair_coeff 1 1*2 0.000 0.000
pair_coeff 2 2 0.21084 3.1668
bond_style  harmonic
bond_coeff  1 450 0.9572
angle_style harmonic
angle_coeff 1 55 104.52
kspace_style pppm/tip4p/omp 1.0e-5
pair_modify tail yes

thermo          ${out_freq}
thermo          1000
thermo_style    custom step temp pe etotal epair emol press lx ly lz vol pxx pyy pzz pxy pxz pyz enthalpy

restart 	${out_freq3} restart.lmp.${pid} restart2.lmp.${pid}
restart 	1000 restart.lmp.${pid} restart2.lmp.${pid}
restart 	1000 restart.lmp.1 restart2.lmp.${pid}
restart 	1000 restart.lmp.1 restart2.lmp.1


include         in.dump
dump            myDump all atom ${out_freq2} dump.water.${pid}
dump            myDump all atom 10000 dump.water.${pid}
dump            myDump all atom 10000 dump.water.1
dump            myDump2 all dcd ${out_freq2} dump.dcd
dump            myDump2 all dcd 10000 dump.dcd
dump_modify     myDump append yes
dump_modify     myDump2 append yes


variable natoms 	equal  "count(all)"                        # NUMBER ATOMS
variable H      	equal  "enthalpy/v_natoms"                 # ENTHALPY-per-atom
variable Vol      	equal  "vol/v_natoms"                 # volume-per-atom
fix AVG all 		ave/time ${out_freq} 1 ${out_freq} v_Vol v_H file vol_enthalpy.dat
fix AVG all 		ave/time 1000 1 ${out_freq} v_Vol v_H file vol_enthalpy.dat
fix AVG all 		ave/time 1000 1 1000 v_Vol v_H file vol_enthalpy.dat


timer           timeout 02:55:00 every 1000
New timer settings: style=normal  mode=nosync  timeout=02:55:00

fix 		1 all shake 1e-6 200 0 b 1 a 1
       0 = # of size 2 clusters
       0 = # of size 3 clusters
       0 = # of size 4 clusters
     324 = # of frozen angles
  find clusters CPU = 0.000 seconds
fix             2 all nph aniso ${pressure} ${pressure} ${pressureDamp}
fix             2 all nph aniso 1619 ${pressure} ${pressureDamp}
fix             2 all nph aniso 1619 1619 ${pressureDamp}
fix             2 all nph aniso 1619 1619 1000
fix             3 all temp/csvr ${temperature} ${temperature} ${tempDamp} ${seed}
fix             3 all temp/csvr 215.22 ${temperature} ${tempDamp} ${seed}
fix             3 all temp/csvr 215.22 215.22 ${tempDamp} ${seed}
fix             3 all temp/csvr 215.22 215.22 100 ${seed}
fix             3 all temp/csvr 215.22 215.22 100 745823


run             250000
PPPM initialization ...
  extracting TIP4P info from pair style
  using 12-bit tables for long-range coulomb (../kspace.cpp:340)
  G vector (1/distance) = 0.37175172
  grid = 24 24 25
  stencil order = 5
  estimated absolute RMS force accuracy = 0.0034881528
  estimated relative force accuracy = 1.0504469e-05
  using double precision FFTW3
  3d grid and FFT values/proc = 3458 576
Last active /omp style is kspace_style pppm/tip4p/omp
Neighbor list info ...
  update every 1 steps, delay 7 steps, check yes
  max neighbors/atom: 2000, page size: 100000
  master list distance cutoff = 10.8154
  ghost atom cutoff = 10.8154
  binsize = 5.4077, bins = 4 4 4
  1 neighbor lists, perpetual/occasional/extra = 1 0 0
  (1) pair lj/cut/tip4p/long/omp, perpetual
      attributes: half, newton on, omp
      pair build: half/bin/newton/omp
      stencil: half/bin/3d
      bin: standard
Per MPI rank memory allocation (min/avg/max) = 10.19 | 10.19 | 10.20 Mbytes
Step Temp PotEng TotEng E_pair E_mol Press Lx Ly Lz Volume Pxx Pyy Pzz Pxy Pxz Pyz Enthalpy 
 7500000    229.09963   -4772.5629    -4330.725   -4772.5629            0     1857.126    20.190877    20.034069      21.0569    8517.6305    1489.3713    1726.1382    2355.8686    377.86486    720.15676   -648.32947   -4100.0311 
 7501000     210.2423   -4786.8604   -4381.3904   -4786.8604            0   -9.9739284    20.120875    20.371534    20.868765    8553.9628    2169.8318    -2133.426   -66.327572   -488.19383    216.34584     622.5703   -4382.6347 
 7502000    213.21871   -4790.0106   -4378.8004   -4790.0106            0    1417.7614    20.150544    20.096214    20.982855    8496.9996    753.72309    2513.1308    986.43033    -279.1276    403.48571   -10.038997   -4203.1114 
 7503000    212.78794   -4792.3276   -4381.9482   -4792.3276            0    -287.9161    20.071894    20.240534    21.054679    8553.7972   -82.488663    610.54193   -1391.8016   -309.67572    -107.3467   -583.51033   -4417.8652 
 7504000    212.29836   -4827.2457   -4417.8105   -4827.2457            0    581.25139    20.110734    20.339442    20.807403    8511.0831    1510.5669   -1528.5046    1761.6919    -258.7833   -430.81538   -941.70979   -4345.6624 
 7505000    208.46924   -4776.3569   -4374.3064   -4776.3569            0    1611.6743    20.131399    20.076402    21.011489    8492.1306    292.17268    3522.1325    1020.7177    55.654529    950.93879    1077.1823   -4174.7022 
 7506000    223.66828   -4791.0062   -4359.6431   -4791.0062            0     1678.257    20.019936    20.061424    21.301328    8555.2188    2070.2282     1511.112    1453.4308   -281.00347      374.929     385.0789   -4150.2485 
 7507000    215.06009   -4789.3527   -4374.5912   -4789.3527            0    783.86892    20.148754    20.091732    20.906224     8463.328    535.76427    792.99591    1022.8466   -599.99485   -1259.4413     374.7133   -4277.8391 
 7508000    224.17004   -4809.6747   -4377.3439   -4809.6747            0    908.36042    20.130399    20.105167    21.024714     8509.228    845.05881    970.05003    909.97244   -672.92719    601.76482   -1297.8972   -4264.6179 
 7509000    219.56575   -4772.1013   -4348.6503   -4772.1013            0    1893.9968    20.040406    19.941191    21.254055    8493.7487    495.83324    2680.2975    2505.8596   -247.76247   -1559.2461    221.38964    -4114.036 
 7510000    220.05155   -4781.0063   -4356.6184   -4781.0063            0    2073.6628    20.006494    20.281757    20.786153    8434.3315    1604.2665    2562.9536    2053.7683   -406.88805   -24.134999   -170.73873   -4101.5453 
 7511000    218.80987    -4804.771   -4382.7778    -4804.771            0    2226.5141    20.100653    20.034583    20.991434    8453.4225    2161.5334    1848.1587      2669.85    410.46293   -1551.5467    1035.3475   -4108.2831 
 7512000    219.71726   -4766.0226   -4342.2794   -4766.0226            0    538.59932    20.052888    20.111569    21.244206     8567.683    1209.9694    59.345849    346.48267    -386.8287    631.75967     493.4135   -4274.9809 
 7513000    221.77605    -4772.068   -4344.3543    -4772.068            0    1866.6525    20.050996    20.117087    20.890825    8426.6826   -308.08594    2744.8675     3163.176   -1458.0472     2054.162    123.67079   -4114.9529 
 7514000    218.06674   -4803.7217   -4383.1616   -4803.7217            0    2358.1636    20.185155    20.149029    20.675333    8408.8908    1381.6276     1928.764    3764.0992    75.735038   -744.24768   -962.80773   -4093.9681 
 7515000    220.52629   -4807.8208   -4382.5173   -4807.8208            0    364.59099    20.014746    20.181737    21.208671    8566.8678    1344.8348    360.12343   -611.18531    251.28556     10.11602   -538.51635   -4336.9656 
 7516000    209.94239   -4779.3851   -4374.4935   -4779.3851            0    2965.7472    20.103635    20.204383    20.845705    8467.1407    4250.6992    1799.5302    2847.0122    430.82188   -357.80226    776.85099   -4008.2695 
 7517000    215.15776   -4791.5852   -4376.6353   -4791.5852            0    1374.3968    20.289179    20.057967    21.000711    8546.4424    192.00877    1825.5043    2105.6772    413.29918   -217.46489    1006.8285    -4205.329 
 7518000    206.40178   -4802.7316   -4404.6684   -4802.7316            0     964.4008    20.086566    19.994909     21.16181    8499.1982    1372.2536    1373.6852     147.2636   -580.19252    812.01893   -275.45738   -4285.1289 
 7519000    213.68761   -4794.5595    -4382.445   -4794.5595            0    2048.7807    20.208511    20.160116    20.636272    8407.3394    2576.6471    1093.2074    2476.4875    166.71175    716.54303    780.59668    -4131.239 
 7520000    214.50639   -4804.0011   -4390.3075   -4804.0011            0    2527.7178    20.158948    19.999845     21.13717    8521.9963    35.812128    4443.0145    3104.3267    410.35124   -1402.4859    5.4666173   -4076.1511 
 7521000    213.94124   -4813.2371   -4400.6334   -4813.2371            0    1773.3252    20.118728    19.983578    21.286337    8558.0476    2474.8596    2455.5385    389.57759    377.16146    293.64867   -87.886058   -4179.3041 
 7522000    217.19961   -4798.3818   -4379.4941   -4798.3818            0    1423.8681    20.187374    20.219549    20.865445    8516.8489    607.28904    643.26907    3021.0463   -575.11181   -1191.8676   -14.389149   -4202.6361 
 7523000     208.5435   -4800.6061   -4398.4125   -4800.6061            0    2540.6564    20.086013    19.869073    20.949223    8360.6351     2446.304    3043.9307    2131.7345    238.31588    1389.2729    280.98841   -4088.6269 
 7524000     222.8012   -4763.5542   -4333.8634   -4763.5542            0     94.50742    20.165806    20.120343    21.152944    8582.6577     597.5376   -745.91379    431.89845    82.571312   -540.76646   -904.10911   -4322.0339 
 7525000    225.79766   -4785.4543   -4349.9845   -4785.4543            0    2100.3621    20.018754    20.129253     21.11066    8506.8055    1139.9023    2965.6325    2195.5515     -546.674   -102.45518    300.35654   -4089.4073 
 7526000    220.33701   -4776.0807   -4351.1422   -4776.0807            0    1588.2337    20.188247    20.205438     20.91963    8533.3761    1799.1718    995.07179    1970.4575    472.76307    1907.1209   -66.587178   -4153.4857 
 7527000    230.00526   -4796.5684   -4352.9839   -4796.5684            0    3420.9286    20.171997    19.943694    21.055171    8470.5821    2879.6156    4209.4834    3173.6868    392.78465    398.77094   -1087.0587   -3930.3803 
 7528000     208.0368   -4796.8919   -4395.6754   -4796.8919            0    1486.2473    20.168657    20.149001    21.000038    8533.9597    879.18088    1025.0318    2554.5293   -321.71925      961.668   -95.034043   -4210.6985 
 7529000    216.43254    -4791.716   -4374.3076    -4791.716            0    2825.3887     20.13571    19.982326     20.99762    8448.5673    1620.4499     5021.651    1834.0653   -347.91432   -533.14435    413.93226   -4026.1811 
 7530000      229.572   -4802.9032   -4360.1542   -4802.9032            0    1945.9198      20.1526    20.094055    21.051274    8524.6595    2265.5888    1860.1155     1712.055    563.29532    404.10803   -458.54721   -4118.2309 
 7531000     219.1775   -4779.4217   -4356.7194   -4779.4217            0    2190.8338     19.90937    20.095985    21.093276    8439.3859     2836.615    1492.6872    2243.1991   -543.00932    1009.5067    198.90348   -4087.0721 
 7532000    220.69125   -4790.6377   -4365.0161   -4790.6377            0    421.15233    20.122716    20.026729    21.079467      8494.86   -418.01992    1542.6329    138.84399    7.8634856    149.08991   -482.50945     -4312.84 
 7533000    218.21247   -4792.6483   -4371.8072   -4792.6483            0    2272.7904    20.374352    20.105153    20.720803    8487.8517    813.19787    3191.7556    2813.4178   -166.59259    165.37341   -794.17599   -4090.4662 
 7534000    215.22183   -4813.3875   -4398.3141   -4813.3875            0    2034.4645    20.040767    20.041479    21.008827     8438.124     2714.128    1377.7754      2011.49    126.45937    681.01506   -2083.4613   -4147.9501 
 7535000    201.68487   -4805.7855   -4416.8193   -4805.7855            0   -238.08408    20.042019    20.097851    21.352137     8600.673     175.1185    383.35353   -1272.7243    143.97483   -1126.5706    607.79011   -4446.6826 
 7536000    219.06526   -4823.9869   -4401.5011   -4823.9869            0    1744.6726    20.011761    20.075101    20.922935    8405.5408    2646.2564    1121.5963    1466.1652    334.85604    507.06453     -323.376   -4187.6283 
 7537000    224.96351    -4815.838   -4381.9769    -4815.838            0    1215.2876    20.175408    20.010284    21.164524    8544.4496    272.65988    1869.2374    1503.9656   -780.92618    332.48945    -610.0349   -4230.5375 
 7538000    223.57006   -4792.0528   -4360.8791   -4792.0528            0    1898.7656    20.174919    20.004912    20.904935    8437.1794     1835.543    1598.6914    2262.0623    112.90299     391.6122   -606.90912   -4127.2406 
 7539000    203.90956   -4790.4151   -4397.1584   -4790.4151            0    1092.3591    20.153311    20.168438    20.908305    8498.4067    1228.6418    707.07518    1341.3602    172.91971    -825.9234   -98.072707   -4261.7708 
 7540000    213.79622    -4799.797    -4387.473    -4799.797            0    955.98452    19.978214    20.301583    21.038004    8532.7906    1259.6493    100.63573    1507.6685   -301.19587    532.74548    95.491962   -4268.5084 
 7541000    213.92826   -4785.5715   -4372.9928   -4785.5715            0     979.4251    20.238101    20.000191    21.046102    8518.7438    1475.8257    703.31452    759.13509    34.983614     -217.799    138.32556   -4251.3118 
 7542000    215.96852   -4803.9528   -4387.4394   -4803.9528            0    1766.8949    20.133244    20.224309    20.734851    8442.8361    2456.1692    1014.0928    1830.4229    528.92592   -161.77966   -469.35858   -4169.8814 
 7543000    213.98291   -4775.9296   -4363.2455   -4775.9296            0    948.14315    20.098571    19.981544    21.031643    8446.3181    1248.2179    1720.0365   -123.82499    16.956628    1150.6203    1659.0544   -4246.4524 
 7544000     209.8236   -4812.1654    -4407.503   -4812.1654            0    2229.3007    20.009844    20.033062    21.042014    8434.8691    2576.3089    2341.6487    1769.9444    505.54409    1126.6727    722.05623    -4133.268 
 7545000    208.26062   -4809.5547   -4407.9065   -4809.5547            0    895.89123    20.077119    20.305636    20.978257    8552.3882    1884.9102   -1580.9589    2383.7224   -869.70686    -127.8698    -169.8513    -4296.164 
 7546000    209.33255    -4791.875   -4388.1596    -4791.875            0    1574.8719    20.037369    20.242823    21.013687    8523.4226    1133.7711    1919.2062    1671.6384     103.8335   -1058.5565   -371.22122   -4192.3945 
 7547000     214.1463    -4790.978   -4377.9789    -4790.978            0    1837.2946     19.94542    20.100289    21.168234    8486.5293    2950.0226    1277.8693    1283.9919   -136.02255    628.96193    33.883537   -4150.5818 
 7548000    208.50753   -4803.6206   -4401.4963   -4803.6206            0    1608.6746    20.127073    19.960387    21.071588    8465.3876    1700.9052    1797.1253    1327.9934    154.72746    717.74145   -403.82755   -4202.8909 
 7549000    216.57378   -4795.8946   -4378.2139   -4795.8946            0    1692.3625    20.164737    20.006619    21.035583    8486.3475    2255.1089    1178.3504    1643.6282    355.97574    568.03237    78.534834   -4168.7592 
 7550000    208.76797   -4800.5708   -4397.9442   -4800.5708            0    3405.3123    20.072028    20.126229    20.704558    8364.1078     3841.621    3247.0901    3127.2258    541.78699   -484.17639   -114.96092   -3982.5577 
 7551000    218.45615   -4742.0917   -4320.7806   -4742.0917            0    1713.8781    20.165306    20.120517    21.112677    8566.1814    4671.6855   -645.61436    1115.5632   -570.11696    519.76258    1274.5405   -4106.6676 
 7552000    212.99562   -4807.4901   -4396.7101   -4807.4901            0    1210.9644    20.112686    20.051207    20.924753    8438.6103    521.14256    713.80965    2397.9408    54.846921   -442.85027    339.05584   -4247.6786 
 7553000    198.44872   -4793.0634   -4410.3383   -4793.0634            0    1103.4019    20.238551    20.078609    20.854683    8474.5498    1538.8748    262.57205    1508.7587   -609.66717   -636.91332   -482.21064    -4273.966 
 7554000     214.2381   -4767.8781   -4354.7019   -4767.8781            0    1833.9487    20.010905    20.060458    21.266418    8536.9338    2510.1304    2750.8056    240.91007   -102.94184    965.49086   -669.70785   -4126.3708 
 7555000    222.94159   -4801.0132   -4371.0515   -4801.0132            0    2511.2594    20.003054    20.054324    21.033405    8437.5026    1249.9042     3801.362    2482.5119   -157.32185   -1359.0892    2208.7254   -4062.0353 
 7556000    224.78476   -4773.1906   -4339.6743   -4773.1906            0    1478.4124       20.234    20.037948    20.866179    8460.1474    539.82941    2048.1229    1847.2849      713.709    50.091633   -299.34674    -4157.264 
 7557000    207.29711   -4807.6555   -4407.8656   -4807.6555            0     1798.344    19.931924    19.958308    21.303337     8474.627    1899.5674    2260.9369    1234.5276      312.053    446.78302   -1403.9353   -4185.6015 
 7558000    224.74727   -4814.2015   -4380.7574   -4814.2015            0    813.75063    20.220995    20.120437    20.993233    8541.2071    1508.8864    -426.9545      1359.32   -26.523001   -354.54569   -463.02044   -4279.3928 
 7559000    217.04167   -4810.7747   -4392.1916   -4810.7747            0    2437.2332    20.187136    19.940979    21.136731    8508.6176    2741.8955    2026.4579    2543.3463    -129.9062   -431.61488    364.14673   -4089.7566 
 7560000    217.14632   -4798.1432   -4379.3582   -4798.1432            0    1552.3945    20.204398    20.050889    20.853598    8448.1289    332.75541    1976.0112     2348.417   -197.98682    540.35707    357.23722   -4188.0919 
 7561000    211.01637   -4779.6435   -4372.6807   -4779.6435            0    886.81994     20.16608    20.156581    21.037637    8551.3628   -13.563693    3092.5718   -418.54831   -231.45468    1347.8035   -1366.9813   -4262.0828 
 7562000    219.37211   -4767.3846   -4344.3071   -4767.3846            0    3613.1117    19.937849    20.309921    20.925477    8473.4817    2369.2059    4483.8339    3986.2952   -114.47478   -1373.5603    530.40403   -3897.8094 
 7563000    221.59644   -4788.8192   -4361.4518   -4788.8192            0     1625.839    20.152316     20.09711    21.011822    8509.8577    125.74615     3582.412     1169.359    88.217814   -958.87399    -408.3748   -4159.6729 
 7564000    219.01028   -4798.5281   -4376.1484   -4798.5281            0    1882.2085    20.312271    20.103404    20.719735    8460.8164   -30.176756    3263.5873    2413.2149    180.77052    -475.0728    174.51307   -4143.8983 
 7565000    217.32514   -4809.4022   -4390.2724   -4809.4022            0    1763.9265    20.080806    19.941821    21.120021    8457.4668    1570.0573    2550.3594    1171.3627   -243.92375    1125.6597   -1922.8317   -4172.7035 
 7566000    230.80439   -4786.7113   -4341.5856   -4786.7113            0    1156.8192    19.979883    20.115487    21.097437    8479.1669    3124.0096   -827.34846    1173.7966   -322.17101    798.30142    1294.9037   -4198.5334 
 7567000    211.04132   -4800.1298   -4393.1189   -4800.1298            0    802.62615    20.314508    20.228862    20.776215     8537.765    504.54924    693.41468    1209.9145     400.4851    63.252702   -1298.1622   -4293.1803 
 7568000    217.59546    -4799.864   -4380.2128    -4799.864            0    623.01617    20.147691    20.115719    20.997323    8509.9066    273.42694    579.57389    1016.0477   -311.99402      152.639    506.55513   -4302.8914 
 7569000    205.74814   -4805.0616    -4408.259   -4805.0616            0     780.6504    20.202265    19.985307    21.241941    8576.4011    1503.0461    953.54363   -114.63848   -559.30917   -816.44382   -194.66287   -4310.6168 
 7570000    211.83101   -4780.5647   -4372.0308   -4780.5647            0    1581.8692    20.172433      20.1162    20.976719    8512.1993     1557.765    1630.7113    1557.1313    181.96372   -65.022424   -571.44671   -4175.6549 
 7571000    217.34302   -4789.3798   -4370.2155   -4789.3798            0    711.72718    19.903209    20.246819    21.081414     8495.318    962.71195    709.22851    463.24107    75.035022    525.10738   -163.62849   -4282.0357 
 7572000    225.41778   -4768.1614   -4333.4243   -4768.1614            0     1817.647    20.158964    20.290762    20.746332    8486.0948    1188.9236    1672.7835    2591.2339    777.29885    461.43724   -818.02533   -4108.4705 
 7573000      209.845   -4817.2273   -4412.5236   -4817.2273            0    2814.8351    20.019182    19.960139    21.071164    8419.7347    2509.8209    3184.3095    2750.3748   -66.815909    253.27713   -1445.0177    -4066.881 
 7574000    209.74681   -4803.7683   -4399.2539   -4803.7683            0     1125.108    20.116825    19.957209    21.138806    8486.7169    2202.0297    686.24026    487.05419   -859.81153    906.53126    756.08963   -4259.9992 
 7575000    216.56006   -4808.1827   -4390.5285   -4808.1827            0    1891.3041    20.188209    20.147632    20.854027    8482.2627    2507.7399    694.05486    2472.1176    160.47377    294.05199    1250.0541   -4156.5645 
 7576000    216.84319   -4795.4509   -4377.2505   -4795.4509            0    128.96493    20.203726     20.18327    20.824157    8491.6177   -2217.1255     693.3822    1910.6381    149.46175    237.97266   -534.82449   -4361.2793 
 7577000    203.50675   -4812.4383   -4419.9585   -4812.4383            0    58.747562    19.916636    20.123665    21.227846    8508.0294    1763.3785   -937.28936   -649.84649    110.44504    1050.3486   -174.48543    -4412.669 
 7578000    221.17983   -4776.3321   -4349.7682   -4776.3321            0    899.02203    20.112553    20.081589    21.061487    8506.5668    555.72966    1285.4165    855.91988    826.94668   -413.74353     362.2279   -4238.2359 
 7579000    216.69706   -4813.1664   -4395.2478   -4813.1664            0    1765.2061    20.068431    20.171492    20.960001    8484.8219    1547.1072    2328.9172    1419.5937   -601.78333   -270.59012   -1109.6827    -4176.817 
 7580000    222.64612   -4790.8746   -4361.4828   -4790.8746            0    13.426222    19.928547    20.092432     21.49971    8608.7629    276.54295    1442.2994   -1678.5637   -18.962921    278.17909    434.27619   -4359.7971 
 7581000    215.31114   -4785.7635   -4370.5179   -4785.7635            0    1086.2133    20.248856    20.098279     20.93397    8519.4382    1268.3945    977.16909    1013.0762   -7.1724306    71.803984   -363.98476   -4235.5589 
 7582000    213.92337   -4810.7301   -4398.1609   -4810.7301            0    1460.8424    19.998419    20.220029    21.033173    8505.1551    1111.2546    1676.0938    1595.1787   -198.11455   -626.52651    -1150.725   -4216.9595 
 7583000    213.56489   -4783.2746   -4371.3967   -4783.2746            0    1333.0937    20.088629    20.219441    20.969266     8517.314    735.95215    1254.4042    2008.9247   -170.92833   -692.50236   -436.54092   -4205.8048 
 7584000    219.82323   -4769.9031   -4345.9555   -4769.9031            0     1565.285    19.948609    20.063295    21.146413    8463.5312    2130.4737    2246.9832    318.39813   -460.91273    516.07012    566.23694   -4152.7494 
 7585000    204.86681   -4791.6807   -4396.5778   -4791.6807            0    2295.5227     20.06377     20.01265    20.934826     8405.944    2701.4208    1918.0401    2267.1072    25.859966    155.90253   -1441.6919   -4115.1649 
 7586000    218.18455   -4818.6766   -4397.8894   -4818.6766            0   -438.34707    20.146944    20.199532    20.962515    8530.8808    10.430674   -1001.1912   -324.28067    192.13137   -361.57246    64.641415   -4452.4259 
 7587000    212.33692   -4801.7008   -4392.1912   -4801.7008            0    2125.2433    20.030916    20.150059     20.98182    8468.7693    3817.8408     1028.233     1529.656   -272.97115   -396.17403    237.65599    -4129.706 
 7588000    215.53571   -4794.3115   -4378.6327   -4794.3115            0   -491.19775    20.118133    20.107944    21.273375    8605.8096   -604.07625    243.60037   -1113.1174   -726.03307    307.91026   -560.79284   -4440.2815 
 7589000    205.01329   -4819.7139   -4424.3285   -4819.7139            0    2096.2477    20.296424    19.941197    20.851112    8439.1742    1686.4635    2395.0547    2207.2249    306.86981    132.21144   -245.09025   -4166.3292 
 7590000    213.05139   -4798.2694   -4387.3819   -4798.2694            0    2400.9229    20.137767    20.073598    20.940754    8465.0372    1879.0244    2581.1618    2742.5826    305.72194   -1800.8433    672.51409   -4090.9787 
 7591000    214.25781   -4802.6734   -4389.4592   -4802.6734            0    539.50191    20.043026    19.967855    21.230695    8496.8692    562.11263    1382.0286   -325.63545   -341.76974   -1406.4477   -770.86088   -4322.6051 
 7592000    219.64163   -4805.5813   -4381.9839   -4805.5813            0    3829.9077    20.238565    19.972762    20.883343    8441.4658     4235.486    3213.4409    4040.7963     220.9685   -623.03838    17.712134   -3910.4835 
 7593000    221.15513   -4787.5356   -4361.0193   -4787.5356            0   -71.710996    20.192555    20.113634    20.996702    8527.7196   -1680.3292    791.27724      673.919    318.54536    318.41996      456.937   -4369.9379 
 7594000    219.85203     -4803.56   -4379.5569     -4803.56            0    2553.7106     20.17345    19.979285    21.033777    8477.6869    1530.6563    2884.9681    3245.5075   -34.814165   -1.7467582   -341.82599   -4063.8203 
 7595000    206.85328   -4807.8854   -4408.9514   -4807.8854            0    2162.3972    20.074807    19.900249    21.193445    8466.6467    3129.1327    2553.1423    804.91671     -110.948   -977.01221    367.33659   -4141.9443 
 7596000     218.8674   -4792.1897   -4370.0855   -4792.1897            0    1903.7694    20.196996    20.081521    20.863806    8462.0758    2806.4959    1720.6262     1184.186    176.62567    747.82101    1063.0169     -4135.14 
 7597000     219.0117   -4804.3023   -4381.9198   -4804.3023            0     2451.338    20.031101    19.935129     21.20536     8467.779    1259.6206    4342.2631    1752.1302   -492.03634   -939.46941    611.40452   -4079.1946 
 7598000    213.60725   -4791.1328   -4379.1732   -4791.1328            0    1703.9546     20.01779     20.08161    21.173289    8511.4385    3068.2606    1241.7415    801.86161    232.29951   -1360.9357   -208.44296   -4167.6603 
 7599000     211.7678   -4795.5628   -4387.1508   -4795.5628            0    985.72728    20.127683    20.389468    20.749712    8515.5313    442.17433    596.18354     1918.824   -121.56134   -607.26132     1323.856    -4264.733 
 7600000    219.25171   -4806.2039   -4383.3585   -4806.2039            0    2034.8116    20.000844    20.020589    21.058883    8432.5808    2107.7859    1396.0305    2600.6184    199.65017    1235.2065   -853.09403   -4133.1163 
 7601000    208.97872   -4822.5757   -4419.5426   -4822.5757            0   -105.42684    20.222672    20.077332    21.058191    8549.9901   -787.11365    1230.9812   -760.14806   -42.398863    1924.3907    626.32985   -4432.6886 
 7602000      208.575   -4785.8024   -4383.5479   -4785.8024            0    243.09709    20.072599    20.204575    21.121873    8566.1517    525.35485   -611.13874    815.07517    132.68741    824.57862    965.88785   -4353.1782 
 7603000    217.35952   -4780.2347   -4361.0386   -4780.2347            0    1366.3573    20.076807    20.223614    20.921414    8494.6298     1793.418    1156.7902    1148.8635    244.61172    1097.9345    74.790335   -4191.7668 
 7604000     223.9036   -4797.4858   -4365.6689   -4797.4858            0    1883.7869    20.058614    20.184264    20.796084     8419.677    1125.0733    1863.3197    2662.9677   -313.79645     727.7561   -175.94374   -4134.3542 
 7605000    216.46963    -4760.218   -4342.7381    -4760.218            0    1463.1662    20.128735    20.014464    21.095354    8498.5975   -149.70429    3234.8569     1304.346    230.42887    356.01766    602.05233   -4161.3884 
 7606000    207.18123   -4802.6196   -4403.0531   -4802.6196            0    1252.9452     20.05026    20.173435    21.037664    8509.3695    2090.6078    15.386312    1652.8414   -596.74242    750.40499     103.0871   -4247.5621 
 7607000    220.36796   -4799.8214   -4374.8233   -4799.8214            0    2835.2021    20.006072    20.109011     20.87674    8398.7612     2703.179    2378.7064     3423.721   -124.62107   -172.98633   -544.91714    -4027.547 
 7608000    213.28344   -4772.3295   -4360.9945   -4772.3295            0    2901.0782    20.235054    19.974655    20.936302    8462.2064    1993.9615    3655.5729    3053.7003    368.56918   -276.85421   -163.38085   -4002.9649 
 7609000    210.45611   -4792.0711   -4386.1888   -4792.0711            0   -226.97762    20.136702     20.14618    21.142501    8577.0395    24.953576    411.68774   -1117.5742   -126.47993    804.98373    168.51331   -4414.5808 
 7610000    216.77979   -4778.9763   -4360.8982   -4778.9763            0    1955.1005    20.295944    20.086654    20.730439     8451.336    1538.6309    1836.8945     2489.776    449.08592   -2.8509256   -1062.1035   -4119.9241 
 7611000    210.90297   -4766.3039   -4359.5598   -4766.3039            0    1482.5439    19.998987    20.175326    21.171962    8542.5921    1429.6951    1175.5029    1842.4337    280.43088    193.33722    550.00598   -4174.8572 
 7612000    217.29023   -4781.3959   -4362.3334   -4781.3959            0   -263.77496    20.025487    20.278212    21.133051     8581.732    178.39729   -1105.2899    135.56771   -357.60271    626.35962   -919.07432   -4395.3463 
 7613000    201.94801   -4795.6328   -4406.1591   -4795.6328            0    1250.6696    20.400306    20.009736    20.904363    8533.2602   -669.54591    1840.3874    2581.1674   -219.87498    62.537733   -1584.0206   -4250.5147 
 7614000    216.75881    -4787.865   -4369.8274    -4787.865            0    885.07672    20.170713    20.099839     20.92945    8485.3866    640.74763   -293.45891    2307.9414    172.50187   -1206.6426   -682.73116   -4260.2986 
 7615000    207.50936   -4780.1473   -4379.9481   -4780.1473            0    1703.6342    20.016343    20.112122     21.23983    8550.5424    1641.1406     2824.195    645.56692    504.46037    420.84735    -842.9128   -4167.5034 
 7616000    208.74726   -4809.2894   -4406.7028   -4809.2894            0    1401.8855    20.212974    20.159497      20.8216     8484.456    1025.2648    2512.8761    667.51547   -339.02558   -460.41219   -765.41738   -4233.2376 
 7617000    207.07365   -4809.4043   -4410.0453   -4809.4043            0    731.22427    20.149478    19.959188    21.164205    8511.5498    268.48504    1823.0728    102.11493    -433.8483    636.89663   -252.77211   -4319.2768 
 7618000    208.93107   -4793.6168   -4390.6757   -4793.6168            0    205.33131    20.234505    20.117659    20.971779    8537.0001   -463.19988    1430.4948     -351.301   -557.76922    206.13851    1265.5126   -4365.1112 
 7619000     220.3783   -4827.4657   -4402.4476   -4827.4657            0    1643.7564    19.822762    20.272872    21.002023    8439.9638    1467.7786    706.71205    2756.7787   -285.31147   -140.27423    510.53061   -4200.1206 
 7620000    220.01315    -4796.111   -4371.7972    -4796.111            0    3700.5638    19.947543    20.203833       20.858     8406.125    4413.3383    3438.2008    3250.1522   -214.51594    157.00058   -1019.0335   -3918.1276 
 7621000    211.87749   -4815.0737   -4406.4501   -4815.0737            0   -607.24358    20.027556    20.157048    21.238365    8573.8516   -97.017069     -429.368   -1295.3457   -41.197269    473.89547    -105.4159   -4482.3803 
 7622000    219.64953   -4781.4794   -4357.8668   -4781.4794            0    1849.0651    20.160992    20.110133    21.100935     8555.168     3103.639     26.44969    2417.1064   -27.325853    165.62355     818.3488   -4127.1621 
 7623000    219.45117   -4807.0606   -4383.8306   -4807.0606            0    659.28781    20.096908     20.21355    21.094923    8569.3879    1638.8967   -17.814316    356.78108   -509.55475   -518.21603   -788.49791   -4301.4356 
 7624000    214.12578   -4784.6445    -4371.685   -4784.6445            0    3077.6159    20.182523    20.063321    20.714864    8388.0377    1174.2206    3494.2834    4564.3436   -347.52821    1370.8216    712.81035   -3995.1974 
 7625000    222.10188   -4781.7359   -4353.3938   -4781.7359            0    1835.1047     20.09345    20.098547    21.167421    8548.4449    54.185184    3000.7683    2450.3605    223.15356    42.957936    376.52166   -4124.6107 
 7626000    201.46028   -4799.8422   -4411.3091   -4799.8422            0    398.14194    20.085597    20.134285    21.191087    8569.8693    289.87174    196.87164    707.68244    56.232969      659.499   -720.44538   -4361.5483 
 7627000    217.37855   -4802.9943   -4383.7614   -4802.9943            0    2792.7099    20.367651    19.849175    20.905623    8451.7472    2946.4795    2880.8624    2550.7879    416.64153    342.92516    545.27564   -4039.5318 
 7628000    215.36913   -4805.3038   -4389.9463   -4805.3038            0    1977.5264    20.188944    19.898394    21.005589     8438.524    2534.1568    2126.0118    1272.4106    271.48453    286.04833   -274.14532   -4146.5776 
 7629000    234.08392   -4792.7451   -4341.2946   -4792.7451            0    419.32064    20.148015    20.118909    21.056359    8535.3234    1317.7344   -1047.9109    988.13846   -49.829247    -910.3733   -1122.0105    -4289.098 
 7630000    207.55352   -4818.6404    -4418.356   -4818.6404            0    1791.3665    20.108173    20.051051    20.934448    8440.5603    58.792369    2832.6787    2482.6284   -350.73082   -290.47049     713.3099   -4197.8443 
 7631000    207.29689   -4812.3667   -4412.5773   -4812.3667            0    746.68436    20.118964    19.964575    21.163259    8500.5735    2053.6486   -49.669037    236.07349   -697.62425   -259.23633    -236.7431   -4320.0092 
 7632000    216.21609   -4762.6019    -4345.611   -4762.6019            0    1341.3014    20.146994    19.994801    21.126358    8510.4393    1496.9428    2705.5056   -178.54417    317.03957    -599.1414    322.84167    -4179.134 
 7633000    226.47018   -4786.4356   -4349.6688   -4786.4356            0      2741.58     20.17101    20.212745    20.697046    8438.4235     1519.694     3245.264     3459.782   -454.70274   -31.449727    355.68004   -4012.2742 
 7634000    206.25208   -4793.1352   -4395.3607   -4793.1352            0    1364.2446    20.018655    20.230287    21.005337    8506.8074    2180.9829    284.80685    1626.9442    249.93931   -518.76109   -38.022836   -4226.1083 
 7635000    217.30861   -4804.8564   -4385.7584   -4804.8564            0    2893.5293     19.93933    20.028774    21.286895    8501.1414    4873.0648    1121.7956    2685.7274   -340.71255   -196.79928    2.1958031   -4027.0174 
 7636000    225.30884   -4807.2483   -4372.7212   -4807.2483            0    1465.3654    20.133181    20.218738    20.852167    8488.2397    1642.5797    680.48886    2073.0278   -122.81428    1532.0382   -806.07473   -4191.3203 
 7637000    206.08538   -4792.5618   -4395.1088   -4792.5618            0    47.228216    20.219475    20.034712    21.007457    8509.9397   -877.09879    721.79871    296.98473    583.69815    301.08391    364.31072   -4389.2473 
 7638000    207.15215   -4795.2375   -4395.7272   -4795.2375            0    593.24989    20.117979    20.180961    21.230966    8619.7756     1590.638   -841.96661    1031.0782    401.39352   -373.01512   -1187.3776   -4321.1494 
 7639000    203.62656   -4807.2517   -4414.5408   -4807.2517            0    2284.7736    20.025548    20.196834     20.97925    8485.1135    1045.4067    3714.7744    2094.1397    -646.8125    -471.1431   -1026.5597   -4131.8076 
 7640000    225.57742   -4800.7997   -4365.7547   -4800.7997            0    1465.0296     20.34846    20.175188    20.531884    8429.0367   -620.38242    2253.8204    2761.6508   -149.99872    1354.1562   -787.06745   -4185.6603 
 7641000    217.09028   -4806.5012   -4387.8244   -4806.5012            0     1802.158    20.001264    20.107069    21.083805    8479.2063    2143.9531    1462.4038    1800.1172   -343.63912   -898.33831     2125.351   -4164.9686 
 7642000    213.80469   -4796.2882   -4383.9478   -4796.2882            0    898.30011    20.284217    20.076428    20.892912    8508.3173   -257.11949    1202.2639    1749.7559     488.5292   -622.42029    818.33643   -4272.4822 
 7643000    211.36054   -4794.9933   -4387.3667   -4794.9933            0    1788.2777    20.283084    20.079704    20.924587    8522.1305    1907.5468    1143.1891     2314.097  -0.50490232    273.47051   -808.68836   -4165.1079 
 7644000    223.66333   -4808.8899   -4377.5363   -4808.8899            0    2915.7991    20.109464    20.011118    20.977021    8441.4228    2353.7565     4338.408    2055.2328   -444.67389    365.90264    614.86257   -4018.5738 
 7645000    224.63659   -4816.9588   -4383.7282   -4816.9588            0      855.635    19.999226    20.111624    21.090164    8482.8204    1591.2099    615.98681    359.70827    440.81103    676.90583    366.91136   -4277.8748 
 7646000    207.28728    -4800.123    -4400.352    -4800.123            0     1827.404    20.196524    20.170027    20.783035    8466.2693    1690.2124    1193.0443    2598.9552     160.8699   -27.977877    200.24582   -4174.7191 
 7647000    209.85284   -4809.4613   -4404.7424   -4809.4613            0    1331.0508    20.177102     19.95926    20.979408    8448.8273    1649.9532    446.08115     1897.118   -34.358146    551.56039      94.0305   -4240.7337 
 7648000    208.46141   -4804.0948   -4402.0594   -4804.0948            0    1075.8398    20.088538    20.191877    21.019571    8526.0693    911.01998    1684.6364    631.86287   -6.8516657    526.64253    222.47408   -4268.2852 
 7649000    227.39024     -4800.32   -4361.7788     -4800.32            0     728.0111     20.17104    20.069093    21.078253     8532.782    425.50669    235.89356     1522.633    348.16706    490.22344     846.9589   -4271.1838 
 7650000    205.40314   -4785.7274   -4389.5901   -4785.7274            0    2723.7667    20.087142    20.133503    20.851999    8433.0601    4182.1263    1162.7087     2826.465   -408.45762   -577.86564   -236.13884   -4054.6008 
 7651000     226.7795   -4783.0262   -4345.6628   -4783.0262            0    2011.8094    20.041886    19.940856    21.243541    8490.0314    3359.9953    2151.6461    523.78665    468.68134    429.81659   -374.86795   -4096.5638 
 7652000    218.72174   -4789.2876   -4367.4643   -4789.2876            0     1094.805    20.146042    20.155509    20.844994    8464.1874    499.51566    1163.2567    1621.6427   -909.01309    653.15923   -779.73709     -4232.32 
 7653000    211.39892   -4795.3133   -4387.6127   -4795.3133            0    1767.1916    20.210098    20.201371    20.822338    8501.1709    1236.6392    912.26115    3152.6745    372.82989   -922.79947    79.481295   -4168.5148 
 7654000    218.06946   -4805.8325   -4385.2672   -4805.8325            0    1619.4788    19.875908    20.083351    21.275105    8492.4863    2976.5657   -38.946209    1920.8169   -49.890399   -772.16447    378.92372   -4184.6879 
 7655000    212.03832   -4795.8006   -4386.8668   -4795.8006            0    1038.1722    20.115519    20.161075    20.989385    8512.2552    408.23458    1534.2568    1172.0254   -112.19167    695.59173    530.81195   -4257.9855 
 7656000    215.31587   -4818.4858   -4403.2311   -4818.4858            0    3045.0681    20.066806    19.923945    21.040013    8412.0061    3532.6712     3650.554    1951.9792   -394.88687    803.86642   -258.15305   -4029.6606 
 7657000    215.58262   -4794.4843   -4378.7151   -4794.4843            0     571.9798    20.256683    20.250224    20.769604    8519.7404   -15.164394   -11.723021    1742.8268    353.15718     702.2351    121.83005   -4307.6457 
 7658000    212.68806   -4825.5734   -4415.3866   -4825.5734            0    317.20611    20.100168    20.069916    21.068874    8499.3666   -80.348779    -598.4924    1630.4595   -224.73524    428.91195   -732.27592   -4376.0674 
 7659000    211.34118   -4802.1211   -4394.5319   -4802.1211            0    2847.6305    19.987503    19.951702    20.972845      8363.65    2051.2052    3486.2228    3005.4634   -91.943951    128.72828   -882.78951   -4047.1914 
 7660000    210.40434   -4781.7125     -4375.93   -4781.7125            0    1873.0893     19.94837    20.088395    21.105284    8457.5361    2806.6952    1335.8882    1476.6845   -333.17343   -1263.7105   -361.28581   -4144.8948 
 7661000    206.20837   -4799.8625   -4402.1723   -4799.8625            0    1453.1951    20.211827    19.902792    21.122699    8497.0661    1483.5483    1961.6443    914.39266   -14.798877    -554.5155   -115.69602   -4222.0909 
 7662000    213.84896   -4788.2893   -4375.8636   -4788.2893            0    1301.3036    20.191802     20.11714    20.874566    8479.2758    1582.0165    985.02467    1336.8697   -44.138792     125.0581    1185.2329   -4214.9424 
 7663000    226.32045   -4809.0624   -4372.5844   -4809.0624            0    1378.6923    19.984425    20.054205    21.187393    8491.3087    529.15842    1764.6967    1842.2217    -182.7122    38.486923    231.36296   -4201.8513 
 7664000     226.4774   -4824.0155   -4387.2348   -4824.0155            0     2867.906    19.894536    20.170597    21.009346    8430.7285    2289.9347    3529.7832    2784.0002     668.2184   -695.31796   -440.22203   -4034.6156 
 7665000    212.96303   -4797.1988   -4386.4817   -4797.1988            0    2021.0181    20.174823    20.063538    20.915902    8466.3036    1888.5819    2264.5063    1909.9661   -522.41674   -458.63606    556.77594   -4136.9418 
 7666000    218.62267   -4785.5776   -4363.9453   -4785.5776            0     2139.205    20.350263    20.155541    20.540952    8425.2938    1418.5206    1807.9775    3191.1169   -304.44777    175.30695    2152.9463   -4101.0921 
 7667000    213.81874   -4790.2272   -4377.8598   -4790.2272            0    1364.5133    20.043977    19.959264     21.18711    8476.1791    532.10751    2283.3518    1278.0806     818.3586   -749.35569      913.473   -4209.1836 
 7668000    224.22274   -4782.8108   -4350.3784   -4782.8108            0    1231.8558     20.10437    20.107256    21.001422    8489.6927      1395.02    521.90996    1778.6374   -418.94835    1508.4741   -422.52745    -4197.858 
 7669000    225.08038   -4784.7682   -4350.6818   -4784.7682            0    2119.2336    20.114365     20.22807    20.775367     8452.973    2357.5091      2157.44    1842.7516    894.13685    439.05423   -528.16788    -4089.427 
 7670000    215.32914   -4783.4402   -4368.1598   -4783.4402            0   -350.77397    20.276821    19.940914    21.146983    8550.5359   -828.51563    1481.2737   -1705.0799   -48.764431   -646.24619    147.51882   -4411.9016 
 7671000    217.00962   -4791.0004   -4372.4792   -4791.0004            0    574.73419    20.262534    20.104057    21.096956     8594.038    1259.8524   -459.33441    923.68459    380.42833    1005.4906   -141.83051   -4300.4447 
 7672000    217.47228   -4813.3704   -4393.9568   -4813.3704            0    1353.8689    19.970197    20.206923    20.989786    8470.1396    525.83561    1784.7447    1751.0265   -80.293533   -398.22877    310.42873   -4226.7157 
 7673000    210.70132    -4809.099   -4402.7437    -4809.099            0    1557.4115    20.213741    20.256597    20.752709    8497.4375     835.0178    1291.8761    2545.3407   -416.38747   -175.32729    1988.5291   -4209.7393 
 7674000     218.6217   -4798.0697   -4376.4394   -4798.0697            0    3390.2935    20.051501    20.022307     20.98376    8424.5032    2833.4622    3565.8596    3771.5588    637.31545    198.12636    1187.5176   -3959.8986 
 7675000    221.77442   -4816.7816    -4389.071   -4816.7816            0    421.56441     20.05159    20.234849    20.969439    8508.1589    235.09608    180.71268    848.88446    15.066214     501.4166   -731.35701   -4336.7621 
 7676000    204.47092    -4804.412   -4410.0727    -4804.412            0    2761.7708    20.219538    19.955192    21.005461    8475.3836    994.12931     4695.599     2595.584     52.79197    -438.4504    -397.9177   -4068.7046 
 7677000    204.65199   -4771.4741   -4376.7855   -4771.4741            0    270.61788    20.317843    20.078285     21.12584    8618.2325   -1181.8505     1162.535    831.16913    440.30894    432.96978     175.1097   -4342.7721 
 7678000    211.59458   -4788.3406   -4380.2627   -4788.3406            0    1470.2453    20.132025    19.881614    21.176946    8476.2243    3680.7486     894.8215   -164.83406    71.764926    1471.3343   -555.26682   -4198.5153 
 7679000    212.68749   -4762.9035   -4352.7178   -4762.9035            0    337.14734     20.27313    20.010557    21.040033    8535.4495    480.70822    110.02597    420.70785    733.84318    769.89627    -489.7271   -4310.7494 
 7680000    215.88704   -4784.0442   -4367.6879   -4784.0442            0     1302.982     20.09397     20.16508    20.981554    8501.6524    1965.2708    511.88941    1431.7857   -498.42016    358.58617    1755.8434   -4206.1339 
 7681000    215.61751   -4810.4816   -4394.6451   -4810.4816            0    2176.8093    19.933294    20.164652    21.035444    8455.1536    2602.9684    1588.0813    2339.3783   -516.58769     79.12183    387.52907   -4126.2233 
 7682000    223.54924   -4814.5497   -4383.4162   -4814.5497            0    812.42681    20.096793      20.1321    20.954252    8477.8944    775.56073    632.76146    1028.9582    56.892769    1674.0406    706.91279   -4282.9666 
 7683000    210.69509   -4811.7137   -4405.3705   -4811.7137            0    2291.3191    19.922638    20.270433    21.008599    8484.1229    3944.2926    966.21507    1963.4497   -25.408698   -372.23192    132.36704   -4121.8605 
 7684000    213.72709   -4814.1399   -4401.9492   -4814.1399            0    1663.3322    20.060632    20.061797    21.082794     8484.819    2191.1251    827.22284    1971.6486   -706.05822   -386.34589   -801.82356   -4196.1245 
 7685000    219.77958   -4779.2692   -4355.4058   -4779.2692            0    1767.7258    20.066045     19.92816    21.402496    8558.4162    861.30533    4358.4068    83.465418    422.19633    569.83182    -226.4358   -4134.7658 
 7686000    224.86397   -4792.3475   -4358.6785   -4792.3475            0    2484.6698    20.247828     20.07627    20.830761    8467.7224    864.48912    2995.6351    3593.8853   -594.94658    1184.8199    383.45044    -4051.839 
 7687000    209.88069   -4792.6075   -4387.8349   -4792.6075            0    -125.3363    20.193069    20.112506    21.114473    8575.2892   -211.59088    169.59381   -334.01183    149.45572   -109.95644    73.686313   -4403.5097 
 7688000    213.78912   -4786.2998   -4373.9895   -4786.2998            0    1584.8208     20.03476    20.048408    21.206067    8517.7353    2008.4925    2259.8513    486.11864    263.76925    24.399879     248.1844   -4177.1192 
 7689000    212.34451   -4810.3921   -4400.8679   -4810.3921            0    3007.1096    20.227564    19.745057    20.904128    8348.9916    1112.7259    5299.4691    2609.1338   -348.60438    1632.6718   -181.67148   -4034.7178 
 7690000    223.01618   -4779.4213   -4349.3159   -4779.4213            0    1382.4225    20.094078    20.191507    21.048611    8540.0469     1961.025    1391.4309    794.81167    25.756825    535.21348   -1088.8418   -4177.1382 
 7691000    209.16302    -4782.835   -4379.4465    -4782.835            0    97.262567    20.100216    20.065328    21.092822    8507.1028    -896.2284    1028.9228    159.09331    144.68053    662.36709    159.21493   -4367.3794 
 7692000    222.86918   -4802.4794   -4372.6574   -4802.4794            0    2342.2381     20.02791    19.991713    21.273846    8517.8823    3572.9679    2774.5858    679.16059    57.241658    -1365.614    613.13574   -4081.6939 
 7693000    217.91884   -4797.3343   -4377.0594   -4797.3343            0    784.22623    20.262053     20.09168    20.816838    8474.5074    347.87881    1061.2388     943.5611   -312.51325   -239.74683     236.5753   -4280.1353 
 7694000    215.50727   -4775.9866   -4360.3627   -4775.9866            0    554.90132    20.195662    19.937573    21.210755    8540.5633    51.628935     1415.252    197.82305    101.26083     144.7043   -102.86175   -4291.2467 
 7695000    213.67221   -4789.6028    -4377.518   -4789.6028            0    3702.0299    20.015288    20.126662    21.049446    8479.5784    4730.1737    2224.4401    4151.4759   -699.64278    794.84218   -104.99183   -3919.7029 
 7696000    214.97353   -4798.3123   -4383.7178   -4798.3123            0    2553.8819    20.097337    20.183692    20.914406     8483.687    3319.3728    1782.3156    2559.9573   -19.605288    722.79789   -1102.4401   -4067.7365 
 7697000     204.8884   -4774.3928   -4379.2483   -4774.3928            0    143.41698    20.305124    20.101429    20.966379    8557.6791    22.984896   -518.95507    926.22112   -538.38171   -887.66999    725.33738   -4361.3491 
 7698000    210.56913   -4786.9582   -4380.8579   -4786.9582            0    1869.1183    20.234818    19.854651    21.210647    8521.4885    3240.9822    1640.1131     726.2596    27.781669    1.8034393   -434.46264   -4148.5692 
 7699000     219.7932   -4780.5239   -4356.6342   -4780.5239            0    2522.6345    19.986737    19.998012    21.120023    8441.5681    3525.2744    3391.1364    651.49255    494.79533   -587.37377   -1269.7182   -4046.0687 
 7700000      205.592   -4788.4282   -4391.9268   -4788.4282            0   -652.34187    20.186231     20.28769    20.896744    8557.8852   -435.02753   -869.69706   -652.30103    110.11372    427.01665    774.66033   -4473.3442 
 7701000    208.74922   -4789.0012   -4386.4108   -4789.0012            0    2024.4068    19.984548    19.996119    21.196769    8470.5128     2374.819    1782.9622    1915.4392   -471.02084    436.07093    401.06231   -4136.3282 
 7702000    221.86202   -4804.3101   -4376.4305   -4804.3101            0    680.65231    20.293813    20.053883    20.995079    8544.3619    828.00262    32.576791    1181.3775   -576.39287   -593.21146    85.271416   -4291.6139 
 7703000    204.22386   -4793.2589    -4399.396   -4793.2589            0    1586.3559     20.01093     20.21745    20.882572    8448.4616    1486.2313    1764.9034    1507.9329   -413.28601    1567.3586    1502.1602   -4203.9376 
 7704000    207.08148   -4805.0992   -4405.7252   -4805.0992            0    1603.0622    20.152988    20.026555    21.103406    8517.2271    1394.8659    1858.0288     1556.292    48.158124     525.4378    596.14469   -4206.6008 
 7705000    202.10273   -4802.1664   -4412.3943   -4802.1664            0    130.75882    20.188359    20.038838      21.0134    8500.9973    1564.8711   -767.51838   -405.07626    150.35817   -782.80035   -1164.1788    -4396.183 
 7706000    210.91847   -4810.9955   -4404.2215   -4810.9955            0    1256.4354    20.245927     19.96909    21.014974    8496.2017    368.13192    2983.3345    417.83976     228.3748    232.56628   -104.17313   -4248.5387 
 7707000    209.64355   -4786.6569   -4382.3417   -4786.6569            0    571.86835     20.30129    19.988812    21.101341    8562.8964   -1183.0091    2439.7969    458.81727   -459.10131    536.38726   -32.137425   -4310.9262 
 7708000    213.31788    -4779.516   -4368.1146    -4779.516            0     2042.516    19.941211    20.172859    20.915108    8413.5464     2737.686    1416.7846    1973.0775    -490.4942   -465.67587   -862.46263   -4117.4918 
 7709000    205.83295   -4780.3155   -4383.3493   -4780.3155            0    25.158324    20.115251    20.299827    20.957706    8557.7884    638.88321   -696.40067    132.99243    440.75358    561.48962    783.65217   -4380.2094 
 7710000     220.5074     -4779.22    -4353.953     -4779.22            0    1493.3856    20.197217    19.966273    21.246548      8567.95    1131.0364    1743.3582    1605.7623    176.12664   -82.225625   -127.28879   -4167.3473 
 7711000    225.02393   -4802.9374   -4368.9598   -4802.9374            0    1685.4963    20.120732    20.081361    20.889869    8440.5865    2370.2324    542.44936    2143.8072    163.56148    127.76909   -420.82209   -4161.4797 
 7712000    214.58461   -4790.7893   -4376.9449   -4790.7893            0    1435.6837    20.073144    20.271695    20.883406    8497.8058    1830.6945    441.87027    2034.4864   -824.94108   -566.13159   -1376.7234    -4199.018 
 7713000    220.89199   -4784.0287   -4358.0199   -4784.0287            0    1285.1727     19.84035    20.072789    21.318234    8490.0111    2458.1269    508.37456    889.01654     243.6894    342.21251   -831.04057   -4198.8923 
 7714000    227.02483   -4809.4423   -4371.6058   -4809.4423            0    1523.7433    20.146521    20.130592    20.905751    8478.5653     1585.597    826.40033    2159.2324    437.08246     216.7779     214.5284   -4183.1932 
 7715000    206.38828   -4820.1191   -4422.0819   -4820.1191            0    2179.8262    20.150453    20.188584    20.824324    8471.5251    2133.4324    2133.9963      2272.05    94.433235    11.707482    355.56988   -4152.7677 
 7716000    210.04304   -4801.4318   -4396.3461   -4801.4318            0    1205.5873    20.118884    20.031463     20.97851    8454.5634    817.31059    1073.3771    1726.0741   -520.39805    946.29725    -38.17825   -4247.6958 
 7717000     208.3645   -4808.8335   -4406.9851   -4808.8335            0     2787.481    20.091531    19.903376    21.124812    8447.5864    3138.3679    1872.8861    3351.1891    95.773254   -1023.8619    130.02047   -4063.5692 
 7718000    218.07758   -4781.5587   -4360.9777   -4781.5587            0    2367.1809    20.108948    20.144026     20.94229     8483.202     4798.028    942.80715    1360.7075   -591.05466    758.82685    468.47479    -4068.113 
 7719000    221.33964   -4795.6451    -4368.773   -4795.6451            0    789.69021    20.211837    20.063934    20.974902    8505.9301    1274.8525    153.00833    941.20985    230.33749   -1676.8157    605.26665   -4270.8118 
 7720000    207.95892   -4811.3862   -4410.3199   -4811.3862            0    989.48973    20.031425    20.156293    21.028158    8490.3139    1116.3729    735.51265    1116.5836   -234.84041    386.59301    260.66977   -4287.7988 
 7721000    216.54226   -4800.8001   -4383.1802   -4800.8001            0    3546.5613    20.064418    19.948614    20.713128    8290.5812    2706.5752    4892.8079    3040.3008    86.490067    23.634161    799.25123   -3954.3668 
 7722000    210.81805   -4807.4387   -4400.8583   -4807.4387            0    1434.9913    20.119327    20.064476    21.058521    8500.9826    591.53474    1542.1738    2171.2653   -426.51835    295.01915    389.30384   -4222.9508 
 7723000    211.02642   -4804.6846   -4397.7024   -4804.6846            0    1458.0341    20.155881    20.155378    21.020451    8539.5458    2270.0076    676.70315    1427.3914   -235.44687   -877.72807    1478.2943    -4216.118 
 7724000    211.37277    -4790.655   -4383.0048    -4790.655            0    1310.6985     19.88929    20.018688    21.264119    8466.4684    222.18458    3596.9216    112.98941   -1.7634894    54.162115     849.0271   -4221.1666 
 7725000    210.64726   -4802.2381   -4395.9872   -4802.2381            0    3085.5165    20.062539    20.004436    20.898231    8387.2915    2312.9159    2849.8978    4093.7359   -290.05743    793.33252   -803.30176   -4018.5667 
 7726000    219.49099   -4807.3013   -4383.9944   -4807.3013            0    3154.9615    20.058953    20.108254    20.814022    8395.3469    5347.1235    709.60228    3408.1587   -227.57331   -301.57096     130.1287   -3997.7088 
 7727000    228.71111   -4769.1506    -4328.062   -4769.1506            0    1274.0503    19.952106    19.960287    21.302684    8483.7891    1234.6156     2033.752    553.78333   -470.98651    1250.6825    179.62662   -4170.4271 
 7728000    229.65451   -4803.3302   -4360.4222   -4803.3302            0    2614.3782    19.935476    20.154342    21.035729    8451.8698    2638.9717    2399.6367    2804.5262    431.57153    1076.8623   -268.17724   -4038.1691 
 7729000    223.55798   -4798.4525   -4367.3022   -4798.4525            0    3363.8719    20.192888    20.120862     20.80201    8451.8217    3454.2393     3846.703    2790.6734    170.15743    1730.1822    34.547131   -3952.6675 
 7730000     226.9267   -4792.6675   -4355.0203   -4792.6675            0    1271.0417    20.163064    20.086622    21.089422    8541.3811    1608.9261    1389.5077    814.69133   -26.338032   -51.884534    204.05655   -4196.6901 
 7731000    218.04903   -4782.4962   -4361.9703   -4782.4962            0    3344.7413    19.977711    19.903703    21.159465    8413.6474    2633.1955    5028.6674    2372.3611    290.21167     28.67317   -1683.6891   -3951.5557 
 7732000    229.38921   -4818.9568   -4376.5604   -4818.9568            0    1509.8267    20.128614    20.186289    20.897529    8491.1264    1505.4213    1840.0118     1184.047   -87.154162   -810.50552   -104.81049    -4189.592 
 7733000    209.74502   -4799.9428   -4395.4319   -4799.9428            0    892.30808    19.984572    20.348782    21.069381    8568.1102    1682.6406   -500.98035     1495.264    556.09394   -95.108829    1092.0071   -4283.9317 
 7734000     227.3729   -4806.0545   -4367.5468   -4806.0545            0    2037.6798    19.990539    20.102307    20.899616    8398.6348    2145.7008    1567.3085      2400.03    665.64129    1152.7611    222.26191   -4117.9606 
 7735000    196.69117   -4788.1474    -4408.812   -4788.1474            0    131.98995    20.213342    19.976353    21.058214    8503.0724   -1037.9448    1578.2307   -144.31609   -6.5208304    1320.6597   -471.73949   -4392.4441 
 7736000     213.3446   -4810.6859   -4399.2328   -4810.6859            0    1159.7428    20.073383    20.145205    21.002436    8493.0158    1300.6156    343.65224    1834.9605   -53.959017    -863.6037    636.86929   -4255.5849 
 7737000    212.11642   -4790.7574    -4381.673   -4790.7574            0    1740.8107     20.06205    20.205242    20.973291    8501.7035    1719.9523    1022.5523    2479.9275    95.653295      -788.01    154.60964   -4165.8323 
 7738000    220.61529   -4791.8626   -4366.3875   -4791.8626            0    3196.3356    20.230112    19.937785    20.943027    8447.2361    1616.1962    4847.6294    3125.1811    -367.6948   -402.74058    241.80125   -3972.6172 
 7739000    210.16278    -4790.112   -4384.7954    -4790.112            0    1971.4056     20.06279    19.998833    21.053071    8447.1739   -259.83863    5033.9849    1140.0706   -296.96334    922.08351   -394.97556   -4141.9313 
 7740000    216.08908    -4789.741   -4372.9951    -4789.741            0    982.42831    20.109081    19.953169    21.194186    8503.9529    163.85984    1737.0259    1046.3992   -508.72439    1050.2742    974.98679   -4251.1529 
 7741000    216.38144   -4809.5824   -4392.2726   -4809.5824            0    2588.3135    19.914541    20.223518    20.769193    8364.6278    2073.0164     3011.941    2679.9833    648.39051    864.59626   -245.96388   -4076.5255 
 7742000    208.13009   -4785.2593   -4383.8629   -4785.2593            0    2119.0948    20.041866    20.182374    21.006281    8496.8819    3605.2948   -421.10796    3173.0975    340.59361   -951.57776   -405.42481   -4121.2683 
 7743000     221.1521   -4788.7394    -4362.229   -4788.7394            0    1211.3223    20.271224    20.128243    20.773923    8476.2619     2782.312   -560.43501    1412.0898   -11.599618    370.65666    517.89932   -4212.4883 
 7744000    225.68459   -4800.1478   -4364.8961   -4800.1478            0    2031.9635    20.102758    19.925784    21.049623    8431.7048    778.90672    3440.0426    1876.9412    876.48614    498.34172   -197.83799   -4115.0301 
 7745000    228.22654   -4785.9755   -4345.8214   -4785.9755            0     728.7821    20.119998    20.038489    21.194013    8544.8823    695.87265    1667.8594   -177.38573    356.29049   -964.83856    428.98592   -4255.0018 
 7746000    224.00698   -4796.3972   -4364.3809   -4796.3972            0    1969.3728    20.131569    20.152889    20.795586    8436.9623    1465.0486    2545.9868    1897.0831    246.25378    186.56932    849.45906   -4122.0605 
 7747000    214.76843   -4801.6908   -4387.4918   -4801.6908            0    3099.8488    20.169276    19.927315    21.076637    8471.1117    2793.6335    3605.1856    2900.7274   -430.36824     1078.524   -139.21886   -4004.5288 
 7748000    222.66543   -4782.5838   -4353.1548   -4782.5838            0    1180.0181    20.199759    19.861576    21.285568    8539.7499    -294.5489    4032.1252   -197.52189    -608.6546   -121.02265    317.04789   -4206.1913 
 7749000    213.55376   -4808.3083   -4396.4519   -4808.3083            0    2336.5304    20.199056    20.006518    21.058375    8509.9584    2874.8724    1810.8068    2323.9119   -971.06889    409.06996    733.98532   -4106.4674 
 7750000    223.95777   -4773.8332   -4341.9118   -4773.8332            0    3387.9101     20.16714    20.087738    20.749539     8405.892    5457.6639    1415.1818    3290.8845   -353.12768    527.51823    727.98633   -3926.5835 
Loop time of 411.982 on 64 procs for 250000 steps with 972 atoms

Performance: 104.859 ns/day, 0.229 hours/ns, 606.823 timesteps/s
190.4% CPU use with 32 MPI tasks x 2 OpenMP threads

MPI task timing breakdown:
Section |  min time  |  avg time  |  max time  |%varavg| %total
---------------------------------------------------------------
Pair    | 26.902     | 35.484     | 44.186     |  75.1 |  8.61
Bond    | 0.91772    | 1.2574     | 2.0163     |  18.6 |  0.31
Kspace  | 181.88     | 194.08     | 206.49     |  37.1 | 47.11
Neigh   | 1.8795     | 2.0102     | 2.1116     |   5.0 |  0.49
Comm    | 72.387     | 76.703     | 81.419     |  24.9 | 18.62
Output  | 0.48961    | 0.48997    | 0.49144    |   0.0 |  0.12
Modify  | 75.151     | 78.436     | 81.751     |  17.9 | 19.04
Other   |            | 23.52      |            |       |  5.71

Nlocal:        30.3750 ave          37 max          23 min
Histogram: 1 1 3 4 5 9 1 4 0 4
Nghost:        2566.69 ave        2597 max        2522 min
Histogram: 2 0 3 1 4 4 6 5 5 2
Neighs:        9376.53 ave       12114 max        6143 min
Histogram: 1 0 3 6 2 8 4 3 3 2

Total # of neighbors = 300049
Ave neighs/atom = 308.69239
Ave special neighs/atom = 2.0000000
Neighbor list builds = 5724
Dangerous builds = 0

unfix		3
unfix		2
unfix		1

write_data	data.final.${pid}
write_data	data.final.1
System init for write_data ...
PPPM initialization ...
  extracting TIP4P info from pair style
  using 12-bit tables for long-range coulomb (../kspace.cpp:340)
  G vector (1/distance) = 0.37208866
  grid = 24 24 25
  stencil order = 5
  estimated absolute RMS force accuracy = 0.0034481558
  estimated relative force accuracy = 1.0384019e-05
  using double precision FFTW3
  3d grid and FFT values/proc = 3458 576
Last active /omp style is kspace_style pppm/tip4p/omp
WARNING: Not all mixed pair coeffs generated from mixing. Use write_data with 'pair ij' option to store all pair coeffs. (../write_data.cpp:312)

write_restart   restart.lmp.${pid}
write_restart   restart.lmp.1
System init for write_restart ...
PPPM initialization ...
  extracting TIP4P info from pair style
  using 12-bit tables for long-range coulomb (../kspace.cpp:340)
  G vector (1/distance) = 0.37208866
  grid = 24 24 25
  stencil order = 5
  estimated absolute RMS force accuracy = 0.0034481558
  estimated relative force accuracy = 1.0384019e-05
  using double precision FFTW3
  3d grid and FFT values/proc = 3458 576
Last active /omp style is kspace_style pppm/tip4p/omp
Total wall time: 0:06:52
