#include		in.partitions
include		in.temp
variable        temperature equal 264.14
variable	tempDamp equal 100.0
include		in.pressure
variable        pressure equal 5500.0
variable        pressureDamp equal 1000.0 # This is 1 ps
include		in.seed
variable        seed equal 745823

units		real
atom_style	full
read_restart	restart.lmp.${pid}
read_restart	restart.lmp.1
Reading restart file ...
  restart file = 30 Jul 2021, LAMMPS = 30 Jul 2021
  restoring atom style full from restart
  orthogonal box = (0.47634725 1.6526054 0.58114253) to (17.731225 21.976572 21.632053)
  2 by 4 by 4 MPI processor grid
  restoring pair style lj/cut/tip4p/long/omp from restart
  restoring bond style harmonic/omp from restart
  restoring angle style harmonic/omp from restart
  864 atoms
  576 bonds
  288 angles
Finding 1-2 1-3 1-4 neighbors ...
  special bond factors lj:    0        0        0       
  special bond factors coul:  0        0        0       
     2 = max # of 1-2 neighbors
     1 = max # of 1-3 neighbors
     1 = max # of 1-4 neighbors
     2 = max # of special neighbors
  special bonds CPU = 0.002 seconds
  read_restart CPU = 0.010 seconds
include 	in.setup
variable	out_freq equal 1000
variable	out_freq2 equal 10000
variable	out_freq3 equal 1000

timestep	2.0

neigh_modify    delay 7 every 1

include		in.tip4p
# This is TIP4P/Ice

# create groups ###
group ox type 2
288 atoms in group ox
group hy type 1
576 atoms in group hy

# set charges - beside manually ###
set group ox charge -1.1794
Setting atom values ...
  288 settings made for charge
set group hy charge 0.5897
Setting atom values ...
  576 settings made for charge

# ### TIP3P Potential Parameters ###
pair_style lj/cut/tip4p/long/omp 2 1 1 1 0.1577 8.5
pair_coeff 1 1*2 0.000 0.000
pair_coeff 2 2 0.21084 3.1668
bond_style  harmonic
bond_coeff  1 450 0.9572
angle_style harmonic
angle_coeff 1 55 104.52
kspace_style pppm/tip4p/omp 1.0e-5
pair_modify tail yes

thermo          ${out_freq}
thermo          1000
thermo_style    custom step temp pe etotal epair emol press lx ly lz vol pxx pyy pzz pxy pxz pyz enthalpy

restart 	${out_freq3} restart.lmp.${pid} restart2.lmp.${pid}
restart 	1000 restart.lmp.${pid} restart2.lmp.${pid}
restart 	1000 restart.lmp.1 restart2.lmp.${pid}
restart 	1000 restart.lmp.1 restart2.lmp.1


include         in.dump
dump            myDump all atom ${out_freq2} dump.water.${pid}
dump            myDump all atom 10000 dump.water.${pid}
dump            myDump all atom 10000 dump.water.1
dump            myDump2 all dcd ${out_freq2} dump.dcd
dump            myDump2 all dcd 10000 dump.dcd
dump_modify     myDump append yes
dump_modify     myDump2 append yes


variable natoms 	equal  "count(all)"                        # NUMBER ATOMS
variable H      	equal  "enthalpy/v_natoms"                 # ENTHALPY-per-atom
variable Vol      	equal  "vol/v_natoms"                 # volume-per-atom
fix AVG all 		ave/time ${out_freq} 1 ${out_freq} v_Vol v_H file vol_enthalpy.dat
fix AVG all 		ave/time 1000 1 ${out_freq} v_Vol v_H file vol_enthalpy.dat
fix AVG all 		ave/time 1000 1 1000 v_Vol v_H file vol_enthalpy.dat


timer           timeout 23:50:00 every 1000
New timer settings: style=normal  mode=nosync  timeout=23:50:00

fix 		1 all shake 1e-6 200 0 b 1 a 1
       0 = # of size 2 clusters
       0 = # of size 3 clusters
       0 = # of size 4 clusters
     288 = # of frozen angles
  find clusters CPU = 0.000 seconds
fix             2 all nph iso ${pressure} ${pressure} ${pressureDamp}
fix             2 all nph iso 5500 ${pressure} ${pressureDamp}
fix             2 all nph iso 5500 5500 ${pressureDamp}
fix             2 all nph iso 5500 5500 1000
fix             3 all temp/csvr ${temperature} ${temperature} ${tempDamp} ${seed}
fix             3 all temp/csvr 264.14 ${temperature} ${tempDamp} ${seed}
fix             3 all temp/csvr 264.14 264.14 ${tempDamp} ${seed}
fix             3 all temp/csvr 264.14 264.14 100 ${seed}
fix             3 all temp/csvr 264.14 264.14 100 745823

run             250000
PPPM initialization ...
  extracting TIP4P info from pair style
  using 12-bit tables for long-range coulomb (../kspace.cpp:340)
  G vector (1/distance) = 0.37447434
  grid = 24 24 25
  stencil order = 5
  estimated absolute RMS force accuracy = 0.0030483746
  estimated relative force accuracy = 9.1800895e-06
  using double precision FFTW3
  3d grid and FFT values/proc = 3822 576
Last active /omp style is kspace_style pppm/tip4p/omp
Neighbor list info ...
  update every 1 steps, delay 7 steps, check yes
  max neighbors/atom: 2000, page size: 100000
  master list distance cutoff = 10.8154
  ghost atom cutoff = 10.8154
  binsize = 5.4077, bins = 4 4 4
  1 neighbor lists, perpetual/occasional/extra = 1 0 0
  (1) pair lj/cut/tip4p/long/omp, perpetual
      attributes: half, newton on, omp
      pair build: half/bin/newton/omp
      stencil: half/bin/3d
      bin: standard
Per MPI rank memory allocation (min/avg/max) = 10.20 | 10.21 | 10.22 Mbytes
Step Temp PotEng TotEng E_pair E_mol Press Lx Ly Lz Volume Pxx Pyy Pzz Pxy Pxz Pyz Enthalpy 
14250000    268.57277    -3825.917   -3365.5925    -3825.917            0    6799.8165    17.254878    20.323967    21.050911    7382.2927    8272.3796    7774.0827    4352.9873    645.14783    765.78159   -165.19075   -2633.5027 
14251000    255.64471   -3836.3146   -3398.1483   -3836.3146            0    5168.2851    17.268911    20.340496    21.068031    7400.3194     4086.428    5759.5377    5658.8897   -2667.0815   -560.32275   -1210.2482   -2840.3556 
14252000    264.42951   -3833.2134   -3379.9903   -3833.2134            0    3037.4029     17.29168    20.367315    21.095809    7429.6292    4421.2835    2530.9799    2159.9452   -96.228602    956.76687      1470.52    -3050.877 
14253000     266.7502   -3852.9902   -3395.7895   -3852.9902            0    4115.0399    17.267404    20.338721    21.066193    7398.3822    2837.4429    3238.8161    6268.8607    211.21191    901.92336     386.3912   -2951.7856 
14254000    250.18135   -3894.3489   -3465.5467   -3894.3489            0    4433.3698    17.168894    20.222689     20.94601      7272.48    3867.4924    6303.9453    3128.6718    84.137105   -30.258681   -1068.3882   -2995.3361 
14255000    262.10418   -3826.2477   -3377.0101   -3826.2477            0    6376.8107    17.240852    20.307446    21.033799    7364.3051    7060.5429    5080.7771    6989.1122   -27.789558   -1068.7323   -656.43503   -2692.1353 
14256000    273.21796   -3864.0785   -3395.7922   -3864.0785            0    3701.4293    17.290235    20.365613    21.094046    7427.7672    4327.1075    2940.7572    3836.4231    734.06358    1080.2063   -1032.7992   -2994.8298 
14257000    277.34345   -3890.1153   -3414.7582   -3890.1153            0    4938.4798    17.304617    20.382553    21.111592    7446.3179     4231.181    5012.2895    5571.9689    511.10041   -1209.0965    -57.41385   -2878.4545 
14258000    260.80473    -3841.647   -3394.6366    -3841.647            0    5892.0329    17.297022    20.373607    21.102326    7436.5169     5626.796    7048.2382    5001.0647   -457.40226   -743.08643   -1263.2438   -2755.6222 
14259000    261.94885   -3827.1987   -3378.2274   -3827.1987            0    8383.4757    17.103959    20.146204     20.86679    7190.2752     9001.072    7430.1513    8719.2037     1793.737    2293.7648    906.25367   -2499.1127 
14260000    261.41805   -3863.4456    -3415.384   -3863.4456            0    6038.1062    17.185499    20.242248    20.966269    7293.6014    6582.6544     7778.814    3752.8502    -1903.869     996.5264    957.57217   -2773.1125 
14261000    273.65669    -3896.452   -3427.4138    -3896.452            0    6234.1762    17.223568    20.287088    21.012713    7342.1787    7323.5219    4480.2866    6898.7203    721.98885   -364.54564    104.65232   -2759.8698 
14262000    274.80621   -3854.9784     -3383.97   -3854.9784            0    5336.7033    17.257775    20.327379    21.054445    7386.0113    7063.1525    3450.4753    5496.4822   -431.74908   -2129.6875   -910.08151   -2809.1142 
14263000    269.22045   -3865.5555   -3404.1209   -3865.5555            0    3895.9666    17.335729    20.419199    21.149549     7486.553    5610.8609    3282.5615    2794.4775   -811.86354    334.23895    24.947534   -2978.7449 
14264000    252.14962   -3893.1848    -3461.009   -3893.1848            0    6856.3412    17.249111    20.317175    21.043875    7374.8935    7549.9983    6537.1004     6481.925    -294.8991     855.0982   -1409.4168   -2723.5734 
14265000    272.30116    -3883.674   -3416.9591    -3883.674            0     4626.317     17.33941    20.423535     21.15404    7491.3232    6089.0645    4256.6273    3533.2592    1242.7872   -626.54524   -1096.3551   -2911.5189 
14266000    278.36317   -3898.2895   -3421.1846   -3898.2895            0    4937.2995    17.302896    20.380526    21.109493    7444.0968    5021.9304    3606.6044    6183.3639   -167.11319    23.742818    -55.15383    -2885.169 
14267000    259.37863   -3847.0533   -3402.4872   -3847.0533            0    6868.0044    17.263274    20.333856    21.061153    7393.0739    7002.4782    5785.7105    7815.8245   -286.88875   -1061.3116    460.26752   -2661.9762 
14268000    261.45194   -3880.3111   -3432.1914   -3880.3111            0     5019.921    17.192531    20.250531    20.974848    7302.5588    3928.4439    7258.7122    3872.6069   -944.07232    113.37593   -2146.8779   -2897.5682 
14269000     260.0001   -3844.5339   -3398.9026   -3844.5339            0    4872.2643     17.20378     20.26378    20.988571    7316.9018    4474.4626    4540.2413    5602.0889   -591.65332   -383.29987   -1625.4088   -2878.9857 
14270000    252.71841   -3856.0611   -3422.9104   -3856.0611            0    3097.7839    17.311574    20.390748     21.12008    7455.3028    3756.2579    1427.3816    4109.7121     712.4929     648.3553    738.68729   -3086.0947 
14271000    259.02768   -3863.4742   -3419.5096   -3863.4742            0     6269.281    17.274765    20.347392    21.075173     7407.848    4921.3159    7397.5975    6488.9294    798.14243    43.457968    1146.5312   -2742.2024 
14272000     272.2623   -3821.3174   -3354.6691   -3821.3174            0    7515.8027    17.192169    20.250104    20.974406    7302.0974    7454.4734    7728.4706    7364.4643    1120.0024    1207.3536   -1044.6963   -2554.2842 
14273000    255.62769   -3843.4807   -3405.3436   -3843.4807            0    4304.6594    17.298357     20.37518    21.103955    7438.2394     4282.341     3983.951    4647.6863    217.20889    628.75312   -338.30177   -2938.3781 
14274000    285.71496   -3814.9189   -3325.2132   -3814.9189            0    5649.9232    17.305597    20.383708    21.112788    7447.5831     7538.171    5459.4684    3952.1301   -732.23247   -1375.7307    540.73297   -2711.5448 
14275000    257.32423    -3821.125   -3380.0801    -3821.125            0    5996.4361    17.319093    20.399603    21.129253    7465.0203    5428.6637    5878.8581    6681.7863    -431.2389   -673.69133    485.05034   -2727.2501 
14276000    282.52074   -3848.3648   -3364.1339   -3848.3648            0    7225.0742    17.246254    20.313809    21.040389    7371.2292    8286.7866    8745.8696    4642.5665    175.40131    645.98015   -769.43025   -2587.4253 
14277000    273.80095   -3851.6482   -3382.3627   -3851.6482            0    4253.8849    17.208142    20.268919    20.993894    7322.4695    4877.1029     3243.761    4640.7908   -87.132375   -932.60726   -961.20633   -2928.0873 
14278000      252.933   -3828.5749   -3395.0564   -3828.5749            0    5827.8982    17.270303    20.342135    21.069729    7402.1084    5082.1242    6527.7552    5873.8151    143.68668    1177.9865    2496.2088   -2765.9222 
14279000    251.16947   -3844.2714   -3413.7756   -3844.2714            0    5213.2701    17.271534    20.343585    21.071231    7403.6911    5363.1537    4746.7935    5529.8632   -1014.7863     199.7421   -720.81685   -2850.8715 
14280000    274.87041   -3836.0001   -3364.8816   -3836.0001            0    4851.7769    17.249444    20.317567    21.044282    7375.3205    4121.0591    6190.0643    4244.2075    729.71874    -763.3429    1200.9533   -2843.0172 
14281000    267.87097   -3824.8548   -3365.7331   -3824.8548            0    5119.9581    17.249728    20.317901    21.044628    7375.6848    4182.8019    4536.9081    6640.1642    -74.52488    84.049336    214.01796   -2814.9956 
14282000    270.47568   -3848.8085   -3385.2225   -3848.8085            0    5865.4152    17.205346    20.265625    20.990482    7318.9005    5143.2538    6641.5891    5811.4027   -664.24298   -345.96821    49.583146   -2759.1559 
14283000    257.72168   -3830.2182    -3388.492   -3830.2182            0    5071.7559    17.257814    20.327425    21.054493    7386.0619    4527.1012     4862.584    5825.5826    27.088746   -986.89191   -1496.4535   -2842.1719 
14284000    263.37827   -3859.9894   -3408.5681   -3859.9894            0    7461.1844    17.086316    20.125424    20.845266     7168.048    7904.7647    6578.4592    7900.3293   -62.720895    -72.26076   -678.37661   -2628.5861 
14285000    262.26877   -3901.3867    -3451.867   -3901.3867            0    5873.5144    17.201921    20.261591    20.986304    7314.5306    5848.6904    4927.3785    6844.4743    34.496442    50.984148    161.17179   -2825.3103 
14286000    265.69691   -3867.4297   -3412.0342   -3867.4297            0     6570.755    17.179989    20.235757    20.959546     7286.588    6360.0506    7305.4817    6046.7327    2037.0157    346.12469   -863.97163   -2713.7771 
14287000    264.09346   -3842.8051    -3390.158   -3842.8051            0    6192.6347    17.276393    20.349309    21.077159     7409.942     6441.958    6328.8811    5807.0649   -4.5094221    61.839714   -684.47843   -2720.9422 
14288000    266.96619    -3844.582   -3387.0111    -3844.582            0    5039.1057    17.256879    20.326324    21.053353    7384.8619    5993.0586    5332.0898    3792.1687   -1323.1268    1076.2423    554.55504   -2844.2962 
14289000    265.36446   -3837.4073   -3382.5817   -3837.4073            0     4922.375    17.244245    20.311443    21.037939    7368.6537    5474.6162    4311.5201    4980.9886    40.877635     97.10848   -1128.2241   -2853.6023 
14290000    259.07723   -3869.4664   -3425.4169   -3869.4664            0    5638.7717    17.270135    20.341937    21.069524    7401.8922    4923.0162    6618.3641    5374.9349   -951.61271    146.47268    510.67004   -2816.7171 
14291000    253.00261   -3823.4096   -3389.7717   -3823.4096            0    4719.0717    17.187095    20.244128    20.968216    7295.6338    5165.7482    3648.6716    5342.7953    372.93087    374.17852    1134.2367   -2887.6656 
14292000    262.53138   -3837.5546   -3387.5848   -3837.5546            0     3921.923     17.23892     20.30517    21.031442    7361.8292    3224.7502    4208.4501    4332.5687    427.98696   -8.1817232     463.0558   -2966.5086 
14293000    274.88746   -3844.0027    -3372.855   -3844.0027            0    3862.6502    17.270226    20.342045    21.069635    7402.0095    3325.4265    4273.2896    3989.2344    1103.7008   -663.92687    1514.1647   -2955.8791 
14294000    274.40625   -3862.1495   -3391.8265   -3862.1495            0    5464.3548    17.142264    20.191322    20.913521    7238.6919    5003.3953    4851.0149    6538.6542   -58.050074   -593.94387   -1612.0733   -2814.9606 
14295000    254.19323   -3898.3836   -3462.7051   -3898.3836            0    4556.2982    17.280534    20.354186    21.082211    7415.2716    4120.8692    3824.1251    5723.9001    875.96622    1354.5037   -700.51551   -2969.9682 
14296000     269.6466   -3851.0861   -3388.9211   -3851.0861            0    6715.2474    17.164277    20.217251    20.940378     7266.615    7386.9687    7983.2931    4775.4805    355.65792    77.654319    1135.4819   -2677.2652 
14297000    256.78128   -3859.5279   -3419.4136   -3859.5279            0    7754.1897    17.169253    20.223112    20.946449    7272.9366     7124.728    7928.3608    8209.4804   -173.50811   -1434.6231    311.63545   -2596.9397 
14298000    260.26826   -3848.1803   -3402.0894   -3848.1803            0    6531.5917    17.183063    20.239378    20.963296    7290.4998    7075.0088    5500.1569    7019.6093   -825.40252    1276.5136      423.343   -2707.6214 
14299000    259.03403   -3829.2717   -3385.2962   -3829.2717            0    6029.5143    17.183393    20.239767    20.963699    7290.9203    5275.8998    6519.4627    6293.1804   -540.17657   -199.23264   -1730.6363   -2744.1744 
14300000    267.06351   -3850.0547   -3392.3169   -3850.0547            0    4677.4079    17.250728    20.319079    21.045848    7376.9674    4025.6651    4908.1281    5098.4304    896.05307   -803.59595   -1226.0627   -2889.0957 
14301000    266.65763   -3804.3289   -3347.2868   -3804.3289            0    5736.0546    17.163077    20.215838    20.938914    7265.0909    6289.8114    7442.4582    3475.8944   -1163.8711    710.17646    359.15117   -2739.5295 
14302000    248.86953   -3822.2341   -3395.6802   -3822.2341            0     5938.263    17.227039    20.291176    21.016947    7346.6181    6375.3819    5421.0174    6018.3895    534.52796   -458.62013   -1295.7911   -2759.4376 
14303000    260.04089   -3851.9593   -3406.2582   -3851.9593            0     5505.536    17.225373    20.289214    21.014915    7344.4879    4733.3512    4249.2293    7534.0274    946.99548    337.57073    1043.8766   -2816.5502 
14304000    275.58122   -3846.9176   -3374.5808   -3846.9176            0    6278.8215    17.195738    20.254308     20.97876    7306.6459    6345.0128    6581.0539    5910.3977    268.73978    -448.4514   -286.15673     -2705.51 
14305000    260.69014   -3841.3123   -3394.4983   -3841.3123            0    5769.4842    17.217992     20.28052     21.00591      7335.05     3208.619    7629.4066     6470.427   -646.74976    228.71691    1047.5909   -2777.3124 
14306000     272.3589    -3835.606   -3368.7921    -3835.606            0    5019.7023    17.253616     20.32248    21.049371    7380.6727    3328.6433    5361.7511    6368.7125    1290.4884   -1046.7657    -623.6358   -2828.4737 
14307000    276.13536   -3893.8985   -3420.6119   -3893.8985            0    8033.7494    17.189014    20.246389    20.970558    7298.0784     6042.134    9216.6647    8842.4496   -1139.3991    12.886557    706.48931   -2565.5399 
14308000    275.34633   -3880.0635   -3408.1293   -3880.0635            0    7045.0006    17.238677    20.304884    21.031145    7361.5179    8951.1711    5591.0737    6592.7571    428.65061    130.00289    168.59741   -2651.7767 
14309000    271.50445   -3870.8875   -3405.5382   -3870.8875            0    7414.4583    17.254371     20.32337    21.050292     7381.642    8614.8652     6385.872    7242.6375    887.96152    203.81477   -230.18177   -2607.3445 
14310000    270.63429   -3914.2941   -3450.4362   -3914.2941            0    4463.2856    17.287462    20.362346    21.090663    7424.1935    3570.0229    4465.6898    5354.1442   -1059.3011   -403.49669   -945.29909   -2967.1773 
14311000    257.13761   -3869.0173   -3428.2922   -3869.0173            0    5914.5886     17.25636    20.325713    21.052719    7384.1955    5183.2555    7798.4777    4762.0325    -701.8433    1258.9263    351.14439   -2791.3447 
14312000    262.02849   -3870.8437   -3421.7358   -3870.8437            0    6037.7783    17.293125    20.369017    21.097572     7431.492    6309.7926    4637.3361    7166.2063   -203.97428    300.73945    1058.1843   -2767.3572 
14313000    274.55758   -3859.8632   -3389.2809   -3859.8632            0    6074.9028    17.221729    20.284922    21.010469    7339.8271    6829.4218    5220.4451    6174.8415   -521.94221    446.83276    894.62542   -2738.9999 
14314000    265.02371   -3836.1613   -3381.9198   -3836.1613            0    6932.2334    17.198746    20.257851     20.98243    7310.4809    6505.8259    6482.1809    7808.6936    1732.0458    924.21579    -1141.695   -2642.8337 
14315000    258.35586   -3882.0977   -3439.2846   -3882.0977            0    5795.5653    17.209862    20.270944    20.995991    7324.6647    7855.9466    4171.6486    5359.1008   -1065.4617   -1068.7791   -1204.9601   -2820.1865 
14316000    262.62648   -3805.0918    -3354.959   -3805.0918            0    6423.9142    17.158343    20.210262    20.933139    7259.0812    5531.2729    6853.8883    6886.5814   -1174.8821   -1294.4456    58.484667   -2674.8833 
14317000    261.84595   -3882.4754   -3433.6804   -3882.4754            0    2426.6228    17.208267    20.269065    20.994045    7322.6279    2567.9728    2840.3296    1871.5661    -88.19706    -45.12463    749.82822    -3174.534 
14318000    264.97306   -3857.3355   -3403.1807   -3857.3355            0    4566.2319    17.194942     20.25337    20.977789     7305.631    5887.8688    2862.5677    4948.2593   -845.92956   -571.02589   -1042.0535    -2916.671 
14319000    249.16168   -3872.3444   -3445.2898   -3872.3444            0    6757.7632    17.122185    20.167673    20.889026    7213.2864    9254.7769    5497.5586    5520.9541   -230.67284    1210.0806    1689.6637   -2734.3841 
14320000    266.38949   -3870.7447   -3414.1622   -3870.7447            0    4661.7012    17.233635    20.298945    21.024994    7355.0601    4473.9828    4610.8667     4900.254   -627.11127   -202.20507    41.713329   -2914.1201 
14321000    254.01607   -3849.8492   -3414.4744   -3849.8492            0    4751.7521    17.196141    20.254783    20.979252    7307.1598    5592.4275    4274.9466    4387.8822     2024.177    362.92739   -593.81367   -2908.0923 
14322000    275.65402   -3813.7096   -3341.2481   -3813.7096            0    3687.3183    17.337488    20.421271    21.151695    7488.8322    6108.6968       2827.2    2126.0581     1148.928    1620.8947   -258.81738   -2938.5305 
14323000     261.2061   -3874.3093    -3426.611   -3874.3093            0    4928.6903    17.241502    20.308212    21.034593    7365.1383    2837.9954    5785.2673    6162.8083    2028.4822    28.241289    667.50438   -2897.2057 
14324000    272.47541   -3876.5276   -3409.5141   -3876.5276            0    5857.2511    17.253648    20.322518     21.04941    7380.7142     7242.483    4925.6645    5403.6058   -231.79535   -649.32375   -1155.2446   -2779.0388 
14325000    266.36105   -3860.2689   -3403.7352   -3860.2689            0    5858.9623    17.139307     20.18784    20.909915    7234.9476    7393.6572    4207.8069    5975.4229    261.04775    335.56031    312.87633   -2785.5309 
14326000    252.59392   -3836.7958   -3403.8584   -3836.7958            0    6112.1805    17.199955    20.259275    20.983905    7312.0226    6562.9079    5766.2583    6007.3755    -128.1863   -832.62328   -389.30109   -2752.0656 
14327000    253.70565   -3881.6803   -3446.8375   -3881.6803            0    3768.4118    17.251088    20.319503    21.046288    7377.4299    2586.0185    4410.5208    4308.6961   -875.06848    164.87117    998.11571   -3041.3856 
14328000    280.01494     -3848.19    -3368.254     -3848.19            0    6206.6885    17.235472    20.301109    21.027235    7357.4126    7081.4183    6619.8686    4918.7787   -2363.3838   -734.92122    526.80956   -2702.2743 
14329000    263.48697   -3866.7344   -3415.1268   -3866.7344            0    5258.1023    17.200385    20.259782     20.98443     7312.571    5538.4596    2462.7905    7773.0566   -210.39823    584.98775   -292.71388   -2854.3694 
14330000    282.65703    -3842.587   -3358.1225    -3842.587            0    5599.8248    17.215007    20.277005    21.002269    7331.2362    5755.5649    3535.2748    7508.6346   -63.728067    42.204921   -416.21104   -2759.3973 
14331000    256.87094   -3844.5242   -3404.2562   -3844.5242            0    5742.8079    17.203996    20.264035    20.988835    7317.1771    5783.2837      5112.28    6332.8599   -7.1472618   -1124.0085   -1339.9354   -2791.4209 
14332000    268.25727   -3885.8836   -3426.0998   -3885.8836            0    4977.9918    17.211235    20.272561    20.997667     7326.418    3590.5798    7020.8928    4322.5028    314.49427   -717.56877   -298.06871   -2894.2099 
14333000    243.57895   -3849.9993   -3432.5133   -3849.9993            0    4906.4731    17.311623    20.390805     21.12014    7455.3658      8066.57    3435.9244    3216.9248   -257.74548   -627.56672   -562.73928    -2899.038 
14334000    268.29316   -3822.7753     -3362.93   -3822.7753            0    5869.4924    17.194772    20.253171    20.977582    7305.4147    5559.7644    3999.6483    8049.0644   -428.67384    487.66769    454.49675   -2737.5826 
14335000    267.80037    -3860.962   -3401.9614    -3860.962            0    6303.0334    17.147344    20.197306    20.919719    7245.1295    6556.9495    5997.9344    6354.2163   -112.63303   -374.86912    765.26027   -2735.9653 
14336000    262.58644   -3838.4131    -3388.349   -3838.4131            0    4831.7716    17.218474    20.281088    21.006498    7335.6668    3924.5806    4535.0784    6035.6557    963.28054    488.67253   -969.54872   -2871.4307 
14337000    255.04738    -3846.135   -3408.9925    -3846.135            0    4728.2623    17.208828    20.269726     20.99473    7323.3443     4798.129    5659.6168     3727.041    394.63801   -1761.0602     366.1828   -2903.9977 
14338000    277.18626   -3827.7925   -3352.7048   -3827.7925            0    4036.5756    17.191955    20.249852    20.974144    7301.8238    6281.5292     3547.451    2280.7466   -418.13802   -117.21339    714.30774   -2922.8514 
14339000     264.7031   -3882.0399   -3428.3479   -3882.0399            0    4522.9126    17.286663    20.361406    21.089689    7423.1646    5088.9302    3730.3917    4749.4159   -354.15025     829.6439    -411.5208   -2938.7008 
14340000    255.14341   -3849.5727   -3412.2656   -3849.5727            0    5812.1483    17.285933    20.360546    21.088798    7422.2247    6743.7539    4104.8139    6587.8771     364.5285    775.99198    959.84012   -2783.1265 
14341000    263.68308   -3884.0852   -3432.1414   -3884.0852            0    5358.2663    17.276199     20.34908    21.076922    7409.6921    5711.1584    6015.3538    4348.2865    2235.7589   -332.44142   -1085.5697   -2853.1124 
14342000    269.48623   -3835.5532    -3373.663   -3835.5532            0    5567.3134    17.241334    20.308014    21.034387    7364.9222    6933.6081    5867.4675    3900.8646    632.55073   -100.13305   -145.63008   -2775.6788 
14343000     263.7615   -3902.2225   -3450.1443   -3902.2225            0    5197.2714    17.306049    20.384239    21.113339    7448.1661    6642.0701    5256.1334    3693.6107   -1932.5022    792.59686    1486.5549   -2885.5966 
14344000     255.4532   -3863.4841   -3425.6461   -3863.4841            0    4308.8095    17.312227    20.391516    21.120876    7456.1458    4667.6314    5369.4503    2889.3468    1894.0795   -746.38814    103.61229   -2957.1051 
14345000    262.16454   -3889.1719   -3439.8308   -3889.1719            0    5808.1249    17.202536    20.262315    20.987054    7315.3147    7079.4301    4855.0458    5489.8989   -177.63074   -813.98393    1709.4087   -2820.1831 
14346000      281.229   -3880.7666   -3398.7497   -3880.7666            0       6012.7    17.221827    20.285037    21.010589    7339.9526    6999.6782    5874.8755    5163.5463   -194.19028   -756.67673   -44.401553   -2755.1162 
14347000    257.81877   -3878.4895   -3436.5969   -3878.4895            0    4897.6009    17.281606    20.355449    21.083519    7416.6513    5574.2318    4204.8243    4913.7466    68.628841     324.2595    284.11192   -2906.8516 
14348000    262.26827   -3919.4024   -3469.8835   -3919.4024            0    4480.0673    17.293557    20.369526    21.098099     7432.049    5741.4675    3778.3227    3920.4117    1144.7643    1341.2347   -659.07459   -2984.2944 
14349000    259.64726   -3840.3293   -3395.3028   -3840.3293            0    6961.6813    17.236626    20.302469    21.028644    7358.8911     7428.569     7137.414    6319.0608   -786.13967    1504.8261   -382.77953   -2648.1621 
14350000     259.0832    -3851.886   -3407.8262    -3851.886            0    3938.4762    17.377443    20.468333     21.20044    7540.7274    5818.8623    3202.1557    2794.4106   -1318.2394   -705.05641    1094.5784   -2974.6972 
14351000    251.48461   -3864.4378   -3433.4018   -3864.4378            0    3867.1106    17.311576    20.390749    21.120082    7455.3044    4824.0011    3141.9316    3635.3992    17.350899    251.48069   -357.08812   -3012.9388 
14352000    268.87807   -3858.8204   -3397.9726   -3858.8204            0    4173.1482    17.237949    20.304027    21.030257    7360.5853    3410.1398    3277.5026    5831.8022    306.33956    199.28976    792.78273   -2949.9994 
14353000    266.99817   -3863.7802   -3406.1545   -3863.7802            0    7514.4259    17.193063    20.251157    20.975497    7303.2364    5984.7916    7717.6042    8840.8819    2123.6467   -1222.6137   -780.63191   -2605.7914 
14354000    258.39894   -3869.3053   -3426.4183   -3869.3053            0     5600.169    17.243571    20.310649    21.037116    7367.7897    4576.6253    7249.7539    4974.1277   -508.51337    9.4792818   -918.37979   -2824.6709 
14355000     273.2525   -3860.0746   -3391.7292   -3860.0746            0    5866.1705    17.265185    20.336107    21.063485    7395.5298    7410.2028    6005.3005    4183.0083   -793.53436   -1055.4964   -1036.1101   -2759.0262 
14356000    249.54985   -3857.4916   -3429.7717   -3857.4916            0    5799.8745    17.265141    20.336055    21.063431    7395.4729    5605.4583    7139.3691    4654.7961   -67.011836   -516.56309   -1109.6158    -2804.224 
14357000    275.80507   -3899.9889   -3427.2685   -3899.9889            0    3803.0602    17.270127    20.341928    21.069514    7401.8819    4375.1661    4224.6433    2809.3712    951.53268    1753.9375   -381.33281   -3016.7325 
14358000     269.8848   -3852.1589   -3389.5856   -3852.1589            0    6664.9511    17.242912    20.309872    21.036312    7366.9444    5179.2137    7373.8573    7441.7823   -705.79578    -691.3857    642.60473   -2673.5078 
14359000    270.95807   -3895.3262   -3430.9133   -3895.3262            0    4934.6739     17.25974    20.329694    21.056843    7388.5355    2863.0244    6143.5053     5797.492   -373.23426   -70.688079     -310.669   -2899.1814 
14360000    267.85451   -3865.4216   -3406.3281   -3865.4216            0    6892.0912    17.204389    20.264497    20.989314    7317.6786    8257.8439    5372.3651    7046.0645    411.18323    1278.1603   -1599.9469   -2670.7984 
14361000    277.62502   -3879.0011   -3403.1614   -3879.0011            0    6396.9896    17.168356    20.222056    20.945355    7271.7969    5481.9614    6789.6466    6919.3608   -1897.0336    1670.4174   -1280.2545   -2724.7498 
14362000    263.60369   -3869.9162   -3418.1085   -3869.9162            0    5338.7164    17.191874    20.249757    20.974046    7301.7213    7672.5162    3126.3591     5217.274   -736.70523    -892.0589   -136.34679   -2849.5986 
14363000    258.22829   -3881.6084   -3439.0139   -3881.6084            0    5120.2264    17.099261    20.140671    20.861058    7184.3521    4838.8442    5219.6963    5302.1388    1530.3864    540.95341   -897.93229    -2902.535 
14364000     278.4654    -3827.738   -3350.4579    -3827.738            0    6393.3626    17.225451    20.289305    21.015009    7344.5867    7188.5433    5406.2445    6585.3002      1023.16   -296.16729    1232.2418   -2665.6439 
14365000    267.71921   -3838.3165   -3379.4549   -3838.3165            0    5802.8931    17.229324    20.293867    21.019735     7349.542    5922.6038    6856.0194    4630.0562   -83.216809   -442.58733    2086.5876   -2757.4687 
14366000     253.5739   -3839.3405   -3404.7235   -3839.3405            0    7756.9491    17.098246    20.139475     20.85982    7183.0725     9949.856    7150.2338    6170.7575    46.656425    456.68992    410.54578    -2592.123 
14367000    263.55739    -3887.778   -3436.0496    -3887.778            0    5302.4703    17.146809    20.196676    20.919067    7244.4518    6479.1373    4696.9103    4731.3633   -550.35838   -67.887884    421.65882   -2875.8283 
14368000    261.86709   -3863.4939   -3414.6627   -3863.4939            0    5875.9862    17.135816    20.183727    20.905655    7230.5266    6566.4412    6887.1836    4174.3338    988.48055   -1065.4086    41.755656    -2795.041 
14369000     264.2844    -3857.367   -3404.3926    -3857.367            0    3746.0678       17.279     20.35238     21.08034    7413.2971    3877.6775    2861.5308     4498.995    313.52344    82.861554    868.88218   -2999.3852 
14370000    251.16894   -3863.8527   -3433.3577   -3863.8527            0    5094.5433    17.297341    20.373983    21.102716    7436.9291    4393.3472    4639.9825    6250.3001    50.022137   -154.89881    523.53552   -2880.8037 
14371000    256.98232   -3880.6163   -3440.1574   -3880.6163            0    4336.4497    17.233063    20.298271    21.024296    7354.3278    4779.6984    4277.6718    3951.9788    992.96641   -453.01357    1878.3814   -2975.0501 
14372000    272.83686   -3857.0826   -3389.4496   -3857.0826            0    6566.3255    17.251138    20.319562    21.046348    7377.4935    8693.4923    5316.6546    5688.8296    179.26807   -330.48295    194.35232   -2682.9578 
14373000    250.01605   -3873.9596   -3445.4406   -3873.9596            0    5102.5114    17.350771    20.436916      21.1679    7506.0582    5518.9032    5648.8038    4139.8273   -777.23332    1174.2523    1079.7931   -2886.8781 
14374000    273.79902   -3858.1755   -3388.8933   -3858.1755            0    3391.1317    17.307966    20.386498    21.115678    7450.6418    4464.3681    3627.0661    2081.9609    321.48892    1284.7308    823.52111   -3020.4131 
14375000    262.44454   -3814.8126   -3364.9916   -3814.8126            0    5499.7447     17.28046    20.354099    21.082121    7415.1763    5168.3504    5692.2507    5638.6331   -1083.0514    1874.5913   -871.69819   -2770.2342 
14376000    257.66695   -3861.7702   -3420.1378   -3861.7702            0    3502.3933    17.360168    20.447984    21.179364    7518.2599    4302.2054    2935.4853    3269.4893    519.46825   -965.91707    1104.0732    -3036.114 
14377000    266.94235   -3857.4707   -3399.9406   -3857.4707            0    5034.6501    17.288638    20.363732    21.092098     7425.709    4937.5903    4669.7084    5496.6518   -176.76448   -335.57493   -132.40263   -2854.7064 
14378000    256.26051   -3855.3982   -3416.1764   -3855.3982            0    5886.9375    17.324458    20.405923    21.135798    7471.9602    6590.7388    3496.4563    7573.6175    338.02943    160.24098   -549.92606   -2774.6717 
14379000    276.84504   -3855.9638   -3381.4609   -3855.9638            0    5597.5204    17.300753    20.378002    21.106879    7441.3312    6477.7343    5442.0556    4872.7712   -961.75411    891.84858   -262.02503   -2773.9946 
14380000    275.70418   -3897.0909   -3424.5433   -3897.0909            0    6379.0448    17.226249    20.290246    21.015984    7345.6083    6490.8677    5737.6831    6908.5836    246.42107    229.07465    406.02874    -2741.168 
14381000     250.5735    -3866.608   -3437.1336    -3866.608            0     4703.552    17.261295    20.331525     21.05874    7390.5322    4424.5527    5098.0617    4588.0417   -188.10247   -879.35724   -1040.3653   -2930.1691 
14382000    262.80072   -3837.5419   -3387.1105   -3837.5419            0    5106.8172    17.242051    20.308859    21.035262    7365.8414    2628.7678    6187.0288     6504.655    247.41582    301.34424    1178.2872   -2838.5196 
14383000    257.52538    -3874.015   -3432.6254    -3874.015            0    5434.1532    17.287307    20.362164    21.090474    7423.9941    5424.1841    4928.2326     5950.043    -931.7478     752.8056    740.07458   -2844.2623 
14384000    253.19257   -3885.8186   -3451.8552   -3885.8186            0    6507.7109    17.206049    20.266453     20.99134    7319.7973    5852.9174    7892.4531    5777.7621   -1270.3801    404.84153    262.84206   -2757.1458 
14385000    254.50454   -3895.8071   -3459.5951   -3895.8071            0    5005.4691    17.227913    20.292205    21.018013    7347.7365    5019.8933    3522.6126    6473.9014   -1000.0993    1152.2957    646.19858    -2923.213 
14386000    251.17272   -3829.3108   -3398.8094   -3829.3108            0    6107.6673    17.135443    20.183289    20.905201    7230.0556    5644.3421    5869.0832    6809.5767   -922.86933    320.19852     136.7452   -2754.7989 
14387000    261.81052   -3893.4336   -3444.6994   -3893.4336            0    4750.7631    17.237732    20.303771    21.029993    7360.3076    4234.2817     5354.474    4663.5336   -1536.8574    612.27764    -1812.812   -2934.7404 
14388000     279.9699   -3871.4818    -3391.623   -3871.4818            0    6443.8733    17.239907    20.306334    21.032647    7363.0944    6756.8133    7296.0507     5278.756      26.1801   -120.34507   -456.76708   -2699.6594 
14389000    251.26688   -3894.9078   -3464.2449   -3894.9078            0    6190.2181    17.259358    20.329244    21.056376     7388.044    7506.5148    4899.1809    6164.9587   -204.22005    266.27837   -1537.2953   -2797.2672 
14390000    263.75969   -3864.7235   -3412.6484   -3864.7235            0    5670.9131    17.268582    20.340109     21.06763    7399.8961     5881.258    6136.1407    4995.3406   -1052.3366   -428.78294    1534.5781   -2800.6441 
14391000    259.25364    -3881.585   -3437.2332    -3881.585            0    3789.2447    17.395099    20.489129     21.22198    7563.7345    3496.6972    4816.1075    3054.9293    548.40719    -112.0323    709.89227   -3019.2442 
14392000    251.80545   -3841.9072   -3410.3213   -3841.9072            0    6346.2433    17.318556    20.398971    21.128598    7464.3263    6237.1078    6381.6108    6420.0115    726.44803    1177.8365   -183.34412   -2719.4721 
14393000    246.93096   -3834.9771   -3411.7459   -3834.9771            0    5379.8559     17.29775    20.374465    21.103215    7437.4567    3581.6179    4640.4135    7917.5364    452.61579    395.35931    38.120556   -2828.2054 
14394000    256.67486    -3839.091    -3399.159    -3839.091            0    6512.8375    17.248276    20.316191    21.042857    7373.8227    5480.8186    7355.0889    6702.6051   -819.62493    793.31311   -1592.1533   -2698.7708 
14395000    276.27996   -3848.6767   -3375.1423   -3848.6767            0    3929.9027    17.329028    20.411305    21.141373    7477.8744    4957.2884    4614.4991    2217.9204   -710.18315   -264.16483    300.79072   -2946.5584 
14396000    259.34397   -3856.0163   -3411.5096   -3856.0163            0    4254.6177    17.283768    20.357995    21.086156    7419.4353    3971.2563    5825.4281    2967.1686     1623.691    51.104788   -278.17271   -2951.1393 
14397000    253.50795    -3872.964   -3438.4601    -3872.964            0    6226.5076    17.197466    20.256343    20.980869    7308.8488    8059.2526    4874.2676    5746.0027    545.18674    5.8207047    -1108.447   -2774.7638 
14398000     249.7647   -3865.0117   -3436.9236   -3865.0117            0    5295.2467     17.17538    20.230329    20.953924    7280.7258    6732.8799    4151.3596    5001.5005    6.6116505   -132.52097   -406.30217   -2874.6641 
14399000    274.87768   -3836.7228   -3365.5919   -3836.7228            0    7810.7148    17.169163    20.223007    20.946339    7272.8226    9910.2033    6713.5571     6808.384    423.25909   -225.41066    1223.9199   -2537.1355 
14400000    261.23075   -3871.2471   -3423.5065   -3871.2471            0     6472.779    17.158563     20.21052    20.933406    7259.3594    6448.0061    6360.8675    6609.4635    280.40355    650.51455   -109.71658   -2738.2314 
14401000    268.09473   -3849.5993   -3390.0941   -3849.5993            0    5162.3327    17.179649    20.235357    20.959131    7286.1551    5793.9718    4517.1746    5175.8517    1414.0573    2062.1177    -500.8548   -2841.5389 
14402000    250.24409   -3874.9919   -3446.0821   -3874.9919            0    4564.6569    17.241248    20.307913    21.034283    7364.8128    5967.5395    4249.9718    3476.4593    88.472133    1256.9595   -427.07338   -2955.8004 
14403000    264.87675   -3855.4582   -3401.4685   -3855.4582            0    5727.4891    17.230319     20.29504    21.020949     7350.816    5742.4673    5139.9037    6300.0963    578.88613    519.06016   -126.74137   -2787.4581 
14404000    258.13359   -3891.2933   -3448.8612   -3891.2933            0    4805.4102    17.254726    20.323788    21.050725    7382.0974    4755.0421    4286.0323    5375.1563   -472.94713   -115.40857    585.73823   -2931.5092 
14405000     277.6841   -3898.4051   -3422.4641   -3898.4051            0    3410.0235    17.318299    20.398669    21.128285    7463.9945    2355.0945    4345.7265    3529.2496   -340.19092    1410.3077    707.56467    -3051.267 
14406000    257.51634   -3896.8475   -3455.4733   -3896.8475            0    5246.4798    17.194356     20.25268    20.977074    7304.8841     4769.785    4452.6405    6517.0139    249.43797   -261.13597   -210.37548   -2896.5435 
14407000    262.41753   -3878.3514   -3428.5768   -3878.3514            0    5874.3433    17.202687    20.262493    20.987238    7315.5073    6217.3626    4826.9324     6578.735   -1026.6789    1637.1916     419.0665   -2801.8479 
14408000    260.02497   -3876.3633   -3430.6894   -3876.3633            0    5679.1763    17.208904    20.269816    20.994823    7323.4418    5354.5634    4499.6818    7183.2836     741.2738   -957.76555    129.86257   -2824.1256 
14409000    247.43908   -3823.7187   -3399.6166   -3823.7187            0    5298.7536    17.214645    20.276578    21.001826    7330.7733    6151.8647    4546.9215    5197.4746   -369.52292    9.2028738   -113.67559   -2833.1172 
14410000    280.69734   -3864.0845   -3382.9789   -3864.0845            0    6228.3925     17.22442    20.288092    21.013753    7343.2689    5318.3887    5365.5045    8001.2844   -1304.7815   -1111.8078   -42.238525   -2715.9551 
14411000    250.91201   -3853.4502   -3423.3956   -3853.4502            0    5253.0872    17.228825    20.293281    21.019127    7348.9043    7379.0867    4137.4733    4242.7016    949.97254   -1169.9088    396.61323   -2860.3895 
14412000    253.00261   -3857.0164   -3423.3785   -3857.0164            0    3839.1097    17.322127    20.403178    21.132955    7468.9453    2318.9501    3425.4994    5772.8796    350.36502   -1141.5599   -2231.2491   -3005.1962 
14413000    257.68788   -3830.2152    -3388.547   -3830.2152            0    7348.3766     17.17626    20.231366    20.954997    7281.8447    7677.7891    6990.4784    7376.8622   -1259.5667    769.11741   -700.09585   -2608.1624 
14414000    262.04669   -3875.2684   -3426.1293   -3875.2684            0    6759.2368    17.222141    20.285408    21.010972    7340.3547    9063.8175    7529.5915    3684.3014   -1265.6626   -1089.7073     673.9489   -2702.5426 
14415000    246.80364   -3844.8163   -3421.8033   -3844.8163            0     4685.681    17.278188    20.351423    21.079349    7412.2521    4864.2454     4703.455    4489.3424   -1440.1989    508.50946    769.03952   -2915.2808 
14416000    268.55916   -3847.7574   -3387.4562   -3847.7574            0    4844.2414    17.327051    20.408978    21.138962    7475.3165    4824.5183    4869.4421    4838.7637   -414.12751     405.5454   -157.96935   -2859.3379 
14417000    239.40886    -3864.605   -3454.2664    -3864.605            0    5750.0739     17.23814    20.304252    21.030491    7360.8306    6521.7093     5709.919    5018.5936   -881.07642    580.66747    256.08399    -2836.995 
14418000    276.74397   -3841.4798   -3367.1501   -3841.4798            0     6633.743    17.205714    20.266059    20.990931      7319.37    6958.4286    7101.7193    5841.0811    134.66166   -1234.9004     -846.793   -2659.0279 
14419000    269.41673    -3855.392    -3393.621    -3855.392            0    4549.0776    17.250145    20.318393    21.045137      7376.22    3144.7524    5364.6998    5137.7807   -1112.6092    42.237826    1074.7533   -2904.2557 
14420000    266.22327   -3871.0734   -3414.7758   -3871.0734            0    4590.8785    17.249166    20.317239    21.043942    7374.9632    4572.6719    4379.5923    4820.3713   -557.52137    854.37754     23.71369    -2920.998 
14421000    257.10944   -3871.8593   -3431.1826   -3871.8593            0    5368.5173    17.259858    20.329833    21.056986    7388.6863    5601.0589    3639.5896    6864.9034    389.29766    316.68795   -1053.3762   -2852.6904 
14422000    268.53738   -3901.6461   -3441.3822   -3901.6461            0    4663.8863    17.238257     20.30439    21.030634    7360.9806    3005.0555      4981.72    6004.8835    875.33749   -888.21076   -246.49834    -2940.703 
14423000    250.27152   -3866.3771   -3437.4203   -3866.3771            0    5979.7021    17.217399    20.279821    21.005186    7334.2919    6126.7778    4178.9967    7633.3318    445.17304   -2110.3898   -97.500855   -2797.8127 
14424000    254.37863   -3855.4777   -3419.4815   -3855.4777            0    7407.1129    17.214522    20.276433    21.001677    7330.6164    6340.4772    9016.5897    6864.2718   -839.98386   -194.57912   -878.44079   -2627.5906 
14425000     263.0864   -3844.7399   -3393.8188   -3844.7399            0    6201.7696      17.2395    20.305854     21.03215    7362.5723    6889.2443    6684.3241    5031.7402   -10.027478   -77.585757   -241.21072   -2727.9003 
14426000    266.01814    -3903.264    -3447.318    -3903.264            0    5111.2841    17.320564    20.401336    21.131047    7466.9229    4331.0184    4534.6855    6468.1485    560.53612   -3.7890007   -61.834643   -2890.7124 
14427000     273.8604   -3869.3001   -3399.9128   -3869.3001            0    6983.1333    17.240654    20.307213    21.033558    7364.0515    6510.2425    7568.3323    6870.8251    160.20908    717.43928   -416.12704   -2649.9443 
14428000    258.31389   -3839.0617   -3396.3205   -3839.0617            0    4080.5292    17.334968    20.418302     21.14862    7485.5671    1998.4192    6668.6707    3574.4976   -983.11239    219.95107   -1145.5822   -2950.8519 
14429000     258.1017    -3863.252   -3420.8745    -3863.252            0    4654.8756    17.311856     20.39108    21.120424    7455.6665     3160.567    4881.6297    5922.4301    926.80865   -84.778104    1307.5418   -2914.7348 
14430000     258.2498    -3843.092   -3400.4607    -3843.092            0    5974.3705    17.281477    20.355297    21.083361    7416.4854     5291.593    6950.4348    5681.0836   -734.35191    797.55559   -1036.5131   -2754.2619 
14431000    275.81843   -3856.8136   -3384.0703   -3856.8136            0     4454.104    17.303015    20.380666    21.109638    7444.2498    2726.7947    7085.5725    3549.9448   -1103.8526   -1694.4087   -1149.0029   -2900.5027 
14432000    271.32172   -3822.3711    -3357.335   -3822.3711            0    6251.8605     17.32011    20.400801    21.130493    7466.3355    5188.6445     5528.158    8038.7788   -224.73079    425.78936   -794.38569   -2676.5771 
14433000    267.03717   -3877.4854   -3419.7928   -3877.4854            0    4060.5069    17.328791    20.411027    21.141084    7477.5678     3339.003    5544.6798    3297.8379   -274.26432     522.7464    381.47862   -2976.9837 
14434000    270.73829   -3885.4976   -3421.4614   -3885.4976            0    4451.9202    17.273387    20.345768    21.073491    7406.0745    4341.7513     5974.088    3039.9214   -740.83313   -856.21075    166.66246   -2940.6095 
14435000    270.05506   -3863.3182    -3400.453   -3863.3182            0    6312.5604    17.253148     20.32193    21.048801     7380.073    5606.1697    5023.7226    8307.7888   -1096.1354    1222.6061   -1382.2112   -2721.0271 
14436000    263.49297   -3840.8412   -3389.2233   -3840.8412            0    5720.2453    17.236602    20.302441    21.028614    7358.8604    6025.5938    5617.7223    5517.4199   -157.01092    6.0301365   -549.02278   -2775.3184 
14437000    271.24192   -3911.1902   -3446.2908   -3911.1902            0    4628.3855    17.215485    20.277567    21.002851    7331.8465    4127.3394    5119.9933    4637.8239    -611.4919    621.13484    62.941177   -2951.3893 
14438000    271.51778   -3846.5248   -3381.1527   -3846.5248            0    4676.6525    17.275385    20.348121    21.075929    7408.6445    1841.3949    6767.5402    5421.0225    728.66343    587.25709   -221.18395   -2875.8521 
14439000    251.65054   -3847.6597   -3416.3393   -3847.6597            0    5461.9459    17.149599    20.199962     20.92247    7247.9881    3705.5175    6034.9494    6645.3708    342.35582    17.737155    1707.8942   -2838.9872 
14440000    276.79506     -3836.37   -3361.9527     -3836.37            0    4003.6279    17.336458    20.420057    21.150438    7487.4971    3748.4324    4401.4489    3861.0024   -602.45555    772.74207   -991.09872   -2924.7667 
14441000    262.93718   -3850.2418   -3399.5764   -3850.2418            0    7173.5832    17.205923    20.266305    20.991186    7319.6365    6872.8951    7925.4123    6722.4423    514.26775    1972.3488   -546.29561   -2633.8008 
14442000    273.90227   -3859.9284   -3390.4692   -3859.9284            0    5539.2438      17.2357    20.301378    21.027514     7357.705    4917.6217    5161.9734    6538.1362    1281.8775    248.16154    62.807242    -2796.083 
14443000    270.42701   -3850.2098   -3386.7071   -3850.2098            0    6727.6136    17.227217    20.291386    21.017165    7346.8467    8371.3697    5378.6394    6432.8317    -598.8796    809.69155     76.03151   -2665.8687 
14444000    265.58921   -3851.3362   -3396.1253   -3851.3362            0    6088.2278    17.235328     20.30094     21.02706    7357.2288    5307.7748    6618.1996    6338.7089   -937.62884    1230.5376   -94.796256   -2742.8729 
14445000    270.09998   -3887.3068   -3424.3647   -3887.3068            0    6154.0841    17.263209     20.33378    21.061075    7392.9915    4839.8856    9004.3923    4617.9746    937.71247    732.02325   -305.92291   -2760.8363 
14446000    251.68837    -3863.126   -3431.7408    -3863.126            0    3078.0214    17.303529    20.381271    21.110264    7444.9128    1092.0589    3133.2439    5008.7613    1385.1175     -396.338    1302.4356   -3097.5402 
14447000    255.11036   -3841.0972   -3403.8468   -3841.0972            0    5037.1564    17.239964      20.3064    21.032716    7363.1671    3935.0283    5759.8696    5416.5714   -257.27017    865.56252    1004.8433   -2862.9356 
14448000    266.57234     -3879.32   -3422.4242     -3879.32            0    4673.1719    17.195525    20.254057      20.9785    7306.3742    3390.9902    6377.3715    4251.1539    253.10866   -582.59078   -931.19366   -2924.4698 
14449000      279.915   -3883.3341   -3403.5694   -3883.3341            0    6203.6502    17.224122     20.28774    21.013388    7342.8872    7093.0545    7118.6181    4399.2781    531.13991     1004.301   -1975.3788   -2739.2299 
14450000    270.19989   -3894.8724   -3431.7591   -3894.8724            0    5230.7994    17.160738    20.213082     20.93606    7262.1206    5239.3997    6430.0788    4022.9197    1029.3077   -1479.8264   -240.10812   -2877.7621 
14451000    260.49569   -3876.9244   -3430.4437   -3876.9244            0    5603.6734    17.293677    20.369668    21.098246    7432.2045    8213.0647    5318.4101    3279.5454    34.625265    -695.6143   -304.98085   -2823.0555 
14452000    260.72814   -3884.6848   -3437.8057   -3884.6848            0    5762.0805     17.27425    20.346785    21.074545    7407.1855    4530.0997    6096.3454    6659.7964    772.66457    683.96357    715.71864     -2815.35 
14453000    253.95617   -3880.5725   -3445.3003   -3880.5725            0      4725.85    17.220219    20.283143    21.008627    7337.8969     4462.017    6115.3007    3600.2325    1375.0565    2042.0011   -555.12109   -2939.5601 
14454000    254.20064    -3908.384   -3472.6928    -3908.384            0    4429.3123    17.249712    20.317883    21.044609    7375.6646    5971.8774    4825.3443    2490.7151    1652.5716       825.07    948.01834   -2996.2472 
14455000    257.95854   -3922.2077   -3480.0756   -3922.2077            0    7227.9993    17.180485    20.236342    20.960152    7287.2198     7179.011    6920.7926    7584.1943   -1051.7224   -1169.6995    190.20999   -2711.9083 
14456000    270.06714   -3921.1692   -3458.2834   -3921.1692            0    5222.4156    17.188399    20.245663    20.969806    7297.2939    5368.4384    5886.0533     4412.755   -889.88265   -65.721804   -1364.2748   -2902.4954 
14457000    261.30884   -3902.0611   -3454.1867   -3902.0611            0    2687.4629    17.339528    20.423673    21.154184     7491.476     3058.502    1637.4861    3366.4006   -516.33579    375.19007   -653.95146   -3160.5666 
14458000    265.30469   -3868.7599   -3414.0368   -3868.7599            0    6910.1046    17.227882    20.292169    21.017975    7347.6969     7091.283    7719.4593    5919.5714    880.97651    1701.8418    960.79912   -2673.5595 
14459000    265.47388   -3907.3135   -3452.3003   -3907.3135            0    5099.5177     17.22013    20.283038    21.008518    7337.7825    4982.5766    4472.6083    5843.3681   -1296.4832    2564.3428    540.64255   -2906.5804 
14460000    268.02253   -3840.1205   -3380.7391   -3840.1205            0    6705.2596    17.184083     20.24058    20.964541     7291.799    8546.9284     6345.307    5223.5432   -589.67783   -1081.8326   -555.46446   -2667.6789 
14461000    254.60711   -3867.1035   -3430.7156   -3867.1035            0    5584.2546    17.220925    20.283976    21.009489       7338.8    5643.1365    5926.8474    5182.7799    12.379963   -568.45565   -2025.8075   -2833.0392 
14462000    265.00537   -3878.8796   -3424.6694   -3878.8796            0    5884.9084    17.122785    20.168379    20.889758    7214.0448    5313.4857    6129.0101    6212.2294    48.374468   -982.29355    958.77936   -2805.5215 
14463000    284.99343   -3886.6479   -3398.1789   -3886.6479            0    4570.8235    17.243465    20.310524    21.036987    7367.6537    4156.5672    4790.1781    4765.7251    160.65432    237.60941   -218.57175   -2907.0454 
14464000    264.18115   -3904.2089   -3451.4114   -3904.2089            0    5241.5253    17.256104    20.325412    21.052407    7383.8671     4885.437    5067.8507    5771.2883    1953.3097   -239.67684    889.92933   -2886.9719 
14465000    251.90726   -3933.9072   -3502.1468   -3933.9072            0    4341.4331    17.328585    20.410784    21.140833    7477.3016    3177.6425    3424.3017     6422.355   -50.855306    1868.2516    213.55985   -3028.7188 
14466000    262.50889    -3891.322   -3441.3908    -3891.322            0    5604.9009    17.282814    20.356872    21.084992    7418.2069    6227.7284    6335.9297    4251.0447   -2346.1049    242.79467   -3.0448481   -2835.0137 
14467000    256.29689   -3892.5272   -3453.2431   -3892.5272            0    8102.5591    17.186249    20.243131    20.967184    7294.5566    7249.7579    7595.9547    9461.9645    1156.8591   -1754.5867   -158.13069   -2591.2635 
14468000    257.89369   -3858.4914   -3416.4705   -3858.4914            0    5925.9739    17.227096    20.291244    21.017017    7346.6916    8022.4593     4807.797    4947.6654    212.24445    435.79076   -1453.3965   -2781.5382 
14469000    265.88808   -3872.6055   -3416.8824   -3872.6055            0    6162.2011     17.21609     20.27828     21.00359    7332.6198    5724.9863    4459.8666    8301.7505   -526.46396    1140.3174   -525.33396   -2757.9044 
14470000    258.75695   -3873.6356   -3430.1351   -3873.6356            0    6925.2185    17.131253    20.178354    20.900089    7224.7531    6600.4275    5591.7882    8583.4397   -472.43793   -431.14971   -1614.2618   -2700.4552 
14471000    257.44494   -3862.4503   -3421.1985   -3862.4503            0    6097.7588    17.232429    20.297525    21.023523    7353.5165    5826.4591     5775.726    6691.0915   -912.41531   -309.75924   -253.62595   -2767.2535 
14472000    254.40131   -3880.8737   -3444.8386   -3880.8737            0    5877.0535    17.193482    20.251651    20.976008    7303.7705    4999.3255    7349.5287    5282.3064   -241.69765   -840.81905    -524.8333   -2818.8266 
14473000    263.92354   -3890.5959     -3438.24   -3890.5959            0    4869.2089    17.222205    20.285482     21.01105    7340.4357    5327.5965    4390.7876    4889.2426   -2081.8859   -843.05063    1068.6785   -2916.9779 
14474000    256.85231   -3850.7497   -3410.5136   -3850.7497            0    7089.1429    17.096979    20.137983    20.858274    7181.4759    5529.7342    8662.8816    7074.8128   -803.34559   -720.31879    47.813137   -2668.0361 
14475000     256.6589   -3874.7086    -3434.804   -3874.7086            0    5696.8525     17.17684    20.232049    20.955705    7282.5823    6224.2178    5768.4722    5097.8676   -1567.5672    689.91902    272.41992    -2829.747 
14476000    262.51972   -3825.1795   -3375.2297   -3825.1795            0    6446.7657    17.205119    20.265358    20.990205    7318.6108    6975.3354    5451.3906    6913.5711    523.96431   -473.02234    902.17636   -2687.1378 
14477000    283.65756   -3811.2507   -3325.0713   -3811.2507            0    7082.4087    17.234633    20.300121    21.026212    7356.3389    7523.3532    6388.4833    7335.3896   -1557.9163   -3255.6851    91.093017   -2565.2375 
14478000    269.95199   -3842.7664   -3380.0779   -3842.7664            0    5557.3121    17.299843     20.37693    21.105768    7440.1566     6055.863    5707.6938    4908.3796   -213.73168    220.93404   -548.39648   -2777.0703 
14479000    272.70291   -3861.2156   -3393.8122   -3861.2156            0    4327.4582    17.319393    20.399957    21.129619    7465.4085    4198.9284     3796.786    4986.6604   -2181.4844   -179.06527    612.02258   -2922.6587 
14480000    259.43905   -3814.1646   -3369.4949   -3814.1646            0     4857.692    17.271963    20.344091    21.071755    7404.2435    4928.5345    2873.0313    6771.5102    165.25543    16.198387   -223.24693   -2844.9453 
14481000    269.08929   -3823.7059    -3362.496   -3823.7059            0    5211.6419    17.269764    20.341501    21.069072    7401.4163    3417.9984    5052.4272    7164.5001    279.34065   -1697.1017    22.477609   -2799.9407 
14482000    252.00982   -3815.1499   -3383.2137   -3815.1499            0    6017.6715     17.26079     20.33093    21.058123    7389.8833    6740.4359      6216.02    5096.5587    519.93419   -872.77037    140.89959    -2734.666 
14483000    264.13597   -3860.7154   -3407.9954   -3860.7154            0    4723.0571    17.304325    20.382209    21.111236    7445.9405    4385.5219    5585.5537    4198.0956   -264.04176   -760.63965    533.99848    -2895.112 
14484000     266.1144   -3826.5876   -3370.4766   -3826.5876            0    7947.7091    17.221066    20.284142    21.009661    7338.9802    8889.4057    7783.0313    7170.6904    110.75675    1032.3861    123.34229   -2519.8214 
14485000    258.95309    -3850.989   -3407.1523    -3850.989            0    5467.4958    17.195821    20.254406    20.978861    7306.7514    6982.1508     3656.651    5763.6857     900.0533   -722.31001    1562.3486   -2824.5279 
14486000    264.20798     -3877.09   -3424.2466     -3877.09            0     5113.455    17.304866    20.382847    21.111896    7446.6394    5459.6328    2361.2859    7519.4461   -2195.2045    569.25022   -1495.1375   -2868.9172 
14487000     257.2532    -3875.152   -3434.2288    -3875.152            0    5722.5022    17.348063    20.433726    21.164596    7502.5436    4901.6657    5932.6225    6333.2185    413.20757    -173.7098    -196.5803   -2808.0903 
14488000    255.44569   -3855.6388   -3417.8137   -3855.6388            0    4904.8509    17.288631    20.363724     21.09209    7425.7005       5195.7    4894.9488    4623.9038   -1021.7883    -780.7412   -1232.9329   -2886.6368 
14489000      276.396     -3897.24   -3423.5068     -3897.24            0    5779.1958    17.204935    20.265141    20.989981    7318.3757    7006.2956    5684.4768     4646.815   -342.37896    130.09886    1054.8893   -2806.6874 
14490000    268.67261   -3879.5744   -3419.0787   -3879.5744            0    5492.1788    17.240974     20.30759    21.033948    7364.4607    5869.0705    6305.5254    4301.9406   -1151.3062    228.29929   -381.43964   -2829.2017 
14491000    254.48827   -3868.3656   -3432.1814   -3868.3656            0    5635.0913    17.235551    20.301203    21.027332    7357.5143    6736.7498    4647.2067    5521.3174   -655.18766   -81.083927   -279.13058    -2827.526 
14492000     260.9717   -3851.9909   -3404.6944   -3851.9909            0    6561.3174    17.206293     20.26674    20.991637    7320.1083    6309.2385    7099.3306    6275.3831   -155.91412    550.25334    666.23425   -2704.2326 
14493000     268.4723   -3820.9871   -3360.8348   -3820.9871            0    5254.8974    17.205529     20.26584    20.990705    7319.1336    4426.2998    5557.2222    5781.1702    1178.1315    1329.7131    120.29689   -2799.9162 
14494000    266.09653   -3853.4837   -3397.4034   -3853.4837            0     5761.747    17.162118    20.214708    20.937744     7263.873    4578.3674    5374.2732    7332.6004   -301.17265   -49.662289   -190.94264   -2787.0262 
14495000     272.6159   -3808.9988   -3341.7445   -3808.9988            0    5107.4241    17.268999    20.340599    21.068138    7400.4316    5494.0363    4458.2978    5369.9383    950.11801    627.07569   -889.68144   -2790.5119 
14496000    268.49618   -3867.1421   -3406.9488   -3867.1421            0    4948.6185    17.280268    20.353873    21.081886    7414.9286    5434.6711    4971.1854    4439.9989    40.979352    1201.0207    774.39322   -2871.8095 
14497000    246.44683   -3822.2319   -3399.8304   -3822.2319            0    5052.1414    17.305627    20.383743    21.112825    7447.6223    4216.4024    4593.3441    6346.6776   -376.05913   -308.59977    720.89765   -2851.0874 
14498000    271.96705   -3816.4723   -3350.3301   -3816.4723            0    5999.8143    17.263422    20.334031    21.061335    7393.2649    5476.5705    6691.3771    5831.4952    560.54157    6.2941339   -212.42451    -2703.411 
14499000    253.43851   -3836.7519   -3402.3669   -3836.7519            0    5562.9914    17.297529    20.374204    21.102945     7437.171    5913.0302    5774.4176    5001.5263    1399.6546   -1350.1648   -573.91602   -2798.9854 
14500000    268.69139   -3820.3772   -3359.8494   -3820.3772            0    4928.4505    17.320006    20.400679    21.130367    7466.2011    4269.7009    5334.2355    5181.4151    738.88864     184.4722   -1194.5202   -2823.2058 
Loop time of 362.701 on 64 procs for 250000 steps with 864 atoms

Performance: 119.106 ns/day, 0.202 hours/ns, 689.272 timesteps/s
192.7% CPU use with 32 MPI tasks x 2 OpenMP threads

MPI task timing breakdown:
Section |  min time  |  avg time  |  max time  |%varavg| %total
---------------------------------------------------------------
Pair    | 25.546     | 31.811     | 39.568     |  62.7 |  8.77
Bond    | 0.71866    | 1.1226     | 1.4873     |  16.5 |  0.31
Kspace  | 162.81     | 172.04     | 179.33     |  30.5 | 47.43
Neigh   | 3.8218     | 4.0781     | 4.3319     |   8.5 |  1.12
Comm    | 71.083     | 73.171     | 76.115     |  15.0 | 20.17
Output  | 0.5418     | 0.54205    | 0.54365    |   0.0 |  0.15
Modify  | 65.146     | 67.582     | 70.619     |  16.6 | 18.63
Other   |            | 12.36      |            |       |  3.41

Nlocal:        27.0000 ave          33 max          22 min
Histogram: 4 1 3 9 1 5 2 3 3 1
Nghost:        2483.22 ave        2525 max        2429 min
Histogram: 1 3 3 1 4 6 4 2 3 5
Neighs:        8275.00 ave       10576 max        6257 min
Histogram: 2 3 2 5 6 5 5 3 0 1

Total # of neighbors = 264800
Ave neighs/atom = 306.48148
Ave special neighs/atom = 2.0000000
Neighbor list builds = 14382
Dangerous builds = 1

unfix		3
unfix		2
unfix		1

write_data	data.final.${pid}
write_data	data.final.1
System init for write_data ...
PPPM initialization ...
  extracting TIP4P info from pair style
  using 12-bit tables for long-range coulomb (../kspace.cpp:340)
  G vector (1/distance) = 0.37416448
  grid = 24 24 25
  stencil order = 5
  estimated absolute RMS force accuracy = 0.0030826705
  estimated relative force accuracy = 9.2833707e-06
  using double precision FFTW3
  3d grid and FFT values/proc = 3822 576
Last active /omp style is kspace_style pppm/tip4p/omp
WARNING: Not all mixed pair coeffs generated from mixing. Use write_data with 'pair ij' option to store all pair coeffs. (../write_data.cpp:312)

write_restart   restart.lmp.${pid}
write_restart   restart.lmp.1
System init for write_restart ...
PPPM initialization ...
  extracting TIP4P info from pair style
  using 12-bit tables for long-range coulomb (../kspace.cpp:340)
  G vector (1/distance) = 0.37416448
  grid = 24 24 25
  stencil order = 5
  estimated absolute RMS force accuracy = 0.0030826705
  estimated relative force accuracy = 9.2833707e-06
  using double precision FFTW3
  3d grid and FFT values/proc = 3822 576
Last active /omp style is kspace_style pppm/tip4p/omp
Total wall time: 0:06:02
