#include		in.partitions
include		in.temp
variable        temperature equal 258.27
variable	tempDamp equal 100.0
include		in.pressure
variable        pressure equal 8362.8
variable        pressureDamp equal 1000.0 # This is 1 ps
include		in.seed
variable        seed equal 745823

units		real
atom_style	full
read_restart	restart.lmp.${pid}
read_restart	restart.lmp.0
Reading restart file ...
  restart file = 30 Jul 2021, LAMMPS = 30 Jul 2021
  restoring atom style full from restart
  orthogonal box = (-0.064717922 -0.15809689 -0.14209247) to (24.794719 24.888098 22.952092)
  4 by 4 by 2 MPI processor grid
  restoring pair style lj/cut/tip4p/long/omp from restart
  restoring bond style harmonic/omp from restart
  restoring angle style harmonic/omp from restart
  1920 atoms
  1280 bonds
  640 angles
Finding 1-2 1-3 1-4 neighbors ...
  special bond factors lj:    0        0        0       
  special bond factors coul:  0        0        0       
     2 = max # of 1-2 neighbors
     1 = max # of 1-3 neighbors
     1 = max # of 1-4 neighbors
     2 = max # of special neighbors
  special bonds CPU = 0.002 seconds
  read_restart CPU = 0.008 seconds
include 	in.setup
variable	out_freq equal 1000
variable	out_freq2 equal 10000
variable	out_freq3 equal 1000

timestep	2.0

neigh_modify    delay 7 every 1

include		in.tip4p
# This is TIP4P/Ice

# create groups ###
group ox type 2
640 atoms in group ox
group hy type 1
1280 atoms in group hy

# set charges - beside manually ###
set group ox charge -1.1794
Setting atom values ...
  640 settings made for charge
set group hy charge 0.5897
Setting atom values ...
  1280 settings made for charge

# ### TIP3P Potential Parameters ###
pair_style lj/cut/tip4p/long/omp 2 1 1 1 0.1577 8.5
pair_coeff 1 1*2 0.000 0.000
pair_coeff 2 2 0.21084 3.1668
bond_style  harmonic
bond_coeff  1 450 0.9572
angle_style harmonic
angle_coeff 1 55 104.52
kspace_style pppm/tip4p/omp 1.0e-5
pair_modify tail yes

thermo          ${out_freq}
thermo          1000
thermo_style    custom step temp pe etotal epair emol press lx ly lz vol pxx pyy pzz pxy pxz pyz enthalpy

restart 	${out_freq3} restart.lmp.${pid} restart2.lmp.${pid}
restart 	1000 restart.lmp.${pid} restart2.lmp.${pid}
restart 	1000 restart.lmp.0 restart2.lmp.${pid}
restart 	1000 restart.lmp.0 restart2.lmp.0


include         in.dump
dump            myDump all atom ${out_freq2} dump.water.${pid}
dump            myDump all atom 10000 dump.water.${pid}
dump            myDump all atom 10000 dump.water.0
dump            myDump2 all dcd ${out_freq2} dump.dcd
dump            myDump2 all dcd 10000 dump.dcd
dump_modify     myDump append yes
dump_modify     myDump2 append yes


variable natoms 	equal  "count(all)"                        # NUMBER ATOMS
variable H      	equal  "enthalpy/v_natoms"                 # ENTHALPY-per-atom
variable Vol      	equal  "vol/v_natoms"                 # volume-per-atom
fix AVG all 		ave/time ${out_freq} 1 ${out_freq} v_Vol v_H file vol_enthalpy.dat
fix AVG all 		ave/time 1000 1 ${out_freq} v_Vol v_H file vol_enthalpy.dat
fix AVG all 		ave/time 1000 1 1000 v_Vol v_H file vol_enthalpy.dat




fix 		1 all shake 1e-6 200 0 b 1 a 1
       0 = # of size 2 clusters
       0 = # of size 3 clusters
       0 = # of size 4 clusters
     640 = # of frozen angles
  find clusters CPU = 0.005 seconds
fix             2 all nph aniso ${pressure} ${pressure} ${pressureDamp}
fix             2 all nph aniso 8362.8 ${pressure} ${pressureDamp}
fix             2 all nph aniso 8362.8 8362.8 ${pressureDamp}
fix             2 all nph aniso 8362.8 8362.8 1000
fix             3 all temp/csvr ${temperature} ${temperature} ${tempDamp} ${seed}
fix             3 all temp/csvr 258.27 ${temperature} ${tempDamp} ${seed}
fix             3 all temp/csvr 258.27 258.27 ${tempDamp} ${seed}
fix             3 all temp/csvr 258.27 258.27 100 ${seed}
fix             3 all temp/csvr 258.27 258.27 100 745823


run             250000
PPPM initialization ...
  extracting TIP4P info from pair style
  using 12-bit tables for long-range coulomb (../kspace.cpp:340)
  G vector (1/distance) = 0.37431185
  grid = 30 30 30
  stencil order = 5
  estimated absolute RMS force accuracy = 0.0032862212
  estimated relative force accuracy = 9.8963577e-06
  using double precision FFTW3
  3d grid and FFT values/proc = 5400 960
Last active /omp style is kspace_style pppm/tip4p/omp
Neighbor list info ...
  update every 1 steps, delay 7 steps, check yes
  max neighbors/atom: 2000, page size: 100000
  master list distance cutoff = 10.8154
  ghost atom cutoff = 10.8154
  binsize = 5.4077, bins = 5 5 5
  1 neighbor lists, perpetual/occasional/extra = 1 0 0
  (1) pair lj/cut/tip4p/long/omp, perpetual
      attributes: half, newton on, omp
      pair build: half/bin/newton/omp
      stencil: half/bin/3d
      bin: standard
Per MPI rank memory allocation (min/avg/max) = 10.54 | 10.55 | 10.55 Mbytes
Step Temp PotEng TotEng E_pair E_mol Press Lx Ly Lz Volume Pxx Pyy Pzz Pxy Pxz Pyz Enthalpy 
 1250000     264.5345   -9115.4239   -8106.8977   -9115.4239            0    8246.4096    24.859437    25.046195    23.094185    14379.232    9398.9757    7480.0287    7860.2243    918.83202    880.77476   -426.09833   -6377.5733 
 1251000    252.85255   -9104.1415   -8140.1523   -9104.1415            0     8072.351    24.810091    25.121025     23.02572    14350.893    9170.6017    6956.6792    8089.7722   -76.549991    36.612881   -302.02788   -6450.6652 
 1252000    254.92166   -9090.1163   -8118.2387   -9090.1163            0     9117.557    24.865382    25.077054    22.991903    14336.613    9743.8279     9179.292     8429.551   -266.52431    847.59635     1087.572   -6211.8961 
 1253000    260.59124   -9111.8783   -8118.3856   -9111.8783            0    8743.0515    24.780012    25.037573    23.060066    14307.188    10589.278    8037.8362    7602.0406    1666.6508   -136.75602   -557.14211   -6294.0984 
 1254000    253.86592   -9134.1165   -8166.2638   -9134.1165            0    8640.5686    24.877306    25.033236    22.943754     14288.44    8472.6355    9427.8135    8021.2567   -1091.5028    482.84793   -366.20673   -6365.7228 
 1255000    264.86817   -9117.5438   -8107.7456   -9117.5438            0    8117.7957    24.859103    25.027615    23.102076    14373.282     7979.348    8269.6608    8104.3782   -1000.0835   -711.82842    49.604508   -6406.0967 
 1256000     262.4291   -9090.0438   -8089.5444   -9090.0438            0    8437.5209    24.844344    25.015803    23.099518    14356.378    9532.6752    8158.3071    7621.5805    12.297791   -135.45593    -121.8219   -6322.9549 
 1257000     246.2165   -9094.8976   -8156.2081   -9094.8976            0    8104.3116    25.000333     25.11634    22.884427    14369.517     8862.789     6183.174    9266.9719    164.13792    182.92358   -459.57006   -6457.8307 
 1258000    263.73325    -9162.761   -8157.2895    -9162.761            0    6557.0363    24.916408     25.12522    23.073086     14444.45    6936.1468    5505.8903    7229.0717   -593.32963    202.09123     -330.235   -6776.0008 
 1259000    265.11309   -9087.2504   -8076.5184   -9087.2504            0    8086.9135    24.823707    25.047549     23.12749     14380.05    8816.7732    8745.4989    6698.4683   -1541.3101   -434.39729   -960.65987   -6380.5448 
 1260000     263.6901   -9112.5722   -8107.2653   -9112.5722            0    8617.4851    24.859295    25.037389    23.037349    14338.718    8966.8974     8396.249    8489.3091   -21.844441   -332.72957    303.54321   -6305.2156 
 1261000    251.88855   -9090.9943   -8130.6802   -9090.9943            0    8883.0305    25.027268    25.053668    22.876984    14344.438    9495.7039    7275.6443    9877.7434    596.17174    800.51701     612.0117   -6272.3599 
 1262000    262.44544   -9089.2991   -8088.7374   -9089.2991            0     7735.391    25.026632    24.994286    22.998371    14386.005    6918.9926    7654.3271    8632.8533   -887.64639   -395.36656   -652.76213   -6465.8126 
 1263000    262.72967   -9099.7031   -8098.0578   -9099.7031            0    8150.0009    24.917237     24.99662    23.057592    14361.344    8912.5267    8552.8923    6984.5837   -1164.1204   -1129.6889    -575.0475    -6391.077 
 1264000    252.57866   -9135.9774   -8173.0323   -9135.9774            0     9182.332    24.809143    24.949402    23.063705    14275.817    10396.886    8196.3012    8953.8084   -644.75465   -69.798583    689.99778   -6261.2879 
 1265000    255.03383   -9095.1339   -8122.8286   -9095.1339            0    9051.0792    24.923041    25.037655    22.910063    14296.212    7146.0823    10823.488    9183.6669   -113.03886    296.94195    278.09273   -6235.7186 
 1266000    261.86884   -9118.3003   -8119.9368   -9118.3003            0     9128.451    24.820235    25.028239    23.041255    14313.384    9750.3195    7389.0097    10246.024    -310.0047   -415.11947   -471.89578    -6214.409 
 1267000     260.6714   -9110.8681   -8117.0698   -9110.8681            0     9184.775    24.905993    24.953647    23.043649    14321.521    8812.1664    9612.0447    9130.1139   -574.75848   -985.45773    347.05048   -6198.6945 
 1268000    252.81297   -9132.2322   -8168.3939   -9132.2322            0    7564.1637    24.935577     25.01108    23.031708    14364.087    8158.0789    6700.5005    7833.9116   -266.02489   -512.52545    189.79481   -6583.8115 
 1269000    254.58554     -9107.66   -8137.0639     -9107.66            0    8309.2381    24.945003    25.099513     22.93321    14358.653    8954.1847    7124.5503    8848.9795    -201.8395   -1574.6327    872.30019   -6397.0576 
 1270000    258.26744   -9131.3509   -8146.7176   -9131.3509            0    8331.0972    24.857395    24.932301    23.087187    14308.332    9104.9212    8216.1717    7672.1988   -792.84921   -995.68711    326.61526   -6408.2481 
 1271000    261.73242   -9143.8557   -8146.0124   -9143.8557            0    7924.6201    24.893128    25.085708    23.017028    14373.253    8241.6236    7540.5966    7991.6402    652.86045   -272.65869   -97.648099   -6484.8602 
 1272000     262.0854   -9092.3518   -8093.1627   -9092.3518            0    8635.6906     24.92894     25.07025    22.932926      14332.5    9301.4253    7239.0969    9366.5495    -142.8889   -7.9680973    326.01231   -6288.0891 
 1273000    251.82039   -9126.0845   -8166.0304   -9126.0845            0      8907.88    24.806186    24.953298    23.098386    14297.812    9474.4323    8821.2996     8427.908    291.91282   -192.52317   -536.44609   -6308.5688 
 1274000     271.4618   -9090.9914   -8056.0552   -9090.9914            0    9193.4194    24.959633    25.039078    22.916694    14322.159    9552.7792    8156.2508    9871.2284   -304.06936    616.43516   -581.29035   -6135.7889 
 1275000     260.4824   -9115.1519   -8122.0742   -9115.1519            0    7753.0275    24.910335    25.146167    22.988841    14400.197    8246.8418    6827.4232    8184.8175    126.81603    86.913892    1906.8847   -6493.8445 
 1276000    256.40397   -9070.5656   -8093.0368   -9070.5656            0     7160.451    24.871407    25.088151    23.120081    14426.413    8616.2313    6069.1343    6795.9873    1360.0311   -1046.3616    331.41632   -6586.5177 
 1277000    261.84899   -9119.0479   -8120.7601   -9119.0479            0    6534.7755    24.896661    25.156152    23.057618    14441.083    6202.7035    6054.2375    7347.3855    370.88035   -332.28195    41.220369   -6744.4816 
 1278000    257.41934   -9126.5257   -8145.1258   -9126.5257            0    7516.6983    24.962337    25.114944    22.924357    14371.914    6652.2906    8654.9571    7242.8472    880.76512   -223.47719    1601.6043   -6569.6287 
 1279000    251.82673   -9121.6122   -8161.5339   -9121.6122            0    7098.7911    24.843204    25.043063    23.133365    14392.421    8102.4964    6813.8498     6380.027   -359.10758    222.88087     467.9026   -6671.5069 
 1280000     264.2496   -9105.6177   -8098.1777   -9105.6177            0    6741.0109    25.030947     25.05325    22.997322    14421.771    5683.6692    7266.9099    7272.4535    103.65824    325.97124     1626.006   -6680.3629 
 1281000    261.03553   -9082.3743   -8087.1879   -9082.3743            0     7729.213    25.019462    25.050779    22.992997    14411.022    7543.6156    6858.7557    8785.2676    72.647297    594.53682    704.54226   -6462.7393 
 1282000    256.51028   -9084.7273   -8106.7931   -9084.7273            0    7280.8203    24.950371    24.891485    23.237925    14431.955    7436.2182    7801.3672    6604.8755     12.80593   -144.34459    134.16911   -6574.3606 
 1283000     258.4358   -9094.6164   -8109.3413   -9094.6164            0    8440.5451    25.018776    24.915751    23.027755    14354.618    8102.6726    9152.9348    8066.0278    721.32105    663.59007    344.87564   -6342.3352 
 1284000    246.92433    -9115.079   -8173.6909    -9115.079            0    7375.2907    24.997127     24.90031    23.151138    14410.107    6456.0175    7865.6925    7804.1621    112.87148   -1141.9985   -809.56544   -6623.7246 
 1285000    251.14542   -9149.9954   -8192.5145   -9149.9954            0    7641.7387    24.939264    24.926749    23.084275    14350.449     7754.471    8051.3733    7119.3719    396.53263    474.37176    758.78494   -6593.2011 
 1286000    257.84001   -9130.3446   -8147.3409   -9130.3446            0    7068.7036    25.022703    25.036875    22.962439    14385.745    7319.9204    6326.2083     7559.982   -169.75659   -441.99664   -252.40681   -6664.3174 
 1287000    256.18043   -9106.2315   -8129.5549   -9106.2315            0    7755.2616    24.959855    25.025081    22.974656    14350.484    6800.3175    8573.0437    7892.4236     116.7664   -72.485248   -940.54803   -6506.4787 
 1288000    266.10136   -9117.6377   -8103.1379   -9117.6377            0    10106.457    24.831102    24.917735    23.055637    14265.325    10178.785    9917.5254    10223.059   -301.17742    168.59649    700.42304   -6000.5388 
 1289000    253.59558   -9136.4199   -8169.5979   -9136.4199            0    7432.0424    24.957237     25.04537     23.03226    14396.619    8017.5032    7262.4379    7016.1862   -512.01243    207.74838   -394.56012   -6609.1669 
 1290000    258.32799   -9141.0315   -8156.1673   -9141.0315            0    9190.9388    24.875481    24.874792    23.152763    14326.291    10568.256    8592.6302    8411.9307   -495.20065    -1621.359    19.783132   -6235.8653 
 1291000    249.11191   -9134.6036   -8184.8754   -9134.6036            0    9275.0331    24.933895    24.973135    22.915531    14268.986    9629.7269    8730.4335    9464.9388   -498.84615   -274.17458   -908.91466   -6254.7548 
 1292000    263.45367    -9144.467   -8140.0614    -9144.467            0     8194.582    24.960338    25.026814    22.935319    14327.183    9010.2129    6984.5343    8588.9987   -239.96025    37.109581    187.08982   -6427.8259 
 1293000    254.33363   -9073.8175   -8104.1817   -9073.8175            0    9382.1372    24.818808    24.903587    23.138435    14301.343    9374.6866    9906.7896    8864.9353   -270.11431   -2119.7606   -114.40323   -6147.3454 
 1294000    270.05452   -9169.9546   -8140.3836   -9169.9546            0    7474.2059    24.983586     24.98908    22.968965    14339.912    7499.6015    8390.0089    6533.0074    92.868344     -785.668   -55.879701   -6577.2812 
 1295000    247.11156   -9131.0978   -8188.9958   -9131.0978            0    9977.5902    24.847007    24.990831    22.943958     14246.99    10914.448    9278.4811    9739.8418   -831.59997    382.65382   -524.68481   -6115.8747 
 1296000    272.59198   -9120.8618   -8081.6168   -9120.8618            0    9092.8818    24.816694    25.062631    23.021085    14318.462    10475.965    7577.5407    9225.1396    -326.5778    586.94242   -890.05604   -6182.8405 
 1297000    256.21717   -9125.1984   -8148.3817   -9125.1984            0    8931.1841    24.907495    24.991732    22.983205    14306.618    10260.475    8361.8922    8171.1853   -86.794064   -283.24666   -191.58236   -6284.9138 
 1298000    261.22765   -9145.0646   -8149.1457   -9145.0646            0    8014.5783     24.98761    25.035215    22.909316    14331.385    8095.1004    6965.8804     8982.754    -762.8832    1358.7019    956.74152   -6474.0303 
 1299000    259.52822     -9091.36   -8101.9201     -9091.36            0    8144.1771    24.962985    24.935824    23.081741    14367.752    8608.7107    8250.9593    7572.8613    227.76789    360.49178    43.603101    -6395.398 
 1300000    263.03697   -9103.3517   -8100.5348   -9103.3517            0     7969.053    24.960917    24.893161    23.132708     14373.65    7733.0616    8253.6902    7920.4073    269.08936    1150.5427    124.17236   -6430.0226 
 1301000     257.9208   -9105.4782   -8122.1665   -9105.4782            0    7931.7716     25.13838    24.987545    22.853444    14355.308    6339.4454    8402.2211    9053.6483   -816.03671   -1195.0619    679.63657    -6461.591 
 1302000    256.45691   -9110.9093   -8133.1786   -9110.9093            0    7277.2741    25.083046    24.812207    23.129718    14395.144    6809.2042    8825.0632    6197.5548   -297.58723    176.78792   -1333.3416   -6605.3993 
 1303000    251.19154   -9093.9656   -8136.3089   -9093.9656            0    8345.6763    24.955793    24.926606    23.062225    14346.162    8619.4454    9300.5141    7117.0693    165.48328   -1008.5576    286.59921   -6390.1926 
 1304000    257.05407   -9090.5184   -8110.5111   -9090.5184            0    7067.2482    25.014134    25.080881    22.940068     14392.06    7348.9026    7076.0826    6776.7593    117.50059    1260.6847   -411.80793   -6627.1421 
 1305000     268.9916    -9129.562   -8104.0434    -9129.562            0    6989.0054    25.101351     24.94992    22.995481    14401.534     5805.413    7876.4264    7285.1768   -868.57419    435.20512    153.99804   -6636.1314 
 1306000    267.76503    -9113.761   -8092.9186    -9113.761            0    7565.1068    24.984137     24.91139    23.110714    14383.867    7347.9759    8163.6957    7183.6487   -188.07521   -695.97986   -284.57891   -6505.9562 
 1307000    264.13312   -9144.0247   -8137.0288   -9144.0247            0    7172.3677    25.017147      24.8514    23.135877    14383.832    7278.6812    8188.5818    6049.8399    320.06575    1161.6256   -1239.5214   -6632.4567 
 1308000    254.08409   -9115.8426   -8147.1582   -9115.8426            0    8064.0742    25.013873    24.960848    23.007654    14365.231    7796.9873    8887.6355    7507.5997   -1509.8081     514.9272   -1059.2516   -6457.7173 
 1309000    257.02392    -9105.819   -8125.9266    -9105.819            0    9421.2851    25.022311    24.906742    22.946774    14300.986    9043.1074    10096.395    9124.3529    223.83068    226.64045   -696.36105   -6160.9742 
 1310000    262.41763   -9160.4373   -8159.9817   -9160.4373            0    9713.6324    24.931323    24.823662    23.009335    14240.172    8392.9233    11302.274       9445.7    481.56256   -107.16067    547.51124   -6142.6709 
 1311000    256.34451   -9119.7113   -8142.4091   -9119.7113            0    8059.9332    25.072682    25.021713     22.82633     14320.36    7415.5313    7612.2715    9151.9968    709.14618    539.33101    869.34617   -6459.1101 
 1312000    260.65995   -9113.5602   -8119.8056   -9113.5602            0    8438.8125     24.94719    24.963776    23.013217    14332.081    8338.0093    8000.9196    8977.5087    353.91174    306.17314    -671.5323    -6355.936 
 1313000    257.76538   -9057.6804   -8074.9612   -9057.6804            0    9980.9706     24.95218    24.895269    23.013943     14296.06    9917.9875    10276.097    9748.8271    -25.94226    1068.6287    72.475525    -5993.995 
 1314000     257.0735    -9093.622   -8113.5406    -9093.622            0    9737.3933      24.9865    24.945725    22.929922    14292.367    8391.7312    11080.376    9740.0727   -859.63816    36.218881   -811.90091   -6083.8831 
 1315000    259.43531   -9164.2182   -8175.1325   -9164.2182            0    7963.2305    25.132571     25.01305    22.833476    14354.088     7246.834    7989.7526    8653.1049    71.375861   -349.69122    438.02185   -6508.1126 
 1316000    267.85109   -9078.5417   -8057.3712   -9078.5417            0    7455.6179    25.077268    24.988455     22.98858    14405.614    7167.4637    6964.3076    8235.0824   -543.83291    208.93335    997.48294   -6491.0123 
 1317000    254.08295   -9137.5677   -8168.8876   -9137.5677            0    8621.3286    24.932838    24.876437    23.087457    14319.768    7429.6628    10099.678    8334.6453   -37.838821   -563.65314    -850.9345   -6368.4168 
 1318000    254.81267    -9134.823   -8163.3609    -9134.823            0    9297.5768    24.874095    24.923937     23.08291    14310.489    9480.8428    9236.5172    9175.3703    911.06159   -889.06956   -702.02191   -6222.9212 
 1319000    249.10022   -9123.7435   -8174.0599   -9123.7435            0    8757.2722     25.03005    24.927815    22.953192    14321.517    7401.7918    9401.9665    9468.0583   -1279.9798   -616.74837   -329.06397   -6344.9754 
 1320000    250.62737   -9122.3569    -8166.851   -9122.3569            0    8275.7267    25.089858    24.996161    22.890647    14355.873    6677.1067    9038.2737    9111.7999   -16.825275    1083.9434   -96.655802   -6434.1979 
 1321000    262.45112   -9127.1723   -8126.5889   -9127.1723            0    7951.4385    24.984835    25.012393    23.012104    14380.966     9324.297    6568.6814    7961.3372    375.06433   -786.00162   -65.300875   -6458.9207 
 1322000    258.67287   -9091.1789        -8105   -9091.1789            0     8218.136    24.997311    24.962463     23.02953    14370.299    8493.3538    7503.5739    8657.4802   -51.370303   -185.27864    323.49463   -6382.6754 
 1323000    255.70118   -9165.6602   -8190.8107   -9165.6602            0    8761.7683    24.922712    24.795158    23.116004    14284.825    8499.4306    9482.9837    8302.8905    429.07374   -739.71981    674.38058   -6365.4757 
 1324000    264.18587   -9103.6267   -8096.4297   -9103.6267            0    7969.0575    25.076787    25.043483    22.856945    14354.392    7857.3087    7359.4006    8690.4633   -537.95496    330.54687    134.87964   -6428.1546 
 1325000    262.12468   -9087.5749   -8088.2361   -9087.5749            0     8409.394     24.90678    25.006326    23.045446    14353.327      8111.89    9153.7565    7962.5356   -83.822561   -120.18736     622.7742   -6327.9099 
 1326000    267.42527   -9153.4288   -8133.8817   -9153.4288            0    7951.5867    24.808359    24.903524     23.18797    14325.889    9100.0942    9457.3756    5297.2902   -422.09411    611.56215    27.246423   -6472.5695 
 1327000     253.7069   -9143.7762   -8176.5298   -9143.7762            0    8495.8104    24.869924    25.007616    23.027642    14321.754    9548.8713    8133.1361    7805.4237   -324.37351    870.96908    -206.6107    -6402.026 
 1328000    258.21021   -9076.1417   -8091.7266   -9076.1417            0    7699.8984    25.105191    25.079637    22.840361    14380.955    5740.6502    8239.2799     9119.765   -14.971846   -926.62099    362.56578   -6476.8155 
 1329000    256.27968   -9129.5325   -8152.4775   -9129.5325            0    8870.1781    24.919387    24.849511    23.123284    14318.737    8949.6263    8923.4085    8737.4995   -609.20843   -1057.2572   -1250.9214   -6300.1706 
 1330000    257.25834   -9109.6377   -8128.8516   -9109.6377            0    8276.7135    25.002305    25.008756    22.922051     14332.62    7696.0202    8551.8944    8582.2258   -845.73144     174.6533   -375.62152   -6398.7986 
 1331000    268.67678   -9121.4305    -8097.112   -9121.4305            0    8160.0595     24.97732    24.925558    23.028386    14336.866    9271.7981     8217.074    6991.3063   -135.60653   -442.76517   -520.54023   -6390.9376 
 1332000    264.04352    -9152.378   -8145.7237    -9152.378            0    8047.9132    24.910019    24.932884    23.109563    14352.856    8288.1206    7850.8786    8004.7405    353.15423    396.48529   -238.96903    -6461.121 
 1333000    254.35833   -9154.9042   -8185.1743   -9154.9042            0    8757.2949    24.992966    25.030657    22.862484     14302.55    8323.5175    8341.5973    9606.7698    60.710739   -121.48736   -345.23835   -6358.5075 
 1334000    263.87211    -9084.757   -8078.7562    -9084.757            0     9364.193    24.962347    24.991791    22.951198    14318.192    8728.7082    9341.7033    10022.168   -86.518426    180.95439    1407.8186   -6123.3616 
 1335000    262.96932   -9144.7353   -8142.1763   -9144.7353            0    8527.0963    24.818253    24.879724    23.172073     14308.09    8914.9439    8992.8782    7673.4669   -96.247992    1482.3412    354.72529   -6362.8372 
 1336000    262.04338    -9119.755   -8120.7261    -9119.755            0    7644.4474    24.941461    25.041926    23.016053    14375.417    7120.4621    7692.0808    8120.7993     -906.143    691.37863    578.71667   -6518.0622 
 1337000     256.0462   -9113.0482   -8136.8833   -9113.0482            0    8857.9216    24.954535    25.039431    22.911469    14316.171    8966.0785    8775.5414     8832.145    1094.5836    -731.1869   -269.81328   -6287.4674 
 1338000    266.71298   -9092.3605    -8075.529   -9092.3605            0    10629.699    24.914398     24.93166    22.984336    14276.888    10073.039     10772.25    11043.808    675.74465    308.83273     712.4847   -5862.2793 
 1339000    251.82973   -9137.8555   -8177.7658   -9137.8555            0    10228.729    24.804319    24.884659    23.025717    14212.555     10155.04    11176.182    9354.9651   -696.78486    950.74482    1071.1725   -6057.6004 
 1340000    263.71607   -9118.9396   -8113.5337   -9118.9396            0    9359.0573    24.997191    24.987092    22.856848    14276.549    8115.6792    10888.416    9073.0769    771.24037   -279.94227   -1104.6167   -6164.8953 
 1341000    254.04348   -9133.0365   -8164.5069   -9133.0365            0    8364.0508    24.913437    24.983493     22.96198    14292.103    8958.5568    8107.1613    8026.4342    335.26515   -1487.5896     91.99313   -6421.1404 
 1342000    254.47083    -9091.107   -8120.9481    -9091.107            0    8770.4476    24.990109     24.84013    23.079345    14326.678     8213.011    10595.315    7503.0166   -471.16553    396.63563   -150.50975   -6288.4517 
 1343000    265.19429   -9116.0843   -8105.0427   -9116.0843            0    8691.1831    24.923005     24.91767    23.110264     14352.01     7513.972     9756.391    8803.1864   -947.05206    54.783668    414.78719   -6285.8968 
 1344000    255.00912   -9115.0565   -8142.8454   -9115.0565            0    6534.2649    25.234234    24.967941    22.949631    14459.343    4926.1626    7339.4112    7337.2209   -1359.2737   -539.98587   -33.009225   -6764.9343 
 1345000    245.74578   -9135.1306   -8198.2356   -9135.1306            0    8727.8757    24.954588    24.912185    23.028126    14315.971    7277.1998    10051.583    8854.8439   -416.50757   -151.73615   -282.21564    -6375.997 
 1346000    258.11934   -9120.9611   -8136.8925   -9120.9611            0    8011.1468    24.875513    25.010234    23.124896    14386.978    8390.4484     8755.745    6887.2469   -219.48035   -274.79388    86.823371   -6455.9991 
 1347000    267.25154   -9141.8393   -8122.9546   -9141.8393            0    7481.6059    24.907619     25.06589    22.988552     14352.48    9024.7401    5799.3378    7620.7399   -75.580471    121.92172   -351.29309   -6556.9333 
 1348000    249.66023   -9148.9204   -8197.1017   -9148.9204            0    8035.9985    24.917714     24.86953     23.13394    14335.913    8497.3851    9241.6834     6368.927   -256.17736    -1144.373    -270.2664   -6516.9786 
 1349000    259.35412   -9096.3489   -8107.5727   -9096.3489            0    7810.8936    24.956106    24.945785    23.113484    14389.291    8688.1503    7779.8228    6964.7078   -316.31497   -974.53366    -191.2498   -6468.4328 
 1350000    255.43203   -9154.2986   -8180.4752   -9154.2986            0    8353.7178    24.980862    24.937079    23.033993     14349.02    7470.9584    9218.0738    8372.1211    269.11475    1095.1969    -265.3592   -6432.3283 
 1351000    256.18677   -9125.1399   -8148.4391   -9125.1399            0    8860.3591    24.904869    24.943578    23.011211    14294.945    8513.7483    8649.8399    9417.4891   -375.36923     243.4184   -627.72775    -6301.257 
 1352000    261.10189   -9090.2512   -8094.8117   -9090.2512            0    9009.7473    25.035606    24.994688    22.925525    14345.811     8364.704    8820.2643    9844.2737   -735.12669    129.47964   -770.67826   -6209.8019 
 1353000    258.71811   -9107.1508   -8120.7994   -9107.1508            0    8429.1322    24.966896    24.861433    23.151881     14370.67    8693.7225    8251.0537    8342.6203    230.46436   -285.13763   -294.66794   -6354.2094 
 1354000    257.02903   -9118.7846   -8138.8728   -9118.7846            0    7920.3849    25.008853    25.013642    22.984198    14378.052    8586.0248    7444.8515    7730.2784   -319.96844    502.24723   -125.42282    -6478.054 
 1355000    259.96014   -9106.2038   -8115.1172   -9106.2038            0    8200.4218    24.835548    24.988432    23.143088    14362.633    8093.2163    8018.9922     8489.057    191.28539   -753.47791   -636.44393   -6397.4218 
 1356000    259.44604   -9149.5011   -8160.3745   -9149.5011            0    8410.9045    24.856603    25.022892     23.03669    14328.455    9450.9151    8348.7675    7433.0308   -622.98114   -25.613212    1041.7577   -6402.7829 
 1357000    259.94446   -9116.8533   -8125.8264   -9116.8533            0    9203.6504    25.023864    25.108341    22.744953     14290.83    7996.8904    9114.3429    10499.718   -1025.1756     590.7135    130.92376   -6207.6284 
 1358000     266.4298    -9146.056   -8130.3041    -9146.056            0     9012.576    24.894551    24.972128    23.025656    14314.358    8354.4035    9512.9892    9170.3353    406.83617     937.7934   -1045.7535   -6248.8367 
 1359000    255.64229   -9108.0749   -8133.4499   -9108.0749            0    8970.4585     24.94697    24.756877    23.148613    14296.794    8977.2829    9320.5438    8613.5488     647.7559    937.46974   -569.33905   -6263.0728 
 1360000    253.75892    -9119.504   -8152.0593    -9119.504            0    8471.2739    24.987351     25.00735     22.93914    14333.921    7588.1081    8951.9889    8873.7248   -369.61322    187.50339   -71.759645   -6381.1773 
 1361000    254.04949   -9092.6364   -8124.0839   -9092.6364            0    7555.7405    25.014031    25.005425    23.032283    14406.382    7062.0312    7956.5147    7648.6758   -523.65811   -281.32274   -23.530091   -6536.6054 
 1362000    252.12991   -9081.2922    -8120.058   -9081.2922            0    7524.3692    24.891127    24.931307    23.161901    14373.542    9039.1403    7329.9098    6204.0575   -696.85809    782.52916    159.23194   -6542.7743 
 1363000    261.70408   -9135.0407   -8137.3054   -9135.0407            0    7004.6393    25.083764     25.06207    22.937949    14419.965    5971.0439    7117.2577    7925.6162    859.84291    186.97161   -57.709639   -6664.2269 
 1364000    271.26174    -9100.156   -8065.9825    -9100.156            0    8069.4036    25.030756    24.945618     23.02932    14379.685    7969.1525    8502.8404     7736.218   -174.51175   -925.53219    495.02925   -6373.7241 
 1365000    271.37545   -9107.8336   -8073.2266   -9107.8336            0    9307.2501    24.921331    24.870497    23.079761    14304.972    9717.7481    9416.2455    8787.7568   -564.23345    -523.8803     -566.472    -6131.517 
 1366000    256.85871    -9132.578   -8153.3154    -9132.578            0    9198.0722    25.013393    24.960006    22.880821    14285.285    9611.6002    8078.0155    9904.6008    183.63502    1088.1201   -1010.0602   -6237.0237 
 1367000    250.25517   -9147.7755   -8193.6887   -9147.7755            0    8683.8496    24.917389    24.976805    22.993671    14310.267    8462.2271    9176.3223    8412.9994    43.574783    50.326322    1047.9093   -6381.3644 
 1368000    246.63383   -9131.7668   -8191.4861   -9131.7668            0    8271.6627    24.949117    24.967833    23.011984    14334.748    7309.0363    8131.5328    9374.4189   -300.95207   -326.06653   -489.22103   -6462.2322 
 1369000    252.80475    -9106.982    -8143.175    -9106.982            0    8130.8305    24.939081    24.989778    23.069432     14377.38    8483.5413    7396.4599    8512.4902   -693.03483    373.07857     642.3246   -6438.3079 
 1370000    255.76317    -9111.922   -8136.8362    -9111.922            0    8777.9196    24.999043    24.955541     22.91532    14296.058    9245.5783    8378.4054    8709.7752    79.077855    288.04999   -681.69671   -6306.6984 
 1371000    260.71558   -9134.2002   -8140.2335   -9134.2002            0    8900.0784    24.927832    25.047848    22.908514    14303.814    8725.9115    9178.2642    8796.0594   -402.48379   -113.32864    1392.7908   -6283.6197 
 1372000    254.08562   -9070.5665   -8101.8762   -9070.5665            0    8802.6806    24.899104    24.887657     23.12936     14332.81    8299.7039    9980.3599     8127.978   -247.59657   -950.96094   -257.55928   -6261.8577 
 1373000    257.57344   -9146.6844    -8164.697   -9146.6844            0    7226.8297    24.993385    25.086557    22.929006    14376.441    6592.8483    7148.3809      7939.26    775.89759   -619.13001    389.36488   -6649.4791 
 1374000    268.32547   -9095.3119   -8072.3329   -9095.3119            0     10000.91    24.757566    25.073164     23.00154    14278.218    10857.177    8830.2365    10315.316   -684.59523    188.99109    1078.2485   -5989.8118 
 1375000    261.56004   -9074.4543   -8077.2681   -9074.4543            0    9577.7154    24.839307    25.024222    23.018286    14307.806    11608.772    8509.3377    8615.0371     262.2068   -168.19136    824.52404   -6078.7373 
 1376000    259.33964   -9115.2229   -8126.5019   -9115.2229            0     9548.706    24.817366    25.094521    22.863487     14238.92     10887.42    7590.8846    10167.813   -227.05499    279.52942   -376.03712   -6143.6172 
 1377000    262.88285   -9118.4874   -8116.2581   -9118.4874            0    9187.3913    24.910148    24.881702    23.059479    14292.424    8427.2216    9897.3981    9237.5543    -177.0529   -359.91146   -539.79834   -6201.2352 
 1378000    260.98455   -9139.3799   -8144.3878   -9139.3799            0    8637.8069    25.006268    24.943087    22.932981    14304.069    8643.3545    8725.4929    8544.5734    663.80695    665.88903    457.72257   -6342.4534 
 1379000    263.75791   -9106.3316   -8100.7662   -9106.3316            0    9214.6559    24.948906    25.040087    22.883888    14296.087    9545.3173    7485.1672    10613.483    437.40732    408.11121   -893.83194   -6179.5679 
 1380000    258.18061   -9155.0612   -8170.7589   -9155.0612            0    7972.2849    24.899201    24.934138    23.103847    14343.795    8270.9484    8490.1823     7155.724   -429.56042    294.95645    926.29528   -6503.0404 
 1381000    261.60355   -9160.0356   -8162.6836   -9160.0356            0    9062.0053    24.988753    24.869463    22.967437    14273.272    8155.9028    9902.9673    9127.1458   -793.87132    604.32351   -727.37728   -6276.3273 
 1382000     260.2461   -9131.8176   -8139.6408   -9131.8176            0    6868.9576    25.168461    24.917038    22.996948    14421.927    5845.6319    8210.5292    6550.7118   -55.913865   -908.53891   -114.66267   -6694.8997 
 1383000    253.87447   -9109.5013    -8141.616   -9109.5013            0    7107.0789    24.962812    24.961025    23.087067    14385.491    7603.3394    7245.0323    6472.8651    267.33148   -553.04951    532.40572   -6650.5677 
 1384000    246.72544     -9116.94   -8176.3102     -9116.94            0    8377.5965    25.069941    25.035073    22.889875    14366.322    8843.4235    7733.8708    8555.4952   -469.14239   -105.60809   -899.47963   -6421.0523 
 1385000     254.8959   -9169.0076   -8197.2282   -9169.0076            0    7449.0534    24.955499    24.981783    23.029235    14357.182     7350.706    7918.7224    7077.7317   -398.73486   -184.20583   -651.50356   -6637.5099 
 1386000    261.17459   -9131.1788   -8135.4621   -9131.1788            0    7483.8572    24.849635    25.025136     23.13146    14384.657    7885.7624    7577.7542     6988.055    1153.0859   -644.61579    267.61002   -6565.4576 
 1387000    247.96113   -9109.3542   -8164.0133   -9109.3542            0     7253.024    24.929097     25.09472    23.019532    14400.759    6614.5695    7143.7923    8000.7102   -226.75449   -140.79214   -81.053167    -6640.731 
 1388000    259.64216    -9126.955   -8137.0807    -9126.955            0    6681.8911    24.960384    25.089356    23.017673    14414.587    5766.1031    6958.1554    7321.4148   -251.65694   -333.58146    155.71821   -6732.4004 
 1389000    250.50812   -9126.0835   -8171.0323   -9126.0835            0    8267.1623    24.888582    25.001256    23.025801    14327.708    8668.3034    7453.1511    8680.0324    83.429089    281.30104   -846.30009    -6443.568 
 1390000     256.9097   -9105.8709    -8126.414   -9105.8709            0    7709.0013    25.036941    25.048874    22.927887     14379.16    7780.6144    7082.8677    8263.5217   -409.76736   -705.43025   -1071.5197   -6509.7956 
 1391000    249.89785   -9121.8491   -8169.1245   -9121.8491            0    7789.0954    24.957122    24.988462    23.057158    14379.368    8665.1655    6593.5248    8108.5958   -372.30817    774.40656   -419.50626   -6535.6863 
 1392000    254.84062   -9137.4887     -8165.92   -9137.4887            0    7887.8999    24.843767    24.913151    23.185717    14350.487    9262.7459    8399.4076     6001.546    265.40957   -835.13133    665.78348    -6515.084 
 1393000    265.47591   -9136.7232   -8124.6079   -9136.7232            0    8378.2674    24.997381     25.01096    22.881202    14305.522    7578.6509    8950.4397    8605.7116   -342.91475   -738.92816   -423.08595   -6376.6386 
 1394000    252.27778   -9100.0103   -8138.2123   -9100.0103            0    9385.4206    24.989094    25.033778    22.902798    14327.336    8933.5907    8709.1203    10513.551      722.062   -758.70821    7.0583588   -6177.1333 
 1395000    266.95196   -9082.5547   -8064.8121   -9082.5547            0     9087.453    24.877843    24.836259     23.19289     14330.25    10193.911    9738.4891     7329.959    598.61082   -282.94478    -1149.631   -6165.6072 
 1396000    252.91208    -9111.036   -8146.8198    -9111.036            0    7362.8376    25.013944    24.987601    23.020862    14388.924    7003.4111    7432.5325    7652.5693     -645.338   -901.96418    137.75227   -6601.7453 
 1397000    258.07989   -9126.9651   -8143.0468   -9126.9651            0    8371.8169    25.014358    24.994138    22.936057    14339.905    7917.3572    7724.4759    9473.6176    -672.6267    968.19942   -484.04531   -6392.2253 
 1398000     249.2449   -9117.1183   -8166.8831   -9117.1183            0    9521.8505    24.952411    25.075739    22.814982    14275.337    8853.3182    8847.0015    10865.232    784.31897   -878.04801    1371.8672   -6184.5181 
 1399000    258.93408   -9109.8811   -8122.7063   -9109.8811            0    8550.6613    24.930419    24.968696    22.994821    14313.817    8375.8519    8316.4358    8959.6961   -22.668208   -1224.4334    570.54736   -6337.7357 
 1400000    259.97452   -9138.8661   -8147.7247   -9138.8661            0    9264.2454    24.872916    24.922501     23.06025     14294.94    9270.9321    9977.1442      8544.66   -622.93035   -97.564801    330.31451   -6216.3422 
 1401000    264.33095   -9127.4248   -8119.6747   -9127.4248            0    8442.2588    24.953756      24.9493    23.011884     14326.71    8055.1916    8542.8573    8728.7275   -267.76212   -273.68051    75.199005    -6355.746 
 1402000     254.1723    -9127.568   -8158.5473    -9127.568            0    8993.6613    24.802637    24.912932    23.119465    14285.665    9642.5403     10069.71    7268.7335   -136.68128    342.01021    264.20858   -6284.7919 
 1403000    256.98303    -9099.308   -8119.5714    -9099.308            0    7843.9816    24.949209    25.085323    22.961751    14370.818    8003.9148     6488.848     9039.182   -452.49858    636.83039    267.63559   -6475.6013 
 1404000    247.53354   -9112.4843   -8168.7736   -9112.4843            0    8773.0922    24.968358    25.063479    22.892006    14325.678    7942.0982    8610.3782    9766.8003    767.78746    402.80802    672.04432   -6335.8525 
 1405000    258.57315   -9121.1816   -8135.3828   -9121.1816            0    9158.6693    24.819038    24.841241    23.184323    14293.963    9052.7835    9947.6792    8475.5451   -76.106806   -806.62452     60.98114   -6226.1411 
 1406000    248.08261   -9176.6379   -8230.8339   -9176.6379            0       8978.9    24.870329    24.977199    22.996381    14285.148    9574.1863     7980.148    9382.3658    356.96241    623.61839   -671.39338   -6360.2216 
 1407000    258.51246   -9136.6897   -8151.1223   -9136.6897            0    8459.1513    25.032634    25.051155    22.885223    14351.241    7862.7156    8448.4235    9066.3148    14.479613    717.44632    4.0073827   -6380.6378 
 1408000    262.77251   -9133.7167    -8131.908   -9133.7167            0    7471.4212    25.049342    24.976923     22.95927    14364.594    6821.8937     7510.921    8081.4488    300.13309   -176.71999    375.82959   -6566.6986 
 1409000    268.36546   -9126.7955    -8103.664   -9126.7955            0      7867.87    24.995258    24.903358    23.099011    14378.345    7127.8696    9006.2543    7469.4863    531.46513    382.28273   -1805.1043   -6453.8234 
 1410000    261.43449    -9132.867   -8136.1595    -9132.867            0    8478.5786    25.079191    24.849551    22.998086     14332.56    8436.9853    8803.8766    8194.8739   -302.64495    834.08665    932.06446   -6363.9188 
 1411000    258.38926   -9173.9428   -8188.8451   -9173.9428            0    8695.8498    24.981703    24.895842    22.991496    14299.343    8626.9121    8528.3534    8932.2841   -91.959296   -1076.9307    1019.4428   -6375.4017 
 1412000    252.53595   -9096.1708   -8133.3886   -9096.1708            0    8321.2777    25.111525    24.944003    22.906091    14347.962     7746.529    8491.8783    8725.4258   -149.27468   -790.74657    1335.2742   -6392.1586 
 1413000    261.21185   -9111.4309   -8115.5722   -9111.4309            0    9210.6075    24.943523    24.818799    23.068881    14281.213    8640.5145    10572.373    8418.9347   -1055.3667   -143.64662   -133.03923   -6197.2161 
 1414000    257.50229    -9147.133   -8165.4168    -9147.133            0    8251.4719    24.951329    24.910877    23.041651    14321.756    7553.5257    9831.0428     7369.847   -277.78487   -421.02385    622.41458   -6441.9473 
 1415000    259.81359   -9123.5391   -8133.0112   -9123.5391            0    9748.2495    25.025358     24.96962    22.795262    14244.159    10517.478    8103.7074    10623.563   -788.99815     702.8774    119.37254   -6107.9445 
 1416000    256.36392   -9079.6017   -8102.2256   -9079.6017            0    8685.8984    24.976233    24.944921     23.03844    14353.643    8047.6131    9469.5062     8540.576   -690.73771   -104.59853   -500.89084    -6283.979 
 1417000    247.92023   -9157.1208   -8211.9359   -9157.1208            0    6008.3823    24.976225    24.960913    23.156922    14436.705    5715.4871    7695.5728    4614.0871    855.39198   -979.84885   -256.18297   -6946.9038 
 1418000    260.91019   -9077.4811   -8082.7725   -9077.4811            0    8967.1913    24.957159    25.061334    22.863595    14300.258    8151.9471    8498.4423    10251.184    33.594057   -465.09442    812.01574   -6212.6236 
 1419000    254.16604   -9100.4472   -8131.4503   -9100.4472            0    9198.2394    24.908211    24.996857    22.972502      14303.3    9913.2839    8632.1898    9049.2445    704.75487   -514.60663   -1321.8432   -6212.7072 
 1420000    252.58871   -9098.0136   -8135.0302   -9098.0136            0    10026.355    24.820815    24.875908    23.097073    14261.064    9979.0857    10979.281     9120.699   -40.469793     548.9873   -1184.5588   -6049.7189 
 1421000    257.78484   -9122.4413   -8139.6479   -9122.4413            0    9651.9626    24.919387    24.915649    23.008454    14285.551    10283.116     10147.45    8525.3218    -375.7991    147.15917    471.88568    -6128.757 
 1422000    260.49899   -9139.6731   -8146.5321   -9139.6731            0    8934.4576    25.061555    24.926855    22.850687    14274.955      7487.56    9779.6554    9536.1575   -336.84491   -323.03448    623.78679   -6286.5069 
 1423000    260.70813   -9123.1421   -8129.2039   -9123.1421            0    10006.186    24.970693    24.859696    22.953966    14248.992    8783.8315    10981.228    10253.497    93.895309   -347.86665     160.1494   -6049.8491 
 1424000    256.70108   -9129.3898   -8150.7282   -9129.3898            0    9912.3934    25.035189    24.773373    22.990078    14258.586    9087.6305     10753.23    9896.3193   -739.31947    193.14297   -509.52325   -6089.4773 
 1425000     259.4304   -9127.3283   -8138.2613   -9127.3283            0    8457.3692    25.012952    24.947982    22.948679    14320.496    7894.8576    9695.8425    7781.4074   -335.01479   -479.48983    511.26337   -6371.9419 
 1426000    255.37854   -9138.6728   -8165.0533   -9138.6728            0    9494.3376     24.97973    24.888547    22.987033     14291.25    9341.5254    9977.2959    9164.1916    127.56597    235.86711    624.45136   -6186.2129 
 1427000    256.92766   -9120.7275   -8141.2021   -9120.7275            0    7193.7612    25.032925    24.926988    23.086805     14406.06    7642.9298    7357.6935    6580.6602    528.84747   -1023.2307    1603.0925   -6629.8101 
 1428000     259.1578   -9137.3835   -8149.3558   -9137.3835            0    7571.6482    25.011042    24.980395    23.022771    14384.298    6874.3194    8078.8355    7761.7897    692.43324   -481.20817   -38.089681   -6560.9736 
 1429000    253.73947   -9118.2722   -8150.9016   -9118.2722            0    6714.8266    25.212006     24.97973    22.890825    14416.393      5116.78    7723.7232    7303.9766   -246.31438   -729.95298   -1541.0321   -6739.1207 
 1430000    255.07698   -9135.8037   -8163.3339   -9135.8037            0     7655.789     25.05653    24.961329    23.029208    14403.487    6150.0662    8491.7237    8325.5771    -261.3747   -674.60226   -1094.5089   -6555.1582 
 1431000    256.22694   -9112.2141   -8135.3601   -9112.2141            0    8548.6716    24.992354    24.865521     23.08586    14346.659    9143.2142    8418.2899    8084.5107  -0.26771727   -869.12189   -753.82234   -6346.7105 
 1432000     248.2453   -9047.1132   -8100.6889   -9047.1132            0    9186.9295    25.088738    24.876424    23.001779    14355.827    9249.3747    8843.6453    9467.7687   -140.77283   -650.15776   -34.592069   -6177.2674 
 1433000    252.44738   -9108.5826    -8146.138   -9108.5826            0    7390.8035    25.267532    24.947765    22.792856    14367.897    4892.2209    9465.0731    7815.1167    213.40858    814.29827    137.44347   -6597.4613 
 1434000     252.2454   -9086.0354   -8124.3609   -9086.0354            0    8533.8562    25.018515    24.973376    22.962895    14347.143    7442.0358    9542.2491    8617.2836     1324.204    314.38775    715.62487   -6338.7508 
 1435000    267.61129   -9098.2667   -8078.0104   -9098.2667            0    8418.3342    24.991618    24.839011      23.1182    14351.017     7752.709    10039.513    7462.7807    -544.7345   -720.57345    1121.1422   -6316.0963 
 1436000    268.16719   -9116.3751   -8093.9995   -9116.3751            0    7917.4307    25.025688    24.941649     23.01742    14367.058      7539.95    8335.3588    7876.9834    603.64795    561.95746    267.59664   -6435.0698 
 1437000    253.52125   -9161.0139   -8194.4753   -9161.0139            0    7499.3042    25.135241    24.899891    22.964622    14372.748    7553.2637    7434.2787    7510.3702    -968.9737    276.03267    789.74332   -6622.5328 
 1438000    260.80006   -9092.7554   -8098.4666   -9092.7554            0    8948.5066    25.092417    24.824775    23.010585    14333.607    7207.0574    10240.973    9397.4893   -751.14525   -1167.5585    379.29978   -6227.8622 
 1439000    251.63247   -9149.7419   -8190.4042   -9149.7419            0    8353.9315    25.020981    24.915187    22.980855    14326.321    7117.5656    9222.7136    8721.5154    122.22129   -1364.2679   -663.43698    -6444.978 
 1440000    264.26343   -9092.7476   -8085.2549   -9092.7476            0     7800.646    25.128386    24.926483    23.007845    14411.247    6216.9074    9377.7504    7807.2802    233.31567   -282.38046    553.81338   -6445.7678 
 1441000     257.8187   -9109.7547   -8126.8322   -9109.7547            0    6543.6574     25.06385    24.927347    23.091666    14427.102    5424.7021    8003.2675    6203.0028   -790.46493   -696.30917    167.35852   -6750.0174 
 1442000     265.0969   -9113.7547   -8103.0844   -9113.7547            0    8073.4743    25.000278     24.94642    23.022095    14358.131    7372.2399    8421.7003    8426.4828   -510.43094    252.20579    15.332451   -6412.5101 
 1443000    253.17276   -9111.6256   -8146.4155   -9111.6256            0    7032.5688    25.126786    24.986323    22.934454    14398.847    6891.4535    7398.0866    6808.1663    200.39758    937.77624    25.230504   -6669.6295 
 1444000     247.7463   -9095.0567   -8150.5349   -9095.0567            0    7660.5099    24.992916    24.963785    23.091643    14407.287     7076.337    9037.0446    6868.1482    797.96263    694.34313   -412.03725    -6540.943 
 1445000     260.8048   -9125.2558    -8130.949   -9125.2558            0    8256.1814    24.809445    24.988593    23.164602    14360.967    10344.981    6924.5758    7498.9871     173.6482    456.92612    413.18276   -6401.7745 
 1446000    261.89368   -9103.8725   -8105.4144   -9103.8725            0    8930.6116    24.991682     25.07336    22.853388    14320.514    8609.6706    8651.3159    9530.8483    97.980037    901.97973   -3.4153478   -6240.2561 
 1447000     255.7434   -9110.5392   -8135.5287   -9110.5392            0    7846.5917    24.922487    25.119093    22.924012    14351.126     7560.411    7454.5002    8524.8638    121.87942   -554.76171    78.577527   -6493.2649 
 1448000    258.23929   -9095.7815   -8111.2556   -9095.7815            0    8688.5177    24.749744      24.9428    23.201093    14322.683     11052.72    7243.3984    7769.4345   -31.334746    487.48908    3.5341537   -6296.3838 
 1449000    262.73314   -9098.7917   -8097.1332   -9098.7917            0    8810.3827    24.905082    25.020054    22.990829    14326.195    8569.4476    8762.5037    9099.1967    242.53487   -560.58845   -76.887504   -6256.3547 
 1450000    266.43331   -9144.8709   -8129.1056   -9144.8709            0    8753.3566    24.840792    25.169915    22.864941     14296.09    9354.0457    7015.2791    9890.7452   -529.52514   -148.03813   -491.19103    -6304.085 
 1451000     267.5783    -9106.847   -8086.7165    -9106.847            0    9977.1824    24.836118    25.037651    22.971139    14284.329    10444.299    9427.5079     10059.74   -137.58125   -1806.2213   -139.94397    -6008.247 
 1452000    257.04751    -9122.818   -8142.8357    -9122.818            0    10223.939    24.841186    24.995282    22.920824    14231.825    11100.799    9781.4533    9789.5637    245.80528   -172.61607     549.0461     -6020.79 
 1453000    249.88529   -9138.3647    -8185.688   -9138.3647            0    8445.2828    24.939477    25.001199    22.928062    14296.032    7254.4587    7707.4512    10373.939    409.63633   -19.482804   -1377.1995    -6424.906 
 1454000     260.9114   -9122.0546   -8127.3414   -9122.0546            0    7571.3406    25.050196    24.955063    23.010754    14384.695    6704.1614    8713.8863    7295.9742    90.174361   -219.57064    168.46382   -6538.9799 
 1455000    251.23878   -9130.1048    -8172.268   -9130.1048            0    7461.7542    24.980909     24.99473    23.062424    14399.972    7029.7792    7620.9185    7734.5648    122.95011    752.10693    1518.4734   -6605.2338 
 1456000    250.79356   -9187.6294   -8231.4899   -9187.6294            0    6803.7375     24.97551    25.022736    22.989096    14367.164    6037.2735    6859.0578    7514.8813   -122.11786    143.56602   -299.94048   -6805.9004 
 1457000    257.17397   -9113.2329   -8132.7685   -9113.2329            0    7982.7188    24.917008    25.039282    22.969902    14331.013    8056.1531    8251.3427    7640.6605    352.83043   -110.72604    99.805335   -6464.3553 
 1458000    263.35606   -9134.0895   -8130.0561   -9134.0895            0    8098.0124    24.985315    25.063009     22.99564    14400.035    7986.1601    6944.2618    9363.6153    -490.5254    812.19545    820.77631   -6429.3946 
 1459000    254.43209   -9070.0446   -8100.0335   -9070.0446            0    8341.7666    24.883186    25.028047    23.102606    14387.784    8331.9737    7755.5357    8937.7902   -732.55735    559.78342    464.93365   -6349.6717 
 1460000    262.97732   -9118.5321   -8115.9426   -9118.5321            0    7876.1184    24.816055     25.13442    23.021403    14359.305    9011.8053    7098.7881    7517.7617     755.3104    284.58732    124.74305   -6466.5595 
 1461000    259.44673   -9093.2706   -8104.1413   -9093.2706            0    9337.3021    24.883855    25.053157    22.981028    14326.812    10086.575    8647.6887    9277.6422    390.69623   -459.17717    1031.5383    -6153.188 
 1462000    267.69273   -9163.4015   -8142.8347   -9163.4015            0    8692.0519    25.024248    25.115377    22.753139    14300.199    9022.6668     7119.976    9933.5127   -496.48773   -526.60978    346.32722   -6330.0749 
 1463000    256.20302   -9130.7707    -8154.008   -9130.7707            0    8192.7865    24.932137    24.902013    23.102006    14343.121    7696.2885    8601.3132    8280.7577   -249.87192    876.39693    -357.1234   -6440.2433 
 1464000    263.21408   -9107.9263   -8104.4342   -9107.9263            0    9274.1969     24.97162    24.798128     23.10861    14309.993    9240.6667    10146.977    8434.9472    -794.5214    12.162707    -71.60267   -6168.9411 
 1465000    260.64622   -9140.3453    -8146.643   -9140.3453            0    8498.2842    25.010164    24.914181    22.948266    14299.243     7097.585    9121.5123    9275.7553    350.50256   -236.62941     571.3837   -6374.4126 
 1466000    243.61035   -9101.0347   -8172.2809   -9101.0347            0     8700.868    25.093102    24.982258    22.887145    14347.547    6967.0325    9783.9857    9351.5858   -649.68514    -84.02008    381.09071   -6351.6742 
 1467000    258.81985   -9096.5727   -8109.8334   -9096.5727            0    8558.1943    25.023771    24.915447    22.954257    14311.484    8478.4152    8843.6125     8352.555    597.84528    220.64561   -597.47808   -6323.5815 
 1468000    256.43784   -9105.8489   -8128.1909   -9105.8489            0    8835.4546    24.877959    24.860432    23.150915    14318.304    9535.6646    9768.3833     7202.316   -14.009244   -570.66533     783.7469   -6283.1909 
 1469000    251.13215   -9133.6442    -8176.214   -9133.6442            0     8333.115    24.944773    24.969661    23.006512    14329.894    7838.5691    8032.9929    9127.7831   -750.51328   -946.80818    156.12737   -6434.7028 
 1470000    259.35439   -9131.0804   -8142.3031   -9131.0804            0     8585.845    24.951445    25.103584    22.860194    14318.956    9013.8219    6659.1017    10084.611    843.69034   -536.84069   -718.96067   -6349.3445 
 1471000    252.43809   -9101.5794   -8139.1703   -9101.5794            0    9207.5426    24.860427    24.983144    23.021121    14298.225    9845.8809    8558.0506    9218.6963   -406.71854    440.77312    20.673647   -6219.1679 
 1472000    254.93414   -9129.3926   -8157.4674   -9129.3926            0    10040.521    24.909813    24.899358     22.95679    14238.681     10420.01    9947.3977    9754.1567    177.33622    601.60847   -749.94708   -6072.4873 
 1473000    261.62821   -9142.6398   -8145.1937   -9142.6398            0    8552.6616    24.939893    24.983727    23.000189    14331.222    9657.3704    8026.9066    7973.7077   -217.31619    501.22608   -551.73479   -6357.6347 
 1474000    265.59492   -9077.3691   -8064.8001   -9077.3691            0    9633.2625    24.831645    25.061031    22.971602     14295.38    10240.673    7702.3362    10956.779   -828.22035   -1228.1891    419.92779   -6056.4243 
 1475000    254.93266   -9124.1291   -8152.2095   -9124.1291            0    7726.0169    24.954268     25.10869    22.924173    14363.576    7365.0637    6660.5629     9152.424   -701.42106   -687.13763     516.8098   -6533.7787 
 1476000     264.3292   -9142.3233   -8134.5799   -9142.3233            0    8372.9603    24.784888    25.084043    23.014574     14308.28    9155.6081    8308.0924    7655.1802    108.44052   -940.01371   -94.921357   -6387.3809 
 1477000    262.06165   -9122.4571   -8123.3585   -9122.4571            0    7363.4937    24.935766    25.015195     23.08857    14402.028    8371.9207    7065.8236    6652.7367   -652.98381    297.36026   -404.56086   -6576.7391 
 1478000    254.72495   -9081.2723   -8110.1446   -9081.2723            0    7437.6493    25.086114    25.076941     22.90507     14409.19    7720.5549    6427.5029      8164.89   -2.2014567    -761.6878   -307.23716   -6547.1728 
 1479000    258.40643   -9135.5396   -8150.3765   -9135.5396            0    8856.6591    24.889338    24.977548    23.009851     14304.64    8671.9253    8459.9187    9438.1333  -0.23618543   -593.72284      539.565   -6302.7135 
 1480000    259.51463   -9108.9219   -8119.5338   -9108.9219            0    8577.1129    24.902167    24.923076     23.07637    14322.086    9738.2892     8660.107    7332.9423   -5.0401666   -921.20158    583.10899    -6328.007 
 1481000    263.91981    -9103.471   -8097.2883    -9103.471            0    8677.3343    24.974266    25.091254    22.864715    14327.845    9577.5335    7195.0215    9259.4479    554.62156    1095.9713    43.750604   -6284.0992 
 1482000    263.12674   -9119.5532    -8116.394   -9119.5532            0    8611.4138    24.890024    24.894526    23.122349    14327.194    8251.7477    8928.5269    8653.9669    640.44429    33.102395     104.0858   -6317.0613 
 1483000    263.82894   -9106.5582    -8100.722   -9106.5582            0    8570.5673    24.999399    25.018341    22.912354    14330.383    8054.8939    8099.1675    9557.6405   -218.65998   -15.488418    804.86038   -6309.5254 
 1484000    267.25662    -9129.646   -8110.7419    -9129.646            0    8364.5397     25.03427     25.02243    22.904434    14347.756     8298.687    8251.8726    8543.0595    164.53646    199.35069     609.5018   -6360.4845 
 1485000    256.95697   -9150.4379   -8170.8007   -9150.4379            0    6399.0237    24.929824    24.910192    23.223544    14421.977    8396.1309    5682.1066    5118.8337    46.018718    789.75914    451.88003   -6824.8958 
 1486000    271.50924   -9145.2662   -8110.1492   -9145.2662            0    8880.6051    24.955743    25.055702     22.85824    14292.884    10063.786    7688.2999    8889.7297   -88.330498    851.84631    701.77009   -6259.0132 
 1487000    264.09902   -9156.9845   -8150.1186   -9156.9845            0    8680.4324    24.968795    24.883403    23.047441    14319.573    7518.5595    10474.933    8047.8043    280.85924    169.97857   -69.485236   -6337.3294 
 1488000    264.97075     -9078.26   -8068.0706     -9078.26            0    8129.3047    24.784596    25.059081    23.134811     14368.55     9697.671     7766.854    6923.3893    364.98177   -1153.6943   -582.80398   -6364.5703 
 1489000    263.51638   -9134.5815   -8129.9369   -9134.5815            0    7721.3133    25.007645     25.13134     22.87245    14374.778    7758.1816    6909.4203    8496.3378   -178.66406   -314.90803   -70.882548   -6511.2301 
 1490000    266.55984   -9115.5718   -8099.3242   -9115.5718            0    8411.9907    24.944344    24.983608    23.037767     14357.13    7765.1886    8586.1285    8884.6549   -526.12728   -327.71383    311.36562   -6337.9878 
 1491000    258.65245   -9110.0674   -8123.9663   -9110.0674            0    7647.9247    24.875334    24.979209    23.200983    14416.306      7656.92    7931.4869    7355.3673    28.194214   -657.58728    139.02848   -6516.0128 
 1492000    256.43894   -9072.5492    -8094.887   -9072.5492            0    8619.4866    24.975107    25.116261    22.875685    14349.489    8866.0647    7530.0079    9462.3871   -220.09375   -128.97073    862.16349   -6291.0648 
 1493000     266.6992   -9154.1389   -8137.3599   -9154.1389            0    8783.5319    24.907641    25.022945    22.932165    14292.759    9250.2138    8358.3824    8741.9996    93.050526   -179.56083    464.78413   -6306.4746 
 1494000    254.07007   -9130.2514   -8161.6205   -9130.2514            0    8565.3624    24.989906    24.934118    22.994296    14327.775    7136.3886    9504.7201    9054.9785    -302.3459    237.02188    548.75659   -6371.8374 
 1495000    262.03847   -9120.4296   -8121.4194   -9120.4296            0    7506.3036    25.019942    24.869456    23.119328    14385.593    6720.4023    8797.9485    7000.5601   -215.57351    573.82535    145.95031   -6546.6035 
 1496000    259.87157   -9132.3205   -8141.5716   -9132.3205            0    8055.0438    24.999797    24.950399    22.990899    14340.686    7717.0753    8826.5378    7621.5185   -105.08041   -115.93067   -600.20675    -6456.906 
 1497000    263.84819    -9073.229   -8067.3194    -9073.229            0    7517.0127    25.067637    24.901402    23.079768    14406.837    6860.2285    8053.2922    7637.5175   -266.42653    45.657429    341.35975   -6487.9278 
 1498000    249.79203   -9123.0475   -8170.7264   -9123.0475            0    7978.3232    24.960913    24.907404    23.108152    14366.605    8553.3819     7641.186    7740.4016    208.12952   -467.61251   -261.89728   -6499.0906 
 1499000    253.09008   -9152.6829   -8187.7881   -9152.6829            0    8756.8144    24.982946    24.959394    22.893553    14275.486    7579.5727    8570.5467    10120.324    362.32783     72.85707    1987.9176   -6364.6778 
 1500000    260.62817   -9094.9225   -8101.2891   -9094.9225            0    8698.3365    25.038904    24.965445    22.947036    14344.361    7235.2827    9080.0032    9779.7236    921.84932    144.42243    294.64446   -6281.6163 
Loop time of 607.21 on 64 procs for 250000 steps with 1920 atoms

Performance: 71.145 ns/day, 0.337 hours/ns, 411.719 timesteps/s
193.9% CPU use with 32 MPI tasks x 2 OpenMP threads

MPI task timing breakdown:
Section |  min time  |  avg time  |  max time  |%varavg| %total
---------------------------------------------------------------
Pair    | 72.179     | 76.756     | 88.451     |  33.6 | 12.64
Bond    | 0.79413    | 1.1021     | 1.9145     |  20.3 |  0.18
Kspace  | 282.19     | 293.26     | 305.42     |  32.4 | 48.30
Neigh   | 5.6233     | 6.2011     | 6.8304     |  14.8 |  1.02
Comm    | 92.856     | 100.64     | 109.23     |  47.0 | 16.57
Output  | 0.73395    | 0.73428    | 0.73641    |   0.0 |  0.12
Modify  | 99.297     | 105.65     | 111.32     |  32.1 | 17.40
Other   |            | 22.86      |            |       |  3.77

Nlocal:        60.0000 ave          63 max          57 min
Histogram: 2 6 0 5 0 7 2 0 9 1
Nghost:        3336.94 ave        3360 max        3308 min
Histogram: 5 0 1 1 2 7 3 7 5 1
Neighs:        21170.5 ave       22141 max       20171 min
Histogram: 2 4 3 3 4 2 5 3 3 3

Total # of neighbors = 677455
Ave neighs/atom = 352.84115
Ave special neighs/atom = 2.0000000
Neighbor list builds = 10690
Dangerous builds = 1

unfix		3
unfix		2
unfix		1

write_data	data.final.${pid}
write_data	data.final.0
System init for write_data ...
PPPM initialization ...
  extracting TIP4P info from pair style
  using 12-bit tables for long-range coulomb (../kspace.cpp:340)
  G vector (1/distance) = 0.37430951
  grid = 30 30 30
  stencil order = 5
  estimated absolute RMS force accuracy = 0.003290649
  estimated relative force accuracy = 9.9096919e-06
  using double precision FFTW3
  3d grid and FFT values/proc = 5400 960
Last active /omp style is kspace_style pppm/tip4p/omp
WARNING: Not all mixed pair coeffs generated from mixing. Use write_data with 'pair ij' option to store all pair coeffs. (../write_data.cpp:312)

write_restart   restart.lmp.${pid}
write_restart   restart.lmp.0
System init for write_restart ...
PPPM initialization ...
  extracting TIP4P info from pair style
  using 12-bit tables for long-range coulomb (../kspace.cpp:340)
  G vector (1/distance) = 0.37430951
  grid = 30 30 30
  stencil order = 5
  estimated absolute RMS force accuracy = 0.003290649
  estimated relative force accuracy = 9.9096919e-06
  using double precision FFTW3
  3d grid and FFT values/proc = 5400 960
Last active /omp style is kspace_style pppm/tip4p/omp
Total wall time: 0:10:07
