#include		in.partitions
include		in.temp
variable        temperature equal 125.77
variable	tempDamp equal 100.0
include		in.pressure
variable        pressure equal 8271.4
variable        pressureDamp equal 1000.0 # This is 1 ps
include		in.seed
variable        seed equal 745823

units		real
atom_style	full
read_restart    restart.lmp.${pid}
read_restart    restart.lmp.1
Reading restart file ...
  restart file = 30 Jul 2021, LAMMPS = 30 Jul 2021
  restoring atom style full from restart
  triclinic box = (-3.0575379 -0.14053674 0.053222045) to (14.667537 22.720536 19.176776) with tilt (-0.11389493 -6.4641143 0.045493302)
  2 by 4 by 2 MPI processor grid
  restoring pair style lj/cut/tip4p/long/omp from restart
  restoring bond style harmonic/omp from restart
  restoring angle style harmonic/omp from restart
  1008 atoms
  672 bonds
  336 angles
Finding 1-2 1-3 1-4 neighbors ...
  special bond factors lj:    0        0        0       
  special bond factors coul:  0        0        0       
     2 = max # of 1-2 neighbors
     1 = max # of 1-3 neighbors
     1 = max # of 1-4 neighbors
     2 = max # of special neighbors
  special bonds CPU = 0.001 seconds
  read_restart CPU = 0.006 seconds

include 	in.setup
variable	out_freq equal 1000
variable	out_freq2 equal 10000
variable	out_freq3 equal 1000

timestep	2.0

neigh_modify    delay 7 every 1

include		in.tip4p
# This is TIP4P/Ice

# create groups ###
group ox type 2
336 atoms in group ox
group hy type 1
672 atoms in group hy

# set charges - beside manually ###
set group ox charge -1.1794
Setting atom values ...
  336 settings made for charge
set group hy charge 0.5897
Setting atom values ...
  672 settings made for charge

# ### TIP3P Potential Parameters ###
pair_style lj/cut/tip4p/long/omp 2 1 1 1 0.1577 8.5
pair_coeff 1 1*2 0.000 0.000
pair_coeff 2 2 0.21084 3.1668
bond_style  harmonic
bond_coeff  1 450 0.9572
angle_style harmonic
angle_coeff 1 55 104.52
kspace_style pppm/tip4p/omp 1.0e-5
pair_modify tail yes

thermo          ${out_freq}
thermo          1000
thermo_style    custom step temp pe etotal epair emol press lx ly lz vol pxx pyy pzz pxy pxz pyz enthalpy

restart 	${out_freq3} restart.lmp.${pid} restart2.lmp.${pid}
restart 	1000 restart.lmp.${pid} restart2.lmp.${pid}
restart 	1000 restart.lmp.1 restart2.lmp.${pid}
restart 	1000 restart.lmp.1 restart2.lmp.1


include         in.dump
dump            myDump all atom ${out_freq2} dump.water.${pid}
dump            myDump all atom 10000 dump.water.${pid}
dump            myDump all atom 10000 dump.water.1
dump            myDump2 all dcd ${out_freq2} dump.dcd
dump            myDump2 all dcd 10000 dump.dcd
dump_modify     myDump append yes
dump_modify     myDump2 append yes


variable natoms 	equal  "count(all)"                        # NUMBER ATOMS
variable H      	equal  "enthalpy/v_natoms"                 # ENTHALPY-per-atom
variable Vol      	equal  "vol/v_natoms"                 # volume-per-atom
fix AVG all 		ave/time ${out_freq} 1 ${out_freq} v_Vol v_H file vol_enthalpy.dat
fix AVG all 		ave/time 1000 1 ${out_freq} v_Vol v_H file vol_enthalpy.dat
fix AVG all 		ave/time 1000 1 1000 v_Vol v_H file vol_enthalpy.dat



fix 		1 all shake 1e-6 200 0 b 1 a 1
       0 = # of size 2 clusters
       0 = # of size 3 clusters
       0 = # of size 4 clusters
     336 = # of frozen angles
  find clusters CPU = 0.000 seconds
fix             2 all nph tri ${pressure} ${pressure} ${pressureDamp}
fix             2 all nph tri 8271.4 ${pressure} ${pressureDamp}
fix             2 all nph tri 8271.4 8271.4 ${pressureDamp}
fix             2 all nph tri 8271.4 8271.4 1000
fix             3 all temp/csvr ${temperature} ${temperature} ${tempDamp} ${seed}
fix             3 all temp/csvr 125.77 ${temperature} ${tempDamp} ${seed}
fix             3 all temp/csvr 125.77 125.77 ${tempDamp} ${seed}
fix             3 all temp/csvr 125.77 125.77 100 ${seed}
fix             3 all temp/csvr 125.77 125.77 100 745823


run             250000
PPPM initialization ...
  extracting TIP4P info from pair style
  using 12-bit tables for long-range coulomb (../kspace.cpp:340)
  G vector (1/distance) = 0.37956863
  grid = 24 27 32
  stencil order = 5
  estimated absolute RMS force accuracy = 0.0024370883
  estimated relative force accuracy = 7.3392189e-06
  using double precision FFTW3
  3d grid and FFT values/proc = 7875 1344
Last active /omp style is kspace_style pppm/tip4p/omp
Neighbor list info ...
  update every 1 steps, delay 7 steps, check yes
  max neighbors/atom: 2000, page size: 100000
  master list distance cutoff = 10.8154
  ghost atom cutoff = 10.8154
  binsize = 5.4077, bins = 5 5 4
  1 neighbor lists, perpetual/occasional/extra = 1 0 0
  (1) pair lj/cut/tip4p/long/omp, perpetual
      attributes: half, newton on, omp
      pair build: half/bin/newton/tri/omp
      stencil: half/bin/3d/tri
      bin: standard
Per MPI rank memory allocation (min/avg/max) = 12.45 | 12.47 | 12.48 Mbytes
Step Temp PotEng TotEng E_pair E_mol Press Lx Ly Lz Volume Pxx Pyy Pzz Pxy Pxz Pyz Enthalpy 
27500000    130.99505   -5112.3262     -4850.32   -5112.3262            0    8179.3687    17.725075    22.861072    19.123554     7749.136    8704.5886    8392.0688    7441.4487    337.79591   -199.57477    499.12716   -3925.9433 
27501000    120.86286   -5118.2005   -4876.4598   -5118.2005            0    9012.3215    17.996565    22.412011    19.182187    7736.9282    7912.6125    9759.2675    9365.0843    564.46727   -18.991104    1311.9482   -3859.5531 
27502000    129.04039   -5131.0865   -4872.9897   -5131.0865            0    8907.2966    17.672598    22.992211    19.032619    7733.5645    9304.2499    8357.3526    9060.2873    1301.0383     362.4219    199.19802   -3868.3704 
27503000    121.57257   -5125.1671    -4882.007   -5125.1671            0    7767.7198    17.936452    22.497717    19.300601    7788.3566    6704.5857    8710.8344    7887.7392   -48.849697    818.37386   -491.77562   -3999.7091 
27504000    118.84624   -5135.2742   -4897.5671   -5135.2742            0    8303.1585    17.899364    22.686489    19.078516     7747.284    8148.3907    8260.6543    8500.4304    477.24648    929.50404    625.87445   -3959.4248 
27505000     123.3912    -5120.362   -4873.5643    -5120.362            0    8285.7126    17.837628    22.855285    18.990185    7741.9961    6544.3201    7765.5972     10547.22   -522.23508   -738.86516   -180.14303   -3938.0322 
27506000    125.02419   -5119.3298    -4869.266   -5119.3298            0    8041.6141    17.783633    22.677064    19.218838    7750.5843    9366.8502    7986.4608    6771.5314   -715.87882   -601.76665   -1015.4888   -3960.2876 
27507000    124.69873    -5131.865   -4882.4521    -5131.865            0    7477.3915    17.718418     22.87014    19.199444    7780.0503    8720.7251    6890.8198    6820.6295    264.88531   -269.65004   -191.10202    -4034.037 
27508000    124.73056   -5119.5314   -4870.0549   -5119.5314            0    9684.6589    17.823479    22.660672     19.13725    7729.3824    9357.4978    9841.9393    9854.5396   -571.04167    861.47422   -72.513145   -3778.3506 
27509000    130.73151   -5124.0572   -4862.5781   -5124.0572            0    8506.0058    17.887409    22.692562    19.111335     7757.504    8571.7903    8739.2917    8206.9355   -602.92707    569.31541   -1238.6443   -3900.2491 
27510000    123.55283    -5119.462   -4872.3411    -5119.462            0    7834.2078    17.878673    22.710504    19.120389     7763.522    8218.3776    7088.3348    8195.9111    756.70498   -1167.7732    468.15381   -3985.3285 
27511000    127.55279   -5129.2891   -4874.1678   -5129.2891            0    8396.4581    17.773198    22.759376    19.140868    7742.6131    8861.3849    7949.7127    8378.2767   -672.04615   -515.06536   -121.54721   -3926.0559 
27512000    128.79069   -5113.0026   -4855.4053   -5113.0026            0    8724.1284    17.804182    22.754857    19.154368    7760.0405    7787.4576    9097.9995    9286.9281   -418.79618    203.70845     358.5539   -3868.0763 
27513000    135.08417   -5129.4426   -4859.2576   -5129.4426            0    7996.5972    17.980646    22.613022    19.093774    7763.4663    7722.8513    7931.3322    8335.6083   -123.12208   -86.812818   -463.35777   -3953.8653 
27514000    122.71509   -5121.7385   -4876.2932   -5121.7385            0    9259.6068    17.724537    22.715519    19.224749    7740.3079    9833.5488    9075.0126    8870.2591    855.83287   -29.928821   -243.36153   -3831.0275 
27515000    128.52241   -5133.5804   -4876.5197   -5133.5804            0    7552.6071    17.725868    22.761364    19.247847    7765.8315    8799.8581    6885.8482    6972.1151    242.44398   -323.30788    1334.0196   -4021.1365 
27516000    125.54147   -5123.3664   -4872.2679   -5123.3664            0    7647.6581    17.721198    22.762711    19.219696    7752.8894    7920.1048    7426.7339    7596.1356    405.05498       465.63    614.29824    -4007.563 
27517000    125.70711   -5125.1086   -4873.6789   -5125.1086            0     9354.267    17.862913    22.569773    19.162449    7725.5693    9814.2265    9243.4015    9005.1731    -918.7793   -422.82294    141.35767   -3819.7382 
27518000     126.8973   -5137.3995   -4883.5892   -5137.3995            0    8299.1856    17.721919    22.962672     19.04063    7748.4439     9055.296    7534.8262    8307.4346    1493.7271    90.653228    -323.1945   -3945.7554 
27519000    123.27189   -5123.3892   -4876.8302   -5123.3892            0    7913.4092    17.882254    22.603584    19.252454       7781.9    7203.9843    8044.0227    8492.2207    501.45386   -236.60652   -2.2767081   -3978.7293 
27520000    121.48403   -5118.9559   -4875.9728   -5118.9559            0    8184.5923    17.851188    22.779783    19.087893     7762.019    8622.3723    7671.7003    8259.7044    344.66772    352.83898   -157.38136   -3949.4681 
27521000    123.15276   -5136.8631   -4890.5423   -5136.8631            0    8599.8904    17.833996    22.700848    19.143352    7750.1257    9692.6056    8729.3356    7377.7301   -406.46223    1157.9697   -1320.1472   -3918.5171 
27522000    125.85248   -5124.0514   -4872.3309   -5124.0514            0    8304.0924    17.823168    22.637882    19.171147    7735.1509    8702.7526    7878.9016    8330.6229      487.562   -725.88418    321.40955   -3935.5525 
27523000    125.15712   -5135.7715   -4885.4419   -5135.7715            0    9112.9012    17.709332    22.764476    19.164793    7726.1651    10181.979    8721.1317    8435.5926   -706.84171   -771.22989    1713.5106   -3858.6166 
27524000    132.00163   -5121.4378   -4857.4182   -5121.4378            0    6672.2362    17.889286    22.659682    19.245632    7801.5157    6051.2692    6050.4721    7914.9671   -140.79229   -247.89612    130.59042   -4098.2705 
27525000    128.11959   -5117.2339   -4860.9789   -5117.2339            0    8647.6034     17.72207     22.90477      19.1283    7764.5585    9051.6451    8550.1324    8341.0326   -473.84816    1031.0193   -846.76786   -3881.7405 
27526000    134.48761   -5131.2598    -4862.268   -5131.2598            0    9371.8068    17.917139    22.487543    19.159257    7719.5029    8573.0415    9599.0196    9943.3591   -37.240299   -431.41166    480.47692   -3807.1803 
27527000    129.77558   -5121.2131   -4861.6459   -5121.2131            0    8417.7617    17.734097    22.848089    19.159202    7763.1211    9062.9633     8568.095    7622.2268   -237.79014    146.29789    373.82582   -3908.6108 
27528000    129.02281   -5142.7106   -4884.6491   -5142.7106            0    8779.7258     17.93614    22.571768    19.118577    7740.1635    7842.9688    9196.3727     9299.836   -1172.1552   -33.408396   -1798.9353    -3893.573 
27529000    122.51404   -5118.0968   -4873.0536   -5118.0968            0    7725.7666     17.70113    22.910985    19.153946    7767.8891    7411.7091    8581.0189    7184.5718   -442.79307    351.22024   -504.42041    -3997.827 
27530000    125.99377   -5114.2689   -4862.2658   -5114.2689            0    8586.3641    17.915566    22.426817    19.312663    7759.6178    7561.7014    9166.7315    9030.6594     792.7189    293.57678    1573.2315   -3890.5808 
27531000    128.87388   -5115.3925   -4857.6288   -5115.3925            0    8591.3625    17.792748    22.910404    19.018827    7752.8163     9443.512     7947.716    8382.8594   -97.412564    205.89552   -345.17713   -3886.2303 
27532000    128.73228   -5124.3835   -4866.9031   -5124.3835            0    9359.6402    17.924896    22.585623    19.092778    7729.6146    8079.8988    9932.1247    10066.897   -611.58524     1121.208    -1172.816   -3811.8048 
27533000     124.1679   -5123.3401   -4874.9889   -5123.3401            0    9178.7763    17.857948    22.705388    19.089596    7740.2902    7059.9418    9407.6993    11068.688    1069.0667    706.73645   -666.00318   -3838.8502 
27534000    125.18572   -5140.2481   -4889.8611   -5140.2481            0    7077.9235    17.873283    22.829285    19.075088    7783.2895    7012.2892    6603.0287    7618.4527     99.55975   -140.31815    542.71988   -4086.4369 
27535000    123.24614   -5137.7142   -4891.2067   -5137.7142            0    8008.4074    17.893119    22.613159    19.207514     7771.743     9219.237    7534.7695    7271.2158     691.5341   -396.50722    107.11335   -3983.5105 
27536000    120.30757   -5127.1015   -4886.4715   -5127.1015            0    9167.3982    17.810367    22.745199    19.100265    7737.5242    8722.3216    8881.9725    9897.9006   -863.65772   -242.59236   -1035.9609    -3851.987 
27537000    125.10175   -5120.3805   -4870.1615   -5120.3805            0    8532.6285    17.915946    22.585467     19.13965     7744.668    7153.9749    8734.0848    9709.8258   -719.15159   -138.71814   -480.30511   -3906.4179 
27538000    126.79415   -5135.5936   -4881.9896   -5135.5936            0    7950.2149    17.754261    22.907411    19.092467    7764.9856    8545.2609    7374.6567    7930.7271   -699.67451    -721.0426   -1115.5365   -3981.6727 
27539000    126.34646   -5130.7327   -4878.0242   -5130.7327            0    7816.8903    17.791972    22.705753    19.215339    7762.6148    8718.2421    8012.2765    6720.1523   -507.62897     955.4563    913.79283   -3993.0758 
27540000    125.75452   -5123.2907   -4871.7661   -5123.2907            0    8232.4277    17.825384    22.728982    19.161285    7763.2485    8910.3282    7903.1073    7883.8478    1172.3168    471.28509    310.53777   -3939.6987 
27541000    126.08237   -5130.1724   -4877.9921   -5130.1724            0    7728.6174    17.785809    22.683327    19.260793    7770.5995    9452.5308    6857.7252    6875.5963   -436.82518   -248.47159    1804.3645   -4002.1371 
27542000    132.08325   -5134.6722   -4870.4894   -5134.6722            0    8833.4567    17.822692    22.729857    19.062829    7722.4898    8555.5463    9381.0945    8563.7294   -66.142382    22.380913    950.45593    -3875.625 
27543000    125.73107   -5121.9627    -4870.485   -5121.9627            0    7378.1195     17.96488    22.591155     19.19096     7788.601    6568.0872    8235.1862    7331.0851    992.67372   -7.0146732     1442.868   -4032.4136 
27544000    122.38539   -5134.0119    -4889.226   -5134.0119            0    7988.5428    17.803831    22.805799    19.094076     7752.779     8490.622    6742.2745     8732.732    295.74075   -538.83851      59.4195   -3985.9907 
27545000     123.9934    -5141.865   -4893.8629    -5141.865            0     7036.393    17.966955     22.66421     19.10804    7780.9246    6930.4407    6933.1816    7245.5566    -511.3799   -222.38037   -869.72779   -4095.3955 
27546000    120.26332   -5126.3007   -4885.7592   -5126.3007            0    8137.1891    17.754198    22.822111    19.133106      7752.51    8536.5272    7818.8059    8056.2342   -1903.1178    317.04411    328.31456    -3965.749 
27547000    129.47293   -5133.8898   -4874.9279   -5133.8898            0    9467.3401    17.765002     22.63252    19.230079    7731.7757    10355.053    9708.0632    8338.9044    -799.6502   -255.28889     -589.374   -3807.3905 
27548000    128.71115   -5140.4638   -4883.0256   -5140.4638            0    8863.2732    17.842457    22.719876    19.075016    7732.5996    6953.4464    10311.061    9325.3121   -15.653498    1502.4502    758.40647   -3883.4963 
27549000    127.97844    -5122.142   -4866.1693    -5122.142            0    8868.7706    17.749976    22.745585    19.186774    7746.3454    9464.0394    8547.8913     8594.381   -191.22486   -358.88253   -698.82901   -3864.2421 
27550000    125.68133   -5139.8435   -4888.4653   -5139.8435            0    7380.5683    17.929235    22.655624    19.140275    7774.7416    6418.5491    7576.8782    8146.2775    -272.3315    87.047108    855.45482   -4051.6075 
27551000    132.81867    -5111.546   -4845.8923    -5111.546            0    8127.7216    17.852383    22.781342    19.096662    7766.6364    7922.5852    7796.9459    8663.6338   -64.794764   -883.32428   -502.50863    -3925.278 
27552000     125.0892    -5132.638   -4882.4442    -5132.638            0    8236.6889    17.888272    22.647649    19.107959    7741.1561    9533.8497    7089.0212    8087.1956     17.67218   -395.06177   -178.31141   -3952.5482 
27553000    124.54052   -5141.9334   -4892.8369   -5141.9334            0    9579.2428    17.741707    22.729814     19.14207    7719.3403    10173.232     9574.775     8989.721   -731.05485    574.18773    323.33987   -3814.4186 
27554000    132.52386   -5126.2467   -4861.1826   -5126.2467            0    8436.0203    17.964618    22.560869    19.195042    7779.7009    8119.2257    8658.5739    8530.2614    1116.3961   -552.85484    1147.1461   -3904.0405 
27555000    131.65164   -5127.9042   -4864.5846   -5127.9042            0    8682.0518    17.704238     22.89992    19.078328    7734.8431    10096.945     7315.122    8634.0886   -302.49422    361.54444    -468.5117   -3885.2079 
27556000    131.03382   -5115.1769   -4853.0931   -5115.1769            0    8714.4109    17.831759    22.622153    19.190701    7741.3903    9105.7276    8516.5436    8520.9616   -1078.0243   -437.86781    810.31902    -3869.234 
27557000    120.93161   -5130.9994   -4889.1212   -5130.9994            0    8820.9857    17.764874    22.798749     19.11386    7741.4364    9393.6448    7907.4494    9161.8631      518.208    870.32628    140.92686   -3893.2239 
27558000    130.70217   -5137.2724   -4875.8519   -5137.2724            0     7145.787    17.821516    22.665084    19.227695    7766.5688    8179.4434    6419.9884    6837.9292   -4.2198816   -19.978944    867.78027   -4066.4669 
27559000    128.47433   -5130.5583   -4873.5937   -5130.5583            0    8802.5525    17.802654    22.737765    19.096437    7730.0953    8821.6215    9015.6918    8570.3441    611.14991    104.40581    421.16044   -3881.2335 
27560000    124.38468   -5132.5155   -4883.7308   -5132.5155            0    6955.5307    17.885976    22.752934     19.18013    7805.5157     5909.433    7475.7205    7481.4385    1.3099963    1020.7328    181.25058   -4091.9449 
27561000    127.64034   -5121.1297   -4865.8333   -5121.1297            0    8152.6926    17.882803    22.634079    19.237926     7786.758    8338.7074    8502.8575     7616.513   -46.212564    1079.2834     844.4252   -3939.9982 
27562000    131.02884   -5109.8694   -4847.7955   -5109.8694            0    8800.8919    17.722691    22.761741    19.184023    7738.8216    9701.8004    8697.9615    8002.9139   -983.72016    8.3515575   -1653.9292   -3854.5025 
27563000    135.55544   -5132.7305   -4861.6029   -5132.7305            0    8732.1989    17.877305    22.620835    19.163099    7749.5493    8534.4036    8626.7371    9035.4559   -331.71941    159.36662   -568.91745   -3874.6965 
27564000    130.39606   -5142.9313   -4882.1231   -5142.9313            0     7738.332    17.762296    22.852066    19.100493    7752.9892    6969.8605    7697.8361    8547.2992    1352.2164   -1249.7876   -398.37295   -4007.1546 
27565000    121.21727   -5128.3659   -4885.9163   -5128.3659            0    7988.2407    17.860364    22.613742    19.208956    7758.2988    7567.3813    8577.8363    7819.5046   -349.31946    182.23374    1717.4979   -3982.0722 
27566000    128.25497   -5116.9488    -4860.423   -5116.9488            0    8191.5816    17.723646     22.86238    19.159579    7763.5523    8441.0856    8091.0257    8042.6335    490.18904    116.75084      31.9244   -3932.9439 
27567000    126.59657   -5140.0385   -4886.8298   -5140.0385            0    6950.8674     17.86616    22.644051    19.247518    7786.8192     5953.568    7555.2972    7343.7372   -728.11462    60.301982   -82.797779     -4097.47 
27568000    124.86249    -5123.101   -4873.3606    -5123.101            0    7928.6177    17.821617    22.898513    19.037692    7769.0636    6433.8776    8258.4848    9093.4909   -46.738067    83.382372    699.30679   -3975.0179 
27569000    123.00839   -5135.9703   -4889.9383   -5135.9703            0    9293.2316     17.92792    22.495652    19.166361    7729.7982    8795.0003    9775.9378    9308.7566   -85.568801    414.94494    438.27753   -3842.3014 
27570000    123.63488   -5119.9676   -4872.6825   -5119.9676            0    7685.6065    17.782931    22.985701    19.008146    7769.6391    6438.9947    7495.0694    9122.7552    720.66829    752.16705   -19.427138   -4001.8094 
27571000    129.00393   -5129.7877   -4871.7639   -5129.7877            0    9036.5307    17.981306    22.387978    19.228056    7740.5442    9042.5793    9302.0571    8764.9558   -948.44203    273.26243   -1351.7167    -3851.649 
27572000     132.9251   -5116.5383   -4850.6717   -5116.5383            0     7872.884    17.812353    22.859918     19.05847     7760.398    7344.8055    7314.2424    8959.6042    293.42391   -999.31342    47.087845   -3959.6388 
27573000    121.00634    -5141.172   -4899.1443    -5141.172            0    6354.3625    17.863203    22.647349     19.24204    7784.4481    6921.6702    6542.9963    5598.4209    568.96397   -349.58827    753.84305   -4177.7451 
27574000    122.73358    -5139.503   -4894.0206    -5139.503            0    8487.3643    17.671843     22.81944    19.192525    7739.6077    8656.5185     8831.287    7974.2873    -83.94183   -316.25522    1587.3683   -3936.0159 
27575000    122.14584   -5129.0784   -4884.7717   -5129.0784            0     8172.015    17.870107    22.654446     19.18592    7767.1776    7349.2207     8958.166    8208.6584   -1366.9999    556.93499   -643.76981   -3959.0759 
27576000    127.88047   -5123.9719   -4868.1952   -5123.9719            0     8850.075    17.812726    22.739571    19.083015    7729.6467    7363.0057    9105.9505    10081.269   -3.8963241   -249.98811   -294.69946   -3870.5353 
27577000    123.98728   -5147.3651   -4899.3752   -5147.3651            0    6880.6347    17.812095     22.77763    19.141741    7766.1354    7617.5058    6471.8179    6552.5803     840.9631   -468.37627    220.27178   -4120.0668 
27578000    130.10636   -5114.1693   -4853.9405   -5114.1693            0    7384.0062    17.960442    22.616404    19.168086    7786.0882     6421.935    6877.9231    8852.1604    336.73441   -327.85768    470.25019    -4015.471 
27579000    120.25326   -5120.2887   -4879.7674   -5120.2887            0    8554.2138    17.781518    22.761603    19.122671    7739.6306    8355.6963    8839.4277    8467.5174    277.78636   -1044.0461   -1088.5166   -3914.2141 
27580000    127.86425   -5114.9503    -4859.206   -5114.9503            0    8944.2998    17.900236    22.646183    19.113465    7748.0637    7009.6308    9041.9319    10781.337    -62.18418   -212.09908    1142.9568    -3848.522 
27581000    130.15156   -5127.5471   -4867.2279   -5127.5471            0    8650.5623    17.753018     22.74549    19.141037    7729.1716    9122.7523    8487.3224    8341.6122      786.335    -87.98449    400.01834   -3892.1188 
27582000    127.10461   -5141.5946   -4887.3697   -5141.5946            0    8755.7653    17.753786    22.751207    19.132266    7727.9062    9422.2774    8398.8613     8446.157     283.6682   -401.79322    1140.5706   -3900.5636 
27583000    128.89106   -5123.6844   -4865.8863   -5123.6844            0    8641.0491    17.880508    22.771452    18.973936    7725.5249     8467.727     8029.273    9426.1472    277.79343   -302.62457   -917.32777   -3892.3092 
27584000    126.18853    -5112.989   -4860.5963    -5112.989            0    8469.4905    17.962377    22.560866     19.13749    7755.4061    7569.0439    9300.7232    8538.7044   -919.72867    10.620999    230.95887   -3902.6576 
27585000    124.21422   -5137.0253   -4888.5816   -5137.0253            0    8020.1298    17.838065     22.76338    19.104516    7757.4776    8444.8141    7918.3903    7697.1849     212.2596    720.24197    397.39719   -3981.2253 
27586000    118.68132   -5117.2589   -4879.8816   -5117.2589            0    9371.0182    17.821076    22.734592     19.05493    7720.1979      9552.94    9848.5775    8711.5372    1122.8702    869.00137   -438.68339   -3824.7877 
27587000     124.4216   -5128.0427   -4879.1841   -5128.0427            0    9012.4214    17.856114    22.713407    19.055008    7728.2001    7555.8969    9764.2434    9717.1241   -479.25713   -232.63492    1377.3616   -3863.4133 
27588000    125.71889   -5122.9911   -4871.5377   -5122.9911            0    8823.1446    17.756439    22.753932    19.126645    7727.7155    8975.0676    9008.9661       8485.4    123.53165    531.28876    91.660664   -3877.1623 
27589000    117.57097   -5131.9949   -4896.8384   -5131.9949            0    9003.6732    17.833969    22.650959    19.120197    7723.7275    8328.0484    8926.3038    9756.6673   -330.00048    88.721642   -356.15871   -3882.6409 
27590000    121.87328   -5121.0924   -4877.3308   -5121.0924            0    9404.7468    17.673636    22.812411    19.161208    7725.3821    10706.159    8988.4064    8519.6752    83.347214   -236.85735    1057.8487   -3817.7283 
27591000    123.26407   -5130.2112   -4883.6678   -5130.2112            0    7758.7771    17.799679     22.87719    19.053409    7758.6748    7932.9661    7011.1391     8332.226    231.04468   -469.31996   -42.368911   -4005.7442 
27592000     126.1343   -5127.2528   -4874.9686   -5127.2528            0    10146.088     17.81539     22.68287    19.059826    7702.1549    10723.185    9768.2288    9946.8507    251.59298   -622.06072   -863.50275   -3735.2785 
27593000    129.70927   -5129.3683   -4869.9338   -5129.3683            0    7462.7152     17.87067     22.84423     19.05524    7779.1438    7944.5098    7127.2076    7316.4283   -76.593053    1072.0585    -163.2296   -4023.2825 
27594000    132.91044   -5143.7333    -4877.896   -5143.7333            0    9170.5503    17.856542    22.643029    19.162535    7747.9151    8612.8108    9794.2854    9104.5548   -487.43394    1034.8868   -645.29856    -3841.666 
27595000    119.46706   -5130.5158   -4891.5669   -5130.5158            0    8879.7113    17.787074    22.636768    19.184884    7724.6374    7820.6683    9113.7197    9704.7458   -30.981758    149.73092   -1498.2783   -3891.2149 
27596000    128.50362   -5125.6946   -4868.6715   -5125.6946            0    8075.2451    17.745339     22.79394    19.139616    7741.7103    7151.5952     8599.506    8474.6343   -2237.7841   -71.975432   -542.98741   -3956.9368 
27597000    129.17274    -5138.375   -4880.0136    -5138.375            0     8072.093    17.820855    22.615949    19.205757    7740.6024     8057.283     8448.685    7710.3109   -450.70171   -634.29126   -90.034207   -3968.7651 
27598000    126.76458   -5126.2077   -4872.6628   -5126.2077            0    8593.9526    17.860359    22.635254    19.111284    7726.1908    9043.8649    8017.5087    8720.4841   -235.64609   -1057.2798   -376.85555   -3904.3086 
27599000     126.7104   -5129.4363   -4875.9998   -5129.4363            0    8680.8796    17.684305    22.873631    19.099566     7725.856    10463.732    7510.6418    8068.2651     -434.243    61.789982    396.72549   -3897.8932 
27600000    127.65121   -5131.2085   -4875.8903   -5131.2085            0    9003.4497    17.947115    22.519414     19.14139    7736.1557    9089.6072    8957.5466    8963.1953   -29.953905   -146.79267    1223.0568    -3860.086 
27601000    127.23327   -5151.6963    -4897.214   -5151.6963            0    8081.7461    17.795704    22.812366    19.060281    7737.7521    6563.5542    8008.1866    9673.4976    768.23957   -503.13714   -78.734717   -3985.2118 
27602000    120.47251   -5112.9243   -4871.9645   -5112.9243            0    8629.4158     17.80334    22.511125    19.346548     7753.578    7196.3163    9338.4596    9353.4715   -214.73981    -517.8139    1126.1378   -3896.1675 
27603000    130.55051   -5132.0912    -4870.974   -5132.0912            0    5937.2981    17.784395    22.886139    19.154657    7796.2546    5485.9919    5477.1553     6848.747   -350.06106   -565.88106    679.25779    -4195.901 
27604000    126.95264   -5124.1809   -4870.2599   -5124.1809            0    7431.1982    17.894072    22.577306      19.2276    7767.9491    6495.2294    8618.6128    7179.7524   -614.43147    444.22777    461.93812   -4028.3975 
27605000    132.71865   -5123.5279   -4858.0743   -5123.5279            0    7481.1111    17.788279    22.846664    19.155443    7784.8266    7023.7717    7620.8437     7798.718    1285.3883    346.54097    723.55692   -4008.7159 
27606000    124.56394    -5142.796   -4893.6528    -5142.796            0    8347.7401    18.034802    22.421586    19.183547    7757.2292    8540.8446    9256.0677    7246.3079    251.39357    133.48762   -1140.7062   -3949.2627 
27607000     129.5985   -5131.2927   -4872.0797   -5131.2927            0    7740.5906    17.786697    22.795376    19.140035    7760.4126    7527.9387    7962.8235    7731.0094   -611.21274    803.41434   -401.68953   -3996.0178 
27608000    127.33458   -5126.9118   -4872.2269   -5126.9118            0     6396.098    17.912835    22.785298    19.098796      7795.16    4948.3141    6965.2929    7274.6872     632.7438   -345.06659    660.84718   -4145.0903 
27609000    127.96526   -5139.1091   -4883.1627   -5139.1091            0    7877.6243     17.86465    22.586606    19.263569    7772.8852    7750.2255    8745.4102     7137.237    -247.4621    64.868565     524.2056   -3990.1587 
27610000    124.40499   -5107.5169   -4858.6915   -5107.5169            0    10062.752    17.806405    22.868436    18.963868    7722.1747    10101.941    9632.3432     10453.97   -553.30107   -134.10707   -829.01734   -3725.4245 
27611000    129.96171   -5117.5545    -4857.615   -5117.5545            0    8151.6088    18.032585    22.510282    19.134015    7766.8522    7627.4558    9101.4358    7725.9347   -688.67875    1074.0115    169.77049   -3934.2694 
27612000    124.67342   -5121.7282    -4872.366   -5121.7282            0    7755.6599    17.760388    22.866479    19.125077    7767.0292    7647.6194    7087.8243    8531.5361   -105.73523   -590.06515   -93.387112   -3993.8501 
27613000    126.52001   -5139.6183   -4886.5627   -5139.6183            0    7346.7944     17.83964    22.741245    19.169867    7777.1311    8969.2559    6934.4418    6136.6854   -121.59597   -403.04088   -95.393392   -4053.2784 
27614000    130.49029   -5131.0945   -4870.0978   -5131.0945            0    7475.0847    17.909111    22.785991    19.047774    7772.9557    7226.2672    7965.1442    7233.8425   -207.02525   -30.108035   -461.37634   -4022.7178 
27615000    125.20725    -5130.663    -4880.233    -5130.663            0    7256.5576    17.738968    22.789864    19.271698    7790.9439    7722.6194     7172.845    6874.2085   -118.21624   -209.60945    -995.8311   -4055.7217 
27616000    119.68292   -5133.0815   -4893.7009   -5133.0815            0    8597.4044    17.963959    22.588117    19.166746    7777.3293    6596.8354    9681.9487    9513.4292   -547.84779    273.40167   -987.37271   -3918.5457 
27617000    121.19209   -5135.2666   -4892.8674   -5135.2666            0    8585.7286    17.821736     22.68712    19.167105    7749.7182    7723.8676    9434.7896    8598.5286    902.68864    1291.9723   -29.767558   -3922.4938 
27618000    123.33629    -5134.184   -4887.4962    -5134.184            0    7888.7595    17.942643    22.708881     19.06708    7769.0215    7574.6019    7696.4367    8395.2398   -301.41415   -307.15266    294.80082   -3993.6744 
27619000    126.67459   -5141.1924   -4887.8275   -5141.1924            0    8256.4764    17.779755    22.882287    19.042202    7747.1571    8424.3953    8148.7637    8196.2702     -171.519    462.51646      280.356    -3954.975 
27620000    124.36935   -5124.8094   -4876.0553   -5124.8094            0    8689.5888    17.897932    22.461265     19.23535    7732.8066    8492.9124    9726.9288    7848.9253    11.241916   -46.947838    1124.9984   -3896.0865 
27621000    122.90316    -5127.094   -4881.2725    -5127.094            0    9757.2938    17.676166    22.768829    19.156584    7709.8663    9063.2855    10209.639    9998.9573    788.85916    1099.4311    47.547534   -3784.1576 
27622000    134.16461   -5129.0526   -4860.7068   -5129.0526            0     9309.797    17.931361    22.526858    19.155955    7737.8033    8411.3643    9322.0071     10196.02   -1561.2161   -1046.9647   -1352.4552   -3810.1155 
27623000    125.89392   -5126.1591   -4874.3557   -5126.1591            0    9006.1258    17.747492    22.864628    19.046049    7728.6926     9931.589    7659.5916    9427.1967    337.45728   -64.545247    2300.2711   -3859.2297 
27624000    124.96455   -5121.3485   -4871.4039   -5121.3485            0    9072.8348    17.894351    22.491291    19.242278    7744.3833    9745.8107    9486.0171    7986.6765   -339.18626    557.96897    464.99369   -3846.6827 
27625000    129.52348   -5121.6585   -4862.5956   -5121.6585            0    8333.7253    17.796404    22.828524    19.068742    7746.9744    9111.8606    7395.1056    8494.2096   -86.961197    218.75279   -1034.4187   -3921.0373 
27626000    121.22498   -5128.5653   -4886.1004   -5128.5653            0    7908.7974    17.820079    22.813602    19.089012    7760.4506    8647.1552    7122.0043    7957.2326    570.10178   -327.63903    -457.9435   -3990.9968 
27627000    119.55901   -5125.0729   -4885.9401   -5125.0729            0    7988.0378    17.864915    22.544204    19.260961    7757.3575    7430.1151    8805.1446    7728.8536    261.45841   -207.76671    82.054215   -3982.2286 
27628000     125.9654    -5135.625   -4883.6787    -5135.625            0    8722.1015    17.670565    22.925221    19.077319    7728.2524    9586.1316    8236.7136    8343.4593   -17.433193    85.719301      314.776   -3900.6225 
27629000     128.8646   -5113.0574   -4855.3123   -5113.0574            0    8107.9065    17.991446    22.580984    19.126748    7770.5199    7524.4677    8590.8755    8208.3764    534.47123   -225.91701    411.77971   -3936.4833 
27630000    116.95004   -5125.4476   -4891.5331   -5125.4476            0    8947.3961    17.744093    22.829441    19.070558    7725.2485    9210.0086     8850.192    8781.9879    262.64593    709.26307    1004.7347   -3883.4763 
27631000    120.19462   -5137.1436   -4896.7395   -5137.1436            0    8170.8543    17.899903    22.401515    19.345992    7757.4514    7159.1052    9195.3431    8158.1146    263.49138    483.52071   -1214.3904   -3972.3343 
27632000    132.47032   -5119.3643   -4854.4073   -5119.3643            0    9917.5259    17.687717    22.852253    19.054596    7701.9477    10192.556    10109.307    9450.7153   -35.630364    1599.4193    54.873678   -3740.4211 
27633000    125.56941   -5124.2524   -4873.0981   -5124.2524            0     6210.604     17.92113    22.446218    19.425284    7814.0456    5637.7968    7515.2078    5478.8074     1208.708   -295.61996    603.89775   -4165.3387 
27634000    120.38204   -5123.7485   -4882.9696   -5123.7485            0    9467.0987    17.801292    22.686171    19.103418    7714.7847    10362.515    8864.3173    9174.4643   -1267.8231   -254.82521   -894.36318   -3817.8053 
27635000    122.17998   -5124.5338   -4880.1588   -5124.5338            0    8683.3628     17.80448     22.76876    19.063738    7728.1712    8745.0712    8736.1879    8568.8294    -1444.767    -490.6746   -1415.1464   -3901.4791 
27636000    129.34696   -5121.6842   -4862.9743   -5121.6842            0    8760.8828    17.728946    22.628282    19.250766    7722.9376    9494.2371    9560.5524    7227.8589    89.887734    374.61963   -182.11044   -3876.2263 
27637000    120.14597   -5122.3605   -4882.0537   -5122.3605            0    8211.1338    17.850155    22.701447    19.140277    7756.1064    8348.4944    8253.2611    8031.6458   -167.07981   -599.95327    523.68574   -3953.2525 
27638000    122.92261   -5124.5829   -4878.7225   -5124.5829            0    9055.6573    17.861713    22.751484    19.067137    7748.5125    8466.0894    8790.9361    9909.9465   -306.86072     60.15174    362.59769    -3855.396 
27639000    121.59577   -5130.5966     -4887.39   -5130.5966            0    8389.7944    17.857366     22.66997     19.08989    7728.0826    6824.6852     9111.799    9232.8991    523.51177    15.871071    470.45667   -3941.8085 
27640000    124.32231   -5114.0303   -4865.3703   -5114.0303            0     9163.302    17.763372    22.802767    19.088037    7731.6861    10459.621    8676.6194    8353.6657    36.343448    156.08566   -663.95423   -3832.1282 
27641000    121.68701   -5127.7672   -4884.3782   -5127.7672            0     7688.213     17.85651    22.708068    19.150836     7765.412    7350.5869    8012.8809    7701.1713    516.60752    253.90143   -1280.3026   -4013.6837 
27642000    127.43988     -5132.13   -4877.2345     -5132.13            0    8182.0531    17.939783    22.607395    19.097501     7745.407    7296.9205    8966.2224    8283.0163    1279.9333    62.171467    1359.4867   -3952.9995 
27643000    124.75208   -5135.3035   -4885.7839   -5135.3035            0    7878.7443     17.88626    22.831493    18.985668    7753.1778    8328.3602    6709.3073    8598.5653    618.90127   -459.83304    574.07406   -3994.9174 
27644000    127.43416   -5136.2648   -4881.3807   -5136.2648            0    7366.3885    17.850254    22.707544    19.163495    7767.6436    8300.6594    6783.7618    7014.7444   -243.09956   -949.42163    -228.0442   -4046.8933 
27645000    122.06712   -5123.9789   -4879.8296   -5123.9789            0    8152.2585    17.764183    22.706865    19.227181    7755.6471    7543.5434     9226.231     7687.001   -306.97833    584.32271    1184.0382   -3957.7426 
27646000    127.54762   -5137.7829   -4882.6719   -5137.7829            0     8438.413    17.793536    22.601792    19.298179    7761.0677    9386.9451    9018.9571    6909.3369    451.00661    1274.5113   -532.21641   -3927.5514 
27647000    126.32108   -5148.3806   -4895.7228   -5148.3806            0    8366.8642    17.772401    22.695268    19.195838    7742.6296    9933.6958    8264.4634    6902.4335   -111.06433   -163.16337    212.52715   -3950.9507 
27648000    124.42602   -5128.7285    -4879.861   -5128.7285            0    8277.7426    17.759694    22.675528    19.227239    7743.0098    8003.9964     8207.613    8621.6183   -1037.3486   -180.38205     1609.791   -3945.1064 
27649000    129.29258   -5122.6767   -4864.0756   -5122.6767            0    8019.3046    17.776102    22.782374    19.172151    7764.3725    8012.3351    8139.4859    7906.0929    81.104367   -399.96842   -357.82035   -3956.0063 
27650000    121.44382   -5126.9272   -4884.0246   -5126.9272            0    9802.2432    17.794473     22.58398    19.216274    7722.4446    10587.631    9528.9334    9290.1652    468.31387    103.22423    436.62974   -3780.0574 
27651000    126.97966   -5112.3655   -4858.3905   -5112.3655            0    7790.8606    17.873643    22.794736      19.0606    7765.7646    7063.5316    7797.1989    8511.8514    442.57586    967.97308    1332.2756    -3976.031 
27652000    126.47501   -5127.4379   -4874.4723   -5127.4379            0    8831.9236     17.86871    22.565274    19.239856    7757.7471    8640.0158     9206.794     8648.961   -381.97916    617.89464   -382.38745   -3875.2392 
27653000    128.96998   -5131.4057   -4873.4498   -5131.4057            0    7144.1899    17.802694    22.842986    19.136237    7782.0701    7089.5518    7289.2177    7053.8002    865.31908   -577.52466    217.46283   -4062.6306 
27654000    123.75283   -5131.5768   -4884.0559   -5131.5768            0     7083.229    17.911287    22.732081    19.115224    7782.9704    7204.4542    6464.6854    7580.5474   -314.16681   -469.83949   -341.01284   -4080.0623 
27655000    121.22576   -5127.7316   -4885.2651   -5127.7316            0    7922.8319    17.831692    22.826086    19.068902    7761.5723    7141.6764    8179.0935    8447.7259   -1103.9601    970.46905    -1.685897   -3988.4435 
27656000    128.02129   -5150.9377   -4894.8793   -5150.9377            0    7749.7057    17.915522    22.549916    19.230495    7768.9954    7955.3357    8003.1723     7290.609    593.13639     86.10638    1019.2286   -4016.8157 
27657000    129.09129   -5135.5992   -4877.4007   -5135.5992            0    8505.7557     17.82419    22.862942    19.007502    7745.8118    8440.1673    8060.9439     9016.156    697.53693    717.45049    1242.9565   -3916.5504 
27658000    123.79994   -5136.5829   -4888.9678   -5136.5829            0    8923.3273    17.828444    22.680084     19.14513     7741.345    8467.7521    9611.3723    8690.8575    16.804568    90.361979   -583.82426   -3881.5279 
27659000    124.36312   -5136.5768   -4887.8352   -5136.5768            0    7324.4082    17.776534    22.687688    19.265559    7769.9626    8190.7697    6913.6903    6868.7647   -956.59778   -309.74044   -794.76977   -4057.8557 
27660000    126.37811   -5123.1386   -4870.3668   -5123.1386            0    8797.6168    17.814281    22.782935    19.069811    7739.7044    8063.2602    9136.0845    9193.5057    644.99849    209.99785    169.71393     -3877.33 
27661000    120.22984   -5131.6595    -4891.185   -5131.6595            0    7779.2304    17.811557    22.676746     19.26649    7781.8927    8338.8535    7972.1511    7026.6867    977.49294   -311.09453    703.53297    -4008.313 
27662000    129.65278   -5133.1457   -4873.8241   -5133.1457            0    8946.0778     17.77886    22.709652    19.134714    7725.6738    9716.1976    8433.6424    8688.3934   -112.29251    210.67368   -985.48633   -3865.8603 
27663000     124.5548   -5127.4324   -4878.3074   -5127.4324            0    9431.6774    17.909525    22.634108    19.085065    7736.4388    9860.9867    9964.0766     8469.969   -609.96743    158.77308   -315.15299   -3814.1498 
27664000    123.45768     -5133.08   -4886.1494     -5133.08            0    8811.5147    17.845542    22.822685    19.041459    7755.2658    6460.9103    9905.1732    10068.461   -1002.3765     82.85204     528.4571   -3889.5442 
27665000    126.55322    -5139.969   -4886.8469    -5139.969            0    8135.9779    17.825502    22.659574    19.206783    7757.9709    10350.131     7268.749    6789.0532    1047.6761   -1011.9136   -396.49203   -3966.3257 
27666000     128.0377   -5114.7148   -4858.6236   -5114.7148            0    8696.0445     17.79307    22.932948     19.05005    7773.3258    10198.532    7863.4326    8026.1687    557.92302    263.06481    1.3508615   -3872.7879 
27667000    122.48466   -5122.4707   -4877.4863   -5122.4707            0    10300.216     17.95908    22.429651     19.15776      7717.05    9929.9993     10975.37    9995.2786   -487.96052   -424.86948    67.624756   -3718.2458 
27668000    128.62838   -5126.2119   -4868.9392   -5126.2119            0    7254.4239    17.852039    22.762577    19.138959     7777.277    7775.8586    6812.9104    7174.5027    221.61725   -510.06982    755.96219   -4046.1163 
27669000    132.85346   -5127.3411   -4861.6177   -5127.3411            0     7518.257    17.799406    22.812192    19.168977    7783.4375    6935.4764    7198.6927    8420.6019   -14.718516   -342.86097    132.12528   -4008.1944 
27670000    127.23343   -5130.3905   -4875.9079   -5130.3905            0     8210.871    17.825934    22.669743    19.200317    7759.0272    8943.8512    7566.6683    8122.0935    423.98502   -807.85552   -1041.3736   -3946.7867 
27671000    126.84016   -5122.4225   -4868.7265   -5122.4225            0    8489.1212    17.851429     22.75075    19.080335     7749.161    7755.9413    8429.8144     9281.608    -737.8009   -89.061524    249.30566   -3909.3406 
27672000    122.06419   -5125.2629   -4881.1194   -5125.2629            0    9826.0364    17.865093    22.528222    19.168109    7714.5653    10486.313    9643.0121    9348.7844   -551.03822    301.10315   -1565.5635   -3775.6017 
27673000     128.0138   -5147.7261   -4891.6827   -5147.7261            0    8374.6116    17.836251     22.73109    19.098423    7743.2152    8696.6211    8699.1043    7728.1094    726.40713    65.912621   -1385.6654   -3945.9641 
27674000     121.9446    -5128.093   -4884.1888    -5128.093            0    8318.6736    17.870415    22.616469    19.188815    7755.4607    7495.3546    8731.1604    8729.5059     93.12547   -450.33685   -596.12283   -3943.3015 
27675000    124.18224   -5125.8888    -4877.509   -5125.8888            0    8942.2192    17.772896    22.842245    19.013396    7718.9223    8720.9467    8029.0726    10076.638    1345.7772   -53.588178    -997.5274   -3870.8604 
27676000    121.73345   -5127.8541   -4884.3722   -5127.8541            0    8328.2459    17.844378    22.647815    19.169053    7746.9081    7495.2826    8373.5593    9115.8958   -1341.9357   -378.94228   -90.072128   -3943.4411 
27677000    129.81644    -5123.628   -4863.9791    -5123.628            0    8993.7923    17.759614    22.855152    19.065112    7738.5038    9640.9981    8183.2492    9157.1296    649.04962   -230.98594   -489.61831   -3848.9565 
27678000    131.03287   -5134.9461   -4872.8642   -5134.9461            0    8908.7465    17.828183    22.626393    19.185055    7739.0108    9571.4338    9339.0351    7815.7708     34.42278    102.26745    305.65707   -3867.3737 
27679000    129.06822    -5134.531   -4876.3787    -5134.531            0    6982.0451    17.762551     22.90151    19.172647    7799.2267    7867.4016    5908.2504    7170.4834    1134.4105   -1119.9924    128.61075   -4082.2149 
27680000    126.82263   -5123.8334   -4870.1724   -5123.8334            0    9000.6015    17.785353     22.66146    19.183078    7731.5878    9851.3972    8360.5388    8789.8686   -766.57109    79.768945   -829.83821   -3855.2891 
27681000     120.4787    -5125.147   -4884.1747    -5125.147            0    8793.7542    17.899919    22.584125    19.130479    7733.5728    8086.5382    8455.6727    9839.0518   -698.75206   -145.30302    38.112455   -3892.3604 
27682000    128.78617   -5134.4407   -4876.8524   -5134.4407            0    7305.4843    17.910371    22.653865    19.125493    7759.9607    7219.1457    7452.4576    7244.8497    1588.7439   -369.18421    251.32431    -4050.083 
27683000      126.131   -5144.8584   -4892.5808   -5144.8584            0    8141.3864    17.720223    22.796984    19.197625    7755.2196    9700.1047    7961.0839    6762.9706   -371.28443    1035.7778   -680.80242   -3971.7743 
27684000    119.22452   -5130.3943   -4891.9305   -5130.3943            0    9015.1324    17.898728    22.663444     19.04614     7726.006    8868.9704    9049.0738    9127.3531   -315.39003    497.80586   -137.92151   -3876.1426 
27685000    129.40774   -5124.8031   -4865.9716   -5124.8031            0    8600.6529    17.899089    22.667613    19.107796     7752.599    8870.4643    7783.4021    9148.0923   -383.20474    128.77283    382.84762     -3893.55 
27686000    136.45505   -5144.7288   -4871.8019   -5144.7288            0     8481.538     17.74263    22.827397    19.162364    7761.1039    8662.9806    7706.3199    9075.3135    135.57674    412.84793   -99.131835   -3911.7957 
27687000    125.57194   -5136.0228   -4884.8634   -5136.0228            0    8330.1644    17.777342     22.60833     19.29357    7754.3946    9347.5128    7966.2507    7676.7297    -250.2224   -729.73669    1126.0559    -3942.806 
27688000    126.62887   -5121.4206   -4868.1472   -5121.4206            0    7778.5681    17.810054    22.803605    19.148501    7776.8465    8640.5556    7212.4868    7482.6619    673.02553    463.54699    199.91709   -3985.9228 
27689000    118.52594   -5131.9644   -4894.8979   -5131.9644            0    7775.6414    17.876491    22.592893    19.251922    7775.4982    6856.8882    8605.9443    7864.0919   -117.91066    272.19148    583.14055   -4013.1583 
27690000      129.076   -5109.5169   -4851.3489   -5109.5169            0    9462.2828    17.731101    22.772504    19.147539     7731.423    10938.603    9329.8558    8118.3894    1792.6602    663.26682    296.93729   -3784.4304 
27691000    126.16803   -5124.7554   -4872.4038   -5124.7554            0    8881.5799    17.880459    22.580983    19.191775    7748.8397    9929.0322    8941.4674    7774.2403   -757.89512   -389.02379   -54.443104   -3868.7064 
27692000    124.26057   -5116.5025    -4867.966   -5116.5025            0    9742.0014    17.805839    22.909364     18.94848    7729.4724    9029.0843    9715.9762    10480.944   -1061.5633    416.08015   -760.12442    -3769.785 
27693000    128.68327   -5138.2942   -4880.9117   -5138.2942            0     8054.938    17.905883     22.51785    19.201256    7741.9845    9500.2673    7635.2856    7029.2613   -105.53274    29.673861   -1191.6788   -3971.4375 
27694000    132.03785   -5133.1501   -4869.0581   -5133.1501            0    9064.1462    17.785243    22.882653    19.016199      7739.09    9485.5808    8457.3702    9249.4874    542.45241    397.69388     1002.775   -3846.0179 
27695000    128.55982    -5130.179   -4873.0435    -5130.179            0    8622.6347    17.785711    22.551425    19.304061    7742.7262     9603.582    8570.2055    7694.1166   -671.86456    382.29666   -1200.5885    -3899.378 
27696000    125.22584    -5134.272   -4883.8049    -5134.272            0    7697.3716    17.782828    22.834059    19.140595    7772.1182    6605.9502    7636.0342    8850.1305   -754.05364   -766.45568    177.62715   -4011.3204 
27697000    128.52622    -5137.636   -4880.5677    -5137.636            0    7271.7372     17.87734    22.762296    19.117563    7779.4969      7643.61    7760.6662    6410.9353   -1162.9024    571.73625   -546.80565   -4055.5456 
27698000    125.05261    -5127.755   -4877.6344    -5127.755            0     8548.911    17.995222    22.406972    19.232537    7754.9134    8067.3278    9413.7862     8165.619    913.91214    364.93469    341.14701   -3910.7743 
27699000    131.71667   -5135.0545   -4871.6049   -5135.0545            0    7379.1922    17.715028    22.891507      19.1802     7778.025    8316.9135    7105.2891     6715.374    -533.3601    303.40921   -206.16768   -4034.5498 
27700000    120.41588   -5126.4027   -4885.5561   -5126.4027            0    6907.8877    17.887284    22.653252    19.218555    7787.4576    5424.7285     7471.444    7827.4907    837.46844       111.77    1309.0539   -4101.0129 
27701000    129.36473   -5129.4529   -4870.7074   -5129.4529            0    8786.2219    17.755531    22.660681    19.167308    7712.0128    7812.2964    9055.7673    9490.6019    490.89199    489.38504   -329.13322   -3882.5053 
27702000    120.95531   -5120.2096   -4878.2841   -5120.2096            0    7765.2173    17.843796    22.693655    19.168246    7762.0078     6762.506    8799.8077    7733.3381    187.75496   -259.18801    1127.9865   -3999.2543 
27703000    121.51452    -5137.477    -4894.433    -5137.477            0    7214.1539    17.911246    22.738388    19.114428    7784.7875    6709.4462    7648.5734    7284.4419    410.41804   -183.82193   -564.98575   -4075.3874 
27704000    122.64776   -5138.9722   -4893.6616   -5138.9722            0    9189.8582    17.886249    22.671756    19.040939    7721.3419    8218.5844    9062.4671    10288.523   -573.37999    97.984257   -1689.6977   -3858.8114 
27705000    126.05804   -5138.9772   -4886.8456   -5138.9772            0    9913.4229    17.737366    22.826774    19.042802    7710.1799    10738.871    9355.9841    9645.4131   -228.60447    547.89367   -1337.3836   -3772.1301 
27706000    123.18694   -5134.5209   -4888.1318   -5134.5209            0      8203.59    17.901579    22.667709    19.111037    7755.0252    5574.8779    9611.1622    9424.7298    719.87089    759.57409    451.50018   -3960.3133 
27707000     127.1587   -5131.7961    -4877.463   -5131.7961            0    7991.0901    17.808292    22.621256    19.259493    7758.6084    7271.7327    9493.4582    7208.0794    228.27903    646.02997    574.68831   -3973.2604 
27708000    129.09479   -5131.0749   -4872.8693   -5131.0749            0    6347.8502    17.887654    22.801878    19.162761    7815.9556    6129.7824    5886.1865    7027.5818    2242.8501   -481.55409    1141.6997   -4149.2925 
27709000     126.2363   -5129.5569   -4877.0688   -5129.5569            0    8650.5468    17.888334    22.586446    19.220862      7765.88    8508.5025    9438.0272    8005.1107   -1197.3501    490.82735    304.62919   -3897.3304 
27710000    128.48544   -5131.7706   -4874.7838   -5131.7706            0    6835.0672    17.897616    22.836866    19.097641    7805.6918    6343.7886    6674.5055    7486.9075   -169.58908   -52.396258    345.05697   -4096.6934 
27711000    127.35642   -5131.4538   -4876.7253   -5131.4538            0     7980.612    17.932734    22.634051    19.152706       7773.9    5880.4722     8392.109    9669.2549     47.49535   -59.161791   -1150.1914   -3971.9285 
27712000    124.68916   -5128.4877    -4879.094   -5128.4877            0    8006.0431    17.869222    22.898599    18.977715     7765.304    8201.2444    6941.1632    8875.7218    737.19534     288.0353   -268.56929   -3972.4177 
27713000     124.0273   -5129.6535   -4881.5836   -5129.6535            0    8213.9125    17.980547    22.492599    19.227781    7776.2767    8123.1336    8393.9692    8124.6345     81.91009    384.96042      674.672   -3950.0518 
27714000    122.74982   -5131.2041   -4885.6893   -5131.2041            0    7478.0176    17.799195    22.849973    19.130294    7780.5031    6875.3294    6329.5137    9229.2096   -101.95535   -132.71884    91.969613   -4037.1537 
27715000    125.21486   -5148.3714   -4897.9262   -5148.3714            0     8307.231    17.723973    22.713419    19.200303     7729.505    8008.4108    8071.4101    8841.8721    109.09697   -415.58503   -219.87395   -3961.4778 
27716000    130.84337   -5140.7345   -4879.0317   -5140.7345            0    7418.0394    17.725172    22.862835    19.151152    7760.9599    8089.0663    8083.8137    6081.2383    703.40215    209.11705    710.88368   -4039.4161 
27717000    119.02757   -5133.3125   -4895.2426   -5133.3125            0    9741.5257    17.771849    22.763261    19.077295     7717.629    8895.9606    9753.0202    10575.596   -770.72653    8.8515026   -725.43922   -3798.7979 
27718000    124.40993   -5117.5648   -4868.7295   -5117.5648            0    9076.1119    17.981237    22.581927    19.075176    7745.4939    8928.0686    9241.5306    9058.7364   -114.37967    245.80464    410.64173   -3843.4912 
27719000    122.76975   -5126.5359   -4880.9813   -5126.5359            0    8915.6213    17.752285    22.848747    19.049311    7726.7335    8921.5647    7988.9672    9836.3321   -290.72449   -15.207757    697.05415   -3876.3113 
27720000    122.06484   -5134.7291   -4890.5843   -5134.7291            0    9399.3111    17.813559    22.524173    19.262245    7728.7001    10420.523    8464.5562    9312.8543    -33.81692   -460.49355    381.51996   -3831.1394 
27721000    123.62069   -5132.3224   -4885.0657   -5132.3224            0    7363.3605    17.704399    22.850002    19.194985    7765.2458      8298.33    7050.6373    6741.1141    388.99603   -503.15574    1227.9102   -4051.1788 
27722000    125.95286   -5145.3217   -4893.4004   -5145.3217            0    8057.7767    17.718691    22.613942    19.293561    7730.7267    8307.7213     8935.537    6930.0717     366.8155   -244.68714   -386.19803   -3984.9286 
27723000    119.18876    -5134.485   -4896.0927    -5134.485            0    7503.2143    17.775827    22.827225    19.145736    7768.8188    7890.8837     6636.092    7982.6671    372.41672   -1121.4584   -406.70287   -4045.9766 
27724000    128.13632   -5133.9446   -4877.6561   -5133.9446            0    8354.5591    17.941726    22.610782     19.10641    7751.0207    7439.4626    8840.9453    8783.2693   -109.78352     806.7444    461.94083   -3933.2511 
27725000      122.674   -5133.4336   -4888.0705   -5133.4336            0    8082.9767      17.8499    22.658705    19.190182    7761.5772    7228.9892    9011.4804    8008.4606   -8.0954803    487.20619   -172.64888   -3973.1208 
27726000    121.79643   -5124.8969    -4881.289   -5124.8969            0    8247.7034    17.831856    22.744252    19.131969    7759.3955    7897.1254    8342.6946    8503.2901    578.28371   -67.205784    1394.5601   -3947.9556 
27727000      136.103   -5115.1442   -4842.9214   -5115.1442            0     9612.642    17.852187     22.66348    19.101223     7728.215    9679.0109    9268.6999    9890.2151    279.94902   -680.33249   -16.227771   -3759.4989 
27728000    128.51908   -5121.3667   -4864.3127   -5121.3667            0    8666.1612    17.743462    22.903481    19.074898    7751.7917    7809.8036    7984.9227    10203.757   -726.70882      290.148   -948.47262   -3884.5864 
27729000    127.71671   -5122.8326   -4867.3834   -5122.8326            0    9083.4475    17.855458    22.681726    19.087452    7730.2772    8355.4385    8853.6412    10041.263   -1262.3509   -47.650245   -1495.7929   -3843.3322 
27730000    127.75015   -5113.1808   -4857.6647   -5113.1808            0    8672.3243    17.892769    22.589881    19.143591     7737.754     9421.143    8542.0878    8053.7421   -102.43671    170.34345    426.10274   -3879.0172 
27731000    132.95941   -5124.6514   -4858.7162   -5124.6514            0    10057.706    17.589198    22.915766    19.100611    7698.8818    10622.348    9703.5221    9847.2488   -1078.4529    801.32965   -1389.2495    -3729.434 
27732000    123.44603    -5121.583   -4874.6756    -5121.583            0    8190.9681    17.940927    22.596079    19.092135    7739.8484    8001.3932    8478.0569    8093.4541   -1540.8392    53.063941    3.6004668   -3950.0976 
27733000    125.42504   -5135.4455   -4884.5799   -5135.4455            0    7508.8932    17.730606     22.99449    18.992389    7743.3155     9296.546    6053.6761    7176.4576   -327.06594   -832.72482   -465.53449   -4036.6133 
27734000    129.02297    -5127.525   -4869.4632    -5127.525            0     7242.411     17.95125    22.434619    19.316671    7779.3924    7708.9619     7322.638    6695.6331   -43.055235   -938.69992    21.441288   -4047.7793 
27735000    116.46226   -5123.8605   -4890.9216   -5123.8605            0    8571.2382    17.858263    22.874503    18.957923    7744.2901    7492.0164    8192.2975    10029.401    234.50419    235.85828    344.62559   -3922.8643 
27736000    125.02741   -5130.9423   -4880.8721   -5130.9423            0    8916.6891    17.907047     22.49932    19.185617    7729.8159    9771.6954    9044.7374    7933.6344    581.45165   -210.78864    -344.8566   -3875.6809 
27737000    122.12991    -5126.356   -4882.0811    -5126.356            0    8428.6908    17.612164    22.872577    19.213631     7739.934    9467.0506    7924.9306    7894.0911    -1160.528    102.03154   -215.20555   -3930.6589 
27738000    128.92331    -5125.006   -4867.1435    -5125.006            0    8351.3813    17.828249    22.614494    19.219376    7748.8074    7757.6348     8859.125     8437.384   -626.58183   -463.54931   -1208.7911   -3923.3672 
27739000    125.79104   -5124.6611   -4873.0635   -5124.6611            0    8379.0087    17.832592    22.671924    19.118377    7729.5438    9637.4984     7590.323    7909.2048    157.85772   -1191.1931    1204.9312    -3928.519 
27740000    126.59205   -5122.5724   -4869.3727   -5122.5724            0    8003.4382    17.693999    22.906411    19.124971    7751.4653    8964.6667     8085.766    6959.8819    89.301148    161.28663   -19.788795   -3964.6066 
27741000    122.10324    -5126.941   -4882.7194    -5126.941            0    10006.208    17.828807    22.562461     19.19326    7720.7144    10379.478    9383.2519    10255.895    719.94137    302.49107    689.31644   -3756.0334 
27742000    127.32066   -5137.4734   -4882.8164   -5137.4734            0    7888.5488    17.841772     22.90295    18.964982    7749.6454    7922.5275    7368.1907    8374.9283   -973.87052   -631.46489    188.41658   -3991.2476 
27743000    130.87704   -5125.9394   -4864.1692   -5125.9394            0    7989.5625    17.883158      22.6674    19.145103    7760.7488    8696.9036    8274.5637    6997.2203   -18.064059   -418.13897    -1902.415   -3959.8901 
27744000    131.02314    -5124.355   -4862.2925    -5124.355            0     9393.658    17.739236    22.810091    19.059714    7712.2008     8455.987    10159.543    9565.4442   -1075.8669    493.40267    -3.354829   -3805.7451 
27745000    127.98447   -5121.1878   -4865.2031   -5121.1878            0     6828.529    17.937137    22.663153    19.174082    7794.4959    5496.0745    7338.6646    7650.8481    193.55446    170.31699   -849.56077   -4088.9719 
27746000    123.23588   -5127.0519   -4880.5649   -5127.0519            0    8291.3987    17.780026     22.73665    19.160767    7745.8979    6720.8734    8984.8162    9168.5066   -114.89509    841.75255   -901.24148    -3943.919 
27747000    124.20264   -5123.3618   -4874.9412   -5123.3618            0    9073.6656    17.849909    22.668607    19.103005     7729.698    8999.6232    8824.2645    9397.1091     400.2856    170.90312   -515.05653   -3852.0694 
27748000    125.82886   -5112.2365   -4860.5633   -5112.2365            0    10069.519    17.814375    22.630905    19.122369    7709.2867    9466.6947    10181.389    10560.474   -1119.9349   -106.97049    81.072474   -3728.4267 
27749000    123.13824   -5133.0478   -4886.7562   -5133.0478            0    8393.6014    17.870227    22.709025    19.106305    7753.6334    8170.4525    8722.2727     8288.079    78.842647    679.42914   -756.53524   -3937.6179 
27750000    129.83618   -5121.3079   -4861.6195   -5121.3079            0    7412.1714     17.80737    22.749129    19.179554    7769.6789     8391.908    7211.5551     6633.051   -177.09321   -573.26786    340.60103   -4021.7257 
Loop time of 570.453 on 64 procs for 250000 steps with 1008 atoms

Performance: 75.729 ns/day, 0.317 hours/ns, 438.248 timesteps/s
375.0% CPU use with 16 MPI tasks x 4 OpenMP threads

MPI task timing breakdown:
Section |  min time  |  avg time  |  max time  |%varavg| %total
---------------------------------------------------------------
Pair    | 41.941     | 45.161     | 48.802     |  31.4 |  7.92
Bond    | 1.5774     | 1.8178     | 2.2305     |  12.3 |  0.32
Kspace  | 276.26     | 283.57     | 291.4      |  24.3 | 49.71
Neigh   | 1.5842     | 1.6708     | 1.8099     |   5.1 |  0.29
Comm    | 76.831     | 87.09      | 95.922     |  53.1 | 15.27
Output  | 1.168      | 1.1684     | 1.1705     |   0.1 |  0.20
Modify  | 118.07     | 122.59     | 129.55     |  33.2 | 21.49
Other   |            | 27.38      |            |       |  4.80

Nlocal:        63.0000 ave          68 max          59 min
Histogram: 1 1 3 4 1 1 1 3 0 1
Nghost:        3458.06 ave        3480 max        3438 min
Histogram: 2 1 2 0 2 4 1 1 2 1
Neighs:        21494.6 ave       23332 max       20128 min
Histogram: 1 3 2 3 1 1 1 3 0 1

Total # of neighbors = 343914
Ave neighs/atom = 341.18452
Ave special neighs/atom = 2.0000000
Neighbor list builds = 3350
Dangerous builds = 0

unfix		3
unfix		2
unfix		1

write_data	data.final.${pid}
write_data	data.final.1
System init for write_data ...
PPPM initialization ...
  extracting TIP4P info from pair style
  using 12-bit tables for long-range coulomb (../kspace.cpp:340)
  G vector (1/distance) = 0.37932436
  grid = 24 27 32
  stencil order = 5
  estimated absolute RMS force accuracy = 0.0024666712
  estimated relative force accuracy = 7.428307e-06
  using double precision FFTW3
  3d grid and FFT values/proc = 7875 1344
Last active /omp style is kspace_style pppm/tip4p/omp
WARNING: Not all mixed pair coeffs generated from mixing. Use write_data with 'pair ij' option to store all pair coeffs. (../write_data.cpp:312)

write_restart   restart.lmp.${pid}
write_restart   restart.lmp.1
System init for write_restart ...
PPPM initialization ...
  extracting TIP4P info from pair style
  using 12-bit tables for long-range coulomb (../kspace.cpp:340)
  G vector (1/distance) = 0.37932436
  grid = 24 27 32
  stencil order = 5
  estimated absolute RMS force accuracy = 0.0024666712
  estimated relative force accuracy = 7.428307e-06
  using double precision FFTW3
  3d grid and FFT values/proc = 7875 1344
Last active /omp style is kspace_style pppm/tip4p/omp
Total wall time: 0:09:30
