LAMMPS (27 Oct 2021)
  using 32 OpenMP thread(s) per MPI task
package omp 0
using multi-threaded neighbor list subroutines
echo both

include		in.partitions
variable        pid world 0
include		in.temp
variable	temperature equal 300.0
variable	tempDamp equal 100.0
include		in.pressure
variable        pressure equal 9000
variable        pressureDamp equal 1000.0 # This is 1 ps
include		in.seed
variable        seed world 745823

units		real
atom_style	full
include		in.box
read_data       water.data
Reading data file ...
  orthogonal box = (0.0000000 1.0915313 0.0000000) to (18.207572 22.537647 22.213196)
  1 by 1 by 1 MPI processor grid
  reading atoms ...
  864 atoms
  reading velocities ...
  864 velocities
  scanning bonds ...
  2 = max bonds/atom
  scanning angles ...
  1 = max angles/atom
  reading bonds ...
  576 bonds
  reading angles ...
  288 angles
Finding 1-2 1-3 1-4 neighbors ...
  special bond factors lj:    0        0        0       
  special bond factors coul:  0        0        0       
     2 = max # of 1-2 neighbors
     1 = max # of 1-3 neighbors
     1 = max # of 1-4 neighbors
     2 = max # of special neighbors
  special bonds CPU = 0.000 seconds
  read_data CPU = 0.010 seconds
include 	in.setup
variable	out_freq equal 500
variable	out_freq2 equal 500

timestep	2.0

neigh_modify    delay 7 every 1

include		in.tip4p
# This is TIP4P/Ice

# create groups ###
group ox type 2
288 atoms in group ox
group hy type 1
576 atoms in group hy

# set charges - beside manually ###
set group ox charge -1.1794
Setting atom values ...
  288 settings made for charge
set group hy charge 0.5897
Setting atom values ...
  576 settings made for charge

# ### TIP3P Potential Parameters ###
pair_style lj/cut/tip4p/long 2 1 1 1 0.1577 8.5
pair_coeff 1 1*2 0.000 0.000
pair_coeff 2 2 0.21084 3.1668
bond_style  harmonic
bond_coeff  1 450 0.9572
angle_style harmonic
angle_coeff 1 55 104.52
kspace_style pppm/tip4p 1.0e-5
pair_modify tail yes

thermo          ${out_freq}
thermo          500
thermo_style 	custom step temp pe etotal epair emol press lx ly lz vol pxx pyy pzz pxy pxz pyz

restart 	${out_freq} restart.lmp.${pid} restart2.lmp.${pid}
restart 	500 restart.lmp.${pid} restart2.lmp.${pid}
restart 	500 restart.lmp.0 restart2.lmp.${pid}
restart 	500 restart.lmp.0 restart2.lmp.0


include         in.dump
dump            myDump all atom ${out_freq2} dump.water.${pid}
dump            myDump all atom 500 dump.water.${pid}
dump            myDump all atom 500 dump.water.0
dump            myDump2 all dcd ${out_freq2} dump.dcd
dump            myDump2 all dcd 500 dump.dcd
dump_modify     myDump append yes
dump_modify     myDump2 append yes


timer           timeout 00:55:00 every 1000
New timer settings: style=normal  mode=nosync  timeout=00:55:00

fix 		1 all shake 1e-6 200 0 b 1 a 1
       0 = # of size 2 clusters
       0 = # of size 3 clusters
       0 = # of size 4 clusters
     288 = # of frozen angles
  find clusters CPU = 0.002 seconds
fix             2 all nph iso ${pressure} ${pressure} ${pressureDamp}
fix             2 all nph iso 9000 ${pressure} ${pressureDamp}
fix             2 all nph iso 9000 9000 ${pressureDamp}
fix             2 all nph iso 9000 9000 1000
fix             3 all temp/csvr ${temperature} ${temperature} ${tempDamp} ${seed}
fix             3 all temp/csvr 300 ${temperature} ${tempDamp} ${seed}
fix             3 all temp/csvr 300 300 ${tempDamp} ${seed}
fix             3 all temp/csvr 300 300 100 ${seed}
fix             3 all temp/csvr 300 300 100 745823
velocity 	all create ${temperature} ${seed} dist gaussian
velocity 	all create 300 ${seed} dist gaussian
velocity 	all create 300 745823 dist gaussian

run             500000
PPPM initialization ...
  extracting TIP4P info from pair style
  using 12-bit tables for long-range coulomb (../kspace.cpp:340)
  G vector (1/distance) = 0.37144849
  grid = 24 25 25
  stencil order = 5
  estimated absolute RMS force accuracy = 0.0033118622
  estimated relative force accuracy = 9.9735747e-06
  using single precision MKL FFT
  3d grid and FFT values/proc = 33792 15000
  generated 0 of 1 mixed pair_coeff terms from geometric mixing rule
Last active /omp style is kspace_style pppm/tip4p/omp
Neighbor list info ...
  update every 1 steps, delay 7 steps, check yes
  max neighbors/atom: 2000, page size: 100000
  master list distance cutoff = 10.8154
  ghost atom cutoff = 10.8154
  binsize = 5.4077, bins = 4 4 5
  1 neighbor lists, perpetual/occasional/extra = 1 0 0
  (1) pair lj/cut/tip4p/long/omp, perpetual
      attributes: half, newton on, omp
      pair build: half/bin/newton/omp
      stencil: half/bin/3d
      bin: standard
Per MPI rank memory allocation (min/avg/max) = 38.65 | 38.65 | 38.65 Mbytes
Step Temp PotEng TotEng E_pair E_mol Press Lx Ly Lz Volume Pxx Pyy Pzz Pxy Pxz Pyz 
       0          300   -3852.2439   -3338.0542   -3852.2439            0    3467.3083    18.207572    21.446115    22.213196    8673.8464    3133.8643    3776.2154    3491.8451    2131.3549   -2192.9288   -1816.9989 
     500    295.14348   -3688.6979   -3182.8321   -3688.6979            0     10482.76    17.252441    20.321097    21.047938    7379.1654    8989.5246    12939.632    9519.1224   -605.43119    505.11973   -880.48794 
    1000    316.89619   -3759.2817   -3216.1324   -3759.2817            0    9447.1485    17.186464    20.243385    20.967446    7294.8305    10444.448    11824.954    6072.0429    371.84347    824.02516    1099.8593 
    1500    295.93446   -3748.2826    -3241.061   -3748.2826            0    8466.9801     17.10033     20.14193    20.862363    7185.7001     8814.053     8457.108    8129.7794   -1220.0728    658.96258    250.11121 
    2000     310.0225   -3731.8821   -3200.5141   -3731.8821            0    9530.1779    17.059526    20.093869    20.812582    7134.3844    12443.582    6952.3706    9194.5807   -531.27464    1823.7502    643.28813 
    2500    301.25505   -3733.0021   -3216.6613   -3733.0021            0    8402.6514    17.081508    20.119761      20.8394    7161.9988    9231.4102    9374.5292    6602.0147    217.85252   -522.13076   -296.33347 
    3000    291.13338   -3686.3971   -3187.4044   -3686.3971            0    7327.6235    17.124625    20.170547    20.892003    7216.3705    7999.2332    6846.9156    7136.7218   -108.46882    711.06224   -351.83137 
    3500    301.65186    -3733.651   -3216.6301    -3733.651            0      9383.64    16.977761    19.997559    20.712828    7032.2906    10292.979      7176.93    10681.011    137.96227   -687.98813   -148.56713 
    4000    285.87433   -3735.3725   -3245.3937   -3735.3725            0      8997.16    16.978479    19.998405    20.713704    7033.1827    9495.0296    6525.4067    10971.044    232.94374    147.89974     1961.386 
    4500    301.30525   -3761.1951   -3244.7682   -3761.1951            0    8304.4176    17.070284     20.10654    20.825707    7147.8894    8421.2254    8054.5564    8437.4709    737.91487   -1189.3223    113.92589 
    5000    301.02289   -3710.9272   -3194.9843   -3710.9272            0    7562.1716     16.99561    20.018584    20.734605    7054.4943    7745.4603    5874.9437    9066.1109    1259.8037     95.08706     290.3204 
    5500    292.38127   -3756.0497   -3254.9182   -3756.0497            0    8881.8121    17.040944    20.071981    20.789911    7111.0954    8362.7317     8593.718    9688.9865   -741.91266   -270.31526    -1910.815 
    6000    304.61736   -3710.3218    -3188.218   -3710.3218            0    11620.712    16.953825    19.969366    20.683626    7002.5891    12034.042    10928.889    11899.203    27.569323    991.40911    519.58101 
    6500    296.26578   -3754.0247   -3246.2353   -3754.0247            0    8907.2142    17.072872    20.109588    20.828863    7151.1405    8971.3754    6893.9104    10856.357   -155.64077   -567.04151   -1191.8052 
    7000    300.58498   -3703.5175   -3188.3251   -3703.5175            0    11372.253     16.93124    19.942764    20.656073    6974.6413    11890.187    11320.301    10906.272   -1222.3165      1057.05    143.55164 
    7500    301.04971   -3735.5179    -3219.529   -3735.5179            0    7364.7659    17.042391    20.073686    20.791677    7112.9077    7725.9961    5851.0298    8517.2719    139.15579   -8.9350361    829.98289 
    8000    301.40384   -3712.9161   -3196.3202   -3712.9161            0    9544.2932    17.056609    20.090432    20.809023    7130.7243    9639.8213    10101.962    8891.0962   -1138.0126    658.95573   -794.56618 
    8500    296.05981   -3730.5118   -3223.0754   -3730.5118            0    9205.5695     17.09094     20.13087    20.850907    7173.8689    9332.0452    11250.871    7033.7922    2038.7503     848.9154    155.96978 
    9000    315.28875    -3719.205   -3178.8109    -3719.205            0     10463.32    17.039069    20.069772    20.787624    7108.7486    7459.9678    10406.284    13523.708   -434.34059   -770.33168    573.84734 
    9500    314.32109   -3756.6674   -3217.9318   -3756.6674            0    10409.175    17.014815    20.041205    20.758035    7078.4362    8776.7147    11242.562    11208.249    746.45165   -2168.7381    209.18972 
   10000    304.18617   -3750.5079   -3229.1432   -3750.5079            0    6945.8796    17.088364    20.127836    20.847764    7170.6256    7046.1782    5876.3707    7915.0898    2310.0054   -112.51822    1265.8869 
   10500    309.34355   -3695.7057   -3165.5014   -3695.7057            0    9758.0963    17.019311    20.046501     20.76352    7084.0489    9809.7235    10767.981    8696.5848   -2666.0875    -1602.853    906.18191 
   11000    298.37894   -3716.7981   -3205.3868   -3716.7981            0     11611.65    16.930421    19.941799    20.655074    6973.6291    10996.821    12901.509    10936.621   -1083.6762    1821.0049    809.93167 
   11500    302.46597   -3797.7885   -3279.3722   -3797.7885            0    8246.3891    17.033581    20.063309    20.780929    7101.8826    6199.3056    9521.9551    9017.9067    874.48626    366.69412   -825.05321 
   12000    304.75934   -3711.1794   -3188.8323   -3711.1794            0     11019.93    17.047693     20.07993    20.798145    7119.5481    9645.2118    11476.613    11937.965    341.39186   -576.83757    831.56013 
   12500    303.86788   -3749.9073   -3229.0881   -3749.9073            0    8974.7264    17.026822    20.055347    20.772683     7093.431    9305.2254    9407.4938    8211.4602    366.72121    204.18639    1272.0782 
   13000    311.21703   -3715.8278   -3182.4124   -3715.8278            0    9632.0512    16.983194    20.003959    20.719457    7039.0443    10239.351     10531.26    8125.5432   -1057.4832    468.69574   -1435.1988 
   13500    292.06736   -3734.5633   -3233.9698   -3734.5633            0    9383.2639     16.96255    19.979643    20.694271    7013.4066    8384.2316     9811.864    9953.6962   -1559.9219   -1402.4749    994.30441 
   14000    291.15955   -3739.1138   -3240.0763   -3739.1138            0    9819.6414    16.985441    20.006606    20.722198    7041.8387    9082.5952    11199.577    9176.7517   -954.67135   -1123.2215   -1737.6175 
   14500    301.07539   -3756.7383   -3240.7054   -3756.7383            0    12343.445    16.886508    19.890076    20.601501     6919.507    11749.163    13751.931    11529.241   -663.15214    1670.9821   -931.59051 
   15000    311.01913   -3748.5806   -3215.5044   -3748.5806            0    8137.8946    17.016419    20.043094    20.759991    7080.4374    7799.6547    8860.3279    7753.7012   -381.35906    556.21875    539.70133 
   15500    304.49995   -3745.0205   -3223.1181   -3745.0205            0    8133.5716     16.97396    19.993083    20.708192    7027.5689    6563.4328    7783.0339    10054.248   -78.102807    430.59919   -213.32701 
   16000    302.77134   -3725.5183   -3206.5786   -3725.5183            0    7603.3212    17.000633      20.0245    20.740733     7060.751    5643.0943    8603.9203    8562.9491    865.72041   -154.53171   -1134.4333 
   16500      293.479   -3659.0457   -3156.0328   -3659.0457            0    8193.6922    17.031365    20.060698    20.778225    7099.1102    5948.0248    11341.239    7291.8126    504.12588    120.82768   -33.812295 
   17000    299.88054   -3704.0979   -3190.1129   -3704.0979            0    10968.304    16.958065    19.974361      20.6888     7007.845    9823.2886    12356.378    10725.245    477.17451    1174.3198    543.61689 
   17500    312.62422    -3749.117   -3213.2898    -3749.117            0    7327.0987     17.08329     20.12186    20.841574    7164.2407    6823.8555      6244.59    8912.8507   -678.59544   -636.10785   -475.93841 
   18000    275.70833   -3728.3463   -3255.7916   -3728.3463            0    8137.5725    16.968723    19.986914    20.701802    7021.0659    8094.4186    6820.1715    9498.1273   -332.93872    1098.6493    286.88081 
   18500     307.3185   -3757.1835   -3230.4501   -3757.1835            0    8999.9149    16.959642    19.976218    20.690723    7009.7997    7383.0883    10992.103    8624.5539    953.60689   -823.31834    2094.3534 
   19000    304.39758   -3727.2134   -3205.4863   -3727.2134            0    9227.9455    17.016679      20.0434    20.760308    7080.7619    7200.8273    10576.557    9906.4519   -173.55242   -1361.9148   -776.41243 
   19500    304.22766   -3707.5559   -3186.1201   -3707.5559            0    7976.7544    17.034297    20.064152    20.781802    7102.7777    8552.1515    7785.2496    7592.8622   -914.85295    1405.3696   -82.805018 
   20000    288.08846   -3724.4396   -3230.6658   -3724.4396            0    10800.022    17.003097    20.027403    20.743739    7063.8216    11498.439    9008.2237    11893.403   -869.05186   -417.48641    274.95405 
   20500    305.17627   -3715.4416   -3192.3799   -3715.4416            0    8326.0858    17.090811    20.130718     20.85075    7173.7067    9398.3921    8300.9489    7278.9165   -481.08536    424.65447   -989.47283 
   21000    302.01927   -3690.6681   -3173.0174   -3690.6681            0    12158.514    16.959797    19.976401    20.690913    7009.9925    12685.047    13401.274     10389.22    1406.7761   -995.37084    1465.3985 
   21500    299.56111   -3736.4114   -3222.9739   -3736.4114            0    7584.3319    17.026516    20.054987     20.77231    7093.0494    7548.3607    8021.9467    7182.6885   -792.26236   -1328.1926   -514.79871 
   22000    306.44889   -3700.6508   -3175.4079   -3700.6508            0    8972.1253    17.070338    20.106604    20.825773    7147.9579    8177.7518    9064.9168    9673.7074   -224.34928    516.98842    -973.4693 
   22500    288.89365   -3696.7873   -3201.6335   -3696.7873            0    9581.7687    17.005337    20.030041    20.746472    7066.6137    10259.402    8946.0268    9539.8776   -667.96449   -590.08541    386.57671 
   23000    279.23537   -3733.9343   -3255.3344   -3733.9343            0    7981.1365    16.988838    20.010607    20.726342    7046.0639     8475.543    7754.1166    7713.7499    1385.3421    1410.3058    1090.9266 
   23500    304.38217   -3693.1812   -3171.4805   -3693.1812            0    9765.0731    16.950929    19.965955    20.680094    6999.0017     10081.08    8982.2679    10231.871    347.70648    -39.96689   -127.27356 
   24000     305.5946   -3647.2516   -3123.4729   -3647.2516            0    9569.6973    16.963155    19.980356    20.695009    7014.1566    9329.2453    10848.412     8531.435   -944.49521   -2030.5138    526.15171 
   24500    299.80932   -3731.7879    -3217.925   -3731.7879            0    8994.1212    17.046397    20.078404    20.796564    7117.9245    10732.521    6520.3429    9729.4991   -532.74716   -957.86645    832.31091 
   25000    303.66449   -3703.4206   -3182.9501   -3703.4206            0    9578.5914    17.010755    20.036423    20.753082    7073.3703    9903.5175    9335.9717     9496.285   -559.34286   -130.33202    750.46437 
   25500    315.37171   -3769.0339   -3228.4975   -3769.0339            0    11744.684    16.948158    19.962692    20.676714    6995.5705     10866.96    10304.804    14062.289    -255.2264    73.869634    537.82003 
   26000    309.83927   -3695.7708   -3164.7169   -3695.7708            0    9756.6353    16.987756    20.009333    20.725023    7044.7185    8891.6089    10430.451    9947.8463    1407.1637   -1520.9358   -1405.8759 
   26500    273.73569   -3736.4936     -3267.32   -3736.4936            0    9573.0782    17.015728     20.04228    20.759149    7079.5754     8506.801    9499.2039     10713.23   -1175.2953   -675.40107    994.80489 
   27000    304.24672    -3706.825   -3185.3566    -3706.825            0     9414.109    17.038747    20.069393    20.787232     7108.346    10444.881    9847.0961      7950.35    -494.8904    -416.1833    1596.6934 
   27500    283.79231   -3705.1732   -3218.7629   -3705.1732            0    8161.1527    17.066053    20.101556    20.820545    7142.5758    7245.0575    8369.8813    8868.5193    1843.0122    519.84661    180.99532 
   28000    287.32375   -3733.4184   -3240.9553   -3733.4184            0    9925.2109    16.979477    19.999581    20.714922    7034.4234    7709.3161    11156.861    10909.456    1575.9598   -377.78082   -870.27101 
   28500    296.50212   -3730.7006   -3222.5062   -3730.7006            0    8978.9878    16.966087     19.98381    20.698587    7017.7952    8469.9847     8560.888    9906.0908     408.5424    128.54766    444.27087 
   29000    291.77769   -3748.6255   -3248.5286   -3748.6255            0    7613.5041    17.055005    20.088544    20.807067    7128.7136    7140.6323    7192.5541    8507.3258    690.73354     531.7343   -1839.3249 
   29500    309.98663   -3724.8823   -3193.5758   -3724.8823            0     10210.46    16.978255    19.998141    20.713431    7032.9044    8342.0629    12346.108    9943.2096   -352.62632    -123.0812    1138.6589 
   30000    294.63348   -3664.3208   -3159.3291   -3664.3208            0    8627.0298    17.025109     20.05333    20.770594    7091.2914    9518.0952    6796.3873    9566.6068    1149.3341    868.11869   -325.08617 
   30500     288.1824   -3729.8475   -3235.9128   -3729.8475            0    8169.0299    17.011833    20.037692    20.754396    7074.7145    8565.7267    8980.1372    6961.2258   -369.67807   -419.82212   -817.58193 
   31000    312.50362   -3732.9473   -3197.3268   -3732.9473            0    8257.0464    17.003607    20.028002     20.74436    7064.4561    9226.2659     7674.793    7870.0803    -434.3849    768.16951   -1127.7805 
   31500    298.72701   -3729.0847   -3217.0768   -3729.0847            0    9481.3613    17.024577    20.052703    20.769944    7090.6259    8416.3786    9929.4483    10098.257   -1316.4783   -181.13273    382.75821 
   32000    297.33778   -3689.9599   -3180.3331   -3689.9599            0    10419.666    17.017581    20.044462    20.761409    7081.8879    10383.845     8991.126    11884.028    265.73678    1451.9917   -820.44889 
   32500     328.6833    -3776.367   -3213.0151    -3776.367            0     8680.334    17.082991    20.121507     20.84121    7163.8643    7889.9323    9206.1053    8944.9643   -1153.5796   -1061.3854   -251.19021 
   33000    299.37007   -3731.9837   -3218.8737   -3731.9837            0    9462.9644    17.049375    20.081912    20.800198    7121.6564    9729.1479    8955.4207    9704.3247    280.39898   -1180.0814   -393.69032 
   33500    298.10092   -3728.7148     -3217.78   -3728.7148            0    9008.4838    17.029682    20.058716    20.776173    7097.0071    9378.2611    9899.8163    7747.3741   -729.35683   -847.35254     372.6583 
   34000    291.98498   -3747.5274   -3247.0751   -3747.5274            0      10516.3    16.938058    19.950794    20.664391    6983.0701    12263.535    8470.0296    10815.334   -702.17468    761.06861   -592.38064 
   34500    287.35093   -3754.5558   -3262.0461   -3754.5558            0    8195.7824    16.995765    20.018766    20.734794    7054.6869    7187.4661    8833.4703    8566.4109   -1055.8549    1738.0025    263.40917 
   35000    285.74065   -3753.1705   -3263.4208   -3753.1705            0    9501.2355    17.029979    20.059066    20.776534    7097.3776    8905.0363    9761.9936    9836.6767    538.04997   -1303.4687   -524.69187 
   35500    291.04894   -3722.5311   -3223.6832   -3722.5311            0    7363.7737    17.085469    20.124425    20.844232    7166.9816    5206.9121    9239.5094    7644.8996   -559.14428   -80.301431   -393.95656 
   36000     288.8702   -3716.5491   -3221.4355   -3716.5491            0    9886.7181    16.965674    19.983323    20.698083    7017.2825    9357.2571    11028.326    9274.5711    2567.6842   -585.59513    851.34269 
   36500    316.52622   -3728.4386   -3185.9235   -3728.4386            0    8726.0393    17.080002    20.117986    20.837562    7160.1036    9967.3583    7944.5116     8266.248   -935.44845   -2341.2712   -242.87632 
   37000    324.95868   -3778.8136   -3221.8456   -3778.8136            0    8076.5736    17.059076    20.093338    20.812033    7133.8192    8150.7531    7206.5465    8872.4212    1526.2359    18.758792    31.172426 
   37500    308.72937   -3769.0791   -3239.9275   -3769.0791            0    9464.9649    17.086586    20.125741    20.845595    7168.3874    9302.1241     8509.039    10583.732   -367.71905   -185.97269   -1632.2583 
   38000    292.25193   -3716.7646   -3215.8548   -3716.7646            0     11673.37    17.037247    20.067626    20.785401    7106.4682    14831.432    10211.135    9977.5424    167.41118    1186.8008    370.19661 
   38500    298.41636   -3736.8888   -3225.4134   -3736.8888            0    9602.4511    17.026255     20.05468    20.771992    7092.7234      10351.9    8198.2789    10257.174     1564.543   -1934.4184   -1374.8038 
   39000    292.94679   -3704.8528   -3202.7521   -3704.8528            0    10773.118    16.997531    20.020846    20.736948    7056.8858    9898.3769    10457.797     11963.18    2033.9072   -191.63248    145.48489 
   39500    299.61255   -3714.9918   -3201.4661   -3714.9918            0    7318.8806    17.067125    20.102819    20.821853    7143.9219    8964.5447    6295.7214    6696.3759   -114.73146   -493.62147    63.495838 
   40000    310.40128    -3744.997   -3212.9799    -3744.997            0    9275.8557    17.052968    20.086143    20.804581    7126.1588    10898.681    7868.6927    9060.1933   -226.39486   -4.8859456   -898.02028 
   40500    290.31991   -3765.2611   -3267.6627   -3765.2611            0    10234.484    17.002955    20.027236    20.743566    7063.6446     10243.22    10127.394    10332.838   -317.66352    202.41693   -629.06988 
   41000    293.11272   -3717.1087   -3214.7235   -3717.1087            0    7776.2472    17.027276    20.055882    20.773237    7093.9986    7003.3199     5989.601    10335.821   -1345.8471    1185.3068   -2455.5639 
   41500    299.82457    -3700.199     -3186.31    -3700.199            0    11644.832    16.983236    20.004008    20.719508     7039.096    11373.426    10557.388    13003.683   -725.94281   -1718.3128    792.14301 
   42000    316.50164   -3758.8598   -3216.3868   -3758.8598            0     8783.111    17.023729    20.051704     20.76891    7089.5665    7697.1251    10508.526    8143.6821   -2139.0797    615.85699    1377.4661 
   42500    296.18663   -3706.0887   -3198.4349   -3706.0887            0    10583.537    16.923966    19.934196    20.647198    6965.6554    10889.073    10445.118     10416.42    225.18634    -1110.587    520.71589 
   43000    300.20176   -3684.3288   -3169.7933   -3684.3288            0    10296.867    16.956379    19.972375    20.686743     7005.755    9300.3648    11040.946    10549.291    920.05593    1696.7093    699.24905 
   43500    286.22525   -3707.8203     -3217.24   -3707.8203            0    9484.6552    16.921542    19.931341    20.644241     6962.663    8115.4827    8126.0261    12212.457   -1486.2066   -861.58626   -223.19185 
   44000    286.45399   -3680.5093    -3189.537   -3680.5093            0     9209.709    16.974648    19.993893    20.709031    7028.4232    10302.106     7505.943    9821.0782     1091.523    -753.7438     -1958.01 
   44500    301.50053   -3683.2613   -3166.4997   -3683.2613            0    9556.3841    17.019357    20.046554    20.763576    7084.1055    8324.4288    10634.637    9710.0868    95.898949   -496.14184   -1620.5507 
   45000     291.2107   -3758.8441    -3259.719   -3758.8441            0    9185.3637    16.986248    20.007556    20.723183    7042.8422    10044.144    8945.2933    8566.6538    825.57586   -134.06944    -143.4413 
   45500     313.2444   -3766.9195   -3230.0293   -3766.9195            0    9370.6316    16.977892    19.997715    20.712989    7032.4542    8731.2836    10012.916    9367.6956    213.34166    515.35371   -551.37296 
   46000    315.04214   -3741.4185    -3201.447   -3741.4185            0    8767.7597    16.966671    19.984497    20.699298    7018.5188    9622.0392    8566.3119    8114.9281    43.600717     1781.292   -255.88898 
   46500     312.6991   -3769.3453   -3233.3897   -3769.3453            0    7510.3994    17.034075    20.063891    20.781532    7102.5006    5227.8225    6606.3226    10697.053   -576.12822    405.04839    245.94875 
   47000    286.07528   -3709.8095   -3219.4862   -3709.8095            0    8142.9424    17.067986    20.103833    20.822903    7145.0035    6834.1046    9711.2353    7883.4873   -57.000849    1124.3537    625.58221 
   47500    303.80455    -3710.377   -3189.6664    -3710.377            0    8910.3502    17.103016    20.145094    20.865639    7189.0861    8907.2154    9512.3386    8311.4965   -660.79871   -811.16078   -574.53879 
   48000    289.98005   -3688.2722   -3191.2564   -3688.2722            0    9868.9114    16.979595     19.99972    20.715066    7034.5704    9263.8643    8595.3161    11747.554    107.54935    445.56405   -33.335713 
   48500    298.35032   -3703.5195   -3192.1573   -3703.5195            0    10539.929    16.972317    19.991148    20.706187    7025.5285    10820.649    11227.372    9571.7649    475.65615    563.34512    449.14567 
   49000    299.52712   -3675.0549   -3161.6756   -3675.0549            0    8663.0886    17.013896    20.040122    20.756914     7077.289     9093.304    8517.0743    8378.8874   -919.75485    818.02042   -281.67155 
   49500    311.27065   -3660.0799   -3126.5726   -3660.0799            0    8882.2812    17.092839    20.133106    20.853223    7176.2603    9856.5859    7957.0831    8833.1747   -1877.3471    276.77633   -114.82139 
   50000     301.6677   -3734.1079   -3217.0597   -3734.1079            0    8172.7772    17.066025    20.101523    20.820511    7142.5406    6564.4122    9347.4281    8606.4914    1095.5091   -1272.6937   -1242.1583 
   50500    301.23188   -3700.4154   -3184.1142   -3700.4154            0    8105.4656    17.005692    20.030459    20.746905    7067.0563    6671.9182    10400.736    7243.7425    1115.9839   -1250.9474    600.48362 
   51000     308.9809   -3708.1257    -3178.543   -3708.1257            0    8545.5994    17.010183    20.035749    20.752384    7072.6563    11168.338    8452.6951    6015.7653   -439.07223   -1038.0574   -1514.5521 
   51500    304.81589   -3724.3386   -3201.8946   -3724.3386            0    10623.533    16.979014    19.999036    20.714357    7033.8481    12420.024    10984.422    8466.1545    1626.5042   -206.42345   -485.72765 
   52000    290.72631   -3730.6494   -3232.3545   -3730.6494            0    7647.1076    17.013796    20.040004    20.756791    7077.1634    7984.6576    7211.4042    7745.2608     1457.034    1319.6021    571.58662 
   52500    306.51526   -3703.6487   -3178.2921   -3703.6487            0     8563.294    16.966654    19.984477    20.699278    7018.4977    10012.812    7131.0465    8546.0231    -183.4626   -399.05186    -1643.666 
   53000    293.99803   -3720.2235    -3216.321   -3720.2235            0    6845.1648    17.055278    20.088865      20.8074    7129.0557    7494.1377    6372.1488    6669.2078   -2556.5327    298.45276     299.3072 
   53500    313.57315   -3736.0889   -3198.6352   -3736.0889            0    10159.556    16.992681    20.015133    20.731031    7050.8469    10236.961    10863.154    9378.5529    74.408848   -333.37553   -529.73891 
   54000    297.67896   -3697.8097   -3187.5981   -3697.8097            0    10764.338    16.936586    19.949061    20.662596    6981.2504    8990.4291    12156.541    11146.045   -1798.8228    1292.7803    795.03031 
   54500    291.15855   -3769.3509   -3270.3151   -3769.3509            0    8684.6023    16.987557    20.009098     20.72478    7044.4706    8834.8835    7974.0882    9244.8352    -2135.287    471.28522   -1427.0105 
   55000    290.98096   -3725.8249   -3227.0935   -3725.8249            0    9475.3337    16.977008    19.996672     20.71191    7031.3549    10196.947    9761.5472    8467.5067   -764.12093   -758.17542    810.17128 
   55500    301.13433   -3757.3137   -3241.1798   -3757.3137            0    7418.8462    17.008907    20.034246    20.750827    7071.0649    6939.5954    6853.3981     8463.545    520.21788    274.79202    1063.7709 
   56000    303.79227   -3667.9846    -3147.295   -3667.9846            0    9932.1507    16.981725    20.002229    20.717664    7037.2176    9214.9557    9453.4008    11128.096    1324.0116    293.77557   -1585.6153 
   56500    305.54742   -3711.1103   -3187.4124   -3711.1103            0    7816.9466    16.991519    20.013765    20.729614    7049.4009    7289.7005    8554.8709    7606.2683    742.16274   -205.91261   -1780.1638 
   57000    303.53907   -3718.4038   -3198.1482   -3718.4038            0    9249.7196    16.992078    20.014424    20.730296    7050.0968      11863.8    6819.7698    9065.5893    1498.3881   -541.87013   -971.32477 
   57500    296.97517   -3717.4773    -3208.472   -3717.4773            0    10223.159    16.987446    20.008968    20.724645    7044.3332    11458.776    8962.3055    10248.395     301.5817   -655.91251    117.62066 
   58000    297.07342     -3703.83   -3194.6563     -3703.83            0    9428.4782    17.002033    20.026149    20.742441    7062.4951    7265.0637    9512.6973    11507.674    1639.2995    825.33194     1334.688 
   58500    290.02537   -3707.2389   -3210.1454   -3707.2389            0    10315.571    17.032763    20.062345    20.779931    7100.8587    9948.7349    10287.087    10710.893   -574.10448   -1026.6086   -1426.8469 
   59000    304.53896   -3711.3575   -3189.3881   -3711.3575            0    6503.6402    17.067892    20.103722    20.822788    7144.8851    5984.3439    6079.4549    7447.1218    1149.3952    113.74206   -247.70751 
   59500    295.70682   -3691.9761   -3185.1447   -3691.9761            0    9858.6679    16.985605    20.006799    20.722398    7042.0426    8841.2711    10033.486    10701.247   -791.79849   -931.09124   -142.65469 
   60000    287.35774   -3733.1572   -3240.6359   -3733.1572            0    8604.0144    16.994093    20.016797    20.732754    7052.6048    9375.7314    8523.9761    7912.3356   -496.71323   -685.43747    324.83669 
   60500    295.34273    -3748.449   -3242.2417    -3748.449            0    10135.865    16.998421    20.021895    20.738034     7057.995    10054.586     11116.41    9236.5977   -1426.3356    415.39643     663.6644 
   61000    287.77203    -3720.097   -3226.8656    -3720.097            0    7225.7319    17.057873    20.091921    20.810565    7132.3099    6935.7265    5901.6874    8839.7818    1423.9442   -81.142375    631.77096 
   61500     298.4845   -3711.6633    -3200.071   -3711.6633            0    9617.3291    16.999394    20.023041    20.739221    7059.2068    9140.5439    9019.1943    10692.249    275.80031   -694.07557    442.87559 
   62000    309.13037   -3700.0767   -3170.2378   -3700.0767            0    9148.3758    16.965892     19.98358    20.698349    7017.5529     9839.829    7777.3631    9827.9351    1146.8217    187.45407   -186.36118 
   62500    285.78928   -3712.7849   -3222.9519   -3712.7849            0    7521.1877    17.032369    20.061881    20.779451     7100.367    5820.1467    7442.4553     9300.961    633.90402    584.68633   -822.55768 
   63000      308.042   -3702.9017   -3174.9282   -3702.9017            0    9514.0102    17.058604    20.092782    20.811456    7133.2265    9766.0736    10078.335    8697.6224   -465.51049     49.71959   -669.36381 
   63500    284.58471   -3762.7568   -3274.9884   -3762.7568            0    8293.6358    17.036959    20.067287     20.78505    7106.1083    8710.9103    7451.7278    8718.2694    401.29099   -138.31707    1135.8165 
   64000    310.35105   -3736.6118   -3204.6807   -3736.6118            0    10249.878     16.96114    19.977982    20.692551    7011.6572    11583.252    10267.159     8899.224    358.30538    29.952506    187.39202 
   64500     294.0736   -3739.4639   -3235.4318   -3739.4639            0    8479.9195    17.045228    20.077028    20.795139     7116.461    7905.8495    9344.1188    8189.7902   -350.77332    1950.9048    681.96057 
   65000      277.425   -3708.3574   -3232.8605   -3708.3574            0    10106.101    16.982861    20.003567    20.719051    7038.6308    9140.2421    10635.978    10542.084    285.35928   -502.49239   -544.48854 
   65500    291.17705   -3702.2591   -3203.1916   -3702.2591            0    9516.9353    17.023149    20.051021    20.768202    7088.8416    8577.0191    11611.484    8362.3027    765.85715    703.24889   -1533.9992 
   66000     317.6394    -3707.928   -3163.5049    -3707.928            0    8970.0035    17.100602     20.14225    20.862694    7186.0422    9275.0988    8163.6214    9471.2901   -652.17623   -527.93634   -440.46007 
   66500    307.32988   -3690.6648   -3163.9119   -3690.6648            0    6558.6628    17.109867    20.153164    20.873998    7197.7294    5805.7992    3959.4866    9910.7026   -621.16156   -539.16393    124.01928 
   67000    277.81985   -3727.1331   -3250.9594   -3727.1331            0    8017.1959    17.002777    20.027026    20.743349    7063.4225    8026.7356    7722.6483    8302.2038   -160.83915   -835.14518    557.40764 
   67500    291.89443   -3729.1985   -3228.9015   -3729.1985            0    7732.5887    16.957277    19.973433    20.687839    7006.8683    8337.0596    7239.1729    7621.5337   -2850.9834    1422.7504    226.29705 
   68000     292.1925   -3703.7088   -3202.9009   -3703.7088            0    9450.9292    16.975105    19.994431    20.709588     7028.991    8182.3877    10088.808    10081.592   -1089.8093   -25.023883    631.65131 
   68500    304.59252   -3715.1078   -3193.0466   -3715.1078            0    9132.1361    17.029786    20.058838    20.776299    7097.1359    9188.2138    9974.0912    8234.1034    662.71877   -1643.2481   -2542.5306 
   69000     273.1456    -3730.966   -3262.8038    -3730.966            0    7585.3854    17.037005    20.067342    20.785107    7106.1662    5304.7979    8670.7004    8780.6578    1831.3007    -328.9682   -586.00758 
   69500    295.40726   -3731.3221   -3225.0042   -3731.3221            0    10337.225    16.978786    19.998767    20.714079    7033.5649    9638.1508    12195.248    9178.2752    482.39024     181.9799    1093.3172 
   70000    291.87858   -3695.3911   -3195.1213   -3695.3911            0     8022.716    17.046185    20.078154    20.796306    7117.6589    8335.1866    8333.1681    7399.7932    123.60231   -450.58996    1206.5225 
   70500     289.8793   -3696.6373   -3199.7941   -3696.6373            0    9442.1057    17.013967    20.040205       20.757    7077.3769     9894.762    9498.0901    8933.4649    594.34494     1001.702   -271.26735 
   71000    291.12201   -3716.7798   -3217.8066   -3716.7798            0    7392.3961    17.067208    20.102916    20.821953    7144.0257    9251.7476    7545.1487     5380.292    52.028188    195.12255   -211.07178 
   71500    303.46894   -3741.3936   -3221.2582   -3741.3936            0    9379.3025    17.007065    20.032077     20.74858    7068.7681    9468.0031    9255.5259    9414.3787    630.64932    917.80488    148.74007 
   72000    319.39668   -3665.6345   -3118.1995   -3665.6345            0    10903.092     16.97826    19.998148    20.713438    7032.9112    11347.527    8292.8587     13068.89   -36.765915   -579.58089    907.65403 
   72500    301.42184   -3737.3029   -3220.6762   -3737.3029            0    7152.7652    17.042547    20.073869    20.791867    7113.1024    8441.9011    7664.3466     5352.048    1270.8014    1773.5934    -711.4478 
   73000    287.53347   -3701.9444   -3209.1218   -3701.9444            0    11469.968    16.912442    19.920623     20.63314    6951.4367    12463.689    11783.231    10162.983    804.82915    467.90798   -1083.0588 
   73500    301.95319   -3708.0101   -3190.4727   -3708.0101            0    9297.4062    17.058021    20.092096    20.810746     7132.496    7167.3804    11336.416    9388.4218    77.262624     1030.905   -1457.7131 
   74000      294.208   -3734.6109   -3230.3484   -3734.6109            0    10132.834    17.012164    20.038082      20.7548    7075.1274    12812.216    7528.3667    10057.921    172.99128   -398.09502   -1587.8805 
   74500    307.69384   -3711.5391   -3184.1624   -3711.5391            0    9093.7416    17.059517    20.093857     20.81257    7134.3721     10062.48    9070.0725    8148.6724    2361.0997    1472.9073   -268.26122 
   75000    310.49397   -3745.7493   -3213.5732   -3745.7493            0    11047.523    17.039848     20.07069    20.788574    7109.7234    10876.244    11024.031    11242.295    956.80307    674.98382   -1785.5864 
   75500    289.24295   -3753.4787   -3257.7262   -3753.4787            0    10055.108    17.066849    20.102493    20.821516    7143.5749    8922.3705    10351.954        10891    1053.1176   -85.373859    1068.6603 
   76000    287.76071   -3713.0623   -3219.8503   -3713.0623            0    8470.9459    17.129489    20.176275    20.897936    7222.5205    7809.2423    10419.558    7184.0372    1190.7453    -723.2183   -599.13185 
   76500    283.66468   -3775.6098   -3289.4182   -3775.6098            0    6454.9496    17.097593    20.138706    20.859024    7182.2501    6321.5521    5628.0247     7415.272    1272.7752   -318.70003   -214.64014 
   77000    287.26377   -3722.2869   -3229.9266   -3722.2869            0      9094.16    16.973034    19.991992    20.707062    7026.4191    11289.701    7964.7367    8028.0419    22.411888    266.64295    1096.2408 
   77500    303.05875   -3707.9636   -3188.5313   -3707.9636            0    10232.425    16.985095    20.006198    20.721776    7041.4077    9695.6341    11322.281    9679.3606   -891.98162    89.548424     867.2307 
   78000    308.83772   -3679.5945   -3150.2573   -3679.5945            0    8555.8753    17.041163    20.072239    20.790179    7111.3703    7695.5972    10271.666     7700.363   -1342.2179    171.82974   -1160.0268 
   78500    293.88797   -3730.2906   -3226.5767   -3730.2906            0    7563.3617    16.973183    19.992167    20.707243    7026.6036    7736.8405    6913.4113    8039.8334    686.19202   -1268.6126    757.91425 
   79000    296.36338   -3712.0708   -3204.1141   -3712.0708            0    9157.3183    16.969442    19.987762     20.70268    7021.9593    8991.1349    8354.9921    10125.828    2538.4454   -20.946289   -986.46519 
   79500    316.28513   -3716.0064   -3173.9045   -3716.0064            0    8605.4398    17.000114    20.023889      20.7401     7060.104    7202.8963    9809.2971     8804.126   -360.63138    1041.6916      715.406 
   80000    308.66705   -3683.7521   -3154.7074   -3683.7521            0    10315.573    17.042763    20.074124    20.792132    7113.3739    9489.6417    11195.666    10261.413   -1029.4126   -495.61196   -23.892149 
   80500    292.86966   -3695.8278   -3193.8592   -3695.8278            0     7803.338    17.051822    20.084794    20.803183    7124.7231    8616.9571    7273.1634    7519.8934    850.46556    497.05499    1653.2764 
   81000    295.60358   -3715.6309   -3208.9765   -3715.6309            0    9587.1037    17.023492    20.051425     20.76862    7089.2704    10416.207    9492.5726    8852.5316    -1016.295   -18.287226    1776.2865 
   81500     288.7612   -3694.9412   -3200.0144   -3694.9412            0    8856.7369    17.025256    20.053502    20.770772    7091.4739    9347.0378    9650.8325    7572.3404   -821.99425    -966.9964   -69.338928 
   82000    284.84066   -3725.6618   -3237.4547   -3725.6618            0    9179.0228    17.077511    20.115052    20.834524    7156.9722     10263.47    8492.8958    8780.7031   -564.82867    2362.2884   -1611.2042 
   82500    307.41115    -3689.793   -3162.9008    -3689.793            0    8610.8661    17.082997    20.121514    20.841216     7163.871    6740.1684    8764.9926    10327.437    900.38711    111.60126   -290.63165 
   83000     284.9746   -3736.0802   -3247.6435   -3736.0802            0    8104.8768    17.096206    20.137072    20.857331     7180.502     10016.94    8461.3026     5836.388    2183.4575    653.22712   -169.98963 
   83500    290.13309   -3697.3528   -3200.0746   -3697.3528            0    9439.6944    17.012865    20.038907    20.755655    7076.0017    6481.5923    10207.826    11629.664    107.31187   -896.54632    1354.7023 
   84000     308.3067     -3685.44   -3157.0128     -3685.44            0    9709.7337    17.021963    20.049624    20.766755    7087.3603    9275.6823    11159.336     8694.183    72.058339    547.66746   -122.73705 
   84500    291.77196   -3722.7929   -3222.7057   -3722.7929            0    8710.7822    17.073809    20.110691    20.830007    7152.3179    7140.2911    9837.3414    9154.7141   -13.873701    1242.4786    503.12428 
   85000    297.09842   -3723.7625    -3214.546   -3723.7625            0    8500.3691    17.010131    20.035687     20.75232    7072.5908    8979.9148    7673.3444     8847.848    434.92234   -1134.4815   -1685.5885 
   85500     307.1496   -3671.3026   -3144.8587   -3671.3026            0        10138    17.013593    20.039765    20.756544    7076.9105     8998.605    9044.5744    12370.821   -796.55944   -715.13396   -72.832295 
   86000    298.85881   -3706.7538     -3194.52   -3706.7538            0    8474.2322    17.047357    20.079535    20.797736    7119.1275    7077.4355    8354.3115    9990.9496   -1704.4355    665.43955    376.57949 
   86500     280.5537   -3718.1551   -3237.2956   -3718.1551            0    10162.299    16.986291    20.007607    20.723236    7042.8963    11292.974    9670.4856    9523.4373    517.64929   -1364.7231    1507.7821 
   87000    303.23516   -3763.6982   -3243.9635   -3763.6982            0    7700.4075    17.064501    20.099728    20.818652    7140.6275    8267.7775     7458.131     7375.314    24.599331    754.22422    677.43561 
   87500    311.63049   -3776.3269   -3242.2029   -3776.3269            0    8466.4124    17.042739    20.074095    20.792102    7113.3434    8356.3942    7926.0671     9116.776   -1839.9848   -607.26427    347.11096 
   88000    303.32339   -3711.5875   -3191.7016   -3711.5875            0    10976.143    17.023869    20.051869    20.769081    7089.7417    11149.522    10215.836    11563.072     1487.044   -27.415813    1045.3274 
   88500    282.14816   -3705.6673    -3222.075   -3705.6673            0    8479.5237    16.969418    19.987733    20.702651    7021.9293    7992.5144    10186.682     7259.375   -262.91358   -1099.3613   -876.09426 
   89000    283.96446   -3732.7841   -3246.0787   -3732.7841            0    10259.021    17.001789    20.025861    20.742143    7062.1907    9640.6398    11556.125    9580.2981  -0.24055188    1050.6241   -317.66749 
   89500    278.24153   -3721.5536   -3244.6571   -3721.5536            0    9057.4313    17.026269    20.054696    20.772008      7092.74    8774.4871    9489.2802    8908.5265    1583.9504   -2326.7391    2152.2818 
   90000    305.08047   -3749.1949   -3226.2974   -3749.1949            0    10300.455    17.030361    20.059516    20.777001    7097.8557    12046.597    9072.2046    9782.5621   -539.41409   -1052.4237    -1048.067 
   90500    314.64852   -3743.1154   -3203.8186   -3743.1154            0    10556.717    16.984202    20.005146    20.720686    7040.2974    9078.4703    11561.942     11029.74    360.76206    459.47945    67.300897 
   91000    289.10284    -3711.778   -3216.2657    -3711.778            0    6106.7846    17.051327    20.084211    20.802579    7124.1018    5148.2528    8827.8623    4344.2387   -720.87544    -930.2959   -415.59467 
   91500    284.25877   -3747.3922   -3260.1824   -3747.3922            0    8062.3497    16.973542    19.992591    20.707682    7027.0501    8899.9845    6832.7987     8454.266   -1412.8641   -457.27911   -584.17313 
   92000    309.29607   -3706.2123   -3176.0894   -3706.2123            0    8867.2687    17.045931    20.077856    20.795997    7117.3414    8596.8642    10290.296    7714.6462   -851.08064    405.34884   -674.25269 
   92500    299.16918   -3741.3421   -3228.5764   -3741.3421            0    10978.461    16.949837    19.964669    20.678761     6997.649    11377.092    11866.128    9692.1637   -105.89488   -1575.8588    1767.9061 
   93000    293.06324   -3747.2704     -3244.97   -3747.2704            0    9751.1221    17.015387    20.041878    20.758732    7079.1495    9847.9606    8060.4893    11344.916    1043.5473   -359.05096    84.248505 
   93500    289.79347   -3714.2466   -3217.5505   -3714.2466            0    9911.4972    16.974209    19.993376    20.708495    7027.8783    8716.8207    10196.249    10821.422   -708.21116   -344.53564    -62.97637 
   94000    306.34606   -3725.6035   -3200.5368   -3725.6035            0     8455.255    17.031861    20.061283    20.778831    7099.7313    7589.2712    9431.5911    8344.9027    731.47384   -666.77212   -401.59124 
   94500    305.89706   -3713.5323   -3189.2352   -3713.5323            0    8624.9093    17.072721     20.10941    20.828679     7150.951    8862.0386    10352.509    6660.1798    933.62448   -140.08659   -478.74185 
   95000     306.9347   -3779.4698   -3253.3942   -3779.4698            0    8477.9861    17.052658    20.085778    20.804203    7125.7703    8431.9599    7165.2782    9836.7202   -1219.9871      96.7827   -1099.1337 
   95500    287.13204   -3735.6068   -3243.4723   -3735.6068            0     6706.032    17.102808    20.144849    20.865386    7188.8242    5964.9872    6314.4671    7838.6416      -89.345   -1386.1577    663.92649 
   96000    306.33427   -3731.4408   -3206.3944   -3731.4408            0    9628.3554    17.030061    20.059162    20.776634    7097.4799    9071.3416    11886.739    7926.9861   -83.101329    417.19402   -1365.7904 
   96500    314.34533   -3739.0399   -3200.2628   -3739.0399            0    7334.2272    17.090983    20.130921     20.85096    7173.9235    7108.2799    6705.2465    8189.1553    717.96629    2103.7134    1366.3053 
   97000    305.00451   -3729.1205   -3206.3532   -3729.1205            0    9347.4021    16.973884    19.992994    20.708099    7027.4749    9445.5284    8895.1985    9701.4793   -423.11736    -138.3545   -2664.2477 
   97500    302.27083   -3728.7534   -3210.6716   -3728.7534            0    8949.4689      17.0032    20.027524    20.743864    7063.9496    8063.2486    9709.2371    9075.9209    1166.3395   -1009.1581    162.02296 
   98000    301.14025   -3765.8539   -3249.7098   -3765.8539            0    7662.1801    17.028899    20.057794    20.775217     7096.028    6803.1764    9186.9129    6996.4509   -291.82625    293.55371    453.46848 
   98500    297.13058   -3710.8924   -3201.6208   -3710.8924            0    10322.047    16.963396     19.98064    20.695304    7014.4564    10309.092    8212.4315    12444.618    2046.0909   -331.00562    1478.2186 
   99000    307.33553   -3727.7035   -3200.9409   -3727.7035            0    10416.389    16.894486    19.899473    20.611234     6929.319    10524.519    11839.872    8884.7749    723.24534   -191.08722   -512.03128 
   99500    303.50102   -3683.3609   -3163.1706   -3683.3609            0    8862.9943    16.985688    20.006897      20.7225     7042.146    9242.7011    8961.2598    8385.0219   -26.132916    3150.5557    617.37488 
  100000     293.9821   -3738.8971   -3235.0218   -3738.8971            0    9200.4824    16.957351     19.97352    20.687929    7006.9603     8134.181    10268.174    9199.0927   -1.4629854   -155.67747   -39.270679 
  100500    309.21417   -3730.2754   -3200.2929   -3730.2754            0    8702.0508    17.012305    20.038248    20.754973    7075.3037    8099.7275    10725.558    7280.8666    142.07951     633.7037    254.96253 
  101000    297.89619   -3761.9273   -3251.3434   -3761.9273            0    9106.4169    17.006407    20.031301    20.747777    7067.9472    10228.643    9734.5848    7356.0225    -1375.132    505.36084   -341.15467 
  101500    297.34011   -3712.7056   -3203.0749   -3712.7056            0    11187.903    16.936917    19.949451    20.662999    6981.6592    11800.894     11014.11    10748.705   -907.42825    -266.5172   -256.83775 
  102000    304.28006   -3705.9762   -3184.4506   -3705.9762            0    8245.1577    17.040827    20.071843    20.789769     7110.949    6704.5405    10164.453    7866.4799   -613.07122    577.01815   -276.91333 
  102500    288.36051    -3737.635   -3243.3949    -3737.635            0    9176.3468    17.019841    20.047125    20.764166    7084.7101    11878.692    7401.0574    8249.2912    8.7221612   -109.20416    991.44594 
  103000    300.46471   -3743.3502    -3228.364   -3743.3502            0    8042.4078    17.070913    20.107281    20.826474    7148.6799    8127.0336    9081.5386    6918.6513   -1027.9888   -804.72655   -1066.9694 
  103500    295.03847   -3757.2873   -3251.6015   -3757.2873            0    8794.2802    17.092471    20.132673    20.852775     7175.797    8930.6972    10104.659    7347.4843     603.6371    798.46194   -917.94301 
  104000    302.53936   -3744.5413   -3225.9992   -3744.5413            0    9530.5713    17.036846    20.067154    20.784912    7105.9669    9100.4265    10027.911    9463.3764    201.49438     643.2403    261.65913 
  104500    313.57467   -3754.1609   -3216.7047   -3754.1609            0    7675.2356    17.119557    20.164577     20.88582    7209.9651      8622.69    6841.6179    7561.3988    734.47036   -1822.7766    1380.2402 
  105000    306.26821   -3690.6532   -3165.7199   -3690.6532            0     8968.536    17.075445    20.112619    20.832003     7154.375    8884.1152    10214.673    7806.8195   -1888.1646    449.36721   -1044.2998 
  105500    319.79129   -3720.2619   -3172.1506   -3720.2619            0    10474.023    17.019979    20.047287    20.764335    7084.8827     11821.24    10269.148    9331.6825    -1372.594   -229.26593    139.84872 
  106000    291.53964   -3737.4162   -3237.7272   -3737.4162            0    7718.6976    17.040408     20.07135    20.789258    7110.4253    8993.9256    8644.7719    5517.3952   -699.66305    687.53822    465.96376 
  106500    304.75011   -3744.9039   -3222.5727   -3744.9039            0    7469.6631    17.062081    20.096878    20.815699    7137.5898    6145.8044    8936.8294    7326.3554   -960.00729    1738.3856   -101.81759 
  107000    293.79937    -3723.195   -3219.6329    -3723.195            0    8947.4903    16.994985    20.017848    20.733842    7053.7161    9737.5618     8402.103    8702.8059    -977.9872   -389.94532    660.06456 
  107500    294.68002   -3693.9338   -3188.8623   -3693.9338            0    8568.3394    17.034725    20.064656    20.782325    7103.3137    8330.9198    9492.0378    7882.0607   -1047.1814    549.32532   -1445.0722 
  108000    300.34471   -3704.4617   -3189.6811   -3704.4617            0    7802.2223    17.046497    20.078521    20.796686    7118.0493    10536.595    5114.7589    7755.3125    1098.6694   -458.21676    421.77421 
  108500    295.64235   -3679.3695   -3172.6487   -3679.3695            0    9977.7956    17.058918    20.093152     20.81184    7133.6205    8218.4415    11716.723    9998.2227   -566.88897    269.11996   -1573.5617 
  109000    295.23586   -3734.3457   -3228.3216   -3734.3457            0    9809.2883     16.99304    20.015556    20.731469    7051.2938    9202.9051    10670.195    9554.7644    490.91774   -499.68864    77.338842 
  109500    298.11569   -3728.9332   -3217.9731   -3728.9332            0     7568.976    17.057185     20.09111    20.809725    7131.4467    8877.0184     6226.814    7603.0956    1346.2501   -826.73891   -1062.5884 
  110000    303.77639   -3750.8405   -3230.1782   -3750.8405            0    10664.372    16.958987    19.975446    20.689924    7008.9873    10705.523    10035.203     11252.39    -1285.937   -1432.1048    613.70601 
  110500    285.22359   -3729.2542   -3240.3908   -3729.2542            0    10415.593    16.978152     19.99802    20.713306     7032.777    8450.8704    12753.018    10042.891     731.0249    839.74596    291.73646 
  111000    311.15314   -3740.2165   -3206.9107   -3740.2165            0    7996.1191    17.033101    20.062743    20.780343    7101.2819    8787.2741    6485.5806    8715.5026    681.94277   -695.35517   -978.68106 
  111500    294.64583    -3696.396   -3191.3832    -3696.396            0    9484.1636    17.040425     20.07137    20.789279    7110.4464    7575.2538    12701.523    8175.7144   -1225.5137   -1067.2085   -163.84262 
  112000    285.83155   -3708.7988   -3218.8933   -3708.7988            0    9969.3192    17.086975    20.126199    20.846069    7168.8769    8249.6454    12454.528    9203.7845    149.73707    1096.3983   -346.91863 
  112500    297.87477   -3767.4824   -3256.9352   -3767.4824            0     9060.664    17.008933    20.034277    20.750859    7071.0974    9310.3904    10335.278     7536.324   -923.26831    431.46217   -560.88405 
  113000    302.56389   -3773.4924   -3254.9083   -3773.4924            0     8370.994    17.069226    20.105293    20.824415    7146.5599    9569.0582    7087.9415    8455.9823    29.752153    118.89871    1413.7646 
  113500    319.57011    -3752.782   -3205.0498    -3752.782            0    11355.434    16.883841    19.886935    20.598247    6916.2289    13064.761    9792.8813    11208.659   -1386.2391   -1370.6013    -6.619731 
  114000    315.43731   -3710.7691   -3170.1204   -3710.7691            0    8721.7185    17.023318     20.05122    20.768408    7089.0532    7741.9336    8975.9869     9447.235    360.48109   -507.35052    2049.0938 
  114500    297.51548   -3743.3222   -3233.3908   -3743.3222            0    8022.6023       17.018    20.044956     20.76192    7082.4107    7780.5837    8075.5813    8211.6418   -2719.4335   -52.641137   -767.70478 
  115000    313.24051    -3724.238   -3187.3545    -3724.238            0    10942.285    16.955502    19.971342    20.685673    7004.6677    10622.378    9058.2598    13146.217   -1633.7566    12.285476    99.719345 
  115500    293.85954   -3722.1185   -3218.4533   -3722.1185            0    7476.5106    17.080832    20.118964    20.838575    7161.1481     8050.725      6598.51    7780.2969   -854.36028    1948.1257   -162.22276 
  116000    294.12771   -3733.9432   -3229.8183   -3733.9432            0    8168.6834     17.02833    20.057123    20.774523    7095.3162    8895.9134    7331.1974    8278.9393   -995.96793    789.54283   -127.54603 
  116500    306.03732    -3734.916   -3210.3785    -3734.916            0    9165.1133    16.966791    19.984638    20.699445    7018.6681    9479.8443    8612.8413    9402.6544   -380.36425    505.29358    773.08371 
  117000    280.03935   -3739.9565   -3259.9786   -3739.9565            0    10178.345    17.068015    20.103867    20.822939    7145.0397    9290.3071    10762.275    10482.453   -12.192275   -753.53059    1614.4157 
  117500    286.09172   -3718.5203   -3228.1689   -3718.5203            0    10744.993    16.950614    19.965585     20.67971     6998.612    8717.5584    8575.2595    14942.161    1368.1268    1506.0029   -43.589254 
  118000    294.68317   -3746.0566   -3240.9797   -3746.0566            0    9088.5798    17.018112    20.045088    20.762057    7082.5513    7924.0046    9985.4091    9356.3257    1842.8084    264.03791   -1083.7068 
  118500    302.04871   -3737.6416   -3219.9405   -3737.6416            0    8082.7178    17.068244    20.104137    20.823218    7145.3275    8214.7154     7323.028    8710.4099     920.0078   -1040.1778   -843.35499 
  119000    300.85644   -3731.2124   -3215.5548   -3731.2124            0    7725.8477    17.027323    20.055937    20.773294    7094.0576    9190.4431    4983.1322    9003.9678    1459.8709   -389.07917    1735.3284 
  119500    298.50665   -3746.4058   -3234.7756   -3746.4058            0    7364.3282    17.083199    20.121752    20.841463    7164.1256    5777.5895    10077.573    6237.8224   -2501.7032    -2344.684    196.56998 
  120000    283.14999   -3720.6498   -3235.3404   -3720.6498            0    8191.1942     16.96554    19.983166     20.69792    7017.1163    9037.5911     7511.362    8024.6294    1478.8897   -410.07649    240.33768 
  120500    295.05121   -3689.2775   -3183.5698   -3689.2775            0    10295.376     16.91355    19.921928    20.634492     6952.803    8813.2115    11963.629    10109.288   -2034.3072   -579.06312   -195.38941 
  121000    294.77347   -3748.2063   -3242.9746   -3748.2063            0    7410.9503    17.057782    20.091814    20.810454    7132.1955    7158.1693    7875.2085    7199.4733    375.15259    747.53068   -843.08083 
  121500    289.20308   -3746.1181   -3250.4339   -3746.1181            0    7172.9093    17.089667    20.129371    20.849354    7172.2666     7366.829    6515.9414    7635.9576    1646.4372   -313.69627   -472.58108 
  122000     306.9955    -3715.848   -3189.6682    -3715.848            0    9209.2349    17.055912    20.089612    20.808173    7129.8512    9536.6229    8025.4031    10065.679   -193.68168    793.75948   -477.42447 
  122500     305.4982   -3706.9108   -3183.2974   -3706.9108            0    6659.8085    17.101401    20.143191    20.863669      7187.05    5327.8158    7555.6986     7095.911    232.40746    642.97506   -827.49906 
  123000    296.32996   -3738.1786   -3230.2792   -3738.1786            0    7495.3055    17.022702    20.050494    20.767656     7088.283    6331.6044    9414.2164    6740.0958    189.61729   -1703.0696     1075.339 
  123500    298.69873   -3744.4411   -3232.4817   -3744.4411            0    8271.4148    17.070318     20.10658    20.825748    7147.9326    9280.4574    7220.9701    8312.8168    1255.3305    1335.4842   -373.28327 
  124000    305.27242   -3704.0737   -3180.8472   -3704.0737            0    10790.997    17.060504     20.09502    20.813775    7135.6111    11754.137    9886.3645     10732.49   -1399.2905   -1404.5372    1626.4834 
  124500     282.8926   -3677.7605   -3192.8923   -3677.7605            0    8432.4654    17.040275    20.071193    20.789096    7110.2589    6944.1542    10491.022    7862.2204   -96.244327    455.00511    1197.5012 
  125000    315.90779    -3713.013   -3171.5579    -3713.013            0    9053.3968    16.981418    20.001867     20.71729    7036.8362    8288.0184    8545.0595    10327.112   -499.98979    987.51987    295.47527 
  125500    304.21457   -3742.2898   -3220.8764   -3742.2898            0     8601.351    17.086333    20.125443    20.845286    7168.0687    8284.4057    9394.3077    8125.3396   -29.527093   -329.42221    517.11071 
  126000    303.44918   -3707.7184   -3187.6168   -3707.7184            0    10916.016     16.97913    19.999172    20.714499     7033.992    10395.553    11932.167    10420.328    1446.0066   -1236.5937    407.67384 
  126500    289.48662   -3794.9047   -3298.7345   -3794.9047            0     7681.325    17.090329     20.13015    20.850161     7173.099    8303.9149    7114.4174    7625.6428   -564.23871    852.33776    157.58396 
  127000    310.91675   -3751.8607     -3218.96   -3751.8607            0    8529.1432    17.017134    20.043936    20.760864    7081.3305    8557.9827    7878.6555    9150.7915    532.70902   -245.90099    820.06173 
  127500    301.36932   -3715.3219   -3198.7852   -3715.3219            0    9467.4042    16.952508    19.967815     20.68202    7000.9578    8557.9848    10865.718      8978.51    659.53899   -1415.9599    854.67084 
  128000    295.95708    -3705.704   -3198.4437    -3705.704            0    10348.451    16.918638    19.927921    20.640699    6959.0796    11701.032    8999.3039    10345.019    857.52298   -911.32281   -2399.9823 
  128500    283.53905   -3723.9698   -3237.9935   -3723.9698            0    12233.374    16.922455    19.932417    20.645356    6963.7904    13961.574    11444.084    11294.464   -1386.9919    183.81118   -620.64324 
  129000    305.13976   -3711.1685   -3188.1694   -3711.1685            0    7131.5709    17.028286    20.057072    20.774469    7095.2613    7573.8715    7738.4966    6082.3446    1077.4363    460.63034    254.23652 
  129500    284.59349    -3708.335   -3220.5515    -3708.335            0    7623.7991    17.018295    20.045303     20.76228    7082.7794    8346.5797    8687.3291    5837.4883   -1421.8747   -170.69217    426.97462 
  130000    289.42054   -3729.7404   -3233.6835   -3729.7404            0    8727.0136    17.037365    20.067765    20.785545    7106.6161    9946.0149     8028.116      8206.91    1789.8553    85.832098    541.70317 
  130500    299.30384   -3695.4024   -3182.4059   -3695.4024            0    7970.5261    17.021582    20.049175     20.76629    7086.8845    8332.1625    8446.0928     7133.323    618.05006    571.05977   -458.70048 
  131000    292.94128   -3729.2482   -3227.1568   -3729.2482            0    9949.8142    16.991952    20.014275    20.730142    7049.9396    9486.0283     11806.99    8556.4242    754.86917   -881.02373   -672.85385 
  131500    304.97073   -3683.8696   -3161.1602   -3683.8696            0    11836.584     16.94586    19.959985     20.67391    6992.7252    12480.565    10950.893    12078.295    1339.9328    1608.8357   -883.17562 
  132000    303.11721   -3704.5649   -3185.0324   -3704.5649            0      9076.15     17.15656    20.208162    20.930963    7256.8183    9572.8641    8856.2311    8799.3549    743.20173   -226.48527   -2159.6762 
  132500     309.9607   -3703.3468   -3172.0847   -3703.3468            0    8205.4475     17.05444    20.087878    20.806377    7128.0053    7958.3318    10263.666    6394.3447    506.68906   -265.25233    110.59911 
  133000    292.78497   -3725.0155   -3223.1921   -3725.0155            0    10524.478    17.027027    20.055588    20.772933    7093.6874    11190.041     10629.41    9753.9827    -2100.708    997.23344   -91.594341 
  133500    289.82322   -3701.9278   -3205.1808   -3701.9278            0    9381.9733    17.101698    20.143541    20.864032    7187.4245    9351.0372     10535.67    8259.2124    -601.6986   -2824.1618    1788.9053 
  134000    286.90513   -3746.6161   -3254.8706   -3746.6161            0    7151.9388    17.154349    20.205557    20.928265    7254.0124    6917.8422    6811.6552     7726.319    620.54327   -766.47373   -1138.2844 
  134500    298.28295   -3723.7975   -3212.5507   -3723.7975            0     9150.322    17.031846    20.061265    20.778812    7099.7125    7172.0306    9184.7461    11094.189   -313.74359     98.38174    -1538.177 
  135000    294.80844   -3789.0061   -3283.7145   -3789.0061            0    8945.0292    16.969641    19.987996    20.702923    7022.2061    8793.9374    7053.4433    10987.707    1305.8638    702.62937    1112.9329 
  135500    302.08133   -3759.1263   -3241.3692   -3759.1263            0    7593.4321    17.048354    20.080709    20.798952    7120.3762    7913.7582    6801.5461     8064.992   -311.96825   -1082.0848    1245.8602 
  136000    299.81437   -3747.5329   -3233.6613   -3747.5329            0    10034.239    17.009754    20.035243     20.75186    7072.1209    11767.373    7844.0353    10491.308     62.93986   -257.03546     -160.248 
  136500    292.20161    -3713.166   -3212.3424    -3713.166            0    9309.4205    17.019684    20.046939    20.763974    7084.5136    10087.173    8128.3165     9712.772     9.605306    987.36721   -427.06046 
  137000    289.54468    -3728.086   -3231.8164    -3728.086            0     10631.59    16.970885    19.989461    20.704441    7023.7508     10800.73    12575.149    8518.8907    106.41134   -74.027074    267.45878 
  137500     306.0493   -3691.1559   -3166.5979   -3691.1559            0    8991.7624    17.032473    20.062004    20.779577    7100.4967     10164.74    7129.8451    9680.7021     1710.824   -942.72757   -314.40426 
  138000      305.233   -3757.6438   -3234.4849   -3757.6438            0    10140.529    16.987228    20.008711    20.724379    7044.0617    8421.7883    9782.3607    12217.438   -684.01979   -765.79046     917.4104 
  138500     321.7503   -3760.0241   -3208.5551   -3760.0241            0    8381.1297    17.039721     20.07054    20.788419    7109.5644    6892.2944    8552.1804    9698.9144   -538.67458   -239.36236     1395.848 
  139000    293.87136   -3790.8586   -3287.1731   -3790.8586            0    8455.2276    17.057755    20.091782    20.810421     7132.162    8348.8046    8721.5589    8295.3194    272.32972    2358.6672   -1174.1065 
  139500    317.49255   -3740.1532   -3195.9819   -3740.1532            0    9792.4189    16.997513    20.020825    20.736926    7056.8632    10659.014    10585.833    8132.4102   -567.01796   -491.55817    1392.6417 
  140000    299.98385   -3737.6101    -3223.448   -3737.6101            0     7506.128    17.047197    20.079346     20.79754    7118.9264    7760.8429    8490.9295    6266.6115    829.61681    657.13869   -92.515265 
  140500    307.20476   -3715.4311   -3188.8926   -3715.4311            0    8913.3609    17.008476    20.033738    20.750301    7070.5272    8148.1529    9423.6164    9168.3133    367.44583    128.58353   -846.83613 
  141000    295.62921   -3751.0438   -3244.3455   -3751.0438            0    8473.7589    16.992294    20.014678    20.730559    7050.3658    8433.9714    8791.0687    8196.2367   -562.47182     53.42332    1314.3401 
  141500     295.4019   -3714.4817    -3208.173   -3714.4817            0    10457.509    16.994866    20.017708    20.733697    7053.5678    13373.614     8340.746     9658.166    1054.9486   -1303.1468    1159.6332 
  142000    301.76026   -3769.4119   -3252.2051   -3769.4119            0    10172.954    16.980027    20.000229    20.715594    7035.1075    10687.683    9739.0022    10092.178    1129.5369    732.81993   -840.26196 
  142500    315.93421   -3739.0774    -3197.577   -3739.0774            0    9697.1048    16.988402    20.010094    20.725811     7045.522    8213.5614    11838.182    9039.5707    992.71937    1277.6088   -613.95119 
  143000    292.44956   -3732.4035    -3231.155   -3732.4035            0    9282.9184    16.974067    19.993209    20.708322    7027.7021    10990.008     8276.258    8582.4891   -16.008826     1463.266   -100.43942 
  143500    288.58371   -3714.8279   -3220.2053   -3714.8279            0    8316.1066    17.005244    20.029931    20.746358    7066.4968    9655.0755    8166.6775    7126.5667   -500.41607   -254.48126   -2072.5607 
  144000    293.38068   -3702.4015   -3199.5571   -3702.4015            0    9631.3926    16.997485    20.020792    20.736891    7056.8283    9993.4595    11225.926    7674.7925   -1948.0767    250.34183   -1010.9953 
  144500    290.94669   -3702.2352   -3203.5625   -3702.2352            0    9595.8428    17.015051    20.041482    20.758322    7078.7298    10321.925    10698.097    7767.5056    2054.6016   -832.17089   -1056.7887 
  145000    319.58326   -3736.7009   -3188.9461   -3736.7009            0    7908.1998    17.085478    20.124436    20.844243    7166.9928    8540.8632    8593.4719    6590.2644    267.28055    1497.4908   -3004.9309 
  145500    313.41609   -3724.1891   -3187.0047   -3724.1891            0    9939.6129     16.99697    20.020186    20.736264    7056.1877    9205.8921      9706.36    10906.587    75.451792   -737.49714   -508.76671 
  146000    286.75611   -3729.3983   -3237.9082   -3729.3983            0    8448.3576    17.034222    20.064063    20.781711     7102.684    8127.1293    9745.4478    7472.4956   -41.633258     407.7433    1178.1915 
  146500    295.31237   -3732.5072   -3226.3519   -3732.5072            0     8814.743    16.993923    20.016596    20.732546    7052.3931    7437.7852    9283.8027     9722.641     -821.212    66.381242     607.3146 
  147000     283.5697   -3755.4621   -3269.4333   -3755.4621            0    10190.268    17.021174    20.048695    20.765793    7086.3753    9635.9802    12462.179    8472.6456   -379.58306    353.27844    774.75948 
  147500    301.12285   -3747.3656   -3231.2514   -3747.3656            0    8455.5408    17.085046    20.123928    20.843717    7166.4499    8415.7167     7920.674    9030.2316    564.16624    -105.4605   -1816.5355 
  148000    290.32191   -3760.9162   -3263.3143   -3760.9162            0    8013.3464    17.108234     20.15124    20.872006    7195.6684    8410.9669      6847.24    8781.8322     77.51606    2047.2535    153.50688 
  148500    315.92243   -3756.7961   -3215.3159   -3756.7961            0    7247.6607    17.049187     20.08169    20.799968    7121.4202    7763.2948    6018.7848    7960.9024    155.49536     606.8164   -808.98076 
  149000    315.42452   -3682.5221   -3141.8953   -3682.5221            0    11505.611     16.99332    20.015886     20.73181    7051.6421    9907.3005    11717.421    12892.112    373.58555   -1212.0509    858.86417 
  149500    301.16565    -3710.936   -3194.7484    -3710.936            0    10054.736    16.992468    20.014883    20.730772    7050.5826     11110.45     9838.858    9214.8986   -959.54638    694.89246    238.13286 
  150000    290.35093   -3748.1441   -3250.4926   -3748.1441            0    8438.8367    17.019697    20.046955     20.76399    7084.5301    8259.6082    8338.5707    8718.3312   -623.09458     827.5548    958.74431 
  150500    299.83709   -3762.4625    -3248.552   -3762.4625            0    9303.3441    17.069855    20.106034    20.825183    7147.3501    9718.3511    8434.9596    9756.7217    1982.7777   -396.28669    -2366.881 
  151000     306.3749   -3730.1687   -3205.0526   -3730.1687            0     9364.279    17.013304    20.039425    20.756191    7076.5496    10404.631    10116.007    7572.1992    179.89548   -1124.7885    3017.0345 
  151500     300.6595   -3734.5218   -3219.2017   -3734.5218            0    8798.4275    16.929429    19.940631    20.653863    6972.4033    8771.1469    8626.3112    8997.8244    200.50946     224.7538   -63.718138 
  152000    278.97536   -3742.8136   -3264.6594   -3742.8136            0    6975.2432    17.000704    20.024584    20.740819    7060.8388    4919.1082    7620.1758    8386.4455    3.6183572    355.53221    850.77314 
  152500    292.24703   -3760.8163   -3259.9149   -3760.8163            0    8847.3339    17.027211    20.055806    20.773158    7093.9181     8202.654    8905.2262    9434.1215   -997.26137    422.03827    1183.2526 
  153000    309.33524   -3741.3329   -3211.1429   -3741.3329            0    9801.0774    16.988637    20.010371    20.726098    7045.8148    8924.7553    10354.839    10123.638    1830.7118    1626.9647   -898.44948 
  153500    320.32616   -3766.1199   -3217.0918   -3766.1199            0    7728.1576    17.073424    20.110238    20.829537    7151.8346    8902.1904    8072.1868    6210.0956    919.19476    330.12274    162.20986 
  154000    292.67519   -3785.9547   -3284.3195   -3785.9547            0     6809.641    17.040684    20.071675    20.789595    7110.7709    5924.4496    6979.8836    7524.5897   -765.30346   -1055.5018    564.02853 
  154500    288.59924   -3736.9626   -3242.3134   -3736.9626            0    9104.5917    16.946576    19.960828    20.674783    6993.6111     8137.265    7866.2115    11310.299   -1251.0609    -326.2756   -668.59785 
  155000    298.92073   -3739.5791   -3227.2392   -3739.5791            0    8219.3637    17.021757    20.049382    20.766504    7087.1037    9045.2211    7667.3105    7945.5595      -175.31      -823.75   -933.23094 
  155500    301.99412   -3727.8541   -3210.2466   -3727.8541            0    9212.7721    16.961218    19.978075    20.692647    7011.7546    10384.247    6845.5263    10408.543    877.18232    221.04503     154.4461 
  156000    283.90393   -3780.7819   -3294.1802   -3780.7819            0    7261.3152    17.051957    20.084953    20.803348    7124.8918     7046.835    6853.7972    7883.3133    1095.9372   -2064.6265    453.46647 
  156500    301.85526   -3763.9354   -3246.5658   -3763.9354            0    6607.0173    17.056514     20.09032    20.808907    7130.6055    6824.2831    6272.9016    6723.8672   -650.71771   -368.02245   -837.89319 
  157000    297.02472   -3757.8119   -3248.7217   -3757.8119            0    10290.257    16.993308    20.015872    20.731796     7051.628    12169.058    7935.1835     10766.53    1260.1596   -1318.2853    78.503552 
  157500    306.07137   -3783.5597   -3258.9639   -3783.5597            0    8408.2113    17.039936    20.070793    20.788682    7109.8335    9677.0413    9077.8612    6469.7314   -160.03824    762.92077    976.53915 
  158000    305.30475   -3744.4227   -3221.1408   -3744.4227            0    9082.2334    17.038467    20.069064     20.78689    7107.9955     10628.07    7131.0187    9487.6119    556.16569    735.94029    3041.5103 
  158500    296.84308   -3757.0446   -3248.2657   -3757.0446            0    9614.0849    17.021296    20.048839    20.765942    7086.5277    9403.1353    11060.674    8378.4451    49.859794    592.90085    513.89069 
  159000    286.88085   -3713.9861   -3222.2821   -3713.9861            0    10655.545    16.990691     20.01279    20.728603    7048.3704    11531.266    9618.9462    10816.422   -457.39572      375.049   -1297.5356 
  159500    296.57412   -3724.4499    -3216.132   -3724.4499            0    9199.0781    17.088153    20.127588    20.847507    7170.3605    9340.8534    11499.828    6756.5528    493.48015   -961.29923    16.807917 
  160000    317.50598   -3713.9451   -3169.7508   -3713.9451            0    12036.708    17.013801     20.04001    20.756797    7077.1701    12870.886    11820.046    11419.193    614.28653   -408.00223   -2614.1006 
  160500    306.14927   -3719.2314   -3194.5021   -3719.2314            0    10161.438    16.916622    19.925547     20.63824    6956.5924    10696.427    10918.764    8869.1233   -295.70069   -220.14999   -151.87967 
  161000    286.43391   -3762.3598   -3271.4219   -3762.3598            0    6543.3481    17.040234    20.071145    20.789046    7110.2075    5307.9901    8059.7497    6262.3045      580.222   -1171.3527   -1685.2429 
  161500    306.58834   -3748.1807   -3222.6987   -3748.1807            0    7394.5702    17.073384    20.110192    20.829489     7151.785    9624.3959     5213.239    7346.0756    1072.3255   -1548.0576   -10.620576 
  162000    295.85255   -3754.7721   -3247.6909   -3754.7721            0    8007.6558    17.061619    20.096333    20.815135    7137.0096    8329.2062     7955.588    7738.1731   -848.49426   -295.11818    97.286984 
  162500    311.65957   -3770.7148   -3236.5409   -3770.7148            0    7203.9008    17.039047    20.069747    20.787597    7108.7212    5452.3361    8216.5696    7942.7967   -674.58039   -2853.2312   -165.27542 
  163000    296.37679   -3732.1889   -3224.2092   -3732.1889            0    9431.2235    16.968737    19.986931     20.70182    7021.0842    8695.8131    9003.1952    10594.662   -213.07976   -2319.7188    1074.5991 
  163500    275.91846   -3744.5115   -3271.5967   -3744.5115            0    8192.8023    16.949813    19.964641    20.678732    6997.6197    7908.2594    8230.3538    8439.7937    766.91664   -642.35264    275.12162 
  164000    304.35182   -3751.0368   -3229.3882   -3751.0368            0    8915.2097    17.011608    20.037427    20.754122    7074.4337    9819.5319    8517.2709    8408.8262     21.61497    867.55452    541.28444 
  164500    300.88396   -3713.3504   -3197.6456   -3713.3504            0    8126.7378     17.09035    20.130174    20.850187    7173.1256    9870.8117    8729.2099    5780.1918    851.56705    1525.0303   -1572.2764 
  165000    294.83044   -3715.6786   -3210.3493   -3715.6786            0    9481.5974    16.996985    20.020204    20.736283    7056.2068    10715.467    8501.4808    9227.8442   -2199.7316   -265.49891   -564.69455 
  165500    294.14899   -3710.2348   -3206.0735   -3710.2348            0    7385.6772     17.09237    20.132554    20.852651    7175.6694    6742.0202    5888.7976    9526.2138   -342.78878    192.13333    1539.4033 
  166000    295.05499   -3704.7144   -3199.0002   -3704.7144            0    9126.2812    17.060399    20.094896    20.813646    7135.4787    8260.1483    10179.116    8939.5789    735.13208   -1450.7726   -197.73368 
  166500    285.05286   -3731.7657   -3243.1949   -3731.7657            0    7784.8673    17.049953    20.082593    20.800903    7122.3807    6725.6104     7982.355    8646.6366    710.90506   -494.01735    -1112.767 
  167000    287.96536   -3738.4056   -3244.8428   -3738.4056            0    7795.7042    17.014388    20.040701    20.757513    7077.9021    6124.4129    7670.1577    9592.5422   -939.42537   -1133.4893   -1249.7191 
  167500    282.48208   -3703.0304   -3218.8657   -3703.0304            0    9546.6191    16.920772    19.930434    20.643302    6961.7126    8671.0864    10153.309    9815.4619    198.85956   -736.68297     2051.295 
  168000    323.10474    -3704.704   -3150.9135    -3704.704            0    8215.3266    17.035709    20.065814    20.783525    7104.5438    8725.9235     7822.354    8097.7023    730.18474    1345.7236   -265.08135 
  168500    294.34271   -3700.4011   -3195.9078   -3700.4011            0     7460.857    17.072144    20.108731    20.827976    7150.2266    8070.3323    8718.7237     5593.515    785.88176    563.68961   -754.27346 
  169000    290.71861   -3678.9487   -3180.6669   -3678.9487            0    7729.5265    17.092794    20.133053    20.853168    7176.2035    9574.3533    7354.6398    6259.5865   -395.48398    822.07997    744.16806 
  169500    294.43791   -3701.3481   -3196.6916   -3701.3481            0    9608.5274    16.982492    20.003133    20.718601     7038.172    9817.5685    9583.0028     9425.011    18.419433   -3108.5703   -2227.7776 
  170000    292.17218   -3690.7758   -3190.0027   -3690.7758            0    6954.1725    17.090317    20.130135    20.850146    7173.0839    7428.6013    6480.6287    6953.2873   -735.75362    817.67578   -984.31763 
  170500    293.18911   -3740.9301    -3238.414   -3740.9301            0    8558.6953    16.966811    19.984662    20.699469    7018.6927     8180.254    6498.0054    10997.827    1836.3308   -293.38999   -1932.1825 
  171000    307.05483   -3737.2322   -3210.9507   -3737.2322            0    8555.4997    16.969833    19.988222    20.703157    7022.4447    8054.4525     6614.415    10997.632     610.5107    1335.8069    540.36153 
  171500    301.06324   -3737.4822   -3221.4701   -3737.4822            0    8286.3242    16.960124    19.976786    20.691312    7010.3979     8763.121    8112.6673    7983.1842   -557.43442    1865.9238    713.07591 
  172000    291.10406   -3722.5992   -3223.6568   -3722.5992            0    11279.195    16.939051    19.951965    20.665603    6984.2991    15341.323      10940.2    7556.0633    1879.7073    73.411173    1052.9899 
  172500    313.94807   -3725.8443    -3187.748   -3725.8443            0    10608.154    16.948485    19.963076    20.677112    6995.9746    13318.528    9714.3083    8791.6254   -69.767683   -893.76741   -675.95754 
  173000    297.21767   -3764.5919    -3255.171   -3764.5919            0     8051.142    17.063311    20.098326    20.817199    7139.1333    8621.0988      7930.62    7601.7071    845.62164   -1185.9179    1587.2036 
  173500     294.5869   -3706.0866   -3201.1748   -3706.0866            0    10996.464    16.977996    19.997837    20.713115    7032.5829    10610.339    11751.442     10627.61   -237.80073    346.29189   -2211.8832 
  174000    286.13481   -3721.5287   -3231.1034   -3721.5287            0     9465.801    16.971587    19.990287    20.705296    7024.6215     8214.966    10162.184    10020.252   -528.87379    644.79424    645.17311 
  174500    300.32371   -3703.9396   -3189.1951   -3703.9396            0    8244.2022    17.011558    20.037369    20.754061    7074.3717    7970.6151    8413.6867    8348.3049    359.53038    257.78582   -181.68895 
  175000    307.08638   -3721.7276    -3195.392   -3721.7276            0    7170.2762    17.029023     20.05794    20.775369     7096.183     8687.654    4980.9634     7842.211    1018.1348    337.02807    1151.2129 
  175500    284.64672    -3754.098   -3266.2233    -3754.098            0    10336.339    16.954873    19.970601    20.684906    7003.8884     10778.67    9946.6195    10283.727     991.1933   -982.55804   -369.07617 
  176000    291.55573   -3712.8387   -3213.1222   -3712.8387            0    9472.1259    16.943744    19.957492    20.671328     6990.105    10968.267    8960.8359     8487.275    917.87233    486.54482    141.30574 
  176500    311.96336   -3744.0654   -3209.3709   -3744.0654            0    8176.0882    17.021273    20.048812    20.765914    7086.4988    9076.6753    8163.2671    7288.3223    2311.7977    256.48621   -41.835606 
  177000    317.05028   -3702.5807   -3159.1674   -3702.5807            0    10234.698    16.889233    19.893286    20.604825    6922.8572    9415.9695    8615.3174    12672.808   -667.38435    41.712087    1245.9035 
  177500    290.48937   -3714.4969    -3216.608   -3714.4969            0    9027.8615    16.970839    19.989406    20.704383    7023.6927    11111.211    8918.6047    7053.7689   -826.17207    -177.8992   -544.12317 
  178000    315.72153   -3754.3775   -3213.2416   -3754.3775            0    7047.9923    17.060585    20.095115    20.813873    7135.7121    6776.8718    8028.8927    6338.2126    58.731045   -192.69118   -966.65187 
  178500    285.82939   -3759.7317   -3269.8299   -3759.7317            0    9007.7125    16.981328    20.001761     20.71718     7036.724    8410.7457    8032.2057    10580.186   -644.46591   -482.69654    279.55797 
  179000    300.43508   -3742.4695    -3227.534   -3742.4695            0    6312.4246     17.07871    20.116465    20.835987    7158.4799    5672.3982    5605.0101    7659.8656    1477.4318   -341.81619   -1179.1466 
  179500    302.27372   -3737.3905   -3219.3037   -3737.3905            0    10770.891    16.945302    19.959327    20.673229    6992.0337    10988.463    10249.774    11074.435   -271.68415    2431.8962   -550.41603 
  180000    288.98579   -3722.0136   -3226.7018   -3722.0136            0    7798.1119    16.993618    20.016238    20.732175     7052.014    7290.2488    6399.6433    9704.4436   -1028.1409    978.09191   -244.33182 
  180500    303.88183   -3723.9125   -3203.0694   -3723.9125            0     8285.755    16.997198    20.020454    20.736542    7056.4719    8629.6741    8465.9725    7761.6184   -343.38986    503.79314    131.49064 
  181000    304.42221    -3726.205   -3204.4357    -3726.205            0    9231.8283    17.056671    20.090505    20.809098    7130.8021    8682.1636    9116.9303     9896.391    2393.8454   -118.84696   -808.65793 
  181500     299.0421   -3717.1529    -3204.605   -3717.1529            0    7346.5662    17.059957    20.094376    20.813107    7134.9242    7834.7343    7690.2507    6514.7137   -421.70305   -1287.5263    830.68575 
  182000    319.00798   -3735.2396   -3188.4709   -3735.2396            0    7377.7017    17.098414    20.139673    20.860025    7183.2848    7992.6583    6330.5617    7809.8851   -1609.9773     100.2767   -651.06338 
  182500    295.60132   -3741.5108   -3234.8602   -3741.5108            0    7504.9091    17.044955    20.076705    20.794805    7116.1181    6956.2772    6640.5327    8917.9174   -769.77113    1078.3081     95.20173 
  183000    287.29071   -3739.0022   -3246.5957   -3739.0022            0    9074.0396    17.023997     20.05202    20.769236    7089.9011    11087.658    6083.8765    10050.584   -254.55837    1215.8736   -1291.0819 
  183500    292.18852    -3723.119   -3222.3179    -3723.119            0    9534.8916    17.073078    20.109831    20.829115    7151.3999    7938.7926    9482.2046    11183.678   -580.83808    316.55075    387.74918 
  184000     292.9172   -3741.0753   -3239.0253   -3741.0753            0     8206.781    17.012408     20.03837    20.755098    7075.4323    6679.1004    6985.6079    10955.635    180.63086    1339.6344    942.13878 
  184500    304.27126   -3696.7959   -3175.2854   -3696.7959            0    8562.0217    17.051562    20.084488    20.802866    7124.3968    9290.3529    9860.0802    6535.6319   -277.89726    801.66529    333.47909 
  185000     307.7963   -3719.8859   -3192.3336   -3719.8859            0     9247.899    16.992955    20.015456    20.731365    7051.1883     8970.981    8446.4407    10326.275   -968.73802    1407.8048   -1148.1735 
  185500    296.63468   -3700.8669   -3192.4452   -3700.8669            0    8997.8126    17.031336    20.060664     20.77819    7099.0741    8229.6738    9329.2943    9434.4695   -713.02833    586.79056    415.37739 
  186000    304.25337   -3684.2179    -3162.738   -3684.2179            0    10630.306    16.953226    19.968661    20.682897    7001.8479    9715.2975    10089.804    12085.818    738.82257   -60.342495   -48.062119 
  186500    297.23719   -3759.0986   -3249.6442   -3759.0986            0    8756.9459    17.054248    20.087652    20.806143    7127.7644    10483.609    6162.7198    9624.5084   -244.42374   -730.39836    1199.6722 
  187000    298.38663   -3745.2622   -3233.8377   -3745.2622            0    9477.0685    17.017409    20.044261      20.7612    7081.6741    10964.913    9424.8753    8041.4172   -1221.5234   -16.215176    441.23002 
  187500    292.62301   -3686.3988   -3184.8529   -3686.3988            0    7921.1328    17.030787    20.060017     20.77752     7098.388    5578.7327    8057.8986    10126.767   -711.65439   -1103.8788    2159.6993 
  188000    304.35581   -3668.4284   -3146.7729   -3668.4284            0    10229.403    17.016951     20.04372     20.76064    7081.1014    8406.6549    12250.472    10031.083    423.18822    556.98878    1670.7313 
  188500    294.22332   -3708.8774   -3204.5887   -3708.8774            0    6202.3078    17.162813    20.215526    20.938591    7264.7549    7667.8723    6187.9587    4751.0923     1303.621   -1039.5893    290.25226 
  189000    301.89865   -3775.7315   -3258.2876   -3775.7315            0    7025.3905    17.060528    20.095049    20.813805    7135.6414    6767.1233    6569.6757    7739.3725    43.106178     -868.884    826.52255 
  189500    292.48518   -3738.7462   -3237.4366   -3738.7462            0    7597.9375    17.097034    20.138048    20.858342     7181.546    7180.7029    7434.2827    8178.8269    188.47785   -195.15385    566.49637 
  190000    312.13272   -3718.4943   -3183.5095   -3718.4943            0    8241.9677    17.053927    20.087273    20.805751    7127.3613    9249.3066    8698.7739    6777.8226    1264.4993   -813.38571   -238.45317 
  190500    311.81596   -3724.4783   -3190.0364   -3724.4783            0    11452.468    17.022168    20.049866    20.767005    7087.6167    12918.965     10835.15    10603.287   -27.110819    436.78097   -215.53063 
  191000    307.96002   -3742.7402   -3214.9073   -3742.7402            0    7360.3191    17.080165    20.118178    20.837761    7160.3091    6239.5401    8666.1821    7175.2352   -1238.3853   -946.39919    265.82192 
  191500    296.48958   -3758.7369   -3250.5639   -3758.7369            0    7903.4093    17.075491    20.112673    20.832059    7154.4326    8193.4807    7888.7833    7627.9639   -1479.0104   -342.87378   -1103.6721 
  192000    291.06093   -3719.8577   -3220.9892   -3719.8577            0    8270.2817    17.065989     20.10148    20.820466    7142.4949    7386.0854    9024.2874    8400.4724   -202.60042    1272.0373    181.09389 
  192500    310.49692   -3713.7241    -3181.543   -3713.7241            0    8628.9843    17.067497    20.103257    20.822307    7144.3892    9730.5983    9763.0075     6393.347   -2229.0816   -265.34428   -355.78832 
  193000    304.10274   -3740.6243   -3219.4026   -3740.6243            0    9521.1072    17.033004    20.062629    20.780225    7101.1605    8780.4673    9629.3325    10153.522   -141.35833    1505.0788   -122.19357 
  193500    282.51692   -3736.3509   -3252.1266   -3736.3509            0     7462.767    17.068089    20.103955    20.823029    7145.1329    8125.2825    6530.8389    7732.1797    956.31988    3250.1186    382.84339 
  194000    312.21673   -3736.1518    -3201.023   -3736.1518            0    8683.2203    17.020197    20.047544    20.764601    7085.1548    8439.2682    8437.4985    9172.8944   -354.39934    648.21178    21.532008 
  194500       307.87   -3728.7717   -3201.0931   -3728.7717            0    9203.6227    16.983384    20.004183    20.719689     7039.281    8878.2408    7755.6669     10976.96    60.076182    144.27731   -156.44169 
  195000    292.69558   -3723.4511   -3221.7809   -3723.4511            0    8519.7193    17.059716    20.094092    20.812813    7134.6219    7912.1296     7633.339    10013.689   -38.459441   -1051.4637    164.69648 
  195500    297.77959   -3696.9822   -3186.5981   -3696.9822            0    9401.5348    17.090502    20.130354    20.850372    7173.3173    9176.1696    9901.1951    9127.2396    447.78078    421.34924    1046.4345 
  196000    294.51001   -3723.3379   -3218.5578   -3723.3379            0    6961.2141    17.092325    20.132501    20.852597    7175.6134    8280.9254    6273.0227    6329.6943   -758.09474   -1550.6066   -64.174877 
  196500    299.42316   -3701.2349   -3188.0339   -3701.2349            0    10044.795     17.05414    20.087525    20.806011     7127.629    10785.025    10708.994    8640.3665    1987.6648    658.28114   -1176.8158 
  197000    291.81182   -3698.3712   -3198.2158   -3698.3712            0    8776.3669    17.043002    20.074406    20.792423    7113.6732    9788.4835    6769.7425    9770.8748    622.16252    1327.9908    532.38263 
  197500    308.44395   -3740.8449   -3212.1825   -3740.8449            0    9103.8102    17.074707    20.111749    20.831102    7153.4469    9396.6786    8925.4257    8989.3262   -77.995845    376.34184   -1009.1302 
  198000     289.7682   -3692.6964   -3196.0437   -3692.6964            0    10846.653    17.015265    20.041734    20.758583    7078.9968    10745.077    11447.435    10347.448   -926.36232    1741.9982    106.79814 
  198500    284.78288   -3698.3219   -3210.2137   -3698.3219            0    8107.4468    17.096468    20.137381    20.857651    7180.8318    6153.9011    11803.582    6364.8571    2542.5297   -886.62863   -393.00972 
  199000    314.33676   -3738.5243   -3199.7619   -3738.5243            0    7191.8261    17.081051    20.119222    20.838843    7161.4238    8752.8412    5534.8133    7287.8237    640.87163    604.03788   -355.88077 
  199500    295.15358   -3728.1502    -3222.267   -3728.1502            0    9276.1083    17.096627    20.137568    20.857845    7181.0324    8764.2894    9357.0542    9706.9813   -199.32254    668.72507    980.72044 
  200000    302.48665   -3760.6889   -3242.2372   -3760.6889            0     8301.119    17.093179    20.133507    20.853638    7176.6884         8500    8101.2392     8302.118    1352.5999    846.38711   -895.99484 
  200500    286.98639   -3737.7213   -3245.8365   -3737.7213            0    10133.433    17.037547    20.067979    20.785767    7106.8436    9658.4504    9803.8769    10937.971   -613.57109    -296.8143     590.8699 
  201000    301.54227   -3731.3592    -3214.526   -3731.3592            0    7788.5248    17.015132    20.041577    20.758421    7078.8307    7661.9461     7835.702    7867.9262     1208.193    -1399.142    25.913484 
  201500    317.10545   -3748.8681   -3205.3602   -3748.8681            0    8174.6612    17.074907    20.111985    20.831346     7153.698    7882.1221    7348.7555     9293.106    934.84018   -395.07815    299.11278 
  202000    289.11501    -3708.614   -3213.0807    -3708.614            0    9800.8715    17.080851    20.118987    20.838599    7161.1723    12238.368    8080.5214    9083.7248    443.54555    101.67235    1033.2756 
  202500    312.17793   -3757.4169   -3222.3546   -3757.4169            0     9288.873    17.031982    20.061425    20.778978    7099.8823    8722.3879    9644.4366    9499.7946   -985.80586   -177.62693    769.05148 
  203000    300.12558    -3774.978    -3260.573    -3774.978            0    8617.7269    17.025268    20.053517    20.770787    7091.4894    10077.807    7780.7752    7994.5981   -1430.7182   -712.77583    780.38928 
  203500    303.75311    -3745.065   -3224.4425    -3745.065            0     10183.62    16.999114    20.022711     20.73888    7058.8583    9783.7174     10738.31    10028.832    -237.1639   -454.95821    553.24163 
  204000    297.81904   -3771.3459   -3260.8943   -3771.3459            0     9689.441    16.964007    19.981359    20.696049    7015.2136    9200.7977     8924.549    10942.976   -1237.5093    856.21039   -659.41202 
  204500    295.83763    -3786.687   -3279.6314    -3786.687            0    8974.6845    17.058204    20.092311    20.810969    7132.7253    9984.6334    9232.2911    7707.1289   -204.59847   -41.438413    472.21803 
  205000    284.78086   -3758.4706    -3270.366   -3758.4706            0    9654.4236    17.073718    20.110585    20.829896    7152.2045    8346.4895    10028.221    10588.561   -515.86445     478.3785   -1089.0486 
  205500    309.52211   -3696.9882   -3166.4779   -3696.9882            0    9103.7198    17.068034     20.10389    20.822962    7145.0639    11154.432    7974.9794    8181.7478   -484.99502    376.01661      917.271 
  206000    303.26569   -3760.7874   -3241.0004   -3760.7874            0    9856.7889    17.019721    20.046983     20.76402    7084.5599     8612.951    9274.4629    11682.953   -1288.2668    292.86983    57.418895 
  206500    310.48177   -3740.5666   -3208.4115   -3740.5666            0    9407.9274    17.051212    20.084076    20.802439    7123.9581    9816.8263    8575.3715    9831.5845   -1089.0119    664.83943   -1763.7296 
  207000    295.95218   -3721.2615   -3214.0096   -3721.2615            0    10573.123    17.004993    20.029636    20.746052    7066.1844     12109.82    10354.733    9254.8174    632.95826    182.71678   -449.80542 
  207500    298.13826   -3723.7309   -3212.7321   -3723.7309            0    7783.4781    17.107176    20.149994    20.870715    7194.3337    6948.7221    8634.6654     7767.047   -382.87025   -1022.1105    884.20705 
  208000    308.37869   -3733.8252   -3205.2747   -3733.8252            0    12666.634    17.034343    20.064206    20.781858    7102.8352    12833.297    13783.319    11383.284    1236.2923   -1842.2322    266.21538 
  208500    296.78862    -3722.239   -3213.5535    -3722.239            0    9876.8388    16.974751    19.994014    20.709157    7028.5514    9087.5542    9025.2825     11517.68   -1215.0774   -214.51612   -1429.4103 
  209000    308.13246   -3744.9235   -3216.7951   -3744.9235            0    9097.1401    17.018248    20.045248    20.762223     7082.721     8470.109    8924.7438    9896.5675   -392.74575    1546.8151   -479.98825 
  209500    303.83886   -3722.0691   -3201.2997   -3722.0691            0    9323.9534    16.991638    20.013905    20.729758    7049.5485    10544.046    9468.0148     7959.799    -109.5021   -115.02764    197.99988 
  210000    292.30619   -3696.0098    -3195.007   -3696.0098            0     9147.948    17.063188    20.098181    20.817049    7138.9786    6444.7648    12749.245    8249.8337    2059.7137   -103.39312    107.16557 
  210500    316.03424   -3693.8634   -3152.1916   -3693.8634            0    11651.474     16.96502    19.982553    20.697285    7016.4712     11373.88    12154.874    11425.668    429.37197    514.46564    585.55187 
  211000    302.93158   -3714.4818   -3195.2675   -3714.4818            0    8158.0665    17.023802     20.05179    20.768998    7089.6573    7275.1566    9340.2572    7858.7857    1602.7936   -134.49953   -962.20815 
  211500    307.55085   -3734.1524   -3207.0207   -3734.1524            0    9390.7465    17.029167     20.05811    20.775544    7096.3631    8885.3488    10292.832    8994.0592   -922.53634   -1686.3968   -377.77536 
  212000    314.73948   -3765.4301   -3225.9774   -3765.4301            0     9088.039    16.983429    20.004236    20.719743    7039.3362    8064.1178    9450.9005    9749.0988    303.86999   -2739.3432     399.3119 
  212500    317.66392   -3703.2739   -3158.8088   -3703.2739            0    8594.8654    17.009373    20.034794    20.751395    7071.6453    9386.0378    8014.8915     8383.667   -241.78544    355.30388    312.31184 
  213000     312.9581   -3717.1494   -3180.7499   -3717.1494            0    9700.1142    17.018564     20.04562    20.762608    7083.1151    10242.618     8875.526    9982.1989   -1388.8614   -78.019477    134.98941 
  213500    311.47747   -3724.6245   -3190.7628   -3724.6245            0    8523.7702    16.968905    19.987129    20.702024     7021.292    6773.5596    10315.631    8482.1202   -1285.9839    196.25205   -1075.4212 
  214000     291.3753   -3706.5348   -3207.1275   -3706.5348            0     10984.39    16.945802    19.959917    20.673839     6992.653    11975.685    10803.306     10174.18   -1576.7791   -1725.4664   -491.17858 
  214500    296.18478   -3727.5392   -3219.8886   -3727.5392            0     9329.659    16.947976    19.962477    20.676491    6995.3449    9065.0564    10361.808    8562.1125   -252.04092   -476.06225   -2035.7472 
  215000    288.25552   -3762.5031    -3268.443   -3762.5031            0    7826.4806    16.993251    20.015805    20.731726    7051.5563    8602.8168    6199.8873    8676.7376    1136.1515   -212.68858   -1013.8084 
  215500    300.10205   -3717.6936   -3203.3289   -3717.6936            0    8722.2202    17.030003    20.059094    20.776564    7097.4078    6835.8203    8374.6924    10956.148   -345.92204   -1238.7427   -28.129523 
  216000    288.36391   -3717.5811   -3223.3352   -3717.5811            0    7753.2192     17.03137    20.060705    20.778232    7099.1176    8240.4619     6579.341    8439.8549    1358.3182   -2139.0279    1491.0964 
  216500    286.13618   -3681.2852   -3190.8576   -3681.2852            0    8824.9965    17.011637    20.037462    20.754158    7074.4705     8424.143    10089.579     7961.268   -468.63222    -256.8397     195.4999 
  217000    295.38993   -3743.6608   -3237.3726   -3743.6608            0    7311.5533    17.000477    20.024316    20.740542    7060.5562     5555.813    10577.329    5801.5176   -277.91916   -1078.1923   -207.60136 
  217500    317.71203   -3723.4498   -3178.9023   -3723.4498            0    11484.688    16.929643    19.940884    20.654125    6972.6685    12985.514    11525.412    9943.1372     342.6531   -976.42492    1361.0091 
  218000    300.58285   -3736.9787     -3221.79   -3736.9787            0    8164.4525    17.005487    20.030218    20.746655    7066.8007     8296.182    8638.3718    7558.8037   -460.76238    1022.8559    419.90145 
  218500    297.80606   -3714.9775   -3204.5481   -3714.9775            0    7668.2607    17.072565    20.109226    20.828489    7150.7549    7211.5459    7803.4848    7989.7514    461.19001    820.28172    51.950696 
  219000    301.53058   -3709.8218   -3193.0087   -3709.8218            0    9925.6279    17.028429     20.05724    20.774643    7095.4395    10717.803    9349.6604    9709.4205   -359.78034    446.19784    122.61056 
  219500    310.22129   -3709.7336   -3178.0249   -3709.7336            0    7594.8732    17.088146    20.127579    20.847498    7170.3512    7676.6319    6956.5598    8151.4278    624.12312   -335.60056    172.91808 
  220000      286.577   -3749.0682    -3257.885   -3749.0682            0    12613.311    16.944878    19.958828    20.672712    6991.5092    13456.121     10997.85    13385.962    603.36921    2325.3525    1508.3537 
  220500    284.80011   -3745.4631   -3257.3255   -3745.4631            0    9335.6627    17.011339     20.03711    20.753793    7074.0977    10251.658    8615.0617    9140.2689    393.10064    1655.5062    1444.6144 
  221000    297.85491    -3721.451   -3210.9379    -3721.451            0    10129.365    17.020898     20.04837    20.765456    7086.0302     10925.99     7698.769    11763.335   -1045.2477   -2091.8017    815.60582 
  221500    276.94642    -3769.247   -3294.5703    -3769.247            0     7245.551     17.06886    20.104862    20.823969    7146.1002    6608.4108    6788.9318    8339.3105    1075.1977    427.99242      1442.41 
  222000    300.55133   -3760.3695   -3245.2349   -3760.3695            0    6278.3931     17.07814    20.115794    20.835291    7157.7633    5277.6686    7941.6585    5615.8522   -429.33169   -43.897141    1142.2349 
  222500     295.5941   -3694.3279   -3187.6897   -3694.3279            0     10074.27    17.033054    20.062687    20.780286    7101.2226    8828.6848    9735.5539    11658.571   -1943.0824     479.0281   -35.433653 
  223000    290.05058   -3717.8973   -3220.7605   -3717.8973            0    9124.7396    17.024905    20.053089    20.770344    7091.0358    10576.832    9272.3425    7525.0444   -242.55414    959.17704   -2100.5607 
  223500    296.14017   -3676.5272   -3168.9531   -3676.5272            0    8787.6313     17.05025    20.082943    20.801265    7122.7526     8840.606    9696.9303    7825.3577   -247.63618   -2.1290728    123.53096 
  224000    289.10024   -3704.0685   -3208.5606   -3704.0685            0     5801.059    17.151962    20.202746    20.925354    7250.9855    6829.0657    4933.5491    5640.5623    -937.4063    -174.6241   -1867.5829 
  224500    299.53098   -3752.6112   -3239.2254   -3752.6112            0    10225.335    16.970229    19.988689     20.70364    7022.9362    10419.617    9850.6955    10405.693   -840.54726     134.4733   -392.61916 
  225000    304.12624    -3767.627    -3246.365    -3767.627            0    8570.1882    17.033941    20.063732    20.781368    7102.3324    7560.2169    11107.741    7042.6063    387.78003     579.3248   -1280.2324 
  225500    319.79233   -3730.4246   -3182.3114   -3730.4246            0    8699.1784    17.099101    20.140482    20.860863      7184.15    9566.0102    7962.9767    8568.5482   -21.600147   -823.82623   -1274.9533 
  226000    301.47053   -3742.1855   -3225.4753   -3742.1855            0    7990.5052    17.105747    20.148311    20.868972     7192.531    11000.602    6556.7041    6414.2091   -408.32451    303.98658    -1246.807 
  226500    312.05989   -3730.1541   -3195.2941   -3730.1541            0    10678.439    16.977021    19.996688    20.711926    7031.3718      9737.11    9438.0961     12860.11   -219.72937   -951.99479   -1242.3417 
  227000    315.68675   -3692.0592   -3150.9829   -3692.0592            0    7723.5588    17.099033    20.140403    20.860781    7184.0652    5800.4953    7278.9433    10091.238   -278.39832    636.45267    -917.2112 
  227500    303.98361    -3718.214   -3197.1965    -3718.214            0    10330.561    17.008805    20.034126    20.750703    7070.9378    10649.069    11740.081    8602.5347   -353.10043   -596.02896     1246.438 
  228000    306.41087   -3689.2983   -3164.1206   -3689.2983            0    9560.1853    17.027357    20.055977    20.773335    7094.0996    8957.3496    10528.886    9194.3199   -1253.7267   -942.40339    393.03806 
  228500    315.44192   -3727.0406    -3186.384   -3727.0406            0    7687.4747    17.030679     20.05989    20.777388    7098.2525    6246.3347     8822.224    7993.8656     14.62769   -1241.0743    806.75878 
  229000     313.7677   -3737.3136   -3199.5265   -3737.3136            0    9458.5394    16.945061    19.959044    20.672935    6991.7357    8871.7785    10065.348    9438.4912   -1404.0406   -872.62137   -948.16243 
  229500    296.10753   -3720.0658   -3212.5477   -3720.0658            0    9512.1332    17.000507    20.024351    20.740578     7060.593    9919.2177    9098.3127    9518.8692   -967.23348   -1136.1231    339.73366 
  230000    312.11483   -3702.9986   -3168.0445   -3702.9986            0    8284.7119    17.022174    20.049873    20.767013    7087.6241    9080.0575    7758.0482    8016.0301    8.2843037    196.32361    100.88443 
  230500    309.65437   -3713.6849    -3182.948   -3713.6849            0    8406.3897    17.082544     20.12098    20.840663    7163.3013      9253.77    8813.0675    7152.3317    2075.4471    313.21272   -25.599031 
  231000    317.18122   -3739.8812   -3196.2434   -3739.8812            0    8682.3454    17.102181     20.14411    20.864621    7188.0336    8693.0466    7900.7128    9453.2767   -149.23929    -1014.548    1873.7207 
  231500    305.52853   -3716.7932   -3193.1277   -3716.7932            0    7628.9484    17.121135    20.166436    20.887745    7211.9593    8899.1309    6820.4232     7167.291    1446.6109   -227.80676    1243.8798 
  232000    312.90528   -3722.3764   -3186.0674   -3722.3764            0    10273.196    16.978428    19.998345    20.713642    7033.1193    11981.887    9570.1661     9267.534    1644.2042    1257.6341   -434.30318 
  232500    312.82642   -3756.0835   -3219.9097   -3756.0835            0    8192.7295    16.978541    19.998478     20.71378    7033.2599    7003.8045    8114.0086    9460.3754    926.88063   -48.281847   -414.36172 
  233000    292.09873   -3739.5388   -3238.8916   -3739.5388            0    8154.1369    17.068452    20.104382    20.823471    7145.5882    7469.8778    7969.6464    9022.8866    6.4494086   -134.76693   -1017.1613 
  233500    311.81814   -3740.6012   -3206.1555   -3740.6012            0    9144.0569    16.949198    19.963917    20.677982    6996.8583    10382.592    8512.1162    8537.4621    1493.0825   -16.294659    1208.9233 
  234000    310.37187   -3716.2501   -3184.2833   -3716.2501            0     8294.147    17.005297    20.029993    20.746422    7066.5627    9980.6063    7866.4025     7035.432   -348.02685    378.09574   -399.92163 
  234500    286.84722   -3701.4192   -3209.7729   -3701.4192            0     10305.56    17.002757    20.027002    20.743324    7063.3972    11904.066     10327.08    8685.5337   -337.50129   -458.57889    293.36253 
  235000    293.10148   -3782.3408   -3279.9749   -3782.3408            0    8414.4962    17.059222     20.09351    20.812211    7134.0019     9508.263    8445.6649    7289.5608    107.39471    874.75281     201.8918 
  235500     298.7159   -3770.9994   -3259.0106   -3770.9994            0     11246.44    16.972261    19.991082    20.706119    7025.4592    10842.562    11964.047    10932.712   -1045.2982   -1435.8721   -1270.2138 
  236000    297.21611     -3740.15   -3230.7317     -3740.15            0    8610.0687    17.000071    20.023838    20.740047    7060.0502    7548.5998    7789.5854    10492.021    372.95017   -665.74359    1508.2307 
  236500    298.90779   -3785.8779   -3273.5602   -3785.8779            0    7590.8688    17.083978    20.122669    20.842413    7165.1052     8610.047    6589.1428    7573.4167    359.35544   -750.65743    2111.0746 
  237000    301.09729   -3745.9129   -3229.8425   -3745.9129            0    7873.8348    17.063024    20.097988    20.816849     7138.773    7177.9114    8929.5966    7513.9965    566.44528   -1021.8486    521.67312 
  237500    285.30757   -3744.6303   -3255.6229   -3744.6303            0    8883.8637    17.059245    20.093538     20.81224    7134.0319     9333.482     8641.618    8676.4909   -963.40634   -1041.1361    112.49943 
  238000    294.88216   -3691.4002   -3185.9823   -3691.4002            0    9472.7315    17.056348    20.090125    20.808705    7130.3974    9493.9038    9809.7787    9114.5121   -107.36669   -660.08081    968.68241 
  238500    287.87556   -3704.1535   -3210.7446   -3704.1535            0    10078.408    16.971801     19.99054    20.705557    7024.8874    8822.9894    9847.3855     11564.85    46.241633     1157.352    1124.1755 
  239000    275.70475   -3722.4937   -3249.9452   -3722.4937            0    8135.1157    17.090044    20.129815    20.849814    7172.7413     7842.855    7667.1638    8895.3282    775.51179   -841.05363   -242.60974 
  239500    309.64324   -3727.8763   -3197.1584   -3727.8763            0    7265.4318    17.056225     20.08998    20.808555    7130.2435    7889.4292     7242.836    6664.0301   -617.29813   -1670.9544    258.16676 
  240000    297.21833   -3743.3633   -3233.9412   -3743.3633            0    10626.613    16.968124    19.986209    20.701071    7020.3225    9856.8702    10900.077    11122.891   -1093.2172    1055.9068   -1223.9329 
  240500    307.74735   -3710.6456   -3183.1771   -3710.6456            0    10219.342    16.990236    20.012254    20.728048    7047.8039    9408.2059    10166.742    11083.077   -810.97126    696.78219    638.04305 
  241000    286.00703   -3748.5676   -3258.3613   -3748.5676            0    7025.9506    17.090181    20.129975     20.84998    7172.9127    5975.7698     7544.961    7557.1209     930.8608   -247.28261     843.9713 
  241500     306.1167   -3699.7166    -3175.043   -3699.7166            0    7939.2614    17.043879    20.075438    20.793492    7114.7702    6591.9142    7360.8433    9865.0267   -299.50724   -1013.4662   -834.46929 
  242000    308.53742    -3722.942   -3194.1194    -3722.942            0    6803.8044    17.047923    20.080201    20.798426    7119.8358    8681.7892     6297.991     5431.633    441.49961    607.44339    78.833527 
  242500    309.84576   -3708.4736   -3177.4086   -3708.4736            0    8129.9226    17.087286    20.126566     20.84645    7169.2692    9567.3416    7661.1035    7161.3228   -794.10599   -1002.3932    421.15327 
  243000    301.18761   -3669.2147   -3152.9895   -3669.2147            0    11383.131    17.010787    20.036461    20.753121      7073.41    13633.762    11990.592    8525.0373    -495.5115   -1059.8682    1071.1613 
  243500    297.49868   -3706.6381   -3196.7356   -3706.6381            0    8082.0956    17.060333    20.094819    20.813567    7135.3968    9715.0871    7967.4774    6563.7223   -417.47784    719.61463    21.015739 
  244000    301.21332    -3710.417   -3194.1477    -3710.417            0    8993.4535    17.026872    20.055406    20.772744    7093.4934    8256.1111    8714.0994     10010.15    104.73958    1281.7308   -1111.7875 
  244500    313.70428   -3716.5701   -3178.8917   -3716.5701            0    6943.5706    17.107247    20.150077    20.870801     7194.423    6703.4647    6411.8524    7715.3946   -1023.3227   -627.37159   -82.807714 
  245000    296.23979   -3698.2001   -3190.4553   -3698.2001            0    10143.538    17.113184     20.15707    20.878044    7201.9159    10720.042    8799.9223     10910.65    1723.2529    1211.1241    1895.7626 
  245500    302.43735   -3737.5641   -3219.1968   -3737.5641            0     8726.016    17.084791    20.123628    20.843406    7166.1292    8978.1235    7868.5144    9331.4101    850.47472    -1185.858    1742.2337 
  246000    297.00624   -3714.8015    -3205.743   -3714.8015            0    7957.2726    17.073154     20.10992    20.829208    7151.4953    7901.3968    6500.1006    9470.3203   -303.75476    912.63767    1094.0603 
  246500    310.30793   -3719.8252    -3187.968   -3719.8252            0    10430.041    16.968952    19.987184    20.702082    7021.3504    10245.366     11970.45    9074.3063    524.23194    134.02166   -5.3854424 
  247000    283.18946   -3685.0315   -3199.6545   -3685.0315            0     8438.774    17.037882    20.068374    20.786176    7107.2633    8559.5749     7759.768    8996.9792   -883.19237    728.87751    997.79329 
  247500    280.56106   -3705.5535   -3224.6815   -3705.5535            0    10763.586    17.033521    20.063238    20.780856    7101.8077    9090.5374    10257.441    12942.781   -1628.7261   -1611.8705    380.27095 
  248000    316.10766   -3716.0915   -3174.2938   -3716.0915            0    8960.3918    17.083649    20.122282    20.842012    7164.6917    7019.4157    9185.0923    10676.667    1851.1758   -1225.0818   -1031.2721 
  248500    294.12279   -3745.3436   -3241.2273   -3745.3436            0    7775.3609    17.043061    20.074475    20.792495    7113.7469    8012.8673    6514.1603    8799.0551   -1201.1592    608.12614    13.866909 
  249000    291.08726   -3722.7796    -3223.866   -3722.7796            0    11033.847    16.972731    19.991635    20.706692    7026.0426    11078.287    11731.029    10292.227    954.66606   -1359.8575    1115.0367 
  249500    304.60426   -3718.5776   -3196.4963   -3718.5776            0    9709.9751    17.075964     20.11323    20.832636    7155.0267    7850.1882    10957.345    10322.392    590.87047   -66.585696    2294.3431 
  250000    316.36188   -3721.4172   -3179.1838   -3721.4172            0    8363.1467    17.063174    20.098165    20.817032    7138.9611    8920.0273    7912.3823    8257.0307    177.97927   -130.36867   -430.90426 
  250500    298.73652   -3716.6562    -3204.632   -3716.6562            0    8237.7007    17.054843    20.088352    20.806869    7128.5102    10194.897      6600.48    7917.7251   -1514.5516    667.42689    1808.0274 
  251000    330.26682   -3701.3973   -3135.3313   -3701.3973            0    9167.2456    17.117605    20.162278    20.883438    7207.4994    8165.3437    9173.0988    10163.294    1754.7355    744.91504   -661.03229 
  251500    308.08706   -3728.1808   -3200.1301   -3728.1808            0    8689.4829    17.042645    20.073984    20.791987    7113.2252    9529.4631    7877.8605    8661.1249    2734.3753    1079.3181    1102.3342 
  252000    294.32942   -3701.7666    -3197.296   -3701.7666            0    7989.5954    17.012652    20.038657    20.755396    7075.7367    9650.1197    7066.5182    7252.1481   -93.331165    -814.7342   -417.23084 
  252500    303.15009   -3709.4532   -3189.8643   -3709.4532            0     9065.016    16.987439    20.008959    20.724636    7044.3235    7882.9432     10357.38    8954.7249    750.79573    697.54092    1364.1041 
  253000     305.9813   -3701.8146   -3177.3731   -3701.8146            0    9159.9877    16.965216    19.982783    20.697524    7016.7136    7381.7834    10980.503    9117.6763    239.36034   -231.07441    390.35974 
  253500    311.05975   -3687.8555   -3154.7097   -3687.8555            0    11949.091    16.935526    19.947813    20.661303    6979.9399    8905.8991    13215.091    13726.283   -734.67168    59.176195    712.97218 
  254000    317.53806   -3721.9121   -3177.6628   -3721.9121            0    8310.3101    17.027744    20.056434    20.773808    7094.5841    10645.406    8082.3445    6203.1803    1127.4229   -1118.3092    735.36915 
  254500    310.57802   -3713.6343   -3181.3142   -3713.6343            0    9998.2789    17.006688    20.031632     20.74812    7068.2975    9901.1081    12351.514     7742.215    299.23467   -2327.4339    1024.9554 
  255000    273.59126   -3697.1907   -3228.2647   -3697.1907            0    9053.2597    17.024945    20.053136    20.770393    7091.0857    6769.1328     11249.07    9141.5764    815.86596    908.82827   -50.704011 
  255500    296.41146   -3729.6332   -3221.5941   -3729.6332            0    8844.5944     16.97366     19.99273    20.707826    7027.1968     7525.654    11087.469    7920.6598   -421.45463    1673.9086    951.03703 
  256000     318.9664   -3697.3823   -3150.6849   -3697.3823            0    9472.1708    16.972427    19.991277    20.706321    7025.6649    7959.2375    9844.5106    10612.764   -1458.8921    727.77992   -768.34058 
  256500    297.77565   -3678.9432   -3168.5659   -3678.9432            0    9427.7005    17.011722    20.037561    20.754261    7074.5757    8941.0148    9558.3667    9783.7201   -2625.3243   -1564.3692    2235.2115 
  257000    290.53356   -3687.9011   -3189.9366   -3687.9011            0     10033.85    16.967329    19.985273    20.700102    7019.3364    10961.292    9248.3166    9891.9412   -396.19237   -1254.0196   -101.89842 
  257500    290.63855   -3729.8685    -3231.724   -3729.8685            0    7186.9255    17.073885    20.110782      20.8301    7152.4146    8957.4174    7023.2744    5580.0848   -397.41027    -1928.233   -749.31969 
  258000    301.33028   -3732.9504   -3216.4806   -3732.9504            0    8061.2393    17.075759    20.112988    20.832386    7154.7693    6504.9354    8327.8338    9350.9488    668.36514    1584.6651    865.91937 
  258500    305.93501   -3711.4198   -3187.0576   -3711.4198            0    8908.3524    17.032253    20.061745    20.779309     7100.222    9057.0633    7902.0158     9765.978   -1653.0729    1763.5536   -865.29286 
  259000    298.89051   -3787.9837   -3275.6956   -3787.9837            0     7014.307     16.99317     20.01571    20.731628    7051.4561    5641.4251    6645.0003    8756.4956     560.6267    464.32842   -390.96592 
  259500    301.15639   -3751.3758   -3235.2041   -3751.3758            0    9255.5754    17.026386    20.054834    20.772151    7092.8868    8805.4729    10403.319    8557.9339    1362.5944    143.66365    698.51265 
  260000    296.85471   -3765.1294   -3256.3306   -3765.1294            0    7634.4753    17.032959    20.062575     20.78017    7101.1038    6778.9968    8456.3258    7668.1032   -702.16862   -662.96656   -48.505369 
  260500    312.11945   -3721.7869   -3186.8248   -3721.7869            0    10745.044    16.938981    19.951883    20.665518    6984.2128    10692.806    10771.621    10770.704   -1224.6643    170.80476   -683.10894 
  261000    297.58732   -3771.6377   -3261.5832   -3771.6377            0    9981.5587    16.962987    19.980158    20.694804    7013.9484    9463.6593    11934.115     8546.902   -11.859106    1367.5305   -1184.8447 
  261500     299.0488   -3748.5071   -3235.9477   -3748.5071            0    9667.2168    16.995129    20.018017    20.734018    7053.8949    11039.147    7859.6766    10102.826   -2357.9463   -247.44001   -133.74795 
  262000    301.96238   -3740.9493   -3223.3961   -3740.9493            0    9490.6128    16.991835    20.014137    20.729999    7049.7939    10717.288    9245.3916     8509.159     1596.554    1207.6071   -301.60234 
  262500     308.6125   -3738.1726   -3209.2213   -3738.1726            0     9083.353    17.038401    20.068986     20.78681     7107.913    7641.1074    11203.524     8405.428   -175.26684    1956.6791   -1159.2689 
  263000    303.06354   -3703.2272   -3183.7867   -3703.2272            0    11699.479     16.97062    19.989149    20.704117    7023.4212    11375.377    11104.604    12618.455   -321.05513    959.97057    -2716.417 
  263500    314.19766   -3695.7074   -3157.1834   -3695.7074            0    9399.0972    17.088081    20.127502    20.847418    7170.2689    8681.7997    9983.7476    9531.7444    957.37701   -553.63715     1407.492 
  264000    298.31203   -3702.1793   -3190.8827   -3702.1793            0     8565.815    16.984707    20.005742    20.721303    7040.9261    7151.7531    9816.6476    8729.0443     77.70869     429.6612   -1310.8966 
  264500    290.17108   -3752.1523    -3254.809   -3752.1523            0    8188.3391    17.067078    20.102763    20.821795    7143.8624    9734.2046    9141.0566    5689.7561    316.55504    643.29013    854.48001 
  265000    299.45975   -3741.2262   -3227.9624   -3741.2262            0    8278.3131    17.026172    20.054581     20.77189     7092.619    7381.4407    9390.4884    8063.0104   -250.16703   -117.63525     990.1755 
  265500    287.94958   -3755.9147   -3262.3789   -3755.9147            0    10617.484    16.946086    19.960251    20.674185    6993.0046    9774.6284    13972.693    8105.1294    226.78809   -1255.9747    504.43316 
  266000    286.01268   -3751.8026   -3261.5866   -3751.8026            0    6713.5335    17.000253    20.024052    20.740269    7060.2771    7474.4265    7209.7122    5456.4618   -861.06932    1292.5332   -492.14318 
  266500     293.4004   -3685.0228   -3182.1446   -3685.0228            0    10935.852    17.006237    20.031101     20.74757    7067.7357    12136.654    11372.683    9298.2182    503.37766   -1077.2046    997.50629 
  267000    303.14178   -3770.2818   -3250.7072   -3770.2818            0    8791.2556     16.99141    20.013637    20.729481    7049.2656    9809.5985    7632.8147    8931.3535    17.277959    177.71597    8.9616227 
  267500    302.81877   -3718.8839   -3199.8629   -3718.8839            0    9487.0844      17.0574    20.091364    20.809988    7131.7168     9299.481     8651.486    10510.286    989.43296    20.624132   -412.64776 
  268000     295.3797   -3696.6987    -3190.428   -3696.6987            0    9835.1875    17.052481    20.085571    20.803987    7125.5491    7909.7479    12033.596    9562.2189    197.25144   -517.59303    58.147972 
  268500    300.81546   -3751.7102   -3236.1228   -3751.7102            0    10111.067    16.985455    20.006623    20.722216    7041.8567    11546.844    11321.981    7464.3761   -2467.4418    -202.4791   -580.77454 
  269000    307.11503   -3717.0281   -3190.6434   -3717.0281            0    11148.744    16.978367    19.998273    20.713568    7033.0439    10668.059    9773.9172    13004.255   -967.93085    1591.1878    807.50881 
  269500    321.69177   -3735.8876   -3184.5189   -3735.8876            0     8826.983    17.071209    20.107629    20.826835    7149.0512    9423.1726    7861.7831    9195.9933    193.34215   -580.11196    456.09534 
  270000    311.05673   -3705.3333   -3172.1927   -3705.3333            0    9199.1007    17.040735    20.071734    20.789656    7110.8337    6971.4134    10311.485    10314.404   -841.87966    549.89527   -360.93891 
  270500    304.76084   -3722.5536   -3200.2039   -3722.5536            0    9111.1401     17.07329     20.11008    20.829373    7151.6657    9218.8874    8108.6815    10005.851    206.97121    945.55104   -158.24693 
  271000    305.06182   -3738.5754   -3215.7099   -3738.5754            0    10574.757    16.982684    20.003358    20.718834    7038.4097    10227.586    10456.996    11039.687    1456.4773   -486.33352   -1344.2269 
  271500    306.50264   -3737.1139   -3211.7789   -3737.1139            0    10203.623    16.991632    20.013898    20.729752    7049.5418    11377.924    10449.502    8783.4426   -1074.4592    1084.9224    212.67689 
  272000    318.92876   -3738.1955   -3191.5625   -3738.1955            0    9141.2072    17.073217    20.109994    20.829285    7151.5744    10029.836    7307.6547    10086.131    -856.1504    577.79668   -280.52325 
  272500    308.96271   -3705.4043   -3175.8528   -3705.4043            0    9507.3688    17.072008    20.108571     20.82781    7150.0557    9969.8113    10712.304    7839.9909    374.97849   -1082.5569   -1913.3195 
  273000    310.37138   -3751.0375   -3219.0716   -3751.0375            0    7242.5653    17.076065     20.11335     20.83276    7155.1546    5267.7968    7891.7728    8568.1263    1415.8553   -2628.3001    551.93198 
  273500    303.85378   -3761.1747   -3240.3797   -3761.1747            0    8737.4362    17.101426    20.143221    20.863699    7187.0811    7772.1932    8367.4761    10072.639   -750.73462    895.58501    95.815479 
  274000     317.7812   -3723.0099   -3178.3438   -3723.0099            0    13213.664    16.921713    19.931543     20.64445    6962.8746    14751.744    13121.576    11767.671    263.04816    3.6244023   -603.80601 
  274500     300.1547   -3721.8899    -3207.435   -3721.8899            0    8053.8993    17.079416    20.117297    20.836848    7159.3678    7618.9077    7035.1838    9507.6065    68.089506    216.69325    -1031.872 
  275000    303.83741    -3770.646   -3249.8791    -3770.646            0    6956.4811    17.031592    20.060965    20.778502    7099.3945    5582.3935    8106.8604    7180.1892   -155.40148   -81.680549   -449.55422 
  275500     297.0092   -3762.1101   -3253.0465   -3762.1101            0    8790.5049    16.964622    19.982084      20.6968    7015.9772    6577.7074    8769.5252    11024.282   -911.97726    1185.8707   -318.83536 
  276000    308.30868   -3696.6576   -3168.2271   -3696.6576            0    10517.346    16.997009    20.020232    20.736311    7056.2363    11232.266    11780.853    8538.9186   -43.283292    1229.1817   -909.40242 
  276500    302.53596   -3707.9282   -3189.3919   -3707.9282            0    8168.2635    17.046125    20.078083    20.796232    7117.5835    8633.8707    7992.8612    7878.0585    1010.0488   -632.29921   -358.41965 
  277000    302.84763   -3685.0874   -3166.0169   -3685.0874            0    8510.7155    16.980337    20.000594    20.715971    7035.4924     9912.333    7938.3628    7681.4507    585.06655    313.20746    174.57184 
  277500    300.98953     -3730.93   -3215.0443     -3730.93            0     8042.838    17.045564    20.077423    20.795549    7116.8817    6707.2946    7983.7671    9437.4523   -189.33279   -264.47756   -80.565232 
  278000    295.56945    -3711.582   -3204.9861    -3711.582            0    10529.867    16.977459    19.997204     20.71246    7031.9156    12479.636    9085.5149     10024.45   -740.22499   -392.86036    268.80156 
  278500    290.21082    -3720.339   -3222.9276    -3720.339            0    8602.6021    17.015427    20.041925    20.758781    7079.1994    8288.1052    7871.4934    9648.2077    837.96916   -211.97604    261.55024 
  279000    301.37189   -3730.4218   -3213.8807   -3730.4218            0    10212.543     17.04219    20.073448    20.791432    7112.6554    11605.014    10676.663    8355.9504   -504.78248    1470.4081   -539.64046 
  279500    298.72434   -3716.8469   -3204.8436   -3716.8469            0    8671.7777    17.099114    20.140498    20.860879    7184.1669    7778.6173    8331.2804    9905.4355   -783.74383   -9.7078825   -187.24054 
  280000     313.2583   -3753.3005   -3216.3865   -3753.3005            0    8578.9905    17.067953    20.103794    20.822862    7144.9611    9425.9492    8405.2571    7905.7652   -475.97022   -638.00424    1495.7489 
  280500     316.0848   -3754.4677   -3212.7092   -3754.4677            0    8176.2367    17.018005    20.044962    20.761926    7082.4177    6972.5019    9403.4983    8152.7101   -1077.0613   -1075.5556    -403.2853 
  281000    288.74377   -3693.6654   -3198.7685   -3693.6654            0    8255.1838    17.011879    20.037746    20.754452    7074.7715     8728.965    7884.4137    8152.1729    901.61501    703.26281    627.46847 
  281500    296.82928    -3693.708   -3184.9528    -3693.708            0    10368.178    16.962064     19.97907    20.693678    7012.8032    10178.611     9648.867    11277.054    337.11688   -1285.8923    2188.5735 
  282000    289.40647   -3710.9574   -3214.9246   -3710.9574            0    9117.4909    17.004076    20.028555    20.744933     7065.041    8232.9034    10355.996    8763.5738   -748.28268   -2078.2388    615.07813 
  282500    314.03026   -3728.0981    -3189.861   -3728.0981            0    6663.6062    17.051004    20.083831    20.802186    7123.6979    6934.4334    6125.7309    6930.6544   -907.50415   -1628.7724    2479.1753 
  283000    291.48769    -3715.645   -3216.0451    -3715.645            0    9660.6544    16.986587    20.007956    20.723597    7043.2645    10805.729    9585.1771    8591.0569   -1572.8718    556.53757   -1180.9981 
  283500    296.24932   -3718.3377   -3210.5765   -3718.3377            0     7825.396    17.043538    20.075037    20.793077     7114.344    8515.5867    7008.3257    7952.2756   -686.29456    379.15048    -1450.507 
  284000    287.46284   -3704.1389   -3211.4375   -3704.1389            0    10020.616    17.007758    20.032892    20.749425    7069.6314    10127.161    12315.458    7619.2307    1435.0502    -4632.971    663.26347 
  284500    321.73521   -3692.8948   -3141.4517   -3692.8948            0    7944.3206    17.076028    20.113305    20.832714    7155.1072    8905.0418    6095.5552    8832.3646   -579.85792   -607.13193    1220.5035 
  285000    286.37075   -3698.2539   -3207.4242   -3698.2539            0    9431.7467    17.038289    20.068853    20.786672    7107.7722    10125.656    8540.7725    9628.8116    573.25122    1852.4009    135.48939 
  285500    286.55023   -3702.0906   -3210.9533   -3702.0906            0     7504.271    17.079172    20.117009     20.83655    7159.0609    5515.8107    7036.0321    9960.9701   -888.92065    1882.1171    165.14785 
  286000    292.30895   -3768.5285   -3267.5209   -3768.5285            0     10097.97    16.979283    19.999353    20.714686    7034.1829    9691.0703    10924.753    9678.0878   -884.51954    210.04608    -1621.498 
  286500    311.17095   -3703.6044    -3170.268   -3703.6044            0    9325.9327    17.094761     20.13537    20.855568    7178.6812    7427.7784    9401.3974    11148.622    466.81312    684.99449   -877.91082 
  287000    302.63593   -3734.9275   -3216.2199   -3734.9275            0    8486.5673    16.977902    19.997725       20.713    7032.4656    8966.4557    6045.1567     10448.09   -1677.8503    -1125.594   -2574.8745 
  287500    310.23561    -3722.725   -3190.9917    -3722.725            0    8992.9382    17.093838    20.134283    20.854442    7177.5185    9754.2537    7332.8468     9891.714    441.93079    218.84396   -291.90437 
  288000    272.80875   -3776.1916   -3308.6067   -3776.1916            0    7339.4548     17.05286    20.086017    20.804449    7126.0238    6352.5527    7830.8768    7834.9348   -245.66518    448.82188   -1769.6229 
  288500    283.04974   -3743.6036    -3258.466   -3743.6036            0    9149.4471    17.013723    20.039918    20.756702    7077.0728    6456.0395     8809.614    12182.688   -1031.4043    1331.5595    878.05853 
  289000    314.89172   -3723.8947    -3184.181   -3723.8947            0    10326.294    16.995287    20.018203     20.73421    7054.0914    9361.8829    10575.788    11041.213   -1204.2946    1963.7655    343.38441 
  289500    297.14153   -3734.4054   -3225.1149   -3734.4054            0    10270.313    16.979864    20.000037    20.715394    7034.9046    10582.621    10569.152    9659.1654     675.2944   -1337.9249   -470.49616 
  290000    301.35058   -3692.9817   -3176.4771   -3692.9817            0    10894.435     17.04591     20.07783     20.79597    7117.3145    10381.127    13206.479    9095.6987   -1433.1556    319.59269    144.90744 
  290500    288.87602   -3722.7012   -3227.5776   -3722.7012            0    6881.4379    17.084351    20.123109    20.842869    7165.5754    7563.2844    7678.0206    5403.0086    -2.303975   -1588.7002   -745.98124 
  291000    301.28582   -3668.9272   -3152.5336   -3668.9272            0    8331.3064    17.050772    20.083557    20.801902    7123.4066    8452.1559    8286.9356    8254.8278   -2330.1069   -2661.5131   -149.46679 
  291500    299.62486    -3682.798   -3169.2513    -3682.798            0    7992.8262     17.11163     20.15524    20.876148    7199.9538    8749.2572    8403.0989    6826.1224   -268.76764    954.47961   -1556.4809 
  292000    298.29085   -3733.8128   -3222.5524   -3733.8128            0    7497.2121    17.077577     20.11513    20.834604    7157.0546    6502.0878    7712.6091    8276.9394    1346.9622   -869.89254    738.72731 
  292500    298.76376   -3725.9942   -3213.9233   -3725.9942            0    10469.784     17.00221    20.026357    20.742656    7062.7152    13353.176    7958.4524    10097.723    279.23537    1479.7298   -38.166841 
  293000    277.53762   -3762.0841   -3286.3941   -3762.0841            0     8898.215    17.015564    20.042087    20.758949    7079.3706    6457.1935    11014.529     9222.922   -1312.3366   -130.02929    995.81446 
  293500    313.03156   -3728.2317   -3191.7063   -3728.2317            0    9522.4439    17.035546    20.065624    20.783327     7104.341    9018.4262    10395.105    9153.8002    1691.3158     809.6393    1258.1344 
  294000    293.35353   -3744.0385   -3241.2406   -3744.0385            0    7374.5505    17.110498    20.153907    20.874768    7198.5255    7023.5824    6675.8216    8424.2477   -157.62351    364.24539    497.92113 
  294500    303.70933   -3734.0487   -3213.5013   -3734.0487            0    9269.5633    17.025314    20.053571    20.770843    7091.5466    9872.3593    7531.3399    10404.991   -597.68322   -788.76121   -95.539614 
  295000    309.08287   -3730.2326   -3200.4751   -3730.2326            0    7513.2196    17.032472    20.062003    20.779576    7100.4956    7235.5301    8304.4655    6999.6632   -1086.2206    257.34084    1985.3024 
  295500    299.45851   -3714.0044   -3200.7428   -3714.0044            0    9387.3179    17.026399    20.054849    20.772168    7092.9033    7806.6598    10678.036    9677.2578    1401.4457    709.41317   -1823.5232 
  296000    310.44838   -3743.6562   -3211.5583   -3743.6562            0    11151.225    16.948613    19.963227    20.677268    6996.1329    12351.152    9562.6141     11539.91    307.28309   -632.33406   -704.97304 
  296500    299.20919   -3729.4307   -3216.5964   -3729.4307            0    7228.5202    17.001658    20.025707    20.741983    7062.0278    9559.1803    5219.9959    6906.3842    797.34576    1850.5864   -580.16522 
  297000    303.88831   -3716.2559   -3195.4017   -3716.2559            0    9791.4313    17.015809    20.042375    20.759247    7079.6761    10526.203    7859.0273    10989.063   -1153.9706   -1169.9438   -949.96727 
  297500    316.79251   -3718.6289   -3175.6573   -3718.6289            0    8917.6168    17.063041    20.098009    20.816871    7138.7951    9958.6369    9606.8557    7187.3578   -1752.1059    766.85692     125.5728 
  298000    313.11071    -3746.418   -3209.7569    -3746.418            0    7963.0849    17.051542    20.084464    20.802841    7124.3716    7849.8467    7979.0583    8060.3497   -263.68348     1199.045   -2747.8063 
  298500    303.83003   -3723.3469   -3202.5926   -3723.3469            0    8737.4967    17.067748    20.103552    20.822612     7144.704    7143.6923    9433.7458     9635.052   -621.98482   -685.75102    1152.1953 
  299000     294.5622   -3702.2821   -3197.4126   -3702.2821            0      10021.3    16.935218     19.94745    20.660927    6979.5592    10162.038    9202.6129    10699.249    462.38836   -787.20071    26.189303 
  299500    295.50341   -3745.8584   -3239.3757   -3745.8584            0    7857.9938    17.137841    20.186113    20.908126    7233.0905    7657.7607    9350.0374    6566.1833   -16.976501    1387.5008    1825.4078 
  300000    312.94916   -3746.2934   -3209.9092   -3746.2934            0    10447.606    17.008005    20.033183    20.749726    7069.9397    12635.096    8223.4732    10484.249    1899.7756    739.67951    273.14773 
  300500    294.49747   -3746.8976    -3242.139   -3746.8976            0    8626.7731    17.021901     20.04955    20.766679    7087.2823    7423.1095    10622.435    7834.7746    362.64684   -1274.1277    1100.7453 
  301000    308.53313   -3759.4037   -3230.5885   -3759.4037            0    9634.8732    16.915917    19.924716     20.63738    6955.7224    11139.944     7928.751    9835.9243    1174.9936   -776.14451   -35.400264 
  301500    305.23369   -3717.2646   -3194.1045   -3717.2646            0    9574.2326    17.014422    20.040741    20.757555    7077.9448    9854.2781    8794.6007    10073.819    402.23282   -1073.4101    1469.2117 
  302000    300.77821    -3759.147   -3243.6235    -3759.147            0    9522.1356    16.998234    20.021674    20.737806    7057.7616     10102.51    10443.956    8019.9409    1046.9235   -284.57666   -43.828918 
  302500    302.33212   -3760.9552   -3242.7683   -3760.9552            0    8285.3414    16.973803    19.992898       20.708    7027.3736    5221.0023    10112.293    9522.7288    706.11729    2049.9072    385.98732 
  303000     315.4531   -3749.4493   -3208.7735   -3749.4493            0    10454.943    16.970516    19.989027     20.70399    7023.2926    9968.5531      12300.4    9095.8775    782.01765    1217.2056    597.52452 
  303500    294.00432   -3742.8428   -3238.9295   -3742.8428            0    8468.6272    17.053543    20.086821    20.805282    7126.8798    8943.4997    8455.7476    8006.6344    947.84407    752.53953    571.00327 
  304000     283.0897   -3712.5732   -3227.3671   -3712.5732            0    9851.0493    17.011012    20.036725    20.753395    7073.6907       9340.3     9049.665    11163.183    -174.2707    1075.9372     1095.275 
  304500    317.19763   -3713.8666   -3170.2007   -3713.8666            0    8784.7366    17.022876      20.0507     20.76787    7088.5015    9575.6231    7580.1718     9198.415    381.50608     690.1732    1114.0683 
  305000     293.7294   -3700.1682   -3196.7261   -3700.1682            0    9725.1718    17.033597    20.063327    20.780948    7101.9018    10320.548    8811.7414    10043.226   -1093.2122    948.34728   -570.29437 
  305500    295.45844   -3726.2312   -3219.8256   -3726.2312            0    8427.5164    17.070922    20.107291    20.826485    7148.6911    7210.4862     9273.724    8798.3389   -793.87213    648.32426    272.17064 
  306000    295.90158   -3730.5225   -3223.3573   -3730.5225            0    7457.4287     17.11774    20.162436    20.883603    7207.6692    8313.2877    5584.5283    8474.4702    381.23488   -623.96243   -636.40994 
  306500    297.29436     -3737.37   -3227.8176     -3737.37            0      7997.53    17.066747    20.102373    20.821391     7143.447    5112.6412    8519.5448    10360.404   -165.96221   -555.82885    1194.8898 
  307000    293.76887   -3711.9139   -3208.4041   -3711.9139            0    8967.2663    16.967289    19.985225    20.700053    7019.2864    8756.9394    8825.0541    9319.8055    1207.1684   -881.28685    1614.9431 
  307500    292.79925    -3740.765   -3238.9171    -3740.765            0    8816.5355    16.970158    19.988605    20.703553    7022.8479     9167.562    7847.1774    9434.8671   -808.19405   -1222.1734   -581.92028 
  308000    283.16566    -3717.727   -3232.3908    -3717.727            0    9823.5068    17.020015     20.04733    20.764379    7084.9276    9592.6905    10044.187    9833.6424    947.44261   -514.25918     885.4132 
  308500    302.64566   -3720.6056   -3201.8813   -3720.6056            0    8145.7949    17.052974    20.086151    20.804589    7126.1668    8182.9008      6613.56     9640.924    -1296.056   -2545.6061    478.64856 
  309000    307.73226    -3716.333   -3188.8905    -3716.333            0    9234.8408    17.019639    20.046887     20.76392    7084.4582    7643.4323    10488.843    9572.2476    -230.6278   -263.63442   -946.75495 
  309500     310.6493   -3738.2464   -3205.8041   -3738.2464            0    9220.5724    17.011459    20.037251     20.75394    7074.2476    11467.503    9521.4578    6672.7565    971.05929    44.239509    1085.1383 
  310000    319.22168   -3706.9808   -3159.8458   -3706.9808            0    11596.608    16.981253    20.001673    20.717089     7036.631    10321.454    13832.112     10636.26    1274.1609    845.53536     -1157.16 
  310500     299.7032   -3670.3046   -3156.6235   -3670.3046            0     8087.189    17.112587    20.156367    20.877316    7201.1622    7271.7835    6522.3811    10467.403    623.30209     1851.239   -1029.6492 
  311000    310.52193   -3760.9896   -3228.7657   -3760.9896            0    9657.8422    17.040487    20.071443    20.789354    7110.5236    12427.088    8202.3351    8344.1041    -1359.272   -1450.2011   -1553.3827 
  311500    285.03232   -3718.0191   -3229.4835   -3718.0191            0    8904.5157    17.026178    20.054589    20.771898    7092.6271    7708.9233    9792.3958    9212.2279   -744.04184   -9.1760725    386.30034 
  312000    297.78467   -3701.0372   -3190.6444   -3701.0372            0    10765.171    16.959456    19.975999    20.690496    7009.5691    10262.074    11264.779     10768.66    132.27422    -817.5079   -308.67016 
  312500    278.35397   -3707.3073   -3230.2181   -3707.3073            0    7961.1623    17.115508    20.159808     20.88088     7204.851    9242.9433    8677.5821    5962.9615    206.15646    20.531963    1821.8033 
  313000    297.20293    -3698.504   -3189.1083    -3698.504            0    7761.7201    17.071043    20.107434    20.826633     7148.843    7114.9954    6255.2379     9914.927    933.94376   -377.58079    440.12375 
  313500     295.2116   -3741.3627   -3235.3802   -3741.3627            0    9083.6481    16.998455    20.021934    20.738075    7058.0366    8612.4784    9503.8412    9134.6247   -336.38772     1624.799    1160.8774 
  314000    314.62498   -3732.8973   -3193.6408   -3732.8973            0    9994.1047    17.034515    20.064409    20.782069     7103.051    10987.921    9822.1029    9172.2902   -1339.3866   -419.34275   -1946.7075 
  314500    309.09423   -3744.1087   -3214.3317   -3744.1087            0    10938.772    16.975286    19.994645    20.709809    7029.2159    10257.185    8613.0608    13946.069    1243.8718   -2355.2686   -2750.2886 
  315000    285.94844   -3708.0271   -3217.9213   -3708.0271            0    8675.2719    17.043208    20.074648    20.792674    7113.9303    8816.6052    7939.3956     9269.815    2011.5936     731.1282   -208.17555 
  315500     292.5713   -3696.1733   -3194.7161   -3696.1733            0    8848.6145    17.040497    20.071455    20.789367    7110.5365    8641.0611    7708.0031    10196.779    500.14996   -695.54223    -1277.753 
  316000    293.25695   -3676.9753   -3174.3429   -3676.9753            0    7711.3735    17.082099    20.120457    20.840121    7162.7421    8100.3845    6560.5078    8473.2283    641.39437    -1344.538    2215.1922 
  316500    300.09326   -3712.6961   -3198.3466   -3712.6961            0     9076.893    17.074869     20.11194      20.8313    7153.6504    8955.1666    9379.5189    8895.9934    330.19893   -762.13184    468.44716 
  317000    296.14372    -3740.596   -3233.0158    -3740.596            0    9545.2068    16.994697    20.017509    20.733491    7053.3574    9304.7804    10407.179    8923.6608   -782.70182    412.95491   -541.42235 
  317500    302.68972   -3783.9904   -3265.1906   -3783.9904            0    8499.6147    16.978169     19.99804    20.713326    7032.7976     7727.503    8822.8286    8948.5126    110.86422    319.87968   -1111.3767 
  318000    287.20287   -3714.6642   -3222.4084   -3714.6642            0    8296.0612    17.052887    20.086048    20.804482    7126.0577    7860.9905    7674.1218    9353.0714    1874.9642    702.54932     1780.835 
  318500    286.80763   -3707.6767   -3216.0982   -3707.6767            0    10765.183    17.025905    20.054267    20.771564    7092.2854    10196.672    12223.316    9875.5609   -126.30227   -1126.6052   -1373.5491 
  319000    311.06486   -3760.8542   -3227.6997   -3760.8542            0    6547.9665    17.149031    20.199293    20.921778    7247.2683    6038.5147    6241.6769    7363.7078    28.163708    609.95494    40.761238 
  319500    288.93479   -3740.8219   -3245.5976   -3740.8219            0    10722.082    17.054216    20.087614    20.806104     7127.724    12506.848    9669.0483      9990.35   -543.35557   -360.45192   -168.99763 
  320000    300.72769   -3748.5395   -3233.1025   -3748.5395            0    8521.6047    17.038645    20.069273    20.787107    7108.2181    9054.0061    7960.6264    8550.1815   -1054.7221   -644.13366   -1174.1458 
  320500    309.35568   -3754.6744   -3224.4493   -3754.6744            0     8575.342    17.008084    20.033277    20.749823    7070.0385    5543.0597    11059.224    9123.7419    73.133102    1152.7318    -1761.928 
  321000    291.96094   -3784.2955   -3283.8845   -3784.2955            0     8750.499    16.972586    19.991465    20.706516    7025.8627    8385.1289    9002.4943    8863.8739   -133.67084   -1705.4731    936.84813 
  321500    276.51918   -3763.5419   -3289.5975   -3763.5419            0    8136.2072    17.065508    20.100914     20.81988    7141.8918    7213.9113    9958.0475    7236.6628    1012.0896    100.20492    232.73778 
  322000    302.96952   -3741.9679   -3222.6885   -3741.9679            0    10761.042    17.004167    20.028662    20.745044    7065.1543     9446.962    11095.247    11740.916    2179.9451   -884.34578   -574.73473 
  322500    291.01199   -3749.4076    -3250.623   -3749.4076            0    11125.789    17.012506    20.038485    20.755218    7075.5546    11789.146    11200.082    10388.139   -871.09491    984.12468    1006.7562 
  323000    294.35864   -3723.8073   -3219.2867   -3723.8073            0    10108.048     17.03947    20.070244    20.788113    7109.2503    9614.0654    10254.175    10455.905    774.70679    685.43001    97.200444 
  323500    302.84188   -3762.1494   -3243.0888   -3762.1494            0    9184.3145    17.053457     20.08672    20.805178    7126.7722    8804.1318    10348.513    8400.2981   -554.72762   -16.704319   -1758.9472 
  324000    298.63917   -3782.9435   -3271.0862   -3782.9435            0    9074.2002    17.014636    20.040994    20.757816    7078.2125    8568.8573    9472.3343     9181.409   -1156.9893   -81.924281   -504.75524 
  324500    314.18319   -3731.2967   -3192.7974   -3731.2967            0    11181.603    16.957558    19.973763    20.688181    7007.2161    10604.891    10151.423    12788.494   -546.68028   -765.93427   -1623.7982 
  325000    302.64249   -3750.8251   -3232.1062   -3750.8251            0    9426.7023    17.063927    20.099052    20.817951    7139.9064    9591.6616    8233.3906    10455.055    -2293.347     -9.52071   -1500.5077 
  325500    293.91007   -3721.7069   -3217.9551   -3721.7069            0    9418.6788    16.990229    20.012246     20.72804    7047.7955    8384.8654    8795.5095    11075.662    -342.9286   -898.19147    305.93923 
  326000    301.03671    -3764.717   -3248.7504    -3764.717            0    7953.7947    17.029194    20.058141    20.775577     7096.396    11075.307    4769.5008    8016.5766   -588.37783    1014.1974    377.32973 
  326500    313.27986   -3752.2429   -3215.2919   -3752.2429            0    9334.5869    17.028407    20.057214    20.774617    7095.4129    9326.9993    8974.1493    9702.6122   -1735.8938   -446.21319    559.58508 
  327000    308.23476   -3704.1566   -3175.8528   -3704.1566            0     9105.495     17.03474    20.064674    20.782343     7103.332    9175.4278    8078.7787    10062.278   -283.07841   -1582.0757   -955.41408 
  327500    283.74771   -3721.7952   -3235.4613   -3721.7952            0    7720.5375    17.101735    20.143585    20.864076    7187.4707    6501.1732    8184.7509    8475.6884    1647.5325    908.54936   -84.719314 
  328000    307.20199   -3714.6379   -3188.1042   -3714.6379            0    10132.263    17.028095    20.056847    20.774236    7095.0229    9200.5543    10355.257    10840.976    30.255017   -5.3144198     777.6412 
  328500    305.01124   -3699.7342   -3176.9554   -3699.7342            0    11426.584    16.988526     20.01024    20.725962    7045.6766    11095.894    13005.545    10178.311   -432.57721   -200.85221    1039.4823 
  329000    297.22313   -3721.1012    -3211.671   -3721.1012            0    8914.0935    17.020224    20.047576    20.764634    7085.1886    9617.2758    9018.6619    8106.3428   -795.59497    1255.6707    812.13071 
  329500    290.82994   -3743.3374   -3244.8648   -3743.3374            0    8992.6997    16.990849    20.012976    20.728797    7048.5675    9843.7198    9206.0052    7928.3741    585.49993   -385.06318   0.65368455 
  330000     300.5715   -3721.8268   -3206.6576   -3721.8268            0    7356.2146     17.03251    20.062047    20.779622    7100.5423    8581.1852    6378.0904    7109.3682   -766.42742    1252.2789    1107.9579 
  330500    297.24728   -3691.1378   -3181.6662   -3691.1378            0    10635.156    16.966005    19.983713    20.698487    7017.6931     10741.39    11187.156    9976.9222   -514.93172   -526.15551   -721.79909 
  331000    294.12713    -3718.216   -3214.0922    -3718.216            0    8166.5997    17.056939    20.090821    20.809425    7131.1381    6428.2249    9085.1161    8986.4582     277.8175    811.05366   -806.37946 
  331500    299.71075    -3706.212   -3192.5181    -3706.212            0    11064.985     16.93641    19.948854    20.662381    6981.0326    10684.376    9620.1099    12890.468   -1141.6095    1043.3636    36.616119 
  332000    313.85633   -3714.1583   -3176.2193   -3714.1583            0    11900.232    16.951079    19.966132    20.680277    6999.1874    10748.742    12108.051    12843.903   -608.33096   -238.54824   -1737.8095 
  332500    316.98633   -3724.3719   -3181.0682   -3724.3719            0     9041.785    17.059774    20.094161    20.812885    7134.6954    7872.9073    10382.485    8869.9626    -779.3407    523.03472   -33.673283 
  333000    308.82282   -3755.8199   -3226.5081   -3755.8199            0    9550.3801    17.014705    20.041075      20.7579    7078.2979     9084.264    11335.214    8231.6622     1076.349    981.63204   -30.258464 
  333500    322.98763   -3739.2369   -3185.6471   -3739.2369            0    8051.2645    17.102302    20.144253    20.864769    7188.1863    8276.7408    6684.4983    9192.5544    295.69657   -158.80816   -1538.6944 
  334000     304.3848   -3699.6983   -3177.9932   -3699.6983            0    8768.1746    17.093722    20.134147    20.854301     7177.373    8065.1358    8227.3466    10012.042   -1387.3196    -99.88032    651.74576 
  334500    286.99596   -3698.4777   -3206.5764   -3698.4777            0    7593.1577    17.112411     20.15616    20.877102    7200.9405    5211.0745    8986.1935     8582.205    499.86038     929.2694   -140.89479 
  335000    293.28505   -3742.3295   -3239.6489   -3742.3295            0    9331.8191    17.071079    20.107476    20.826676    7148.8878    8165.8651    11263.933    8565.6587    23.017057    477.19677    595.60649 
  335500    299.01569   -3684.1028   -3171.6002   -3684.1028            0    9740.2937    17.076858    20.114283    20.833726    7156.1505    12032.315    6859.8387    10328.728   -619.91533    210.11999    1429.3109 
  336000    304.73781   -3678.8758   -3156.5656   -3678.8758            0    9160.3179     17.04686    20.078949    20.797129    7118.5043    9992.9771     7893.401    9594.5756    1027.9578    487.40209   -1032.8393 
  336500    292.77128   -3703.2596   -3201.4596   -3703.2596            0    7025.0336    17.042058    20.073293    20.791271    7112.4908    6802.9531    5614.6972    8657.4505   -419.81128    991.00071   -828.67467 
  337000    308.66085   -3714.8292   -3185.7951   -3714.8292            0    8284.5947    17.090165    20.129957    20.849961    7172.8927    7089.5764    7534.3325    10229.875     632.3451    102.28533    74.412032 
  337500    305.30667   -3723.7587   -3200.4735   -3723.7587            0    8672.5808    17.019184     20.04635    20.763364    7083.8894    8795.6063    7974.2746    9247.8616   -112.30441   -2158.1061   -473.95183 
  338000     269.5173   -3709.0766   -3247.1332   -3709.0766            0    8329.5923    16.925178    19.935625    20.648678    6967.1531    7378.6609    9082.5231    8527.5928   -335.55339     1762.746   -1034.9309 
  338500    299.47747   -3741.6938   -3228.3997   -3741.6938            0    6700.8673    17.040425     20.07137    20.789279    7110.4465    8025.3445    6695.4721    5381.7853    680.36383    919.38408    620.23876 
  339000    303.20465   -3714.3997   -3194.7173   -3714.3997            0    8799.5016    17.008962     20.03431    20.750893    7071.1328    9410.8425    8584.5847    8403.0777     -592.531   -257.76662    -432.4211 
  339500    282.26435   -3744.4654   -3260.6739   -3744.4654            0    9361.5187    17.003434    20.027799    20.744149    7064.2406    12606.676    9178.9514    6298.9288   -1276.3145   -860.45397     499.3859 
  340000    287.50515   -3720.2996   -3227.5256   -3720.2996            0    7021.2808    17.055587    20.089229    20.807777    7129.4435     7647.503    5149.4854    8266.8541   -69.409901    1372.4243    1322.6413 
  340500    294.23357    -3707.453   -3203.1468    -3707.453            0    7639.8111    17.140593    20.189354    20.911483    7236.5754    8068.5021    7194.2525    7656.6788   -285.35337    948.94548   -652.12585 
  341000    304.35099   -3705.7382    -3184.091   -3705.7382            0    9343.5332    17.021808    20.049441    20.766566    7087.1663    10711.023    7792.5913    9526.9857    572.55476   -268.29061   -1108.1366 
  341500    304.12568   -3740.6754   -3219.4144   -3740.6754            0    7186.3227    17.043065     20.07448      20.7925    7113.7517     7654.204    4617.6174    9287.1466   -412.52957   -126.06288    1434.4839 
  342000    297.66281   -3738.9055   -3228.7216   -3738.9055            0    6374.2387    17.117268    20.161881    20.883027    7207.0732    5713.7909    6971.7772    6437.1479   -767.76505   -135.26056    639.64014 
  342500    285.78786   -3731.7177   -3241.8871   -3731.7177            0    9575.7351    16.984086     20.00501    20.720545    7040.1535      7270.59    10959.625     10496.99    -1282.089    312.47844    892.97482 
  343000    294.06836   -3705.9062   -3201.8831   -3705.9062            0    8744.0482    16.977358    19.997085    20.712337    7031.7904    9285.2804    7608.4465    9338.4176   -528.45173    1536.5181   -739.93451 
  343500    303.13515   -3747.4869   -3227.9236   -3747.4869            0    8742.0834    17.008573    20.033852    20.750419    7070.6482    8311.3099    9495.0234    8419.9168     856.8213    1217.6295   -841.99238 
  344000    280.44915   -3724.7732    -3244.093   -3724.7732            0    8902.1942    17.014058    20.040312     20.75711    7077.4903    10124.111    7970.2836    8612.1879   -574.33724   -342.64579   -1709.1818 
  344500    302.29127   -3712.7431   -3194.6262   -3712.7431            0    10993.289    16.972672    19.991565     20.70662    7025.9687    10857.503    10813.609    11308.754   -699.40655    808.55441   -533.67821 
  345000    300.22225   -3702.2436   -3187.6729   -3702.2436            0    10372.511    16.967611    19.985605    20.700446     7019.686    11275.336    9377.1276    10465.069    1673.6523   -1176.2614   -246.68968 
  345500    298.77189   -3733.5662   -3221.4814   -3733.5662            0    9540.4629    17.068299    20.104202    20.823285    7145.3968    9740.1728    9772.1516    9109.0643   -780.58391    618.17843   -996.49548 
  346000     304.0624   -3729.7986   -3208.6461   -3729.7986            0    8336.5988    17.066813    20.102452    20.821472    7143.5305    9066.3833    7682.8748    8260.5383    1069.8845   -1172.8365   -150.12511 
  346500    309.39747   -3766.2778   -3235.9811   -3766.2778            0    11201.473    16.967448    19.985412    20.700247    7019.4833    8402.5676     12491.13    12710.723   -570.26032   -1108.5019    -752.0061 
  347000    309.40538   -3720.1728   -3189.8626   -3720.1728            0    9071.0194    17.031233    20.060542    20.778064    7098.9454    7865.6969    10775.697    8571.6647   -5.5743838    505.05296   -1255.8543 
  347500    277.56865   -3688.6074   -3212.8642   -3688.6074            0    8135.9951    17.120185    20.165317    20.886586    7210.7587    9576.6019    8302.2471    6529.1364     173.8147   -945.56753    445.41143 
  348000    281.84055   -3709.6521   -3226.5871   -3709.6521            0    8195.3749    17.093329    20.133684    20.853822    7176.8782    8268.2766    7691.4925    8626.3555   -322.10158   -1708.2443    1113.8084 
  348500    288.58096   -3727.3832   -3232.7654   -3727.3832            0    8332.7376      17.0562    20.089951    20.808524    7130.2119    8731.0096    8203.2648    8063.9384    2335.0671   -295.42777    470.82335 
  349000    287.82692   -3744.2724   -3250.9469   -3744.2724            0     8945.302     16.96724    19.985167    20.699993    7019.2252     9727.794     8523.622      8584.49   -49.151573    2110.2164    1990.7831 
  349500      314.085   -3699.3821   -3161.0512   -3699.3821            0    7964.2829    17.047121    20.079257    20.797448    7118.8317    7732.8186    10023.841    6136.1893    1135.1309   -445.74428   -72.691606 
  350000     322.3856   -3728.7468    -3176.189   -3728.7468            0    8175.0193    17.038025    20.068543     20.78635    7107.4419    7403.6445    10328.993    6792.4203    -319.5211    118.22777    1338.7578 
  350500    297.20779   -3694.9561   -3185.5522   -3694.9561            0    10374.549    16.987512    20.009046    20.724725    7044.4151    10824.875    10869.402    9429.3698   -90.244902   -893.49733   -888.52475 
  351000    292.67825   -3691.8396   -3190.1991   -3691.8396            0    8006.3496    17.021973    20.049636    20.766767    7087.3728    8809.3761    8529.2273    6680.4455    765.36612   -604.60216    101.98817 
  351500    299.85106   -3705.9786   -3192.0441   -3705.9786            0    8944.8325    17.027733     20.05642    20.773794    7094.5697    8886.4269    7026.3732    10921.697   -1050.1552   -622.99358   -313.69656 
  352000    309.77329   -3748.1075   -3217.1666   -3748.1075            0    8394.9083    17.073221    20.109999     20.82929    7151.5797    8146.1902    9277.5864    7760.9482   -794.36956   -125.73689   -1174.4016 
  352500    297.80363   -3742.4339   -3232.0087   -3742.4339            0    7849.4068    16.984788    20.005837    20.721402     7041.027    8566.8335    6016.9184    8964.4685   -1182.9464   -1780.0097   -1911.3486 
  353000    291.37764   -3735.6684   -3236.2571   -3735.6684            0    10026.262    16.986316    20.007637    20.723266    7042.9271    8791.7083    11127.958     10159.12   -527.67275    1382.2762   -141.39001 
  353500    290.88598   -3756.4291   -3257.8605   -3756.4291            0    10133.864    17.036703    20.066985    20.784737    7105.7875    8540.4905    10470.135    11390.967     561.3591    426.91971    1084.2462 
  354000    285.67092   -3696.6466   -3207.0165   -3696.6466            0    8453.8225    17.014483    20.040814     20.75763    7078.0213    9093.1931    8734.7504    7533.5239    979.09281   -1247.2867   -717.33381 
  354500    299.61019   -3685.8146    -3172.293   -3685.8146            0    9409.6194    17.020946    20.048426    20.765514    7086.0901    8588.1911    10499.836    9140.8306   -311.68143    281.30634   -356.11278 
  355000    300.16508   -3707.1351   -3192.6624   -3707.1351            0    8455.5771    17.024508    20.052621     20.76986    7090.5395      9215.33    8149.5123    8001.8892   -500.06305    -1229.254    834.76426 
  355500    304.98749    -3756.045   -3233.3069    -3756.045            0    8193.8147    17.028704    20.057564    20.774979     7095.784    7560.5332     9117.441    7903.4699    -228.0495   -1128.6891    1232.5592 
  356000    305.48358   -3727.0752   -3203.4868   -3727.0752            0    12352.292    16.946382    19.960599    20.674546    6993.3708    11735.556    11183.203    14138.117     283.2066    934.48686    4.2920506 
  356500    303.26331   -3769.1626   -3249.3797   -3769.1626            0     8401.924    17.080746    20.118863     20.83847    7161.0401    7558.2884    7423.6309    10223.853   -503.79641    463.33203    677.49456 
  357000     318.0514   -3763.0472    -3217.918   -3763.0472            0     6709.041     17.06668    20.102295     20.82131    7143.3633    8180.2465    5632.8163    6314.0603    1360.2792   -1335.2391    394.08988 
  357500    312.55502    -3719.547   -3183.8384    -3719.547            0    10220.526    17.037804    20.068282    20.786081    7107.1652     11619.94    9863.1924    9178.4444    1397.1272    1920.4943    588.78728 
  358000    284.83428   -3707.0323    -3218.836   -3707.0323            0    8352.4399    17.051697    20.084647    20.803031    7124.5662    10344.045     8723.784    5989.4908    1458.9293   -705.32611   -897.90267 
  358500     304.5178   -3706.6275   -3184.6945   -3706.6275            0    10639.801    16.956406    19.972406    20.686775    7005.7877    11295.626    9802.1189    10821.659    1626.9036   -140.82055    143.91807 
  359000    299.84773   -3719.3849   -3205.4561   -3719.3849            0    7017.4233    17.007707    20.032833    20.749363    7069.5685    8948.6238    6647.9853    5455.6607   -228.54644    1473.3177   -30.009445 
  359500    298.88245   -3713.9361   -3201.6618   -3713.9361            0    9019.9316    17.058912    20.093145    20.811833    7133.6135    9372.9997    9022.8411     8663.954    438.95843    1759.3396    1690.5871 
  360000     299.4129   -3738.9062   -3225.7227   -3738.9062            0    8377.5231    17.068532    20.104477     20.82357    7145.6893    9006.9454    7641.9993    8483.6247    17.442061   -1459.3443    2277.0588 
  360500    312.39716   -3732.7766   -3197.3385   -3732.7766            0    8042.4081    17.066503    20.102086    20.821094    7143.1409    7390.4715    7224.4032    9512.3496    827.50171    64.522084     490.9389 
  361000     303.6333   -3714.9058   -3194.4888   -3714.9058            0    7743.5323    17.095241    20.135936    20.856155    7179.2868    6912.9119    6796.4574    9521.2275   -1008.0209    154.51591    2130.8052 
  361500    296.15131   -3689.3798   -3181.7866   -3689.3798            0    8205.5406    17.094897    20.135531    20.855735    7178.8535    6250.4258    7918.3202    10447.876   -891.75096    1074.4002    1173.2335 
  362000    299.55592   -3714.2627   -3200.8341   -3714.2627            0    7459.6466    17.090371    20.130199    20.850212     7173.152       6775.9    7158.4824    8444.5573    1821.4769   -1009.4842   -306.24935 
  362500     299.3155   -3695.8437   -3182.8272   -3695.8437            0    7368.6628     17.09287    20.133143    20.853261    7176.2993    8517.7625    8034.1205    5554.1055    2662.2447   -1359.3057    -152.5072 
  363000    314.68418   -3717.4676   -3178.1097   -3717.4676            0    9241.6639    17.072906    20.109628    20.828906     7151.184    11570.848     8781.198     7372.946   -640.50501    2511.2688   -539.25829 
  363500    318.14787   -3706.9408   -3161.6463   -3706.9408            0    7080.5023    17.110276    20.153645    20.874497    7198.2453    8022.7685    5485.3196    7733.4187      84.3083   -54.824615   -852.99581 
  364000     294.4156   -3709.4746   -3204.8563   -3709.4746            0    7195.0944    17.111594    20.155197    20.876105    7199.9087    9213.8597    6875.3407    5496.0828   -1774.4207    -265.6154   -1472.4146 
  364500    293.32274   -3700.8938   -3198.1487   -3700.8938            0    7396.6511    17.085362    20.124299    20.844101    7166.8467    7689.8291    7399.2845    7100.8397   -669.54058   -77.417896   -221.59882 
  365000    299.15489   -3698.0034   -3185.2622   -3698.0034            0    8619.1248    17.016329    20.042988    20.759882    7080.3256    9810.8399    7766.2774    8280.2571    415.14049    355.33926    796.78063 
  365500    309.01933    -3719.375   -3189.7264    -3719.375            0    9764.8439    16.997294    20.020567    20.736659    7056.5911    9306.8454    11263.355    8724.3311   -344.14095    -1696.001     474.1491 
  366000    290.65194    -3637.043   -3138.8755    -3637.043            0    11239.807    16.983353    20.004147    20.719651    7039.2424    9130.9507     12723.38    11865.089    76.965201   -1182.2898   -1226.7484 
  366500    295.16417    -3714.556   -3208.6547    -3714.556            0    8063.0109    17.043263    20.074713    20.792741    7113.9995    6063.9795    8140.7804    9984.2729    124.84171    -545.0791   -1125.2673 
  367000    293.30328    -3724.495   -3221.7832    -3724.495            0     8155.941    17.069823    20.105997    20.825144    7147.3102    8040.2228    8556.5825    7871.0176    148.77679    1313.0352    291.49332 
  367500    312.52479   -3732.1169   -3196.4601   -3732.1169            0    8083.6405    17.059113    20.093381    20.812078    7133.8652    6133.7617    9389.9918    8727.1679   -1206.0498   -1245.5131    50.392279 
  368000    301.21302   -3689.7672   -3173.4984   -3689.7672            0    9647.7217    17.063376    20.098403    20.817279     7139.215    9403.5456     10149.52    9390.0992   -95.018136   -98.067841    692.05493 
  368500    302.99582   -3724.6258   -3205.3013   -3724.6258            0    7758.9239    17.052863     20.08602    20.804453    7126.0271    8730.3961    5528.7268    9017.6487    367.06178    -2088.265    1605.0876 
  369000    308.04233   -3731.9324   -3203.9584   -3731.9324            0    10516.548    16.985056    20.006153    20.721729    7041.3601     10900.55    8735.2817    11913.813    1066.0679    863.10158    843.27048 
  369500    304.87091   -3742.8722   -3220.3339   -3742.8722            0    8913.7355    16.993214    20.015762    20.731682    7051.5111    11372.454    7937.0228    7431.7294   -465.26294   -1010.9844    382.82372 
  370000    312.31589   -3738.1945   -3202.8958   -3738.1945            0    10009.487     16.93731    19.949914    20.663478    6982.1454    10262.057    10429.933    9336.4708     613.4622    409.98447    1222.7476 
  370500    299.13079   -3768.2303   -3255.5304   -3768.2303            0    10044.583    16.878604    19.880766    20.591858    6909.7951    11839.234    8646.0964     9648.418    997.89488    726.06787   -2757.1199 
  371000    301.30697   -3767.8858    -3251.456   -3767.8858            0    9533.3221    16.950914    19.965937    20.680075    6998.9828    10769.957    7438.0321    10391.977   -103.47231    1150.4097    991.27304 
  371500    288.92674   -3727.0161   -3231.8056   -3727.0161            0    9063.5843    16.954738    19.970442    20.684741    7003.7209    8824.8672    10819.139    7546.7463    1331.2159   -364.33622   -597.01583 
  372000    291.91511   -3723.5483   -3223.2158   -3723.5483            0    8225.5799    17.028249    20.057028    20.774424    7095.2148    8162.1774    9097.1115    7417.4507    2448.4814    562.46094    2053.2801 
  372500    285.95715   -3735.7344   -3245.6136   -3735.7344            0    10855.451    16.982844    20.003547     20.71903    7038.6093    10440.593      13123.1     9002.661   -2409.4599    362.39521     1351.347 
  373000    287.16508   -3783.1486   -3290.9575   -3783.1486            0    9178.1717    16.993346    20.015917    20.731843    7051.6755     9673.901    9567.8683    8292.7456   -250.23984   -1167.0466   -495.64555 
  373500    294.12738   -3760.3404   -3256.2161   -3760.3404            0     7010.763    17.048332    20.080683    20.798925    7120.3485    8083.7442    6107.6831    6840.8616   -23.503896   -874.64989   -328.95055 
  374000    308.28692    -3752.166   -3223.7727    -3752.166            0    6507.4599    17.009708    20.035189    20.751804    7072.0639    6282.0849    6766.5267    6473.7681    628.39508   -787.22096    654.21089 
  374500      297.406   -3678.1812   -3168.4375   -3678.1812            0    9788.3228    17.034259    20.064108    20.781757     7102.731    9869.3125    10914.366    8581.2899   -992.43679    945.05611     362.2373 
  375000     323.7558   -3703.6405   -3148.7341   -3703.6405            0     10078.84    16.947633    19.962073    20.676072    6994.9192    8505.2039    10909.533    10821.783   -1290.0624    1395.9573   -867.06472 
  375500     300.5755   -3713.7163   -3198.5402   -3713.7163            0    7396.0208    17.006826    20.031795    20.748289    7068.4702    5484.4493    8132.3071    8571.3062   -796.73167    112.07949   -2425.7125 
  376000    310.96576   -3696.6661   -3163.6814   -3696.6661            0    11044.845     16.99045    20.012506     20.72831    7048.0707    9508.2137    10359.791    13266.532   -7.6390406   -718.20666    112.54845 
  376500    320.03475   -3708.5174   -3159.9888   -3708.5174            0    8256.7032    17.027632    20.056302    20.773672    7094.4442     8471.214    7641.8039    8657.0915    1537.8618   -1502.5776   -469.54247 
  377000    291.50322   -3742.2536   -3242.6271   -3742.2536            0    9360.8283    16.970215    19.988672    20.703623    7022.9182    8753.8418    8703.0857    10625.557    95.402907   -1165.9586    311.79751 
  377500    289.36345   -3719.4345   -3223.4754   -3719.4345            0    8039.5638    16.991401    20.013626    20.729469    7049.2538    10556.912    6678.7277    6883.0515    635.30241   -631.17279    277.93021 
  378000    305.04131   -3723.7421   -3200.9117   -3723.7421            0    10075.903    16.980425    20.000698    20.716079     7035.602    9624.8718    10612.004    9990.8341   -2344.4492   -89.531874   -1554.0314 
  378500    294.21806   -3725.0875   -3220.8078   -3725.0875            0    9949.1016    17.009666     20.03514    20.751753    7072.0112    8290.7398    11782.144    9774.4208   -1813.3067    1248.8258    1113.3736 
  379000    290.56087   -3709.5022   -3211.4909   -3709.5022            0    8457.0709    17.021184    20.048706    20.765805    7086.3872    8610.6699    8039.0986    8721.4444    1307.0625   -1177.7142    -378.3241 
  379500    285.49669   -3727.7895   -3238.4579   -3727.7895            0    8868.4596    17.038925    20.069603    20.787448    7108.5682    8431.1946    9834.3165    8339.8676     420.6896   -1037.7353    34.508626 
  380000    292.11639   -3750.8505    -3250.173   -3750.8505            0    8166.6856    17.051805    20.084774    20.803162    7124.7009    7001.1436    9726.3812    7772.5319   -1118.3121    936.32169    51.390055 
  380500    305.88128   -3692.1003   -3167.8303   -3692.1003            0    9204.2642    17.037159    20.067523    20.785294    7106.3588    7592.2158    9878.4445    10142.132    987.67861    1032.6745    1504.4566 
  381000    297.18598   -3729.8215   -3220.4549   -3729.8215            0    9269.3758    16.962703    19.979824    20.694458    7013.5966    8884.6474    10495.761    8427.7184    116.41663   -661.03352    964.60696 
  381500    308.96118    -3698.068   -3168.5191    -3698.068            0    8186.0743    16.996436    20.019556    20.735612    7055.5222    8253.0867    7733.9665    8571.1696   -26.364362    1347.2489    862.96405 
  382000    306.78595   -3735.7572   -3209.9366   -3735.7572            0    11336.162    16.935572    19.947866    20.661358    6979.9959     11896.58    11180.958    10930.949     1022.132   -106.54954   -751.67928 
  382500    295.42149   -3695.4966   -3189.1543   -3695.4966            0     6381.928    17.083684    20.122323    20.842055     7164.736    5869.3731    5440.4636    7835.9473     350.4035    1222.0873   -238.78977 
  383000    291.20243   -3685.0055   -3185.8945   -3685.0055            0    8016.4039    16.983763    20.004629    20.720151    7039.7516    6245.9444     8422.147    9381.1203    2073.8559   -21.471502    -1877.573 
  383500    297.88274   -3690.3611   -3179.8003   -3690.3611            0    8511.2873    17.100573    20.142216    20.862659    7186.0055    9525.1362    6656.2118    9352.5139    127.16595    1345.3279   -419.43575 
  384000     282.5138   -3713.4435   -3229.2245   -3713.4435            0    9045.8339    17.027822    20.056525    20.773903    7094.6816    8976.5692    8834.4725    9326.4601   -1438.5359   -643.26312    948.04092 
  384500    304.13668   -3724.2999     -3203.02   -3724.2999            0    10862.711    17.013205    20.039308     20.75607    7076.4263    10880.758    9814.3206    11893.054    102.61881    -1401.142    1783.7126 
  385000    304.01596    -3753.444   -3232.3711    -3753.444            0    7982.8715    17.101445    20.143243    20.863723    7187.1053     6975.658     6865.336    10107.621   -100.26587   -216.24151    1024.4154 
  385500    299.86133   -3689.1208   -3175.1687   -3689.1208            0    11730.421    16.991164    20.013346     20.72918    7048.9584    10186.786    12460.917    12543.562   -1044.5108     1537.425   -847.38441 
  386000    293.22762   -3695.8924   -3193.3103   -3695.8924            0    8898.1106    17.032816    20.062408    20.779996     7100.926    8354.3079    10048.409    8291.6149    1022.2839   -1743.6561   -125.09808 
  386500    285.58518    -3673.641   -3184.1578    -3673.641            0    11490.254    16.968422     19.98656    20.701436    7020.6932    12481.833    12689.928    9299.0005   -90.515207    67.852591    569.68867 
  387000    304.51959   -3714.3028   -3192.3666   -3714.3028            0    9315.2108    17.003045    20.027342    20.743676    7063.7567    10257.927     9471.728    8215.9774   -1233.5545   -1293.0726    308.85234 
  387500    300.15741   -3691.1035    -3176.644   -3691.1035            0    10094.299    16.983006    20.003737    20.719227    7038.8102    10642.184    9705.6526    9935.0599    119.54743    1501.2051   -1633.1201 
  388000    298.59452   -3752.8213   -3241.0405   -3752.8213            0    7895.4366    17.053462    20.086726    20.805184    7126.7791    8829.5316    6838.0529    8018.7253    602.53918    557.70165    2222.6448 
  388500    284.15688   -3753.6646   -3266.6294   -3753.6646            0    7626.7411    17.067122    20.102815    20.821849    7143.9183    7159.8583    7093.5673    8626.7977   -728.66281    661.70392    915.50237 
  389000     293.9226   -3730.3909   -3226.6176   -3730.3909            0    7211.7828    17.088573    20.128081    20.848019    7170.8884    8184.3235    5756.9043    7694.1206   -61.974773   -600.33614    159.41672 
  389500    293.24366   -3712.7853   -3210.1757   -3712.7853            0    9229.8025    16.991111    20.013284    20.729115    7048.8928    9506.4003    8621.1942    9561.8129    550.16907    6.7431132    631.48989 
  390000    294.60798   -3778.3661   -3273.4181   -3778.3661            0    10147.626    17.008391    20.033638    20.750198    7070.4214    9516.7984    9083.6102    11842.469    1290.0897    202.90401   -1085.0259 
  390500    306.47029   -3686.0478   -3160.7683   -3686.0478            0    8829.2432    17.027519    20.056168    20.773533    7094.3027    8577.5578    9131.9903    8778.1816    465.48198    67.987645   -222.50957 
  391000    292.63596   -3708.2441   -3206.6761   -3708.2441            0    10195.526     17.00394    20.028395    20.744767    7064.8715    11203.534     9341.148    10041.897    801.44263    24.890174    1567.7632 
  391500    305.42228   -3713.1722   -3189.6889   -3713.1722            0    9677.2536    17.033127    20.062773    20.780375    7101.3141    11473.689    8265.5483    9292.5234   -432.35813    1083.6883   -73.904232 
  392000    270.82082   -3745.2225   -3281.0449   -3745.2225            0    8777.8532     17.04481    20.076535    20.794628    7115.9367    6559.0277    9651.0001    10123.532   -65.246609   -5.9122381    2204.9627 
  392500    304.83557   -3738.0663   -3215.5886   -3738.0663            0    10179.997    16.983088    20.003834    20.719328    7038.9126    8500.2922    10003.305    12036.394    849.43432    206.92582    447.43051 
  393000    309.33046   -3736.0422   -3205.8604   -3736.0422            0    7543.4508    17.058194    20.092299    20.810956    7132.7122    8507.9902    6873.2166    7249.1454    692.08085    216.47429    1340.2192 
  393500    306.98591   -3713.8788   -3187.7154   -3713.8788            0     9362.732    16.995706    20.018697    20.734722    7054.6139     7638.428    10266.023    10183.745    1219.8424   -345.39637    1966.4944 
  394000    296.38576   -3727.3623   -3219.3673   -3727.3623            0    8040.0846    16.960976    19.977789    20.692351    7011.4541    7605.1106    7846.9583     8668.185    503.15632   -294.05408   -1053.8431 
  394500    294.25434    -3705.038   -3200.6961    -3705.038            0    9726.2502     16.95246    19.967759    20.681962    7000.8989    7724.8636    9010.9343    12442.953   -234.52327    1896.0563   -2022.5667 
  395000    303.84924   -3732.0802    -3211.293   -3732.0802            0    7978.4237    17.060564     20.09509    20.813848    7135.6856    7374.6011    7772.1818    8788.4883   -553.66365    36.666023   -1101.7068 
  395500    287.72486   -3739.4234   -3246.2729   -3739.4234            0    7932.6314     17.05219    20.085227    20.803632    7125.1834    7852.4655     8073.614    7871.8147   -1257.0851   -896.35783    502.14893 
  396000    283.08922   -3696.1847   -3210.9794   -3696.1847            0    10272.385    16.999062    20.022649    20.738816    7058.7931    7483.4541    11519.937    11813.765    203.94865    340.07886    144.71357 
  396500    301.96617   -3724.5483   -3206.9886   -3724.5483            0    9294.8862    17.003278    20.027615    20.743959    7064.0463     8825.375    8758.2908    10300.993    1098.0712   -2686.4632    908.69187 
  397000    292.85038   -3749.9664   -3248.0309   -3749.9664            0    6971.4279    17.059368    20.093682    20.812389    7134.1854    8167.4973     5158.905    7587.8814    -1220.449   -143.85818   -485.14542 
  397500    295.25101   -3708.3346   -3202.2845   -3708.3346            0    9127.6539    17.026288    20.054719    20.772032    7092.7645    9699.3777    7703.9927    9979.5912    644.79257   -546.56794   -1106.3104 
  398000    300.26273   -3741.6284   -3226.9884   -3741.6284            0    9189.4012    17.004742     20.02934    20.745745    7065.8711    9640.8795    11611.561    6315.7631   -160.44156    2156.5833   -1298.8088 
  398500    303.22386   -3704.7274    -3185.012   -3704.7274            0    6788.2008    17.069848    20.106026    20.825175    7147.3421    7600.9018    7200.5422    5563.1585    710.48818   -703.63961     339.8636 
  399000    299.02024   -3797.9042   -3285.3938   -3797.9042            0    9341.1296    17.004708      20.0293    20.745705    7065.8297    8819.5874    7818.9183    11384.883   -1205.8962    1221.2149    1009.4598 
  399500    303.37292   -3776.7374   -3256.7665   -3776.7374            0    8908.0689    16.985087    20.006189    20.721767    7041.3988    8989.2815    10831.084    6903.8409    1769.6505   -1985.4675   -700.41121 
  400000    298.87065   -3750.2219   -3237.9678   -3750.2219            0    8841.0902    17.050529    20.083271    20.801606    7123.1021    8725.5432    6330.8273      11466.9    455.89976    609.13944   -595.92119 
  400500    295.38075   -3714.1817   -3207.9092   -3714.1817            0    9054.3835    17.083997    20.122692    20.842436    7165.1296    10270.226    7457.0293    9435.8949    314.94561   -2086.5024    496.50433 
  401000     297.2604   -3733.9811    -3224.487   -3733.9811            0    10355.086    17.069066    20.105106    20.824221      7146.36    11056.807    9266.4015    10742.048    844.18556    1123.2716   -356.10311 
  401500    297.35656   -3681.6919    -3172.033   -3681.6919            0    9704.9885    16.974874     19.99416    20.709307    7028.7046    8345.0779    12596.517    8173.3708  -0.55268927   -204.02437   -222.69409 
  402000    299.58487   -3728.7361   -3215.2579   -3728.7361            0    10176.252    16.988649    20.010384    20.726112    7045.8288     9692.769    12615.359    8220.6275    1001.4014    709.23603    276.57843 
  402500     292.3159   -3712.8081   -3211.7887   -3712.8081            0    8254.9417     17.02933    20.058302    20.775743     7096.567    7875.1837    6530.8155    10358.826   -101.67072   -480.50798    -2096.169 
  403000     300.7031   -3751.2555   -3235.8607   -3751.2555            0    8091.9906    17.016344    20.043006      20.7599    7080.3443    7811.5097    6989.8646    9474.5973   -753.83758    2443.5627    95.625622 
  403500    298.94337   -3755.0006   -3242.6219   -3755.0006            0    9912.9126    17.000488     20.02433    20.740556    7060.5703    9304.3512    10977.124    9457.2629    1549.7407   -8.0894789    415.23495 
  404000    289.88273   -3753.5006   -3256.6515   -3753.5006            0    8704.2648    17.020219    20.047569    20.764627    7085.1815    7691.4317    9116.9827    9304.3799   -1953.8224   -1121.2999   -171.91648 
  404500    300.78437   -3724.9141     -3209.38   -3724.9141            0    9809.0381    16.972358    19.991196    20.706238    7025.5799    9932.6368    9905.0616    9589.4159    1001.9541   -77.219647   -335.78471 
  405000    293.04509   -3711.2605   -3208.9913   -3711.2605            0    8578.5911     17.02144    20.049007    20.766116    7086.7065    6847.3626    10106.068     8782.343     1089.108    704.17493    -1814.852 
  405500    315.72651   -3697.0988   -3155.9543   -3697.0988            0    10978.544    17.000415    20.024244    20.740467    7060.4792    10333.256    11841.669    10760.707    51.958467    1932.9325   -1147.0916 
  406000    298.48734   -3678.1189   -3166.5218   -3678.1189            0    8756.4092    17.046151    20.078114    20.796264    7117.6164    8653.1913     8241.191    9374.8454    310.73623    581.15199   -57.687571 
  406500    311.58151   -3713.7489   -3179.7089   -3713.7489            0    7350.8138    17.063574    20.098636     20.81752    7139.4634    5197.4265    7939.0578     8915.957    1144.2626    631.25021   -1625.5132 
  407000    288.99958   -3720.3591   -3225.0237   -3720.3591            0    9471.6206     16.97932    19.999396    20.714731    7034.2286    8271.4173    9776.7074    10366.737     1083.448    2107.4104   -66.163442 
  407500    292.38444   -3703.7173   -3202.5803   -3703.7173            0    8948.8284    16.996601     20.01975    20.735813    7055.7274     8795.556     10089.37    7961.5592    220.33249   -1083.8785   -185.17424 
  408000    287.41003   -3706.0164   -3213.4054   -3706.0164            0     10478.63    16.917576     19.92667    20.639404    6957.7694    9874.8784    9911.6324     11649.38   -401.20519   -962.06802     625.4622 
  408500    301.32481   -3749.7638   -3233.3034   -3749.7638            0    6326.3988    17.083379    20.121964    20.841683    7164.3525    5921.0241    6341.3413    6716.8309    518.53914   -1308.7932     1973.425 
  409000    292.50861   -3690.8368    -3189.487   -3690.8368            0    9773.1724     16.97464    19.993883    20.709021    7028.4132    9535.0258       9901.3    9883.1914    3031.3884   -1614.5565   -1022.7822 
  409500    310.35007    -3765.236   -3233.3066    -3765.236            0    10425.712    16.950542      19.9655    20.679622    6998.5229    9367.7833    10928.066    10981.288   -346.52988    178.95901    163.27872 
  410000     298.9311   -3753.6055   -3241.2478   -3753.6055            0    9119.4095    16.909463    19.917114    20.629505    6947.7635    8988.7103    6381.6801    11987.838    -136.3635    216.17947   -896.27995 
  410500    290.20958   -3746.4096   -3249.0003   -3746.4096            0     10183.92    16.965425    19.983029    20.697778    7016.9727    10653.273    10355.258    9543.2284   -34.261198    -1374.781   -411.59685 
  411000    310.79335   -3714.2628   -3181.5737   -3714.2628            0    9865.5313    17.022615    20.050392    20.767551    7088.1753    9363.4069    10320.602    9912.5855     740.2703   -404.58228     799.4723 
  411500    291.51176   -3727.8536   -3228.2124   -3727.8536            0    6500.8282    17.119597    20.164625    20.885869    7210.0161    5857.7626     6119.724    7524.9979    874.04004   -1223.8313    239.41142 
  412000    304.01314   -3709.7358   -3188.6677   -3709.7358            0    9315.3871    17.025619     20.05393    20.771215    7091.9274    9390.8024    9435.0491    9120.3098    810.87833    1893.2834    752.07061 
  412500    298.21265   -3735.1505   -3224.0242   -3735.1505            0    7560.6751    17.084833    20.123677    20.843457    7166.1821    6178.4772    8234.1549    8269.3932    1286.6385    -1005.548    1513.4282 
  413000    293.64115   -3768.5553   -3265.2644   -3768.5553            0    8066.1632    17.080955    20.119109    20.838725    7161.3028    8101.2851    7080.3298    9016.8748     1843.789   -689.28441    2124.3485 
  413500     304.0612   -3762.8515    -3241.701   -3762.8515            0    9024.7525    17.025143     20.05337    20.770635    7091.3338    10133.381    7924.8045    9016.0716    1580.8546   -2835.2484    29.443626 
  414000    289.07774    -3751.837   -3256.3676    -3751.837            0    9390.8572    17.054809    20.088312    20.806827    7128.4676     9170.616    8922.9384    10079.017   -952.59731    -847.7852    -415.4806 
  414500    289.59736   -3738.2442   -3241.8842   -3738.2442            0    9740.9165    16.950555    19.965515    20.679637    6998.5383    11287.901    9434.4658    8500.3828    370.99441   -2514.2269   -359.11231 
  415000     306.4446   -3733.8845    -3208.649   -3733.8845            0    8386.1676    17.035977    20.066131    20.783852    7104.8798    9727.5896      8541.98    6888.9331    892.97566   -338.80812   -1575.8004 
  415500    299.86964   -3720.7224   -3206.7561   -3720.7224            0    7520.9977    17.032105    20.061569    20.779128    7100.0358    4804.4073    8596.2383    9162.3475   -623.98397   -526.24462   -1400.1078 
  416000    304.99568   -3731.5039   -3208.7517   -3731.5039            0    7429.0659    17.008538    20.033811    20.750377    7070.6049    7516.7639    7170.9172    7599.5165   -220.08267   -543.74819    777.28394 
  416500     315.9412   -3768.3498   -3226.8374   -3768.3498            0    8742.9572     17.07372    20.110587    20.829898    7152.2064    10004.082    7828.0613    8396.7286    -1021.376   -2137.2138    95.253312 
  417000    306.56692    -3772.133   -3246.6878    -3772.133            0     9197.763    17.019724    20.046987    20.764024    7084.5646    8370.8462    8941.9106    10280.532     451.0628   -46.791462   -500.44152 
  417500    299.86267   -3708.6889   -3194.7345   -3708.6889            0    7051.8354    17.067248    20.102964    20.822003    7144.0766    5676.7022    6507.7288    8971.0751    1497.5058   -1192.4665    3086.7177 
  418000    284.50716   -3728.5698   -3240.9343   -3728.5698            0    9844.6424    17.000164    20.023948    20.740161    7060.1664    10532.413    7218.2318    11783.283    753.32363   -696.91112   -287.70989 
  418500    311.45798   -3689.6271   -3155.7988   -3689.6271            0    12174.599    17.019313    20.046503    20.763523    7084.0513    11200.274    11732.876    13590.647   -565.80824    72.342502   -1556.9722 
  419000    298.96547   -3710.0404   -3197.6238   -3710.0404            0    7732.7663    17.047135    20.079274    20.797465    7118.8496    8444.8313    8530.0394    6223.4283    -486.4349    425.42034    129.66196 
  419500    302.38956   -3705.8329   -3187.5475   -3705.8329            0    7889.9943    17.045265    20.077071    20.795184     7116.507    8477.0582    9115.6282    6077.2964    833.77583   -650.22447   -2616.8503 
  420000     298.8175   -3740.7859   -3228.6229   -3740.7859            0    8322.6584    16.987124    20.008588    20.724252    7043.9321    8770.2617    9309.2197    6888.4936   -751.07862   -1155.8101     1073.688 
  420500     319.2266   -3751.3862   -3204.2428   -3751.3862            0    9154.8978    16.957756    19.973997    20.688423    7007.4623    10435.486    8873.3209    8155.8861   -40.620332   -1110.3654     309.4554 
  421000    303.50387    -3693.465   -3173.2698    -3693.465            0    7261.2316    17.073553     20.11039    20.829694    7151.9963    6026.7943    7818.2076    7938.6928   -312.67807    1271.1228   -843.00526 
  421500    307.46344   -3726.2064   -3199.2246   -3726.2064            0    8471.1951    17.005464     20.03019    20.746626    7066.7709    8527.7883    7589.4127    9296.3844   -2236.3129    975.08148    849.34249 
  422000    310.23361   -3748.9106   -3217.1809   -3748.9106            0    8072.4932    17.021172    20.048692     20.76579    7086.3725    8475.7383    7436.2864     8305.455    853.90472    1480.5801    39.084045 
  422500    294.36158   -3783.0101   -3278.4844   -3783.0101            0    6377.3144    17.029684    20.058718    20.776175     7097.009     6502.682     5883.139    6746.1223    1020.7785   -214.77438   -1347.0367 
  423000    313.44407   -3734.3901   -3197.1577   -3734.3901            0    7997.9739    17.025503    20.053793    20.771073    7091.7826    4738.7105    9931.5747    9323.6365    450.80843    1068.6425     216.6183 
  423500    304.87219   -3736.3737   -3213.8332   -3736.3737            0    8865.3665    17.054121    20.087502    20.805988     7127.605    10123.523    6160.1207    10312.456     571.9671    1658.7134    221.76901 
  424000     279.6155   -3746.1368   -3266.8854   -3746.1368            0     8357.317    17.019712    20.046973    20.764009     7084.549    9698.1719    7376.9655    7996.8136    232.62536   -1286.9579   -1304.1328 
  424500    314.77741   -3736.0567    -3196.539   -3736.0567            0    9509.3223    16.996312    20.019411    20.735461    7055.3683     7982.648    10466.412    10078.907    255.79036     1245.161    447.52716 
  425000    309.83712   -3703.6142    -3172.564   -3703.6142            0    8346.8033    17.071657    20.108157    20.827381    7149.6139    8390.6827    8680.9577    7968.7696   -528.74546   -550.05838    1358.0727 
  425500    294.79221   -3746.4898    -3241.226   -3746.4898            0    8584.6634     17.02782    20.056523    20.773901    7094.6787    9783.6072    8549.5744    7420.8085   -1399.6991   -336.39608    94.224435 
  426000    320.01651   -3746.6442   -3198.1468   -3746.6442            0    10012.676     17.01467    20.041034    20.757858    7078.2548    9572.4304    11274.503    9191.0945   -1431.9218   -922.77429   -431.60132 
  426500    297.52258   -3743.8763   -3233.9328   -3743.8763            0    10223.749    17.038015    20.068531    20.786338    7107.4294    12860.224    9488.2211    8322.8011    487.68669    2521.5794    1208.5099 
  427000    302.37822   -3778.6086   -3260.3427   -3778.6086            0    8544.6761    17.053334    20.086575    20.805028    7126.6182    7856.0103    7947.9815    9830.0366    3.7684342   -591.18524    1821.6217 
  427500    305.30016    -3695.552    -3172.278    -3695.552            0    8597.7946    17.024769     20.05293    20.770179    7090.8665    7724.7874    7437.9017    10630.695    315.39352   -735.73728    695.90117 
  428000    301.14242   -3717.9133   -3201.7655   -3717.9133            0    8535.2749    17.020427    20.047814    20.764881    7085.4413    8127.2725    9346.9814    8131.5709   -1163.7067   -1248.8793   -1014.4839 
  428500    309.17896    -3680.014   -3150.0918    -3680.014            0    9234.8157    17.046986    20.079098    20.797284     7118.663    10035.061    8757.3606    8912.0258    228.88312   -738.23488    753.32208 
  429000    290.87941   -3721.2241   -3222.6667   -3721.2241            0    8800.3033     17.05629    20.090057    20.808634    7130.3248    7833.9819    7911.7262    10655.202   -116.49994   -1756.8701    1467.3584 
  429500    305.57639   -3716.5602   -3192.8127   -3716.5602            0    10639.015    16.969891     19.98829    20.703228    7022.5165    10902.094    10584.391     10430.56    455.03152    41.142769    97.082229 
  430000    288.16019   -3719.7174   -3225.8207   -3719.7174            0    8362.6698    17.020544    20.047953    20.765024    7085.5881     7716.739    8027.6923     9343.578   -677.68321     3609.762   -192.04106 
  430500    296.13287   -3751.6787   -3244.1171   -3751.6787            0    9544.2932    17.019769     20.04704    20.764079    7084.6205    7553.8912    11741.037    9337.9515   -55.873518    2720.6752   -227.95068 
  431000    301.22149   -3690.4219   -3174.1385   -3690.4219            0    9922.6816    17.021821    20.049457    20.766582    7087.1831    11096.667    9122.3352    9549.0426    588.87192   -652.33456    412.15675 
  431500    299.41796    -3713.649   -3200.4569    -3713.649            0    9879.4723    16.951598    19.966743     20.68091    6999.8301    9967.8991    9944.6036     9725.914    860.60358    435.68397    1320.1485 
  432000    314.76258   -3736.8908   -3197.3985   -3736.8908            0    9770.3947    16.870708    19.871466    20.582225    6900.1024    8536.8379    9683.9372    11090.409   -1185.6819   -394.23078    -168.8886 
  432500    300.63369   -3734.7888   -3219.5129   -3734.7888            0    11213.459     16.89606    19.901326    20.613153    6931.2551    10749.777    12398.052    10492.548    1324.5006   -765.93726   -84.265486 
  433000    289.59432   -3686.9526   -3190.5978   -3686.9526            0    8047.6138     16.93678     19.94929    20.662832    6981.4904    8023.9753    6290.7754    9828.0908   -1373.6907   -1006.8853    916.62729 
  433500    295.01803   -3699.8874   -3194.2366   -3699.8874            0    10164.321    17.066754    20.102382    20.821401    7143.4566    11216.265    9471.4304    9805.2671   -894.84118    941.44088    1103.3288 
  434000    292.48911   -3727.4976   -3226.1813   -3727.4976            0    10098.916    17.076613    20.113995    20.833429    7155.8435    8383.6271    10630.437    11282.683   -1255.6232   -564.04386    1509.0868 
  434500    308.30785   -3711.1122   -3182.6831   -3711.1122            0    7458.0819    17.065297    20.100665    20.819622    7141.6264    8461.6918    5639.3797    8273.1744   -320.01629    -890.3095   -154.46444 
  435000     285.3449   -3704.9596   -3215.8882   -3704.9596            0    9524.8528    17.049947    20.082586    20.800896     7122.373    8968.8949    9558.8194    10046.844   -1061.5564   -155.66166   -102.84549 
  435500    284.01408   -3776.0126   -3289.2222   -3776.0126            0    7151.3501    17.100229    20.141811    20.862239    7185.5722     6797.662    7654.8436    7001.5446    -683.1232   -97.326043   -848.84092 
  436000    305.17505    -3762.336   -3239.2764    -3762.336            0    9182.8803    17.034951    20.064923    20.782601    7103.5966     7970.331    9048.3379    10529.972    1004.3784   -872.20233   -496.76789 
  436500     297.0778   -3720.5616   -3211.3804   -3720.5616            0    9416.9807    17.014937    20.041348    20.758183    7078.5873    6785.9104    10334.101    11130.931    878.12855    367.64265   -759.67272 
  437000    317.01175   -3743.7687   -3200.4215   -3743.7687            0    8362.5249    16.978619     19.99857    20.713875    7033.3569    6289.9842    11344.094    7453.4962    1296.3779     519.3209   -1046.2924 
  437500    305.29636   -3754.6591   -3231.3916   -3754.6591            0    8526.7527    17.080908    20.119054    20.838668    7161.2438    9354.6818    8100.9016    8124.6749    147.05988    -1361.331    389.86231 
  438000    299.87789   -3766.3722   -3252.3917   -3766.3722            0    7564.1755    17.104451    20.146784     20.86739    7190.8957     7751.986     6066.485    8874.0554    1024.1663   -159.54648    657.37865 
  438500    298.09981   -3749.2647   -3238.3318   -3749.2647            0    8821.8083     17.05726    20.091199    20.809817    7131.5409    10656.562    6885.6043    8923.2584    -1907.212   -383.70708   -1840.5034 
  439000    310.73054   -3709.9451   -3177.3636   -3709.9451            0     8918.633    17.063382     20.09841    20.817286    7139.2224    9183.5234    7728.3106     9844.065   -235.59628   -468.58675    66.485046 
  439500    302.88018   -3730.4559   -3211.3297   -3730.4559            0    8446.9888    17.105335    20.147825    20.868469    7192.0112     9657.019    9328.7582    6355.1893   -301.17586    1045.4646    995.95742 
  440000    287.08717   -3713.7234   -3221.6659   -3713.7234            0    7694.5822    17.071714    20.108224    20.827451    7149.6857    8695.3383    6596.8069    7791.6013   -721.57723    1446.8863    143.90154 
  440500    298.51381   -3766.3927   -3254.7502   -3766.3927            0    10025.407    16.959146    19.975634    20.690119    7009.1854     10389.79      8259.34    11427.092   -607.52066   -383.82112    1827.1308 
  441000    276.43583   -3767.8887   -3294.0871   -3767.8887            0    8194.9844    17.090445    20.130287    20.850304    7173.2463     8252.567    8740.2525    7592.1337    539.26103    -680.5778    296.78355 
  441500    295.93185   -3765.1477   -3257.9306   -3765.1477            0    8119.2566    17.059248     20.09354    20.812242    7134.0346    9115.4382    9074.0111    6168.3204   -172.87052    72.571393    56.253594 
  442000    302.74188    -3750.955   -3232.0658    -3750.955            0    9650.0291    17.026883     20.05542    20.772758    7093.5081    11469.546    8730.9305    8749.6109    309.87601    751.49211   -384.00813 
  442500    289.64875   -3704.1297   -3207.6816   -3704.1297            0    8544.8508    17.033856    20.063632    20.781264    7102.2261     9710.258    7381.2605     8543.034   -83.284754    746.85045   -507.43059 
  443000     286.3623   -3712.4029   -3221.5877   -3712.4029            0    9595.4796     17.06655    20.102142    20.821151    7143.1998    9722.0603    10038.976    9025.4026    1125.0819   -652.41383   -1127.2625 
  443500    300.45047   -3735.3819   -3220.4201   -3735.3819            0    8959.5482    17.013753    20.039954    20.756739    7077.1102     8936.052    7635.5202    10307.072    1584.6555   -242.77576   -193.77668 
  444000    291.27604   -3743.9251   -3244.6879   -3743.9251            0    8429.1474    17.031579     20.06095    20.778487    7099.3785    7116.0868    8330.8206    9840.5348    3249.8677    118.43066   -302.00716 
  444500    282.47058   -3755.7543   -3271.6094   -3755.7543            0    9275.6351    16.977148    19.996838    20.712081    7031.5295    11016.246    9948.6405    6862.0185    19.556391   -625.21754   -479.38541 
  445000    290.59861   -3724.7648   -3226.6887   -3724.7648            0    10658.115    16.957644    19.973865    20.688287    7007.3235    13622.873    9884.0944    8467.3779   -827.61847   -280.11929   -354.70842 
  445500     310.3796   -3687.0917   -3155.1117   -3687.0917            0    9604.7845    17.010392    20.035995    20.752638    7072.9168     10287.27    7730.0126    10797.071    576.37175    1667.8719    512.50249 
  446000    292.25496   -3683.2691   -3182.3541   -3683.2691            0    7258.4547    17.056457    20.090254    20.808838    7130.5343    7527.7206    8698.5899    5549.0536   -1114.9505   -2011.3007   -1188.8144 
  446500     307.5782   -3722.4116   -3195.2331   -3722.4116            0    8947.2932    17.012616    20.038615    20.755352     7075.692    8702.5583    9079.6391    9059.6821   -205.36312   -555.05536    114.96015 
  447000     287.4409     -3684.89   -3192.2261     -3684.89            0    7002.3881    17.097206     20.13825    20.858551    7181.7617    7164.1241    7455.5865    6387.4538    874.14137    395.23613   -41.287838 
  447500    299.52484   -3693.9355   -3180.5602   -3693.9355            0    9734.3251    17.013359     20.03949    20.756259    7076.6192    10186.213    8785.4067    10231.356    324.52046   -790.99283    715.16231 
  448000    311.37795   -3737.2534   -3203.5623   -3737.2534            0    10174.196     16.99739     20.02068    20.736776    7056.7108    10601.899    9060.4879    10860.202    1219.9924   -687.40228   -160.91438 
  448500    296.21899   -3767.1439   -3259.4347   -3767.1439            0    9111.0463    17.043571    20.075076    20.793117    7114.3853     10407.46    9373.6206     7552.058   -841.63417   -1453.4804   -869.33402 
  449000    295.57609   -3729.3623    -3222.755   -3729.3623            0    7965.7446    17.088437    20.127922    20.847854    7170.7181    5177.4941    8921.9996    9797.7401   -1488.0544    -509.0787    653.64843 
  449500    293.81939   -3700.4942   -3196.8978   -3700.4942            0    8473.2675    17.051243    20.084112    20.802477    7123.9971    7713.7459    9960.4217    7745.6351    1449.3383     1548.826    693.94229 
  450000    295.20696   -3752.3704   -3246.3957   -3752.3704            0    8994.9099    17.019938    20.047238    20.764284    7084.8307    10801.031    7974.7452    8208.9539   -1873.0218    211.08183    1199.3473 
  450500    299.80769   -3731.7742   -3217.9141   -3731.7742            0    8830.3951     16.98788    20.009478    20.725174    7044.8722    8117.2109    9704.2822     8669.692   -654.89382   -822.58236     2011.504 
  451000    287.22542   -3728.7208   -3236.4263   -3728.7208            0    10460.537    16.990297    20.012326    20.728123    7047.8802    9697.7745      9913.73    11770.107    369.22816   -840.59934   -1380.0942 
  451500    303.42667   -3727.5215   -3207.4586   -3727.5215            0    8837.5316    17.027853    20.056562    20.773941      7094.72    11349.087    9096.4651    6067.0425   -462.97059    649.27421    396.27484 
  452000    284.06128   -3718.3212   -3231.4499   -3718.3212            0    9018.6471    17.006766    20.031724    20.748215    7068.3947    9348.5337    9054.6089    8652.7988   -969.24268    1422.2745   -299.73024 
  452500    297.67681   -3740.7906   -3230.5827   -3740.7906            0    9327.3835    17.049089    20.081574    20.799848     7121.297    8694.2671    9897.9781    9389.9054    1925.3901    867.49872   -2589.3987 
  453000    295.21655   -3766.0987   -3260.1076   -3766.0987            0    7826.1923    17.011638    20.037462    20.754158    7074.4709    7974.3693    8151.0116    7353.1959   -286.13363     883.1642      453.588 
  453500    296.90217   -3700.1377   -3191.2575   -3700.1377            0    8659.6409    17.058185    20.092288    20.810945     7132.701    8767.7152    8737.2547    8473.9527   -986.98182    992.11345   -2047.6913 
  454000    313.31512   -3666.3808   -3129.3694   -3666.3808            0    10556.936    17.022097    20.049782    20.766919     7087.528    11766.292    10075.031    9829.4842    358.89805   -108.54866   -1623.6377 
  454500    294.42213   -3701.8685   -3197.2391   -3701.8685            0    9251.4054    17.009142    20.034522    20.751113    7071.3577    10228.211    8354.1486     9171.857   -57.752925   -147.51903    -1143.971 
  455000    315.01903   -3746.9025   -3206.9706   -3746.9025            0    10156.249    17.050147    20.082821    20.801139    7122.6229    11494.803    9471.3484    9502.5946   -386.36783    1557.4316   -203.23846 
  455500    280.90708   -3737.4797   -3256.0145   -3737.4797            0    10640.306     17.03584    20.065969    20.783685    7104.7082    9340.7742    12176.434    10403.709    217.92408   -48.450358    1080.6622 
  456000    304.64333   -3740.5455   -3218.3973   -3740.5455            0    7573.6307    17.052828    20.085979    20.804411    7125.9839     6931.575     9313.328    6475.9891    594.90986    192.47955   -1083.2759 
  456500    287.61391   -3733.6453   -3240.6849   -3733.6453            0    9907.6204    17.007822    20.032968    20.749504    7069.7121    7897.4668    12090.227    9735.1677   -394.64532    134.51887   -601.07995 
  457000    316.61242   -3787.3772   -3244.7143   -3787.3772            0    9803.3329    16.994111    20.016818    20.732776    7052.6278    8068.8517     11102.25    10238.897   -1039.6162   -782.96825    755.42907 
  457500    301.62358   -3746.3102   -3229.3377   -3746.3102            0    7663.0077    17.049244    20.081758    20.800038    7121.4919    8515.8806    9075.6887    5397.4538    297.96143    714.34944     281.0227 
  458000    302.91296   -3747.1801   -3227.9976   -3747.1801            0    10247.848    16.973189    19.992175    20.707252    7026.6119    9631.1457    10463.175    10649.224    338.04303   -808.50569    1665.3643 
  458500    301.99871   -3723.3332   -3205.7178   -3723.3332            0    10354.005    16.933512    19.945441    20.658845    6977.4499    10597.713     11147.62    9316.6816   -846.47894   -1601.7585    -2195.543 
  459000    284.63987   -3735.0205   -3247.1575   -3735.0205            0    9672.1625     16.96659    19.984402      20.6992    7018.4185      7822.72    11746.502    9447.2653    267.60223   -2145.0032   -106.15907 
  459500    295.63622   -3787.3713    -3280.661   -3787.3713            0    9588.0411    17.020977    20.048463    20.765552     7086.129     9630.527    10128.926    9004.6704   -1207.3236    712.52154   -502.97107 
  460000     315.9091   -3701.3992   -3159.9418   -3701.3992            0    8282.2117    17.105083    20.147529    20.868162    7191.6935    8715.5039    10343.662    5787.4691    75.113812    975.45115    225.24983 
  460500    289.90468   -3688.5111   -3191.6243   -3688.5111            0    8789.2709    17.067792    20.103604    20.822666    7144.7594    9913.4789    7514.5705    8939.7633    637.22588    207.04786    109.64527 
  461000    299.93073   -3704.9238   -3190.8528   -3704.9238            0    8986.2345    17.005065    20.029721     20.74614    7066.2744    9691.8768    7629.2405    9637.5861    148.27491    1178.1913    394.96095 
  461500    299.69845   -3724.0966   -3210.4237   -3724.0966            0    10843.768    16.999287    20.022914     20.73909     7059.073    10348.638    11349.626     10833.04    143.89065   -228.35122   -304.65234 
  462000    301.01924   -3704.3341   -3188.3974   -3704.3341            0    8252.6755    17.108617    20.151691    20.872473    7196.1517    8616.2138    8530.3855    7611.4271    596.57761    368.24197   -498.73192 
  462500    303.02743   -3709.4141   -3190.0354   -3709.4141            0    8953.3953    17.060036    20.094469    20.813205    7135.0242    8177.1158    8652.1139    10030.956   -351.10722   -1421.4003    438.22597 
  463000    287.81287   -3750.0027   -3256.7013   -3750.0027            0      9575.65    17.053551    20.086831    20.805292    7126.8902    7599.9947    10851.302    10275.653   -1318.0676    529.31423    435.06736 
  463500    309.77958   -3764.0187   -3233.0671   -3764.0187            0    6056.2893    17.099645    20.141123    20.861527    7184.8365    5128.6608     6509.648    6530.5591   -104.09293     427.6142   -1199.6962 
  464000    305.39394   -3719.5676   -3196.1329   -3719.5676            0    8691.1212    17.030472    20.059647    20.777137    7097.9949    8796.7405    9616.0619    7660.5613    1478.6026    -443.6632     379.9045 
  464500    279.78794    -3776.332    -3296.785    -3776.332            0    10456.627    16.996162    20.019234    20.735278    7055.1817    11107.898    9952.5166    10309.467    2395.8995   -1775.1237   -1306.0502 
  465000    289.39122   -3735.1821   -3239.1754   -3735.1821            0    9860.7098    17.000026    20.023785    20.739992    7059.9939    9517.6367    11018.751    9045.7415    613.48762   -1912.9987   -1968.9744 
  465500    309.87265   -3761.7653   -3230.6542   -3761.7653            0    9110.6607    17.008241    20.033461    20.750014    7070.2339    8753.5101    9185.6734    9392.7985   -1101.0026    994.23224   -751.90637 
  466000    313.15316   -3748.9368    -3212.203   -3748.9368            0    8925.6277     17.04113      20.0722    20.790139    7111.3287     8378.452    9290.3941    9108.0371   -400.82126   -999.10382   -735.20691 
  466500    301.44424   -3753.0785   -3236.4134   -3753.0785            0    9205.9342    17.099844    20.141358     20.86177    7185.0872      9730.93    10082.125    7804.7474   -260.00083    -607.7786    1085.2126 
  467000    302.49409   -3747.3688   -3228.9043   -3747.3688            0    11062.642    17.011203    20.036951    20.753628     7073.929    12030.139    10050.125    11107.661    1306.5858   -945.17811   -534.59556 
  467500    286.65778   -3747.8383   -3256.5166   -3747.8383            0    9127.8844    16.977613    19.997386    20.712648    7032.1071    8440.5807    9340.7624      9602.31    587.34059   -622.28908    1390.9425 
  468000    287.33343   -3738.4378   -3245.9582   -3738.4378            0    6737.5604    17.007119     20.03214    20.748646    7068.8353    5614.8622    7051.8701    7545.9491    1260.2545    196.02253    233.66498 
  468500    299.87974   -3742.6519   -3228.6683   -3742.6519            0    9001.5525     16.98231    20.002918    20.718379    7037.9455    10853.139    7719.1916    8432.3266    264.75694    343.60682   -411.39522 
  469000    295.01597   -3696.9762   -3191.3289   -3696.9762            0     8692.064    16.967272    19.985205    20.700032    7019.2654    10047.479    8353.6079     7675.105    778.44117    364.64875    48.722634 
  469500    300.93745   -3702.5062   -3186.7097   -3702.5062            0    11024.199    16.932636    19.944409    20.657776    6976.3669    9379.1408    11949.727    11743.728     182.1942   -532.01743    929.56592 
  470000    302.43947   -3707.1083   -3188.7374   -3707.1083            0    7291.3362    17.079124    20.116952    20.836491    7158.9999    5695.2328    8630.5576    7548.2181   -960.64709   -931.25567    1183.2965 
  470500    289.19039   -3715.4109   -3219.7485   -3715.4109            0    9324.1211    16.984526    20.005528    20.721082    7040.7003    9464.2007    9057.7555    9450.4069   -52.593159   -1484.9759   -1640.6607 
  471000    327.70993   -3729.2199   -3167.5363   -3729.2199            0    6497.0214    17.120587     20.16579    20.887076    7211.2665    7250.6848    5783.7308    6456.6485   -1265.9015    528.08286    1933.6102 
  471500    311.80295    -3724.871   -3190.4514    -3724.871            0    9955.4954    17.029706    20.058744    20.776201    7097.0363    8804.3663    10159.304    10902.816    39.904153    226.08705   -195.32722 
  472000     306.7897   -3673.6706   -3147.8435   -3673.6706            0    8525.6566    17.074529    20.111539    20.830885    7153.2229    7144.7713    10133.646    8298.5523   -1439.9283    142.03614   -1448.2435 
  472500    301.59332   -3707.4897   -3190.5691   -3707.4897            0    10130.251    17.062655    20.097554      20.8164    7138.3105    11491.235    10227.239    8672.2792   -1264.7859    587.61854     1303.153 
  473000    299.10465   -3709.0867   -3196.4316   -3709.0867            0    7747.9036    17.101622    20.143452    20.863939    7187.3288    7933.6703    8598.2991    6711.7414   -174.40637   -188.67348    1535.9858 
  473500    295.34609   -3741.1181   -3234.9051   -3741.1181            0    5965.3517    17.132134    20.179391    20.901164    7225.8676    4794.6799    6812.9387    6288.4364   -714.80477   -1302.2721    722.40459 
  474000    297.41969   -3745.8926   -3236.1254   -3745.8926            0    9392.1087    17.016786    20.043526    20.760439    7080.8954     12840.89    9167.0585    6168.3778   -1734.2318   -3.5079123   -235.45132 
  474500    300.72666   -3735.6878   -3220.2526   -3735.6878            0    7205.5256    17.109283    20.152475    20.873285    7196.9919    8190.7765    5734.9815    7690.8189   -27.041953   -506.14954   -387.95675 
  475000    303.64553   -3729.8022   -3209.3641   -3729.8022            0     6807.677    17.112164    20.155869      20.8768    7200.6282    6276.0103    8232.0165    5915.0042    -1421.515    519.08378   -214.49765 
  475500    286.38985   -3773.8366   -3282.9742   -3773.8366            0    9210.7365    17.001324    20.025314    20.741576    7061.6118    9484.1641    10268.759    7879.2862    1296.1569   -79.314363    497.48226 
  476000    313.54819   -3758.4551   -3221.0442   -3758.4551            0    7126.0814    17.086419    20.125545    20.845391    7168.1776    8750.3594     7184.794    5443.0908   -464.91176   -982.74365   -904.49882 
  476500    295.94086     -3749.31   -3242.0775     -3749.31            0    10250.225    16.871477    19.872371    20.583162    6901.0452     10328.46    11202.777    9219.4379    1017.9902    51.861157    1159.2428 
  477000    313.43796   -3722.8423   -3185.6204   -3722.8423            0    9836.3716    16.952331    19.967606    20.681804    7000.7381    9169.2726    9128.0349    11211.807    319.42522   -167.03118    3313.4661 
  477500    310.62254   -3703.8169   -3171.4205   -3703.8169            0     8891.587    16.993769    20.016415    20.732359    7052.2017     7097.622    8856.6108    10720.528   -270.39236    858.06221     1134.937 
  478000    287.35357   -3717.4006   -3224.8864   -3717.4006            0    8429.0869    17.011669    20.037499    20.754196    7074.5098    7376.2192    9457.0938    8453.9477   -1346.6684    -226.2133   -1554.4825 
  478500    299.58524   -3711.7044   -3198.2255   -3711.7044            0    10466.031    16.988818    20.010583    20.726318    7046.0394    8735.0608    11383.774    11279.259   -129.53946    1369.0135    400.16233 
  479000    305.00803   -3736.1097   -3213.3364   -3736.1097            0    8193.3852    17.059274    20.093571    20.812274    7134.0671    6844.0652    8908.2441    8827.8462    607.06531   -888.75124   -1118.5468 
  479500    292.56071   -3803.9226   -3302.4836   -3803.9226            0    8851.1941     16.98074    20.001069    20.716463    7035.9936    9900.9098     8403.794    8248.8785   -193.56427    841.78744    461.82833 
  480000    297.12459   -3732.7234    -3223.462   -3732.7234            0     8318.337    17.091057    20.131008     20.85105    7174.0162     9801.609    7136.1148    8017.2872   -627.29666    273.37897    -1081.149 
  480500    287.21474     -3686.83   -3194.5537     -3686.83            0    8237.7024    17.006181    20.031035    20.747501    7067.6656    8736.9323    8885.1941    7090.9808   -1374.0545   -172.83124    314.06033 
  481000    280.47507   -3725.1477    -3244.423   -3725.1477            0    10141.275    17.020115    20.047447      20.7645    7085.0518    9962.4273    10588.473    9872.9238   -1576.9965    2659.9369    857.15736 
  481500    299.67227   -3755.3384   -3241.7103   -3755.3384            0    8310.2253    17.123078    20.168724    20.890116    7214.4149    7099.1645    9797.9455     8033.566    216.14107   -608.49638   -184.29989 
  482000    287.81948   -3751.1225   -3257.8098   -3751.1225            0    9356.3556    17.041453    20.072581    20.790533    7111.7337    10753.858    7246.8925    10068.316   -511.42329    793.40381   -326.56833 
  482500    306.63613   -3712.6446   -3187.0808   -3712.6446            0    9097.0424    17.072713    20.109401     20.82867    7150.9414    10641.607    9046.3755    7603.1441    2022.6634     1639.813   -956.53179 
  483000    277.98159   -3736.0468   -3259.5959   -3736.0468            0    10047.148    17.064736    20.100005    20.818938    7140.9219    10675.822    10774.625    8690.9962   -1525.5759    405.71001    924.88193 
  483500    307.94954   -3721.0453   -3193.2303   -3721.0453            0    9679.1683    17.037349    20.067746    20.785525    7106.5958    10827.864     9823.495    8386.1458    546.17051    1999.5402   -518.12965 
  484000     301.0958     -3734.07   -3218.0021     -3734.07            0    11053.823    16.960024    19.976668     20.69119    7010.2742    11124.032    11582.433    10455.005   -642.91678   -1480.9661   -541.41186 
  484500    291.23327   -3708.0487   -3208.8848   -3708.0487            0    9714.9546    17.076678    20.114071    20.833507    7155.9241    11591.848    9277.2129    8275.8034    238.36541    577.21374    966.47618 
  485000    298.54223   -3714.8532   -3203.1621   -3714.8532            0     8951.209    17.071717    20.108228    20.827455    7149.6904    8830.3387    7908.2559    10115.033     278.8238   -159.42985    687.35527 
  485500    302.55215    -3715.397   -3196.8329    -3715.397            0    11332.232    16.985269    20.006404    20.721989    7041.6252    12670.583    11331.108    9995.0048    443.58198    666.40989    376.06499 
  486000    315.72421   -3780.0768   -3238.9363   -3780.0768            0    7658.0018    17.062525      20.0974     20.81624    7138.1466    8953.9217    6938.8606    7081.2231    719.52582    1761.3079    349.54226 
  486500    301.77157   -3764.2284   -3247.0023   -3764.2284            0    9340.9356    17.030689    20.059902    20.777401    7098.2655    10460.792    8550.6122    9011.4023    334.05476   -311.35267   -51.187762 
  487000     295.2764    -3716.356   -3210.2623    -3716.356            0    6430.9134    17.171769    20.226076    20.949519    7276.1348    6914.1196    5887.0914    6491.5291    1229.3713     2542.605    343.28182 
  487500    308.90949   -3736.1378   -3206.6775   -3736.1378            0    10518.111    16.956298    19.972279    20.686644     7005.654     10020.12    9090.9255    12443.289    1075.1176    -537.9777     864.0493 
  488000     320.4945   -3740.0777   -3190.7611   -3740.0777            0    9012.0806    17.091618    20.131669    20.851734    7174.7231    8478.6477    9813.5973    8743.9968   -277.88843    378.48611   -455.61819 
  488500    295.18268    -3697.877    -3191.944    -3697.877            0    9351.4617    17.013834    20.040049    20.756838    7077.2115    9099.5789    9392.5466    9562.2595    1765.3326    403.66746    -1337.409 
  489000    290.94612   -3752.9447    -3254.273   -3752.9447            0    9993.3046     17.00342    20.027783    20.744133    7064.2235     10230.33    9590.3681    10159.216   -1453.1269    816.05981   -1920.5512 
  489500    303.66613   -3711.9303   -3191.4569   -3711.9303            0    8212.8292    17.018667    20.045742    20.762734    7083.2443    8499.7221    7648.5098    8490.2558    444.30896   -569.34866    257.55867 
  490000    306.14222   -3712.8394   -3188.1222   -3712.8394            0    8466.6724    16.992848     20.01533    20.731234    7051.0545    8417.4446    8347.5895    8634.9831    492.45469    759.74546    493.92801 
  490500    300.51925     -3735.21   -3220.1303     -3735.21            0    7386.4387    17.057848    20.091891    20.810534    7132.2783     6666.363    6026.2035    9466.7496    999.10539   -1965.4942     450.2506 
  491000    304.55655   -3719.2144   -3197.2149   -3719.2144            0     8907.167    17.035261    20.065287    20.782979    7103.9839    7508.9792    10716.757    8495.7645   -380.57622    1220.7616    657.02529 
  491500    307.48713   -3718.0437   -3191.0213   -3718.0437            0    11067.893    16.978777    19.998757    20.714068    7033.5536    10864.844     12117.41    10221.426    -429.3562   -60.812013     13.62438 
  492000    311.92584   -3673.0141   -3138.3839   -3673.0141            0    8968.7469    16.994703    20.017515    20.733498    7053.3646    7731.7551    9112.8274    10061.658    531.56184   -1365.8802    693.70608 
  492500    287.65906   -3731.0131   -3237.9753   -3731.0131            0    8347.6341    16.999474    20.023135    20.739319    7059.3069    8159.0623    9120.0185    7763.8214    890.93171    988.37222    164.85962 
  493000    287.95313   -3729.3297   -3235.7878   -3729.3297            0    7721.8281    17.063401    20.098433     20.81731    7139.2468    7523.4207    4407.2192    11234.844    1383.8381     1991.621   -1358.3099 
  493500    295.02626   -3756.6482   -3250.9833   -3756.6482            0    9633.7722    17.041907    20.073116    20.791087    7112.3019    10251.718    9414.6206     9234.978    973.97977    841.73077   -778.62779 
  494000    320.95667   -3721.4136   -3171.3049   -3721.4136            0    11717.797     16.93442     19.94651    20.659953    6978.5724    10340.677     13570.58    11242.132    359.30523    197.37993    2022.6831 
  494500    307.79755    -3717.076   -3189.5215    -3717.076            0    8400.0413    17.044282    20.075912    20.793984     7115.275    6654.4881    10086.513     8459.123    1078.3753    218.26961   -1496.0069 
  495000    308.36101   -3712.3112    -3183.791   -3712.3112            0    9549.7989    16.966533    19.984334     20.69913    7018.3479    8065.3622    9277.4902    11306.545    311.57566   -1489.1909   -1161.0857 
  495500    281.40668   -3734.7504   -3252.4289   -3734.7504            0    8063.2995    17.032798    20.062386    20.779973    7100.9025    8077.5394    8248.0498    7864.3091   -242.56157    1155.9998    1547.8494 
  496000    325.06409   -3738.8312   -3181.6824   -3738.8312            0    8487.5666    17.029413    20.058399    20.775844    7096.6698    7912.9177     8080.301    9469.4811   -870.15644   -441.22687    1478.5243 
  496500    315.66325   -3739.4511   -3198.4151   -3739.4511            0    7796.7458    17.027143    20.055725    20.773075    7093.8326    7299.4809     8383.446    7707.3105   -138.40485    1079.7024    -18.76402 
  497000    285.27138    -3721.064   -3232.1186    -3721.064            0    9372.7848    17.003428    20.027792    20.744142     7064.233    9506.6587    10772.112    7839.5832    10.844111   -524.72465   -290.62655 
  497500    286.88318   -3720.5348   -3228.8269   -3720.5348            0    9306.8935    17.047192     20.07934    20.797534      7118.92    9987.1215    8389.7947    9543.7644   -595.14287    475.29391   -453.68274 
  498000    311.38677   -3765.8638   -3232.1575   -3765.8638            0    10406.411    17.023479     20.05141    20.768605    7089.2544    9422.8564    10317.029    11479.347    218.09287    850.03582   -335.78962 
  498500    302.07393   -3746.6957   -3228.9513   -3746.6957            0    9771.3592    17.032013    20.061461    20.779016    7099.9207    10836.423    7782.3476    10695.307    254.51009    1036.0677     1248.368 
  499000    304.22495   -3765.6837   -3244.2525   -3765.6837            0     9207.884    17.016122    20.042744    20.759629    7080.0669    10235.163    8460.3161    8928.1725   -747.81198   -245.71228   -842.26799 
  499500    310.33111   -3736.2379    -3204.341   -3736.2379            0    9175.8097    16.978933     19.99894    20.714259    7033.7475    7839.7067    9072.0337    10615.689    596.24811    207.56047    -2836.721 
  500000    308.15067     -3750.13   -3221.9703     -3750.13            0    9127.4386    16.928166    19.939143    20.652323    6970.8432    10294.249    7872.8123    9215.2548    592.60203    513.97586   -1232.9713 
Loop time of 2046.79 on 32 procs for 500000 steps with 864 atoms

Performance: 42.212 ns/day, 0.569 hours/ns, 244.285 timesteps/s
3155.4% CPU use with 1 MPI tasks x 32 OpenMP threads

MPI task timing breakdown:
Section |  min time  |  avg time  |  max time  |%varavg| %total
---------------------------------------------------------------
Pair    | 226.02     | 226.02     | 226.02     |   0.0 | 11.04
Bond    | 28.027     | 28.027     | 28.027     |   0.0 |  1.37
Kspace  | 1320.1     | 1320.1     | 1320.1     |   0.0 | 64.50
Neigh   | 26.246     | 26.246     | 26.246     |   0.0 |  1.28
Comm    | 136.6      | 136.6      | 136.6      |   0.0 |  6.67
Output  | 3.0135     | 3.0135     | 3.0135     |   0.0 |  0.15
Modify  | 303.37     | 303.37     | 303.37     |   0.0 | 14.82
Other   |            | 3.396      |            |       |  0.17

Nlocal:        864.000 ave         864 max         864 min
Histogram: 1 0 0 0 0 0 0 0 0 0
Nghost:        7525.00 ave        7525 max        7525 min
Histogram: 1 0 0 0 0 0 0 0 0 0
Neighs:        282960.0 ave      282960 max      282960 min
Histogram: 1 0 0 0 0 0 0 0 0 0

Total # of neighbors = 282960
Ave neighs/atom = 327.50000
Ave special neighs/atom = 2.0000000
Neighbor list builds = 35438
Dangerous builds = 11

unfix		3
unfix		2
unfix		1

write_data	data.final.${pid}
write_data	data.final.0
System init for write_data ...
PPPM initialization ...
  extracting TIP4P info from pair style
  using 12-bit tables for long-range coulomb (../kspace.cpp:340)
  G vector (1/distance) = 0.37448926
  grid = 24 24 24
  stencil order = 5
  estimated absolute RMS force accuracy = 0.0031351249
  estimated relative force accuracy = 9.4413355e-06
  using single precision MKL FFT
  3d grid and FFT values/proc = 31713 13824
  generated 0 of 1 mixed pair_coeff terms from geometric mixing rule
Last active /omp style is kspace_style pppm/tip4p/omp
WARNING: Not all mixed pair coeffs generated from mixing. Use write_data with 'pair ij' option to store all pair coeffs. (../write_data.cpp:309)

write_restart   restart.lmp.${pid}
write_restart   restart.lmp.0
System init for write_restart ...
PPPM initialization ...
  extracting TIP4P info from pair style
  using 12-bit tables for long-range coulomb (../kspace.cpp:340)
  G vector (1/distance) = 0.37448926
  grid = 24 24 24
  stencil order = 5
  estimated absolute RMS force accuracy = 0.0031351249
  estimated relative force accuracy = 9.4413355e-06
  using single precision MKL FFT
  3d grid and FFT values/proc = 31713 13824
  generated 0 of 1 mixed pair_coeff terms from geometric mixing rule
Last active /omp style is kspace_style pppm/tip4p/omp
Total wall time: 0:34:07
