LAMMPS (30 Jul 2021)
  using 1 OpenMP thread(s) per MPI task
package omp 0
using multi-threaded neighbor list subroutines
echo both

include		in.partitions
variable        pid world 0
include		in.temp
variable        temperature equal 263.26
variable	tempDamp equal 100.0
include		in.pressure
variable        pressure equal 6625.0
variable        pressureDamp equal 1000.0 # This is 1 ps
include		in.seed
variable        seed world 745823

units		real
atom_style	full
read_restart	restart.lmp.${pid}
read_restart	restart.lmp.0
Reading restart file ...
  restart file = 30 Jul 2021, LAMMPS = 30 Jul 2021
  restoring atom style full from restart
  orthogonal box = (0.50241646 1.6833115 0.61294691) to (17.705156 21.945866 21.600249)
  4 by 4 by 4 MPI processor grid
  restoring pair style lj/cut/tip4p/long/omp from restart
  restoring bond style harmonic/omp from restart
  restoring angle style harmonic/omp from restart
  864 atoms
  576 bonds
  288 angles
Finding 1-2 1-3 1-4 neighbors ...
  special bond factors lj:    0        0        0       
  special bond factors coul:  0        0        0       
     2 = max # of 1-2 neighbors
     1 = max # of 1-3 neighbors
     1 = max # of 1-4 neighbors
     2 = max # of special neighbors
  special bonds CPU = 2.142 seconds
  read_restart CPU = 2.511 seconds
include 	in.setup
variable	out_freq equal 1000
variable	out_freq2 equal 10000
variable	out_freq3 equal 1000

timestep	2.0

neigh_modify    delay 7 every 1

include		in.tip4p
# This is TIP4P/Ice

# create groups ###
group ox type 2
288 atoms in group ox
group hy type 1
576 atoms in group hy

# set charges - beside manually ###
set group ox charge -1.1794
Setting atom values ...
  288 settings made for charge
set group hy charge 0.5897
Setting atom values ...
  576 settings made for charge

# ### TIP3P Potential Parameters ###
pair_style lj/cut/tip4p/long/omp 2 1 1 1 0.1577 8.5
pair_coeff 1 1*2 0.000 0.000
pair_coeff 2 2 0.21084 3.1668
bond_style  harmonic
bond_coeff  1 450 0.9572
angle_style harmonic
angle_coeff 1 55 104.52
kspace_style pppm/tip4p/omp 1.0e-5
pair_modify tail yes

thermo          ${out_freq}
thermo          1000
thermo_style    custom step temp pe etotal epair emol press lx ly lz vol pxx pyy pzz pxy pxz pyz enthalpy

restart 	${out_freq3} restart.lmp.${pid} restart2.lmp.${pid}
restart 	1000 restart.lmp.${pid} restart2.lmp.${pid}
restart 	1000 restart.lmp.0 restart2.lmp.${pid}
restart 	1000 restart.lmp.0 restart2.lmp.0


include         in.dump
dump            myDump all atom ${out_freq2} dump.water.${pid}
dump            myDump all atom 10000 dump.water.${pid}
dump            myDump all atom 10000 dump.water.0
dump            myDump2 all dcd ${out_freq2} dump.dcd
dump            myDump2 all dcd 10000 dump.dcd
dump_modify     myDump append yes
dump_modify     myDump2 append yes


variable natoms 	equal  "count(all)"                        # NUMBER ATOMS
variable H      	equal  "enthalpy/v_natoms"                 # ENTHALPY-per-atom
variable Vol      	equal  "vol/v_natoms"                 # volume-per-atom
fix AVG all 		ave/time ${out_freq} 1 ${out_freq} v_Vol v_H file vol_enthalpy.dat
fix AVG all 		ave/time 1000 1 ${out_freq} v_Vol v_H file vol_enthalpy.dat
fix AVG all 		ave/time 1000 1 1000 v_Vol v_H file vol_enthalpy.dat


timer           timeout 23:50:00 every 1000
New timer settings: style=normal  mode=nosync  timeout=23:50:00

fix 		1 all shake 1e-6 200 0 b 1 a 1
       0 = # of size 2 clusters
       0 = # of size 3 clusters
       0 = # of size 4 clusters
     288 = # of frozen angles
  find clusters CPU = 0.724 seconds
fix             2 all nph iso ${pressure} ${pressure} ${pressureDamp}
fix             2 all nph iso 6625 ${pressure} ${pressureDamp}
fix             2 all nph iso 6625 6625 ${pressureDamp}
fix             2 all nph iso 6625 6625 1000
fix             3 all temp/csvr ${temperature} ${temperature} ${tempDamp} ${seed}
fix             3 all temp/csvr 263.26 ${temperature} ${tempDamp} ${seed}
fix             3 all temp/csvr 263.26 263.26 ${tempDamp} ${seed}
fix             3 all temp/csvr 263.26 263.26 100 ${seed}
fix             3 all temp/csvr 263.26 263.26 100 745823

run             250000
PPPM initialization ...
  extracting TIP4P info from pair style
  using 12-bit tables for long-range coulomb (../kspace.cpp:340)
  G vector (1/distance) = 0.37472288
  grid = 24 24 25
  stencil order = 5
  estimated absolute RMS force accuracy = 0.0030211158
  estimated relative force accuracy = 9.0980006e-06
  using double precision FFTW3
  3d grid and FFT values/proc = 2730 288
Last active /omp style is kspace_style pppm/tip4p/omp
Neighbor list info ...
  update every 1 steps, delay 7 steps, check yes
  max neighbors/atom: 2000, page size: 100000
  master list distance cutoff = 10.8154
  ghost atom cutoff = 10.8154
  binsize = 5.4077, bins = 4 4 4
  1 neighbor lists, perpetual/occasional/extra = 1 0 0
  (1) pair lj/cut/tip4p/long/omp, perpetual
      attributes: half, newton on, omp
      pair build: half/bin/newton/omp
      stencil: half/bin/3d
      bin: standard
Per MPI rank memory allocation (min/avg/max) = 9.240 | 9.244 | 9.251 Mbytes
Step Temp PotEng TotEng E_pair E_mol Press Lx Ly Lz Volume Pxx Pyy Pzz Pxy Pxz Pyz Enthalpy 
10750000    271.47293   -3816.3332   -3351.0379   -3816.3332            0    4657.8635    17.202739    20.262555    20.987302    7315.5743    3773.6222    4246.3668    5953.6016    174.68927   -1009.8071    1403.3988   -2854.0898 
10751000    261.65873   -3852.5531    -3404.079   -3852.5531            0    4517.3398    17.192657    20.250679    20.975002    7302.7191    5032.9126    5148.2884    3370.8184   -365.63756    280.60123     1215.428   -2922.9703 
10752000    272.22038   -3881.3166   -3414.7402   -3881.3166            0    4861.5812    17.165298    20.218454    20.941624     7267.912    4198.8316     5167.513    5218.3991   -470.24119   -207.33889   -55.922314   -2899.4367 
10753000    257.19892   -3868.9454   -3428.1153   -3868.9454            0    5629.1706    17.189608    20.247087    20.971281    7298.8341     6957.011    5576.1341    4354.3666    1322.9483   -627.38534    661.89741   -2828.9125 
10754000    251.13544   -3887.4722   -3457.0346   -3887.4722            0    5878.7476    17.122671    20.168244    20.889618    7213.8996    5980.6605    5283.8605    6371.7218    1060.5842   -1549.7908    -67.13955   -2838.5473 
10755000     267.6261    -3839.738   -3381.0361    -3839.738            0     5966.879    17.138956    20.187426    20.909486    7234.5027    6696.2038    5151.3369    6053.0965    323.50501    -1694.287    148.25093   -2751.4838 
10756000    264.37158   -3840.9131   -3387.7892   -3840.9131            0    6864.2199     17.07801     20.11564    20.835132    7157.5992     7247.254    8003.9584    5341.4472     -145.903   -349.44635   -922.04025   -2671.2591 
10757000     260.1797    -3835.975   -3390.0359    -3835.975            0    8342.8133    17.064771    20.100046    20.818981    7140.9666    10450.233    7367.9025    7210.3041   -656.37369    378.03748    1996.1924   -2521.1846 
10758000    275.45808    -3875.439   -3403.3133    -3875.439            0    4916.7113    17.167775    20.221371    20.944645    7271.0584    3008.8022    5262.4093    6478.9223     1287.681   -357.27259     661.3076   -2881.9406 
10759000    274.91512   -3855.5931    -3384.398   -3855.5931            0    7254.8673    17.129569     20.17637    20.898034    7222.6221    6507.9501    7899.0962    7357.5555    1220.9411   -1260.4553   -291.23104     -2620.21 
10760000    276.90163   -3879.6146   -3405.0147   -3879.6146            0    7971.3956    17.075871     20.11312    20.832522    7154.9097    8853.4448    8989.6325    6071.1096   -513.29284   -828.10927    48.324539   -2573.2233 
10761000    269.46353   -3863.2074   -3401.3561   -3863.2074            0    6862.6783    17.118441    20.163262    20.884458    7208.5552    6314.7715    6686.9472    7586.3162    278.95678    1116.7611    -1067.452   -2679.8869 
10762000    292.08513   -3852.2324   -3351.6085   -3852.2324            0    5577.5849     17.08957    20.129256    20.849236    7172.1443    7756.2834    4018.8008    4957.6705   -1860.3938   -1239.1194   -4.4020001   -2768.2023 
10763000    264.79617    -3843.436   -3389.5845    -3843.436            0    7141.4383    17.075681    20.112897    20.832291    7154.6713    7302.3099    6880.6152    7241.3898    1462.1438   -209.32165    252.60989   -2644.4215 
10764000    250.30161   -3863.4713   -3434.4629   -3863.4713            0    5751.6498     17.13245    20.179763    20.901549    7226.2674    5995.8258    5195.2852    6063.8384   -1078.7607   -1815.4832    -1485.395   -2828.3098 
10765000    263.72059   -3877.3023   -3425.2943   -3877.3023            0    6713.6769    17.145964     20.19568    20.918036    7243.3803    5741.5512    7572.7825     6826.697   -202.63134   -2292.0548    696.63585   -2716.0797 
10766000    250.68636   -3833.7928    -3404.125   -3833.7928            0    7171.6564    17.118192    20.162969    20.884154    7208.2403     6744.106    7499.9312    7270.9319   -587.69811    145.84424    -304.3636   -2650.2061 
10767000    274.88967   -3856.6873   -3385.5358   -3856.6873            0    8077.6036    17.118726    20.163598    20.884806     7208.915    8050.0542    10139.843    6042.9132    177.19791   -874.53766   -301.19258      -2536.3 
10768000    256.01712   -3867.9585   -3429.1539   -3867.9585            0    5464.1737    17.111292    20.154842    20.875737    7199.5278    4342.9294    6319.8985     5729.693    -630.7245    287.01447   -124.39521   -2855.4281 
10769000    266.07661   -3846.6165   -3390.5703   -3846.6165            0    6370.5924    17.091471    20.131496    20.851555     7174.538    7702.2053    7152.4463    4257.1256   -1462.1369    -42.67126    182.19412   -2723.9944 
10770000    254.88154   -3849.7905   -3412.9323   -3849.7905            0    6186.4769    17.075015    20.112113    20.831479    7153.8348    3584.8176    7911.4527    7063.1604   -1814.0229    698.03056   -114.67663   -2767.4889 
10771000    260.94038   -3858.9132   -3411.6703   -3858.9132            0    5584.4678    17.106407    20.149088    20.869777    7193.3633    5277.2925    4208.7672    7267.3438    433.29948   -188.88627    419.45341   -2825.8159 
10772000    277.91813   -3870.5689   -3394.2267   -3870.5689            0    6255.6398    17.086697    20.125872    20.845731    7168.5276    6376.1434    6213.8438    6176.9323   -644.55687    2406.5202   -526.95404    -2740.227 
10773000    271.31973   -3896.1498   -3431.1171   -3896.1498            0    8380.4228    17.040283    20.071202    20.789105    7110.2682    10546.288    5707.0684     8887.912     910.7069    121.07112    133.94287   -2562.1011 
10774000    274.52157   -3825.0752   -3354.5546   -3825.0752            0    6979.5998     17.16075    20.213097    20.936075    7262.1364    8161.7543    5015.2481    7761.7971    1852.7912    1065.0915    -499.7981   -2615.3395 
10775000    267.19031   -3832.7669   -3374.8118   -3832.7669            0     8010.448    17.030131    20.059245     20.77672    7097.5679    6908.1145    7750.6173    9372.6122    413.05528   -507.57677   -625.76612   -2545.6444 
10776000    272.04225   -3834.8831    -3368.612   -3834.8831            0    7986.9704    17.067361    20.103097    20.822141    7144.2183    5540.3913    11004.308    7416.2115    734.86343    160.64996     544.8198   -2536.4408 
10777000    263.74648   -3823.5799   -3371.5274   -3823.5799            0    7633.2214    17.070659    20.106981    20.826164    7148.3602    7113.8105    7528.4216    8257.4321   -2054.1227    1763.8126   -852.64023   -2575.7526 
10778000    257.24473   -3843.2637    -3402.355   -3843.2637            0    8033.3463    17.126302    20.172522    20.894049    7218.4909    8640.3701    7888.7716    7570.8973   -933.03407    555.30067   -34.529683   -2556.6503 
10779000    255.39614   -3870.7024   -3432.9621   -3870.7024            0     5588.558    17.136965    20.185082    20.907058    7231.9823    4802.2163    5709.0285    6254.4291    160.21053   -404.40228   -346.69294   -2843.5311 
10780000    272.15297   -3838.8494   -3372.3885   -3838.8494            0    6739.6589    17.105319    20.147807     20.86845    7191.9913    6703.0486    5944.9504    7570.9777    210.33906   -2.4586314   -485.34034   -2665.4804 
10781000    278.83635    -3834.636   -3356.7201    -3834.636            0    5476.4169    17.168357    20.222057    20.945355    7271.7975    3327.1362     5729.336    7372.7784   -181.26818    996.20534    350.30398   -2775.9367 
10782000    267.04245   -3846.7931   -3389.0915   -3846.7931            0     5506.153    17.164357    20.217345    20.940475     7266.716    5898.7613    5089.6748     5530.023    666.47073   -385.18689   -148.14181   -2805.5626 
10783000    267.98805   -3863.8916   -3404.5693   -3863.8916            0    8615.0952    17.115417      20.1597    20.880768     7204.735     10047.05    7311.0314    8487.2044   -74.807951   -988.41758    927.73538   -2499.3496 
10784000    259.71793   -3904.3669   -3459.2192   -3904.3669            0    7002.0047    17.144496    20.193952    20.916246    7241.5209    5524.5311    8421.9042    7059.5787    91.109438    73.684397    358.50493   -2719.7364 
10785000    260.09873   -3920.6187   -3474.8183   -3920.6187            0    6738.5252     17.15992     20.21212    20.935063     7261.083    4337.6842     9166.627    6711.2644   -626.93543    1303.2864    1430.5131   -2761.2392 
10786000    260.40663    -3913.657    -3467.329    -3913.657            0    4690.4112    17.209843    20.270922    20.995969    7324.6408    3678.1024    5918.3569    4474.7743    -830.4035   -8.7664944   -140.14182   -2966.2881 
10787000    266.26506   -3875.4117   -3419.0425   -3875.4117            0    5469.8621    17.179481    20.235159    20.958926    7285.9414    5320.6726    6579.0288     4509.885    655.93096    139.29367    342.30569    -2837.826 
10788000    262.02055   -3840.4566   -3391.3624   -3840.4566            0     5974.491    17.120033    20.165137      20.8864    7210.5663    6656.3427    5547.0233    5720.1071    1075.1192    1019.0161    1810.7077   -2763.0926 
10789000    270.58021   -3849.9048   -3386.1396   -3849.9048            0    5543.9911    17.130902     20.17794     20.89966    7224.3083    5317.4427    3992.5801    7321.9506   -319.76409    224.99376   -799.49811   -2802.0296 
10790000    256.76805   -3837.1637    -3397.072   -3837.1637            0    6650.6065    17.136612    20.184665    20.906627    7231.5349     7427.508    5952.4603    6571.8513   -410.12609    685.78795    2052.2412    -2695.669 
10791000    250.37446   -3835.8978   -3406.7645   -3835.8978            0    4947.1168    17.188851    20.246196    20.970358    7297.8698    5181.8607    3795.9592    5863.5307   -205.46191   -380.42118    -55.77032   -2880.2333 
10792000    269.28624   -3870.0035   -3408.4561   -3870.0035            0    6327.3662    17.089563    20.129248    20.849227    7172.1353    6870.7933    7896.9505    4214.3548    546.52338   -576.38406    -1227.502   -2746.6247 
10793000    261.87544   -3855.4382   -3406.5927   -3855.4382            0    5184.1019    17.146473     20.19628    20.918656    7244.0252    4819.1053    5003.2611    5729.9392   -265.83789   -286.51783    1195.6513   -2858.9096 
10794000    272.50641   -3872.8997   -3405.8331   -3872.8997            0     5711.932     17.12081    20.166053    20.887348     7211.548    4661.0863    6061.4961    6413.2137    1704.5926   -861.12941    593.33939   -2805.0919 
10795000    252.00587   -3875.5056   -3443.5761   -3875.5056            0     6991.257    17.126842    20.173158    20.894708    7219.1735    4217.0964    8192.0199    8564.6548    156.85881    84.067281   -185.07689    -2707.507 
10796000    270.71529   -3853.8849   -3389.8881   -3853.8849            0    8483.6032    17.095447    20.136178    20.856405    7179.5452    8910.5461    9685.2154     6855.048     -671.859    883.54573    721.47744   -2501.6014 
10797000    251.41725    -3864.506   -3433.5854    -3864.506            0    7054.2899    17.058056    20.092137    20.810789    7132.5398    7272.3407    7010.9693    6879.5595    725.19912    494.45464   -43.203545   -2699.7927 
10798000    261.00905    -3844.559   -3397.1984    -3844.559            0    6865.3687    17.070592    20.106903    20.826083    7148.2768    6423.1495    6534.3839    7638.5726   -624.26649    806.32219    799.86735   -2681.4817 
10799000    264.32812   -3836.1453    -3383.096   -3836.1453            0    7271.7267    17.060675    20.095222    20.813984    7135.8261    7136.3065    7316.8593    7362.0143    232.58509      717.318    108.44354   -2626.3368 
10800000    269.31541   -3866.7502   -3405.1528   -3866.7502            0    5269.7823    17.167171     20.22066    20.943908    7270.2908    4712.3558    5349.0728    5747.9183   -1330.6157   -1544.4608    351.31365   -2846.3992 
10801000    268.66855   -3823.6223   -3363.1336   -3823.6223            0    5315.4251    17.114122    20.158175    20.879189    7203.1005     4974.672    5133.1916    5838.4117    -16.23475    1416.0337   -1083.9284   -2804.7491 
10802000    269.19786   -3858.8023   -3397.4064   -3858.8023            0     6012.594    17.131781    20.178975    20.900733     7225.421    6836.0602    4073.9039    7127.8179    -1440.499   -761.95488    361.77953   -2763.8272 
10803000    263.94092   -3856.6375   -3404.2518   -3856.6375            0    6094.5534    17.152193    20.203018    20.925636    7251.2781    6986.5917    6799.5701    4497.4984    750.96053    42.963315   -1110.3626   -2759.7378 
10804000    270.01104   -3854.2019   -3391.4122   -3854.2019            0    4363.0137    17.202533    20.262311     20.98705    7315.3107    5095.1908    3386.2976    4607.5527    439.62106    118.48376    1088.2048   -2925.9384 
10805000     251.9786   -3841.1227     -3409.24   -3841.1227            0    6884.9095    17.172534    20.226977    20.950452    7277.1069    6677.7359    8315.1515     5661.841    1062.7895   -418.10332    1980.0302   -2678.5504 
10806000    269.70606   -3841.5436   -3379.2766   -3841.5436            0     6051.565    17.198206    20.257215    20.981771    7309.7919    6653.3483    6211.4927    5289.8541    394.01338    1219.3375    155.51892   -2734.1446 
10807000     275.4047   -3887.3507   -3415.3164   -3887.3507            0    5187.6576    17.173584    20.228213    20.951732    7278.4412    4397.7123    3172.1364    7993.1242   -223.67752   -577.86919    24.035011   -2864.6539 
10808000    254.98479   -3834.1121   -3397.0769   -3834.1121            0    5565.3288    17.138356    20.186719    20.908754    7233.7427    5656.0537    5207.5516    5832.3811    282.10286   -726.08857   -220.91817    -2809.953 
10809000    274.73881   -3861.1066   -3390.2137   -3861.1066            0    6703.7031    17.056573     20.09039    20.808979    7130.6795    5932.0154    5757.5455    8421.5484    466.41811    -731.7862   -52.659428   -2693.0712 
10810000    247.72811   -3842.9273   -3418.3298   -3842.9273            0    7006.6825    17.135408    20.183248    20.905158    7230.0111    8089.0921    6701.4223    6229.5331   -480.93348   -830.10025   -1099.3942   -2679.5291 
10811000    256.67219   -3820.4167   -3380.4893   -3820.4167            0    7217.5318    17.204537    20.264672    20.989495    7317.8679    7679.0757    7865.9225    6107.5973    1230.5747    911.57953   -1106.7291   -2610.2083 
10812000    260.63854   -3815.4118   -3368.6863   -3815.4118            0    7051.7697    17.191401      20.2492    20.973469    7301.1186    8940.5932     6836.159    5378.5569   -1025.3921    -172.3945   -923.99299   -2617.8186 
10813000    279.08466   -3820.6232   -3342.2817   -3820.6232            0     6769.689    17.235412    20.301039    21.027163    7357.3364    6470.6998    6513.1823    7325.1848    837.64507   -976.87255    549.32268   -2615.8994 
10814000    251.95614   -3836.5261   -3404.6819   -3836.5261            0    6468.6168    17.198092    20.257081    20.981633    7309.6473      6792.72    4277.6701    8335.4602    25.510568   -713.37473    51.249129   -2715.1034 
10815000    253.39258   -3844.8664   -3410.5602   -3844.8664            0    7055.9542    17.154058    20.205214     20.92791    7253.6431    5753.1942    6264.6511    9150.0174    190.11065    540.17149   -95.104491   -2664.1324 
10816000    284.85549   -3824.6774   -3336.4448   -3824.6774            0    7049.8681    17.090086    20.129864    20.849865    7172.7935    7316.5765    6848.0065    6985.0215   -187.87524    -452.4762   -518.08733   -2598.9734 
10817000    265.04141   -3905.8302   -3451.5583   -3905.8302            0    4539.5827    17.183964     20.24044    20.964396    7291.6477    1508.1831    6461.4276    5649.1375    301.96707    -2094.291    124.48675   -2968.8136 
10818000    261.95163   -3847.0277   -3398.0516   -3847.0277            0    6276.6554    17.087446    20.126754    20.846644    7169.4698    6795.1361    7981.3907    4053.4394   -958.60475    950.44756    -661.5298   -2741.7685 
10819000    254.15107   -3895.4341   -3459.8279   -3895.4341            0    4541.3481    17.184862    20.241498    20.965492    7292.7911    5293.6065    4027.5506    4302.8872   -1007.6745    200.25172   -648.52511   -2976.8197 
10820000    274.23568   -3885.6587   -3415.6281   -3885.6587            0    5430.7603    17.172486     20.22692    20.950393    7277.0458    5695.0467    6271.1757    4326.0585   -900.73762    360.13179    529.70522    -2839.271 
10821000     262.6107   -3839.8903   -3389.7845   -3839.8903            0    7595.5348    17.093794    20.134232    20.854389    7177.4636    6124.7251    7873.1274    8788.7519    145.33444    142.45605   -1865.1016   -2594.7147 
10822000    286.53289    -3823.672   -3332.5644    -3823.672            0    5557.5573    17.209587    20.270621    20.995656    7324.3141    5100.2911    5611.2215    5961.1594     612.1904   -1341.8182    921.42083   -2738.9195 
10823000    255.09985   -3870.1818   -3432.9494   -3870.1818            0    7019.2303    17.133827    20.181385    20.903229    7228.0093    7967.9963    5538.3755     7551.319    1908.2469   -352.50419    741.05712   -2693.0306 
10824000    272.78088   -3909.2583   -3441.7212   -3909.2583            0    7474.5862     17.15616     20.20769    20.930475    7256.3104    5429.0615    8727.8923    8266.8048    915.61398   -306.74938    261.95419   -2650.7168 
10825000    261.07521   -3861.3373   -3413.8633   -3861.3373            0    7676.8578    17.093005    20.133302    20.853426    7176.4697    9407.6313    6950.5562    6672.3858   -262.65811   -312.29124    204.79266   -2610.3922 
10826000     251.0617   -3863.8715   -3433.5604   -3863.8715            0    5124.5369    17.184262    20.240791    20.964759    7292.0265    5092.5407    6987.2026    3293.8674   -28.198872    591.03046    -192.7069   -2888.5827 
10827000    260.05883   -3887.5136   -3441.7817   -3887.5136            0    6900.7248    17.084313    20.123064    20.842821    7165.5266    6398.9641    7061.0292     7242.181    145.06089    698.94845    804.35455   -2720.6431 
10828000    287.37731   -3878.8439    -3386.289   -3878.8439            0    6987.1001    17.119987    20.165083    20.886344    7210.5077    8098.9052    4813.6464    8048.7487   -165.23668   -983.10656    188.45469   -2651.5405 
10829000    262.05808   -3871.2175   -3422.0589   -3871.2175            0     6762.539    17.129612     20.17642    20.898087    7222.6765    8427.6165    5402.9699    6457.0307   -2075.0211   -371.51659    1573.9212   -2709.7246 
10830000    283.13272    -3844.936   -3359.6562    -3844.936            0    8425.7789    17.103617    20.145802    20.866373    7189.8443    8199.5368    9847.9512    7229.8487   -1596.5807   -772.16777    241.67385   -2476.1585 
10831000    250.12519   -3852.1746   -3423.4686   -3852.1746            0    7729.0292    17.146479    20.196288    20.918665    7244.0338    6493.7972    8437.5887    8255.7018    812.49896   -335.71263    555.96285   -2606.9214 
10832000    271.42521    -3903.968   -3438.7545    -3903.968            0    6888.8363    17.093962    20.134429    20.854594    7177.6752    7108.6235    8323.4091    5234.4763   -421.54792    378.20058    1066.6419   -2717.6378 
10833000    253.64869   -3872.7941   -3438.0489   -3872.7941            0    5511.4918    17.144829    20.194343    20.916651    7241.9419    5494.5095    4840.7541    6199.2118    299.07827    -484.4846   -1208.5922   -2855.9456 
10834000    278.25329   -3838.5215   -3361.6049   -3838.5215            0    9000.4872    17.099239    20.140645    20.861032    7184.3247    9466.4617    9206.9188    8328.0811   -151.30252   -1340.5218   -736.04142   -2418.5698 
10835000    258.05463   -3863.1496   -3420.8528   -3863.1496            0    8320.0635    17.141742    20.190708    20.912886    7238.0318     7620.537    8100.4397    9239.2138    194.35425   -371.01662   -98.372681    -2542.593 
10836000    252.37446   -3863.9799   -3431.4187   -3863.9799            0    5830.0076    17.211717    20.273129    20.998254    7327.0333    6380.5892    5053.4716    6055.9622     199.2447   -1397.3223   -2043.9729   -2808.4401 
10837000     261.5642   -3895.1941    -3446.882   -3895.1941            0    5168.1591    17.165984    20.219262     20.94246    7268.7829    5465.9109    4668.9993    5369.5672    -1068.092   -408.71865   -452.46324   -2899.0171 
10838000    259.53092   -3842.3065   -3397.4794   -3842.3065            0    6708.2414    17.207012    20.267587    20.992514    7321.0262       4894.3    8059.9157    7170.5084    1506.1271    165.75477    102.50932   -2681.2428 
10839000    254.12183   -3875.5542   -3439.9981   -3875.5542            0    7191.7965    17.119909    20.164991    20.886249    7210.4092    6634.8354    7812.2263    7128.3277    524.59366   -204.08262   -494.62382   -2683.7345 
10840000    257.85941   -3857.3827   -3415.4205   -3857.3827            0    6209.5481    17.117008    20.161575     20.88271    7206.7453    4952.5537    5062.5742    8613.5164    749.39396   -543.84271   -1260.2373   -2762.7784 
10841000    250.35181   -3892.2355    -3463.141   -3892.2355            0    7034.3626    17.044579    20.076263    20.794347    7115.6477    6778.3198    8086.0624    6238.7054    379.90927   -774.62066   -740.26664   -2733.1541 
10842000    277.31746   -3898.7197   -3423.4071   -3898.7197            0    7705.4493    17.063579    20.098642    20.817526    7139.4697      7596.71    7614.4423    7905.1955   -227.67683    1285.8382    254.60811   -2621.1015 
10843000    262.58375   -3911.9754   -3461.9159   -3911.9754            0      8211.58    17.091386    20.131395    20.851451    7174.4301    8366.9484    9214.5502    7053.2414    506.77046   -341.79431    419.56039   -2602.7243 
10844000    262.46639   -3893.9399   -3444.0815   -3893.9399            0    7970.6519    17.045075    20.076846    20.794951    7116.2682    8608.7094    8185.0846    7118.1617    1449.5549   -1029.0419    440.03829   -2616.8596 
10845000    251.28586   -3902.3396   -3471.6442   -3902.3396            0    6768.8258    17.089109    20.128713    20.848673    7171.5634    5401.0656    8137.5034    6767.9084    1070.1021   -1567.7279   -86.569543   -2763.6934 
10846000    265.03711   -3863.5903   -3409.3258   -3863.5903            0    7943.0974    17.110949    20.154438    20.875318    7199.0951    7814.0568    9537.1495    6478.0859    -99.50819    1306.2445   -1704.6596   -2575.3687 
10847000    265.42533   -3875.5526   -3420.6227   -3875.5526            0    6894.3573    17.075621    20.112826    20.832218    7154.5957    7963.8979     4698.006    8021.1681   -780.50164   -1452.3152    964.50639   -2701.2486 
10848000    261.46278   -3898.8509   -3450.7126   -3898.8509            0    8042.8433    16.980745    20.001074    20.716469    7035.9991    10751.706    7742.0809    5634.7432    35.925334   -1435.4051    148.89659   -2625.4137 
10849000    264.12371   -3879.5613   -3426.8623   -3879.5613            0    7134.9905    17.068848    20.104849    20.823955    7146.0862    7779.8026    5639.6093    7985.5596   -182.67906    594.35869    1115.8978   -2683.2654 
10850000    261.76866   -3880.6924   -3432.0299   -3880.6924            0    8884.5079    17.049552     20.08212    20.800413     7121.877    9959.4145    8238.4585    8455.6508    96.337326    2155.0105   -236.17902   -2509.2381 
10851000    257.56812   -3875.8713   -3434.4084   -3875.8713            0    8800.3509    17.091878    20.131975    20.852052    7175.0507    8793.6505    9244.0821    8363.3202    250.91907    575.42521    1739.5875    -2513.533 
10852000    270.67847   -3860.5274   -3396.5938   -3860.5274            0    5527.3531    17.096768    20.137734    20.858017    7181.2102    5301.2256    3937.8722    7342.9614    1243.7524    -547.2671    62.202763   -2817.7109 
10853000    260.42123   -3853.5373   -3407.1842   -3853.5373            0    6318.9486    17.107391    20.150247    20.870977    7194.6045    6202.1584    7126.5041    5628.1835    144.82132   -822.09044    550.99887   -2744.1626 
10854000    270.37435   -3891.3332   -3427.9208   -3891.3332            0    9170.3192     17.03375    20.063507    20.781135    7102.0932    9414.3972    8283.7507    9812.8097    175.87929   -1094.9163    -971.0347    -2478.089 
10855000    261.92335    -3864.005   -3415.0773    -3864.005            0     8086.459    17.101251    20.143015    20.863487    7186.8611    8750.0579    7277.9533    8231.3658    827.24118    906.30257    328.51051   -2567.5113 
10856000     257.6977   -3897.2396   -3455.5545   -3897.2396            0    6986.0045    17.080645    20.118744    20.838347    7160.9127    7025.2377    7971.4366    5961.3392    405.10747   -632.58744     320.8464   -2725.9742 
10857000     255.3307    -3894.148   -3456.5199    -3894.148            0    7728.5865    17.102243    20.144183    20.864697    7188.1117    11080.439    6058.6603    6046.6601   -502.49232    664.21412   -95.342976   -2646.3227 
10858000    252.18985   -3865.1802   -3432.9354   -3865.1802            0    6559.9545    17.213796    20.275578    21.000791    7329.6887    7416.2537    6721.2656    5542.3442    1057.0296   -506.29374   -227.05983   -2731.7026 
10859000    264.97683   -3868.8459   -3414.6847   -3868.8459            0    6114.3609    17.128247    20.174813    20.896422    7220.9507    6969.3219    5617.1797    5756.5811   -767.88024    447.30413    124.28212   -2770.7804 
10860000    262.26084   -3865.2922   -3415.7861   -3865.2922            0    6699.3624    17.115975    20.160358    20.881449    7205.4402    7587.9326    5289.1951    7220.9596    -2123.275    -1024.434    1445.3043   -2711.7906 
10861000    270.69851   -3874.2715   -3410.3035   -3874.2715            0    6527.9457    17.186476    20.243398     20.96746    7294.8454    6488.6899    7325.3775    5769.7696   -786.96737   -362.70453   -1519.3857   -2715.8095 
10862000    261.73842   -3844.7017    -3396.091   -3844.7017            0    6108.8239    17.095718    20.136497    20.856736     7179.887    4994.6532     6908.383    6423.4357    876.67987    406.29568   -1426.1296   -2756.4282 
10863000    268.18721   -3891.3553   -3431.6916   -3891.3553            0    5132.5621     17.11539    20.159668    20.880735     7204.701    5464.5801    5111.4758    4821.6304    118.01125    2367.9672   -257.89222    -2892.397 
10864000    273.65216   -3829.7493   -3360.7189   -3829.7493            0    6938.3591    17.122502    20.168046    20.889413    7213.6866    7207.7247    6978.3663    6628.9864    -796.6301    1576.6447   -1064.3965   -2630.7742 
10865000    262.18372   -3826.0893   -3376.7153   -3826.0893            0    5147.0917    17.125898    20.172046    20.893556    7217.9801    5689.7541    4833.0598    4918.4611    219.42467    689.49129   -1379.6727   -2834.8973 
10866000    255.07182   -3845.4475   -3408.2631   -3845.4475            0    8699.4282    17.064477      20.0997    20.818622    7140.5971    7416.6156    10770.332    7911.3373   -165.32063     157.8874   -489.45602   -2502.3196 
10867000     250.2274   -3861.0117   -3432.1305   -3861.0117            0    7494.6941    17.124015    20.169828    20.891259    7215.5995    6343.2634    7059.1197     9081.699   -53.408806   -619.01533   -271.18782    -2643.448 
10868000    245.09009    -3844.807    -3424.731    -3844.807            0    6518.2873    17.083735    20.122383    20.842116    7164.7994    5114.0183    6557.1691    7883.6745     133.0022    1317.2497    577.13105    -2743.627 
10869000    268.10578   -3857.8037   -3398.2796   -3857.8037            0    6597.2912    17.069575    20.105704    20.824841    7146.9984    7356.8897    5232.6442    7202.3396    578.92257    506.77314    101.07481   -2710.6331 
10870000    251.48041   -3844.9839   -3413.9551   -3844.9839            0    6490.7233    17.129236    20.175978    20.897628    7222.2011    3920.0949    8145.2378     7406.837   -1859.1119    2689.2138   -309.79993   -2730.2976 
10871000    256.34361   -3862.8551   -3423.4909   -3862.8551            0    7590.5712    17.104972    20.147397    20.868026    7191.5528    5576.7641    9157.9763    8036.9732   -1461.1823   -862.97922    1542.7869    -2627.381 
10872000    270.34335   -3833.5506   -3370.1914   -3833.5506            0    5797.6587    17.175746    20.230761    20.954371    7281.1915    5882.7197    6844.4862    4665.7703   -742.41129   -542.35775    1625.3744   -2754.5455 
10873000    251.50955   -3874.3868    -3443.308   -3874.3868            0     5398.599    17.091185    20.131159    20.851206    7174.1779    4880.7131    7012.9981    4302.0857   -563.89769     926.9551    424.47485   -2878.4633 
10874000    259.64043   -3846.9651   -3401.9503   -3846.9651            0    5945.3349    17.143212    20.192439    20.914678    7239.8929    5012.8916    6529.9674    6293.1458    63.633008    937.23987   -166.74073   -2774.2037 
10875000    272.09484   -3823.0472    -3356.686   -3823.0472            0    6211.0377    17.064999    20.100315    20.819259    7141.2524    5413.9517    6625.2824    6593.8791    38.631615   -301.92205    158.71008   -2709.8198 
10876000     276.2061   -3852.6842   -3379.2764   -3852.6842            0    7609.3259    17.018588    20.045648    20.762637    7083.1449    7251.3752    5268.9801    10307.622    1208.0947  -0.13697371    291.12441     -2593.23 
10877000    273.20085   -3869.6226   -3401.3657   -3869.6226            0    5950.8564    17.085488    20.124448    20.844256    7167.0059    6669.2368    4395.7494     6787.583    1198.4195    817.32459   -632.06521   -2779.3618 
10878000    261.61512   -3856.9825   -3408.5831   -3856.9825            0    8347.0079    17.064927     20.10023    20.819171    7141.1623    8186.5491    8223.5949    8630.8799    2025.9459    221.53484   -1950.3307   -2539.2713 
10879000    281.36533   -3884.2984   -3402.0479   -3884.2984            0    6300.4769    17.160798    20.213154    20.936134    7262.1976    5217.9408    6691.9535    6991.5362   -273.91806    56.050825    253.93098   -2734.7536 
10880000    252.28367   -3875.1268   -3442.7213   -3875.1268            0    7788.1517    17.057814    20.091852    20.810493    7132.2363    8697.6228    6424.6979    8242.1344   -725.96056   -396.42905   -460.37028   -2632.6261 
10881000    252.62804   -3882.8232   -3449.8274   -3882.8232            0    7601.7645    17.111743    20.155373    20.876287    7200.0972    8352.6278    7468.4656       6984.2   -301.33172   -230.43915    -632.1049   -2651.5962 
10882000    283.42877   -3867.8161   -3382.0289   -3867.8161            0    5912.1241    17.176415    20.231548    20.955187    7282.0422    6986.2556    6325.9452    4424.1714   -481.55182    44.295991    408.97398   -2754.1547 
10883000    249.29423   -3853.5649   -3426.2831   -3853.5649            0    6202.7875    17.098279    20.139514     20.85986    7183.1143    5562.9932    7033.3139    6012.0553    754.05212   -730.54465   -981.90938   -2776.4893 
10884000    255.67317   -3898.5158   -3460.3008   -3898.5158            0    5520.7399    17.139757     20.18837    20.910464    7235.5171    6354.7673    5017.3974     5190.055     1561.679   -1266.6969   -95.123766    -2877.738 
10885000    251.63496   -3916.3139   -3485.0201   -3916.3139            0    6350.5848    17.144799    20.194308    20.916614    7241.9037    5428.3799    7134.5744    6488.8001    516.99469   -158.27371   -348.82441   -2814.2984 
10886000    258.38163   -3893.9544   -3451.0971   -3893.9544            0    4953.0904     17.14232    20.191389     20.91359    7238.7635    5168.3466    3855.9825    5834.9422   -947.28488   -185.73011    323.95276   -2928.1996 
10887000    262.37913   -3906.6784   -3456.9695   -3906.6784            0    6728.8462     17.13324    20.180694    20.902513    7227.2668    6584.8492    6848.2643    6753.4249    409.01597   -1371.1232   -434.98442   -2747.7338 
10888000    265.64718   -3881.7883   -3426.4781   -3881.7883            0    7877.9033    17.087366     20.12666    20.846546    7169.3688    7893.9569    9710.4584    6029.2947   -507.85771   -557.16345   -437.90982   -2602.7811 
10889000     248.2457   -3905.0631   -3479.5785   -3905.0631            0    5920.5914    17.141872    20.190861    20.913044    7238.1958    7916.9734    5339.5001    4505.3008   -1392.1354      935.489   -394.52958    -2854.591 
10890000    268.00922   -3883.3227    -3423.964   -3883.3227            0    6591.0275    17.086207    20.125294    20.845132    7167.9101    6204.2803    8571.9421    4996.8601    1025.1076    682.08491   -1242.2142   -2734.9603 
10891000    253.81441   -3884.6751   -3449.6459   -3884.6751            0    6538.8481    17.101851    20.143722    20.864219    7187.6176    4746.7537    7111.4997    7758.2911   -443.97003     695.0214    1202.6494   -2764.2175 
10892000    239.88537    -3831.581   -3420.4256    -3831.581            0    6719.0042     17.08282    20.121305       20.841    7163.6485    7254.3299    7262.7875    5639.8952    1979.8078   -1789.6793   -311.27973   -2718.4613 
10893000    261.68858   -3865.9726   -3417.4473   -3865.9726            0    5416.3919    17.116155     20.16057    20.881669    7205.6679    5409.1554    5487.9317    5352.0886    1598.9179    1050.8226    773.82219   -2848.2534 
10894000     253.4858   -3834.2645   -3399.7986   -3834.2645            0    9815.7629    16.969043    19.987291    20.702193    7021.4633    13242.607    7668.6635    8536.0184    308.43759    521.12404   -884.80598   -2394.6562 
10895000    270.42932   -3821.9116    -3358.405   -3821.9116            0    7574.2973     17.01207    20.037971    20.754685    7075.0097    8493.6127    8923.5433    5305.7357    668.69178    -320.6456   -1948.9517   -2576.8757 
10896000    244.83655    -3833.452   -3413.8106    -3833.452            0    6421.9867    17.130492    20.177457     20.89916    7223.7898    6666.4445    6430.7306     6168.785    46.025882   -381.24894    -246.6377   -2737.2442 
10897000    250.57516   -3891.9659   -3462.4887   -3891.9659            0    7166.4617    17.192203    20.250144    20.974447      7302.14    8790.7782    5129.3448     7579.262   -582.65251    -969.9674   -720.46461   -2699.3019 
10898000    245.07331   -3889.4119   -3469.3646   -3889.4119            0    6349.8014    17.119005    20.163927    20.885146    7209.2676    7019.4054    6152.7787    5877.2202    1191.9915    -502.0859    -160.2264    -2801.748 
10899000    285.32461    -3865.133   -3376.0964    -3865.133            0    5246.9406    17.207743    20.268448    20.993406    7321.9591    6733.2922     4750.826    4256.7035    444.80347   -654.12748    337.09708    -2815.811 
10900000     254.1022   -3872.3158   -3436.7933   -3872.3158            0    6687.6628    17.095803    20.136598     20.85684     7179.995    6380.7532    7998.7036    5683.5316   -2879.0736   -1090.6948    300.97668    -2736.509 
10901000    251.84127   -3818.1161   -3386.4688   -3818.1161            0    5143.2388    17.127863    20.174361    20.895953    7220.4647     5503.298    5407.1982    4519.2204    572.48419   -361.47689   -465.78534   -2844.8699 
10902000    259.57968   -3889.3224   -3444.4117   -3889.3224            0    5138.5657     17.07455    20.111564    20.830911    7153.2494    5507.0978    6870.2023     3038.397   -740.22891   -14.023999   -746.47001   -2908.3422 
10903000    265.84281   -3894.9425    -3439.297   -3894.9425            0    7614.4548    17.147671    20.197691    20.920118    7245.5441    7234.6919    8210.0115     7398.661   -356.29305    188.06144    215.38943   -2634.6865 
10904000    257.67754   -3904.0074   -3462.3569   -3904.0074            0    6191.4969     17.14777    20.197808    20.920239    7245.6698    4967.0185    7838.4774    5768.9947    988.28852    650.55181   -404.08707   -2808.0974 
10905000    247.38118   -3869.7783   -3445.7754   -3869.7783            0    7674.4267     17.11306    20.156924    20.877893    7201.7596    6777.9998    6930.8188    9314.4616    497.39576   -209.99735   -3110.5597   -2639.7283 
10906000      240.458   -3902.3021   -3490.1654   -3902.3021            0    5250.1079    17.131963    20.179189    20.900955    7225.6508    5685.0982    5604.5407    4460.6849   -555.84507   -239.05727   -825.86857   -2936.9158 
10907000    260.83378   -3890.8669   -3443.8067   -3890.8669            0    5966.2065    17.119434    20.164432     20.88567      7209.81    6801.1033    4608.3634    6489.1528   -123.80771    -771.6247    822.13049    -2816.474 
10908000    268.81002   -3910.7742    -3450.043   -3910.7742            0    5645.7413    17.121688    20.167087     20.88842    7212.6583    4776.9316    7142.7915    5017.5008    630.73575   -612.39314    434.91243   -2856.1719 
10909000    267.97821   -3900.7938   -3441.4883   -3900.7938            0    6597.0833    17.112931    20.156772    20.877736    7201.5964    7832.9945    5930.5372    6027.7182   -92.284043    667.84337   -286.83126   -2748.6105 
10910000    269.25841   -3827.3073   -3365.8076   -3827.3073            0       8798.7      17.0517     20.08465    20.803034    7124.5697    7441.2898    11527.274    7427.5358   -703.71161     1231.856   -443.70556   -2451.5827 
10911000    249.05946   -3882.6541   -3455.7747   -3882.6541            0    4634.0952     17.19051     20.24815    20.972382    7299.9836    4187.9204     4797.227    4917.1383   -331.23355   -863.43341    97.304874    -2962.416 
10912000    243.60058   -3840.4469   -3422.9239   -3840.4469            0    5973.4446    17.125123    20.171133     20.89261         7217    6202.8268    5164.3869      6553.12    2507.3794   -2520.9584   -285.70235   -2794.2036 
10913000     259.6553   -3856.5093    -3411.469   -3856.5093            0    7007.3429     17.15607    20.207584    20.930365    7256.1958    6362.2627    6976.6362    7683.1298    1650.3015     231.5576    1427.3602   -2669.9227 
10914000    257.81375   -3853.0425   -3411.1586   -3853.0425            0    7004.0073    17.097559    20.138666    20.858982    7182.2066     7144.113     6730.848    7137.0608   -1375.5012    9.9634387   -414.59052    -2677.523 
10915000    262.26594   -3870.2077   -3420.6929   -3870.2077            0    4797.1261    17.122409    20.167936    20.889299    7213.5694     6116.579    4735.2226    3539.5768      1638.59     -879.756    733.69042   -2916.0231 
10916000    262.11559   -3839.6836   -3390.4264   -3839.6836            0    6166.1402     17.12876    20.175417    20.897047    7221.5987    5939.3259    7070.1164    5488.9783    942.11909    584.07918   -1825.5029   -2741.0109 
10917000    250.55095   -3882.9775   -3453.5417   -3882.9775            0    5914.1596    17.045459      20.0773    20.795421    7116.7502    5291.6595    5344.3217    7106.4974   -704.22616    -1020.176    1549.7444   -2839.7081 
10918000     269.3779   -3839.1266    -3377.422   -3839.1266            0    7740.0262    17.045643    20.077516    20.795645      7116.98    8984.0068    7552.4656     6683.606     607.1651   -417.35566   -449.35148   -2574.0549 
10919000      273.332   -3843.9154   -3375.4337   -3843.9154            0    5827.3585    17.083195    20.121748    20.841458    7164.1209    6959.4302    4774.7242     5747.921     135.2817   -329.32885   -1232.8545   -2766.5834 
10920000    269.18014   -3854.0068   -3392.6412   -3854.0068            0    6872.8916    17.076715    20.114115    20.833553    7155.9714     6520.628    7817.1868      6280.86    2558.9849     301.3005    939.44566   -2675.3691 
10921000    270.35963   -3899.5105   -3436.1234   -3899.5105            0    5291.9964    17.259888    20.329868    21.057023    7388.7249    5570.5036     5811.173    4494.3125    1369.1157    600.34187    726.74882   -2865.8739 
10922000    267.76562    -3883.044   -3424.1029    -3883.044            0    5933.9527    17.203909    20.263932    20.988729    7317.0664    6782.1294    6599.8716     4419.857   -424.76144    472.09818    1122.2463   -2790.8795 
10923000     257.8606   -3880.5667   -3438.6025   -3880.5667            0    6012.3344    17.140461    20.189199    20.911323    7236.4092    6345.5781    4495.7251    7195.6999    376.94103    1272.8503    891.21806   -2804.0871 
10924000    264.50642   -3887.1927   -3433.8377   -3887.1927            0    7202.3991    17.060379    20.094873    20.813623    7135.4546     7843.005    7427.7721    6336.4202   -279.99382   -1274.2118    198.23915   -2684.3324 
10925000    273.70514   -3842.9987   -3373.8775   -3842.9987            0    5844.7989    17.058634    20.092818    20.811494    7133.2648    3698.5578    5856.6864    7979.1523    1614.0391   -626.18337    372.99044   -2765.8352 
10926000    257.59981   -3851.1769   -3409.6596   -3851.1769            0    6906.2418    17.045224    20.077023    20.795134    7116.4556    6607.5939    5852.9858    8258.1457   -1308.8439   -958.18472   -112.48132    -2692.887 
10927000    269.68399   -3841.0363   -3378.8072   -3841.0363            0    9308.2208    17.072032    20.108598    20.827839    7150.0853    9008.8376    8419.9544     10495.87    955.64695   -1159.8644    1418.8937    -2408.177 
10928000    267.09567   -3851.5743   -3393.7815   -3851.5743            0    5378.5958    17.173221    20.227786     20.95129    7277.9804    5845.8166    4824.0478    5465.9231   -669.96464   -961.33242   -268.50039   -2822.8872 
10929000    265.35858    -3878.533   -3423.7175    -3878.533            0    7687.3065    17.027324    20.055939    20.773296    7094.0594    8222.2211    7587.0482    7252.6502   -1392.6591   -495.27744   -206.38355    -2628.392 
10930000    254.52097    -3876.936   -3440.6958    -3876.936            0    6137.6489    17.110331     20.15371    20.874564    7198.3147    4885.0078    7206.4614    6321.4775   -1018.6464    873.57109    1662.7213   -2796.3652 
10931000    267.43819   -3874.6812   -3416.3013   -3874.6812            0     7956.517    17.093228    20.133565    20.853699    7176.7509     6614.484    9455.1885    7799.8784   -192.05622    148.68737    1124.7463    -2583.528 
10932000    272.63012   -3845.7573   -3378.4785   -3845.7573            0    5467.1705    17.095379    20.136099    20.856323    7179.4607    4510.7763    5226.1282     6664.607   -269.63081   -399.70404   -437.54706   -2806.0381 
10933000    259.35608   -3877.5167   -3432.9893   -3877.5167            0    5707.2444    17.116877    20.161421     20.88255    7206.5799    6539.2534     5279.769    5302.7108   -553.93022    -889.7283    818.37536   -2833.1546 
10934000    252.64281   -3868.2658   -3435.2447   -3868.2658            0    6868.8628    17.102114    20.144031    20.864539    7187.9489    7235.6126    7182.1434    6188.8324   -805.72052    14.166134   -986.31891   -2715.1896 
10935000    262.98838   -3865.0057   -3414.2526   -3865.0057            0    7349.9919    17.097352    20.138423     20.85873    7181.9465    5157.5573    7159.4543     9732.964    1249.4408    77.099081   -434.44682   -2644.4047 
10936000    260.68608   -3826.7134   -3379.9064   -3826.7134            0    6552.5518    17.105018    20.147451    20.868081    7191.6106     5006.686    6382.9369    8268.0326   -427.93772   -232.33798    191.93099   -2692.6599 
10937000    273.77996   -3884.0097   -3414.7602   -3884.0097            0    6728.0993    17.132545    20.179875    20.901665    7226.3873    8698.7618    4541.1449    6944.3913   -1307.9313     885.4599     269.2601   -2705.6895 
10938000    279.23389   -3865.8138   -3387.2165   -3865.8138            0    6872.2896    17.142135    20.191171    20.913365     7238.529    7526.2154    7459.3799    5631.2736   -848.14958    801.41163   -101.90271   -2661.7328 
10939000    259.96242   -3906.5109   -3460.9442   -3906.5109            0    6261.4934    17.188595    20.245894    20.970045    7297.5435    6966.4614    6555.0938    5262.9252   -1147.7596    1079.6179     150.4426   -2794.5511 
10940000    277.14831   -3869.0893   -3394.0665   -3869.0893            0    6037.9336    17.161717    20.214236    20.937255    7263.3643    8864.0019    3574.9365    5674.8625    581.92903   -1230.8376    496.04644    -2754.476 
10941000    270.59131   -3893.4988   -3429.7145   -3893.4988            0    7162.2613    17.116166    20.160583    20.881682    7205.6813    5120.5834     8506.093    7860.1074   -636.79503    885.32319    147.19537   -2677.0506 
10942000       259.94   -3877.2756   -3431.7473   -3877.2756            0    7033.4094    17.121062    20.166349    20.887655    7211.8663    6624.4575    7295.0194    7180.7514    1033.2525   -138.81789   -1092.1023   -2691.9897 
10943000    262.63265   -3894.4522   -3444.3088   -3894.4522            0    7305.6099    17.131773    20.178965    20.900723      7225.41    8180.5805    7075.6283     6660.621   -1759.1475     2054.093    625.73966   -2674.4787 
10944000    275.81442   -3894.5683   -3421.8318   -3894.5683            0    7316.9152    17.145259    20.194851    20.917176    7242.4875    8967.2573    7583.3858    5400.1024    816.18745    658.33734    215.28446   -2648.9881 
10945000    262.42246     -3898.69   -3448.9068     -3898.69            0    5795.2058    17.174181    20.228917    20.952461    7279.2006    5200.1961    5986.8982    6198.5231    1253.7965   -1200.9653   -349.80879   -2833.6897 
10946000    268.60262   -3899.0409   -3438.6652   -3899.0409            0    6760.4257    17.125708    20.171822    20.893324    7217.7392    6007.6138    6941.6707    7331.9927    113.96739   -147.92327   -89.402008   -2727.0403 
10947000    257.38667    -3855.076    -3413.924    -3855.076            0    8107.2543     17.04741    20.079597      20.7978    7119.1933    7593.8532    8180.1188    8547.7908   -167.30966    1105.4315   -871.09049   -2572.1792 
10948000    269.32068   -3857.5392   -3395.9328   -3857.5392            0    5393.0391    17.089155    20.128767    20.848729     7171.621     4829.356    3888.4233     7461.338    451.38732    430.58137    17.010148   -2831.8708 
10949000    272.94626   -3862.7419   -3394.9214   -3862.7419            0    7510.1455    17.093051    20.133356    20.853482    7176.5271    7467.0962    9253.0468    5810.2935   -700.26278    98.557058   -414.60758   -2608.8924 
10950000     244.6819   -3820.8626   -3401.4862   -3820.8626            0    6476.7954    17.114576     20.15871    20.879743    7203.6734    5277.5342    6202.8073    7950.0447   -839.35102    1464.5406   -183.55577   -2721.0458 
10951000    255.68908   -3840.6573    -3402.415   -3840.6573            0     5192.393    17.157534    20.209309    20.932152    7258.0546      4063.53    4878.2656    6635.3833    1123.5261    118.88962   -1453.8303   -2852.7936 
10952000    267.21377   -3845.1611   -3387.1659   -3845.1611            0    7275.7727    17.160861    20.213227     20.93621    7262.2765    6953.0092    7054.9049     7819.404    1753.2765    1364.6058    797.92917    -2616.568 
10953000    257.47712   -3877.2392   -3435.9322   -3877.2392            0    5998.4401    17.207126    20.267722    20.992654    7321.1723    6627.5142     6306.504    5061.3021    624.23287   -360.26047    194.40406    -2795.468 
10954000    254.18157   -3890.0411   -3454.3826   -3890.0411            0    4515.3643    17.227367    20.291563    21.017347    7347.0381    4816.6692    4762.0854    3967.3384    720.20985    128.39458   -376.16526   -2970.5657 
10955000    253.04184   -3899.0799   -3465.3748   -3899.0799            0    5561.4728    17.205072    20.265302    20.990147    7318.5503    4853.1038    6183.1714    5648.1432    684.20666    1263.1165   -437.49621   -2871.7791 
10956000    259.14069   -3895.7819   -3451.6236   -3895.7819            0    5541.1414    17.224945     20.28871    21.014393    7343.9404    5486.5115    5215.4505    5921.4622   -159.77299    1638.6121   -397.81491   -2858.1461 
10957000     264.1954   -3868.5452   -3415.7234   -3868.5452            0     4579.892    17.267168    20.338443    21.065905    7398.0787    4647.1771    4844.2611    4248.2377   -365.44165    1082.1192    617.11221   -2921.5833 
10958000    264.20202   -3856.7139   -3403.8807   -3856.7139            0    6900.3647    17.150073     20.20052    20.923049    7248.5894      6809.76    6809.8349    7081.4992   -1273.0369   -805.47783    11.263903   -2674.4208 
10959000    266.09709   -3867.1146   -3411.0333   -3867.1146            0    7700.1595    17.094279    20.134803     20.85498    7178.0744    8090.1713    7350.3102     7659.997    830.40208    906.43239    827.74723   -2604.9432 
10960000    268.02635   -3817.5021   -3358.1141   -3817.5021            0     6818.221    17.054009     20.08737    20.805851    7127.4645    6402.7582    7128.1116    6923.7934    -579.9966   -41.212359   -284.48656   -2649.3821 
10961000    261.97881   -3860.8231   -3411.8003   -3860.8231            0    7410.3167    17.101507    20.143316    20.863799    7187.1836      8252.85    6823.6193    7154.4809    19.754358    -561.6595    327.94548    -2635.068 
10962000       262.22   -3861.2315   -3411.7954   -3861.2315            0    6573.4363    17.147395    20.197367    20.919782    7245.1947    5730.2011    8008.0638    5982.0439   -1094.5538   -344.64725    1214.8629   -2717.2216 
10963000    276.13156    -3859.094    -3385.814    -3859.094            0    6585.1596    17.160095    20.212326    20.935276    7261.3051    6633.1156    7242.4281     5879.935    748.09516   -879.27873   -3093.8492   -2688.4542 
10964000    258.86621   -3881.9869   -3438.2991   -3881.9869            0    7145.9397    17.145579    20.195227    20.917566    7242.8924    8077.9535    7914.8533    5445.0123    456.52827    1419.9002   -945.87189   -2683.4724 
10965000    258.23461   -3906.1919   -3463.5867   -3906.1919            0    7969.9259     17.02034    20.047712    20.764775     7085.333    8251.2549    7587.6359    8070.8871     428.6265   -635.55386    711.94293   -2640.0358 
10966000    258.18726   -3878.7758   -3436.2517   -3878.7758            0    6061.8218    17.123884    20.169673    20.891098     7215.433    6233.3403    4596.6983    7355.4269    756.17193    192.12529    712.64364    -2798.368 
10967000    257.99263   -3895.3992   -3453.2087   -3895.3992            0    5548.8233     17.10803    20.150999    20.871756    7195.4104     5451.492    6638.8719     4556.106     514.0572    -531.7815   -445.62889   -2870.9281 
10968000    241.78207     -3830.53   -3416.1238     -3830.53            0    7582.6636    17.125462    20.171533    20.893024    7217.4288    6922.8298    6970.6436    8854.5176    2522.4607    503.38423   -175.97683   -2617.9818 
10969000    262.34941   -3855.8232   -3406.1653   -3855.8232            0    7456.2098    17.084017    20.122715    20.842461    7165.1547    6067.6677     8823.566    7477.3958   -547.23976   -1959.0391   -1632.8248   -2627.0179 
10970000    254.00473   -3868.4707   -3433.1152   -3868.4707            0    7796.4762    17.084801    20.123639    20.843417    7166.1409    7326.8923    8341.6749    7720.8615   -86.549332    901.85894   -665.69172   -2618.2992 
10971000    253.77576   -3851.2552   -3416.2923   -3851.2552            0    5700.9229    17.154713    20.205986     20.92871    7254.4748     6073.966    5915.7084    5113.0941   -2034.6804     1012.762    3.5322955   -2813.1399 
10972000     261.3069   -3886.9874   -3439.1163   -3886.9874            0    6877.2586    17.159401    20.211508    20.934429    7260.4237    6662.9562    6568.4945    7400.3252    418.37407   -115.26536    48.079887   -2710.9121 
10973000    247.80001   -3843.0891   -3418.3683   -3843.0891            0    4272.9888    17.161697    20.214213    20.937231     7263.339    4095.9078    4273.8489    4449.2097   -338.84547    -15.27628   -1186.3398   -2965.7377 
10974000    262.13491   -3849.2803     -3399.99   -3849.2803            0    6488.1495    17.109802    20.153086    20.873918    7197.6463    4459.8508    6532.6178    8471.9799    495.25136    619.76076   -1403.7003   -2718.9271 
10975000    260.33162   -3866.3657   -3420.1662   -3866.3657            0    8650.7907    17.026247     20.05467    20.771982    7092.7133    7923.7005    9207.6529    8821.0188   -1389.8093    906.87603   -292.95542   -2525.3289 
10976000    279.77603   -3874.3304   -3394.8039   -3874.3304            0    6577.1384      17.0186    20.045663    20.762653    7083.1608    6301.5327    5366.2105    8063.6722    502.11333   -106.20265    458.20267   -2715.3813 
10977000    275.64225   -3817.7456   -3345.3042   -3817.7456            0    6187.5871    17.149925    20.200346    20.922868    7248.4014    6329.9055    6262.0324    5970.8235    939.27658    321.86453    213.91169   -2691.2112 
10978000    263.16264   -3842.8946   -3391.8428   -3842.8946            0     6519.604    17.133934    20.181511    20.903359    7228.1448     7430.577    4879.7183    7248.5166    2474.9371    472.40654    1386.9245   -2704.5783 
10979000    270.14684    -3858.469   -3395.4466    -3858.469            0    6985.6414    17.169993    20.223983    20.947351    7273.8763    7533.3597    6249.0627    7174.5018    59.818619    421.91597    728.02781   -2654.3956 
10980000    257.50028    -3816.886   -3375.5393    -3816.886            0    6191.5641    17.183679    20.240105    20.964049    7291.2851    6475.8793    5775.6603    6323.1528    1218.2403     1333.745    920.43051   -2717.1537 
10981000    265.50819   -3828.1808   -3373.1088   -3828.1808            0     7365.198    17.124158    20.169997    20.891433    7215.7802    7699.6142     7550.927     6845.053   -1.3009543    255.02368   -1527.1322    -2598.034 
10982000    262.00171   -3850.6882   -3401.6263   -3850.6882            0    6913.4467    17.115736    20.160077    20.881158    7205.1387    5857.9255    7472.1376    7410.2771   -1603.0333    679.40524   -1398.3261   -2675.1643 
10983000    255.57874   -3848.6802   -3410.6269   -3848.6802            0    7100.2918    17.067336    20.103068     20.82211     7144.187    9330.5438    6712.2748     5258.057   -1974.8165    879.08723   -563.04093    -2670.843 
10984000    267.24895   -3863.9186    -3405.863   -3863.9186            0    5789.0658    17.229366    20.293917    21.019786     7349.596     5354.198    5774.1176    6238.8818    524.89285   -93.383217   -596.71966   -2785.3544 
10985000    257.67642   -3890.9344   -3449.2858   -3890.9344            0    4571.4648    17.087926    20.127319    20.847229    7170.0739    4100.4776    4115.4649    5498.4519   -1004.8451     468.4981    316.33501   -2971.2561 
10986000    261.35561    -3861.886   -3413.9314    -3861.886            0    5380.9259    17.094856    20.135483    20.855685    7178.8016    5851.1469    3981.7766    6309.8541    102.52618    1346.4252   -543.28754   -2850.5729 
10987000    265.81564   -3879.9955   -3424.3966   -3879.9955            0    6064.3102    17.143666    20.192974    20.915233    7240.4688    5536.8326    5901.7258    6754.3722   -979.35679    412.65859    273.97409   -2784.0369 
10988000    260.39752   -3844.3645    -3398.052   -3844.3645            0    5136.7622    17.116564    20.161051    20.882168    7206.1837    5004.8661    4659.7634    5745.6569    675.75472    1144.0236   -596.38564    -2858.205 
10989000    262.35898   -3852.3622   -3402.6879   -3852.3622            0    5471.4523    17.173318      20.2279    20.951408    7278.1035    5441.0734    5698.7259    5274.5575   -1009.8926    572.40393    795.98882   -2821.9279 
10990000    261.64998   -3851.5107   -3403.0516   -3851.5107            0    6425.0452    17.070661    20.106984    20.826166    7148.3628    5931.6891    6894.0401    6449.4063   -598.04134    -107.7816    525.31684   -2733.2307 
10991000    255.21361   -3876.1886   -3438.7612   -3876.1886            0    5611.3754    17.055995    20.089709    20.808274    7129.9547    6828.4754    4669.8821    5335.7686   -1029.9708   -241.71946   -1098.0781   -2855.2731 
10992000    262.02686   -3856.4526   -3407.3476   -3856.4526            0    4931.4599    17.033325    20.063007    20.780616    7101.5617    4085.9323    5944.9864    4763.4608   -847.85141    819.66385    527.84311   -2896.6012 
10993000    277.09203   -3866.9513    -3392.025   -3866.9513            0    5517.9963    17.130532    20.177504    20.899209    7223.8401    6455.7787    6372.8144    3725.3958    1019.5229    2522.0652   -238.45909   -2810.6914 
10994000    269.87966     -3891.84   -3429.2755     -3891.84            0    6121.7699    17.141089    20.189938    20.912088    7237.2038    6567.6318    4658.3618    7139.3161   -28.367931   -830.01184    638.34549   -2783.1398 
10995000    268.64286   -3850.3829   -3389.9382   -3850.3829            0    5172.5564    17.152152    20.202969    20.925585     7251.226      5332.25    6174.2365    4011.1828   -1893.9373   -136.79101    639.00714   -2842.9316 
10996000    266.89811   -3853.7216   -3396.2674   -3853.7216            0    9754.7137    16.983603    20.004441    20.719956    7039.5527    10088.299    6871.6508    12304.191    46.993804    1623.8622   -16.309661   -2394.8031 
10997000    254.44494   -3871.8492   -3435.7393   -3871.8492            0    5764.5763    17.182275    20.238451    20.962336    7289.4978    5287.4818    5608.0959    6398.1513   -2519.0313   -483.51631    689.55403    -2822.908 
10998000    268.41778   -3851.7542   -3391.6953   -3851.7542            0    7821.3928    17.011925    20.037801    20.754509    7074.8299    9815.1511    5039.3894    8609.6378    823.65761   -1332.0972    146.84576   -2584.6908 
10999000    254.50122   -3867.5951   -3431.3888   -3867.5951            0    6971.1611    17.128118     20.17466    20.896264    7220.7867    6172.3672    5754.9749    8986.1412   -957.46213   -528.34926    1048.1735   -2697.2713 
11000000    266.83414   -3844.6203   -3387.2757   -3844.6203            0    7447.1242    17.137199    20.185357    20.907343    7232.2779    8153.5785    6563.5684    7624.2257   -728.45831    1223.4175    641.44791   -2601.7876 
Loop time of 536.608 on 64 procs for 250000 steps with 864 atoms

Performance: 80.506 ns/day, 0.298 hours/ns, 465.890 timesteps/s
98.9% CPU use with 64 MPI tasks x 1 OpenMP threads

MPI task timing breakdown:
Section |  min time  |  avg time  |  max time  |%varavg| %total
---------------------------------------------------------------
Pair    | 21.168     | 26.204     | 30.19      |  46.6 |  4.88
Bond    | 0.2695     | 0.28004    | 0.29568    |   0.9 |  0.05
Kspace  | 242.84     | 253.06     | 266.96     |  32.1 | 47.16
Neigh   | 6.0154     | 7.048      | 8.4903     |  24.0 |  1.31
Comm    | 105.94     | 117.31     | 127.64     |  49.0 | 21.86
Output  | 0.97861    | 0.97971    | 0.98636    |   0.1 |  0.18
Modify  | 122.26     | 124.81     | 128.87     |  13.9 | 23.26
Other   |            | 6.913      |            |       |  1.29

Nlocal:        13.5000 ave          18 max           8 min
Histogram: 1 1 1 6 11 13 12 7 8 4
Nghost:        2196.02 ave        2240 max        2143 min
Histogram: 1 3 5 7 13 10 7 8 4 6
Neighs:        4268.08 ave        5637 max        2097 min
Histogram: 2 0 1 4 10 15 10 11 5 6

Total # of neighbors = 273157
Ave neighs/atom = 316.15394
Ave special neighs/atom = 2.0000000
Neighbor list builds = 14247
Dangerous builds = 1

unfix		3
unfix		2
unfix		1

write_data	data.final.${pid}
write_data	data.final.0
System init for write_data ...
PPPM initialization ...
  extracting TIP4P info from pair style
  using 12-bit tables for long-range coulomb (../kspace.cpp:340)
  G vector (1/distance) = 0.37347572
  grid = 24 24 24
  stencil order = 5
  estimated absolute RMS force accuracy = 0.0032518381
  estimated relative force accuracy = 9.792814e-06
  using double precision FFTW3
  3d grid and FFT values/proc = 2535 216
Last active /omp style is kspace_style pppm/tip4p/omp
WARNING: Not all mixed pair coeffs generated from mixing. Use write_data with 'pair ij' option to store all pair coeffs. (../write_data.cpp:312)

write_restart   restart.lmp.${pid}
write_restart   restart.lmp.0
System init for write_restart ...
PPPM initialization ...
  extracting TIP4P info from pair style
  using 12-bit tables for long-range coulomb (../kspace.cpp:340)
  G vector (1/distance) = 0.37347572
  grid = 24 24 24
  stencil order = 5
  estimated absolute RMS force accuracy = 0.0032518381
  estimated relative force accuracy = 9.792814e-06
  using double precision FFTW3
  3d grid and FFT values/proc = 2535 216
Last active /omp style is kspace_style pppm/tip4p/omp
Total wall time: 0:09:01
