#include		in.partitions
include		in.temp
variable        temperature equal 83.45
variable	tempDamp equal 100.0
include		in.pressure
variable        pressure equal 1043.8
variable        pressureDamp equal 1000.0 # This is 1 ps
include		in.seed
variable        seed equal 745823

units		real
atom_style	full
box tilt large
read_restart	restart.lmp.${pid}
read_restart	restart.lmp.0
Reading restart file ...
  restart file = 30 Jul 2021, LAMMPS = 30 Jul 2021
  restoring atom style full from restart
  triclinic box = (-10.619474 -9.1685149 0.055838951) to (12.599474 12.158513 21.804160) with tilt (-9.0895992 1.9189331 2.8327492)
  4 by 4 by 4 MPI processor grid
  restoring pair style lj/cut/tip4p/long/omp from restart
  restoring bond style harmonic/omp from restart
  restoring angle style harmonic/omp from restart
  1296 atoms
  864 bonds
  432 angles
Finding 1-2 1-3 1-4 neighbors ...
  special bond factors lj:    0        0        0       
  special bond factors coul:  0        0        0       
     2 = max # of 1-2 neighbors
     1 = max # of 1-3 neighbors
     1 = max # of 1-4 neighbors
     2 = max # of special neighbors
  special bonds CPU = 0.005 seconds
  read_restart CPU = 0.013 seconds
include 	in.setup
variable	out_freq equal 1000
variable	out_freq2 equal 10000
variable	out_freq3 equal 1000

timestep	2.0

neigh_modify    delay 7 every 1

include		in.tip4p
# This is TIP4P/Ice

# create groups ###
group ox type 2
432 atoms in group ox
group hy type 1
864 atoms in group hy

# set charges - beside manually ###
set group ox charge -1.1794
Setting atom values ...
  432 settings made for charge
set group hy charge 0.5897
Setting atom values ...
  864 settings made for charge

# ### TIP3P Potential Parameters ###
pair_style lj/cut/tip4p/long/omp 2 1 1 1 0.1577 8.5
pair_coeff 1 1*2 0.000 0.000
pair_coeff 2 2 0.21084 3.1668
bond_style  harmonic
bond_coeff  1 450 0.9572
angle_style harmonic
angle_coeff 1 55 104.52
kspace_style pppm/tip4p/omp 1.0e-5
pair_modify tail yes

thermo          ${out_freq}
thermo          1000
thermo_style    custom step temp pe etotal epair emol press lx ly lz vol pxx pyy pzz pxy pxz pyz enthalpy

restart 	${out_freq3} restart.lmp.${pid} restart2.lmp.${pid}
restart 	1000 restart.lmp.${pid} restart2.lmp.${pid}
restart 	1000 restart.lmp.0 restart2.lmp.${pid}
restart 	1000 restart.lmp.0 restart2.lmp.0


include         in.dump
dump            myDump all atom ${out_freq2} dump.water.${pid}
dump            myDump all atom 10000 dump.water.${pid}
dump            myDump all atom 10000 dump.water.0
dump            myDump2 all dcd ${out_freq2} dump.dcd
dump            myDump2 all dcd 10000 dump.dcd
dump_modify     myDump append yes
dump_modify     myDump2 append yes


variable natoms 	equal  "count(all)"                        # NUMBER ATOMS
variable H      	equal  "enthalpy/v_natoms"                 # ENTHALPY-per-atom
variable Vol      	equal  "vol/v_natoms"                 # volume-per-atom
fix AVG all 		ave/time ${out_freq} 1 ${out_freq} v_Vol v_H file vol_enthalpy.dat
fix AVG all 		ave/time 1000 1 ${out_freq} v_Vol v_H file vol_enthalpy.dat
fix AVG all 		ave/time 1000 1 1000 v_Vol v_H file vol_enthalpy.dat


timer           timeout 10:00:00 every 1000
New timer settings: style=normal  mode=nosync  timeout=10:00:00

fix 		1 all shake 1e-6 200 0 b 1 a 1
       0 = # of size 2 clusters
       0 = # of size 3 clusters
       0 = # of size 4 clusters
     432 = # of frozen angles
  find clusters CPU = 0.001 seconds
fix             2 all nph tri ${pressure} ${pressure} ${pressureDamp}
fix             2 all nph tri 1043.8 ${pressure} ${pressureDamp}
fix             2 all nph tri 1043.8 1043.8 ${pressureDamp}
fix             2 all nph tri 1043.8 1043.8 1000
fix             3 all temp/csvr ${temperature} ${temperature} ${tempDamp} ${seed}
fix             3 all temp/csvr 83.45 ${temperature} ${tempDamp} ${seed}
fix             3 all temp/csvr 83.45 83.45 ${tempDamp} ${seed}
fix             3 all temp/csvr 83.45 83.45 100 ${seed}
fix             3 all temp/csvr 83.45 83.45 100 745823


run             250000
PPPM initialization ...
  extracting TIP4P info from pair style
  using 12-bit tables for long-range coulomb (../kspace.cpp:340)
  G vector (1/distance) = 0.36737734
  grid = 30 40 32
  stencil order = 5
  estimated absolute RMS force accuracy = 0.0045238756
  estimated relative force accuracy = 1.3623517e-05
  using double precision FFTW3
  3d grid and FFT values/proc = 5168 640
Last active /omp style is kspace_style pppm/tip4p/omp
Neighbor list info ...
  update every 1 steps, delay 7 steps, check yes
  max neighbors/atom: 2000, page size: 100000
  master list distance cutoff = 10.8154
  ghost atom cutoff = 10.8154
  binsize = 5.4077, bins = 7 5 5
  1 neighbor lists, perpetual/occasional/extra = 1 0 0
  (1) pair lj/cut/tip4p/long/omp, perpetual
      attributes: half, newton on, omp
      pair build: half/bin/newton/tri/omp
      stencil: half/bin/3d/tri
      bin: standard
Per MPI rank memory allocation (min/avg/max) = 9.436 | 9.441 | 9.446 Mbytes
Step Temp PotEng TotEng E_pair E_mol Press Lx Ly Lz Volume Pxx Pyy Pzz Pxy Pxz Pyz Enthalpy 
 4250000    84.985935   -6796.7585   -6578.1374   -6796.7585            0     1466.254    23.218949    21.327028    21.748321    10769.576    1507.8968    2092.0556    798.80944    -395.5076   -528.62658    -273.9819   -6347.8428 
 4251000    83.070088   -6803.6994   -6590.0067   -6803.6994            0    120.72168    23.159314    21.440151    21.820417    10834.692    597.02181    6.3527171   -241.20949   -211.60359   -291.40005   -287.08363   -6570.9311 
 4252000    84.536429   -6803.5037   -6586.0389   -6803.5037            0     1706.796    23.196724    21.289622    21.790923    10761.436    1993.3569    1921.2646    1205.7664    264.92928   -577.20118    137.85847   -6318.1666 
 4253000    83.156424   -6804.0625   -6590.1476   -6804.0625            0    876.56016    23.188635    21.393597    21.753941    10791.876    1513.9219    1089.4579    26.300661   -233.84012    56.586131   -316.07633   -6452.1872 
 4254000    81.908429   -6809.7981   -6599.0936   -6809.7981            0    1231.5864    23.205261     21.31565    21.795882    10781.011    1243.5459    1239.8908    1211.3226   -442.33891     356.6624   -254.82432   -6405.4513 
 4255000    84.057805   -6809.6495   -6593.4159   -6809.6495            0    658.88499    23.204098    21.402395    21.782684    10817.788    830.96915     614.4919    531.19393   -337.09772    302.67417   -736.01152    -6489.466 
 4256000    83.987261    -6799.482   -6583.4299    -6799.482            0    1034.9862    23.247077    21.349003    21.758437    10798.754    377.65421    1500.7693    1226.5351    789.43982   -69.404379   -344.46545   -6420.4312 
 4257000    82.332612   -6807.0736    -6595.278   -6807.0736            0    953.34432    23.202743     21.36618    21.766856    10791.006    1665.0762    1039.4193    155.53749   -363.96019    -451.9818    73.699397   -6445.2447 
 4258000    84.132959   -6801.4809    -6585.054   -6801.4809            0    711.24437    23.167681    21.337917    21.845115    10799.134    1353.9023    485.02964    294.80114   -760.30156    233.00219    557.64047   -6473.0371 
 4259000     86.16887   -6796.3399   -6574.6757   -6796.3399            0    1483.9941    23.157828    21.344766    21.784777    10768.181    2038.8603     1775.477    637.64499    302.24292   -212.64028    411.17665    -6341.625 
 4260000    89.173115     -6814.65   -6585.2576     -6814.65            0    813.60342       23.201    21.336222     21.76899    10776.122    1759.6485    1030.3097   -349.14796   -226.01883    -689.4679   -160.70092   -6457.3928 
 4261000    85.609995   -6808.4113   -6588.1848   -6808.4113            0    1755.8914    23.281758    21.259734    21.707572    10744.466    2127.8372    1367.7357    1772.1013   -667.03383    115.91518    628.18648   -6313.0419 
 4262000     84.01969   -6790.5716   -6574.4361   -6790.5716            0    859.26352    23.169546    21.463477     21.73094    10806.775     1578.441    196.42468    802.92489    -460.3065    180.99533   -14.516469   -6439.0112 
 4263000    84.488469   -6798.9687   -6581.6273   -6798.9687            0    353.61309    23.290993     21.35236    21.750839    10817.076    395.73109    636.83591    28.272272    452.03546   -200.87353    300.82055   -6525.8427 
 4264000    82.730698   -6812.1534   -6599.3337   -6812.1534            0    1883.6567    23.170244    21.394437    21.677231    10745.714    1845.7133    2059.6706     1745.586   -149.08253   -198.18792   -612.06483    -6304.136 
 4265000     86.25903    -6809.077   -6587.1809    -6809.077            0    960.88958    23.262911      21.3371    21.736727    10789.308     1206.645    1402.7737    273.24997    -452.9314   -335.66116   -508.37427    -6435.984 
 4266000    82.017854    -6801.048   -6590.0621    -6801.048            0    2073.2481    23.205737    21.391036    21.633265    10738.639    2176.1067    1735.0906     2308.547    -203.2774   -406.19671    1.2304554   -6265.3664 
 4267000    81.883931   -6798.4082   -6587.7668   -6798.4082            0    929.52243    23.245241    21.410572    21.676504    10788.264     1205.298    894.76464    688.50469   -153.23222    -540.3766   -62.448634   -6441.5197 
 4268000    81.971435   -6811.3173   -6600.4507   -6811.3173            0    1140.2935    23.253259    21.378673    21.679246    10777.269    480.45636     1765.473    1174.9511    -516.7484   -310.95765    398.78746   -6421.2246 
 4269000    84.379606   -6809.2879   -6592.2265   -6809.2879            0    620.12382    23.263737    21.355507    21.726721    10794.028     478.5477    1097.1532    284.67061    456.03234   -125.39921    286.37527   -6494.6067 
 4270000    83.332551   -6809.7118   -6595.3439   -6809.7118            0    1380.0488    23.242045    21.345564    21.685613    10758.548    1302.2062    1122.1863    1715.7539   -530.98428   -209.36153    803.86916   -6378.8109 
 4271000    83.419284   -6814.5092   -6599.9181   -6814.5092            0    989.67169    23.195347    21.458103    21.641251     10771.46    902.49072    363.65367    1702.8707   -990.56866    366.08442    540.33725   -6444.4499 
 4272000    85.147583   -6806.6922   -6587.6552   -6806.6922            0    612.61064    23.370194    21.363772    21.650013    10809.321    520.32874    680.85588    636.64729     97.37899   -649.61117   -292.62548   -6491.0815 
 4273000    85.801739   -6815.5492   -6594.8294   -6815.5492            0    1109.9744    23.262769    21.475741    21.587483    10784.787    745.87781    905.64911    1678.3964   -17.994466    306.93258   -1068.2921    -6420.247 
 4274000    87.635625   -6791.7957   -6566.3584   -6791.7957            0    1299.1677    23.304517    21.330968    21.682954    10778.768    1141.1518    1645.9209    1110.4304    87.257936   -51.882601    114.92037   -6362.1327 
 4275000    85.369458    -6795.334   -6575.7263    -6795.334            0    1359.0866    23.184416    21.414207    21.701582    10774.312    2181.0377     785.7754    1110.4466     3.072783    202.83344    181.92532   -6362.1699 
 4276000    85.178332   -6796.9736   -6577.8576   -6796.9736            0    1228.0832    23.278418    21.308683    21.753778    10790.579    1165.6116    2090.6111    428.02704    782.59903     404.3199    -29.17857   -6384.5947 
 4277000    83.628797   -6797.8345   -6582.7046   -6797.8345            0    980.35057    23.220042    21.391304    21.722466    10789.701    1573.5937    502.86519    864.59284   -72.896695   -35.511888    763.04005   -6428.4398 
 4278000    81.745498   -6807.7333   -6597.4479   -6807.7333            0    1473.6461    23.210567    21.305545    21.715994    10738.859    1079.9827    1307.8725    2033.0832   -131.40515   -356.87002    1054.0142   -6366.6525 
 4279000    84.586892   -6815.3302   -6597.7355   -6815.3302            0     843.5405      23.2426    21.394462    21.677466      10779.4    515.11818    1093.1074    922.39586    810.45218   -277.02561    428.05225   -6465.1255 
 4280000    86.173419   -6796.9836   -6575.3077   -6796.9836            0     1583.104    23.230586    21.333505    21.718167    10763.302    2202.8964    1479.3109    1067.1048   -396.03894   -332.93359    34.867552   -6326.8052 
 4281000    85.908047   -6800.7721   -6579.7788   -6800.7721            0    1142.1043    23.266788    21.380964    21.693444    10791.758     380.0037    1444.7718    1601.5374    234.13571    72.651831   -124.44994   -6400.0268 
 4282000     84.67467   -6797.3418   -6579.5214   -6797.3418            0    841.29759    23.219762    21.438063    21.692526    10798.252    850.16279   -40.591222    1714.3212    70.167789   -215.29495   -51.769904   -6447.0327 
 4283000    82.339264   -6800.6567    -6588.844   -6800.6567            0    1279.4103    23.260268     21.31739    21.745163      10782.3    1089.6796    1519.5908    1228.9606    -214.1477    447.99469   -978.36428   -6387.6583 
 4284000    84.169567   -6809.5507   -6593.0296   -6809.5507            0     987.2675    23.126231    21.440949    21.755694    10787.525    1206.7464    1332.4795    422.57653    34.671312    506.06946    56.745207   -6437.7078 
 4285000    83.158297   -6811.5625   -6597.6428   -6811.5625            0    1042.9548    23.294282    21.298898    21.733763    10783.044    922.49335    1259.1451    947.22603    -416.6965    16.799537     92.62814   -6433.6281 
 4286000    81.480785    -6804.441   -6594.8367    -6804.441            0    687.84275     23.13663     21.48892     21.72048    10799.014    899.04935     964.9967    199.48218    -400.9956    840.91052   -624.24174   -6486.5066 
 4287000    85.059604   -6804.4346    -6585.624   -6804.4346            0    1669.5353    23.335675    21.154737    21.796359    10759.992    1880.6726    2411.8213    716.11188    342.99978   -662.62805    656.46868   -6323.6348 
 4288000    83.726942    -6806.188   -6590.8055    -6806.188            0    1033.7752    23.149914    21.457012    21.698198    10778.102    1072.8288    695.22776     1333.269   -96.388968    355.96894    523.08347   -6428.3089 
 4289000    83.099493   -6801.4199   -6587.6516   -6801.4199            0    967.34814    23.329447    21.279448    21.729238    10787.214    327.79474    1681.4746    892.77511   -439.35689    105.43228    210.83633   -6435.4679 
 4290000    82.629322   -6806.5933   -6594.0344   -6806.5933            0    864.73859    23.076509    21.557146    21.678659    10784.345    2089.6107   -294.38304    798.98811   -368.23418   -1037.7119    -37.75045   -6458.0296 
 4291000    81.625168   -6805.4539   -6595.4781   -6805.4539            0    879.85541    23.288475    21.336911    21.700844    10783.239    512.44643    1083.5455    1043.5743   -76.004166   -53.775902    180.91868   -6457.1099 
 4292000    85.095407   -6810.1915   -6591.2887   -6810.1915            0    787.37141    23.204062    21.468496     21.65213    10786.145    725.03253    362.61263    1274.4691   -187.81987    45.965585    478.17296   -6467.4314 
 4293000    84.265787   -6800.5234   -6583.7548   -6800.5234            0    1234.7154    23.313324     21.34271    21.670889    10782.774    970.05134    1105.6322    1628.4626   -201.19338    319.64975    131.19634   -6389.5887 
 4294000    84.480937    -6804.078    -6586.756    -6804.078            0    830.76353    23.277335    21.441173    21.623353    10792.072    781.05425    743.09163    968.14472   -266.58007    49.917153    -200.1522    -6456.001 
 4295000    78.946374   -6814.4935   -6611.4088   -6814.4935            0    413.45796    23.393482    21.357744    21.594047    10789.077    -479.9959    713.42652    1006.9433   -168.10253    78.252698   -635.42593   -6546.3521 
 4296000    85.251161   -6804.3932   -6585.0898   -6804.3932            0    1140.1058    23.226346    21.438404    21.643719    10777.182    1096.7668      582.002    1741.5484   -332.13891    211.64206    25.645142   -6405.8946 
 4297000    78.783577    -6800.549    -6597.883    -6800.549            0    1257.8733    23.261901    21.294524     21.75498    10776.354     1500.691    977.79643    1295.1325   -73.752993   -515.51121     622.9208   -6400.1931 
 4298000    84.951066   -6798.1945    -6579.663   -6798.1945            0    1542.0017    23.135174     21.40685    21.733457    10763.521    2086.5204      2013.25    526.23487     1018.225   -1077.5928   -81.585953   -6337.6074 
 4299000    85.163072   -6801.6993   -6582.6225   -6801.6993            0    728.46747    23.301459    21.333104    21.732175      10802.9    982.01119    489.96414     713.4271     578.0311   -515.94357    664.14466    -6467.853 
 4300000    84.479809   -6803.8235   -6586.5043   -6803.8235            0     2180.572    23.137541    21.409071    21.640708    10719.796    2495.2675    1866.8782    2179.5704    279.70031   -284.44129   -68.654525   -6245.5997 
 4301000    81.283012   -6789.0603   -6579.9647   -6789.0603            0    1333.9603    23.230382    21.347169     21.69955     10760.87    1082.9708    1265.4088    1653.5013   -512.21625    382.80799    153.30229    -6370.618 
 4302000      80.0484   -6801.0731   -6595.1535   -6801.0731            0    654.05581    23.249613     21.34089    21.778418    10805.742    267.35311    678.99606    1015.8182    431.51645    711.32543    224.32024   -6492.0804 
 4303000    82.985668   -6808.9353   -6595.4598   -6808.9353            0    1169.1116    23.207419    21.393185    21.742662     10794.81     1111.859    1202.0032    1193.4728    193.55526     525.5155   -576.83735   -6411.4051 
 4304000    86.576707   -6806.8166   -6584.1033   -6806.8166            0     1017.476    23.268003    21.284539     21.79465    10793.773    1160.7408    1158.2004    733.48692    169.99159    152.34825    281.00009   -6423.9361 
 4305000    85.775779   -6806.1396   -6585.4867   -6806.1396            0     2250.731    23.137651    21.388836    21.681118    10729.712     3003.322    1740.6623    2008.2088    73.209641   -375.93371   -738.74431   -6233.2881 
 4306000    83.558665   -6791.9899   -6577.0404   -6791.9899            0     706.0893    23.312738    21.378341    21.694825    10812.433    982.10943   -128.44795    1264.6064   -263.49812   -472.73118    378.32678   -6465.6984 
 4307000    83.674951   -6803.0222   -6587.7735   -6803.0222            0    1221.0832     23.25475    21.434916    21.649006    10791.242    532.98794    1890.7939    1239.4678   -50.562825    418.19412    -861.5496   -6395.6004 
 4308000    82.968858   -6804.2879   -6590.8556   -6804.2879            0    920.07302     23.28757    21.334765    21.702139    10782.379    564.21599    1859.8763    336.12674    235.82963   -28.033379   -689.61611   -6446.1742 
 4309000    82.324275    -6798.149   -6586.3748    -6798.149            0    783.02533    23.216655     21.39394    21.718254    10787.364    897.96718    561.53051    889.57831   -34.514041    129.71611    150.55668   -6463.1872 
 4310000    82.028006   -6814.1974   -6603.1853   -6814.1974            0    734.84772    23.233999    21.334943    21.783845    10798.166    1507.5865    524.82607    172.13062   -584.77053   -534.21583    232.69062   -6487.4614 
 4311000    82.008993   -6800.0024   -6589.0392   -6800.0024            0    1618.6739      23.1724    21.337992    21.760016    10759.294    1618.2152    2068.7397    1169.0668    183.92248   -550.34759    318.31124   -6335.0478 
 4312000     85.11213   -6803.2864   -6584.3407   -6803.2864            0    822.01828    23.232179    21.363731    21.722824    10781.603    1166.1192    672.64799    627.28761    640.90402    -194.6656   -50.346373   -6455.0876 
 4313000    85.254428   -6790.6054   -6571.2936   -6790.6054            0    600.03148    23.246406    21.388856    21.744928    10811.883    1297.3922    590.41421   -87.711993   -213.89258   -1400.6703   -398.16174   -6476.6805 
 4314000    82.172458   -6804.4713   -6593.0876   -6804.4713            0    839.04384    23.218279     21.42716      21.7128    10802.157    1190.5336    1255.0037    71.594271   -433.89904   -83.395667   -166.24453    -6460.906 
 4315000     81.98605    -6817.904   -6606.9999    -6817.904            0     837.0208    23.269827    21.337459    21.736138    10792.405    829.90324    709.57893    971.58022   -198.80664   -204.89828   -316.04658    -6475.256 
 4316000    86.813397   -6800.3664   -6577.0442   -6800.3664            0    1328.3051    23.120536    21.461178    21.724333    10779.482    2517.0075    138.35541    1329.5523   -436.28217   -167.02899     783.2499   -6368.2244 
 4317000    83.506121   -6817.4376   -6602.6231   -6817.4376            0    1529.2254    23.273727    21.252695    21.735696    10751.114    1777.6381    1515.9775    1294.0604   -384.26201    218.49177    61.881798   -6362.8498 
 4318000    81.188313   -6806.0186   -6597.1666   -6806.0186            0    206.22014    23.164521    21.499047    21.716066     10814.93    938.57991   -310.17466   -9.7448173     253.9331   -772.53249    248.90187   -6564.6406 
 4319000    80.038489   -6812.2467   -6606.3525   -6812.2467            0    1061.6733    23.345309    21.295009    21.694488    10785.167    286.39237    1768.2977    1130.3298   -564.86153    109.21649   -588.06692   -6439.3613 
 4320000    84.799378    -6811.883   -6593.7418    -6811.883            0     629.4744    23.220263    21.462712    21.676927    10803.126    19.231511    1225.3475    643.84419    319.30676   -247.45259   -275.63038   -6494.5665 
 4321000    82.342216   -6797.1797   -6585.3594   -6797.1797            0    1459.6547    23.296053    21.302592    21.690724    10764.376    1649.7673    2153.4825    575.71432   -197.44463   -418.57907   -774.38665    -6356.212 
 4322000    85.569486   -6789.2639   -6569.1416   -6789.2639            0    1278.6698    23.214661    21.386166    21.713668    10780.241    1598.5579    1799.9179    437.53355   -445.80492    49.058882    16.010161   -6368.1107 
 4323000    83.779663   -6816.4376   -6600.9195   -6816.4376            0    945.15042    23.276551      21.3248     21.72685    10784.508    803.63804    1368.2409    663.57229   -736.58084    769.43698    87.945423   -6452.2653 
 4324000    84.114336   -6806.6714   -6590.2924   -6806.6714            0    569.31738    23.240193    21.421639    21.711778    10809.057    388.83146     489.5396    829.58108   -703.69247    679.06867    80.603211   -6500.5457 
 4325000    84.013511   -6805.7664   -6589.6467   -6805.7664            0    1093.9029    23.235744    21.341796    21.739008    10780.212       934.11    1747.8889    599.70981    824.40733   -23.423756   -174.70465   -6417.6652 
 4326000    83.162897   -6805.0025    -6591.071   -6805.0025            0    1448.3716    23.244998    21.348412    21.700497    10768.737    1659.7708    1367.5654    1317.7786    47.767461   -432.66079   -755.50075   -6363.6028 
 4327000    82.376898   -6808.6032   -6596.6936   -6808.6032            0    854.98597    23.214242     21.40848    21.723996    10796.427    701.04744    1141.8842    722.02629    5.0920979    92.318712   -304.34447    -6462.072 
 4328000    84.618992   -6793.4832    -6575.806   -6793.4832            0    1404.8735    23.258067    21.329285    21.733792    10781.655    1670.0188     1016.804    1527.7976   -140.65004   -14.637355   -449.76632   -6354.9046 
 4329000    82.181083   -6809.2633   -6597.8575   -6809.2633            0    260.76808    23.197821     21.40934    21.775141    10814.624    1256.2406    369.70217   -843.63855    -146.5062   -206.57018   -859.32903   -6556.7291 
 4330000    84.294474   -6796.1616   -6579.3192   -6796.1616            0    1077.8055    23.232289    21.344156    21.741585    10781.078    1434.1701    1321.2655    477.98097   -157.42412   -303.25264    -285.2614   -6409.8548 
 4331000    84.353658   -6812.1475   -6595.1529   -6812.1475            0    1136.9023    23.210548    21.265353    21.828384    10774.065    1863.3187    1963.0288   -415.64049    1029.9215    253.49152     378.1738   -6416.5129 
 4332000    84.256625   -6810.5886   -6593.8436   -6810.5886            0    1462.8979    23.189577    21.333554    21.777241    10773.552    1546.7542     1517.724    1324.2155   -229.87928      197.844    -57.75386   -6363.9913 
 4333000    83.699755   -6806.0023   -6590.6898   -6806.0023            0    1263.8709    23.245716    21.306486    21.771247    10782.962    946.78698    2248.5529    596.27269   -419.08799    486.09196   -711.75311   -6391.9355 
 4334000    86.092061    -6793.243   -6571.7764    -6793.243            0      533.543    23.174161    21.429226    21.757554    10804.896    342.85566    99.997233    1157.7761    254.72987    131.15231    358.10407   -6487.7016 
 4335000    82.093584   -6802.6111   -6591.4304   -6802.6111            0     1834.446     23.21855    21.303925    21.760719    10763.858    1871.0253    1702.9089    1929.4038    183.72745   -584.67523   -368.80681   -6303.4593 
 4336000    83.057976   -6809.3007   -6595.6391   -6809.3007            0    337.56385    23.210885    21.421981    21.758879    10819.018    928.39529   -210.48266    294.77892   -39.858014   -439.94472   -167.71333   -6542.3769 
 4337000    78.684363   -6800.9026   -6598.4918   -6800.9026            0    1244.8103    23.212933     21.41208     21.68601    10778.753    1726.6013    862.51969      1145.31   -169.08688   -91.711379   -337.21741   -6402.8113 
 4338000    83.432721   -6802.8316    -6588.206   -6802.8316            0    1249.0008    23.247192    21.351057    21.704657    10773.153    1523.7799    1219.3556    1003.8669   -250.61474   -429.82399    214.78624   -6391.9688 
 4339000    81.661339   -6815.5952   -6605.5263   -6815.5952            0    317.26246    23.143011    21.460152    21.751155    10802.766     917.2844   -143.54465    178.04763     111.6371   -761.63538    430.40259   -6555.5425 
 4340000    84.945676    -6813.582   -6595.0645    -6813.582            0    1449.2008    23.287815    21.223737    21.763507     10756.71      1053.41    2288.0285    1006.1637    251.75315    81.751716     476.3421   -6367.7202 
 4341000    84.329855   -6819.5966   -6602.6632   -6819.5966            0    1062.1407    23.166976    21.441533    21.688536    10773.465    1381.0043    534.85196    1270.5657    378.80653    28.036521     890.4332   -6435.7797 
 4342000    82.253959   -6799.6145   -6588.0212   -6799.6145            0    1429.8332    23.379268    21.247017     21.69609    10777.309     909.2132    1644.7006    1735.5857   -618.94688    -157.4199   -5.8218622   -6363.2857 
 4343000    82.516592   -6802.8934   -6590.6245   -6802.8934            0    1447.3263    23.142074    21.467765    21.671847     10766.76    3014.9398    451.86568    875.17334   -96.767179   -423.11365    172.46854   -6363.3622 
 4344000    83.172098   -6800.1498   -6586.1946   -6800.1498            0     1078.396      23.3058    21.328291    21.701704    10787.328    1030.7858    1526.5453    677.85693   -261.74269   -167.00828   -969.55083   -6416.5391 
 4345000    81.789754   -6812.8806   -6602.4815   -6812.8806            0    1360.2337    23.195088    21.475139    21.616463    10767.544    1688.5324    109.57391    2282.5948   -327.95932    183.50066    103.45781   -6388.8791 
 4346000    85.418717   -6802.7787   -6583.0443   -6802.7787            0    646.26786    23.299603    21.356959    21.706661    10801.423    384.94303    829.96906     723.8915    34.509517    224.17196   -221.30545   -6481.2392 
 4347000    82.295676   -6803.0931   -6591.3924   -6803.0931            0    1069.4813    23.223527    21.368576    21.722965    10780.102    1408.2892    1016.1135    784.04101    272.24327    597.58636    79.722601   -6423.2521 
 4348000    80.127675   -6810.8037   -6604.6801   -6810.8037            0    1006.7737    23.261283    21.296341    21.744096    10771.595     1241.621    1606.0156    172.68461    439.50322   -53.617906    371.67966   -6446.5234 
 4349000    84.881316   -6805.3073   -6586.9552   -6805.3073            0    1347.8324    23.225044    21.380704    21.688078    10769.601    1176.8764    1191.5757    1675.0452    333.31504    463.57619    685.63849   -6375.2598 
 4350000    83.630837   -6812.4511   -6597.3159   -6812.4511            0    322.65359     23.29121    21.431091    21.672666    10818.042    310.10433    523.58302     134.2734    283.51038    -59.62949   -848.46981   -6546.4108 
 4351000    81.449724   -6811.7039   -6602.1794   -6811.7039            0    1382.4311    23.267928    21.388349     21.66573    10782.223    1097.9583    1552.2155    1497.1195   -217.45264   -96.166468   -24.803464   -6384.7954 
 4352000    83.384455   -6804.7206   -6590.2191   -6804.7206            0    1679.4515    23.165744    21.326283    21.781938    10761.132    2454.5813     1469.731    1114.0422   -636.00071    59.170169    190.70307   -6326.6459 
 4353000    85.947333   -6802.6139   -6581.5197   -6802.6139            0     1018.817    23.200003    21.339046    21.781228    10783.143    1447.6117    1493.5001    115.33906    -256.7831    708.09989    231.92634   -6421.2994 
 4354000    84.595079    -6805.706   -6588.0903    -6805.706            0    667.54491    23.241053    21.396958    21.754888    10818.441    1075.7699    359.71571    567.14911    428.79793    265.34883   -211.10614   -6482.7679 
 4355000    85.877052   -6805.7995    -6584.886   -6805.7995            0    1132.7647    23.251629    21.375889    21.712051    10791.416    864.05086    1306.7171     1227.526    426.74763   -410.56346   -61.299921   -6406.6095 
 4356000    80.866255   -6807.0943   -6599.0708   -6807.0943            0    753.74658    23.201115    21.444902    21.718197    10805.794     1382.484    104.04416    774.71154    411.74268   -843.16918   -575.53047   -6480.2868 
 4357000    82.599096   -6806.1775   -6593.6963   -6806.1775            0     1201.074    23.298688    21.340708    21.675903    10777.486    1048.0851    1313.3053    1241.8315   -254.71905   -696.18732   -651.00641   -6404.9132 
 4358000    81.745951   -6804.4404   -6594.1539   -6804.4404            0    699.47284    23.181621    21.462509    21.743467    10818.152    612.04113    488.09178    998.28561    425.93147    335.50417   -226.62351   -6483.7969 
 4359000     82.33272   -6807.6864   -6595.8905   -6807.6864            0    973.73142    23.283306    21.299165    21.768131    10795.142    1285.8883    1520.4847    114.82123    84.179628   -16.669293   -440.13456   -6442.5901 
 4360000    81.930854   -6808.1139   -6597.3518   -6808.1139            0    1515.0489    23.094693    21.436694    21.725271    10755.614    1697.2329    1356.0352    1491.8787   -313.25857    981.60062     31.95408   -6359.7019 
 4361000    83.491686   -6804.6843    -6589.907   -6804.6843            0    418.54503    23.299726    21.354916      21.7336     10813.85    78.729051    475.50502    701.40102    -662.8007    599.45645   -127.64861   -6523.8987 
 4362000     84.60743   -6806.1275   -6588.4801   -6806.1275            0    1530.6304    23.217289    21.389219    21.689564    10771.031    991.17864    2100.0991    1500.6134    790.77742    415.09367    193.38084   -6348.0419 
 4363000    85.533699   -6807.3072    -6587.277   -6807.3072            0     726.2293      23.3559    21.299319    21.704385    10797.167    664.56229    875.66775    638.45787    425.55241   -556.42273    206.33742   -6472.9209 
 4364000    86.634534   -6806.9757   -6584.1136   -6806.9757            0    713.87868    23.225593    21.384196    21.724021    10789.466    941.94367    688.08222    511.61016      1234.87   -189.91546    317.25454   -6471.7825 
 4365000    82.090529   -6797.7374   -6586.5646   -6797.7374            0    1140.4661    23.245224    21.385338    21.690997    10782.746    1130.2309       1101.6    1189.5675    -133.9124    -212.1538   -568.67414   -6407.2202 
 4366000    78.273121   -6805.4008    -6604.048   -6805.4008            0    1134.7408    23.275941    21.364528    21.680546    10781.291     733.3048    1010.3035    1660.6141  -0.94210309    725.35535    11.397612   -6425.6281 
 4367000    78.776407   -6816.4205    -6613.773   -6816.4205            0    958.82179    23.219456    21.438736    21.650826     10777.69    1078.2658    122.02951    1676.1701    307.46032    14.221772   -279.80257   -6463.0638 
 4368000    80.855341   -6806.5035   -6598.5081   -6806.5035            0    1112.2396    23.315912    21.300081    21.681555    10767.728   -119.06562    2407.7927    1047.9917    88.108398    153.13589   -463.69909   -6423.8461 
 4369000    85.946006   -6817.2368   -6596.1459   -6817.2368            0    1202.8693    23.193289     21.42047    21.666555    10764.186    1195.7344    2122.2275    290.64608    235.79513    84.323591   -607.84971    -6407.314 
 4370000    79.896355   -6799.4471   -6593.9186   -6799.4471            0    674.58161    23.308545    21.350886    21.706292    10802.312    515.61839    1154.5975    353.52898   -478.13322    260.46417    129.05855   -6487.6446 
 4371000    79.492765   -6796.4258   -6591.9355   -6796.4258            0    2585.4638    23.127545    21.429192    21.631325    10720.584    2632.9942     3034.523    2088.8741    29.116783    1.5188524   -173.12585   -6187.7015 
 4372000    86.196791   -6800.3805   -6578.6445   -6800.3805            0   -78.721271    23.381655    21.335155     21.71089    10830.504   -560.96707   -361.69792    686.50117    646.49114   -106.83388    770.27512   -6591.0787 
 4373000    80.228696    -6798.666   -6592.2825    -6798.666            0    1861.6764    23.158872    21.472828    21.604991     10743.87    1983.6509    1585.5243    2015.8541    350.61061   -467.39308   -24.488295   -6300.5796 
 4374000    82.911852   -6800.9431   -6587.6574   -6800.9431            0     811.4853     23.36725     21.32277    21.644732    10784.585    683.21483     986.7198    764.52128   -865.51448    382.08585   -456.67777   -6460.0253 
 4375000    84.119971   -6797.1521   -6580.7586   -6797.1521            0    1455.9816    23.185697    21.503079    21.593772    10765.875    1741.5774    633.14175    1993.2256   -256.50474    143.25763   -133.89107   -6352.1561 
 4376000    82.298397   -6803.3478   -6591.6402   -6803.3478            0    1284.2731    23.327973    21.286263    21.697269    10774.112    749.56984     1931.262    1171.9875    729.32159    -103.5353   -569.01567   -6389.8432 
 4377000    84.470065   -6810.9958   -6593.7017   -6810.9958            0     701.0105    23.185436    21.451777    21.710764    10798.257    507.57693    898.69172    696.76285     112.2136    -59.89592    631.21903   -6483.3055 
 4378000    82.841764   -6802.7642   -6589.6588   -6802.7642            0    1501.3797    23.266724    21.320697    21.710592    10769.817    1770.4252    1711.3112    1022.4028    10.460454   -879.40504    457.92055    -6353.842 
 4379000    82.715394   -6789.6292   -6576.8489   -6789.6292            0    1497.4767    23.222515    21.383873    21.691823    10771.884    1260.6407    1660.5623    1571.2272    205.64259   -127.97821    237.17671      -6341.6 
 4380000    78.738974   -6809.5723   -6607.0211   -6809.5723            0     1248.067    23.197764    21.355629    21.715646    10757.993    1783.3991    881.39062    1079.4112   -507.35165   -207.83564    451.57283   -6411.2065 
 4381000    81.070506   -6813.4188   -6604.8698   -6813.4188            0    708.13279    23.259533    21.333986    21.780541    10807.908    935.53658    1080.3999    108.46188   -395.18013    88.144218    337.82366   -6493.2523 
 4382000    86.108869   -6800.4655   -6578.9557   -6800.4655            0    1752.5243    23.153423    21.422729    21.682735    10754.843    2119.3345    1073.7749    2064.4635   -921.24887    311.00075    489.90741   -6304.0751 
 4383000    82.964317     -6798.94   -6585.5193     -6798.94            0    969.70102    23.283688     21.30487    21.723621    10776.132    1172.6789    694.11379    1042.3103    -866.5196    267.22123    360.89256   -6433.1222 
 4384000    79.473719   -6806.5481   -6602.1068   -6806.5481            0     811.6137    23.142907    21.476452    21.741302    10806.025    1238.4751    927.32837    269.03765    552.45515   -144.35099   -367.62834   -6474.2007 
 4385000    77.522773   -6801.8222   -6602.3996   -6801.8222            0    156.69491     23.34602    21.310765    21.787044    10839.524    -288.7702    832.09944   -73.244529    131.73525   -422.79487   -318.35847   -6577.6288 
 4386000    84.827459   -6799.4502   -6581.2367   -6799.4502            0     1069.316    23.073627    21.509872    21.736577    10788.097    2063.3922    166.54405    978.01191    991.74624   -645.25336    120.79535   -6412.9976 
 4387000    80.107472   -6800.1308   -6594.0592   -6800.1308            0    665.47685    23.346277    21.257368    21.774073    10806.046    38.306617    1084.7559    873.36809    34.473908   -474.31328    8.0862936   -6489.1834 
 4388000    85.406825   -6821.9843   -6602.2805   -6821.9843            0    1329.9769    23.135551    21.417387    21.706248    10755.512    1471.4739    1313.8541    1204.6026   -150.14162    305.37986   -531.23152   -6393.6628 
 4389000    83.787905   -6811.5521   -6596.0128   -6811.5521            0    1233.1632    23.286641    21.239296    21.783807    10774.094    1298.7248     1230.308    1170.4568    600.97188   -277.42147    206.52361    -6402.247 
 4390000    82.660351    -6804.714   -6592.0753    -6804.714            0    300.81765    23.185003    21.394082    21.801767    10814.153    368.93236    940.81481    -407.2942   -604.02953    443.48136   -951.78504   -6544.6324 
 4391000    79.892828    -6803.749   -6598.2295    -6803.749            0    614.89546    23.234327    21.440984    21.695583     10808.02    166.13378    365.39613    1313.1565    414.49542   -366.99568    202.16518   -6501.3073 
 4392000    83.419055    -6806.497   -6591.9066    -6806.497            0    1407.5554    23.295041     21.33663     21.67804    10774.803     827.7109    1074.6266    2320.3288    199.32844   -88.711232    212.83505   -6370.7241 
 4393000    80.602767   -6796.6627    -6589.317   -6796.6627            0    1112.7332    23.116964    21.508573    21.680447    10779.798    2160.6713     730.4904    447.03798     -57.8751   -279.10155    -471.2136   -6414.3816 
 4394000    83.601755   -6809.0698   -6594.0094   -6809.0698            0    998.55645    23.289658    21.304241    21.727934    10780.716    640.28746    1485.4936    869.88829    66.925305    110.43317    71.096009   -6437.0107 
 4395000    87.388317   -6802.1927   -6577.3916   -6802.1927            0    891.97375    23.077818    21.539574    21.707268    10790.387    2024.8368    385.03552    266.04889   -401.22832    348.65596    263.91688   -6437.0246 
 4396000    84.591116   -6814.9222   -6597.3167   -6814.9222            0    791.14879    23.365246     21.22099    21.749602    10784.185    607.86575    1939.1897   -173.60912   -425.75529   -327.30314   -158.13325   -6472.8878 
 4397000    84.974311   -6818.9039   -6600.3127   -6818.9039            0    1087.6229    23.106007    21.487522    21.675104     10761.49    1271.1418    961.35584    1030.3711    97.933084    915.74357    282.84916   -6429.6154 
 4398000    83.243877   -6814.4268    -6600.287   -6814.4268            0    962.51502    23.319964    21.272343    21.721635    10775.458    465.63871    1641.2558    780.65049   -75.158957    176.45034   -176.84874   -6449.0288 
 4399000    84.205066   -6799.0628   -6582.4504   -6799.0628            0    1045.5678    23.171311    21.465834     21.69527    10791.044    1797.1627     789.8052    549.73539   -610.04973    247.42004   -266.82851   -6417.9029 
 4400000     85.64367   -6819.5062   -6599.1931   -6819.5062            0    259.16621    23.318963    21.333993    21.725091    10807.942   -262.41268    670.86996    369.04134    369.11879   -551.38768    461.49632   -6558.3426 
 4401000    85.811983   -6806.0664   -6585.3203   -6806.0664            0     1289.917    23.218828    21.405424    21.669878    10770.121    1142.2954    1267.2999    1460.1558   -529.57174    437.93874   -176.18789   -6382.7116 
 4402000    80.902745   -6809.6525   -6601.5351   -6809.6525            0    1613.6842    23.181081    21.386103    21.691979    10753.863    1998.0589    1352.1273    1490.8664   -62.827781    261.43491   -23.812791   -6348.4545 
 4403000    87.045628    -6802.745   -6578.8254    -6802.745            0    451.71243    23.304039    21.355221    21.744221    10821.292    846.39834   -62.334017    571.07296    6.5757163   -493.85051    567.93503   -6507.5373 
 4404000    80.592671   -6797.9077    -6590.588   -6797.9077            0    1696.0274    23.126891    21.462438     21.69633    10769.179    1460.9302    2402.8337    1224.3183     350.2459    620.24837    -344.3086   -6324.2143 
 4405000    83.557842   -6818.2958   -6603.3484   -6818.2958            0    771.25129    23.304289    21.336191    21.729417    10804.404    613.16255    1371.3534    329.23795    -321.9854     27.06692   -158.28293   -6481.8214 
 4406000    78.494823   -6810.0178   -6608.0946   -6810.0178            0     2399.999    23.074985     21.44395    21.667118    10721.298    3452.9146     1522.011    2225.0713    279.28556   -127.71595    407.85911   -6232.8329 
 4407000     77.40355   -6796.2362   -6597.1202   -6796.2362            0    789.74179    23.342952    21.257971    21.754368    10795.035     863.3942    874.17954    631.65163   -992.84594   -142.25124   -570.68969   -6472.7876 
 4408000    81.191635    -6806.226   -6597.3654    -6806.226            0    1509.6471    23.134054     21.43404    21.703767    10761.949    2041.4242    1619.7171    867.80002   -53.176319    219.23333   -461.27366   -6360.4233 
 4409000    82.320423   -6805.3068   -6593.5426   -6805.3068            0    855.55846    23.389578     21.24083     21.74076    10801.115    97.075873    1586.1297    883.46982     295.6483   -254.06814   -448.97543   -6458.7723 
 4410000    83.353983   -6809.7908   -6595.3677   -6809.7908            0    453.83213      23.2032    21.444001    21.734032    10814.191     491.7938    849.09733    20.605268    143.62739    288.12908   -287.85552   -6523.7921 
 4411000    82.397989   -6814.8814   -6602.9176   -6814.8814            0     1793.303    23.232235     21.31968    21.689706    10742.994    1937.0732    1735.1051    1707.7306   -196.40824    520.67369   -305.38712   -6321.9509 
 4412000      80.9259     -6797.78   -6589.6031     -6797.78            0    114.54178    23.231143    21.409459    21.802275    10843.715    888.51948   -2.5362843   -542.35786    426.69803    117.87271   -143.16223   -6571.4889 
 4413000    83.056403   -6806.4855    -6592.828   -6806.4855            0    679.74982    23.234706    21.363547    21.774629    10808.398    631.13473    988.98455    419.13019    49.815537    429.43479   -563.58436   -6485.6794 
 4414000    82.214703   -6811.7215   -6600.2291   -6811.7215            0    1204.3096    23.261151    21.300176    21.740795    10771.838    985.37871    1495.0522    1132.4978    76.632196   -68.924225     464.1686   -6411.0367 
 4415000    86.907046   -6815.1626   -6591.5996   -6815.1626            0    1265.0733    23.160515    21.430692    21.695256    10768.351    1275.9184     1222.767    1296.5346   -527.82349      724.755    176.33763   -6392.9257 
 4416000    85.490842   -6801.4949    -6581.575   -6801.4949            0     723.8027    23.361603    21.238156    21.758502    10795.641    926.22983    996.45555    248.72273    -683.5294    402.49861   -428.58434    -6467.617 
 4417000     85.04462   -6812.0097   -6593.2376   -6812.0097            0    507.98621    23.160492     21.51978    21.681148    10806.073    1242.1015    -538.6636    820.52074   -151.00621    276.79565    -502.1925   -6513.1813 
 4418000     83.20267   -6796.3715   -6582.3377   -6796.3715            0    1768.2046    23.369046    21.258947    21.659791    10760.612    479.93818    2662.6114    2162.0641     406.2398    42.496195    -128.6099    -6304.849 
 4419000    87.189376   -6797.9947   -6573.7054   -6797.9947            0    941.70158    23.218648    21.437986    21.660153    10781.581    1515.0708    666.67996    643.35401    -280.3813     321.0528    80.077439   -6425.6338 
 4420000    80.761979   -6800.7291   -6592.9738   -6800.7291            0    1309.9447    23.258397    21.263871    21.766676    10765.005    2408.6721    1649.6509   -128.48881    677.68565   -1365.3895    18.896434    -6387.317 
 4421000    84.537029   -6808.3609   -6590.8945   -6808.3609            0    1166.5651    23.145478    21.445319    21.715719    10778.861    1602.4625     306.1137    1591.1192   -474.45969    43.871649    539.31071   -6407.5121 
 4422000    82.068258   -6802.1504   -6591.0348   -6802.1504            0    653.52599     23.25733    21.361086    21.766258    10813.517    842.47432    497.38246    620.72119     32.56996   -410.91319    570.55697   -6487.9711 
 4423000    80.417236   -6804.0579   -6597.1895   -6804.0579            0    1493.0163    23.191372    21.390331    21.729799    10779.526    1206.8864    1704.5117    1567.6508   -197.02063    787.90384    105.71615   -6362.4749 
 4424000    82.975965    -6813.116   -6599.6654    -6813.116            0    1282.6709    23.172585    21.427498    21.667448    10758.549    1558.6795    825.54715    1463.7861   -780.50798    632.89029   -530.59783   -6398.4113 
 4425000    84.956373   -6807.9401    -6589.395   -6807.9401            0    883.32371    23.329552    21.291807    21.727993     10792.91    1047.7356    1329.3991    272.83643    82.025027    108.22411   -171.41638   -6450.3567 
 4426000    81.576225   -6808.0785   -6598.2286   -6808.0785            0    1170.4148    23.122026     21.47277    21.681137    10764.553    1530.0849    1280.3519    700.80757    679.30283   -11.576337    103.88851   -6414.4852 
 4427000    87.089029    -6800.568   -6576.5368    -6800.568            0    1099.7252    23.350473    21.250295    21.729097    10782.075    309.21991    1472.4409    1517.5147   -874.42118    544.87472   -14.404448   -6403.6099 
 4428000    80.963932   -6793.6321   -6585.3573   -6793.6321            0    945.29743    23.149014    21.468252    21.718985     10793.66    1174.5076    647.34157    1014.0431    141.72307    86.078166   -250.94838   -6436.5539 
 4429000    82.764856   -6804.4723   -6591.5647   -6804.4723            0     1501.008    23.301081    21.209399    21.779961    10763.698    1166.7425    2988.0528    348.22877    208.06017    50.798784   -124.17687   -6355.9403 
 4430000    84.391871   -6804.4168   -6587.3238   -6804.4168            0    303.16307    23.217719    21.427838    21.752333    10821.905    281.43788    568.25542    59.795921    42.530597    166.16443    713.71524   -6539.4767 
 4431000    83.638116    -6809.334     -6594.18    -6809.334            0    1524.5789    23.249662    21.342074    21.701616    10768.255    1314.0877    1837.2077    1422.4415   -463.49621   -145.63781   -322.69623   -6354.7541 
 4432000    86.077867   -6803.9013   -6582.4712   -6803.9013            0    1070.2419    23.247396      21.3889    21.681718    10780.936    1408.2938    586.91743    1215.5145   -200.19617   -415.78431    -257.2232   -6414.1983 
 4433000    81.360414   -6809.4659   -6600.1712   -6809.4659            0    1258.0651    23.219863    21.457784    21.600928    10762.594      1167.14    762.14276    1844.9126    688.94001    7.6931181    94.365488   -6402.7035 
 4434000    83.978665   -6813.1812   -6597.1512   -6813.1812            0    965.80148    23.424258    21.297578    21.608663    10780.129    119.76919    1295.5642    1482.0711    262.14122    155.19811   -785.06034   -6445.3107 
 4435000    85.249812   -6801.7274   -6582.4275   -6801.7274            0    1260.5379    23.196156    21.513806    21.567806    10763.146    1389.5743    545.11806    1846.9214    382.44267    380.80545    503.94926   -6384.5615 
 4436000    83.243379   -6798.2924   -6584.1539   -6798.2924            0    890.41493    23.327466    21.364955    21.650549    10790.423    646.33497    924.42272    1100.4871    211.36713    351.57901    64.049443   -6444.0317 
 4437000    81.979709   -6812.7581   -6601.8703   -6812.7581            0    1318.0501    23.263031    21.401305     21.59942     10753.47    1022.0161    577.17438    2354.9598    378.63405   -202.82597    783.62091   -6395.1627 
 4438000    84.202966   -6797.3697   -6580.7627   -6797.3697            0    1159.0192    23.362901    21.329277    21.634368    10780.704    241.07779    881.75387     2354.226    134.19844    164.79777    358.40985   -6398.5353 
 4439000    82.114199    -6817.428   -6606.1942    -6817.428            0    1317.9064    23.290751    21.396548    21.591996    10760.192    1007.4391    856.09078    2090.1892    382.30887    230.10381    495.85648     -6399.38 
 4440000    86.326476   -6793.8375   -6571.7679   -6793.8375            0    1627.8664    23.323186    21.324178    21.610973    10748.169    1467.6342    1559.9194    1856.0455   -358.33143    401.80546    246.74368   -6316.5982 
 4441000    86.596957   -6803.3981   -6580.6327   -6803.3981            0    846.10665    23.265722    21.413036    21.655171    10788.384    851.83971    1040.0211    646.45917    636.54008    721.64522    193.07442   -6447.5083 
 4442000    82.261781   -6798.3735   -6586.7601   -6798.3735            0    1518.2304    23.266152    21.341286    21.672325     10760.95    1975.3551    917.05529    1662.2809   -320.20739   -78.173016    -181.4819   -6348.4929 
 4443000    84.955191   -6813.2951    -6594.753   -6813.2951            0    1051.3884    23.274579    21.397608     21.63646    10775.396    751.81891    1024.3986    1377.9477   -367.40546    592.19414   -55.421571   -6429.5293 
 4444000    82.141542   -6802.9376   -6591.6335   -6802.9376            0    814.77361    23.299967    21.404317     21.63342    10789.016    862.15864    471.68717     1110.475   -654.69495    25.238255    36.502045   -6463.4315 
 4445000    83.010538   -6797.7216   -6584.1821   -6797.7216            0    1140.5568    23.376131     21.36092    21.569833    10770.587   -124.68612    1911.9716    1634.3848    494.67903    69.723927    304.90427   -6405.0257 
 4446000    81.014929   -6804.3325   -6595.9266   -6804.3325            0    866.24683    23.273482    21.428047     21.62057    10782.292    705.39008     784.6733    1108.6771   -69.259337   -101.77724    465.29467   -6459.7104 
 4447000    83.874346   -6804.8825   -6589.1208   -6804.8825            0    1624.9986    23.303732    21.363823    21.590973    10749.212    500.62294    2665.2168     1709.156   -416.80492    589.14795    -68.01647   -6334.3759 
 4448000    83.375646   -6796.8628    -6582.384   -6796.8628            0    569.72401    23.296191    21.441902     21.61694    10797.978   -33.520465    273.94682    1468.7457    7.3582932     48.34936    588.97973   -6492.6654 
 4449000    86.752805   -6808.8868   -6585.7205   -6808.8868            0    1090.5791    23.312372    21.384112    21.637792    10786.751     331.0443    1337.5779     1603.115    6.3049538    35.275416    535.30349   -6414.1575 
 4450000    84.126697   -6813.1036   -6596.6928   -6813.1036            0    1217.4594    23.291073     21.37964    21.619079    10765.323    701.94532    790.63854    2159.7943    844.90212   -459.77719    586.51313   -6405.5503 
 4451000    86.409207   -6811.1575   -6588.8751   -6811.1575            0    1329.5931    23.283893    21.405525    21.591844     10761.46    336.02081    2196.6829    1456.0756     261.7923   -193.68502    136.96248   -6380.2023 
 4452000    82.964158   -6804.7967   -6591.3765   -6804.7967            0     1652.146    23.323591    21.353368    21.598006    10756.611    1601.6963    1815.2642    1539.4776   -437.73934   -514.50972   -344.91319   -6332.1975 
 4453000    80.264242   -6815.1262   -6608.6514   -6815.1262            0    1040.8537    23.264572    21.421321    21.636105    10782.523    700.46959     206.3211    2215.7704    197.75694    689.49106    129.54629    -6444.975 
 4454000    80.260256   -6801.6759   -6595.2113   -6801.6759            0    1081.7466    23.296683    21.347044    21.681619    10782.601    962.36108    1337.1412    945.73761   -207.18615   -3.6765092    69.016989   -6425.1032 
 4455000    83.364574   -6813.1219   -6598.6717   -6813.1219            0    1911.8003    23.156679    21.427984    21.652658    10744.069    2333.6218     1540.622    1861.1571   -487.80725    401.55338    366.26298   -6299.1093 
 4456000    82.587716   -6816.7209    -6604.269   -6816.7209            0    69.831601    23.349893    21.287281    21.770491    10821.147   -344.15536    836.11865   -282.46848    565.81267   -152.30005   -204.05844   -6593.2485 
 4457000    82.275815   -6812.6017   -6600.9522   -6812.6017            0    1464.6847    23.152113    21.422841    21.694905    10760.327    2202.3016    1123.1115    1068.6409    312.42177   -359.45979    38.412303   -6371.1017 
 4458000     84.22076   -6805.9996   -6589.3468   -6805.9996            0    307.69833    23.352167    21.272414    21.771328    10815.059    237.14547    688.05589   -2.1063624   -155.47795   -185.51315    648.61611   -6540.8146 
 4459000    82.929013   -6796.6536   -6583.3238   -6796.6536            0    1448.7536    23.184265    21.417674    21.677955    10764.254    1407.8376    1329.1734    1609.2497    506.59229    93.765575  -0.10445248   -6355.8903 
 4460000    82.270322   -6805.5959   -6593.9605   -6805.5959            0    997.90921    23.298464    21.317263    21.719601    10787.246      1548.82    709.48611    735.42153   -379.67627   -636.88035   -310.43698   -6436.9686 
 4461000    85.172212   -6804.1977   -6585.0974   -6804.1977            0    1182.6432    23.180382    21.455323    21.668452    10776.644    1332.9443     1364.199     850.7862   -575.83068     415.1519     24.82928   -6399.2258 
 4462000    81.234908   -6807.0631   -6598.0913   -6807.0631            0    638.69772    23.293683    21.351625     21.69933    10792.335     681.8503    422.96772    811.27513   -634.65102    209.00584    132.31294   -6497.5634 
 4463000    81.425393   -6803.9125   -6594.4507   -6803.9125            0    1036.7164    23.251124     21.35915     21.72021    10786.783    157.86937      1246.75    1705.5297    386.29953   -283.17075    199.58532   -6431.3605 
 4464000    85.529743   -6812.1355   -6592.1154   -6812.1355            0    1121.3044    23.190501    21.394705    21.729289    10781.072    917.48483    1060.6193     1385.809    -160.9864   -607.13816    481.72897   -6415.8118 
 4465000    79.363006   -6808.6456   -6604.4891   -6808.6456            0    633.10521    23.301674     21.29108    21.780514    10805.701   -97.113181    1754.4523     241.9765    225.29243    133.20993    569.15521   -6504.7181 
 4466000    81.951496   -6803.2549   -6592.4397   -6803.2549            0    1531.8708    23.107458    21.403915    21.759645    10762.104    2649.7102    1018.1974    927.70486    426.76029   -1037.2864    311.81785    -6352.006 
 4467000    85.970939   -6814.9059   -6593.7509   -6814.9059            0    741.59979    23.294047     21.30564    21.738497    10788.698    697.12742    1043.0039    484.66808   -12.958814    36.492056    83.597967    -6477.066 
 4468000    88.328041   -6811.5927   -6584.3742   -6811.5927            0     721.1853    23.126445    21.477448    21.739516    10797.953    1790.5629   -227.44324    600.43623    -193.5173    -289.6302    209.94368   -6470.8041 
 4469000    82.991753   -6808.1785   -6594.6873   -6808.1785            0    881.58903    23.312386    21.249537    21.809538    10803.953    307.03583    1423.0364    914.69491   -606.91255    939.56533   -301.55305   -6455.7801 
 4470000    81.472538   -6814.2119   -6604.6288   -6814.2119            0    1058.0089    23.172614    21.388036    21.755296    10782.288    1288.5987    1182.2285    703.19946    67.014587    283.90537   -192.94016   -6438.2584 
 4471000    81.164337   -6804.9202   -6596.1299   -6804.9202            0    1974.6484     23.23525     21.30772     21.69904    10742.982    2366.5412    2193.6394    1363.7648    194.38007   -722.47394    127.23676   -6286.7511 
 4472000    84.529759   -6814.4891   -6597.0414   -6814.4891            0    616.29041     23.22418    21.477759    21.656138    10802.154    835.84863   -31.850203    1044.8728   -347.87411   -49.384382   -612.13186   -6499.9521 
 4473000    82.789117   -6812.5467   -6599.5767   -6812.5467            0     657.2647    23.302748    21.367827     21.69565    10802.895    906.67654    584.60627     480.5113   -315.24882    390.97067   -210.86587   -6496.0252 
 4474000     83.71232   -6796.5822   -6581.2374   -6796.5822            0    1490.8363    23.250209    21.376482    21.677862    10774.064    1885.1753    1275.9585    1311.3751    -276.4472   -189.64643   -554.63028   -6346.9843 
 4475000    82.241007   -6807.5719   -6596.0119   -6807.5719            0    1300.2149    23.193159     21.47788    21.620495     10770.03    2012.0281    708.92591    1179.6906    110.23536    4.3085374   -657.30647   -6391.7874 
 4476000    80.580126   -6801.4843   -6594.1968   -6801.4843            0    777.65932    23.350894    21.348378    21.640667    10787.953    51.019896     1304.674    977.28401    121.23721    110.81697   -77.060478   -6471.8467 
 4477000     87.89755   -6799.8577   -6573.7466   -6799.8577            0    702.63318    23.283783    21.410808    21.658128     10797.11    649.86736    328.46866    1129.5635   -65.888389    237.24138    391.45141   -6463.1067 
 4478000    83.130601   -6790.9429   -6577.0945   -6790.9429            0    1662.3181    23.298834    21.341624    21.610397    10745.445    1456.1277    1626.2263    1904.6003    835.86471   -94.449659    548.52704   -6316.5905 
 4479000    83.006945   -6800.1387   -6586.6084   -6800.1387            0    696.95547    23.335381    21.332273    21.674822    10789.655    633.58113    788.41792    668.86737    -385.5036    293.73105    426.15961   -6476.9382 
 4480000    87.806325    -6806.037   -6580.1605    -6806.037            0    1111.5269    23.219075    21.412364    21.671412     10774.49    947.04897    592.85009    1794.6815    351.15312    435.58676    376.99506   -6405.5009 
 4481000    87.333166   -6806.4229   -6581.7637   -6806.4229            0    856.79773    23.273052    21.355336    21.692801    10781.405    1938.4714    121.43182    510.48997   -583.08696   -281.31198    313.69713   -6447.0445 
 4482000    85.078632   -6805.2094   -6586.3498   -6805.2094            0    2317.4854    23.150155    21.427431    21.604858    10717.055    3032.8665     2090.356    1829.2338   -696.36952   -364.72349   -681.86033   -6224.1332 
 4483000    79.209235   -6799.8675   -6596.1066   -6799.8675            0     1206.061    23.313252    21.364076    21.629424    10772.883    1067.7925    1266.3082    1284.0824    117.72313   -1168.6142   -651.67099   -6406.6206 
 4484000     82.24924   -6803.5533   -6591.9721   -6803.5533            0    158.08266    23.271071    21.419944     21.73601    10834.641    380.49517    230.53039   -136.77757    333.10038   -316.15247   -135.23794   -6566.9931 
 4485000    84.193309   -6811.5002    -6594.918   -6811.5002            0    1909.1455     23.26611    21.311324    21.709119    10764.067    2136.6994    1833.6145    1757.1225    272.77287    73.445826    174.88845   -6295.2149 
 4486000    85.213768   -6814.6134   -6595.4062   -6814.6134            0    1152.1135    23.183824    21.396192    21.707379    10767.849    1212.2965    1172.0877    1071.9563    288.70194    347.56472    49.567595   -6414.4806 
 4487000    80.076591   -6806.4578   -6600.4656   -6806.4578            0    932.14456    23.262012    21.383083    21.695258    10791.515    145.74987    1098.8611    1551.8227    57.065551    834.05092     577.7315   -6453.7618 
 4488000    86.612017   -6803.2705   -6580.4664   -6803.2705            0    1194.9375    23.258754    21.340853    21.697557    10769.835    1214.9373    1450.0585    919.81687    55.554068    307.02768    113.94609   -6392.7811 
 4489000     82.11847   -6805.6502   -6594.4054   -6805.6502            0    646.77075    23.259607    21.394085    21.676608    10786.671    609.67161    236.96395    1093.6767   -152.86639    427.65553     408.6534   -6492.6603 
 4490000    82.362227   -6798.6309   -6586.7591   -6798.6309            0    820.51978     23.27085    21.422199    21.689492    10812.489    945.44677     672.6265    843.48606   -16.450825   -533.94869   -319.79881   -6457.3721 
 4491000    82.159778   -6806.9814   -6595.6304   -6806.9814            0    1291.2574    23.267005    21.373225    21.666232    10774.421    1718.6948    835.09184    1319.9855     432.4801   -786.15929    7.0902906   -6392.7301 
 4492000    84.521004   -6812.8623   -6595.4372   -6812.8623            0    764.39034    23.266888    21.420271    21.658294    10794.127    718.86129    327.20147    1247.1083    179.40431   -572.81562    53.867578   -6475.1059 
 4493000    82.938375   -6800.4914   -6587.1375   -6800.4914            0    1068.0028    23.302277    21.358696    21.662763    10781.692    823.01107    1073.5296    1307.4679    375.07218    81.159457   -77.431008   -6419.2048 
 4494000    85.268717    -6812.118   -6592.7694    -6812.118            0    1116.1615    23.248126    21.380076     21.68312    10777.524    921.45872    1118.0792    1308.9464    615.57235    460.71994      373.597   -6417.3321 
 4495000    88.777188   -6804.2185   -6575.8446   -6804.2185            0    1326.6666     23.23727    21.354583    21.713472    10774.707    1481.7294    1333.9293    1164.3411   -819.44781    175.53347    200.22589   -6367.3748 
 4496000    81.213681   -6806.6229   -6597.7056   -6806.6229            0    1436.3727    23.203663    21.372945     21.69908    10761.238    1728.3349    1218.5119    1362.2713   -652.51539    775.05999    162.83099    -6372.279 
 4497000    88.631444    -6819.438    -6591.439    -6819.438            0    1196.0711    23.211809     21.36836    21.732226    10779.147    1513.3735    1163.2772    911.56258   -153.04866   -140.43179   -189.88769   -6403.4133 
 4498000    84.764386   -6804.1325   -6586.0813   -6804.1325            0    1022.0989    23.240021    21.385437    21.703665    10786.678    1202.2838    893.07458    970.93834    641.39335   -877.70515   -490.69829   -6425.2923 
 4499000    82.346895   -6808.1741   -6596.3417   -6808.1741            0    1529.5228    23.194641    21.396522    21.701735    10770.238    1394.9537    1951.9447    1241.6699    121.56666    549.86651   -229.17515   -6356.0952 
 4500000    86.317427   -6795.6834    -6573.637   -6795.6834            0    888.85822    23.312854    21.314916    21.728378    10797.081    976.91219    1647.2689    42.393557   -36.426362    359.36043   -78.636965   -6433.6735 
Loop time of 518.842 on 64 procs for 250000 steps with 1296 atoms

Performance: 83.262 ns/day, 0.288 hours/ns, 481.843 timesteps/s
99.1% CPU use with 64 MPI tasks x 1 OpenMP threads

MPI task timing breakdown:
Section |  min time  |  avg time  |  max time  |%varavg| %total
---------------------------------------------------------------
Pair    | 28.61      | 40.309     | 52.229     | 117.5 |  7.77
Bond    | 0.28308    | 0.28953    | 0.29868    |   0.8 |  0.06
Kspace  | 260.33     | 273.14     | 285.03     |  45.5 | 52.64
Neigh   | 0.80541    | 0.83012    | 0.84821    |   1.3 |  0.16
Comm    | 88.171     | 90.235     | 93.401     |  17.3 | 17.39
Output  | 0.57159    | 0.57292    | 0.57436    |   0.0 |  0.11
Modify  | 100.56     | 103.1      | 106.6      |  14.2 | 19.87
Other   |            | 10.36      |            |       |  2.00

Nlocal:        20.2500 ave          27 max          13 min
Histogram: 5 1 13 6 4 7 6 11 4 7
Nghost:        2592.00 ave        2614 max        2562 min
Histogram: 1 2 5 4 7 16 9 11 5 4
Neighs:        6464.56 ave        8653 max        4115 min
Histogram: 5 1 12 7 4 7 9 8 4 7

Total # of neighbors = 413732
Ave neighs/atom = 319.23765
Ave special neighs/atom = 2.0000000
Neighbor list builds = 1618
Dangerous builds = 0

unfix		3
unfix		2
unfix		1

write_data	data.final.${pid}
write_data	data.final.0
System init for write_data ...
PPPM initialization ...
  extracting TIP4P info from pair style
  using 12-bit tables for long-range coulomb (../kspace.cpp:340)
  G vector (1/distance) = 0.36733186
  grid = 30 40 32
  stencil order = 5
  estimated absolute RMS force accuracy = 0.004529111
  estimated relative force accuracy = 1.3639283e-05
  using double precision FFTW3
  3d grid and FFT values/proc = 5168 640
Last active /omp style is kspace_style pppm/tip4p/omp
WARNING: Not all mixed pair coeffs generated from mixing. Use write_data with 'pair ij' option to store all pair coeffs. (../write_data.cpp:312)

write_restart   restart.lmp.${pid}
write_restart   restart.lmp.0
System init for write_restart ...
PPPM initialization ...
  extracting TIP4P info from pair style
  using 12-bit tables for long-range coulomb (../kspace.cpp:340)
  G vector (1/distance) = 0.36733186
  grid = 30 40 32
  stencil order = 5
  estimated absolute RMS force accuracy = 0.004529111
  estimated relative force accuracy = 1.3639283e-05
  using double precision FFTW3
  3d grid and FFT values/proc = 5168 640
Last active /omp style is kspace_style pppm/tip4p/omp
Total wall time: 0:08:39
