LAMMPS (30 Jul 2021)
Processor partition = 1
  using 4 OpenMP thread(s) per MPI task
using multi-threaded neighbor list subroutines
variable        pid world 0 1
variable        phase world IceII IceIh

shell cd ${phase}
shell cd IceIh
include Restart.lmp
echo both
log log.lammps
#include		in.partitions
include		in.temp
variable        temperature equal 100.10
variable	tempDamp equal 100.0
include		in.pressure
variable        pressure equal 2046.7
variable        pressureDamp equal 1000.0 # This is 1 ps
include		in.seed
variable        seed equal 745823

units		real
atom_style	full
#include		in.box
read_restart	restart.lmp.${pid}
read_restart	restart.lmp.1
Reading restart file ...
  restart file = 30 Jul 2021, LAMMPS = 30 Jul 2021
  restoring atom style full from restart
  orthogonal box = (0.10075531 0.099365303 0.18365539) to (18.106817 23.529812 22.029540)
  2 by 4 by 2 MPI processor grid
  restoring pair style lj/cut/tip4p/long/omp from restart
  restoring bond style harmonic/omp from restart
  restoring angle style harmonic/omp from restart
  864 atoms
  576 bonds
  288 angles
Finding 1-2 1-3 1-4 neighbors ...
  special bond factors lj:    0        0        0       
  special bond factors coul:  0        0        0       
     2 = max # of 1-2 neighbors
     1 = max # of 1-3 neighbors
     1 = max # of 1-4 neighbors
     2 = max # of special neighbors
  special bonds CPU = 0.001 seconds
  read_restart CPU = 0.008 seconds
include 	in.setup
variable	out_freq equal 1000
variable	out_freq2 equal 10000
variable	out_freq3 equal 1000

timestep	2.0

neigh_modify    delay 7 every 1

include		in.tip4p
# This is TIP4P/Ice

# create groups ###
group ox type 2
288 atoms in group ox
group hy type 1
576 atoms in group hy

# set charges - beside manually ###
set group ox charge -1.1794
Setting atom values ...
  288 settings made for charge
set group hy charge 0.5897
Setting atom values ...
  576 settings made for charge

# ### TIP3P Potential Parameters ###
pair_style lj/cut/tip4p/long/omp 2 1 1 1 0.1577 8.5
pair_coeff 1 1*2 0.000 0.000
pair_coeff 2 2 0.21084 3.1668
bond_style  harmonic
bond_coeff  1 450 0.9572
angle_style harmonic
angle_coeff 1 55 104.52
kspace_style pppm/tip4p/omp 1.0e-5
pair_modify tail yes

thermo          ${out_freq}
thermo          1000
thermo_style    custom step temp pe etotal epair emol press lx ly lz vol pxx pyy pzz pxy pxz pyz enthalpy

restart 	${out_freq3} restart.lmp.${pid} restart2.lmp.${pid}
restart 	1000 restart.lmp.${pid} restart2.lmp.${pid}
restart 	1000 restart.lmp.1 restart2.lmp.${pid}
restart 	1000 restart.lmp.1 restart2.lmp.1


include         in.dump
dump            myDump all atom ${out_freq2} dump.water.${pid}
dump            myDump all atom 10000 dump.water.${pid}
dump            myDump all atom 10000 dump.water.1
dump            myDump2 all dcd ${out_freq2} dump.dcd
dump            myDump2 all dcd 10000 dump.dcd
dump_modify     myDump append yes
dump_modify     myDump2 append yes


variable natoms 	equal  "count(all)"                        # NUMBER ATOMS
variable H      	equal  "enthalpy/v_natoms"                 # ENTHALPY-per-atom
variable Vol      	equal  "vol/v_natoms"                 # volume-per-atom
fix AVG all 		ave/time ${out_freq} 1 ${out_freq} v_Vol v_H file vol_enthalpy.dat
fix AVG all 		ave/time 1000 1 ${out_freq} v_Vol v_H file vol_enthalpy.dat
fix AVG all 		ave/time 1000 1 1000 v_Vol v_H file vol_enthalpy.dat


timer           timeout 23:50:00 every 1000
New timer settings: style=normal  mode=nosync  timeout=23:50:00

fix 		1 all shake 1e-6 200 0 b 1 a 1
Finding SHAKE clusters ...
       0 = # of size 2 clusters
       0 = # of size 3 clusters
       0 = # of size 4 clusters
     288 = # of frozen angles
  find clusters CPU = 0.000 seconds
fix             2 all nph aniso ${pressure} ${pressure} ${pressureDamp}
fix             2 all nph aniso 2046.7 ${pressure} ${pressureDamp}
fix             2 all nph aniso 2046.7 2046.7 ${pressureDamp}
fix             2 all nph aniso 2046.7 2046.7 1000
fix             3 all temp/csvr ${temperature} ${temperature} ${tempDamp} ${seed}
fix             3 all temp/csvr 100.1 ${temperature} ${tempDamp} ${seed}
fix             3 all temp/csvr 100.1 100.1 ${tempDamp} ${seed}
fix             3 all temp/csvr 100.1 100.1 100 ${seed}
fix             3 all temp/csvr 100.1 100.1 100 745823


run             250000
PPPM initialization ...
  extracting TIP4P info from pair style
  using 12-bit tables for long-range coulomb (../kspace.cpp:340)
  G vector (1/distance) = 0.37195514
  grid = 24 27 25
  stencil order = 5
  estimated absolute RMS force accuracy = 0.0031257187
  estimated relative force accuracy = 9.4130091e-06
  using double precision FFTW3
  3d grid and FFT values/proc = 6300 1296
Last active /omp style is kspace_style pppm/tip4p/omp
Neighbor list info ...
  update every 1 steps, delay 7 steps, check yes
  max neighbors/atom: 2000, page size: 100000
  master list distance cutoff = 10.8154
  ghost atom cutoff = 10.8154
  binsize = 5.4077, bins = 4 5 5
  1 neighbor lists, perpetual/occasional/extra = 1 0 0
  (1) pair lj/cut/tip4p/long/omp, perpetual
      attributes: half, newton on, omp
      pair build: half/bin/newton/omp
      stencil: half/bin/3d
      bin: standard
Setting up Verlet run ...
  Unit style    : real
  Current step  : 28250000
  Time step     : 2
  Walltime left : 23:49:59.95
Per MPI rank memory allocation (min/avg/max) = 12.26 | 12.29 | 12.31 Mbytes
Step Temp PotEng TotEng E_pair E_mol Press Lx Ly Lz Volume Pxx Pyy Pzz Pxy Pxz Pyz Enthalpy 
28250000    99.550452   -4546.0529   -4375.4269   -4546.0529            0    1479.4657    18.006062    23.430447    21.845885    9216.5622    1839.0472    1563.3561    1035.9938   -119.70612    103.70403    77.177784   -4176.5658 
28251000    102.61359   -4563.0343   -4387.1582   -4563.0343            0    2012.4831     18.00577    23.184219    22.004308    9185.6924     2960.698    1886.6731    1190.0782    189.78365   -90.557003   -796.80062   -4117.5581 
28252000     102.5275   -4564.4883   -4388.7597   -4564.4883            0    2468.4324    17.953366    23.269842    21.904969    9151.2826    2951.7278    2255.4074     2198.162   -308.75924   -233.42894   -127.16468   -4059.3176 
28253000    100.29843   -4564.0289   -4392.1208   -4564.0289            0     1478.826    18.117031    23.348596    21.770584    9209.1149     2563.327    673.73489    1199.4161   -653.71755    6.3084342    181.99874   -4193.5063 
28254000    91.816909   -4563.9066   -4406.5356   -4563.9066            0     1457.823    17.936781    23.409959     21.91622    9202.6056    2128.0976    450.48507    1794.8863    44.480721    56.610703   -461.77606   -4210.8803 
28255000    104.17796   -4562.7592   -4384.2017   -4562.7592            0    1871.0411     17.95789    23.254816      21.9697      9174.71     1355.116    2038.0127    2219.9947   -199.98387    119.63643   -21.925654   -4133.8494 
28256000    99.534866    -4554.061   -4383.4616    -4554.061            0    787.20228    18.063893    23.373677    21.905529    9248.9438    700.45143     458.4104     1202.745   -317.64586   -181.70219   -24.069372   -4277.2788 
28257000    102.15085   -4563.1288   -4388.0458   -4563.1288            0    2725.7865    17.870764    23.152755    22.027196    9113.9159    2802.3911    2853.4938    2521.4746    163.94647   -104.56602   -179.62687   -4025.7421 
28258000      100.484   -4554.1428   -4381.9166   -4554.1428            0    1880.4432    17.938043    23.418903    21.853934    9180.6036    1914.3958    1808.8357     1918.098   -121.13665    330.84985    82.501242   -4130.1447 
28259000    106.89167   -4562.5703   -4379.3616   -4562.5703            0    1408.1315    17.966054    23.309618    21.969649    9200.4903    1672.8572    840.75289    1710.7844   -597.49517    91.914323    80.949623    -4190.419 
28260000    98.674731   -4552.3358   -4383.2107   -4552.3358            0    2994.6884    17.990869    23.026723    22.035094    9128.4955    3159.5029    3848.3891    1976.1732    20.900437   -487.85017    644.57165   -3984.5286 
28261000    101.51687   -4563.1006   -4389.1041   -4563.1006            0     2893.033    17.912562    23.289358    21.924856    9146.4377    2936.6828    2940.1124    2802.3039    605.59674   -165.00348   -203.36743   -4003.1984 
28262000    102.50481   -4547.5692   -4371.8794   -4547.5692            0    1675.0599    17.975349    23.388844    21.814344    9171.2444    2092.8309    1445.2364    1487.1123    293.97502   -298.31109    -581.5926   -4147.8348 
28263000    102.00292    -4553.914   -4379.0844    -4553.914            0    1216.3277      17.9397    23.353356    22.016916    9224.0357    749.97782    1070.0758    1828.9294   -426.67652   -373.61711    255.13603   -4215.4603 
28264000    96.885708   -4563.0807   -4397.0219   -4563.0807            0    1929.4995    17.987093     23.26092    21.927343      9174.32    1442.6297    1767.6311    2578.2377   -309.57189   -78.615393   -365.46721   -4138.8586 
28265000    98.971007   -4556.4333   -4386.8004   -4556.4333            0    2456.9501      18.0371    23.283381    21.807596    9158.4199    2543.1245    1278.2911    3549.4348    -264.9442   -56.554188    672.41228    -4058.635 
28266000    101.31689   -4563.3581   -4389.7044   -4563.3581            0    1959.6069    17.927879    23.349399    21.926257    9178.4453    1858.4313    1154.0534    2866.3361     437.8973   -318.97923   -4.1902834    -4127.395 
28267000    105.14697   -4565.5058   -4385.2875   -4565.5058            0    2675.3186    17.838201    23.356204    21.961662    9149.9456    2458.1608    1895.6068    3672.1883   -251.26551    44.682295   -90.321022   -4028.2861 
28268000    96.900114   -4566.1054   -4400.0219   -4566.1054            0    2223.2813    17.865573    23.436424    21.883768    9162.8466    1105.1948    1823.6117    3741.0372   -221.77648    64.863171    523.85033   -4102.9232 
28269000    100.39204   -4561.8051   -4389.7366   -4561.8051            0    1813.5757    17.834975    23.425696    21.948999    9170.2194     1369.668    2361.3712    1709.6878    192.57599    -76.40832   -88.355764   -4147.1921 
28270000    99.045821    -4567.514   -4397.7528    -4567.514            0    1658.3665    17.824358    23.383608     22.05408    9192.0919    1722.7645    2043.5442    1208.7907   -314.52186   -344.63137   -285.41539   -4175.4368 
28271000      98.6485   -4566.8287   -4397.7485   -4566.8287            0    1993.8831    17.985455    23.390738    21.821208    9180.0304    1531.8967     2117.103    2332.6496   -280.67034   -450.41633   -249.88835   -4130.8048 
28272000    101.61207   -4554.2809   -4380.1213   -4554.2809            0    1887.0963    18.064382      23.2387    21.865881    9179.1387    1155.0003    2540.8794    1965.4091    229.79087    248.45451    129.63388   -4127.4989 
28273000     97.15811   -4564.1103   -4397.5846   -4564.1103            0    2146.5345    17.975472    23.297588    21.872505    9159.8803    1479.6905    2222.1858    2737.7273   -394.98334    -207.0951    60.325247   -4110.8345 
28274000    102.79701    -4542.778   -4366.5874    -4542.778            0    2137.3592    17.922038     23.24833    22.013821    9172.2224    2211.8369    2060.1297     2140.111   -378.72576    122.45037    305.49709   -4080.6783 
28275000    98.734179   -4554.6885   -4385.4615   -4554.6885            0    2126.4766    17.962201    23.361171    21.891184    9185.9362    2187.6085    1636.8392     2554.982    150.22924   -31.400431    308.21242   -4100.5829 
28276000    105.24263   -4557.9741   -4377.5918   -4557.9741            0    2133.9432    17.839356    23.400451    22.009514    9187.8495    3009.7247    1381.6709    2010.4341    618.97878    212.34555    108.23394   -4091.6533 
28277000    102.35509   -4556.2035   -4380.7704   -4556.2035            0    2186.2042     17.81581    23.441887    21.931695    9159.4698    2683.2602    1860.9772    2014.3752    252.57243   -246.57863    295.00063    -4088.734 
28278000    96.314884    -4558.721   -4393.6406    -4558.721            0    2282.6798     17.77132     23.49238    21.959607    9167.9295    2865.7891    1427.4257    2554.8247   -364.71832   -115.58304    398.79066   -4088.4352 
28279000    96.276977   -4566.6165    -4401.601   -4566.6165            0    2051.0036    17.852854     23.40099    21.994915    9188.9137    2076.0896    1748.5269    2328.3942   -834.51473   -563.75452    391.34206   -4126.7443 
28280000    101.08308   -4552.4332   -4379.1803   -4552.4332            0    1834.1816    17.915687    23.374094    21.932935    9184.7008    2749.5357    1313.4088    1439.6003   -72.589074   -218.96522    828.96036   -4133.4927 
28281000    104.85637   -4554.1578   -4374.4376   -4554.1578            0    2455.2755    17.966257    23.416867    21.726202    9140.5051    3363.9611     1318.339    2683.5265   -689.41468    100.98144   -358.68664   -4047.1374 
28282000     102.9132   -4558.7561   -4382.3663   -4558.7561            0    1674.3939    18.099446    23.205488    21.882968    9190.9881    714.96159    2214.3217    2093.8983   -245.55423   -555.11285    260.50734   -4157.9287 
28283000     99.36303   -4555.1495   -4384.8446   -4555.1495            0    2571.5595    17.860939    23.305136    21.921691    9124.9395    3520.7302    2227.2071    1966.7413   -690.91775   -587.22756   -178.53499   -4042.6269 
28284000    97.850553    -4566.983   -4399.2705    -4566.983            0     1590.713    18.015967    23.400522    21.804481    9192.3991    1010.2352    2345.3799    1416.5238   -340.99152   -148.84786     107.5796   -4186.0168 
28285000    96.142689   -4568.4119   -4403.6267   -4568.4119            0    1547.2354    18.035081    23.345594    21.814224     9184.654    388.61129    665.63907    3587.4558     658.0806   -190.01887    193.69195   -4196.3764 
28286000    99.735987   -4570.1802   -4399.2362   -4570.1802            0    849.25987    18.065888    23.253371    21.955731    9223.4443   -236.12529    652.22014    2131.6848   -74.323513   -161.02197   -169.33125   -4284.9984 
28287000    103.32545   -4556.2271   -4379.1308   -4556.2271            0    3098.6251    17.924582    23.122613    22.028407    9129.9632    2728.5824    3897.7913    2669.5015   -130.97388    82.733133   -171.72244   -3966.5453 
28288000    97.091852   -4550.9248   -4384.5127   -4550.9248            0    2989.0038    17.984803    23.287388    21.730284    9101.0575    3066.4161    3322.5383    2578.0569   -340.54483    734.83356   -23.179547   -3987.7834 
28289000    102.34988   -4562.7797   -4387.3555   -4562.7797            0    1970.5358    17.956845    23.382715    21.858507    9177.9453    2128.7254    2848.0058    934.87638   -802.14735   -122.20676   -165.87941   -4123.5974 
28290000    100.22556   -4563.4868   -4391.7036   -4563.4868            0    1602.7282    17.786608    23.464089    22.006993    9184.5427    2009.5105    2628.0264    170.64775    136.62406    39.606409   -207.20854   -4177.0228 
28291000    101.34481   -4562.9777   -4389.2761   -4562.9777            0    2763.1431    17.921664    23.196419    21.993661      9143.17      3059.46    2950.3335    2279.6358   -274.90267    476.24969    187.11988   -4020.8283 
28292000    101.56222   -4567.0188   -4392.9446   -4567.0188            0    1555.0518    17.918738    23.330039    21.924861    9165.5756    1471.6296     922.9105    2270.6153    -530.3197   -86.225374   -484.32004     -4185.08 
28293000    98.914672   -4550.5989   -4381.0625   -4550.5989            0    2543.5874    17.774608    23.465932    21.889019      9129.86    2958.6079     2238.399    2433.7552    364.17523    -119.4418    476.02164   -4042.3848 
28294000    102.21268   -4560.3322   -4385.1432   -4560.3322            0    2169.6266    17.890393    23.353524    21.921637    9158.9416    1013.2123     1364.683    4130.9845    717.78474   -373.23194   -71.114905    -4095.338 
28295000    97.335351   -4576.7639   -4409.9344   -4576.7639            0    1702.6598    18.056797    23.259809    21.879052    9189.1504     532.7609    1416.6839    3158.5345   -461.29646    507.42995   -390.62755   -4181.7536 
28296000    101.65113   -4555.0605    -4380.834   -4555.0605            0    2578.9074    17.958041    23.293279    21.928339    9172.6602    2537.5025    2984.4018     2214.818   -343.22773    177.28401    304.63848   -4035.8436 
28297000    93.833029   -4555.5131   -4394.6865   -4555.5131            0    2156.4202    18.034396    23.176098    21.948146    9173.5989    1835.6414    2794.7986    1838.8205   -388.44978   -247.77781    480.62544   -4106.1844 
28298000    99.763863   -4555.1478    -4384.156   -4555.1478            0    2113.5713    17.862534    23.277887    22.047587    9167.4315    2693.5492     2882.958    764.20685    251.71275   -15.556825   -30.912413   -4101.5766 
28299000    103.35799   -4559.4611    -4382.309   -4559.4611            0    2295.6056    17.913489    23.363242    21.888168    9160.5739    2349.5323    1683.3664    2853.9182    377.37809   -537.00209   -253.35375   -4075.6217 
28300000    99.468745   -4563.7512   -4393.2652   -4563.7512            0    2035.8062    17.864694    23.399539    21.919653    9162.9766    2786.1044    2126.3938    1194.9203   -776.63312     100.9814    -28.59629   -4121.2151 
28301000    96.564082   -4546.5117   -4381.0042   -4546.5117            0    1256.2987    18.118544     23.28607    21.816244    9204.4849   -13.224221    1635.3014    2146.8191    299.96582   -505.26096    876.93882   -4212.3612 
28302000     98.85642   -4560.3683   -4390.9318   -4560.3683            0    2101.7879    17.920868     23.28984    21.956215    9163.9567    1540.1621    2921.3663    1843.8354   -223.42817    192.14484    205.69102   -4110.0343 
28303000    97.510982   -4564.2723   -4397.1418   -4564.2723            0    2290.6415    17.967533    23.412692    21.803638    9172.0999    1629.5411    1497.3828    3745.0005   0.68576158   -72.018772    318.65589   -4090.7326 
28304000    104.88588   -4562.1694   -4382.3986   -4562.1694            0    2453.2251    17.931968    23.490595    21.700098    9140.7885    2576.0079    1863.9845    2919.6829    340.10738    177.37201    483.60709   -4055.3616 
28305000    96.016626   -4552.7276   -4388.1584   -4552.7276            0    1673.3939    17.771896    23.446686     22.01787    9174.6717    3214.6952    944.52595    860.96064   -467.48824    94.875771   -45.405775   -4164.2529 
28306000    106.55973   -4557.5742   -4374.9345   -4557.5742            0    1575.7864    17.893802    23.419887    21.912982    9183.0913   -294.47697    2501.9753     2519.861   -205.38254   -19.626837   -200.90738   -4163.8958 
28307000    104.64909   -4564.9827   -4385.6178   -4564.9827            0    2133.5744    17.874307    23.336253    22.008589    9180.2082    2912.1325    2117.5953    1370.9954    311.68914    166.37644    209.57729   -4099.9665 
28308000    98.060203   -4555.8943   -4387.8225   -4555.8943            0    2720.8771     17.79903    23.284819    22.044677    9136.3547    4144.6965    2758.0314    1259.9034   -239.55644   -39.426941    260.15937   -4025.2809 
28309000    97.301426   -4554.9631   -4388.1918   -4554.9631            0    1906.6111    18.018382    23.359103     21.83736    9191.1973    1509.2272    1532.6137    2677.9923    422.22789   -109.87027   -304.49997   -4132.6217 
28310000     90.72375    -4560.707   -4405.2096    -4560.707            0    1619.2849    17.963234    23.323921     21.94584    9194.7154    463.35251     1289.902    3104.6001   -245.88887     197.0885   -252.26167   -4188.0708 
28311000    99.556159   -4560.7486   -4390.1128   -4560.7486            0    1621.9244    18.055463    23.328942    21.820318    9191.0417    1855.4495    1256.3198    1754.0038   -24.030015    26.446263    110.48416   -4172.7069 
28312000    104.24157   -4563.4479   -4384.7814   -4563.4479            0     968.8328    18.079707    23.222508    21.973295    9225.6225    771.95979    795.82778    1338.7108    267.43775   -836.46452    314.69625   -4254.4286 
28313000    105.49609   -4555.8785   -4375.0618   -4555.8785            0    1722.0186    17.925752    23.260588    22.042611    9190.9649    1162.2893    3057.4679    946.29846    206.73105    139.28821    76.493142   -4144.2411 
28314000    101.78024   -4564.0408    -4389.593   -4564.0408            0    2169.3392    17.921905    23.394916    21.815464    9146.8197    2392.7542    1554.0147    2561.2487   -273.99676    513.58959   -338.21604   -4100.2097 
28315000    98.300177   -4568.4195   -4399.9363   -4568.4195            0    2082.2616    17.892195    23.320709    21.936261     9153.095    2148.8901    2394.9529    1702.9419   -54.938519   -304.35187    88.813797   -4121.9783 
28316000    108.15215   -4563.9931   -4378.6241   -4563.9931            0    2063.8571    17.954735     23.29375    21.941793    9176.7842    1669.9597    1995.8078    2525.8038    136.35538    -66.93778    248.39131   -4102.4098 
28317000    99.640657   -4572.1659   -4401.3853   -4572.1659            0    2266.2232    17.981066    23.320033    21.792778    9138.1265    1578.9472    2226.8018    2992.9208   -237.62824   -990.46981   -532.28556   -4099.3652 
28318000    99.234889   -4561.3069   -4391.2217   -4561.3069            0     1597.195    18.037832    23.359107    21.774415    9174.5982    1940.6897    1951.6642    899.23119   -325.84724    111.03236   -105.46583   -4177.5136 
28319000    96.101787   -4569.6149   -4404.8998   -4569.6149            0    2455.2132    17.957761    23.217958    21.904958    9133.1085    2254.8965    3076.2798    2034.4634     357.3943    90.731153    420.69465   -4077.8727 
28320000    97.817983   -4558.6029   -4390.9462   -4558.6029            0    1391.7836    18.038054    23.343247    21.881788    9213.6936    900.38156    992.81436     2282.155    530.18679    302.77162     261.3626   -4203.9291 
28321000    101.26365   -4563.8536   -4390.2912   -4563.8536            0    1881.4911    18.016814    23.283582     21.85476    9167.9836    1160.9711    1687.9702    2795.5321   -50.508751   -303.44301    341.72001   -4138.7252 
28322000    107.18351   -4550.8744   -4367.1656   -4550.8744            0    1134.1309    17.913936    23.296913    22.091131    9219.4995    1294.1276    1046.4486    1061.8164   -535.74584   -179.34556    169.40146   -4214.6738 
28323000    95.658466   -4565.4146   -4401.4593   -4565.4146            0    2245.8175    17.877352    23.259298    22.019897    9156.1962    1733.0213    2446.5166    2557.9147   -263.55452   -369.44057    51.399604   -4101.5669 
28324000    102.22933   -4567.7513   -4392.5337   -4567.7513            0    1711.7862    17.872081    23.446765    21.934489    9191.4823    2450.2499    1339.5394    1345.5692   -385.53715   -231.66526   -96.300163   -4163.0716 
28325000    99.440275   -4561.1264   -4390.6892   -4561.1264            0     1751.338    17.962592    23.301189     21.91574    9172.8274    2140.4778    2123.1008    990.43535    116.73345   -367.28879    -27.78553   -4156.4017 
28326000    94.981232   -4553.0379   -4390.2433   -4553.0379            0    2161.6426    18.125995    23.061535    21.910123    9158.7219    1138.2841    3687.0258     1659.618    402.13773    273.50371   -343.86654   -4101.5115 
28327000    99.446983   -4567.0983   -4396.6495   -4567.0983            0    1805.5538    18.037492    23.186563    21.925865    9169.9983    1456.7936    1766.8743    2192.9934    299.03708   -328.86513   -153.55622   -4155.1838 
28328000    108.07724   -4558.0548   -4372.8141   -4558.0548            0    2296.2558    17.889394    23.372496    21.900513    9157.0377    2018.9258    1957.6443    2912.1972   -180.97059    259.70298    58.792718   -4066.1583 
28329000    97.752023   -4558.9787    -4391.435   -4558.9787            0    1180.5759    17.862848    23.405666    21.942948     9174.168    1197.7284    1153.0013    1190.9981   -609.68975    214.19906    271.26076   -4233.4789 
28330000    106.51736   -4554.9292   -4372.3621   -4554.9292            0     2335.555     17.81101     23.40831    21.921902    9139.8034    3390.8649    2072.5419    1543.2584    189.93678    -586.5246    566.29828   -4061.0451 
28331000    99.434691   -4559.7548   -4389.3272   -4559.7548            0    2195.3862    17.853702    23.418169    21.915766    9163.0036    3383.8263    1781.0912    1421.2411   -475.11066    286.09044    306.07856   -4095.9511 
28332000    96.355911   -4563.6197    -4398.469   -4563.6197            0    2302.9113    17.905941    23.269246    21.985226    9160.3148    2841.3889    2103.0032    1964.3417    729.72552   -411.01441   -522.73066   -4090.8143 
28333000    95.855546   -4562.1632   -4397.8701   -4562.1632            0    2024.5921    17.991485    23.133143    22.049853    9177.1401    1307.5199    2686.5899    2079.6666   -217.42653    239.73259   -605.74448   -4126.9004 
28334000     104.6611   -4552.7108   -4373.3252   -4552.7108            0    2217.9368    18.007449    23.189352    21.949921    9165.8711     1459.635    2743.6417    2450.5337   -250.55534   -68.455922    70.085269   -4076.8429 
28335000    102.11186    -4564.555   -4389.5388    -4564.555            0    1683.2566    17.987217     23.22273    21.974283    9178.9277    1532.6899    1558.8279     1958.252   -80.195542   -98.713233   -163.07102   -4164.2092 
28336000    98.172108   -4556.5765   -4388.3129   -4556.5765            0    2358.6719     18.07291     23.26421    21.759746    9148.9284     2261.507    2192.9297     2621.579   -305.19796   -444.89701    -33.53736   -4073.6006 
28337000    102.92879   -4572.0669   -4395.6504   -4572.0669            0    2076.6351    17.961913    23.274686    21.922518    9164.8814    2126.4988    1917.4975    2185.9088   -173.54662    28.741027   -413.10189   -4118.0866 
28338000    103.33742    -4553.644   -4376.5272    -4553.644            0    2879.6568    18.011083    23.234154    21.829357    9134.9805    2200.1518    3121.1604    3317.6582     282.1405    471.38616   -530.96517   -3992.8869 
28339000    95.792891   -4566.5361   -4402.3504   -4566.5361            0    1895.1777    17.968428    23.253063    21.944613    9168.9199    2369.6607    1554.7471    1761.1253    429.36881     83.33636    -601.9804   -4148.9286 
28340000     100.4367   -4559.2689   -4387.1238   -4559.2689            0    1841.3808    17.912281    23.449028    21.866207    9184.3664    1792.4229    1670.0206     2061.699   -349.49384    408.05581    32.880755   -4140.4808 
28341000    94.879421   -4561.8848   -4399.2648   -4561.8848            0    3008.4856    17.870258    23.249707    21.909707    9103.0074    3709.9271    3036.5138    2279.0158    257.20616    212.95891    -113.2952   -3999.8642 
28342000    104.37237   -4562.9719   -4384.0812   -4562.9719            0    1799.6661    18.014638    23.244786    21.887403    9165.2711    583.05003    1935.3495    2880.5988   -1070.0883   -474.18823    258.50605   -4143.5269 
28343000    100.06059   -4568.3777   -4396.8773   -4568.3777            0    2334.6491    17.896373    23.222988    21.994666     9141.143    2847.5474    2169.9946    1986.4052   -376.56734    200.57754    558.67817   -4085.6354 
28344000    97.449176   -4559.0819   -4392.0574   -4559.0819            0     2457.949    17.889516    23.307464    21.932855    9145.1071    2748.6877    2823.5602    1801.5993   -333.44576    61.201815    76.590637   -4064.2358 
28345000    99.835027   -4565.7283   -4394.6145   -4565.7283            0    2412.1178    17.898597    23.330746    21.876018    9135.1547    2904.7566    2476.9374    1854.6593   -219.22073     96.17975    -67.21281   -4073.2556 
28346000    102.22444   -4553.9669   -4378.7577   -4553.9669            0    2691.8676    17.829044    23.270914    21.985641    9121.8018    2897.6839     2910.369    2267.5499   -558.21141   -327.58112    320.19894   -4020.6528 
28347000    99.397271   -4559.0706   -4388.7071   -4559.0706            0    1983.2061    17.876096    23.395772    21.950522    9180.2587    2819.2178    1263.9981    1866.4023   -267.86648    381.21182    538.14344   -4123.1863 
28348000    96.028515   -4568.9447   -4404.3551   -4568.9447            0     2280.719    17.969878    23.278783    21.931968    9174.5122    2173.2841    2709.1052    1959.7676   -640.86651    321.49795    178.79039    -4099.193 
28349000    99.999818   -4556.9951   -4385.5989   -4556.9951            0    1654.4515    17.898347    23.432862    21.879998     9176.679    1876.2638    1962.2982    1124.7925   -344.80082    21.676129   -365.98154   -4164.1796 
28350000    98.993195   -4568.9604   -4399.2894   -4568.9604            0    1414.1478    17.856866    23.405811    22.014105     9200.893     1812.483    1480.5622    949.39814   -49.821872   -110.30954   -84.321971   -4209.5312 
28351000    96.733613    -4569.359   -4403.5609    -4569.359            0    2220.5143    17.936937    23.440646    21.827963    9177.6409    2918.2663    904.80931    2838.4674    491.00872   -56.710874   -311.01672   -4106.3528 
28352000    98.489595   -4551.8559   -4383.0481   -4551.8559            0     2336.377    18.086407    23.127171    21.896713    9159.1197    1626.1333    3374.3259     2008.672   -878.82254    237.89969    263.81507   -4070.9634 
28353000    99.822714   -4554.4782   -4383.3855   -4554.4782            0    2172.7915    18.075328    23.300412    21.799997    9181.3429     1988.037    1932.7452    2597.5923    491.46284   -678.70111   -119.78355   -4092.4477 
28354000    99.395368   -4560.7822   -4390.4219   -4560.7822            0     2371.051    17.858188    23.429657    21.880883     9155.207    2463.4253    2659.7617    1989.9661   -611.30254    63.553977     272.2218   -4073.8408 
28355000    103.75637   -4560.7784   -4382.9435   -4560.7784            0    1751.8239    17.856965    23.434612     21.91487    9170.7389    2131.1325    1456.9906    1667.3487    336.85292   -168.62036    81.890488   -4148.6444 
28356000    97.818956   -4567.6436   -4399.9852   -4567.6436            0    2576.6288    17.884586    23.370566    21.803967    9113.4674    2623.7307    2516.5928    2589.5631    18.501517   -19.095374   -620.88834    -4057.524 
28357000    99.337778   -4567.8566   -4397.5951   -4567.8566            0    1516.6824    17.939491    23.343079    21.905953    9173.4013    1438.3545    1102.5422    2009.1506    475.42985   -38.071484    119.18754   -4194.6863 
28358000    99.331877   -4559.5743   -4389.3229   -4559.5743            0    2426.2028    17.872029    23.387734    21.841284    9129.3568    2998.9456     2300.719     1978.944    121.90974   -411.24362    21.301999   -4066.2926 
28359000    96.939731    -4559.849   -4393.6976    -4559.849            0    2268.3822     17.96604    23.264098    21.932126    9166.8326    1574.8218    2340.9481    2889.3768   -841.30203    400.00013    291.93973   -4090.4402 
28360000    100.46486    -4567.767   -4395.5737    -4567.767            0    535.73063    17.953548     23.50227    21.885005     9234.359    999.11259   -331.17997    939.25926   -189.85533    115.06375   -151.77665   -4323.4249 
28361000    99.235352   -4558.5548   -4388.4688   -4558.5548            0    1046.1462    17.989008     23.18379    22.076213    9206.9593    1427.7891    831.52794     879.1216    811.62569    351.02543   -35.791352   -4247.9986 
28362000    101.88542   -4562.2125   -4387.5843   -4562.2125            0    1735.8172    17.956296     23.30129      21.9496    9183.8192    2184.6199    1072.1571    1950.6747   -311.51118   -491.37411   -49.247364   -4155.0949 
28363000    97.878441    -4559.509   -4391.7487    -4559.509            0    1210.6306     17.86329    23.399504     22.02926    9208.0574    2125.8307    1216.2548    289.80628   -15.097181   -69.777816     193.3834    -4229.173 
28364000    103.34484   -4550.7538   -4373.6243   -4550.7538            0    2364.6707    17.765303    23.470279     21.95523    9154.3783    2443.9725     2186.127    2463.9126    180.11013     230.3439    528.13451   -4057.9237 
28365000    104.45903   -4560.1348   -4381.0956   -4560.1348            0     1831.335     17.77374    23.373532    22.126914    9192.2965    2893.7869    1601.1013    999.11691   -32.470887    45.889286   -481.70539   -4135.5864 
28366000    96.186652   -4562.9601   -4398.0995   -4562.9601            0     1414.957     17.88461    23.313777    22.064881    9200.1244    937.34276    1524.1364    1783.3919   -199.25754   -340.98774     92.94389   -4208.2485 
28367000     97.14682   -4568.7896   -4402.2833   -4568.7896            0    2467.5154    17.931723    23.234099    21.932681    9137.7565    1856.7306    2241.3805    3304.4351   -580.75351     607.4368   -28.668932   -4073.4503 
28368000    101.57764   -4570.2036    -4396.103   -4570.2036            0    2457.7009    17.825768    23.245172    22.014914    9122.1671    2069.1506    2124.9908    3178.9612    515.19763   -276.90132   -28.836488   -4069.1367 
28369000    100.49717   -4557.4674   -4385.2187   -4557.4674            0    1356.9767    17.808504    23.390362    22.093623    9203.0399    1979.5408    1073.7052    1017.6842   -172.85268   -247.63127   -331.15549   -4203.0895 
28370000    98.223882   -4560.9602   -4392.6078   -4560.9602            0     2262.077    18.045546    23.147491    21.936713    9163.1648    2581.5746     2407.131    1797.5253    1103.8735     559.1786    195.78024   -4090.3143 
28371000    99.130514   -4564.5529   -4394.6466   -4564.5529            0    1514.5379    17.996667    23.216896    21.931958    9163.7589    499.98663    1779.0127    2264.6143   -9.1500347   -44.337081   -214.53343   -4192.2377 
28372000    105.22566     -4558.75   -4378.3968     -4558.75            0    1434.2178    17.925548    23.434078    21.899104    9199.1279    908.98829    940.54821    2453.1168   -90.088828    13.088289   -94.892759   -4185.9824 
28373000    96.202593   -4571.0939   -4406.2059   -4571.0939            0    2057.8033    17.951571    23.365613     21.87741    9176.4675    1876.1529    2513.5486    1783.7085   -84.306259   -287.10055    145.35774   -4130.8114 
28374000    101.51436   -4556.2737   -4382.2816   -4556.2737            0    2347.3712    17.827764    23.402309    21.962195    9162.8659    2883.4837    1543.8047    2614.8252    34.338506     36.13825   -367.84939      -4068.6 
28375000    102.16543   -4550.4898   -4375.3817   -4550.4898            0    2099.9695    17.942255    23.342217    21.916644    9178.9536    2115.7145    1641.1973    2542.9967    117.96328    -303.8689   -85.727674    -4094.268 
28376000    103.78148   -4566.8632   -4388.9853   -4566.8632            0    1950.3487    17.806364    23.353087    22.030327    9160.9492    1668.8899    1424.0738    2758.0825   -223.01493   -169.43345    224.46204   -4128.4128 
28377000    98.446462   -4556.8627   -4388.1288   -4556.8627            0    1207.6401    17.904673    23.290318    22.058295     9198.431    1640.8289    1106.9593    875.13211   -183.73762    347.55047    148.03788   -4226.1243 
28378000     100.7941    -4560.942   -4388.1844    -4560.942            0    1539.2543    17.914296    23.466815    21.900737    9206.8826    1686.6882    1557.6633    1373.4115    217.94729   -378.33366    496.67865   -4181.5042 
28379000    105.56448   -4560.8148   -4379.8809   -4560.8148            0    2300.3307    17.918363     23.40964    21.881589    9178.5047    3372.1305    1577.5497    1951.3119   -1128.5787    237.45775   -166.97778   -4071.9607 
28380000    101.57141   -4573.8939    -4399.804   -4573.8939            0    2079.1116    18.081115    23.401568    21.665559    9167.2704     1925.151    1678.1832    2634.0005    279.37233   -11.125478   -278.60343   -4121.8367 
28381000     97.16703   -4569.7685   -4403.2276   -4569.7685            0    1484.1602    18.084905     23.22562    21.859835     9181.855    661.70563    1869.2732    1921.5016   -475.77517   -20.845657    65.670576   -4204.4867 
28382000    100.89922   -4551.3396   -4378.4018   -4551.3396            0    2624.2275    17.939569    23.365828    21.781048    9130.0247    2086.9404    3410.9501     2374.792   -151.89888   -263.24297   -238.34978   -4028.9806 
28383000    97.842407   -4563.3946   -4395.6961   -4563.3946            0     1950.475    17.924633    23.321104    21.968514    9183.3272    2272.4692    2535.7615    1043.1942    471.75535    143.00759    1019.3856   -4134.4701 
28384000      95.9749   -4565.2322   -4400.7345   -4565.2322            0     763.0386    18.012128    23.356681       21.957    9237.3875    286.84996    1587.0942    415.17161   -364.63236    43.858744   -131.54599   -4297.9396 
28385000    93.845876   -4568.0283   -4407.1796   -4568.0283            0    1343.4549    17.987838    23.280997     21.96444    9198.1539    1162.3262    2417.0583    450.98028   -159.39317    50.555651   -271.32716    -4226.961 
28386000     95.03164   -4555.0077   -4392.1267   -4555.0077            0    1479.9738    18.063695    23.282783    21.925504    9221.2769    1523.8851    1446.4153     1469.621   -55.194585   -70.346332    50.013637   -4193.0956 
28387000    95.871882   -4559.9726   -4395.6515   -4559.9726            0    2230.9649    18.049466    23.153877    21.858427    9134.9669    2364.9237    2859.8156    1468.1555   -568.36377   -689.78004   -201.85673   -4098.4332 
28388000    99.999516   -4561.1219   -4389.7261   -4561.1219            0    1687.9951    18.008091    23.196627    21.987895     9184.937    2167.6687    1985.0566    911.25988   -774.84441   -187.49878    350.62569   -4163.6143 
28389000    93.816875   -4570.0218   -4409.2229   -4570.0218            0     1928.342    17.835236      23.2842    22.115024    9183.9096    2029.6431    1850.5085    1904.8745   -708.31895   -252.51307   -23.226459   -4150.9448 
28390000     97.26197   -4557.3879   -4390.6842   -4557.3879            0    1779.4745    17.937539    23.244343    22.055597    9196.0001    1651.9345    1503.4103    2183.0787    57.550253     -78.0039   -51.035559   -4152.0314 
28391000    98.055548   -4571.6256   -4403.5617   -4571.6256            0    1293.0433    17.877685    23.398976    21.959942     9186.272     1774.216    361.55878    1743.3552   -340.06238   -14.269508    229.76844   -4230.3297 
28392000    95.201668   -4560.0537   -4396.8813   -4560.0537            0    2228.1728    17.883374    23.332134     21.91406    9143.8012    2360.2818    2472.5251    1851.7116    571.60755   -213.97173    96.759416   -4099.7479 
28393000    94.508257   -4559.2682   -4397.2843   -4559.2682            0    2308.2527    17.918979    23.396706    21.816149    9146.3132    2251.8223    1413.0646    3259.8711    600.29567   -744.40659    80.813819   -4089.3874 
28394000    99.443076    -4563.901    -4393.459    -4563.901            0    1785.9104    17.815507    23.614732    21.865091    9198.8281    2049.0121    1339.2297    1969.4894   -355.15434   -350.83793    46.661764   -4153.8694 
28395000    103.08025   -4557.1904   -4380.5144   -4557.1904            0    1975.6534    17.874354    23.419122    21.938086    9183.3197    2001.8249    2053.7312    1871.4042   -202.38719    105.36323     324.1872   -4115.9165 
28396000    96.061259   -4563.2937    -4398.648   -4563.2937            0    1488.5736    17.928377    23.403129    21.989754    9226.4637    1941.8746    2046.5425    477.30365     70.10882    465.65442   -667.10289   -4198.3478 
28397000    94.069661   -4562.1752    -4400.943   -4562.1752            0    2041.7776    17.875448    23.268947     22.09181    9188.9304    1668.7506    3472.4082    984.17399   -762.79638    101.39795   -234.69917   -4127.3221 
28398000     99.04198    -4574.339   -4404.5844    -4574.339            0    2445.1231    17.914475    23.384544    21.814622    9138.6211    2018.6568    2966.0797    2350.6327   -592.70146    56.365453   -301.57435   -4078.7047 
28399000    99.229477   -4543.4024   -4373.3264   -4543.4024            0    2104.7242    17.929834    23.382428    21.875362    9171.0937    3147.5218    1616.9133    1549.7375   -286.80297    473.66533     593.0403   -4091.8175 
28400000    99.398566   -4564.9078   -4394.5421   -4564.9078            0    1939.5254    17.992246    23.216236    21.914136    9153.8025    2027.0606     2096.891    1694.6245   -654.54391      165.355   -189.07636   -4135.6178 
28401000    98.736112   -4554.0336   -4384.8033   -4554.0336            0    939.18307    18.054124    23.117379    22.117237    9230.9391    792.39141    1463.4818      561.676   -552.22468    -236.0338   -164.83072   -4258.3669 
28402000    96.711427   -4566.8857   -4401.1256   -4566.8857            0    2232.6897    17.901826    23.290572    21.941748    9148.4747    2578.4713    2237.9025    1881.6953    11.109704    807.51897    144.88025   -4103.2377 
28403000    101.61542   -4561.7731   -4387.6078   -4561.7731            0    2390.5089    17.907765    23.360892    21.887361    9156.3883    2648.6371    1778.4384    2744.4511    73.566756   -471.65429   -65.248501   -4068.3875 
28404000     96.36508   -4565.7171   -4400.5506   -4565.7171            0    1934.6087    17.770424    23.469409    22.027681    9186.8946    3432.4921    1150.9455    1220.3884    185.46204    495.65092    5.7040884    -4141.349 
28405000    99.303851   -4562.1256   -4391.9222   -4562.1256            0    2578.6798    17.874723    23.254133    21.970456     9132.266    2586.9045    2321.3679     2827.767   -666.62536     132.9578   -131.43248   -4048.4814 
28406000    95.189763   -4572.6531   -4409.5011   -4572.6531            0    2699.5377    17.913338     23.20467     21.97837    9135.8174    2198.7368    3246.0459    2653.8302   -499.24434    456.14481   -195.05441   -4049.8241 
28407000    96.014705    -4559.621   -4395.0551    -4559.621            0    2738.1374    17.951379    23.221981    21.944545    9147.9471    2168.3833    3708.4854    2337.5435   -797.10763    503.98091   -306.46318   -4029.7508 
28408000    101.79954   -4569.8838   -4395.4029   -4569.8838            0    2728.9288    17.951734    23.144155     21.97959    9132.0302    3099.7009    3200.5265    1886.5592    314.24656   -36.173437    542.89209   -4031.9606 
28409000    102.80168   -4569.3967   -4393.1981   -4569.3967            0    1874.3802    17.879306    23.327794    22.012822     9181.213    2868.0619    2021.6973    733.38133   -314.08416   -72.963378    1311.6281   -4142.2213 
28410000    103.01873    -4557.637   -4381.0664    -4557.637            0    2719.7278    17.935468    23.155759    22.009501    9140.7523    2290.4959    2848.2401    3020.4475   -6.4025365   -9.2396282   -115.72528   -4018.5036 
28411000    93.278918   -4564.2522   -4404.3754   -4564.2522            0    2076.2975    18.051119    23.223439    21.871757    9168.8386    1623.6328    1994.1053    2611.1542    -185.6259   -538.13279    481.56148   -4126.7368 
28412000    97.458254   -4563.2938   -4396.2537   -4563.2938            0    1575.0086    18.062277    23.134312    21.981939    9185.3367    1679.9576    1318.0416    1727.0265    162.45557   -163.78997   -57.690018   -4185.2675 
28413000    101.53168   -4563.4069   -4389.3851   -4563.4069            0    1893.3466    17.873226    23.328073    21.965584    9158.5046    1289.9751    1889.9385    2500.1263    148.67688    342.04071     27.56661   -4136.4957 
28414000     98.75283    -4567.739     -4398.48    -4567.739            0    1615.1442    17.947076    23.391276    21.916266    9200.5583    1016.6429    721.48627    3107.3036     193.1537   -752.89325    202.79968   -4181.7588 
28415000    100.64692   -4565.9064    -4393.401   -4565.9064            0    2620.2756    17.787276    23.479547    21.890317    9142.2098    3187.3725    2824.7393    1848.7149   -814.47874     410.5611   -93.676793   -4044.0403 
28416000    99.836256    -4557.203   -4386.0871    -4557.203            0     1634.162    17.882949    23.426529    21.935142    9189.4076    1430.9302    2181.9913    1289.5645   -630.91002    -53.69238   -28.760499   -4167.0798 
28417000    101.86511   -4574.8191   -4400.2258   -4574.8191            0    2561.9489    17.929068    23.328888    21.842321    9135.8833    1872.8776    2598.1214    3214.8477   -261.65528   -22.350931   -354.31612   -4058.8782 
28418000     102.6578   -4547.9417   -4371.9897   -4547.9417            0    2432.5272    17.909428    23.222709    22.005724    9152.3002    2805.2226    2496.1239    1996.2351    427.03275    226.52879    152.89716   -4047.3035 
28419000    100.91861   -4551.3436   -4378.3725   -4551.3436            0    1546.3591      17.9568    23.322905    21.923805    9181.7935    827.33835    2366.5016    1445.2375    485.87213   -373.10952    -157.6854   -4171.3041 
28420000    100.66217   -4563.5149   -4390.9834   -4563.5149            0    2707.1857    17.910534    23.347498     21.86129    9141.6517    3073.8048    2608.6309    2439.1214   -495.29805   -316.79998    251.37214   -4030.0571 
28421000    100.30321   -4563.2539   -4391.3377   -4563.2539            0    1481.0848    17.949762    23.462251     21.83744     9196.659    847.81468    912.63093    2682.8087   -463.39968   -248.29187   -143.47987   -4192.6889 
28422000    99.723301   -4563.3493    -4392.427   -4563.3493            0    2509.0727    17.898281     23.46078    21.853709    9176.5396    2968.6533    2853.0809    1705.4839    645.70366    177.97366    163.17258   -4056.6367 
28423000     101.0505   -4566.8397   -4393.6426   -4566.8397            0    2264.9736    17.878741    23.432607    21.832931    9146.8089     2553.666    2264.2167    1977.0381   -1146.1038   -274.39504    575.90182   -4091.5023 
28424000    95.599398   -4561.9197   -4398.0656   -4561.9197            0    1590.8444    17.948555    23.346243    21.943304    9194.9316    1166.6826    1857.6218    1748.2287    483.24655   -18.549244    -518.5264   -4184.7355 
28425000    102.34292   -4558.9496   -4383.5374   -4558.9496            0    2024.6152    17.899226    23.339241    21.975121    9180.2024    3241.0692    1836.3174    996.45895    37.061042    -211.8672    255.38069   -4112.4741 
28426000    98.170038   -4563.3456   -4395.0855   -4563.3456            0    2123.4196    18.004304    23.446149    21.719335    9168.4177    1868.4593     1296.829    3204.9706   -74.021947   -45.600998   -277.17212   -4111.1589 
28427000    106.16352   -4561.9786   -4380.0179   -4561.9786            0    1936.9753    17.956659    23.449126    21.817783    9186.7694    2322.4938    613.90306    2874.5291   -526.75786   -460.71735    384.03382   -4120.5027 
28428000    105.68199    -4566.416   -4385.2807    -4566.416            0    2478.4141    17.860635    23.451474    21.867944    9159.5679    3830.9249    1362.2528    2242.0645   -765.04438    157.48366   -323.96288   -4054.2069 
28429000    97.791944   -4558.3488   -4390.7368   -4558.3488            0    1766.1064    18.050672     23.29962    21.852008     9190.382    1635.7734     1987.886    1674.6597   -411.54313   -185.39939   -231.98871   -4154.0215 
28430000    103.26551   -4571.1748   -4394.1813   -4571.1748            0    3215.0669     17.91741    23.163424     21.97166    9118.8667    2958.9599    4491.4747     2194.766   -81.718488    613.48236    261.24986   -3966.6117 
28431000    105.66109    -4569.606   -4388.5065    -4569.606            0    1317.2728    17.987204     23.40826    21.880658    9212.8325    693.18028    1389.7271    1868.9109    564.00117   -419.39346    220.63857   -4211.5181 
28432000    102.94307   -4554.0734   -4377.6325   -4554.0734            0    1088.9545    17.935455    23.639059    21.746956    9220.2151    1425.3743    658.13014    1183.3591    682.04878   -499.59016     -54.4338   -4231.2036 
28433000     94.01702   -4560.2541   -4399.1122   -4560.2541            0     2011.649     17.94282    23.383415    21.868664    9175.3129    1788.0912    1816.5564    2430.2994   -646.14184   -112.96764   -283.00193   -4129.9283 
28434000    101.18159   -4574.3244   -4400.9026   -4574.3244            0    1924.6365    18.101028    23.298111    21.791939    9190.0918    1002.3234    2311.2398    2460.3462   -504.67768    126.59322     501.0069   -4142.9473 
28435000    98.988861   -4553.6281   -4383.9646   -4553.6281            0    2391.9733    17.995062    23.293478    21.919952    9188.1333    2565.1043    1966.4096     2644.406    266.85414   -821.51884   -62.142068   -4063.4414 
28436000    100.89962   -4553.5546   -4380.6161   -4553.5546            0    2606.1926    17.805408    23.320034    22.046535    9154.2225    3840.0611    1301.3261    2677.1905    414.06009    505.42399   -161.84631   -4032.6765 
28437000    98.292101   -4563.2372   -4394.7679   -4563.2372            0    2055.5942    17.840188    23.428264    21.972201    9183.6032    1498.6507    2378.8716    2289.2602    215.00478   -157.98394     131.0303   -4119.4551 
28438000    105.04329    -4558.904   -4378.8634    -4558.904            0    1445.8144     17.93941    23.401486    21.912759      9199.17    1693.9031    1608.2964    1035.2436    -464.9777    344.42263     -3.50058   -4184.8923 
28439000    94.529062   -4564.4672   -4402.4476   -4564.4672            0    1697.0647    17.905279    23.324725    21.967986    9174.6157    2367.2115    1137.5761    1586.4064   -439.09371   -362.52721     240.4272   -4175.3764 
28440000    103.38753    -4552.953   -4375.7503    -4552.953            0    1237.8043    18.044478    23.226201    21.971653    9208.4225    834.75642    2392.4075    486.24895   -128.10941   -259.31412    -515.5791   -4209.5189 
28441000    102.07172    -4561.368   -4386.4205    -4561.368            0    2396.1207    17.914192    23.376688    21.873862    9160.2148    2940.4064    1747.8992    2500.0567   -121.06793    208.95879   -241.61867   -4066.3172 
28442000    100.11512   -4557.1439     -4385.55   -4557.1439            0    2358.5231    17.971151    23.116784    22.029608    9151.8749    2363.0397    2207.1171    2505.4125  -0.77893105   -728.27641    298.79143   -4070.7563 
28443000    97.109398   -4555.5652    -4389.123   -4555.5652            0    2265.6253    17.986129    23.164851    22.009787    9170.2894    2688.1954    3590.0021    518.67836     465.4835     -379.137   -235.62344     -4086.12 
28444000    104.13347   -4556.5194   -4378.0381   -4556.5194            0    1997.0718    18.012455    23.165613     21.97628    9170.0333    1589.8816    2828.8024    1572.5315   -732.14481    150.89699    548.99165   -4110.9587 
28445000    101.05787   -4566.5536   -4393.3438   -4566.5536            0    2222.6589     17.95241    23.340195    21.869774    9163.7141    2057.7226     2654.616    1955.6381   -393.80182   -242.90276    190.84733   -4096.3002 
28446000    99.658144    -4561.975   -4391.1643    -4561.975            0    1979.2797    18.003773    23.131875    21.971068    9150.0936    2724.5647    2931.2012    282.07311   -69.495578    208.46573   -228.32486   -4127.0399 
28447000    98.222338    -4555.698   -4387.3483    -4555.698            0    1588.9743    17.900311     23.36211    21.979423    9191.5535    2105.6789    509.74557    2151.4984   -611.76332   -291.15966     929.5838   -4174.3473 
28448000    101.92105   -4564.5338   -4389.8446   -4564.5338            0    1039.9063    18.008448     23.38024    21.877456    9211.3243    287.11468     1313.059    1519.5453    574.99981    564.28672   -495.48108    -4250.146 
28449000    104.37593   -4559.6051   -4380.7084   -4559.6051            0    2387.6933    17.931848    23.253847    21.945827    9151.0684    2228.1449    2740.4118    2194.5232     231.5691    415.12973   -164.94751   -4062.0493 
28450000    100.10115   -4563.8542   -4392.2842   -4563.8542            0    699.64768    17.826417    23.369929    22.160014    9231.9084    1354.8431    467.99863    276.10129    190.47349    307.56961    201.07852   -4298.0851 
28451000    98.835219    -4559.563   -4390.1628    -4559.563            0    1576.3113    17.928084     23.41809    21.899638    9194.3765    1596.0938    1427.9951    1704.8449   -272.02493    150.37589   -129.59716   -4178.7943 
28452000    100.22202   -4559.7986   -4388.0215   -4559.7986            0    1997.8908      17.8929    23.455055    21.846331    9168.4453    2517.7811    1433.6385    2042.2527   -554.89685    144.13583    69.663366   -4120.8788 
28453000     94.53677   -4560.9904   -4398.9576   -4560.9904            0    2221.2671    17.853571    23.318232    22.004232    9160.6634    3374.3142    1772.8536    1516.6336    354.60008   -229.93636    313.31176   -4102.1988 
28454000    96.864194   -4564.6965   -4398.6746   -4564.6965            0    1038.4227    17.959572    23.419756    21.879077    9202.5323    820.42269    708.89925     1585.946    315.06022    274.33153    306.22598   -4259.3084 
28455000    93.831361    -4563.292   -4402.4682    -4563.292            0    1842.3114    17.986834    23.311166    21.875288     9172.179    1582.7686    1409.4426    2534.7231   -321.36088   -67.929394   -207.04497   -4156.0281 
28456000    101.18549   -4569.4389   -4396.0104   -4569.4389            0     3104.167    17.989836    23.198028    21.846512     9117.177    3840.1479    2016.0416    3456.3116   -889.15631    71.035113    273.37692   -3983.2659 
28457000    100.81097   -4564.8004   -4392.0139   -4564.8004            0    2297.5901     18.11207    23.235468    21.781099    9166.4101    2242.4788    2833.2099    1817.0817    84.668925   -125.03711    391.75442   -4084.8659 
28458000    97.057671   -4548.8542   -4382.5007   -4548.8542            0    1714.1793    17.918489    23.350624    21.935092     9177.816     1888.234    1528.5048    1725.7992   -160.83813    94.798423    176.53907   -4153.0594 
28459000    99.353648   -4560.1846   -4389.8959   -4560.1846            0     2250.104    18.017792    23.248104    21.866421    9159.3956    1360.3687    2782.2747    2607.6686   -129.36689   -660.67633    4.4873954   -4089.3261 
28460000    104.25968    -4555.138   -4376.4404    -4555.138            0    2547.3792    17.965452    23.156683     21.95966    9135.6638    2733.4638    2506.6419    2402.0319    319.48484    285.54753   -212.27154   -4037.0422 
28461000    99.460053   -4565.0762   -4394.6051   -4565.0762            0     2574.452    17.889431    23.292666    21.972365    9155.7209    3899.9432    1216.7504    2606.6624   -106.43391    34.691537    81.313723   -4050.8467 
28462000    101.30799   -4564.1147   -4390.4763   -4564.1147            0    2622.7968    17.857421    23.406656    21.914877    9160.0355    3007.9546    2087.7494    2772.6866   -97.174797   -443.18002    49.420164   -4040.0976 
28463000    103.58626   -4563.3076   -4385.7643   -4563.3076            0    2458.3411    17.823537    23.387462    21.975933     9160.608    3052.9816    2164.4462    2157.5955   -596.86749   -465.91286    488.69965   -4057.3347 
28464000    100.41847    -4563.483   -4391.3692    -4563.483            0    2610.4347    17.775144    23.311931    22.070592    9145.4557    2933.7115    2545.3908    2352.2019    455.56528    616.68637   -270.56286    -4043.197 
28465000    94.458868   -4572.9598   -4411.0605   -4572.9598            0    2315.8069    17.824314     23.34347    22.045239    9172.6128    3170.7487    2180.9513    1595.7207    43.773387    174.92886     283.7482   -4101.2677 
28466000    102.73502   -4572.3584    -4396.274   -4572.3584            0    1622.7955    17.836571    23.347139    22.078277    9194.1211    2182.8023    1342.5539    1343.0301    179.62191   -268.21679   -522.37494   -4178.6785 
28467000    100.46602   -4574.0384   -4401.8431   -4574.0384            0     1870.594    17.832447    23.392971    22.035573    9192.2253    2064.6902    1679.6145    1867.4774    -285.5838    -363.9954   -415.42634   -4151.0728 
28468000    96.730597   -4555.2167   -4389.4237   -4555.2167            0    1217.0179    17.962117    23.388895     21.95482    9223.5289    700.84844     158.5427    2791.6625   -244.07167    30.591762    88.687977   -4225.7157 
28469000    100.68748   -4556.8638   -4384.2889   -4556.8638            0     2178.631    17.839343     23.30099     22.02415     9154.874    1913.9495    1732.3585    2889.5851    -413.8442    -48.94825    707.62356   -4093.4102 
28470000    98.449002   -4569.0911   -4400.3529   -4569.0911            0    1983.0845    17.994645    23.121787    22.071194    9183.1251    1566.2039    1678.2525    2704.7973   -404.71539   -148.87922    -86.68268   -4134.7654 
28471000    101.57675   -4564.6932   -4390.5941   -4564.6932            0    1307.6797    18.045198    23.189745    21.985968    9200.3259    38.023794    1784.6596    2100.3558     -265.418   -70.274329    35.957634   -4215.1332 
28472000    100.69214   -4570.3083   -4397.7254   -4570.3083            0    2769.6112    18.025188    23.243367    21.803265    9134.8281    2552.6022     2453.939    3302.2923   -150.82714    53.683412    28.746926    -4028.752 
28473000     97.04193   -4564.2721   -4397.9456   -4564.2721            0    1570.5012    18.075633    23.424286    21.713326    9193.6128    1506.6641     694.3623    2510.4773    35.293372    272.71281   -8.8793775   -4187.3737 
28474000    101.14452   -4565.6256   -4392.2674   -4565.6256            0    2238.8823    17.976073    23.362308    21.842473    9173.0208    2091.0578    1603.4389    3022.1503    377.99693   -183.15095    582.44797   -4092.7517 
28475000    97.022269   -4565.7362   -4399.4434   -4565.7362            0    2582.8368    17.946148    23.386551     21.82338    9159.2402    2353.6309    2265.0674    3129.8122    -425.4769    -131.5958    450.33999   -4054.4329 
28476000    98.717837   -4557.6936   -4388.4946   -4557.6936            0    2365.8735    17.945269        23.35    21.877915     9167.328      954.704    2811.0111    3331.9055   -167.16205   -48.042248   -279.43111   -4072.1866 
28477000    106.70566   -4551.9816   -4369.0917   -4551.9816            0     1440.102    18.071544    23.425438    21.753315     9208.914     740.6456    1176.6459    2403.0144    336.98118   -319.91266    -237.6246   -4175.6823 
28478000    96.795803    -4546.828   -4380.9233    -4546.828            0    2177.1914    17.903422    23.363384    21.949964    9181.3301    2452.2863    2625.7702    1453.5176    123.54316   -597.23315   -25.998206   -4089.3967 
28479000    102.63693   -4562.7551   -4386.8389   -4562.7551            0    2072.9752    17.900509    23.313615    21.980622    9173.0757    2381.6212    1769.1862    2068.1183   -54.030521   -427.57026   -487.93686   -4109.5165 
28480000    101.94968   -4553.1217   -4378.3835   -4553.1217            0     2874.892    17.959791    23.267378    21.898078    9150.7084    2919.5828    2575.9728    3129.1204    138.62834    273.14853    17.600303   -3994.7185 
28481000    98.139249   -4550.5945   -4382.3872   -4550.5945            0    2508.0472    17.912404    23.295413     21.91938      9146.45    2368.8254    2677.1656    2478.1507    256.23124   -295.33057   -692.98739   -4047.8348 
28482000    100.41231   -4560.9089   -4388.8057   -4560.9089            0    1677.5569    17.871743    23.296226    22.070294    9188.8385    2559.8143    1036.7615     1436.095    425.58833   -495.41084   -11.209057   -4163.9966 
28483000    96.579083   -4563.6969   -4398.1636   -4563.6969            0    2093.7656    17.941701    23.317902    21.979522     9195.415    2212.4221    2183.1105    1885.7642     101.3574    111.20805    8.2191024   -4117.3777 
28484000    103.57297   -4558.9774   -4381.4568   -4558.9774            0    2589.0961    17.986099    23.115197    22.061993    9172.3226    2149.5829    2906.5872    2711.1181    210.15327   -80.789014    118.34455   -4035.1163 
28485000    97.888343   -4566.4655   -4398.6882   -4566.4655            0    1306.9547    17.960071    23.263818    22.024356    9202.2127    1592.8209    1124.2509    1203.7922   -622.61343   -427.15628    -31.40616   -4223.2886 
28486000     103.2878   -4572.2518   -4395.2201   -4572.2518            0     1624.746    17.940915     23.33337    21.911968    9172.8321    1305.2854    1381.9601    2186.9925   -379.07366      -264.92    438.38303   -4177.8675 
28487000    102.05088   -4568.0095   -4393.0978   -4568.0095            0    2570.9458    17.841004    23.400902    21.916353    9149.9808    3193.2547     1871.424    2648.1588    26.330588   -587.36075     316.3022   -4050.0229 
28488000    99.732668   -4556.0851   -4385.1467   -4556.0851            0    2559.2398     17.87968    23.316427    21.967621     9158.087    3165.0786    2081.7327    2430.9082   -23.559197   -602.57313    287.18759   -4043.3313 
28489000    103.80374   -4567.0612   -4389.1451   -4567.0612            0    1770.0087    17.941757    23.336143    21.875318    9159.0077    1367.8877    2348.4863    1593.6521    305.62534   -292.80681   -30.946877   -4152.7167 
28490000     101.5621   -4562.8932   -4388.8192   -4562.8932            0    1623.8153    17.911301     23.23895    22.104064    9200.5916    2323.3845    2344.5608    203.50061   -95.708109   -74.316631    599.34504   -4170.9337 
28491000    97.580719   -4567.2904   -4400.0404   -4567.2904            0    2616.8101    17.829965    23.380236    21.935014    9144.0229    2625.8032    2899.4219    2325.2053    920.59305   -276.43463    367.61434   -4051.0725 
28492000    101.81012   -4565.2004   -4390.7013   -4565.2004            0    3181.4792    17.767139    23.370071    21.958471    9117.5809    4298.9259    2608.5755    2636.9361    112.14858    25.902294    134.85009   -3967.6583 
28493000    97.185097   -4546.6342   -4380.0623   -4546.6342            0    1800.9065    17.962952    23.381859    21.883364    9191.1708     1685.353    2061.3875    1655.9788    -834.6874   -527.46613    291.87562    -4138.662 
28494000    100.72526   -4555.9632   -4383.3235   -4555.9632            0    1922.5722    17.938507    23.435815    21.853497    9187.2873    1721.8004    1115.9081     2930.008    121.38008    37.279448   -106.95799   -4125.7236 
28495000    98.016133    -4548.278   -4380.2817    -4548.278            0    2440.6313    17.824341    23.471905    21.898476    9161.6925    2485.8918    2176.1911    2659.8111   -388.33076   -26.537694     511.6001   -4054.1794 
28496000     92.03951   -4549.4247   -4391.6721   -4549.4247            0    2067.3408    17.922202    23.386967    21.880952    9171.3123    1962.9143    753.27901    3485.8293    -161.5084   -395.65718    335.10077   -4115.1566 
28497000    99.574235   -4563.2011   -4392.5343   -4563.2011            0    2394.2789    17.927249    23.418225    21.815903    9158.8478    1797.6052    2113.1455     3272.086    369.13331    315.50752    88.336922   -4072.7247 
28498000    102.29295   -4554.0075   -4378.6809   -4554.0075            0    1959.5649    17.981409    23.294219    21.885468    9167.0104    1857.2285    1133.3527    2888.1136   -555.24752    119.46224    187.90126   -4116.7038 
28499000    94.239487    -4562.432   -4400.9087    -4562.432            0    1549.6208    18.029241    23.202287    22.034265    9217.3649    1047.9447    1537.6993    2063.2183   -204.78958   -419.94599    364.67034   -4192.5997 
28500000    101.53679   -4549.9869   -4375.9563   -4549.9869            0    2518.7958    17.778315     23.33013    22.102865    9167.6144    2937.3452    2620.2648    1998.7773    78.100284    884.31933   -259.84244   -4039.1927 
Loop time of 472.226 on 64 procs for 250000 steps with 864 atoms

Performance: 91.482 ns/day, 0.262 hours/ns, 529.408 timesteps/s
384.4% CPU use with 16 MPI tasks x 4 OpenMP threads

MPI task timing breakdown:
Section |  min time  |  avg time  |  max time  |%varavg| %total
---------------------------------------------------------------
Pair    | 25.047     | 28.339     | 35.182     |  53.7 |  6.00
Bond    | 1.6398     | 2.0309     | 3.0419     |  34.1 |  0.43
Kspace  | 254.23     | 267.11     | 272.68     |  24.2 | 56.56
Neigh   | 0.51464    | 0.64281    | 0.7238     |   6.9 |  0.14
Comm    | 67.327     | 73.886     | 79.805     |  50.6 | 15.65
Output  | 0.50962    | 0.50992    | 0.5116     |   0.1 |  0.11
Modify  | 70.047     | 79.411     | 89.956     |  57.5 | 16.82
Other   |            | 20.3       |            |       |  4.30

Nlocal:        54.0000 ave          62 max          45 min
Histogram: 1 6 0 0 1 0 0 2 2 4
Nghost:        2572.44 ave        2603 max        2547 min
Histogram: 3 5 0 0 1 1 0 2 0 4
Neighs:        13245.9 ave       15359 max       11052 min
Histogram: 3 3 1 0 1 0 0 1 5 2

Total # of neighbors = 211934
Ave neighs/atom = 245.29398
Ave special neighs/atom = 2.0000000
Neighbor list builds = 1934
Dangerous builds = 0

unfix		3
unfix		2
unfix		1

write_data	data.final.${pid} nocoeff
write_data	data.final.1 nocoeff
System init for write_data ...
PPPM initialization ...
  extracting TIP4P info from pair style
  using 12-bit tables for long-range coulomb (../kspace.cpp:340)
  G vector (1/distance) = 0.37181915
  grid = 24 27 25
  stencil order = 5
  estimated absolute RMS force accuracy = 0.0031572294
  estimated relative force accuracy = 9.5079027e-06
  using double precision FFTW3
  3d grid and FFT values/proc = 6300 1296
Last active /omp style is kspace_style pppm/tip4p/omp

write_restart   restart.lmp.${pid}
write_restart   restart.lmp.1
System init for write_restart ...
PPPM initialization ...
  extracting TIP4P info from pair style
  using 12-bit tables for long-range coulomb (../kspace.cpp:340)
  G vector (1/distance) = 0.37181915
  grid = 24 27 25
  stencil order = 5
  estimated absolute RMS force accuracy = 0.0031572294
  estimated relative force accuracy = 9.5079027e-06
  using double precision FFTW3
  3d grid and FFT values/proc = 6300 1296
Last active /omp style is kspace_style pppm/tip4p/omp
Total wall time: 0:07:52
