LAMMPS (30 Jul 2021)
  using 1 OpenMP thread(s) per MPI task
package omp 0
using multi-threaded neighbor list subroutines
echo both

include		in.partitions
variable        pid world 0
include		in.temp
variable        temperature equal 228.12
variable	tempDamp equal 100.0
include		in.pressure
variable        pressure equal 2750.0
variable        pressureDamp equal 1000.0 # This is 1 ps
include		in.seed
variable        seed world 745823

units		real
atom_style	full
read_restart    restart.lmp.${pid}
read_restart    restart.lmp.0
Reading restart file ...
  restart file = 30 Jul 2021, LAMMPS = 30 Jul 2021
  restoring atom style full from restart
  triclinic box = (-3.2552313 -0.24397244 -0.17548617) to (14.865230 22.823971 19.405484) with tilt (-0.11750245 -6.8735557 0.0092291988)
  4 by 4 by 4 MPI processor grid
  restoring pair style lj/cut/tip4p/long/omp from restart
  restoring bond style harmonic/omp from restart
  restoring angle style harmonic/omp from restart
  1008 atoms
  672 bonds
  336 angles
Finding 1-2 1-3 1-4 neighbors ...
  special bond factors lj:    0        0        0       
  special bond factors coul:  0        0        0       
     2 = max # of 1-2 neighbors
     1 = max # of 1-3 neighbors
     1 = max # of 1-4 neighbors
     2 = max # of special neighbors
  special bonds CPU = 1.933 seconds
  read_restart CPU = 2.324 seconds

include 	in.setup
variable	out_freq equal 1000
variable	out_freq2 equal 10000
variable	out_freq3 equal 1000

timestep	2.0

neigh_modify    delay 7 every 1

include		in.tip4p
# This is TIP4P/Ice

# create groups ###
group ox type 2
336 atoms in group ox
group hy type 1
672 atoms in group hy

# set charges - beside manually ###
set group ox charge -1.1794
Setting atom values ...
  336 settings made for charge
set group hy charge 0.5897
Setting atom values ...
  672 settings made for charge

# ### TIP3P Potential Parameters ###
pair_style lj/cut/tip4p/long/omp 2 1 1 1 0.1577 8.5
pair_coeff 1 1*2 0.000 0.000
pair_coeff 2 2 0.21084 3.1668
bond_style  harmonic
bond_coeff  1 450 0.9572
angle_style harmonic
angle_coeff 1 55 104.52
kspace_style pppm/tip4p/omp 1.0e-5
pair_modify tail yes

thermo          ${out_freq}
thermo          1000
thermo_style    custom step temp pe etotal epair emol press lx ly lz vol pxx pyy pzz pxy pxz pyz enthalpy

restart 	${out_freq3} restart.lmp.${pid} restart2.lmp.${pid}
restart 	1000 restart.lmp.${pid} restart2.lmp.${pid}
restart 	1000 restart.lmp.0 restart2.lmp.${pid}
restart 	1000 restart.lmp.0 restart2.lmp.0


include         in.dump
dump            myDump all atom ${out_freq2} dump.water.${pid}
dump            myDump all atom 10000 dump.water.${pid}
dump            myDump all atom 10000 dump.water.0
dump            myDump2 all dcd ${out_freq2} dump.dcd
dump            myDump2 all dcd 10000 dump.dcd
dump_modify     myDump append yes
dump_modify     myDump2 append yes


variable natoms 	equal  "count(all)"                        # NUMBER ATOMS
variable H      	equal  "enthalpy/v_natoms"                 # ENTHALPY-per-atom
variable Vol      	equal  "vol/v_natoms"                 # volume-per-atom
fix AVG all 		ave/time ${out_freq} 1 ${out_freq} v_Vol v_H file vol_enthalpy.dat
fix AVG all 		ave/time 1000 1 ${out_freq} v_Vol v_H file vol_enthalpy.dat
fix AVG all 		ave/time 1000 1 1000 v_Vol v_H file vol_enthalpy.dat



fix 		1 all shake 1e-6 200 0 b 1 a 1
       0 = # of size 2 clusters
       0 = # of size 3 clusters
       0 = # of size 4 clusters
     336 = # of frozen angles
  find clusters CPU = 0.143 seconds
fix             2 all nph tri ${pressure} ${pressure} ${pressureDamp}
fix             2 all nph tri 2750 ${pressure} ${pressureDamp}
fix             2 all nph tri 2750 2750 ${pressureDamp}
fix             2 all nph tri 2750 2750 1000
fix             3 all temp/csvr ${temperature} ${temperature} ${tempDamp} ${seed}
fix             3 all temp/csvr 228.12 ${temperature} ${tempDamp} ${seed}
fix             3 all temp/csvr 228.12 228.12 ${tempDamp} ${seed}
fix             3 all temp/csvr 228.12 228.12 100 ${seed}
fix             3 all temp/csvr 228.12 228.12 100 745823


run             250000
PPPM initialization ...
  extracting TIP4P info from pair style
  using 12-bit tables for long-range coulomb (../kspace.cpp:340)
  G vector (1/distance) = 0.38277194
  grid = 24 30 36
  stencil order = 5
  estimated absolute RMS force accuracy = 0.0019878109
  estimated relative force accuracy = 5.9862336e-06
  using double precision FFTW3
  3d grid and FFT values/proc = 4320 480
Last active /omp style is kspace_style pppm/tip4p/omp
Neighbor list info ...
  update every 1 steps, delay 7 steps, check yes
  max neighbors/atom: 2000, page size: 100000
  master list distance cutoff = 10.8154
  ghost atom cutoff = 10.8154
  binsize = 5.4077, bins = 5 5 4
  1 neighbor lists, perpetual/occasional/extra = 1 0 0
  (1) pair lj/cut/tip4p/long/omp, perpetual
      attributes: half, newton on, omp
      pair build: half/bin/newton/tri/omp
      stencil: half/bin/3d/tri
      bin: standard
Per MPI rank memory allocation (min/avg/max) = 9.351 | 9.359 | 9.367 Mbytes
Step Temp PotEng TotEng E_pair E_mol Press Lx Ly Lz Volume Pxx Pyy Pzz Pxy Pxz Pyz Enthalpy 
 5250000    230.84145   -4865.1066   -4403.3951   -4865.1066            0    1748.4441    18.120462    23.067944     19.58097    8184.8807    2473.7489    2050.4781    721.10537    1405.1785    921.05636    126.50219   -4194.6867 
 5251000    227.24606   -4892.0886   -4437.5684   -4892.0886            0    2535.8086    18.141114    22.976927    19.447874    8106.4002    4096.9012    1317.4285    2193.0962    1590.4288    519.47215     428.1913   -4137.7762 
 5252000     229.5708   -4892.3484   -4433.1785   -4892.3484            0    2876.8955    18.183972    22.942408    19.484515      8128.63    2246.8237    3038.9531    3344.9099    174.80802    653.40469    1548.2679    -4092.129 
 5253000    227.54135   -4897.1667   -4442.0559   -4897.1667            0    1773.2703    18.138001    22.931467    19.619912    8160.5291     1544.311    1812.1413    1963.3585    625.25308    -260.5786   -367.72692   -4231.0137 
 5254000    223.97211   -4916.9417   -4468.9698   -4916.9417            0    1648.0875    18.185368    23.172122      19.3496    8153.7969    1813.3436    508.18727    2622.7315    -562.0063   -864.59892   -883.79862   -4272.9879 
 5255000    217.07559   -4865.8376   -4431.6596   -4865.8376            0    493.64973    18.113109    23.028324    19.620372    8183.9428   -1675.9726    1736.4837    1420.4381    229.51334    41.947073   -1605.6284   -4372.7403 
 5256000    232.88843   -4892.8678   -4427.0621   -4892.8678            0    1366.8362    18.090076    23.047147    19.637126    8187.2015    347.10925    1269.6381    2483.7612   -662.02291   -547.43701   -1189.5453   -4263.8592 
 5257000    228.43757   -4891.4042   -4434.5008   -4891.4042            0    4022.3178    18.223327     22.96032    19.245322    8052.5006    4222.2496    4086.3336    3758.3701     1048.558    800.32759   -511.22212     -3962.13 
 5258000    229.13469   -4885.2193   -4426.9216   -4885.2193            0    803.00426    18.304846    23.094599    19.355562      8182.43    551.71691    916.05273    941.24313    52.468757    -787.7889    472.48659   -4331.0972 
 5259000    231.26466   -4863.6685   -4401.1106   -4863.6685            0    2822.9839    18.099289    22.985336    19.599589    8153.7866     2812.586    3565.2539    2091.1119   -733.57842    2160.8347   -357.80438   -4065.4166 
 5260000    231.37477   -4875.6018   -4412.8236   -4875.6018            0    3486.6612    18.261656    23.040409    19.226106       8089.5     3364.217    3208.1409    3887.6258    32.802288    1378.0802   -463.54501   -4001.4776 
 5261000    221.85343   -4881.4612   -4437.7269   -4881.4612            0    2642.8931    18.119568    23.138705    19.376477    8123.8464    900.92345    3224.9009    3802.8551    1530.2563    1459.5231   -75.874886   -4124.6023 
 5262000    235.10498   -4859.3746   -4389.1356   -4859.3746            0    2754.2213    18.054686    23.196861    19.396648    8123.5497    2689.0969    2145.9047    3427.6622   -325.74568    416.44215     -312.057   -4062.8329 
 5263000    242.88789   -4879.5113   -4393.7056   -4879.5113            0    3591.4835    18.280921    22.849573    19.389117    8099.0522    2108.7477     4163.182    4502.5208    1060.6027   -305.13023   -50.928891   -3969.4926 
 5264000    233.86138   -4900.2487   -4432.4971   -4900.2487            0    2857.2151    18.106356    22.836178    19.650959     8125.278    2492.5707    3657.1856    2421.8891    953.09945    261.69297    688.90738   -4093.9204 
 5265000    232.62567   -4893.7287   -4428.4486   -4893.7287            0    2805.5823    18.149885    22.902821    19.477219    8096.3599    1892.3201    3024.2191    3500.2077   -361.57232   -1147.7417   -377.81424   -4097.1736 
 5266000    232.53046   -4883.4579   -4418.3683   -4883.4579            0    3113.1439    18.051256     23.07668    19.421775    8090.3937    4470.3323    2137.7042    2731.3953    220.31622   -1384.3536    951.46307   -4051.0481 
 5267000    223.94628   -4878.2317   -4430.3115   -4878.2317            0    2864.4727     17.93739    23.160307    19.523807    8110.8817    4183.9869    2200.9527    2208.4784   -1140.2475   -304.47506    544.91565   -4091.4762 
 5268000    217.86619   -4888.6853   -4452.9261   -4888.6853            0    1524.9841    18.221754     23.14857     19.42855     8195.109    614.56212    1524.3485    2436.0417    1399.8832    7.3986327    992.12343   -4270.6641 
 5269000    226.61825   -4883.5762   -4430.3117   -4883.5762            0    2454.2999    18.117397    23.176804    19.329501    8116.5226    3187.4838     878.6319     3296.784   -1610.7004    -265.7282    398.83115   -4139.7934 
 5270000    217.84587   -4866.5529   -4430.8343   -4866.5529            0    3179.3574    18.111975    23.062009     19.47848    8136.1326    2501.6014     3876.303     3160.168    -16.32866    922.00093   -529.39913   -4053.5808 
 5271000    227.67865   -4905.3467   -4449.9613   -4905.3467            0    2671.8425    18.215154    22.804439    19.599588    8141.4018    2205.0917    2605.8148     3204.621   -1776.8961    279.18052   -883.21815   -4132.7228 
 5272000    241.24513   -4911.0593   -4428.5392   -4911.0593            0     1954.873      18.2772    22.796669    19.633162    8180.3394    2656.7934    1771.8352    1435.9905    1376.6968    148.74889    72.933113   -4195.3193 
 5273000    222.84406   -4909.8279   -4464.1122   -4909.8279            0    2650.7843    18.238266    23.066813    19.313926    8125.3428    1286.6264    2612.0802    4053.6464    839.30464   -174.77362    141.54703   -4149.9949 
 5274000    239.08491   -4865.0413   -4386.8419   -4865.0413            0    3386.8876    17.931982     23.13605    19.572303    8120.0637    3253.0079    3544.0177    3363.6371    648.47622    47.804465    37.211655   -3985.7572 
 5275000    239.45673   -4888.9639   -4410.0209   -4888.9639            0    2983.6145    18.105635    23.135186    19.375685    8116.0336    3079.4903    2509.0578    3362.2953    212.31698   -316.88095   -217.46306   -4056.8682 
 5276000    239.26252   -4888.4759   -4409.9213   -4888.4759            0    4209.4113    18.155667    23.185123    19.178518    8073.0315    3465.2012    3261.0974    5901.9353   -709.02183    462.34677   -186.45678   -3914.3183 
 5277000    238.02902   -4882.0713   -4405.9839   -4882.0713            0    3786.4757    18.052505    22.904952    19.616086    8111.0898     3934.108    3693.9552    3731.3639    1060.1741   -187.26056    243.47016   -3958.0744 
 5278000    226.30655   -4898.6941   -4446.0531   -4898.6941            0    2201.1451     18.30068    22.844612     19.45038    8131.6575    874.33624    3118.2144    2610.8847   -403.91108    125.45629   -620.35915   -4185.0151 
 5279000    235.81784   -4904.3508    -4432.686   -4904.3508            0    2744.5099    18.278978     22.83608     19.46202    8123.8401    1330.7523    3373.4805    3529.2969     2021.869   -320.71634    1895.4518   -4107.5223 
 5280000    241.86972   -4879.7559   -4395.9866   -4879.7559            0    2825.1055    18.046713    22.917694    19.704915    8149.7369    4914.8078    2448.9754    1111.5332   -325.30896   -420.30528   -1629.2183   -4060.2071 
 5281000    232.32646   -4864.7145   -4400.0329   -4864.7145            0    1473.6755    18.237165    22.965424    19.579734    8200.4672    99.113625    2105.4854    2216.4275    804.90259   -672.57517   -1003.2838   -4223.7881 
 5282000    242.45341    -4908.214   -4423.2772    -4908.214            0    3255.2082     18.41959     22.66174    19.395558    8096.0931     1389.224    5136.5326    3239.8678    398.57799    317.97776    194.60334   -4038.9243 
 5283000    226.06634   -4870.5997   -4418.4391   -4870.5997            0    2230.0539    18.398381    22.775824     19.52321    8180.9726    2282.1457    2559.8151    1848.2008    1082.6307    300.86111   -87.203589    -4152.369 
 5284000    226.59622   -4912.8993   -4459.6788   -4912.8993            0    3319.1708     18.17341    22.856641    19.480775    8091.9849    2496.8213    3056.7138    4403.9772   -352.13687    855.95294   -133.57637   -4067.9725 
 5285000    226.80274   -4915.1326   -4461.4991   -4915.1326            0    3834.3884    18.183965    22.934556    19.350594    8069.9944    4298.6561    4100.6748    3103.8344   -356.62602     775.5721    585.32129     -4010.22 
 5286000    224.40376   -4903.6425   -4454.8073   -4903.6425            0    3181.1951    18.117731    23.092943    19.324017    8085.0088    2430.1937    2660.4412    4452.9504   -802.89925   -139.85077    1309.0555   -4079.7076 
 5287000    229.98451    -4885.044   -4425.0466    -4885.044            0    4275.1197    18.032898    23.002003    19.501972     8089.277    4602.1528    4205.7322     4017.474    600.44535    94.408341    105.68161   -3920.6944 
 5288000    223.98241   -4878.5758   -4430.5833   -4878.5758            0    1370.6638    18.171458     23.04449    19.483823    8158.8896   -37.128063    1820.8719    2328.2475    1162.6679   -920.65755    430.65108   -4267.4894 
 5289000    226.82496   -4887.8236   -4434.1457   -4887.8236            0    2180.7984    18.305605    22.962246    19.417352     8161.847     1931.199    2141.3779    2469.8185   -2704.8115   -531.24738   -1541.9751   -4174.5605 
 5290000     231.9051   -4881.4796   -4417.6408   -4881.4796            0    2046.8148    18.254876    22.659054    19.680714    8140.6957    1103.1761    3802.9739    1234.2945   -904.50537   -420.06594   -467.61822   -4174.6354 
 5291000    220.50707   -4871.8598   -4430.8184   -4871.8598            0    1144.4747    18.246911    22.919599    19.671308    8226.7748     2575.377    476.68061     381.3663    547.01622    350.31925    1612.9725   -4293.5054 
 5292000    228.97741   -4888.0808   -4430.0977   -4888.0808            0     4151.255    18.143331    23.018158    19.315707    8066.7428     3735.779    4346.4225    4371.5636    1085.9695    1169.9225    747.47851   -3941.7226 
 5293000    230.57323   -4869.9725   -4408.7975   -4869.9725            0    2830.1879     18.02482    23.348262    19.362284    8148.5827    4633.8253    278.19585    3578.5427    -65.03454   -993.11652   -148.89736   -4072.4616 
 5294000    219.02035   -4895.0548   -4456.9871   -4895.0548            0    2529.5994     17.97352    23.209477    19.429865    8105.2848    3060.2056    2298.3754    2230.2171    50.506335   -213.71626   -690.97935     -4157.97 
 5295000    223.07202   -4906.1922   -4460.0206   -4906.1922            0     4000.825    18.224571    22.881403    19.383341     8082.926    2870.3782    4319.0825    4813.0144   -130.45532    80.230429   -1187.6398   -3988.3986 
 5296000    221.16501   -4890.7469   -4448.3895   -4890.7469            0    1856.2981    18.373073    22.624296    19.656817    8170.9031     1912.784     1887.019    1769.0912    657.90966   -989.97065   -30.172032   -4227.1852 
 5297000    240.46941   -4913.6764   -4432.7079   -4913.6764            0    4090.1514    18.099391    22.817655    19.542353    8070.7119    4074.1028    4722.6777    3473.6736    35.796152   -701.66689   -203.22831   -3951.2846 
 5298000    230.36411   -4908.9642   -4448.2075   -4908.9642            0    2741.4809    18.032425    23.273637    19.280087    8091.4691    2162.7724    2129.5949    3932.0754    774.99706   -603.05414    665.56848   -4124.6969 
 5299000    230.40464   -4870.8906   -4410.0528   -4870.8906            0    3251.0844     17.91522    23.436745    19.373278    8134.3447    4312.8325    1175.0073    4265.4136   -1339.9281   -818.80117    348.86386   -4024.3732 
 5300000    224.03753   -4897.3464   -4449.2437   -4897.3464            0    2913.7631    18.199434    22.926297    19.498903    8135.8321    1492.6313    4032.9376    3215.7204    1748.0369    947.75474     1000.116   -4103.5176 
 5301000    245.54138   -4870.4901   -4379.3771   -4870.4901            0    2176.0098    18.332749    22.833395    19.509074    8166.4767    951.45808    2794.0758    2782.4956    1419.4678    387.58759    306.64841    -4120.215 
 5302000    224.54631   -4888.6088   -4439.4884   -4888.6088            0    3888.5925     18.28452    22.476366    19.688033    8091.1821    4073.9509    5060.7359    2531.0905     -140.732    1057.9971   -2237.9433   -3980.6283 
 5303000    224.53064   -4911.1319   -4462.0429   -4911.1319            0    4563.4703    18.199647    22.842504    19.404429    8066.9159    3459.9163    4728.7792    5501.7154   -528.49394   -716.41317   -2178.0028   -3925.1611 
 5304000     243.3586   -4885.6023    -4398.855   -4885.6023            0    1832.9842    18.116417    23.015459    19.555716    8153.9056    1535.7134    1898.9508    2064.2886    975.96777    -855.3303   -1131.2546   -4180.8832 
 5305000    232.81326   -4878.5113    -4412.856   -4878.5113            0    2709.1406    18.169076     22.93728    19.493769    8124.0126    1675.3737    3179.7057    3272.3425    701.67007    -1092.816     1004.749    -4091.876 
 5306000    241.91343   -4876.9452   -4393.0885   -4876.9452            0    2929.8432    18.156231    23.051201    19.452412    8141.2803    2199.1902     2537.217    4053.1224    -2639.256   -735.88207   -401.89097   -4045.2217 
 5307000    214.96201   -4893.0359   -4463.0854   -4893.0359            0    1625.9633    18.205264    23.013823    19.457768    8152.2742    798.11518    2018.8967    2060.8782    763.57994   -572.97855    1799.0816   -4269.7704 
 5308000    220.38069   -4879.9454   -4439.1568   -4879.9454            0    1952.4116    18.338368    22.881905    19.516946    8189.6383    2495.6833    2391.3358    970.21559    961.67503    71.855159    913.49765   -4205.9657 
 5309000    228.77062   -4891.6163   -4434.0468   -4891.6163            0     1879.421    18.327725    22.612825    19.607243    8126.0578    1815.7079    2389.2036    1433.3513    -1502.197    73.457157   -1014.2022   -4211.3162 
 5310000    236.63503    -4908.347   -4435.0477    -4908.347            0    2900.9742    18.042108    22.916568    19.628276    8115.5694    3333.3766    2526.9474    2842.5986   -712.72445     -1413.89   -349.00233   -4091.6964 
 5311000    232.34716   -4881.1901   -4416.4671   -4881.1901            0    1011.2722    18.136022    23.173264    19.487246     8189.921     1260.385    1098.9781    674.45348   -651.42527   -393.71503    456.07975   -4295.6792 
 5312000    239.32796   -4855.5095   -4376.8241   -4855.5095            0    3830.3358    18.178879    23.257047    19.255775    8141.0922    2677.1139    4024.1569    4789.7368    99.242406    455.96296   -2654.2575   -3922.0503 
 5313000    238.78158   -4878.5601   -4400.9674   -4878.5601            0    2174.6633    18.042306    23.142408    19.582631    8176.5789     2288.707    1901.0467    2334.2362   -227.95914    212.76506   -819.35712   -4141.6453 
 5314000    223.87732   -4884.7172   -4436.9349   -4884.7172            0    2206.3005    18.221402    22.997179     19.46018    8154.6099    2310.0507      1857.95    2450.9009   -33.372087   -53.122896   -941.46068   -4174.5471 
 5315000     233.2104   -4924.8828   -4458.4332   -4924.8828            0    2027.0458    18.233137    22.741053    19.627339    8138.2944    2000.7989    2854.8057    1225.5327   -1099.6928   -143.31186     1692.074   -4217.8458 
 5316000     229.3843   -4854.2275   -4395.4306   -4854.2275            0    3035.0118    18.152697    22.979871    19.491082    8130.6394     2799.992    3046.8763    3258.1671    279.45216    486.68916      909.306   -4035.5479 
 5317000    239.58408   -4922.5026   -4443.3048   -4922.5026            0    2742.3414    18.243661    23.065363    19.351073    8142.8671    3034.1075    2556.4756     2636.441   -922.61914    467.00842   -411.49449   -4117.6371 
 5318000    232.24019   -4890.6905   -4426.1814   -4890.6905            0    2177.1765      17.9243    23.296383       19.512    8147.6524    6150.9423     1129.787    -749.1998    252.77926   -154.34558    1756.9776   -4167.4781 
 5319000    223.64011   -4910.3273   -4463.0194   -4910.3273            0      2903.92    18.035993    23.030579    19.472991    8088.6788     3839.409    3139.9073    1732.4438    841.08506   -49.309035    1226.5877   -4120.4582 
 5320000    222.78609   -4865.4646   -4419.8649   -4865.4646            0    1993.9241    18.325571    22.759225    19.558135    8157.2245     482.5662    2436.2786    3062.9276   -434.37772   -65.520204   -277.05984   -4182.6582 
 5321000    225.35128    -4878.819   -4428.0886    -4878.819            0    3040.0741    18.391253    22.635929    19.539876    8134.5106    3018.6051     3515.638    2585.9791   -240.34991    533.21755    189.80902    -4067.434 
 5322000    245.54519    -4867.225   -4376.1043    -4867.225            0    2575.6724    18.083908    22.889902    19.642892    8130.9566    2647.7352     2890.402      2188.88    262.58041    56.058647   -459.09156   -4070.6768 
 5323000    220.10302    -4902.453   -4462.2197    -4902.453            0    2383.8927    18.199609    23.099908    19.364591    8141.0538    926.03671    3035.0243    3190.6172   -78.663691   -7.5100696    393.58857   -4179.1827 
 5324000    220.32719   -4908.1048   -4467.4232   -4908.1048            0    1872.6539    18.177871    23.151295    19.394251    8161.9007    1670.4926    1752.6728    2194.7964    508.38489   -1139.1725    1343.1574   -4244.5157 
 5325000     229.3836   -4897.8221   -4439.0265   -4897.8221            0    1292.3937    18.010392    22.908045    19.845808    8188.0405    3293.0382    1585.7666   -1001.6237    352.77466    189.29097   -489.95165   -4284.6964 
 5326000    224.73163    -4871.842    -4422.351    -4871.842            0    1592.1423    18.263732    23.105965    19.369478    8173.9421    1641.3204    1587.0132    1548.0932    214.71711    621.58047   -731.52066    -4232.554 
 5327000     223.8319   -4922.6014   -4474.9099   -4922.6014            0    3271.5395    18.301699    22.915766    19.270458    8081.9807    1334.4931    4492.1994    3987.9262   -1082.6577    175.54592    661.71837    -4089.302 
 5328000    242.84577   -4876.6563   -4390.9347   -4876.6563            0    3506.0322    18.032744    22.899178    19.576504    8083.8238    3399.8968    3887.6565    3230.5433   -243.18794    476.98592    2142.1257   -3977.5936 
 5329000    232.38249    -4910.019   -4445.2253    -4910.019            0    3546.5879    17.999253    23.041642    19.474196    8076.5792    4380.1628    3534.7234    2724.8775   -374.41462   -968.40731   -1341.6326   -4027.4776 
 5330000    244.67404   -4888.7085   -4399.3302   -4888.7085            0      3147.99    18.143142    23.245773    19.207655    8100.8545    3796.2559    1678.2962     3969.418    502.74353   -60.323789   -152.43416   -4027.4183 
 5331000    227.95291   -4875.3739   -4419.4399   -4875.3739            0     1601.473    18.036079    23.190825    19.452994    8136.6339    491.22783    2006.9982     2306.193    668.57223   -539.50338   -1515.8889    -4229.402 
 5332000    223.64907     -4908.87   -4461.5443     -4908.87            0    2627.4895    18.104268    23.021105    19.496409    8125.7184    3872.9735    1982.4207    2027.0743    1505.0563   -1034.6602    162.16641   -4150.1729 
 5333000    233.31734   -4880.2718   -4413.6083   -4880.2718            0    1772.3856    18.306237     22.78954    19.519924    8143.5311    858.04453    2778.9019    1680.2104    -641.2807    991.60226   -785.53155   -4203.1109 
 5334000    228.68821   -4853.6121   -4396.2075   -4853.6121            0    3731.9519    18.217997    22.646971    19.716277    8134.5895    3319.2538    5207.4149    2669.1869     262.0893    1540.3454    562.22568   -3953.4687 
 5335000    222.59709   -4889.5953   -4444.3736   -4889.5953            0    4014.9009    18.127499    23.011082    19.389086    8087.8345     3656.934    3911.3503    4476.4185    -2174.456    256.89115    458.76217   -3970.8049 
 5336000    216.76326   -4877.8151   -4444.2618   -4877.8151            0    2595.2569    18.083671     23.27847    19.296408    8123.0195    3373.1315    1940.6195    2472.0198   -902.71558    684.48916   -1948.0925   -4136.8124 
 5337000    233.15827   -4902.8198   -4436.4744   -4902.8198            0    3199.9431    18.030896     23.17131    19.422251    8114.6063    3449.9938    2559.1554    3590.6801    -89.19502    391.85876    1035.8299   -4057.7829 
 5338000    231.28283    -4900.449   -4437.8548    -4900.449            0    896.85229    18.201835    23.001323    19.617913    8213.3586    1047.0089    874.94898      768.599     975.2372    770.09225    152.66643   -4330.4268 
 5339000    225.20691   -4922.1719   -4471.7302   -4922.1719            0    4751.0374    18.105952    22.746927     19.45377    8012.1279     4844.585     4377.041    5031.4863     1379.504    24.912092     940.3509   -3916.5778 
 5340000    214.07021   -4865.1044   -4436.9375   -4865.1044            0    3862.5627    18.006857    22.954681    19.569609     8088.935    5081.1858    3710.9533     2795.549   -966.14208   -1075.9299   -6.3696446   -3981.2756 
 5341000    219.34444   -4887.4054   -4448.6894   -4887.4054            0    1180.0448    18.383823    22.986911    19.394127    8195.7119    1635.4592    1001.3171    903.35826   -707.18745    323.34154   -1191.9063   -4307.6433 
 5342000    228.30923   -4895.2353   -4438.5887   -4895.2353            0    2294.8655    18.041511    22.982051    19.596094    8125.1469    3537.8596    1518.1741    1828.5627   -36.253041   -683.63333    760.07088   -4166.6541 
 5343000     233.6159   -4881.0572   -4413.7966   -4881.0572            0    2061.9939    18.127086    23.250187    19.293007    8131.1951    2243.8755    882.04947    3060.0568    37.361347    457.85684    140.86738   -4169.2747 
 5344000    223.44922   -4884.1914   -4437.2654   -4884.1914            0    4104.5858    18.225831    23.004534    19.254822    8073.0989    2392.2501    4775.4188    5146.0883    735.58396   -361.96669    892.03359   -3954.0002 
 5345000     216.2038   -4903.8793    -4471.445   -4903.8793            0    1997.4375    18.079089    23.072903    19.478997    8125.4115    3924.1778    609.70947    1458.4253    5.3942698   -286.17575   -236.67194   -4234.7471 
 5346000    241.65679   -4900.0726   -4416.7291   -4900.0726            0    4270.2729    18.072071    23.004536     19.41656    8072.2326    4170.4616    4558.6792    4081.6778    240.11229    865.99107   -38.587497   -3914.0103 
 5347000    236.27238   -4899.8512   -4427.2772   -4899.8512            0    3791.2858    18.068034    23.206626    19.268184    8079.1131    3490.1971    2141.1486    5742.5118    -1032.967    673.05269    309.75814   -3980.5668 
 5348000    226.87636   -4886.7035   -4432.9228   -4886.7035            0    2906.8223    18.056869    23.064538    19.501686    8121.9325    3217.7745    2582.5676    2920.1247   -523.31968    438.76236   -394.75201   -4088.6095 
 5349000    235.50299   -4909.9763   -4438.9412   -4909.9763            0    2548.0877    18.150647    22.748755    19.653729    8115.1152    3461.1286    3364.6718    818.46263   -283.70788      324.301    -189.1397   -4137.3734 
 5350000    225.94388   -4882.1521   -4430.2364   -4882.1521            0    3376.1564    18.217779    22.791981    19.514053    8102.6111    2856.3036    3601.2372    3670.9285   -1765.0796   -331.38313   -853.48747   -4031.2818 
 5351000    218.11288   -4903.8644   -4467.6117   -4903.8644            0    2670.4369    17.991611    23.087959    19.597776     8140.712     3583.194    1562.5697    2865.5471   -93.724324    275.40801    1268.5548   -4150.5669 
 5352000    230.70818   -4894.3221   -4432.8773   -4894.3221            0    2556.1195    18.239036    23.034513    19.400462    8150.6639    1624.6513     2723.565    3320.1421    1198.0597    770.14134    71.728089   -4129.0337 
 5353000    233.82521   -4884.3516   -4416.6723   -4884.3516            0    3129.9954    18.034254    23.092328    19.472805     8109.506    3485.5429     2746.402    3158.0413    162.44574    180.52365   -1221.9653   -4046.4914 
 5354000    230.38541   -4881.9708   -4421.1715   -4881.9708            0    1707.6716    18.124919    22.960611    19.581609    8149.0671    1377.4953    713.57233    3031.9472    1894.0134    -951.1005     930.6766   -4218.2219 
 5355000    237.60229   -4867.6742   -4392.4403   -4867.6742            0    2587.7729    18.199998    22.921674    19.502573    8135.9745    2680.6123    2221.8945     2860.812   -689.64355   -406.69008   -193.41373   -4085.3885 
 5356000    225.82527   -4906.5554   -4454.8769   -4906.5554            0    4171.9654    18.016321    22.702911    19.690104    8053.7041    3872.5912     5270.849    3372.4561    511.39082    554.47054    1472.3909   -3964.8587 
 5357000    229.64817   -4880.0995   -4420.7748   -4880.0995            0    2362.1203     18.23179    23.125525    19.344651    8156.0862    316.18348    3189.2359    3580.9415   -644.46108    451.87192   -821.38009    -4139.805 
 5358000    235.81851   -4886.8154   -4415.1493   -4886.8154            0    2665.4902    18.103325    23.162976    19.420731    8143.6347    4327.5164    1664.1482    2004.8061   -1224.2512    309.31641    570.92335   -4098.5782 
 5359000    231.64078   -4912.9809   -4449.6707   -4912.9809            0    3163.8939    18.010017    23.117373      19.4262    8087.9877    2804.1943    3548.9889    3138.4987    401.15247    978.67976    1228.0578   -4076.4735 
 5360000    235.79894   -4884.1865   -4412.5595   -4884.1865            0     1620.797    18.367037    23.052477    19.382868    8206.8167    1415.8654    1190.7583    2255.7675   -291.95976    86.522861    123.80198   -4218.5695 
 5361000    235.97732   -4870.2585   -4398.2747   -4870.2585            0    4033.5966    18.067008    22.818541     19.63266    8093.8147     4719.633     4084.394    3296.7627   -41.800183     665.5929   -1369.6088   -3922.1491 
 5362000    231.89237   -4885.6934     -4421.88   -4885.6934            0    933.89281    18.232215    22.992847    19.459075    8157.4489    2714.9629    72.442151    14.273335    330.39476   -872.39356    1036.8969   -4310.7767 
 5363000    224.49261   -4896.6146   -4447.6016   -4896.6146            0    2998.5542    18.058997      23.1275    19.358721    8085.3527    4209.1303    2117.7869    2668.7455    83.046887   -977.35078    1254.7625   -4094.0224 
 5364000    228.24024   -4875.6704   -4419.1617   -4875.6704            0    2575.6194    18.020196    23.257106    19.437895    8146.3751    3244.1476    1813.2645    2669.4461   -300.76696   -273.76623    223.70515   -4113.1613 
 5365000    230.44276   -4895.4943   -4434.5803   -4895.4943            0    2596.6579    18.154297    23.220046    19.264084    8120.6514    2682.9425     1980.485    3126.5461    569.73925   -502.61454   -73.361995   -4127.0546 
 5366000    217.72451   -4893.1353   -4457.6593   -4893.1353            0    2205.9354    18.315328       23.023    19.451176    8202.0512    2349.3777     1592.384    2676.0445   -1927.4584    29.222937   -1458.7581   -4193.7887 
 5367000    224.69955   -4913.5077   -4464.0809   -4913.5077            0    1868.5176    18.200092    22.705946    19.673977    8130.2769    2541.4134     1914.902    1149.2374     1957.333    -382.1174    2262.8792   -4242.5275 
 5368000    218.86175   -4895.6179   -4457.8674   -4895.6179            0    2257.3284    18.359843     22.72722    19.530569     8149.485    1898.8094    2621.3212    2251.8547   -457.37459    174.49593   -342.85161   -4189.5797 
 5369000    225.74699   -4905.0528   -4453.5309   -4905.0528            0     2121.889    18.123792     22.73609    19.715403    8124.0113    3541.7781    3113.8434   -289.95454   -360.22962    118.03162   -766.40755   -4202.1287 
 5370000    227.79604   -4889.6282    -4434.008   -4889.6282            0    1562.5565    18.219605    22.953386    19.479189    8146.2284    1787.3859    1710.6045    1189.6793   -524.62868   -205.09037   -416.18293   -4248.3694 
 5371000    216.21667   -4885.4001   -4452.9401   -4885.4001            0    3526.6411    18.055694    23.078309    19.452245    8105.6512    5596.3417    3342.5774    1641.0042   -529.71482   -492.78951    1357.2532   -4036.0466 
 5372000    232.78094   -4869.6039   -4404.0132   -4869.6039            0    2278.3931    18.069555    23.124488    19.437343    8121.8784    2858.3487    2189.5419    1787.2887   -1879.0922    391.58233    217.47907   -4134.1392 
 5373000      223.426   -4880.8451   -4433.9655   -4880.8451            0    3117.2464    18.219106    22.908332    19.440477    8113.8589    3185.6432    2733.4545    3432.6415    656.60423      1015.53     2337.417   -4065.0946 
 5374000    245.40991   -4908.4599   -4417.6098   -4908.4599            0    690.27246    18.315291    22.736717     19.65908    8186.6225   -136.41263    1365.4159    841.81413    120.37679   -416.07887   -558.13132   -4335.1957 
 5375000    232.87303   -4873.1218    -4407.347   -4873.1218            0    1940.4484    18.285418    22.825977    19.535962    8153.9693     1887.939    2188.7376    1744.6688    325.58979    292.82586   -468.44781   -4176.5941 
 5376000    230.81908   -4907.3791   -4445.7124   -4907.3791            0    1254.8087    18.220619    22.980158    19.514464    8170.9539    932.95545    1710.7477     1120.723   -439.57125    339.74421   -587.74354   -4296.1832 
 5377000    217.25416   -4887.1738   -4452.6387   -4887.1738            0    3241.8824    18.024293    23.171954    19.509754    8148.4068    3099.3093    3099.9711    3526.3667   -817.52627    733.26339    280.20452   -4067.3858 
 5378000    229.66585   -4905.6299   -4446.2699   -4905.6299            0    2797.8654    17.969881    23.166938    19.470672    8105.7794    2968.5715    2391.8263    3033.1984   -74.689724   -623.19671   -1472.8105   -4115.5217 
 5379000    244.75599   -4880.6927   -4391.1505   -4880.6927            0    662.97126    18.173015    23.169632    19.494963    8208.5898    542.33999    693.42958     753.1442    1154.8591   -528.48693    584.37618   -4311.7837 
 5380000    216.01547   -4902.6275   -4470.5699   -4902.6275            0    1160.0744    18.154021    23.019338    19.540971    8166.0457    257.69771    643.07605    2579.4494   -465.14881   -304.59535   -21.942122   -4332.4127 
 5381000    225.59735   -4914.9539   -4463.7313   -4914.9539            0    2767.0608    18.121538    22.909741    19.492317    8092.4256    3531.8875    1945.9149    2823.3799   -639.81626   -1199.6301   -115.57841   -4137.1636 
 5382000    232.93592   -4874.6567   -4408.7561   -4874.6567            0    2371.5728    18.266328    22.904988    19.493903    8156.0546    2431.2702     2180.863    2502.5852    534.39214   -443.19977   -456.15833    -4126.663 
 5383000    238.11051   -4894.9651   -4418.7146   -4894.9651            0    981.94665    18.242146    23.017754    19.546966    8207.6387    2012.8137    653.66034    279.36595   -85.288135   -648.88475   -616.94711   -4301.1756 
 5384000    216.19615   -4884.7262   -4452.3072   -4884.7262            0    3999.1735     18.28943    22.826707    19.301027    8057.9368    2452.7644    4245.5601    5299.1959   -832.89139    788.03994    194.77194   -3982.3373 
 5385000    222.69683   -4893.3625   -4447.9414   -4893.3625            0    3665.6041    18.131922    22.846477    19.544906    8096.4877    1665.4991    4758.3548    4572.9582    72.733803   -195.77379    107.39506   -4015.1106 
 5386000    231.10428   -4875.1922    -4412.955   -4875.1922            0    3346.1743    18.149082    23.064708    19.360126    8104.2119    3384.8079    2442.3067    4211.4082   -1538.5908   -722.16328    1448.6207   -4017.4653 
 5387000    224.67748   -4892.0392   -4442.6565   -4892.0392            0    2698.7714    18.019001    23.193699    19.347842    8085.9912    2007.9381    2659.8849    3428.4912   -620.31242    763.52612    90.634927   -4124.4015 
 5388000    225.35809   -4893.6542   -4442.9102   -4893.6542            0    2300.1368     18.08066    23.196582    19.367581    8122.9478    3933.3297    898.97824    2068.1026   -1398.2051   -977.68012   -639.67453   -4170.4248 
 5389000    215.49166   -4894.1186   -4463.1086   -4894.1186            0    4689.7422    18.097056    22.959445    19.422338    8069.9493    4290.0273    4614.8062    5164.3931    496.44853    631.66771   -1438.1569   -3911.1638 
 5390000    234.10321    -4887.011   -4418.7757    -4887.011            0    3868.4645    18.079849    22.956701    19.442537    8069.6966    4574.5597    3268.6265    3762.2074    19.240591    281.37117   -1698.9237   -3963.5028 
 5391000    218.85845   -4879.9381   -4442.1942   -4879.9381            0    797.19138    18.270568    22.954426    19.553458    8200.5324    524.44445    1922.5593   -55.429593    373.40521    2135.2767   -144.58445    -4346.853 
 5392000    224.39448   -4885.7322   -4436.9156   -4885.7322            0    1289.8667    18.348887    22.920541    19.491914    8197.6444    33.979168    1502.9694    2332.6514     365.7027   -797.27051   -670.58803   -4282.7065 
 5393000    232.75723   -4907.9039   -4442.3607   -4907.9039            0    1504.5437    18.127936     22.97905    19.524762    8133.2887    1616.9939    1615.9176    1280.7195    165.02719   -765.91136    759.62602   -4263.8982 
 5394000      222.179    -4878.081   -4433.6955    -4878.081            0    1919.4106     18.15564    22.994568      19.5707    8170.3977    3860.4617    635.06183    1262.7083   -621.92624   -15.467924   -2091.5061   -4204.9846 
 5395000    228.68554   -4892.1558   -4434.7565   -4892.1558            0    2818.8316     18.07644    23.252137    19.285786    8106.1215    1973.2912    1940.7423    4542.4614    978.71578   -462.32571    -812.9053   -4101.5157 
 5396000    220.13687   -4884.3665   -4444.0655   -4884.3665            0    4007.2547    18.060192    23.075445    19.385741    8078.9489     2430.804    4260.3763    5330.5837    798.80825    1109.6133     115.4283    -3971.918 
 5397000    224.42232   -4916.5572   -4467.6848   -4916.5572            0    2746.0448    18.118084     23.01412    19.361288    8073.1105    2005.4888     2806.999    3425.6464    -367.4485    513.84688    557.69105   -4144.3709 
 5398000    229.40058   -4900.0575    -4441.228   -4900.0575            0    2629.9763    18.169489     22.89885    19.509422    8117.0981    2782.3605    2744.5041    2363.0644    899.88086    -1282.644    419.14595   -4129.8926 
 5399000    237.17061   -4876.2136   -4401.8431   -4876.2136            0    2133.3135    18.134215    22.875016    19.617593    8137.7792    1631.6504    2674.2022    2094.0878    95.996149   -142.04909    488.10206    -4148.659 
 5400000    224.25599   -4898.9878   -4450.4481   -4898.9878            0    3533.0422    18.200428    22.778445    19.449701    8063.4076       3199.7    4448.2452    2951.1816    763.95331     1339.165    576.22517   -4034.9746 
 5401000    224.16507   -4840.3996   -4392.0418   -4840.3996            0    3115.8336    18.240672    23.102622    19.357007     8157.185    2568.3562    3128.0422    3651.1023   -682.83677   -108.46446   -1155.1411   -4021.3692 
 5402000    234.47176   -4895.0632   -4426.0907   -4895.0632            0    2569.7867    17.946252    23.158511    19.456875    8086.4419    2361.5634      2803.89    2543.9067   -881.29494    264.14471   -247.93012   -4123.0294 
 5403000    237.96867   -4896.9989   -4421.0322   -4896.9989            0     2894.068    18.126175    22.989705    19.441924    8101.7496    4238.4042    2357.4804    2086.3194    1188.0493    684.79834    1371.1833   -4079.0815 
 5404000    222.67948   -4876.6409   -4431.2544   -4876.6409            0    4468.3181    18.302206    22.688646    19.449116    8076.2895    2688.0089     5137.707    5579.2385   -117.14759     818.2513   -2201.2553   -3904.9563 
 5405000     228.0687   -4904.4588   -4448.2932   -4904.4588            0     484.1427    18.168055    22.902034    19.719369     8204.942    175.74725    1372.3561   -95.675197   -38.402694    381.80545    313.46103   -4390.3604 
 5406000    222.63057   -4909.2815   -4463.9928   -4909.2815            0    2014.6631      18.1999    23.106608     19.40943     8162.402    942.95351    2567.9808    2533.0549    653.01013    1227.7784    331.68794   -4224.1668 
 5407000    222.50511    -4886.499   -4441.4613    -4886.499            0    2310.2888    18.133505    23.170849    19.382341    8143.8531    2127.1875    1995.5385    2808.1404   -1127.2038    349.76165    -1536.521   -4167.0689 
 5408000    229.74623   -4921.8632   -4462.3424   -4921.8632            0    2445.9735    18.171987    22.905295    19.538722    8132.6947    2301.0061    2232.7782    2804.1362   -339.04732   -52.527971    363.72365   -4172.2328 
 5409000    224.87615    -4908.358    -4458.578    -4908.358            0     2701.371    18.265193    22.862993    19.439991    8118.0816    3525.5486    2645.6298    1932.9348   -765.82666   -1418.9101   -193.25274   -4138.7521 
 5410000    232.25835   -4886.9518   -4422.4064   -4886.9518            0    2938.3901    18.103646    22.661582    19.725752     8092.633    2956.2453    3388.3101    2470.6149   -733.19777   -518.86211    145.63012   -4075.6095 
 5411000     223.1029   -4899.4876   -4453.2542   -4899.4876            0    3318.1209    18.233169    22.877899    19.408575    8096.0268    2992.2158    2790.3667    4171.7801   -511.44962   -1373.5513   -1075.9576   -4061.4762 
 5412000    229.92296   -4894.0204   -4434.1461   -4894.0204            0    533.55889    18.199166     23.09143    19.498253    8194.0389   -367.67854    1552.6944    415.66084    42.320868    798.15733    135.05702   -4370.3849 
 5413000    223.61824   -4885.6746   -4438.4104   -4885.6746            0    3557.6131    18.110795    23.158083    19.294601    8092.3738    3526.1154    2735.8088     4410.915     997.1813   -536.52052   -676.70308   -4018.5446 
 5414000    222.80615   -4891.3537   -4445.7139   -4891.3537            0    2127.2303    18.176087    22.978947     19.53207    8157.9081    3224.8841    1403.5067    1753.3002    69.101671   -791.23487   -1247.1783   -4192.6272 
 5415000    224.47674   -4889.3844   -4440.4032   -4889.3844            0    2590.3905    18.222298    22.906587    19.455267    8120.8354    1988.6016    2492.6949    3289.8749    1414.9736    797.06677    392.02458   -4133.6127 
 5416000    230.73434   -4856.9193   -4395.4221   -4856.9193            0    1802.7652    18.195611    22.816236    19.746154    8197.7216    1954.2712    2384.8456    1069.1789    703.32442    312.68581    441.09115   -4179.8919 
 5417000    226.33541   -4900.6968    -4447.998   -4900.6968            0    2701.5784    18.257329    22.867296    19.498873    8140.6969    1717.3942     2742.313    3645.0281    227.97541   -619.03413   -1003.2831   -4127.2566 
 5418000    228.27928   -4866.2266   -4409.6399   -4866.2266            0    3913.0566    18.215535    22.861596    19.428916    8090.9038     4626.078    3693.3793    3419.7124   -492.15841   -103.12019    386.83638   -3947.9088 
 5419000    240.00478   -4878.4157   -4398.3765   -4878.4157            0    2167.3517    18.240962    22.912012    19.587659    8186.4099    1995.5891    2488.4602    2018.0057   -1532.4003   -877.80628    349.59062   -4139.6155 
 5420000    225.71789   -4879.3022   -4427.8385   -4879.3022            0    2879.1674    17.998642    23.253393    19.397976    8118.6251    4195.2393    766.63288      3675.63    -521.1698   -824.02198   -236.13998   -4086.9399 
 5421000    233.49745   -4888.3365   -4421.3127   -4888.3365            0    3191.2349    18.062584    23.229006    19.411502    8144.5976    2511.0881    2919.5818    4143.0347   -978.67799    30.178702    200.70394   -4042.2559 
 5422000    227.84525   -4909.2548   -4453.5361   -4909.2548            0    4581.2657    18.133332     22.81576    19.475735    8057.6133    4157.5279    5373.4898    4212.7794   -155.69298    522.18397    614.97389   -3915.1823 
 5423000    224.43554   -4899.6037   -4450.7049   -4899.6037            0    2686.1059    18.241733    22.671271    19.588358     8101.025    2518.3851    3817.3937    1722.5389   -462.71249   -187.21078    600.73367   -4133.3545 
 5424000    228.56641   -4903.6487   -4446.4876   -4903.6487            0    1364.9935    18.154275    22.876222    19.617193    8147.0442    2678.4634     835.9658    580.55135    189.34544    579.14658   -1843.8978   -4284.3042 
 5425000    230.17814   -4902.4977    -4442.113   -4902.4977            0    4118.8543    18.042306    23.069757    19.353323    8055.4647    5123.5103    3476.9857    3756.0669    1674.0778    1099.1416   -677.13906   -3958.2272 
 5426000     222.5972   -4877.9523   -4432.7304   -4877.9523            0    4172.8794    18.086935     23.10734    19.388343    8103.1828     2896.284    4406.4143      5215.94   -4.1597333    204.57995    -619.2236   -3939.5936 
 5427000    238.56566   -4898.5969   -4421.4361   -4898.5969            0    1684.4233    18.212423    23.016077      19.4636    8158.7234    1060.1312    1682.8114    2310.3272    752.65292   -1176.9144    142.16035   -4221.0123 
 5428000    234.27035   -4893.0039   -4424.4343   -4893.0039            0    3382.6099    18.163286    22.830279    19.503069    8087.3942    3143.2542    3389.9981    3614.5775   -395.66788   -307.73468   -734.27174   -4025.4678 
 5429000    224.98089   -4863.2107   -4413.2211   -4863.2107            0     2953.609    18.355818    22.708782      19.5319    8141.6438    1960.9034    3687.9611    3211.9624    500.32916    336.44255   -4.0769911   -4062.5169 
 5430000    225.09946   -4879.8777    -4429.651   -4879.8777            0    2812.5374    18.224743    22.910858    19.464305    8127.2133    1571.1511    3008.4361    3858.0249    375.39161    709.52089   -974.64002   -4096.2892 
 5431000    222.01905    -4885.576   -4441.5105    -4885.576            0    4112.8372    18.274736    22.843235    19.369663    8085.9449    2588.4612    4749.0123    5001.0381   -69.193482    358.26599     1031.405   -3956.5033 
 5432000    239.47228   -4905.6781    -4426.704   -4905.6781            0    2375.6894    17.973864    23.192127    19.545919    8147.7582     2466.824    1236.1689    3424.0752    1185.8222   -555.35304   -1276.5005   -4144.4086 
 5433000    218.65905   -4889.1876   -4451.8425   -4889.1876            0    3837.3132    18.096661    23.161719    19.245568    8066.7755    3186.8006    3509.2354    4815.9037    498.38921   -200.74308   -1671.1112   -4000.3993 
 5434000    216.40978    -4893.504   -4460.6577    -4893.504            0    424.38653    18.207003    23.121338    19.491203    8205.2171    579.65203   -50.489068    743.99662    785.54088   -573.90825    869.09024   -4409.8736 
 5435000    227.55429   -4863.8038   -4408.6671   -4863.8038            0    3338.8024    18.346759    22.633578    19.584506    8132.5211    3762.6378    4260.5213    1993.2481    1599.4559    966.18519    274.67496   -4012.6702 
 5436000    232.28794   -4878.5839   -4413.9794   -4878.5839            0     4293.623    18.252615    22.716062    19.539043    8101.4254    4921.9064     5171.988    2786.9746    447.95872    96.885958   -573.50257   -3906.6836 
 5437000    226.17152   -4898.9814   -4446.6104   -4898.9814            0    2471.9266    18.178625    22.934102    19.507553    8132.9025     3003.872     2732.521    1679.3869    385.96956    -275.8843    479.85339   -4153.4151 
 5438000    241.82423   -4901.2251   -4417.5468   -4901.2251            0    1973.9367    18.095235     23.20762    19.427372    8158.4733    2745.7471    751.20777    2424.8551   -90.436061    540.65132    1205.3396    -4182.682 
 5439000    218.70707   -4897.4123   -4459.9711   -4897.4123            0    1909.2565    18.135256    23.148521    19.365761     8129.831    253.76297    2568.6656    2905.3409   -1666.6583     277.6863     863.4093   -4233.5996 
 5440000    244.72598   -4880.1951   -4390.7129   -4880.1951            0    1379.6336    18.161092    22.992959    19.594854    8182.3653    986.23621     899.3747    2253.2899   -538.40419   -667.75173    1106.7514   -4226.0793 
 5441000    235.88941   -4898.5423   -4426.7343   -4898.5423            0    2806.7128    18.209863    22.965372    19.463306    8139.4819    2202.9793    3611.8231    2605.3359   -1469.9664   -250.67062   -192.59969   -4093.5607 
 5442000    234.20475   -4885.8486   -4417.4102   -4885.8486            0    4399.9862    18.186264    22.950478    19.342764    8073.3494    2847.6949    4690.4489    5661.8148   -421.49498    87.473425   -311.82257   -3899.3491 
 5443000    237.98758    -4914.154   -4438.1495    -4914.154            0    2996.9909    18.037096    23.017966    19.532801    8109.5747    1556.6736    4013.0324    3421.2668    194.98899   -117.38194   -857.10651   -4083.6959 
 5444000    232.73131   -4901.1659   -4435.6745   -4901.1659            0    2013.3016    18.138909    23.169039    19.424469    8163.3484    2658.7522    1832.8068    1548.3458    1363.1891    1117.7696    614.30965   -4195.9828 
 5445000    224.11853   -4875.8531   -4427.5883   -4875.8531            0     3714.694    18.363437    22.880937    19.257739    8091.5751     2529.649    3686.6831    4927.7498    692.29984    1275.7673   -249.04149   -3989.2272 
 5446000    222.90646   -4883.3871   -4437.5467   -4883.3871            0    1894.2895    18.396065    22.581567    19.638736    8158.1661    454.32345     2848.305      2380.24    1200.3501    32.112446   -1296.6462    -4212.167 
 5447000    225.06447    -4882.565   -4432.4083    -4882.565            0    1677.6594    18.192826    22.929555     19.55358    8156.8423    1080.5391     2286.038     1666.401   -130.26428    1284.3326   -856.45672   -4232.8353 
 5448000    236.97717   -4909.0567   -4435.0731   -4909.0567            0     1684.474    18.172183    23.111688    19.395867    8146.0666    2647.1716    733.18503    1673.0652    1974.8225   -588.99547    2015.5989   -4234.9542 
 5449000    235.48853   -4881.1788   -4410.1726   -4881.1788            0    3151.2589    17.969302    23.154072    19.465999    8099.0725    3530.9955    2620.4107    3302.3706   -193.37928   -682.90581    302.58407   -4037.9564 
 5450000    219.75502   -4880.7307   -4441.1935   -4880.7307            0    3681.2372    18.154009     23.20218    19.274735     8118.761    2320.9756    3742.3263    4980.4097   -940.38285   -287.35267   -481.19769    -4005.321 
 5451000    225.39778   -4884.3986   -4433.5752   -4884.3986            0    3500.4624      18.1164    22.797362    19.638772    8110.9336    3923.2413     3692.126    2886.0197    546.46892   -76.186999    1236.0395   -4019.5068 
 5452000    228.96499   -4896.1256   -4438.1674   -4896.1256            0    842.38791    18.292941    22.862023    19.569424       8184.2   -128.47179     1244.287    1411.3485   -784.20322    143.35689   -787.85411   -4337.6215 
 5453000    212.22181   -4885.9842   -4461.5143   -4885.9842            0    2731.5216    18.231054    22.960997    19.419041    8128.8726    2728.1287    2294.7328    3171.7033     392.4352   -274.29294    1910.0273    -4137.689 
 5454000    220.58298    -4903.199   -4462.0058    -4903.199            0     3689.277    18.076307    22.808759    19.549752    8060.3264    3765.8992    4166.1056    3135.8263   -302.67054    26.280287    -15.58051   -4028.3254 
 5455000    229.57886   -4917.3209   -4458.1349   -4917.3209            0    1913.3247    18.321417    22.906808    19.365592    8127.4522    1968.8155    2069.9011    1701.2575   -598.95274   -1180.3285   -674.69013   -4231.3474 
 5456000    225.60543   -4894.7623   -4443.5235   -4894.7623            0    3389.1519    18.110063    22.754455    19.666931    8104.4396    4367.4294    3260.2106    2539.8157    722.17629   -357.09615   -705.51424   -4042.9429 
 5457000    235.62725   -4903.9194   -4432.6358   -4903.9194            0    2352.3817    18.080537    23.079072    19.465587    8122.6392    1750.4413     2427.986    2878.7178   -1918.5523     824.1174   -3219.6337   -4153.9718 
 5458000    231.12329   -4883.3658   -4421.0907   -4883.3658            0    3147.8157    18.127911     23.09058    19.341052    8095.8547     4076.256     2292.553    3074.6382    56.473212    597.05598   -158.32273   -4049.4289 
 5459000    231.43724   -4894.5483   -4431.6453   -4894.5483            0    3348.2039    18.088085    23.122891    19.411761    8118.9464    4047.4148    2451.7601    3545.4369     192.8894   -543.97158   -2479.7811   -4035.1961 
 5460000     229.1864    -4869.116   -4410.7149    -4869.116            0    2494.2183    18.176485    23.079024    19.395858    8136.4758    3740.3351    2095.0554    1647.2645    1072.4066   -205.33512   -594.29901   -4114.7456 
 5461000    227.76038   -4887.8471   -4432.2982   -4887.8471            0      1050.38    18.296681    22.896356    19.567647     8197.422    2060.1807    1054.2931    36.666143    1768.2716    78.782785    1105.5572   -4306.7242 
 5462000     223.5445   -4880.1107   -4432.9941   -4880.1107            0     3187.531    18.227499    22.799345     19.46426    8088.8605    2969.7513    3561.0357    3031.8061   -957.25304    72.056094   -172.87851   -4056.9683 
 5463000    223.60126   -4883.3669   -4436.1368   -4883.3669            0    2213.2447    18.221583    22.815346    19.574824    8137.8754    1589.7687    2550.5822    2499.3833    -1910.313    -96.18392    694.33054   -4173.4632 
 5464000    218.29684   -4870.4686    -4433.848   -4870.4686            0    1390.5551    18.158024    23.140481    19.409089    8155.4157    3068.6985    181.22824    921.73868   -1457.2946   -368.11725    1252.5497   -4268.4576 
 5465000    219.58874   -4913.7294   -4474.5248   -4913.7294            0    2266.1211    17.949936    23.081015    19.593057    8117.4571    3109.0619    1731.5172    1957.7843    18.349571   -554.62173    11.258293   -4206.2505 
 5466000    232.27052   -4905.3054   -4440.7357   -4905.3054            0      3045.52    17.965717    23.099369    19.503545    8093.9074     4000.575    3216.0371    1919.9478    858.75944    876.63966   -576.32539   -4081.2384 
 5467000    215.93476   -4906.1535   -4474.2573   -4906.1535            0    2104.7398    18.068687    23.105172    19.478079    8131.7109    1433.3792    2242.5755    2638.2645   -383.24384    751.36747     4.759533   -4224.6507 
 5468000    228.70875   -4874.4732   -4417.0274   -4874.4732            0    2230.7837    18.317191    22.994062    19.399632    8170.8656    2504.8238    2693.8695    1493.6578   -415.85679    817.84011   -484.23227    -4151.199 
 5469000    221.82482   -4882.7172   -4439.0402   -4882.7172            0    2778.6841    18.275769    22.837951    19.474172    8128.1516    773.82312    3929.0341    3633.1951    248.72989     2521.382    -1363.813   -4109.6529 
 5470000    225.52906   -4913.0533   -4461.9673   -4913.0533            0    2215.3279    18.154972    22.691306     19.73156    8128.6138    4205.2021    2860.8369   -420.05517    2427.1737     706.1077    1082.0771   -4199.3458 
 5471000    227.45078   -4900.5703   -4445.6406   -4900.5703            0    1053.4178    18.265262    23.037539    19.461554    8189.1631   -104.52841    1280.0727    1984.7092    1412.4178   -229.66781   -63.637727   -4319.8304 
 5472000     227.2458   -4922.1738   -4467.6541   -4922.1738            0    1637.3186    18.118175    23.144645    19.397678    8134.1973     2260.839    1093.6596    1557.4571   -95.484251   -772.78005   -403.79101   -4273.4207 
 5473000    211.64882   -4885.7454   -4462.4216   -4885.7454            0    2106.7762    18.012791    23.173723    19.495187    8137.7479    1709.8398    2025.8136    2584.6753    393.01263      387.538   -369.85259   -4212.3879 
 5474000    233.01487   -4898.4791   -4432.4206   -4898.4791            0    1483.8779    18.124178    23.194295    19.457605    8179.5399    3382.0449    698.74685    370.84206    581.68172   -552.65389    1256.5177   -4255.4085 
 5475000    215.71215   -4893.8421   -4462.3912   -4893.8421            0    2472.2829    18.061947    23.069218    19.492397    8121.9943    3763.3473     1021.646    2631.8554   -50.951931   -570.47803   -920.86165   -4169.5469 
 5476000    220.03075   -4884.7778   -4444.6892   -4884.7778            0     3162.788     18.07218    22.961123    19.514235    8097.5793    3814.8047    2589.7777    3083.7817   -854.58237      749.023   -78.203875   -4071.1801 
 5477000    239.57808    -4857.904   -4378.7182    -4857.904            0    2923.1775    18.225345     22.93967    19.482688    8145.3883    3254.8734    3438.5768    2076.0824    387.48626   -59.330703    1692.4394   -4031.4677 
 5478000    231.20809   -4871.5179   -4409.0732   -4871.5179            0      2809.19    18.180659    22.770114     19.64555    8132.7801    2552.6263    4647.3506     1227.593    823.32201    1080.0609   -297.85191   -4075.8801 
 5479000    233.82046   -4885.4087   -4417.7389   -4885.4087            0    2242.7295    18.242175    22.917578    19.577729    8184.7919    591.44637    3134.5285    3002.2137    483.10221    911.95021   -445.35935   -4150.0315 
 5480000    246.39185   -4889.8882   -4397.0741   -4889.8882            0    2376.0438    18.172137    23.057311    19.431621     8141.861    1004.7356    3015.0735    3108.3224   -218.30407   -465.92956    166.53305    -4114.941 
 5481000    235.60576   -4878.0253   -4406.7846   -4878.0253            0    3846.2057    18.006027    23.101407    19.432727    8083.3255    5765.4135    2389.0446    3384.1591   -977.37883   -1163.0678    1173.6047   -3953.3669 
 5482000    227.16563   -4877.9553    -4423.596   -4877.9553            0    2613.9353    18.072386    23.133549     19.41929    8118.7865    3380.5469    2423.2826    2037.9765   -917.47674   -598.70181   -1872.1279   -4114.0952 
 5483000    231.62847   -4916.4813   -4453.1958   -4916.4813            0    2573.8293    18.200004    22.887733    19.490667     8118.971      1161.28    2346.5197    4213.6883    273.69658   -493.28096   -87.603021   -4148.4367 
 5484000    228.60546   -4873.0943   -4415.8551   -4873.0943            0    1343.0358     18.32381    22.903156    19.487724    8178.4733    1014.9727    1924.1953    1089.9394    32.824085    1033.9833   -659.37674    -4255.665 
 5485000    225.31841   -4908.4739   -4457.8092   -4908.4739            0    2568.1427     18.18283    22.747867    19.586982    8101.5795   -125.31516    4194.6733      3635.07   -1187.1051    539.91384   -1870.9557   -4154.3749 
 5486000    228.16991      -4899.2    -4442.832      -4899.2            0    3951.9341    18.195639    23.046782    19.338369    8109.5632    2988.4458    3574.0469    5293.3095   -370.55767   -176.14472   -1272.1461   -3975.4381 
 5487000    219.87618   -4877.7445    -4437.965   -4877.7445            0    2344.1763    17.998971    23.320183    19.339245    8117.4412     2429.375    1544.4587    3058.6954    58.147931   -734.20969   -39.034993   -4160.4507 
 5488000    217.21306   -4850.7089    -4416.256   -4850.7089            0    3311.3691    17.972705    23.232429    19.465393    8127.7668    4153.1478    2496.1479    3284.8117    65.040281    844.70533    1425.1933   -4023.7424 
 5489000    224.72261   -4883.0064   -4433.5334   -4883.0064            0    2573.9518    18.288563    22.760909    19.507217    8120.1588    1132.0027    3041.8215    3548.0311    1905.0534    14.310589    285.52779   -4128.7153 
 5490000    236.91415   -4894.7186    -4420.861   -4894.7186            0    1994.4983    18.299879    22.893695    19.468187    8156.2327    2111.0602    1987.7309    1884.7037    1354.8469   -352.44132   -577.36974   -4183.6149 
 5491000    220.20819   -4892.2032   -4451.7596   -4892.2032            0    2127.3186    18.098871    23.030859    19.505868    8130.6805    5068.0157    195.16759    1118.7724    520.36027   -1343.5968   -217.51307   -4199.5072 
 5492000    222.69815   -4890.1026   -4444.6788   -4890.1026            0    1579.6116    18.195409     23.01294    19.481336    8157.4171    1597.1125    1868.1437    1273.5785    589.71689   -814.46366    76.096381   -4256.7563 
 5493000     242.0463   -4889.7193   -4405.5968   -4889.7193            0    3128.1668    18.066353    22.846287    19.665677    8116.9902    3874.9532    4237.2431    1272.3041    298.13037   -369.40303   -1313.8732   -4035.2908 
 5494000    228.61326    -4871.865   -4414.6103    -4871.865            0     2709.881    18.167375    22.928838    19.492589    8119.7706    3112.7995    3155.2306     1861.613   -997.72159   -1170.9626   -1081.9559   -4093.7101 
 5495000     236.9962   -4872.3361   -4398.3144   -4872.3361            0    1544.0495    18.118332    23.060123    19.587091    8183.7015    2711.7444    535.42562    1384.9784    324.17907     7.692638   -599.69706   -4214.0307 
 5496000    222.65698   -4887.6224    -4442.281   -4887.6224            0    2200.6131    18.307365    23.106593    19.335634    8179.3763    2786.3143    625.50922    3190.0156    -1592.375   -845.01786    591.93273   -4179.7747 
 5497000    234.23538    -4910.151   -4441.6513    -4910.151            0    1265.1001    18.270829    22.951836    19.499753    8177.2035    1977.6715    520.91413    1296.7147   -958.00859    344.21014    83.081765   -4290.7804 
 5498000    231.60083   -4879.1396   -4415.9093   -4879.1396            0    4017.7234    18.205976     22.81117    19.503245    8099.6903    4962.5392    4113.5794    2977.0518    -196.9635    697.00753    -783.3405    -3941.313 
 5499000    220.64487   -4887.5273   -4446.2102   -4887.5273            0    3517.8034    18.099327    22.812919    19.604161    8094.5282    4184.2451    3321.3587    3047.8063    657.28716   -405.42557    1487.8407   -4030.9322 
 5500000    223.51638   -4851.7537   -4404.6933   -4851.7537            0    2967.2842     18.01933    23.074574    19.531285    8120.8808    3255.5936    1737.6087    3908.6504    2400.9123     -682.427    975.96673   -4053.2639 
Loop time of 569.573 on 64 procs for 250000 steps with 1008 atoms

Performance: 75.846 ns/day, 0.316 hours/ns, 438.925 timesteps/s
99.2% CPU use with 64 MPI tasks x 1 OpenMP threads

MPI task timing breakdown:
Section |  min time  |  avg time  |  max time  |%varavg| %total
---------------------------------------------------------------
Pair    | 27.354     | 31.521     | 36.644     |  34.1 |  5.53
Bond    | 0.27191    | 0.27983    | 0.3008     |   1.2 |  0.05
Kspace  | 268.21     | 278.06     | 286.16     |  25.7 | 48.82
Neigh   | 3.2802     | 3.6708     | 4.0029     |  12.0 |  0.64
Comm    | 111.3      | 118.64     | 128.62     |  41.7 | 20.83
Output  | 1.6643     | 1.6698     | 1.6983     |   0.6 |  0.29
Modify  | 120.94     | 126.15     | 131.68     |  24.8 | 22.15
Other   |            | 9.581      |            |       |  1.68

Nlocal:        15.7500 ave          20 max           9 min
Histogram: 1 1 3 6 6 10 10 11 12 4
Nghost:        2456.41 ave        2481 max        2437 min
Histogram: 1 9 11 12 7 10 4 5 1 4
Neighs:        5151.28 ave        6601 max        2950 min
Histogram: 1 1 3 6 6 10 10 13 13 1

Total # of neighbors = 329682
Ave neighs/atom = 327.06548
Ave special neighs/atom = 2.0000000
Neighbor list builds = 7589
Dangerous builds = 0

unfix		3
unfix		2
unfix		1

write_data	data.final.${pid}
write_data	data.final.0
System init for write_data ...
PPPM initialization ...
  extracting TIP4P info from pair style
  using 12-bit tables for long-range coulomb (../kspace.cpp:340)
  G vector (1/distance) = 0.38331704
  grid = 24 30 36
  stencil order = 5
  estimated absolute RMS force accuracy = 0.0019363123
  estimated relative force accuracy = 5.831147e-06
  using double precision FFTW3
  3d grid and FFT values/proc = 4320 480
Last active /omp style is kspace_style pppm/tip4p/omp
WARNING: Not all mixed pair coeffs generated from mixing. Use write_data with 'pair ij' option to store all pair coeffs. (../write_data.cpp:312)

write_restart   restart.lmp.${pid}
write_restart   restart.lmp.0
System init for write_restart ...
PPPM initialization ...
  extracting TIP4P info from pair style
  using 12-bit tables for long-range coulomb (../kspace.cpp:340)
  G vector (1/distance) = 0.38331704
  grid = 24 30 36
  stencil order = 5
  estimated absolute RMS force accuracy = 0.0019363123
  estimated relative force accuracy = 5.831147e-06
  using double precision FFTW3
  3d grid and FFT values/proc = 4320 480
Last active /omp style is kspace_style pppm/tip4p/omp
Total wall time: 0:09:33
