#include		in.partitions
include		in.temp
variable        temperature equal 60.10
variable	tempDamp equal 100.0
include		in.pressure
variable        pressure equal 2018.7
variable        pressureDamp equal 1000.0 # This is 1 ps
include		in.seed
variable        seed equal 745823

units		real
atom_style	full
#include		in.box
read_restart	restart.lmp.${pid}
read_restart	restart.lmp.1
Reading restart file ...
  restart file = 30 Jul 2021, LAMMPS = 30 Jul 2021
  restoring atom style full from restart
  orthogonal box = (0.19287757 0.14447682 0.12714447) to (18.014695 23.484701 22.086051)
  2 by 4 by 2 MPI processor grid
  restoring pair style lj/cut/tip4p/long/omp from restart
  restoring bond style harmonic/omp from restart
  restoring angle style harmonic/omp from restart
  864 atoms
  576 bonds
  288 angles
Finding 1-2 1-3 1-4 neighbors ...
  special bond factors lj:    0        0        0       
  special bond factors coul:  0        0        0       
     2 = max # of 1-2 neighbors
     1 = max # of 1-3 neighbors
     1 = max # of 1-4 neighbors
     2 = max # of special neighbors
  special bonds CPU = 0.001 seconds
  read_restart CPU = 0.005 seconds
include 	in.setup
variable	out_freq equal 1000
variable	out_freq2 equal 10000
variable	out_freq3 equal 1000

timestep	2.0

neigh_modify    delay 7 every 1

include		in.tip4p
# This is TIP4P/Ice

# create groups ###
group ox type 2
288 atoms in group ox
group hy type 1
576 atoms in group hy

# set charges - beside manually ###
set group ox charge -1.1794
Setting atom values ...
  288 settings made for charge
set group hy charge 0.5897
Setting atom values ...
  576 settings made for charge

# ### TIP3P Potential Parameters ###
pair_style lj/cut/tip4p/long/omp 2 1 1 1 0.1577 8.5
pair_coeff 1 1*2 0.000 0.000
pair_coeff 2 2 0.21084 3.1668
bond_style  harmonic
bond_coeff  1 450 0.9572
angle_style harmonic
angle_coeff 1 55 104.52
kspace_style pppm/tip4p/omp 1.0e-5
pair_modify tail yes

thermo          ${out_freq}
thermo          1000
thermo_style    custom step temp pe etotal epair emol press lx ly lz vol pxx pyy pzz pxy pxz pyz enthalpy

restart 	${out_freq3} restart.lmp.${pid} restart2.lmp.${pid}
restart 	1000 restart.lmp.${pid} restart2.lmp.${pid}
restart 	1000 restart.lmp.1 restart2.lmp.${pid}
restart 	1000 restart.lmp.1 restart2.lmp.1


include         in.dump
dump            myDump all atom ${out_freq2} dump.water.${pid}
dump            myDump all atom 10000 dump.water.${pid}
dump            myDump all atom 10000 dump.water.1
dump            myDump2 all dcd ${out_freq2} dump.dcd
dump            myDump2 all dcd 10000 dump.dcd
dump_modify     myDump append yes
dump_modify     myDump2 append yes


variable natoms 	equal  "count(all)"                        # NUMBER ATOMS
variable H      	equal  "enthalpy/v_natoms"                 # ENTHALPY-per-atom
variable Vol      	equal  "vol/v_natoms"                 # volume-per-atom
fix AVG all 		ave/time ${out_freq} 1 ${out_freq} v_Vol v_H file vol_enthalpy.dat
fix AVG all 		ave/time 1000 1 ${out_freq} v_Vol v_H file vol_enthalpy.dat
fix AVG all 		ave/time 1000 1 1000 v_Vol v_H file vol_enthalpy.dat


timer           timeout 23:50:00 every 1000
New timer settings: style=normal  mode=nosync  timeout=23:50:00

fix 		1 all shake 1e-6 200 0 b 1 a 1
       0 = # of size 2 clusters
       0 = # of size 3 clusters
       0 = # of size 4 clusters
     288 = # of frozen angles
  find clusters CPU = 0.000 seconds
fix             2 all nph aniso ${pressure} ${pressure} ${pressureDamp}
fix             2 all nph aniso 2018.7 ${pressure} ${pressureDamp}
fix             2 all nph aniso 2018.7 2018.7 ${pressureDamp}
fix             2 all nph aniso 2018.7 2018.7 1000
fix             3 all temp/csvr ${temperature} ${temperature} ${tempDamp} ${seed}
fix             3 all temp/csvr 60.1 ${temperature} ${tempDamp} ${seed}
fix             3 all temp/csvr 60.1 60.1 ${tempDamp} ${seed}
fix             3 all temp/csvr 60.1 60.1 100 ${seed}
fix             3 all temp/csvr 60.1 60.1 100 745823


run             250000
PPPM initialization ...
  extracting TIP4P info from pair style
  using 12-bit tables for long-range coulomb (../kspace.cpp:340)
  G vector (1/distance) = 0.37202908
  grid = 24 27 25
  stencil order = 5
  estimated absolute RMS force accuracy = 0.0031273476
  estimated relative force accuracy = 9.4179145e-06
  using double precision FFTW3
  3d grid and FFT values/proc = 6300 1296
Last active /omp style is kspace_style pppm/tip4p/omp
Neighbor list info ...
  update every 1 steps, delay 7 steps, check yes
  max neighbors/atom: 2000, page size: 100000
  master list distance cutoff = 10.8154
  ghost atom cutoff = 10.8154
  binsize = 5.4077, bins = 4 5 5
  1 neighbor lists, perpetual/occasional/extra = 1 0 0
  (1) pair lj/cut/tip4p/long/omp, perpetual
      attributes: half, newton on, omp
      pair build: half/bin/newton/omp
      stencil: half/bin/3d
      bin: standard
Per MPI rank memory allocation (min/avg/max) = 12.26 | 12.29 | 12.31 Mbytes
Step Temp PotEng TotEng E_pair E_mol Press Lx Ly Lz Volume Pxx Pyy Pzz Pxy Pxz Pyz Enthalpy 
36000000    63.433034   -4621.4712   -4512.7491   -4621.4712            0    2100.7523    17.821817    23.340224    21.958907    9134.1413    2099.9053    2807.8922    1394.4596    137.19587   -263.40429    381.30809   -4232.9036 
36001000    60.281536   -4633.7994   -4530.4789   -4633.7994            0    1559.2258     17.88243    23.393478    21.905212     9163.656    1515.0012    761.49059    2401.1855    391.79353    551.12888   -208.93986      -4322.1 
36002000     58.80296   -4634.3959   -4533.6096   -4634.3959            0    2337.5485    17.852286    23.391861    21.882093    9137.9221    2825.0268    2062.8547     2124.764    323.04987    125.56493    157.60547   -4222.0911 
36003000    61.760073   -4635.3106   -4529.4559   -4635.3106            0    2881.8262     18.05471    23.194255    21.719152     9095.232    2074.4684    2617.9711     3953.039   -374.26986    -30.73837    73.783713   -4147.1972 
36004000    57.615848   -4639.2586    -4540.507   -4639.2586            0     2154.771    17.981288    23.224737    21.855641    9127.1495    1290.6374    2670.7471    2502.9286   -83.663405   -61.449367    234.96796   -4253.6852 
36005000    61.062873   -4634.5856   -4529.9259   -4634.5856            0    1390.5956     17.82691    23.460075      21.9199    9167.3548    2482.2207      935.683    753.88313   -115.04224   -144.12721    165.58135   -4344.0082 
36006000    62.577232   -4634.2024   -4526.9472   -4634.2024            0    2494.7786    17.865554    23.298171    21.918898    9123.4071    2718.7176    2518.5415    2247.0769   -192.25069   -354.79938    19.494954   -4195.0031 
36007000    59.932762   -4634.0859   -4531.3632   -4634.0859            0    2009.4386    17.940073    23.389142    21.782033    9139.8049    2689.6772    2003.4378    1335.2008    226.35863    -663.0439    114.57351   -4263.5158 
36008000     61.66373   -4633.5074   -4527.8179   -4633.5074            0    1875.8136    17.869439    23.342812     21.93552    9149.8091    1663.3932    1668.6012    2295.4464   -159.68816   -359.28904    211.71657   -4277.5082 
36009000    65.727617   -4635.7349     -4523.08   -4635.7349            0    2628.0403     17.88151    23.242263    21.912568    9107.0116    2575.4827    2153.2267    3155.4116   -210.49767   -232.92999     279.6277   -4174.0331 
36010000    61.043886   -4633.0492    -4528.422   -4633.0492            0    2322.9393    17.893241    23.347976    21.854047    9129.9864    1899.9049    2575.0966    2493.8164   -81.105938   -570.26841    160.05247   -4219.1192 
36011000    63.892398   -4640.2141   -4530.7047   -4640.2141            0    1279.3447     17.94536    23.237813    22.004504    9176.1183    784.03141     1404.427    1649.5758   -80.405721    135.96461    292.77074   -4359.4973 
36012000    63.852087   -4632.4128   -4522.9725   -4632.4128            0    1426.0062    17.942462    23.260632    21.955043    9163.0032    1526.3701    1883.3582    868.29022   -712.53973   -285.55999    312.67479   -4332.4111 
36013000    59.289231   -4626.4429   -4524.8232   -4626.4429            0    2184.3309      17.9276      23.2331    21.940296    9138.4342    2079.4771    2034.0703    2439.4453   -803.91462    124.36591    319.81538   -4233.7072 
36014000    60.120524   -4638.4999   -4535.4554   -4638.4999            0    1317.4022    17.967166    23.324054    21.877837    9168.2828     401.0988    2035.2314    1515.8765   -518.70552    248.61422    370.44221   -4359.3056 
36015000     59.49682   -4635.2443   -4533.2688   -4635.2443            0    1268.7262    17.855719    23.414365    21.936956    9171.4093    921.08532    1372.6781    1512.4152   -68.856222    105.24933    299.48667   -4363.5696 
36016000    59.956022   -4633.6506   -4530.8881   -4633.6506            0    2084.6105     17.96651    23.300232    21.843514     9144.216    1946.6078    1722.8809    2584.3429   -451.70137    201.37947    499.80591   -4252.8865 
36017000    58.816698   -4630.7448    -4529.935   -4630.7448            0    2053.0248    17.957444    23.234818    21.883404    9130.5869    2837.2411    2099.2794    1222.5539   -31.633667   -561.21238    431.17061   -4256.5538 
36018000    56.935323   -4635.9048   -4538.3196   -4635.9048            0    2064.5705    17.873125    23.271065    21.940107    9125.4754    2718.9085    1976.9186    1497.8845    231.99452    59.998396    370.68427   -4263.5548 
36019000    58.801815   -4631.1198   -4530.3355   -4631.1198            0    2314.0511    17.960308    23.299361    21.803168    9123.8342    2278.0861     1551.223    3112.8442    103.40409    33.257791   -444.04475   -4222.4238 
36020000    58.409914   -4633.2803   -4533.1677   -4633.2803            0    1888.5964    17.905846    23.120178     22.06561    9134.8612    1568.3462    2879.3393    1218.1036    38.283869   -310.00774   -47.920013    -4281.564 
36021000    59.024061    -4637.096   -4535.9308    -4637.096            0    1976.1849     17.85097    23.416799    21.829195    9124.8782    2188.4069    1902.9512    1837.1964     104.8937   -94.834797   -230.27228   -4272.9461 
36022000    59.854823   -4628.1718   -4525.5827   -4628.1718            0    1870.7893    17.958289    23.201217    21.946687    9144.1786    2042.4175    1918.4208    1651.5296      31.1309    60.100155   -200.40162   -4276.0971 
36023000    56.269917   -4633.5789   -4537.1342   -4633.5789            0    2021.4634    17.894963    23.209222    21.994853    9135.0818    2048.2741    1874.3301     2141.786    -366.5468   -202.02044   -165.59363   -4267.8231 
36024000    63.287746   -4626.9883   -4518.5152   -4626.9883            0    2247.9723    17.936002    23.368273    21.753388    9117.5712    2147.9382    2195.6745    2400.3043    48.753275   -33.321584    71.746822   -4219.6014 
36025000    59.545869   -4630.3492   -4528.2896   -4630.3492            0    2272.6928    17.900023    23.230084    21.941306    9123.6125    2255.7058    2841.5437    1720.8288    113.52346    99.950895    80.767642   -4225.8884 
36026000    65.898826    -4636.553   -4523.6047    -4636.553            0    1869.6248    17.870549    23.347996    21.883997     9130.912    2155.1556     1124.177    2329.5419    223.76264   -217.76909   -133.87709   -4274.6361 
36027000    61.284751   -4631.7442   -4526.7043   -4631.7442            0    2618.9504    17.951608    23.283133    21.784124    9105.1034    2605.8127    2902.7415     2348.297    -781.5056    174.86916    9.1010539   -4178.9375 
36028000     57.79719   -4634.2595   -4535.1971   -4634.2595            0    2002.2284    17.889197    23.318078    21.891876    9132.0141    3019.4265     1680.891    1306.3679   -6.5125502    485.34344   -433.22583   -4268.5382 
36029000    60.297302   -4641.6028   -4538.2553   -4641.6028            0    2211.3254     17.93441    23.241471    21.889628    9124.0799    2085.1193    2621.6264    1927.2304    35.820721     305.8592   -92.745502   -4244.0045 
36030000    61.766383   -4632.9294    -4527.064   -4632.9294            0    1600.4269    17.890163    23.332645     21.94705    9161.2434    1710.8059    1483.4196    1607.0552    247.72425   -238.09294   -118.85222   -4313.2352 
36031000    62.742568    -4632.538   -4524.9994    -4632.538            0    1685.7482     18.02668    23.247748     21.85778    9160.1521    1724.6315    1471.2566    1861.3564   -75.017663   -458.36753    87.431376   -4299.7979 
36032000    61.908324   -4634.4162   -4528.3074   -4634.4162            0      2321.36      17.9167    23.264653    21.889553    9124.1309    1563.4786    2699.8784    2700.7231    55.490155    -12.04107   -184.87963   -4219.4131 
36033000    60.848462   -4633.4083   -4529.1161   -4633.4083            0    2182.7982    17.870084    23.285389    21.944046    9131.1775    1835.9264    3239.0545    1473.4137    69.344322    131.86302    30.411223   -4238.4354 
36034000    58.507368   -4636.3296   -4536.0499   -4636.3296            0    1787.9443    18.033204    23.210965    21.856919    9148.6085    1424.4948    1833.5357    2105.8023   -362.62284   -98.618011   -69.301996   -4297.4969 
36035000    55.628146   -4634.3692   -4539.0245   -4634.3692            0    2186.8166     17.84338    23.318039    21.937036    9127.4004    2676.6507    1679.9388    2203.8602     98.99522    88.091312   0.15748572   -4247.9291 
36036000    60.485935   -4640.9784   -4537.3076   -4640.9784            0    1337.1219    17.959627    23.155357    22.075306    9180.2713    1197.2094    1265.5727    1548.5836   -64.183006    198.79706    434.65931   -4358.2872 
36037000    61.270695   -4633.6091   -4528.5933   -4633.6091            0    1614.3913    17.916779    23.267596    21.936668    9144.9666    1740.5734    1415.8406    1686.7598    566.20106   -98.079169    479.64441    -4313.282 
36038000    62.638664   -4638.7239   -4531.3634   -4638.7239            0    2172.1303    17.882947    23.320976    21.870703    9121.1285    2253.0932    2313.6542    1949.6436    84.355801    77.656335    422.18717   -4242.4216 
36039000    61.804679   -4637.3023   -4531.3712   -4637.3023            0    1366.0092    17.986793    23.192959    21.969522    9164.9584    785.74572     1355.614     1956.668    24.509897   -90.587336   -56.087299   -4348.7883 
36040000    61.634737   -4640.3824   -4534.7426   -4640.3824            0    1625.7987    17.870388    23.424928    21.855352    9148.9242    1029.5015    1534.2365    2313.6581    -110.4696    105.72864     207.4021   -4317.8161 
36041000    58.101535   -4630.7418   -4531.1577   -4630.7418            0    2254.0468    17.858026    23.321107    21.922467    9130.0264    2278.4043    2274.0083    2209.7277    176.55857    116.46967    223.33387   -4231.0267 
36042000    61.263768   -4636.8817   -4531.8777   -4636.8817            0    2110.0189    17.918253    23.255762    21.922466    9135.1491    1922.6167    1882.4115    2525.0287   -606.34194    320.58589    236.72606   -4250.7667 
36043000    61.095594   -4632.3873   -4527.6715   -4632.3873            0    2286.2913    17.906945    23.308035     21.90238    9141.5209    2313.4165    2149.0705     2396.387    123.67473   -211.79201    373.43867   -4222.8639 
36044000    62.339189   -4634.9389   -4528.0916   -4634.9389            0    2284.8854    17.922579    23.221257    21.935704    9129.3065    1643.2196    2282.0876    2929.3488   -129.01711    154.51011     25.56251   -4223.8784 
36045000    58.051399   -4640.7345   -4541.2364   -4640.7345            0    2103.9096    17.813997    23.296458    22.012826    9135.3898    2826.3213    2197.8507    1287.5569    6.9722683    190.61867     281.0303   -4260.9319 
36046000    62.494678   -4634.9789   -4527.8652   -4634.9789            0     1676.806    17.989604    23.297403    21.838865    9152.9098    1428.2848    1456.4039    2145.7294    1.8526109   -207.21608    593.23143   -4304.0354 
36047000    60.247563   -4640.4391   -4537.1768   -4640.4391            0    1763.1321    17.948567    23.207119    21.989649    9159.4481    1477.4555    1965.8018    1846.1392   -551.29364   -202.18069    357.39349   -4301.6556 
36048000      58.5518   -4628.1336   -4527.7778   -4628.1336            0    2700.9424    17.926556    23.237685    21.864878    9108.2884     2049.364    2385.7709    3667.6921   -489.32384    341.06411    73.203728    -4168.998 
36049000    62.432288   -4634.8609   -4527.8541   -4634.8609            0    1720.9471    17.864989    23.365185    21.931762    9154.7293    1549.9374    1706.8941    1906.0099   -2.7378907   -167.82746     274.3649   -4298.0865 
36050000    60.431849   -4637.9828   -4534.4047   -4637.9828            0    1989.5125    17.826056    23.374686    21.968701    9153.8843    2705.8458    2001.5054    1261.1863   -746.20927    135.76901    192.08024   -4268.8048 
36051000    63.076443   -4632.7351   -4524.6242   -4632.7351            0    2441.8141    17.887472      23.3204     21.84187    9111.1833    2589.0598    2616.2758    2120.1067    392.04846    -26.05932    84.762288   -4200.1627 
36052000    59.100441   -4631.6922   -4530.3961   -4631.6922            0    2467.1238    17.880223    23.250965    21.920223    9112.9478    2511.9574    1845.3618    3044.0522    40.138281    2.4315348    738.85093   -4202.5079 
36053000    61.408261   -4638.6638   -4533.4121   -4638.6638            0    2065.8682    17.862383    23.389387    21.840664    9124.8155    2469.4739    1656.6421    2071.4885   -283.15442   -326.66745    136.23884   -4258.4945 
36054000    59.548365   -4628.1795   -4526.1156   -4628.1795            0    1943.6833    17.796481    23.395313    21.942502    9135.8542    2369.1681    1861.3654    1600.5164    68.006157    -58.67792   -76.071139   -4267.1449 
36055000    62.234236   -4637.9956   -4531.3282   -4637.9956            0    1530.8357    17.995106    23.291145    21.869369    9166.0349    811.20105    1815.8748    1965.4313    391.31721    1.4343978   -239.69203   -4326.6904 
36056000    62.951588   -4632.3609   -4524.4641   -4632.3609            0    1213.0279    17.866053    23.393469    21.957578    9177.1469    1336.6376    954.35196    1348.0942   -358.36736    89.166511   -156.53943   -4362.1133 
36057000    62.542946   -4638.1453   -4530.9488   -4638.1453            0    2335.2211    17.835203    23.398009    21.866241    9124.9622    2390.4037    2505.4109    2109.8487     430.1978    191.59582   -297.76351   -4220.1818 
36058000    59.731122   -4634.4876   -4532.1105   -4634.4876            0    2035.0502    17.790754    23.397526    21.969393    9144.9714     1869.777    1605.6888    2629.6849    -199.6099   -39.315392   -660.56442   -4260.6958 
36059000    59.240248    -4631.426   -4529.8903    -4631.426            0    2116.2838    17.910974      23.2332    21.971595    9143.0231    1751.8015    2489.1664    2107.8837   -254.92539    145.04031   -420.42349   -4247.7016 
36060000    58.888611   -4642.1438   -4541.2108   -4642.1438            0    1958.3625    17.887496    23.348909    21.871936    9134.8912    2530.9198    2272.4736    1071.6942    172.45989   -614.80671   -392.67622   -4280.3118 
36061000    60.005677   -4634.4896   -4531.6419   -4634.4896            0    2149.3044    17.943933    23.232365    21.912079    9134.7073    1937.1966    1614.0332    2896.6834    49.897943    136.06636   -157.66837   -4245.3109 
36062000    58.259033   -4627.8297   -4527.9757   -4627.8297            0    1708.8897    17.872801    23.203219     22.10368    9166.5399    2334.3641    1495.4718    1296.8333   -1103.2651   -321.31401    263.50308   -4299.5235 
36063000    63.748616   -4630.6475   -4521.3846   -4630.6475            0    1982.9293    18.038379    23.243248    21.812976    9145.5375    1447.5397    2082.6266    2418.6216   -463.48018    155.91934     99.07513   -4256.9049 
36064000    64.007818   -4642.1625   -4532.4553   -4642.1625            0    1478.6576    18.004473    23.090585    22.052585    9168.0053    1489.6477    1940.5642     1005.761    26.923124   -15.221277    366.30763     -4334.75 
36065000    57.441034   -4636.0611   -4537.6092   -4636.0611            0    2033.3549    17.935076    23.228293    21.946384    9142.8895     2063.084    1798.1928    2238.7878   -206.27344    83.448297    149.99399   -4266.4823 
36066000    62.766929   -4631.9952   -4524.4148   -4631.9952            0    1821.1457    17.938737    23.363843    21.829167    9148.9934    1112.5851    1952.3904    2398.4615   -104.52906    286.26949   -166.25174   -4281.4217 
36067000    60.794474   -4646.5377    -4542.338   -4646.5377            0    1547.7762    18.009744    23.254685    21.847564    9149.9987    1635.8561    2195.8229    811.64972   -45.987834    706.36004    114.53135   -4335.7976 
36068000    58.901247    -4634.049   -4533.0942    -4634.049            0    2042.3583    17.947993    23.237359    21.895696    9131.9055    2426.7549    2217.2019    1483.1182    270.37152    273.97848    345.35566    -4261.094 
36069000    56.300752    -4635.805   -4539.3074    -4635.805            0    2243.5113    17.875937    23.377145    21.840485    9126.8847    2276.2332     2226.299    2228.0017    444.06733   -75.346354    193.04001    -4240.682 
36070000    57.555446   -4629.4434   -4530.7953   -4629.4434            0    1710.5454    18.038223    23.282195    21.804286    9157.1335    1117.7208    1740.1145    2273.8007   -157.98352   -89.569337   -42.556305   -4302.3564 
36071000    58.684751   -4632.3065   -4531.7229   -4632.3065            0    2314.7921    17.934691    23.182772    21.957851    9129.5441     2701.103    3055.6402    1187.6331    228.18801    110.50898    137.08639   -4223.5198 
36072000    64.923367   -4629.6529   -4518.3764   -4629.6529            0    1978.9939    17.867594    23.375268    21.900077    9146.7819    1737.5901    1610.8066     2588.585    99.942184    255.01292    117.18809   -4254.3857 
36073000    55.569627   -4635.7244   -4540.4799   -4635.7244            0    1900.1403    17.992965     23.18991    21.915663    9144.4255     1524.604    2473.5973    1702.2197   -18.358138   -10.367889   -228.58194   -4287.0733 
36074000    61.763599   -4638.9964   -4533.1357   -4638.9964            0    1597.3912     18.04248    23.181548    21.874064    9148.8846    1052.0227    1824.8955    1915.2555   -262.42454   -95.064594   -90.507625   -4320.0004 
36075000    59.776091   -4636.2493   -4533.7951   -4636.2493            0      1961.97    17.855661    23.354373    21.936171    9147.5535    2210.8641    2184.1205    1490.9254   -715.49671    -150.1134    143.73232   -4272.0533 
36076000    57.188238   -4630.5969   -4532.5782   -4630.5969            0    2681.6593     17.88508    23.326106    21.845583     9113.743    2491.1257    2575.3405    2978.5116     104.6088   -158.82983   -83.909908   -4176.1466 
36077000    60.200846   -4636.6975   -4533.5153   -4636.6975            0     2513.977    17.970117    23.141605    21.902514    9108.3212    1761.2089    2738.9009    3041.8212    413.53615     65.16187    172.94251   -4199.5698 
36078000    66.362469   -4634.5847   -4520.8417   -4634.5847            0    2095.5069    17.893163    23.358548    21.862265    9137.5152    2332.6028    2561.0583    1392.8598    -93.54083    369.70377    253.48033   -4241.5917 
36079000    59.615123   -4635.9766   -4533.7983   -4635.9766            0    1520.4878    18.016262    23.152206    21.988565    9171.7869    1900.2995    2476.4701    184.69382   -300.38686   -6.0322806   -79.216452   -4330.4162 
36080000    60.749161   -4625.8053   -4521.6833   -4625.8053            0     2196.529    17.847099    23.401145    21.870557    9134.0754    2850.4954    1036.6612    2702.4305   -84.180168    483.24334    143.90206   -4229.0812 
36081000    57.250463   -4628.6301   -4530.5048   -4628.6301            0    2040.3103    17.900288    23.410955    21.799003    9135.1517    2158.9082    1607.4452    2354.5775    73.941133    69.507355   -394.37917   -4258.6807 
36082000    59.411362   -4636.8115   -4534.9825   -4636.8115            0     1554.928    17.897985    23.272766    21.984846    9157.4712     1371.332    1953.8503    1339.6016    373.69545     -394.518    129.99718   -4327.3182 
36083000    57.557768   -4635.3622   -4536.7101   -4635.3622            0    2287.3863    17.957364    23.272662    21.849096    9131.0797    2184.4685    1915.1745    2762.5158    60.593671   -272.24965    232.10863   -4232.1048 
36084000    62.381143   -4630.5452    -4523.626   -4630.5452            0    1489.9007    17.938938    23.299543    21.943061    9171.5203    1525.9881      1816.74    1126.9739   -669.71184   -275.01587    539.54218    -4324.341 
36085000     58.48385   -4630.6719   -4530.4326   -4630.6719            0    2426.9253    18.030022    23.068794    21.940428    9125.7013    2201.4892    3266.7528     1812.534     193.8897    272.28421   -203.54006   -4207.4356 
36086000    62.722522   -4638.3259   -4530.8216   -4638.3259            0    2464.3563    17.920961    23.244859     21.88747     9117.668    2181.0651     2318.603     2893.401    503.13546   -115.19731   -36.395124   -4203.1316 
36087000    59.336808   -4635.7234   -4534.0221   -4635.7234            0    2141.3689    18.018077    23.281904    21.787705     9139.836    1547.4858    2124.2741    2752.3467   -171.34732    89.660166    104.94943   -4248.5881 
36088000    63.058085   -4634.2513   -4526.1719   -4634.2513            0     1684.504      17.9168    23.266017     21.96832    9157.5511    1246.7438    2460.2324    1346.5357    926.81563    -110.0392   -171.33032   -4301.2005 
36089000    58.621559   -4640.1555   -4539.6802   -4640.1555            0    2029.9278    17.901381    23.220568     21.96484    9130.3502    2096.7115    2154.4143    1838.6576   -492.71275   -313.69895   -101.49653   -4269.3815 
36090000    60.875178   -4634.9989    -4530.661   -4634.9989            0    2232.2336     17.84517    23.385803    21.878632    9130.4697     2577.951    1107.0376    3011.7122    333.78595    150.19798   -440.78863     -4233.42 
36091000    58.183167   -4637.8929    -4538.169   -4637.8929            0    1767.5846    17.941299    23.209664    21.980702    9153.0177    1653.6189    2187.3805    1461.7545    342.13842   -97.222753   -281.60355   -4302.2188 
36092000    58.551539   -4628.0039   -4527.6486   -4628.0039            0    1282.7342    17.888845    23.389411    21.911173    9167.8444      1202.82    921.18865     1724.194   -126.72336   -22.832421    -257.5961   -4356.1424 
36093000    55.624819   -4630.3629   -4535.0239   -4630.3629            0    2270.7204    17.811657    23.358751    21.895669    9109.8697    2551.2754    2452.1496    1808.7362   -730.04194   -187.02577   -544.97748   -4233.3403 
36094000    59.612982   -4636.3589   -4534.1843   -4636.3589            0    1600.9814    17.971186    23.294877    21.854834     9149.233    1396.2458    1190.3075    2216.3908   -98.875108    -167.9473   -150.19706   -4320.5619 
36095000    59.568003   -4635.9055    -4533.808   -4635.9055            0    3249.5742    17.860429    23.361876    21.739875    9071.0306    3348.7946    2923.2719     3476.656   -133.36228   -123.11789   -133.90894   -4103.9164 
36096000    59.538423   -4629.0867   -4527.0399   -4629.0867            0    2018.2013    17.854968    23.397404    21.900198    9149.0243     1750.916    1815.6779    2488.0101     157.8086    158.40348     39.06684    -4257.753 
36097000    62.104182   -4637.0731   -4530.6287   -4637.0731            0    2018.9922    18.001531    23.293422    21.783605    9134.2414    1158.4965    2363.8426    2534.6376   -635.15661    334.85345    10.446152   -4261.6716 
36098000    56.783748   -4635.3836   -4538.0582   -4635.3836            0    1567.8939    17.942845    23.270717    21.918008    9151.7078    1093.7705    1090.3278    2519.5833    249.88689    150.14718   -54.684507   -4328.7942 
36099000    61.508713   -4636.2523   -4530.8285   -4636.2523            0    2078.3887    17.911485    23.287312     21.89037    9130.6994    2069.2302     2041.619    2124.3168   -142.38898   -137.12906    259.89668   -4254.0663 
36100000    61.880477   -4643.8459   -4537.7849   -4643.8459            0    1552.9658    17.967681    23.255726     21.91821    9158.5561     1597.386    1183.9111    1877.6004   -344.32765   -276.48211    59.230728   -4330.3581 
36101000    58.262944   -4638.6924   -4538.8317   -4638.6924            0    2276.7239     17.88384     23.18114    22.001988     9121.316    2713.5642    2185.5143    1931.0931   -177.51851    200.53782    216.78368   -4235.9704 
36102000    61.188292   -4630.3396    -4525.465   -4630.3396            0    2729.7637    17.865731    23.390679    21.779873    9101.6254    2368.1492    2740.3397    3080.8024   -71.049185   -364.53191    191.97834    -4163.122 
36103000    62.615331   -4635.3928   -4528.0722   -4635.3928            0    2201.8445    17.875818    23.357583    21.845977    9121.4794    2233.0849    2137.6238    2234.8247    183.35186    152.28593    482.70528   -4235.1665 
36104000    61.955164   -4637.7777   -4531.5887   -4637.7777            0     2027.275    17.948074    23.193649    21.944924    9135.2623    2088.2218    2234.2503     1759.353    352.25187   -423.24297    507.50325    -4261.498 
36105000    60.614496   -4628.8977   -4525.0065   -4628.8977            0    2817.9736    17.679855    23.414605    21.993753    9104.6839    4029.9512    2092.1953    2331.7742   -5.3311144   -133.21305   -414.66597    -4150.829 
36106000    59.492751   -4639.7054   -4537.7369   -4639.7054            0    2280.3497    17.863301    23.371982    21.865469    9128.8499    1989.5781    2027.3778     2824.093     110.1954   -497.55298    217.86152   -4234.1427 
36107000    58.698327   -4636.7607   -4536.1538   -4636.7607            0    2779.7206    17.847178    23.219859    21.947912    9095.4112    2859.1271    2592.6972    2887.3374   -596.12679   -13.359052    75.988409   -4167.4315 
36108000    60.532386   -4634.9809   -4531.2305   -4634.9809            0    1807.6599    17.900408    23.398304    21.827907    9142.3828      2081.99    1702.3421    1638.6475    -995.2931   -482.04067    177.72523   -4290.2111 
36109000    59.577895   -4636.4782   -4534.3637   -4636.4782            0    565.94584    17.969051     23.37154    21.894282    9194.8188    66.260294    81.712416    1549.8648   -33.747108    35.004348   -33.194253   -4458.4721 
36110000    57.251402   -4632.5641   -4534.4371   -4632.5641            0    1647.1854    18.002636     23.15571    21.979247    9162.3528    1133.6597    2357.7952    1450.1011   -312.56229    206.23139   -38.014403   -4314.3344 
36111000    61.372959   -4636.3921   -4531.2009   -4636.3921            0    1560.3347     17.95668     23.25726    21.905447    9148.2227    1890.9985    1354.3095    1435.6962    363.40254    95.375444    367.27216    -4323.025 
36112000    62.302182   -4639.8681   -4533.0842   -4639.8681            0     1697.709    17.922368    23.282489     21.93496    9152.9619    2564.2123    1256.6143    1272.3006     645.6599   -15.386137    104.88086   -4306.4629 
36113000    59.536679   -4635.5538     -4533.51   -4635.5538            0     2285.041    17.890333    23.280247    21.907738    9124.3839    1997.4731    2793.5841     2064.066   -197.36657    -43.95597    22.267695   -4229.4401 
36114000    61.066052   -4625.9539   -4521.2887   -4625.9539            0    2201.2771     17.79369     23.38096    21.908324    9114.5978    2280.1143    2292.1657    2031.5512   -183.69247   -114.07171    72.433835   -4228.6794 
36115000    64.991809   -4637.1139   -4525.7201   -4637.1139            0    2078.7538    17.975803    23.260489    21.856368    9138.7153    1496.9254    1995.1925    2744.1436    112.99304    201.84527   -317.37112   -4248.6663 
36116000    61.585537   -4639.2997   -4533.7442   -4639.2997            0    1699.5814    17.850059    23.359289    21.948821    9151.8834    1770.3171    1211.8906    2116.5366   -23.311893    426.76489    145.84257   -4306.8997 
36117000    60.205635   -4643.6069   -4540.4165   -4643.6069            0    1980.2828     18.02966    23.230889    21.841272     9148.108    1959.6361    1250.3036    2730.9089    515.64733    27.799185    184.00877   -4276.2155 
36118000    59.610422   -4637.4522    -4535.282   -4637.4522            0    2537.0212     17.89463    23.194756    21.923877    9099.7595    2732.8275    2790.6198    2087.6163   -218.63307   -243.41434    455.06841   -4198.5922 
36119000    60.563217   -4631.3653    -4527.562   -4631.3653            0    2351.5655    17.973668    23.221358    21.842599    9116.5109    2605.0134    2748.2453    1701.4378   -43.588096    -308.1759   -74.611982   -4214.9097 
36120000     58.67215    -4635.432     -4534.87    -4635.432            0     1846.633    17.937137    23.271722    21.900382    9141.8342    2079.5776    1964.3876     1495.934    85.556604    35.279294   -93.171469    -4288.669 
36121000     60.54834   -4638.7246   -4534.9468   -4638.7246            0    1544.3274    17.896933    23.316067     21.94629    9157.8815    2104.3984    1306.1044    1222.4794    196.14528    89.550038    206.29329    -4328.689 
36122000    61.698471   -4630.6728   -4524.9237   -4630.6728            0    2591.5265    17.826638    23.413203    21.825971    9109.6953    2446.0282    2301.7044    3026.8469   -203.43022    276.23144   -150.56455    -4180.625 
36123000    57.117486   -4637.4053   -4539.5079   -4637.4053            0    1936.0817    17.920112    23.233247    21.935774    9132.7922    1799.5501     2224.881    1783.8139   -137.59019   -162.09691   -105.63904   -4281.6365 
36124000    58.619343   -4627.1546    -4526.683   -4627.1546            0    2348.9246    17.864939     23.39648     21.84187    9129.3922    2589.7793    1415.8958    3041.0986   -290.76663    -471.5986    228.49489   -4213.9406 
36125000    63.325135   -4631.3167   -4522.7796   -4631.3167            0    1534.9257     17.78776    23.441213    21.952491    9153.4574    2098.4045    1926.8669    579.50555    134.22994   -10.883452    236.87576   -4317.8766 
36126000    58.330294   -4631.2929   -4531.3168   -4631.2929            0    2301.0615    17.886226    23.387019    21.822356    9128.4121    3027.3659    1740.4744    2135.3444    147.87369   -57.498494    152.02354   -4224.9799 
36127000    61.183153   -4634.5215   -4529.6557   -4634.5215            0    2002.3864    17.830476     23.36225    21.936858    9138.0184    2484.6327    1478.0512    2044.4753   -523.41313    101.29482    343.20169   -4262.8004 
36128000    62.457696   -4637.5038   -4530.4534   -4637.5038            0    1679.0415    17.962033    23.270093    21.910558    9158.1349    423.09284    1537.5284    3076.5033   -90.303802   -184.82239    192.69199   -4306.1973 
36129000    62.232492    -4632.219   -4525.5546    -4632.219            0     2347.408    17.868839    23.204895    22.001665    9122.8702    2583.4347    3292.0957    1166.6935   -211.39126    86.800536    68.120923   -4213.2374 
36130000    58.727206   -4636.4082   -4535.7518   -4636.4082            0    3070.8809    17.960281    23.214035    21.812849    9094.4441    3299.7844    2354.9881    3557.8703     -355.003    109.90124    285.59958   -4128.4512 
36131000    58.296596   -4638.7932   -4538.8749   -4638.7932            0    1930.4909    17.839843    23.312604    21.960889    9133.3841    2035.7091    2052.0094    1703.7542   -225.42675    303.07833   -56.697967   -4281.7315 
36132000    65.634741   -4637.0888   -4524.5931   -4637.0888            0    2098.6446    17.925872    23.223713    21.951801    9138.6513      2617.47    2246.9066    1431.5573   -349.14775    135.67484    57.997244   -4244.8902 
36133000    59.137336   -4635.9268   -4534.5674   -4635.9268            0    2430.7635    18.000928    23.167934    21.831302    9104.6205    1957.0553    2733.7636    2601.4715   -383.16132    280.85477   -8.6524531   -4211.8069 
36134000    56.158641   -4632.3967   -4536.1427   -4632.3967            0    2137.3442    17.923459    23.157596    21.986583    9125.8443    2073.9817    2483.6054    1854.4456   -48.583149    83.121113    -328.5727   -4251.6812 
36135000    58.390886   -4642.5155   -4542.4355   -4642.5155            0    1360.7994    17.864965    23.402415    21.913721    9161.7614    1428.7433    1408.3825    1245.2724   -540.52259   -155.93688   -38.508175   -4360.6125 
36136000    58.398584   -4630.2533   -4530.1602   -4630.2533            0     2386.956    17.856933    23.347898    21.907857    9133.8642    1897.9075    2090.5672    3172.3932    46.678774    264.05171     272.0413   -4212.1984 
36137000    61.170285   -4641.5689   -4536.7252   -4641.5689            0    2033.4625    17.866585    23.339174    21.897699     9131.151    2477.4732    1623.2152    1999.6992    252.30988   -30.201208    435.05032   -4265.9321 
36138000    57.774978   -4629.2717   -4530.2474   -4629.2717            0    2161.6354    18.066175    23.164439    21.839531    9139.6863    2449.1374    2451.5818     1584.187     398.6633   -350.76046    -183.7196   -4242.1166 
36139000    57.269779   -4642.2886   -4544.1302   -4642.2886            0    1670.7599    17.927324     23.22434    21.978296    9150.6696    1354.7489    2284.0205    1373.5102   -294.90822   -145.58267   -111.29002   -4321.1621 
36140000     57.33344   -4630.3681   -4532.1006   -4630.3681            0    2065.8459    17.934735    23.330701     21.82753    9133.2922    1135.8031    2325.6338    2736.1007    108.48611   -410.80569    154.84748   -4256.9305 
36141000    58.007233   -4637.4099   -4537.9875   -4637.4099            0    2335.1457    17.996198    23.177048    21.859459    9117.5529    2424.5471    2798.5893    1782.3008   -103.69474    140.76428    27.460562   -4227.4828 
36142000    60.137562   -4637.3311   -4534.2574   -4637.3311            0    2515.0959    17.936044    23.237111    21.872649    9116.1229    2628.2449      3002.93    1914.1127   -16.813333   -40.272437   -42.082889   -4199.8771 
36143000    59.264997   -4637.5384   -4535.9603   -4637.5384            0    1620.6983    17.943922    23.263415    21.933204    9155.7287    1031.8726    1834.9845    1995.2378   -422.03024    42.763844    96.254595   -4319.5534 
36144000    56.975417   -4629.9716   -4532.3177   -4629.9716            0    2408.9042    18.024835    23.128812    21.855454    9111.3865    2195.6637    1979.2696    3051.7793    145.00072    -549.0439    168.63809    -4212.222 
36145000    62.895923   -4632.9357   -4525.1343   -4632.9357            0    2136.5844     17.95463    23.243961    21.908006    9143.0155    1580.9234    1882.3345    2946.4951   -42.121039   -905.54824   -94.857778   -4240.2389 
36146000    58.490831   -4634.4557   -4534.2045   -4634.4557            0    1858.9598    17.826008    23.541186    21.788896    9143.6094    2249.7386    1129.8831    2197.2577     101.1236    109.10028   -229.50892   -4286.3119 
36147000     55.95517   -4635.6013    -4539.696   -4635.6013            0    2154.4032    17.867376    23.391928     21.83221    9124.8239    2086.4822    1747.0126     2629.715   -55.599358    97.247982   -103.36531   -4252.9963 
36148000    58.619535   -4641.8428   -4541.3709   -4641.8428            0    2051.1576    17.932554    23.400403    21.777539    9138.4867    1783.1316    2333.1442    2037.1969    22.831376   -143.58172    51.847974   -4268.0019 
36149000    62.101117   -4630.0843   -4523.6451   -4630.0843            0    2083.8849    17.954445    23.196369    21.928577    9132.7685     1941.114    1522.9954    2787.5453    340.67084    12.370733   -136.79653   -4246.0881 
36150000    58.547954   -4634.2139   -4533.8647   -4634.2139            0    1916.6362    17.903658       23.156    22.049721    9141.3096    2197.1974    2241.8711    1310.8401    871.17434   -154.44615   -226.09815   -4278.3452 
36151000    57.810372   -4625.0579   -4525.9729   -4625.0579            0    2336.7279    17.933091    23.179625    21.973342    9133.9299    2152.6572    2872.8623    1984.6641   -70.870897     170.7652    43.878876   -4214.6998 
36152000     55.65273   -4632.9851   -4537.5982   -4632.9851            0    2153.7763    17.784847    23.378266    21.931837    9118.7946    1675.7344    1943.3257    2842.2687    172.06106    11.548104    275.85248   -4251.1712 
36153000    62.285319   -4638.2121   -4531.4572   -4638.2121            0    1654.4006    17.870554    23.295022    22.015659    9165.0074     2486.944    926.74631    1549.5116    306.35922    347.55523    57.203099   -4310.3263 
36154000    57.417356   -4636.6125   -4538.2011   -4636.6125            0    2434.4714    17.884244    23.316518    21.853177    9112.7375     1979.608    2665.0585    2658.7476   -2.8717027    390.89376   -291.41472     -4214.66 
36155000    60.099657   -4638.1984   -4535.1897   -4638.1984            0    1001.5855    18.041562    23.369102    21.753721    9171.6975    340.45346    441.28414    2223.0189   -394.09052   -132.70517   -259.65965   -4401.2178 
36156000     58.19998   -4643.0657    -4543.313   -4643.0657            0    2516.7581    17.921328    23.257449    21.862464    9112.3704    2386.5873    3339.2268    1824.4601   -59.081152    59.839585     220.7037   -4208.8495 
36157000    59.683699    -4637.954   -4535.6582    -4637.954            0    2136.4452    17.875805     23.34298    21.906344    9140.9598    2073.7087    2557.3764    1778.2506   -84.905217    288.50102    131.32305   -4250.8454 
36158000    54.218612   -4627.6608   -4534.7319   -4627.6608            0    2182.2067     17.71473    23.519003    21.939709    9140.8024    3758.7315    1125.7915    1662.0971   -35.967142     422.4149     180.7935   -4243.8236 
36159000    57.568335   -4631.1084   -4532.4382   -4631.1084            0    2386.2328    17.932157    23.247031    21.921447    9138.3808    3095.8075    2410.5742    1652.3166    407.59041    356.57826   -169.07335   -4214.4157 
36160000    62.812329    -4632.601   -4524.9429    -4632.601            0    2085.5802    17.993821    23.301311    21.796866    9138.9816    2470.6072    1870.7201    1915.4132    -472.2337    131.24676    42.948119   -4246.9712 
36161000    58.046703   -4639.7177   -4540.2277   -4639.7177            0    1544.0847    17.858264    23.233817    22.071246    9157.7053    1179.2147    2749.1105    703.92895   -106.31388    148.80131    124.57766   -4334.0063 
36162000    58.392043   -4634.4911   -4534.4091   -4634.4911            0    2326.9262    17.992669    23.141233    21.903378    9119.9649    1989.4394    2702.0535    2289.2857   -487.14541    65.173822     267.4691   -4224.9155 
36163000    61.053387   -4635.7256   -4531.0822   -4635.7256            0    2459.8117    17.933131    23.181407    21.885103    9097.9701    2620.5047    2591.3121    2167.6184   -373.61844    -125.8486   -139.14198   -4204.7032 
36164000      59.2376   -4635.1479   -4533.6167   -4635.1479            0    2163.9398    17.912979    23.242354    21.922142    9127.0601    2036.3289    2355.6238    2099.8666   -97.671064     648.5037    530.01375   -4245.5772 
36165000    59.814081   -4638.2083    -4535.689   -4638.2083            0    1377.2902    17.883426    23.363639    21.945421    9169.2778    1475.2345    1087.7249    1568.9112    374.32738    17.047308   -129.85478   -4351.5115 
36166000    60.691812   -4631.1501   -4527.1265   -4631.1501            0    2746.1445    17.777453    23.356601    21.933806    9107.3745    2679.9347    2301.1875    3257.3114    57.444347   -264.99579    447.58517   -4162.3788 
36167000    59.013663   -4640.3614    -4539.214   -4640.3614            0    1962.6466       17.964    23.274148    21.850479    9135.6154    906.75194    2686.7241    2294.4637    339.89049    199.36626    249.09468   -4277.7236 
36168000    63.408103   -4629.5274   -4520.8481   -4629.5274            0    2389.0491    17.972313    23.286613    21.807446    9126.7276    2253.1804    2316.0923    2597.8747   -397.12775   -432.65995    193.29729   -4202.8562 
36169000    60.277673   -4629.4047   -4526.0908   -4629.4047            0    1330.8567    17.895697    23.353681    21.959224    9177.4274    1182.1662    1403.9241    1406.4797   -102.52859    13.849951   -161.38833   -4347.9645 
36170000     55.89835   -4628.9853   -4533.1774   -4628.9853            0    1939.6865    17.808208    23.412886    21.923436    9140.7914    2578.2082    1917.2379    1323.6133   -740.75777    71.819211    54.992687   -4274.5996 
36171000    59.922828   -4635.9852   -4533.2795   -4635.9852            0    2225.0708    17.964789    23.258681    21.862369    9134.9132     1693.523    3365.6314     1616.058   -319.04632    521.37257     191.4485   -4236.8482 
36172000    58.089797   -4633.1872   -4533.6233   -4633.1872            0    1990.3248    17.972586    23.054893     22.07485     9146.848    2342.7864    2072.9298    1555.2584   -153.92006    337.29892   -43.307192   -4268.1192 
36173000    56.701323   -4631.6953   -4534.5112   -4631.6953            0    2189.4899    17.962084     23.27412    21.858409    9137.9448    1916.1307    2064.8291    2587.5098    606.61971    117.37584    -303.4586   -4242.7233 
36174000    55.213736   -4631.6668   -4537.0323   -4631.6668            0    1613.3954    17.903445     23.25614    21.998542    9159.4237    1089.3035    2030.3487    1720.5339   -122.02328   -73.097012    -476.7518   -4321.5137 
36175000    62.087968   -4634.9114   -4528.4948   -4634.9114            0    1825.8975    17.877065    23.334422    21.925872    9146.3993    2276.1958    1653.6352    1547.8614    14.571125   -413.00601   -520.05056   -4284.9368 
36176000    59.201303   -4636.4027   -4534.9337   -4636.4027            0    2597.4317    17.866819    23.302535    21.900447    9118.0799    3183.1872    2783.2232    1825.8846   -113.95069   -255.54975   -316.12059   -4189.5328 
36177000    62.495975   -4632.0531   -4524.9371   -4632.0531            0    2592.1857    17.946587    23.112492    21.992489    9122.2722    2606.5351    2983.5378    2186.4842    486.19095    139.23774    34.679415   -4180.0754 
36178000    60.259657   -4631.9455   -4528.6625   -4631.9455            0    1968.7448    18.012657    23.237457    21.872751    9155.2413     1588.123    2173.1714    2144.9399   -239.54711    26.328946   -195.31054   -4265.7961 
36179000    59.023347   -4635.0775   -4533.9135   -4635.0775            0    1966.0298    17.736206    23.437538    21.987983    9140.2504    2568.9534    2139.5127    1189.6233   -46.652363    323.71487   -442.58443   -4271.8394 
36180000    58.614931   -4634.4701   -4534.0061   -4634.4701            0    1977.0614    17.849908     23.42976     21.86242    9143.2805    2102.0715    2353.7161    1475.3965   -73.154775    303.38463    -106.6641   -4270.3742 
36181000    59.797543    -4633.798    -4531.307    -4633.798            0    1902.8066    17.903983    23.340985    21.903777    9153.5136     2322.588    1423.3721    1962.4598   -24.648329   -13.894525   -276.77628   -4277.2926 
36182000    64.421563   -4635.7857   -4525.3693   -4635.7857            0     1983.567    17.974037    23.365483    21.781623    9147.6734    1410.8352    1919.4628    2620.4032   -163.09514    39.472076    376.73525   -4260.7427 
36183000    60.513966   -4640.2144   -4536.4955   -4640.2144            0    2387.1442    17.909965    23.257685    21.881981    9114.8147    2831.2884     2194.495    2135.6493   -111.00238   -214.15395    243.84626   -4219.1719 
36184000    58.427646   -4636.6927   -4536.5497   -4636.6927            0    2582.4411    17.833535    23.283543     21.96177     9119.139    2381.3781    2826.4001    2539.5452    153.02151   -336.43954    95.710103   -4193.1024 
36185000    59.777271   -4628.6667   -4526.2105   -4628.6667            0    2378.6929    17.896689    23.310936    21.854134     9117.295    2708.9064    2054.2521    2372.9203     69.61272    200.79448    -24.76008   -4209.9243 
36186000    61.209389   -4630.8113   -4525.9005   -4630.8113            0    2021.6186    17.907789    23.206685    22.024933    9153.1308    2444.1196    1973.5032    1647.2328    12.120313   -102.12291    450.94138   -4256.0367 
36187000    57.759838   -4634.3582   -4535.3598   -4634.3582            0    1762.0934    17.914768    23.328654    21.903389     9154.027    1226.2375     1929.063    2130.9796    -10.16375   -246.20426    148.80343   -4300.1167 
36188000    61.343086   -4630.1412   -4525.0012   -4630.1412            0    2430.8979     17.93501    23.258404    21.888057    9130.3776    2092.8178     2775.093    2424.7828   -54.909668   -108.83026   -166.97373   -4201.3097 
36189000    58.027653   -4635.9636   -4536.5062   -4635.9636            0    2398.1131    17.895036    23.193749    21.965061    9116.6641    2035.2502     3345.759      1813.33   -389.36025   -267.48521    185.26834   -4217.6598 
36190000    60.398269   -4626.1116    -4522.591   -4626.1116            0    1897.9509    17.909451    23.341068    21.885083    9148.5273    1637.5293    2268.6496    1787.6738    140.68612    107.03809    139.41756   -4269.3628 
36191000    60.443172   -4633.7407   -4530.1432   -4633.7407            0    1881.1558    17.913663    23.276307    21.935724    9146.4055    1565.8885    2001.1825    2076.3962   -153.46789   -376.28232    294.82069    -4279.214 
36192000    61.621606   -4637.0207   -4531.4033   -4637.0207            0    1098.4177    17.882705    23.363772    21.991605    9188.2562    527.25674    1001.8091    1766.1872   -21.233811   -206.20036    251.69702    -4384.214 
36193000    59.828395   -4633.2486   -4530.7047   -4633.2486            0    2462.7069    17.966967    23.177819    21.883723    9113.1506    2779.6958    1977.1314    2631.2936    241.07117   -80.851262    29.136802   -4203.3963 
36194000    62.595466   -4632.9471   -4525.6606   -4632.9471            0    1906.9592    17.881619      23.2768    21.985807    9151.0836    2428.1457    1484.4892    1808.2428   -245.14697    56.389389    184.92667   -4271.1594 
36195000    60.467825   -4634.7846   -4531.1448   -4634.7846            0    1834.8417    17.913492    23.394456    21.840103    9152.6716    1629.0134    1215.2424    2660.2692    22.257186   -69.427818   -178.39456   -4286.2259 
36196000    58.987395    -4632.367   -4531.2647    -4632.367            0    1926.8254    17.986265    23.142718    21.938448    9131.9019    1117.7137    2942.2725    1720.4899   -435.48922    20.890899    60.206224   -4274.6512 
36197000    60.720986   -4635.9532   -4531.8795   -4635.9532            0    1445.5874    17.980333    23.334269    21.839344    9162.8695    1213.9379    1616.9048    1505.9195   -399.42478     -466.038   -52.511444   -4338.7041 
36198000    62.544054   -4637.4849   -4530.2866   -4637.4849            0    1478.1884    17.774886    23.455512    21.934418    9144.8769    1648.8113    1431.9954    1353.7586    203.44165   -127.69993    -172.2788   -4333.1426 
36199000    62.317837   -4633.6893   -4526.8787   -4633.6893            0    2047.3142    17.952859    23.353154    21.775809    9129.6363    1283.9425    1982.9131     2875.087    -59.96706   -364.76367    236.04983   -4254.2862 
36200000    60.099907   -4636.8377   -4533.8285   -4636.8377            0    2725.9642    17.809499    23.372048    21.870962    9103.6671    2532.8923    2689.4726    2955.5275    531.85145   -861.81737    430.19439   -4171.9087 
36201000    61.593961   -4636.1897   -4530.6197   -4636.1897            0    2313.1569    17.867794    23.262168    21.959921    9127.5015    2341.3495    2351.0062     2247.115    557.44119   -206.71304    47.498377   -4222.7033 
36202000    60.218658   -4631.4627     -4528.25   -4631.4627            0    1577.7459    17.939304    23.284769    21.906273    9150.5251    2021.1228    1122.4755    1589.6392   -751.97492    16.474006     -63.8778   -4317.6982 
36203000    58.029218   -4635.8346   -4536.3745   -4635.8346            0     2229.468    17.884143    23.288497    21.932972    9134.9689    2194.8741    2533.6205    1959.9094   -70.856695    442.92077     -264.652   -4239.3555 
36204000    58.150171   -4634.7006   -4535.0332   -4634.7006            0    2478.2655     17.81526    23.203297    22.004431    9096.0327    2980.4096    2306.8175    2147.5693    100.47503    481.91363    306.29732   -4206.2757 
36205000    56.820531   -4635.9298   -4538.5414   -4635.9298            0    1526.1884    17.931596    23.252644    21.956452     9154.897    2427.1795    855.09005    1296.2957    376.15686    566.36334    115.55012   -4334.7727 
36206000    57.380116   -4635.8359   -4537.4884   -4635.8359            0    2147.1645    18.003603    23.220712    21.829159    9125.8217    1514.1209     1726.214    3201.1586   -115.94795    192.68361    103.54798   -4251.7206 
36207000    61.528016   -4638.6591   -4533.2022   -4638.6591            0    2164.7094    17.868756    23.302875    21.897747    9118.0768    2049.2588    2422.9285    2021.9409   -223.75273    313.11188    257.39825   -4245.3439 
36208000    62.491884   -4634.6892   -4527.5803   -4634.6892            0    2222.8135    17.737466    23.444051    21.949106    9127.2737    2811.0843    1755.7146    2101.6415    256.03714    162.26861   -315.76545   -4231.6973 
36209000     60.73633   -4635.4807   -4531.3807   -4635.4807            0    2337.5103     17.88078    23.177743    22.021284    9126.4154    2478.5923    2873.2652    1660.6735   -56.884978   -364.69293    166.99255   -4220.2595 
36210000    63.338721   -4634.5095   -4525.9491   -4634.5095            0    1575.1612    17.946964    23.271163    21.960263    9171.6318    1815.7755    1836.5047    1073.2035    338.98525   -272.71613     197.3592   -4315.2574 
36211000    59.205735   -4635.5158   -4534.0392   -4635.5158            0    2000.2456    17.896114    23.359508     21.84989    9134.2248    2020.2095    1728.8851    2251.6421     194.9818   -165.57905    160.25313   -4267.5799 
36212000    60.337149   -4633.4758     -4530.06   -4633.4758            0     2768.249    17.918121    23.213611    21.890037    9105.0357    2036.5909    3433.9706    2834.1855    77.416602   -30.473333    690.23919   -4162.4708 
36213000     61.11766   -4630.6192   -4525.8656   -4630.6192            0    1861.4254    17.906796    23.363909      21.8602    9145.7123    2296.8465     1142.893    2144.5368   -30.135875   -144.82717    106.41441   -4277.5872 
36214000     61.49021   -4639.2697   -4533.8775   -4639.2697            0    2151.7514    17.940036    23.195961    21.954882    9136.2251    2048.7315    2889.2684    1517.2543    61.589857    27.370873   -517.24709   -4247.1729 
36215000    54.809535     -4636.91   -4542.9683     -4636.91            0    2187.3708    17.869094    23.264409    21.947325    9123.8083    2218.9271    1946.4048    2396.7806   -156.28814   -124.51345    415.87554   -4251.9137 
36216000    58.098542   -4635.6443   -4536.0653   -4635.6443            0    1398.2943    17.840755    23.506188    21.863547    9168.8748    2427.2374    223.22233    1544.4232    269.83931    80.205393   -32.339798   -4349.0873 
36217000    58.273696   -4638.9199   -4539.0408   -4638.9199            0    2300.0251     17.79737    23.321846    22.015391    9137.8737    2725.9188    2216.2505    1957.9061    419.35847   -118.13609   -24.074661   -4232.5244 
36218000    59.946404   -4633.8111    -4531.065   -4633.8111            0    1685.1867    17.946088    23.292788    21.901587    9155.1794    1424.9435     1206.273    2424.3435    263.76998   -24.197633    1.4157413   -4306.0608 
36219000    58.821865   -4629.8131   -4528.9944   -4629.8131            0    2701.6414    17.919847    23.272759     21.84658    9110.9913    2522.9271    2586.1682     2995.829   -531.42717   -63.579549    -60.35196   -4170.0153 
36220000    58.499287   -4638.3509   -4538.0851   -4638.3509            0    2235.6686    17.908715    23.271702    21.933763    9141.2529    2558.3295    2371.0838    1777.5924   -818.23715   -461.58587    173.65246   -4240.0352 
36221000    60.936452   -4637.0435   -4532.6005   -4637.0435            0    1888.8016     17.85466    23.443622    21.854356    9147.7506    2308.4882    1271.0608    2086.8557   -452.33932    -169.3841    -156.5013   -4280.6145 
36222000    58.894432    -4638.376   -4537.4329    -4638.376            0    1811.8299    17.824503    23.392659    21.940707    9148.4523     2018.412    1362.8411    2054.2367   -44.425284   -448.32825    257.30394   -4295.6971 
36223000    58.715203   -4636.9151   -4536.2793   -4636.9151            0    1869.8924    17.974278    23.196767    21.926897    9142.3131    1230.0596    2473.0559    1906.5617    3.2253532    -174.6575   -204.29967   -4286.9642 
36224000    58.985484   -4634.1978   -4533.0987   -4634.1978            0    1953.7101    17.939382    23.243556    21.947704     9151.645    1743.6966    1713.5154    2403.9182   -42.356787    -519.0084   -233.18961   -4272.3422 
36225000    57.409384   -4633.4049   -4535.0072   -4633.4049            0    1850.4676    17.870504    23.410884    21.870855    9149.9845    2281.1843    965.49572    2304.7228   -663.68035   -363.78432    349.89921    -4288.075 
36226000     60.22037   -4635.6446   -4532.4289   -4635.6446            0    1490.5176    17.872853     23.34536    21.944308    9156.2228    1707.5992    1268.3069    1495.6466    123.18381    155.66692    62.954888    -4333.394 
36227000    64.548707   -4632.4965   -4521.8623   -4632.4965            0    1891.8798     17.95268    23.238823      21.9286    9148.5932    1990.2402     2197.143    1488.2563   -421.11105   -223.63726    335.54634   -4269.4423 
36228000    61.674958   -4630.7578    -4525.049   -4630.7578            0     2678.277    17.940225    23.130519    21.942376    9105.3554    2484.0585    2867.5754    2683.1972   -852.78309   -53.390381    367.36857   -4169.3945 
36229000    59.883037   -4632.1467   -4529.5092   -4632.1467            0    1886.5855    17.817977    23.436594    21.886141    9139.4928    1781.9466    1357.0614    2520.7484    232.83754    126.80252    96.209698    -4278.046 
36230000     59.67957   -4625.8485   -4523.5598   -4625.8485            0    2483.1489    17.934755    23.368366    21.747253    9114.4022    2195.8393    2131.9573    3121.6502    296.20148   -340.41617    247.65343   -4193.4892 
36231000    61.422281   -4632.0489   -4526.7733   -4632.0489            0    1356.0499    17.948573     23.49795    21.768926    9181.1459    1464.0113    487.82484    2116.3135    240.04583   -61.218868   -64.252714   -4345.2014 
36232000    60.049369   -4634.4553   -4531.5327   -4634.4553            0    1760.2951    17.889291     23.31451    21.935734    9148.9567    1819.3817    1981.6072    1479.8964    717.11161    294.08477    62.230229   -4296.6598 
36233000    58.588191   -4636.9019   -4536.4837   -4636.9019            0    1934.5652    17.946668    23.295483    21.866727    9141.9601    2332.9057     2259.698    1211.0918    145.68504   -31.005103   -278.82763   -4278.5557 
36234000    63.464787   -4637.8383   -4529.0618   -4637.8383            0    1411.3719     17.97424    23.375425    21.836571    9174.7557    1185.2468    1167.4618     1881.407   -19.848257    49.607197   -142.72516   -4340.2141 
36235000    58.605413   -4637.4753   -4537.0277   -4637.4753            0    2105.7854    17.967912     23.14212    21.961332    9131.8638    1999.9676    2418.8557    1898.5328     395.7764     337.3076   -86.061877   -4256.5816 
36236000    57.893609    -4633.391   -4534.1633    -4633.391            0     1908.879    17.937126    23.232744     21.93328     9140.226    2380.3668    1778.7778    1567.4923    209.39129    56.023528   -12.479643   -4279.7082 
36237000    59.917215   -4636.7568   -4534.0608   -4636.7568            0    2468.1171    17.960525    23.193956    21.882307    9115.6355    2444.7383    2761.1067    2198.5062    353.29409    155.11296   -177.20657   -4205.9439 
36238000    57.893261   -4627.1785   -4527.9515   -4627.1785            0    2771.1833    17.930255    23.209244    21.899438    9113.3997    3405.9002    2957.0487     1950.601    144.62644    360.18794   -158.95003   -4159.6346 
36239000    62.627459   -4637.5476   -4530.2063   -4637.5476            0    1076.4281    17.924677    23.235782     22.04859    9183.1029    1249.6719    1111.1795    868.43286    6.0120946   -120.77808   -261.58987   -4386.0444 
36240000    57.747918   -4630.3913   -4531.4134   -4630.3913            0    1518.8427     17.93697    23.423157    21.826187    9170.0645     993.2924    1402.8277    2160.4081    -278.5438   -252.16092    147.27394   -4328.2894 
36241000    58.922266   -4639.1371   -4538.1464   -4639.1371            0    1722.3671    17.930128    23.307531    21.894807    9149.9932    1724.3105    1569.3964    1873.3943   -275.97847    146.40646    10.527939   -4308.3081 
36242000    59.764791   -4635.0489   -4532.6141   -4635.0489            0    2392.7685    17.926726    23.233596    21.925933    9132.2015    2361.9852    2636.9922    2179.3281   -64.483049    38.401565   -83.595384   -4213.9361 
36243000     58.75113   -4626.1565   -4525.4591   -4626.1565            0    2712.1274    17.830068    23.460971    21.799906    9119.1339    2927.1767    1475.9222    3733.2832   -498.17988     140.1112   -395.52644   -4164.7646 
36244000    59.603574   -4630.8086   -4528.6501   -4630.8086            0    1420.7283    18.063403    23.146962    21.930206    9169.3022    891.20128    1744.4828    1626.5009   -19.160964    241.72602   -356.02926   -4338.6634 
36245000     62.17642    -4631.789   -4525.2208    -4631.789            0     2068.392    17.905266    23.224703    21.988717    9143.8866    2824.3127    2171.2211    1209.6423   -6.1906554   -153.03235   -111.87386    -4249.392 
36246000    56.650882   -4630.4113   -4533.3136   -4630.4113            0    1730.5797    17.952867    23.165156    22.004364    9151.1961    1978.3858    2541.2277    672.12559    653.31847    261.08732    119.90072   -4302.3491 
36247000    56.967495   -4631.4904   -4533.8501   -4631.4904            0    1339.4973    17.991437    23.232743    21.977868    9186.5387    1087.9285    1848.9502    1081.6131   -364.43567    -12.11805    259.48618   -4354.3893 
36248000    61.835727   -4632.9964   -4527.0121   -4632.9964            0    1826.0468    17.966414    23.258563    21.898472    9150.7798    1317.5749    2961.6214    1198.9441    53.473431    -184.6183   -350.54527   -4283.3175 
36249000    57.940405   -4636.8456   -4537.5377   -4636.8456            0    2570.8379    17.804135    23.252329    22.005424    9109.9733    3262.5669    3056.5255    1393.4212    473.48524    35.465492     405.2646   -4195.9772 
36250000    62.456315    -4631.208     -4524.16    -4631.208            0    1976.3152    17.951718    23.239227    21.922527    9145.7285    2073.6803     1410.392    2444.8733   -108.69618    -76.36372    252.98308    -4260.557 
Loop time of 297.202 on 64 procs for 250000 steps with 864 atoms

Performance: 145.356 ns/day, 0.165 hours/ns, 841.180 timesteps/s
388.7% CPU use with 16 MPI tasks x 4 OpenMP threads

MPI task timing breakdown:
Section |  min time  |  avg time  |  max time  |%varavg| %total
---------------------------------------------------------------
Pair    | 24.312     | 26.427     | 28.617     |  30.7 |  8.89
Bond    | 1.5371     | 1.7176     | 2.1047     |  11.1 |  0.58
Kspace  | 157.43     | 162.08     | 167.02     |  21.5 | 54.53
Neigh   | 0.063651   | 0.066751   | 0.070608   |   0.9 |  0.02
Comm    | 35.025     | 39.191     | 42.439     |  39.3 | 13.19
Output  | 0.48134    | 0.48167    | 0.4831     |   0.1 |  0.16
Modify  | 49.688     | 54.373     | 58.776     |  47.8 | 18.29
Other   |            | 12.87      |            |       |  4.33

Nlocal:        54.0000 ave          62 max          47 min
Histogram: 3 2 2 1 0 0 2 2 1 3
Nghost:        2584.44 ave        2611 max        2551 min
Histogram: 2 2 0 1 1 2 1 2 2 3
Neighs:        13286.0 ave       14958 max       11410 min
Histogram: 2 2 3 1 0 0 1 1 1 5

Total # of neighbors = 212576
Ave neighs/atom = 246.03704
Ave special neighs/atom = 2.0000000
Neighbor list builds = 300
Dangerous builds = 0

unfix		3
unfix		2
unfix		1

write_data	data.final.${pid} nocoeff
write_data	data.final.1 nocoeff
System init for write_data ...
PPPM initialization ...
  extracting TIP4P info from pair style
  using 12-bit tables for long-range coulomb (../kspace.cpp:340)
  G vector (1/distance) = 0.37210662
  grid = 24 27 25
  stencil order = 5
  estimated absolute RMS force accuracy = 0.0031122697
  estimated relative force accuracy = 9.3725078e-06
  using double precision FFTW3
  3d grid and FFT values/proc = 6300 1296
Last active /omp style is kspace_style pppm/tip4p/omp

write_restart   restart.lmp.${pid}
write_restart   restart.lmp.1
System init for write_restart ...
PPPM initialization ...
  extracting TIP4P info from pair style
  using 12-bit tables for long-range coulomb (../kspace.cpp:340)
  G vector (1/distance) = 0.37210662
  grid = 24 27 25
  stencil order = 5
  estimated absolute RMS force accuracy = 0.0031122697
  estimated relative force accuracy = 9.3725078e-06
  using double precision FFTW3
  3d grid and FFT values/proc = 6300 1296
Last active /omp style is kspace_style pppm/tip4p/omp
Total wall time: 0:04:57
