LAMMPS (30 Jul 2021)
  using 1 OpenMP thread(s) per MPI task
package omp 0
using multi-threaded neighbor list subroutines
echo both

include		in.partitions
variable        pid world 0
include		in.temp
variable        temperature equal 220.92
variable	tempDamp equal 100.0
include		in.pressure
variable        pressure equal 2250.0
variable        pressureDamp equal 1000.0 # This is 1 ps
include		in.seed
variable        seed world 745823

units		real
atom_style	full
read_restart	restart.lmp.${pid}
read_restart	restart.lmp.0
Reading restart file ...
  restart file = 30 Jul 2021, LAMMPS = 30 Jul 2021
  restoring atom style full from restart
  orthogonal box = (0.28157110 1.4231848 0.34351608) to (17.926001 22.205993 21.869680)
  4 by 4 by 4 MPI processor grid
  restoring pair style lj/cut/tip4p/long/omp from restart
  restoring bond style harmonic/omp from restart
  restoring angle style harmonic/omp from restart
  864 atoms
  576 bonds
  288 angles
Finding 1-2 1-3 1-4 neighbors ...
  special bond factors lj:    0        0        0       
  special bond factors coul:  0        0        0       
     2 = max # of 1-2 neighbors
     1 = max # of 1-3 neighbors
     1 = max # of 1-4 neighbors
     2 = max # of special neighbors
  special bonds CPU = 0.576 seconds
  read_restart CPU = 0.757 seconds
include 	in.setup
variable	out_freq equal 1000
variable	out_freq2 equal 10000
variable	out_freq3 equal 1000

timestep	2.0

neigh_modify    delay 7 every 1

include		in.tip4p
# This is TIP4P/Ice

# create groups ###
group ox type 2
288 atoms in group ox
group hy type 1
576 atoms in group hy

# set charges - beside manually ###
set group ox charge -1.1794
Setting atom values ...
  288 settings made for charge
set group hy charge 0.5897
Setting atom values ...
  576 settings made for charge

# ### TIP3P Potential Parameters ###
pair_style lj/cut/tip4p/long/omp 2 1 1 1 0.1577 8.5
pair_coeff 1 1*2 0.000 0.000
pair_coeff 2 2 0.21084 3.1668
bond_style  harmonic
bond_coeff  1 450 0.9572
angle_style harmonic
angle_coeff 1 55 104.52
kspace_style pppm/tip4p/omp 1.0e-5
pair_modify tail yes

thermo          ${out_freq}
thermo          1000
thermo_style    custom step temp pe etotal epair emol press lx ly lz vol pxx pyy pzz pxy pxz pyz enthalpy

restart 	${out_freq3} restart.lmp.${pid} restart2.lmp.${pid}
restart 	1000 restart.lmp.${pid} restart2.lmp.${pid}
restart 	1000 restart.lmp.0 restart2.lmp.${pid}
restart 	1000 restart.lmp.0 restart2.lmp.0


include         in.dump
dump            myDump all atom ${out_freq2} dump.water.${pid}
dump            myDump all atom 10000 dump.water.${pid}
dump            myDump all atom 10000 dump.water.0
dump            myDump2 all dcd ${out_freq2} dump.dcd
dump            myDump2 all dcd 10000 dump.dcd
dump_modify     myDump append yes
dump_modify     myDump2 append yes


variable natoms 	equal  "count(all)"                        # NUMBER ATOMS
variable H      	equal  "enthalpy/v_natoms"                 # ENTHALPY-per-atom
variable Vol      	equal  "vol/v_natoms"                 # volume-per-atom
fix AVG all 		ave/time ${out_freq} 1 ${out_freq} v_Vol v_H file vol_enthalpy.dat
fix AVG all 		ave/time 1000 1 ${out_freq} v_Vol v_H file vol_enthalpy.dat
fix AVG all 		ave/time 1000 1 1000 v_Vol v_H file vol_enthalpy.dat


timer           timeout 23:50:00 every 1000
New timer settings: style=normal  mode=nosync  timeout=23:50:00

fix 		1 all shake 1e-6 200 0 b 1 a 1
       0 = # of size 2 clusters
       0 = # of size 3 clusters
       0 = # of size 4 clusters
     288 = # of frozen angles
  find clusters CPU = 0.002 seconds
fix             2 all nph iso ${pressure} ${pressure} ${pressureDamp}
fix             2 all nph iso 2250 ${pressure} ${pressureDamp}
fix             2 all nph iso 2250 2250 ${pressureDamp}
fix             2 all nph iso 2250 2250 1000
fix             3 all temp/csvr ${temperature} ${temperature} ${tempDamp} ${seed}
fix             3 all temp/csvr 220.92 ${temperature} ${tempDamp} ${seed}
fix             3 all temp/csvr 220.92 220.92 ${tempDamp} ${seed}
fix             3 all temp/csvr 220.92 220.92 100 ${seed}
fix             3 all temp/csvr 220.92 220.92 100 745823

run             250000
PPPM initialization ...
  extracting TIP4P info from pair style
  using 12-bit tables for long-range coulomb (../kspace.cpp:340)
  G vector (1/distance) = 0.37263119
  grid = 24 24 25
  stencil order = 5
  estimated absolute RMS force accuracy = 0.003257609
  estimated relative force accuracy = 9.8101926e-06
  using double precision FFTW3
  3d grid and FFT values/proc = 2730 288
Last active /omp style is kspace_style pppm/tip4p/omp
Neighbor list info ...
  update every 1 steps, delay 7 steps, check yes
  max neighbors/atom: 2000, page size: 100000
  master list distance cutoff = 10.8154
  ghost atom cutoff = 10.8154
  binsize = 5.4077, bins = 4 4 4
  1 neighbor lists, perpetual/occasional/extra = 1 0 0
  (1) pair lj/cut/tip4p/long/omp, perpetual
      attributes: half, newton on, omp
      pair build: half/bin/newton/omp
      stencil: half/bin/3d
      bin: standard
Per MPI rank memory allocation (min/avg/max) = 9.235 | 9.240 | 9.247 Mbytes
Step Temp PotEng TotEng E_pair E_mol Press Lx Ly Lz Volume Pxx Pyy Pzz Pxy Pxz Pyz Enthalpy 
 7500000    232.65425   -4028.2913   -3629.5299   -4028.2913            0    3459.0121     17.64443    20.782808    21.526164    7893.6616     4592.201    3188.9445    2595.8907   -86.409395    646.64133   -419.88305   -3231.3251 
 7501000    211.87608   -4019.8785   -3656.7302   -4019.8785            0    2271.1026    17.697891    20.845778    21.591386    7965.6301    2266.3927    3036.1327    1510.7823   -411.37956    796.84807   -132.29226    -3392.895 
 7502000    222.39466   -4041.6215   -3660.4447   -4041.6215            0    3244.7204    17.626319    20.761476    21.504069    7869.3797    3989.1664    3346.6094    2398.3855    647.36892    539.63093   -436.98881   -3288.0584 
 7503000     214.5384   -4026.4217   -3658.7102   -4026.4217            0    1724.8863    17.628848    20.764454    21.507153    7872.7669    1850.0361    2387.0788    937.54413   -364.04846   -843.31476   -1503.5235   -3460.6652 
 7504000    217.58798   -4063.2092   -3690.2708   -4063.2092            0    2569.7714    17.622727    20.757244    21.499685    7864.5685    3882.2593    1689.9409    2137.1141    199.19758    -847.8229   -244.56231   -3395.5266 
 7505000    221.29779   -4028.9653   -3649.6685   -4028.9653            0    2104.5353    17.658111    20.798922    21.542854    7912.0368    2997.2648    3393.4341    -77.09299   -1182.1158   -1393.2836     156.2267   -3406.8284 
 7506000    235.43879   -4049.1896   -3645.6556   -4049.1896            0    1370.5331    17.617562    20.751161    21.493384     7857.656    1451.6497    655.80273    2004.1469    16.179104    91.115859    1291.6469   -3488.5982 
 7507000    218.33513   -4028.0085   -3653.7896   -4028.0085            0     901.7226    17.640294    20.777937    21.521118    7888.1122    857.74971    69.400122     1778.018   -460.24049   -984.33783   -657.30752   -3550.0554 
 7508000    235.94246   -4060.9278   -3656.5305   -4060.9278            0    502.53994    17.672872    20.816309    21.560862    7931.8952    878.62805   -874.06515    1503.0569    585.00205   -961.97822   -36.867706   -3598.3974 
 7509000    222.39748   -4009.5819   -3628.4003   -4009.5819            0    1935.2046    17.653217    20.793158    21.536884    7905.4608    2000.0767    968.09072    2837.4463    721.46011   -401.92295    1174.0837   -3405.2846 
 7510000     228.6816    -4053.875   -3661.9225    -4053.875            0    2891.3945    17.563223    20.687156    21.427091    7785.1721    3545.8175    2434.7796    2693.5865    1314.1231     274.0905   -449.75525   -3333.6372 
 7511000      224.864   -4051.5958   -3666.1866   -4051.5958            0    1789.5012    17.563078    20.686986    21.426915      7784.98    1690.1163    2266.7556    1411.6317    641.12392    -737.3377    31.385104   -3463.0138 
 7512000    230.70197     -4009.21   -3613.7947     -4009.21            0    1499.7859     17.63952    20.777025    21.520173    7887.0734    2423.5016     2016.628    59.228171    759.05736   -1025.1289    599.85355    -3441.282 
 7513000     236.4683   -4034.7128   -3629.4143   -4034.7128            0    3985.2117    17.525835    20.643119    21.381478    7735.5602    3655.1426    3744.8845    4555.6081    -270.8479   -588.87869    310.98553   -3179.8218 
 7514000    212.50578   -4044.6339   -3680.4063   -4044.6339            0    1629.2782    17.588068    20.716421    21.457401    7818.2576    1439.9418     815.7584    2632.1345   -456.90071   -750.42582   -890.09059   -3494.6339 
 7515000    217.01394   -4030.9668   -3659.0124   -4030.9668            0     2695.541    17.547082    20.668145    21.407399    7763.7277    2676.3842    616.93624    4793.3025     1062.524   -751.36793    668.32716    -3353.807 
 7516000    222.37486   -4046.4653   -3665.3224   -4046.4653            0     1487.899    17.597823    20.727911    21.469303    7831.2746    1284.1115    1440.9608    1738.6248   -126.53035    1307.6459   -163.18565   -3495.3878 
 7517000    232.18247   -4064.3135   -3666.3607   -4064.3135            0    3488.4361    17.511251    20.625941    21.363686    7716.2651    3375.9717    1899.2971    5190.0395    982.35523    393.75339    197.57045   -3273.7936 
 7518000    214.47752   -4058.4391   -3690.8319   -4058.4391            0    1449.6084    17.543363    20.663764    21.402862    7758.7922    2211.9395    415.31344    1721.5722    572.28675   -1391.3446   -708.31698   -3526.8029 
 7519000    219.36735   -4042.9295   -3666.9414   -4042.9295            0    1969.5379    17.558332    20.681396    21.421124    7778.6707    1304.5239    1340.0005    3264.0894    1208.7773   -793.48041   -336.75702   -3443.5093 
 7520000    208.07303   -4047.3794   -3690.7494   -4047.3794            0    2020.6357    17.557063    20.679901    21.419576    7776.9842    1590.7128    2651.7773    1819.4169   -88.884672    166.09983   -1103.5175   -3461.5702 
 7521000    210.18925   -4043.1022    -3682.845   -4043.1022            0    2697.9348    17.597774    20.727853    21.469243    7831.2086    1473.3331    2202.1758    4418.2956    460.95374   -707.82703    110.56129   -3374.7135 
 7522000    223.01227   -4040.0949   -3657.8595   -4040.0949            0    1923.7759    17.591646    20.720635    21.461767    7823.0306    1062.8568    2863.0492    1845.4217   -236.45923   -1116.1782    308.27018   -3438.3742 
 7523000    204.84914   -4037.4872   -3686.3828   -4037.4872            0     1296.003    17.569849    20.694962    21.435175    7793.9872    1068.5757    870.31088    1949.1223    221.37195   -497.20078   -39.319274   -3539.0696 
 7524000    227.99822   -4021.8369   -3631.0558   -4021.8369            0    1390.6486    17.675891    20.819865    21.564546    7935.9612   -68.579857    565.62756     3674.898   -904.07843   -548.27744    1151.6063   -3470.1051 
 7525000    215.22458   -4026.8718   -3657.9843   -4026.8718            0    3273.8155     17.59061    20.719415    21.460503    7821.6485    5509.7877    1540.1667     2771.492   -386.21748   -1235.2033   -935.31793   -3284.5378 
 7526000    232.14181   -4029.1394   -3631.2562   -4029.1394            0    1659.2276    17.665835     20.80802    21.552277    7922.4243    1105.8173    2518.6477    1353.2179   -634.56849    161.94258    321.58757   -3439.5484 
 7527000    220.99311   -4018.5347   -3639.7601   -4018.5347            0    3020.6695    17.598567    20.728787     21.47021    7832.2672     2342.252    2964.7078    3755.0487    529.96217   -700.74486    768.67124   -3294.7224 
 7528000    218.84315   -4047.7781   -3672.6884   -4047.7781            0    1384.9449    17.639194     20.77664    21.519775    7886.6357    1363.3059    1276.2095    1515.3194    -268.0412    297.52339   -939.53553   -3513.3942 
 7529000    213.87935   -4046.8478   -3680.2659   -4046.8478            0    3434.4364    17.626544     20.76174    21.504342    7869.6804    3843.3536    2123.6479    4336.3078   -557.47351    1033.1359   -930.28288   -3286.0915 
 7530000    230.58538   -4027.8725   -3632.6571   -4027.8725            0    2332.1505    17.577098      20.7035    21.444019    7803.6386    2919.1895     3174.302    902.96007   -1281.8417   -1257.4332    -13.19049   -3367.2396 
 7531000    231.56475   -4030.4531   -3633.5591   -4030.4531            0    1681.7671     17.61086    20.743267    21.485208    7848.6923    2898.9164    804.74085    1341.6441   -36.246134    822.83464   -448.87966   -3441.0554 
 7532000    212.41603   -4014.7178    -3650.644   -4014.7178            0    1565.4333    17.618209    20.751923    21.494174    7858.5218    1764.9646    2499.6444    431.69093   -1015.4395   -161.11184    -231.2975   -3471.2321 
 7533000    218.41481   -4035.2879   -3660.9324   -4035.2879            0    3169.5632    17.556939    20.679755    21.419425    7776.8193    3482.1147    4825.2872    1201.2878   -856.22213    319.58318   -871.76939   -3301.4502 
 7534000    208.46573   -4049.5105   -3692.2074   -4049.5105            0    2544.8317    17.580722    20.707768    21.448439    7808.4654    2233.8476    2732.7877    2667.8598     178.2226    328.04443   -1113.3534   -3402.4059 
 7535000    217.32466   -4084.1235   -3711.6365   -4084.1235            0    4018.7433    17.554893    20.677346    21.416929    7774.1011    4072.5777    3514.9375    4468.7147   -2181.9954     626.0241    171.86176   -3256.0023 
 7536000    212.65914   -4055.0864   -3690.5959   -4055.0864            0    1865.2427    17.564321     20.68845     21.42843    7786.6322    2501.6661    1016.4536    2077.6084   -673.42324    45.992511   -1002.2127   -3478.7789 
 7537000    223.33254    -4046.522   -3663.7376    -4046.522            0    4057.7254    17.561373    20.684978    21.424834    7782.7129    5816.9128    3251.0001    3105.2634    280.73969    598.09553    605.63361   -3203.1741 
 7538000    221.85778   -4048.4195   -3668.1628   -4048.4195            0    1398.5137    17.668811    20.811526    21.555909    7926.4295    1719.3092    885.72428    1590.5075   -629.41597    1273.3016    355.55705   -3506.4963 
 7539000    222.57181   -4044.9513   -3663.4709   -4044.9513            0    2175.8832    17.592962    20.722185    21.463372    7824.7857    2336.7918    775.15098    3415.7068   -468.51559     206.5066    296.44353   -3415.1667 
 7540000    219.52493    -4046.452   -3670.1938    -4046.452            0    1550.0085    17.606424    20.738042    21.479797     7842.763    1036.9586    1586.0048    2027.0621    232.97617    351.00946   -1563.7394   -3492.9059 
 7541000    211.56732   -4031.4872    -3668.868   -4031.4872            0    1561.3858    17.603999    20.735186    21.476838    7839.5225    1475.5267    1786.3444    1422.2863   -571.90633   -51.556832   -882.85778   -3490.3526 
 7542000    224.15149   -4056.3482   -3672.1602   -4056.3482            0    2393.6532    17.560624    20.684096     21.42392    7781.7168    2161.9284    3370.2018    1648.8294   -87.395689    -468.8863    294.49864   -3400.5085 
 7543000    223.41948    -4039.915   -3656.9817    -4039.915            0    2163.2774    17.588289    20.716681    21.457671    7818.5524    3016.9057    1853.2627    1619.6639   -135.33802   -183.07288   -625.31415   -3410.3127 
 7544000    226.52884   -4049.3193   -3661.0566   -4049.3193            0    795.62962      17.6131    20.745905    21.487941    7851.6874     791.1009    2218.1452   -622.35721   -201.68336   -518.41212    354.48233     -3569.95 
 7545000    215.74116   -4066.3548   -3696.5818   -4066.3548            0     1387.383    17.507123    20.621079    21.358649    7710.8092     2314.754     955.6988    891.69632   -674.95186   -51.905056   -132.03289   -3540.5647 
 7546000    233.89569   -4048.8542   -3647.9649   -4048.8542            0     3900.492     17.51845     20.63442    21.372468    7725.7847    3464.6852    5411.3796    2825.4114    212.78826    404.60426   -169.39317   -3208.4862 
 7547000    213.66552    -4049.668   -3683.4526    -4049.668            0    1931.9043    17.573827    20.699646    21.440027    7799.2816     4331.788    683.80006    780.12488    -803.9971   -82.439379    206.33352    -3463.709 
 7548000     216.0506   -4025.6123   -3655.3089   -4025.6123            0    1820.1326    17.589899    20.718578    21.459636    7820.7006    1087.1881    1638.2882    2734.9214   -689.41488    231.00493   -899.88567   -3447.7103 
 7549000    227.25059   -4039.5548   -3650.0551   -4039.5548            0    2770.1872     17.53201    20.650392    21.389011    7743.7387    3494.3789    3261.0672    1555.1156   -1135.0419    814.98725    939.66304   -3337.2054 
 7550000    216.32734   -4055.8089   -3685.0312   -4055.8089            0     1231.291    17.591519    20.720485    21.461612    7822.8606    3315.1589    970.33091   -591.61668    1441.6662   -712.40297   -258.87086   -3544.5552 
 7551000    221.06608   -4018.7709   -3639.8712   -4018.7709            0    1202.2219    17.587689    20.715975     21.45694     7817.753    1056.9563    1628.2125    921.49698     -661.732   -443.59145    773.73254   -3502.8012 
 7552000    216.89629   -4042.2993   -3670.5465   -4042.2993            0    2285.6408     17.53048     20.64859    21.387145     7741.712    2666.4278    1734.2787    2456.2157   -959.95576   -839.99421    15.572429   -3412.4864 
 7553000    218.74951    -4056.106   -3681.1768    -4056.106            0    1796.4988    17.593784    20.723154    21.464376    7825.8833    2080.1206    894.49843    2414.8772   -875.70129   -992.56395    860.87176    -3476.138 
 7554000    227.84539    -4040.148   -3649.6288    -4040.148            0    2710.5895    17.540264    20.660115    21.399082    7754.6821    2848.5215    3343.6142    1939.6329   -830.25669    585.84239   -615.68158   -3343.0772 
 7555000     228.8378   -4059.7855   -3667.5654   -4059.7855            0    1383.6525    17.561003    20.684542    21.424383    7782.2212    1093.6009    2118.8939    938.46277     270.4337    -448.9579   -576.52022   -3510.5267 
 7556000    225.08529   -4029.5179   -3643.7294   -4029.5179            0     1801.294    17.563004    20.686899    21.426824    7784.8809    2964.5619    1425.6375    1013.6827    69.678343    359.36025   -438.42426   -3439.2204 
 7557000    216.96097   -4048.6606   -3676.7969   -4048.6606            0    2760.2557    17.575014    20.701045    21.441476    7800.8623    3562.3155    3144.9694    1573.4821    274.33769    624.68217    113.24012   -3362.7693 
 7558000    223.99029   -4061.7365   -3677.8248   -4061.7365            0    742.21815    17.577862      20.7044    21.444951    7804.6559    1211.7737    934.26345    80.617267    146.68395   -201.97851    259.07999   -3593.3433 
 7559000    222.95282   -4038.7552   -3656.6217   -4038.7552            0    3803.9106    17.478937    20.587879    21.324263    7673.6266    4018.0206    4170.6825    3223.0287   -1034.7374    1021.4299   -600.66257   -3230.9186 
 7560000    206.66726   -4045.1724   -3690.9517   -4045.1724            0    2379.7411    17.491156    20.602271    21.339169    7689.7303    2564.0315    2132.6235    2442.5683   -600.59692     327.3128    1053.7161   -3424.0713 
 7561000    225.28799   -4066.0586   -3679.9227   -4066.0586            0    1241.4448    17.570278    20.695466    21.435698    7794.5573    2113.1478    78.651186    1532.5354   -588.06028   -1279.3684    1058.0286   -3538.8007 
 7562000      218.783   -4025.6551   -3650.6685   -4025.6551            0     1220.126    17.618237    20.751956    21.494208    7858.5593    2621.9212    1420.3784    -381.9216   -1649.5901   -467.64482   -1187.1328    -3510.831 
 7563000    236.53296   -4031.0559   -3625.6465   -4031.0559            0    2755.9889       17.573    20.698672    21.439018    7798.1806    3894.1869    3321.5246    1052.2551   -193.35345   -618.23147   -388.81608   -3312.2121 
 7564000    217.83449   -4025.4844   -3652.1236   -4025.4844            0    4312.1453    17.493726    20.605298    21.342304    7693.1202    3673.5841    3243.2105    6019.6412    -1630.408    137.17269      64.6857    -3168.317 
 7565000    210.44981   -4040.7524   -3680.0486   -4040.7524            0    2733.8066    17.490174    20.601114    21.337971    7688.4352    3077.3765    3208.9626    1915.0807   -401.37174    387.94788    63.151018   -3373.5125 
 7566000    230.56308   -4025.0551   -3629.8779   -4025.0551            0    1420.7919    17.582257    20.709577    21.450313    7810.5117     295.0105    2384.0551    1583.3101   -489.86677    351.37003     -15.6757   -3468.0379 
 7567000    222.64185   -4068.5633   -3686.9628   -4068.5633            0    3348.4215    17.527926    20.645582    21.384029    7738.3288    2539.1217    4651.3055    2854.8374   -325.29389    465.28765   -161.14823   -3309.0747 
 7568000    217.70216   -4040.0235   -3666.8894   -4040.0235            0    3593.4404    17.510988    20.625631    21.363364    7715.9169     3896.545    4388.2225    2495.5538   -191.89238   -242.91428   -1460.0776   -3262.5241 
 7569000    213.91798   -4071.4479   -3704.7998   -4071.4479            0    1258.9727    17.555689    20.678282    21.417899    7775.1574    592.34292    619.24215     2565.333    347.51614    172.78918   -1126.8503   -3562.0415 
 7570000    217.25724   -4042.0728   -3669.7013   -4042.0728            0    2485.2337    17.542986     20.66332    21.402402     7758.292      4758.34    851.68262    1845.6784   -932.70303     -622.201    292.15626   -3388.5053 
 7571000    222.60387   -4057.1734    -3675.638   -4057.1734            0    2780.0943    17.560267    20.683675    21.423485    7781.2423    1308.4696    4503.4164    2528.3968   -355.03731   -185.50415    205.76306   -3360.1489 
 7572000    225.86434   -4009.4861   -3622.3624   -4009.4861            0    1902.1605    17.637466    20.774605    21.517667    7884.3186    1355.2182    2912.4726    1438.7906    702.81459   -706.77253     533.2539    -3403.643 
 7573000    217.79342    -4063.835   -3690.5445    -4063.835            0    2333.4633     17.59667    20.726553    21.467897    7829.7353    3527.5175   -18.234254    3491.1067    42.824552     157.8063    245.76883   -3424.0895 
 7574000    227.24984   -4065.5018   -3676.0033   -4065.5018            0    1956.5179    17.607329    20.739108    21.480901    7843.9724    2756.9378    2369.0567    743.55937    419.58798    605.53415   -62.248389   -3452.1849 
 7575000    217.84746    -4042.485   -3669.1019    -4042.485            0    2493.0938     17.62478    20.759663     21.50219    7867.3178    3564.5755    2454.5332    1460.1727    513.97001   -944.15769      -1243.6   -3383.0524 
 7576000    216.52889    -4045.384   -3674.2609    -4045.384            0     2266.955    17.609319    20.741451    21.483328    7846.6313    4139.0327    2364.0533    297.77907    88.140665    605.08223    1857.7187   -3414.8418 
 7577000    226.75718   -4078.5212   -3689.8672   -4078.5212            0    3794.8603    17.528146    20.645841    21.384297    7738.6205    4883.2708    3507.2182    2994.0919   -708.76283   -410.64747   -247.04746   -3261.5799 
 7578000    232.94777     -4031.86   -3632.5955     -4031.86            0    2281.6866    17.643091     20.78123     21.52453     7891.864     2716.142    2110.7115    2018.2064    295.63874   -553.50152    -421.6062   -3369.9854 
 7579000    219.84939   -4061.4937   -3684.6794   -4061.4937            0    2248.1697    17.640787    20.778517    21.521719    7888.7731     2814.084    936.75269    2993.6723    -56.43011    350.84177    -110.1676   -3426.0282 
 7580000    224.77071     -4020.97   -3635.7207     -4020.97            0    1800.4755    17.626676    20.761896    21.504504    7869.8573    3092.4967    1403.0123     905.9174    -598.7506   -812.78019   -133.06511   -3429.0733 
 7581000    222.70335    -4051.859   -3670.1531    -4051.859            0    2771.3082    17.603067    20.734087      21.4757    7838.2765    2860.8286    1922.9157    3530.1803    262.58178    393.46993   -1447.6235   -3353.3559 
 7582000    216.30532   -4062.6019    -3691.862   -4062.6019            0    1125.2439    17.629792    20.765567    21.508305     7874.032    592.35616    1881.8795    901.49606    776.68224    532.38199   -1120.7943    -3562.645 
 7583000    215.96465   -4053.2066   -3683.0506   -4053.2066            0    3227.7316    17.509208    20.623534    21.361192    7713.5636    2724.4159    2144.5228    4814.2562    8.8514387   -208.71006    200.12537   -3319.9488 
 7584000    235.28668   -4035.6323    -3632.359   -4035.6323            0    2556.2623    17.610045    20.742307    21.484214     7847.602    2601.4871    1512.1338    3555.1659     818.2612    162.45179   -225.52613   -3339.7968 
 7585000    217.09171   -4040.2468    -3668.159   -4040.2468            0     1481.198    17.589454    20.718053    21.459093    7820.1065    1404.6644    1223.4017    1815.5279    77.806391    124.35162   -1227.0684    -3499.231 
 7586000    223.49599    -4039.748   -3656.6835    -4039.748            0    1156.6123    17.626344    20.761505    21.504098    7869.4123    644.60017    527.41905    2297.8177   -247.67304     86.29792   -223.01861   -3523.9422 
 7587000    215.53779   -4055.9951   -3686.5707   -4055.9951            0    1455.4286    17.635201    20.771938    21.514905     7881.282    370.21164    2330.1515    1665.9228    72.787662    1209.2194   -92.275016   -3519.2832 
 7588000    226.75032   -4030.8202   -3642.1779   -4030.8202            0    928.90848     17.66381    20.805635    21.549807    7919.7004    537.68308    1377.1105    871.93184   -519.20995    468.16033   -1312.1203   -3534.8883 
 7589000    217.18784   -4062.9539   -3690.7014   -4062.9539            0    2712.4048    17.565082    20.689347    21.429359    7787.6451    3103.7347    2053.7258    2979.7538    284.22833    1459.2973   -1270.2851   -3382.6405 
 7590000    225.31099   -4047.1302   -3660.9548   -4047.1302            0    2788.2566    17.599538    20.729931    21.471395    7833.5641    2731.3554    3700.8953     1932.519      816.527   -926.56061    -1368.599   -3342.4119 
 7591000    210.56771   -4060.7871   -3699.8812   -4060.7871            0    3444.7832    17.579271    20.706059     21.44667    7806.5327      1495.06    5878.8558    2960.4339   -382.33056   -942.41159    440.91835   -3307.6917 
 7592000    217.65389   -4027.0361   -3653.9848   -4027.0361            0    2963.0241    17.599272    20.729618    21.471071    7833.2087    1494.3979    3448.5676    3946.1068    1130.4373   -310.03895   -429.61399   -3315.4909 
 7593000    213.34782   -4054.6642   -3688.9933   -4054.6642            0    2997.8705    17.496897    20.609033    21.346173    7697.3044    2365.6259    4503.9346    2124.0511   -100.30464    580.23076   -507.49942   -3352.4605 
 7594000        212.1   -4048.3883   -3684.8562   -4048.3883            0    1621.7928    17.544346    20.664922    21.404061     7760.097   -266.55357    3176.1927    1955.7394    266.15448    669.48063   -983.74641   -3501.3129 
 7595000    223.82803   -4075.9304   -3692.2968   -4075.9304            0    2641.9784    17.579835    20.706724    21.447358    7807.2845    2861.8391     3044.183     2019.913    540.18034   -871.09195    212.71082   -3391.4779 
 7596000    223.84652   -4042.4232   -3658.7579   -4042.4232            0    1682.3836    17.603123    20.734153    21.475768    7838.3514    1048.1309     1436.031     2562.989    1702.3351   -783.48508   -81.438188   -3466.4374 
 7597000    232.42362   -4061.1343   -3662.7682   -4061.1343            0    4122.4874    17.539315    20.658996    21.397923     7753.423    5187.3109    4282.0602    2898.0911    1089.0135     306.2926   -875.89681   -3196.6149 
 7598000    210.92223   -4053.7486   -3692.2351   -4053.7486            0    1721.4059    17.616691    20.750135    21.492322    7856.4906    2316.2017    552.20468    2295.8114    942.25961     240.7357   -216.02607   -3494.9984 
 7599000    227.09556   -4053.9129   -3664.6789   -4053.9129            0    1508.2402    17.598032    20.728157    21.469558    7831.5532    1153.2382    1478.7177    1892.7648    779.76942    109.27476    343.20537    -3492.415 
 7600000     206.7324   -4027.8586   -3673.5264   -4027.8586            0    3157.3317    17.613284    20.746122    21.488165    7851.9333    3003.7914    3273.0209    3195.1827    345.68746    849.08272   -336.74085   -3311.9728 
 7601000    217.66143   -4060.7389   -3687.6747   -4060.7389            0     3632.756    17.491873    20.603116    21.340045    7690.6768    3892.2612    3441.8605    3564.1462   -46.845683    468.18415    831.25223   -3280.2225 
 7602000    226.62989   -4035.5503   -3647.1144   -4035.5503            0    1475.8581    17.625296     20.76027    21.502819    7868.0083     2313.431    2087.2674    26.875928     365.6416     238.2699    84.318169   -3477.7644 
 7603000    221.22418   -4040.2214   -3661.0508   -4040.2214            0    1397.6246    17.628335     20.76385    21.506527    7872.0791    1051.3025    1853.0764     1288.495     977.4971    -2063.579   -185.14736   -3500.5948 
 7604000    225.24287   -4058.1759   -3672.1173   -4058.1759            0    2147.0373    17.624951    20.759864    21.502399    7867.5471    3112.9297    1311.3283     2016.854    152.00753    106.32723   -1755.6834   -3425.7661 
 7605000    224.45688   -4028.4973   -3643.7858   -4028.4973            0    2651.1656    17.556355    20.679067    21.418712     7776.043     4639.503    516.10954    2797.8841   -584.98389   -365.76932   -1003.6746   -3343.1288 
 7606000     208.4924   -4044.9353   -3687.5865   -4044.9353            0    1805.2851    17.568604    20.693495    21.433656    7792.3301     856.7946    3106.9812    1452.0795    618.35708   -786.05419   -1310.2364   -3482.4282 
 7607000     230.9713   -4069.1038   -3673.2269   -4069.1038            0   -432.33604    17.615468    20.748694     21.49083    7854.8544   -731.54269    647.21685   -1212.6823    110.31736   -431.23611   -1089.1276   -3722.7532 
 7608000    215.58262   -4031.2613     -3661.76   -4031.2613            0    2094.0834    17.552541    20.674575    21.414059    7770.9759     2064.235    1441.8994     2776.116   -1095.1957    422.58897   -1407.8734    -3424.434 
 7609000    216.42627   -4045.9714   -3675.0242   -4045.9714            0    2844.8735    17.521966    20.638562    21.376758    7730.4379     3963.839    1694.8474    2875.9343   -235.86181    188.56749   -1215.6778   -3354.2917 
 7610000    214.54644   -4038.2802   -3670.5549   -4038.2802            0    1020.0577    17.607074    20.738807    21.480589     7843.631     3074.794    -854.1757    839.55484   -686.01263   -58.404963    144.12429   -3553.8692 
 7611000    229.80324    -4043.579   -3649.7041    -4043.579            0    2208.2671    17.576208    20.702452    21.442933    7802.4531    2194.0824    2244.0431    2186.6758   -73.969064   -130.68904    106.65416   -3398.4236 
 7612000      224.418   -4047.3969   -3662.7521   -4047.3969            0    2079.8127    17.651158    20.790732    21.534371    7902.6941    1290.4917    2634.1615    2314.7848   -1376.3676    113.91493    844.88429   -3423.0481 
 7613000    229.02349   -4061.7769   -3669.2384   -4061.7769            0    3064.3432    17.519167    20.635264    21.373343    7726.7334    2531.0382    2382.0884    4279.9032    146.94987   -299.71104     569.8488   -3323.9284 
 7614000    236.66729   -4036.0881   -3630.4485   -4036.0881            0    2185.7757    17.596892    20.726814    21.468167    7830.0313    1843.2055    2830.0356    1884.0859    210.43082    631.17251    -343.7644   -3380.8482 
 7615000     222.8949   -4024.4034   -3642.3692   -4024.4034            0    2531.5953    17.610106    20.742379    21.484288    7847.6836    2676.7329    812.64248    4105.4107   -2052.4023   -44.109169    301.73127    -3352.627 
 7616000    210.25073   -4025.1714   -3664.8088   -4025.1714            0    2503.8558    17.550158    20.671768    21.411152    7767.8121    3065.3694    1040.7557    3405.4422   -700.54867    155.69669    55.094601   -3381.1581 
 7617000    212.91694   -4053.3809   -3688.4485   -4053.3809            0    2397.3166    17.514482    20.629746    21.367627    7720.5366    3229.1781    700.12576    3262.6458   -1301.0713    434.03566    37.670521     -3418.52 
 7618000    219.61569   -4055.7681   -3679.3543   -4055.7681            0    1549.7638    17.503237    20.616501    21.353908     7705.675    783.68642    1592.7193    2272.8856   -131.20151    1076.9228     179.5199   -3505.1929 
 7619000    216.11243   -4021.7552   -3651.3459   -4021.7552            0    1993.3169    17.580264    20.707229    21.447882    7807.8562    2265.8358    1667.5245    2046.5904    475.11798   -116.24732   -371.38182   -3424.3678 
 7620000    215.49401   -4047.8733    -3678.524   -4047.8733            0    1474.4919    17.619108    20.752982    21.495271    7859.7255   -135.76218    2854.5633    1704.6746    181.04198   -412.72113   -497.99192   -3509.5088 
 7621000    220.41751   -4052.2307   -3674.4427   -4052.2307            0    2962.5669    17.539594    20.659325    21.398264    7753.7928    1814.0099    3356.4272    3717.2635     516.3973    1108.2538     1152.753   -3339.4323 
 7622000    229.51319    -4027.808   -3634.4303    -4027.808            0    1638.7582    17.625829    20.760899    21.503471    7868.7232    2574.8444    91.755526    2249.6745    312.44972    1135.7449   -1175.6663   -3446.3709 
 7623000    209.24165   -4055.6705   -3697.0375   -4055.6705            0    3171.6975    17.499032    20.611548    21.348778    7700.1227    2058.9841    4578.2235    2877.8847   -1202.9598   -1295.9385   -11.959191    -3340.861 
 7624000    225.53385   -4035.1232   -3648.5659   -4035.1232            0    923.53863    17.658406     20.79927    21.543214    7912.4334    12.992392    428.07745     2329.546    464.48334    28.597424   -1947.1559   -3541.9944 
 7625000    230.39288   -4027.4211   -3632.5356   -4027.4211            0    2407.0389    17.592883    20.722092    21.463276    7824.6807    1987.8891    756.59315    4476.6346   -1217.1051   -387.35325   -712.69022   -3357.8565 
 7626000    230.10362   -4051.3183   -3656.9286   -4051.3183            0    1515.5551    17.611459    20.743972    21.485939    7849.4929    1395.2974    635.70924    2515.6586   -462.81987    165.39824   -32.249214   -3483.4327 
 7627000    229.27508   -4051.0375   -3658.0679   -4051.0375            0    2186.3206    17.567954     20.69273    21.432863    7791.4658    3453.4228    1373.7519    1731.7871    575.19252    191.43248   -649.71982   -3409.6351 
 7628000    223.46349   -4035.3405   -3652.3317   -4035.3405            0    2008.4331    17.608281    20.740229    21.482062    7845.2443    2028.9064    2547.8894    1448.5036   -561.39531    937.10367   -1264.5584   -3422.5371 
 7629000    229.28078   -4033.6834    -3640.704   -4033.6834            0    3083.4213    17.610998    20.743429    21.485376    7848.8762    3068.3362    2824.2126    3357.7152   -237.71835   -311.57883   -653.48989   -3287.7515 
 7630000    215.20425   -4054.0788   -3685.2261   -4054.0788            0    3535.3948     17.51441    20.629661    21.367539     7720.441    2256.1416    3720.6617    4629.3812    588.57535   -32.818824   -316.43386   -3287.1593 
 7631000    215.24149   -4079.1666     -3710.25   -4079.1666            0    3266.1695    17.544034    20.664555    21.403681    7759.6833     1953.946     3883.918    3960.6446    260.21985   -326.27658   -1365.8245   -3340.6274 
 7632000    219.57888   -4011.1776   -3634.8269   -4011.1776            0     940.5055    17.653955    20.794027    21.537784    7906.4522    1305.4979   -269.82911    1785.8477    836.47592   -887.00032   -371.83632   -3526.3796 
 7633000    199.56256   -4021.2473   -3679.2039   -4021.2473            0    2953.5126    17.526873    20.644342    21.382745    7736.9348    2748.7324    2685.4564    3426.3491   -538.14912   -212.61404    -776.8789   -3345.9436 
 7634000    208.98973   -4063.4407   -3705.2395   -4063.4407            0     1068.757    17.695786    20.843299    21.588818    7962.7884    1448.4925    1184.1603    573.61817    487.07861    4.3418397    219.29386   -3581.1257 
 7635000    211.34411   -4068.9411   -3706.7045   -4068.9411            0    4081.2815    17.548169    20.669425    21.408725    7765.1707    4056.5475    3849.2674    4338.0295     1552.545    1834.7492   -850.54219   -3244.5114 
 7636000    212.82612   -4031.4631   -3666.6864   -4031.4631            0     1552.763    17.659991    20.801137    21.545148    7914.5646    1998.0261    1679.4641    980.79874    664.11271    246.37655   -709.54313   -3487.4575 
 7637000    214.35932   -4060.2196   -3692.8151   -4060.2196            0    1015.6697    17.581002    20.708098    21.448781    7808.8384    2114.8762    2117.9809    -1185.848    219.71051    72.994001    503.69141   -3577.1467 
 7638000    224.35406   -4054.6788   -3670.1436   -4054.6788            0    1236.5358    17.564955    20.689196    21.429204    7787.4753    886.91464    2418.5068    404.18584   -566.65472    455.02041   -141.91058   -3529.7074 
 7639000    209.79192   -4070.6063   -3711.0301   -4070.6063            0    1364.9677    17.594697    20.724229    21.465489    7827.1015    663.42679    1485.6462      1945.83   -16.489508   -1101.5532   -638.96687   -3555.2187 
 7640000    220.00869   -4047.6724    -3670.585   -4047.6724            0    2915.2195    17.679456    20.824063    21.568895    7940.7633    3759.2618    2879.9763    2106.4205   -199.07943     553.7664    143.84286   -3332.9796 
 7641000    213.98532   -4051.2069   -3684.4434   -4051.2069            0    1166.2717    17.637783    20.774978    21.518054    7884.7434    1759.5979    872.33619    866.88085   -1553.3259   -230.14124   -421.99921   -3550.3328 
 7642000     219.7865   -4059.5307   -3682.8241   -4059.5307            0    1456.4043    17.644527    20.782922    21.526282    7893.7917      619.674    2426.4134    1323.1255   -32.093911    164.59985   -120.37631   -3515.1587 
 7643000    220.64119   -4058.1905    -3680.019   -4058.1905            0    3477.6289     17.56221    20.685964    21.425855    7783.8256    3020.9152    3286.0657    4125.9057    -826.8009    869.67474   -1442.2337   -3285.2417 
 7644000    220.94637   -4058.9328   -3680.2382   -4058.9328            0    1952.7916    17.615372    20.748581    21.490713    7854.7261    1476.8313    702.52256    3679.0208    1036.3797   -701.80703   -307.70586   -3456.5399 
 7645000    234.22254   -4028.8065   -3627.3571   -4028.8065            0    2541.7308    17.582717    20.710119    21.450874    7811.1248    4426.0824    2293.9838    905.12629   -175.47096     495.7281    864.88699   -3337.8101 
 7646000    219.04087   -4069.1203   -3693.6917   -4069.1203            0    619.15221    17.674932    20.818736    21.563376    7934.6701    1508.1659   -751.31157    1100.6023   -278.62223    1013.5722   -199.08409    -3622.044 
 7647000    207.35928   -4053.7013   -3698.2946   -4053.7013            0    2680.3043    17.579973    20.706887    21.447527    7807.4684    3160.5914    2219.8428    2660.4787   -1828.4658    170.05936   -151.05062   -3393.1046 
 7648000     214.6572   -4063.6296   -3695.7145   -4063.6296            0    1517.9137    17.641298    20.779118    21.522342     7889.458    2751.8694    775.77572    1026.0959    95.884366   -491.13243   -910.37304   -3521.0639 
 7649000    216.64773   -3998.8775   -3627.5507   -3998.8775            0    2184.3392    17.709189    20.859086     21.60517    7980.8956     2042.266    1322.8827    3187.8689   -1339.9187      224.518    179.98509   -3373.3085 
 7650000    222.37278    -4062.274   -3681.1346    -4062.274            0    1309.1235    17.666382    20.808665    21.552945    7923.1608    1186.8047    569.67413    2170.8917    183.01116   -129.38836    423.08353   -3529.8639 
 7651000    220.55335    -4034.631   -3656.6101    -4034.631            0    4000.1184    17.614229    20.747235    21.489318    7853.1975     3861.973    3535.8793     4602.503   -1069.9454   -240.01453    757.70355   -3198.4732 
 7652000    204.04438   -4055.4724   -3705.7473   -4055.4724            0    2466.8674    17.660031    20.801184    21.545197    7914.6186    2333.7612    3093.0972    1973.7439   -492.06443   -740.88875    120.71223   -3421.0052 
 7653000    229.20402   -4057.4389   -3664.5911   -4057.4389            0      2199.86    17.661189    20.802547    21.546609    7916.1748    1215.8849    2439.4096    2944.2856    1472.1831   -1588.3326   -347.85339   -3410.6188 
 7654000    217.84192   -4062.3837   -3689.0101   -4062.3837            0     1990.335    17.676465    20.820541    21.565246    7936.7341    503.14919    2532.5097     2935.346   -729.37968   -953.79248    319.89313   -3458.6306 
 7655000    215.49483   -4058.4347   -3689.0839   -4058.4347            0    2605.0295    17.652649    20.792488     21.53619     7904.697    1534.0011    2731.5551    3549.5325   -1744.4368   -377.37583    -1384.696   -3388.7712 
 7656000    204.06468   -4066.0434   -3716.2835   -4066.0434            0    2612.9658    17.657264    20.797925    21.541821    7910.8988    2747.4072    2474.7194    2616.7708   -798.09955   -231.10907   -30.767197   -3414.8195 
 7657000    218.84681   -4063.9135   -3688.8175   -4063.9135            0    2993.1434    17.633377    20.769788    21.512678    7878.8355    991.50996    4424.2279    3563.6923   -730.72059    860.46625     287.6649   -3344.8912 
 7658000    217.31166   -4051.8092   -3679.3445   -4051.8092            0    2432.1445    17.651631    20.791289    21.534948    7903.3294    1460.5313    2846.8793    2989.0229   -1048.7342    973.84789   -543.02087   -3399.0107 
 7659000    216.38189   -4030.0675   -3659.1963   -4030.0675            0    924.58083     17.72833    20.881631    21.628521    8006.8014    1876.5052    508.12655    389.11072    -221.2241    725.13225     683.9475   -3551.2321 
 7660000    224.96584   -4016.5354   -3630.9517   -4016.5354            0    3371.3482    17.617909     20.75157    21.493808    7858.1202    4501.3767    2470.6367    3142.0312   -594.65356    155.15911   -64.655689   -3244.5863 
 7661000    214.09358    -4059.907   -3692.9579    -4059.907            0    1884.1882    17.685249    20.830887    21.575963    7948.5725    2628.5334    1565.5352    1458.4961   -427.25091    234.35484   -146.76622   -3474.5395 
 7662000    223.01505   -4060.4653   -3678.2251   -4060.4653            0    2943.1428    17.639878    20.777447     21.52061    7887.5539    2521.3658    2384.9974    3923.0652   -309.43628    245.94229    423.90894   -3339.6698 
 7663000      222.496   -4052.1961   -3670.8456   -4052.1961            0    4295.4796    17.553821    20.676082     21.41562    7772.6759    2921.9498    4587.5699    5376.9191   -329.57962   -941.88028    -209.9437   -3183.9251 
 7664000    209.73447   -4036.1572   -3676.6795   -4036.1572            0    3067.1948    17.553835    20.676099    21.415638    7772.6951    3688.0356    1390.9949    4122.5538   -349.95425    68.781941   -715.51317   -3328.9921 
 7665000    217.99125   -4053.3219   -3679.6924   -4053.3219            0    2729.3262     17.56782    20.692571    21.432699    7791.2866    2397.6535    4183.1593    1607.1658    493.17783   -139.81102   -529.96963   -3369.5647 
 7666000     217.4997   -4037.8018   -3665.0148   -4037.8018            0    1962.3463    17.665194    20.807265    21.551495    7921.5615    2212.9112    2512.6094    1161.5183   -1093.1153    451.48706   -231.38744   -3438.3092 
 7667000    217.70365   -4073.9948   -3700.8581   -4073.9948            0     1255.719    17.599106    20.729422    21.470868     7832.987     2567.871    517.35621    681.92977    323.33878   -491.07708   -983.51969   -3557.4097 
 7668000    240.45538   -4054.0024   -3641.8701   -4054.0024            0    3527.6792    17.594997    20.724583    21.465856    7827.5022    5429.6272    2636.9233    2516.4871    -783.9035    310.32257   -803.94462    -3239.164 
 7669000    230.35538   -4052.1986   -3657.3773   -4052.1986            0    1383.0648    17.657344    20.798019    21.541919    7911.0065    2873.8507    1345.2365   -69.892928     1137.348    141.80726    1103.9027   -3497.8077 
 7670000    223.22663   -4055.6676   -3673.0648   -4055.6676            0    1376.9696     17.64128    20.779098    21.522321    7889.4348    1304.0663    2318.7408    508.10177   -139.58942    570.53546    1110.5007   -3514.6316 
 7671000     211.1031   -4041.5592   -3679.7358   -4041.5592            0    2509.9121    17.556062    20.678722    21.418355    7775.6536    2469.2362    2976.7143    2083.7856    132.69314    1067.2506    643.84708   -3395.1119 
 7672000     230.3942   -4065.2125   -3670.3247   -4065.2125            0    1973.0954    17.617371    20.750936    21.493151    7857.4004    1341.6169    3451.3506    1126.3188    541.42409   -589.79343    1088.1531   -3444.2235 
 7673000    220.64283   -4064.4444   -3686.2702   -4064.4444            0    1741.2381     17.60172    20.732502    21.474058    7836.4784    2543.6657    278.05265    2401.9959   -449.05899   -882.31638    1121.1849   -3487.2693 
 7674000    224.44242   -4081.2222   -3696.5356   -4081.2222            0    382.53029    17.630569    20.766482    21.509254    7875.0733    588.84758   -130.46345    689.20675    346.35817    316.06781    232.02007    -3652.602 
 7675000    225.43804   -4050.2794   -3663.8863   -4050.2794            0     1398.366    17.671853    20.815109     21.55962    7930.5239    1705.1059    1924.9698    565.02222    475.48239    1008.0948    610.97028   -3502.1533 
 7676000    228.16896   -4069.2327   -3678.1589   -4069.2327            0    1142.8105    17.613145    20.745958    21.487996    7851.7472     1676.459    795.29852    956.67402   -869.69151   -58.763865   -823.62022    -3547.296 
 7677000    235.07901   -4047.0951   -3644.1778   -4047.0951            0    2063.4542     17.59966    20.730075    21.471544     7833.727    2011.0936    1180.5338    2998.7353    1189.5605   -535.23698    452.96557   -3408.4346 
 7678000    227.06745   -4048.3843   -3659.1985   -4048.3843            0    1227.7475    17.627838    20.763264    21.505921    7871.4134    1887.5305    671.79662    1123.9154    148.33953    878.33823    606.50799   -3518.2574 
 7679000    218.67954   -4053.8884   -3679.0791   -4053.8884            0    1329.4062    17.632193    20.768395    21.511235    7877.2494    1489.7131    915.46143     1583.044   -1151.0201    1079.6841   -43.979146   -3526.3548 
 7680000    210.92819   -4046.8906   -3685.3669   -4046.8906            0     2625.857    17.590542    20.719335    21.460421    7821.5583    3816.3989    1658.8993    2402.2727   -819.94611    1149.3935    953.79024   -3385.8369 
 7681000    219.08864   -4048.9866   -3673.4762   -4048.9866            0    1822.6349    17.623781    20.758486    21.500972    7865.9807    2343.0247    1558.5415    1566.3385   -518.04442    1253.9899   -511.42832   -3464.3885 
 7682000    235.12895   -4052.8312   -3649.8282   -4052.8312            0    2577.3722    17.599125    20.729444    21.470891    7833.0119    4122.6493      2089.19    1520.2771    477.86616    351.27418    399.68368   -3355.3984 
 7683000    212.28152   -4052.9687   -3689.1254   -4052.9687            0    3100.9194    17.598043    20.728171    21.469572    7831.5684    2232.9766     1387.662    5682.1195     535.5499    525.42909   -1479.3034   -3334.9527 
 7684000    222.37848   -4075.0218   -3693.8727   -4075.0218            0    2593.4464    17.622849    20.757388    21.499834    7864.7318    1307.3555    3259.9597    3213.0241    230.69264     869.2123     451.4849   -3396.4068 
 7685000    223.84171    -4040.852    -3657.195    -4040.852            0    1864.1759    17.708474    20.858244    21.604297    7979.9291    2488.4887    1144.9451    1959.0939    1646.7345    641.05965   -789.68539   -3440.2439 
 7686000    238.10207   -4048.9833   -3640.8845   -4048.9833            0     1511.877     17.68119    20.826106     21.57101    7943.1004    940.61787    853.75279    2741.2603    458.90919    1218.5076    1199.9313   -3465.7457 
 7687000    218.95214    -4052.168   -3676.8915    -4052.168            0    1996.1674    17.664149    20.806034     21.55022    7920.1557    2765.5978    1213.4632    2009.4411    1038.1965   -106.79934   -485.10185   -3446.3195 
 7688000    229.13946   -4033.9562    -3641.219   -4033.9562            0    2960.6586    17.553925    20.676205    21.415748    7772.8147     1689.645    3023.8267     4168.504    769.09859   -609.84461     1033.977   -3305.6031 
 7689000     216.0398   -4060.8367   -3690.5519   -4060.8367            0    362.11997    17.619522     20.75347    21.495776    7860.2788    1024.5183   -36.689062    98.530692     147.2958    831.92965   -174.29347   -3649.0406 
 7690000    228.74413   -4018.0734   -3626.0138   -4018.0734            0    1268.5193    17.620979    20.755186    21.497553    7862.2289    414.10476    1530.1295    1861.3237    15.139521    1005.6969    46.477476   -3480.5622 
 7691000    224.64595   -4041.8422   -3656.8068   -4041.8422            0    964.96556    17.652786     20.79265    21.536358    7904.8816    1499.7494    101.80904    1293.3383    481.93936   -217.68756   -857.40892   -3545.5611 
 7692000    219.37158   -4029.2652   -3653.2699   -4029.2652            0    1738.4137    17.660993    20.802317     21.54637    7915.9118    2465.6824    2009.8465    739.71216   -69.979211     1854.525    58.068125   -3452.5779 
 7693000    229.62122   -4062.3543   -3668.7914   -4062.3543            0    2867.8764    17.618521    20.752291    21.494555    7858.9396    4633.0836     1929.128    2041.4176   -50.704913   -629.50567    371.12116    -3340.091 
 7694000    227.18712   -4048.4373   -3659.0464   -4048.4373            0    2991.9774    17.579523    20.706356    21.446977    7806.8687    3211.7734    2223.7503    3540.4086   -89.985035    317.92092    302.11029   -3318.3943 
 7695000    211.97224   -4033.8019   -3670.4887   -4033.8019            0    1707.3003    17.604055    20.735251    21.476906    7839.5965     2091.378    969.65546    2060.8674   -341.86494    21.827741    -498.6297   -3475.2889 
 7696000     210.4556   -4021.9439   -3661.2302   -4021.9439            0    1451.2216    17.625858    20.760932    21.503505    7868.7613    2809.4701    319.76653     1224.428    371.24683   -134.88992   -951.94775   -3494.6912 
 7697000    220.14628   -4040.0473   -3662.7241   -4040.0473            0    2665.9024    17.554527    20.676914    21.416482    7773.6147    2871.4774    3156.6968    1969.5329   -393.25148   -84.405995    307.46659   -3360.4902 
 7698000    228.40061   -4047.2061   -3655.7353   -4047.2061            0     1473.871    17.622424    20.756888    21.499316    7864.1633    1345.5801    6.2226199    3069.8104   -90.624564   -143.90469    270.41892   -3486.6959 
 7699000     221.0559    -4022.797   -3643.9147    -4022.797            0    1794.3423    17.604911     20.73626     21.47795    7840.7405    2746.9069    1755.3094    880.81079    376.20765   -650.64066    1331.8743   -3438.7332 
 7700000    216.28718   -4040.9992   -3670.2904   -4040.9992            0   -295.98375    17.732604    20.886666    21.633736    8012.5946    415.69311    1085.6768   -2389.3212   -66.670528    423.47608     962.7245   -3704.8777 
 7701000    216.38198   -4021.7815   -3650.9102   -4021.7815            0    1594.8409    17.620138    20.754195    21.496527    7861.1029    1613.4169    1316.5341    1854.5717    639.27113   -1133.4675    1267.9278   -3468.0678 
 7702000    221.63501    -4024.254   -3644.3792    -4024.254            0    1756.9462    17.605596    20.737067    21.478786    7841.6565    993.94996    1507.4203    2769.4684   -1201.1401   -449.15582    -121.8499   -3443.4504 
 7703000    216.56972   -4045.4607   -3674.2676   -4045.4607            0    3318.3849    17.554176      20.6765    21.416053    7773.1473    3796.5739    2914.0687    3244.5121    366.94018    357.86791    1098.0549   -3298.0843 
 7704000    213.35308   -4047.1003   -3681.4204   -4047.1003            0    922.77327    17.607779    20.739638    21.481449    7844.5735    1816.8619   -1080.9286    2032.3865    850.46841    1287.0716     739.2753   -3575.8505 
 7705000    217.58298   -4066.7697   -3693.8399   -4066.7697            0    2887.2311    17.547139    20.668212    21.407469    7763.8038    4705.8393    1950.3966    2005.4573    308.46464   -38.779076   -407.15644    -3366.927 
 7706000    214.21563   -4075.9558   -3708.7976   -4075.9558            0    1673.7616    17.635248    20.771993    21.514962    7881.3445    2339.6703    1543.2992    1138.3154    67.593592    208.61306   -438.16037   -3516.4132 
 7707000     228.0308   -4081.3216   -3690.4847   -4081.3216            0    2685.6029    17.601131    20.731807    21.473339    7835.6912    3402.0973    2437.3896    2217.3217   -35.134826    962.27928   -1322.7214    -3383.586 
 7708000     214.1331   -4026.9657   -3659.9489   -4026.9657            0    2681.2757    17.574054    20.699915    21.440305     7799.585    3515.6048     3814.148    714.07423    -311.8076    811.11986    890.49582   -3354.9566 
 7709000    219.57976   -4064.4011   -3688.0489   -4064.4011            0    1347.8425    17.670487    20.813499    21.557953    7928.6845    2797.1715    841.74313    404.61283     168.7036     1190.673   -58.375691   -3532.1955 
 7710000    229.72942   -4049.7488   -3656.0004   -4049.7488            0    2550.8522    17.557218    20.680084    21.419765    7777.1898     3387.003    3039.3858    1226.1677    87.500245    119.97805    188.22025   -3366.6768 
 7711000     218.1434   -4067.8562   -3693.9658   -4067.8562            0    1197.0904    17.666402    20.808688    21.552969    7923.1866    1727.8973    875.62069    987.75317    560.73943    722.25469    103.76515   -3555.6402 
 7712000    215.92374   -4042.0763   -3671.9904   -4042.0763            0    3241.0344    17.580894    20.707971    21.448649    7808.6947    3947.2009     3209.371    2566.5314   -164.55529   -334.92024   -625.68196   -3302.8956 
 7713000    243.19439   -4068.6107   -3651.7839   -4068.6107            0    4067.0351    17.548909    20.670297    21.409628    7766.1535    3809.2341     3714.506    4677.3651   -142.04688    422.98856    439.85394   -3191.1458 
 7714000    219.34329   -4054.2973   -3678.3504   -4054.2973            0    3240.9615    17.545216    20.665947    21.405122    7761.2512    3800.3265    2154.2518    3768.3061    -106.7332   -99.576941   -320.93408   -3311.5064 
 7715000    218.63933   -4096.8449   -3722.1045   -4096.8449            0    2165.2033    17.590322    20.719076    21.460152    7821.2648      3299.06    2760.8318    435.71824    69.133883   -103.20631    1293.8573   -3475.1304 
 7716000    217.88654   -4066.3746   -3692.9245   -4066.3746            0    1101.5585     17.65626    20.796743    21.540596    7909.5499    1558.2858    2016.7822   -270.39258   -48.488571   -536.21121    110.95973   -3565.8568 
 7717000    213.17395   -4063.5993   -3698.2264   -4063.5993            0    2348.2089    17.633378     20.76979     21.51268    7878.8375    2071.7577    3507.7873    1465.0816   -596.61509     410.1744    -648.9989    -3428.406 
 7718000    225.73899   -4054.0063   -3667.0974   -4054.0063            0    2616.1859    17.620031     20.75407    21.496397    7860.9607    2113.1568    3607.7069    2127.6939    1207.4256    496.77981    996.90275   -3367.1673 
 7719000    229.42957   -4062.7449   -3669.5105   -4062.7449            0    3254.9896    17.603539    20.734644    21.476277    7838.9078    3701.2896    2397.6082    3666.0709   -393.25729   -134.04232   -457.16518   -3297.3922 
 7720000    213.82189   -4053.4844    -3687.001   -4053.4844            0    870.93634    17.690997    20.837658    21.582976    7956.3256    1363.4973   -349.83708    1599.1488     949.9016    29.330963    649.50629    -3585.942 
 7721000    222.53231    -4050.469   -3669.0562    -4050.469            0    3063.6775    17.552852    20.674941    21.414439    7771.3894    3072.7456    2139.0053    3979.2817     124.0052    405.85261    1504.3375   -3321.8259 
 7722000    223.29592   -4073.1141   -3690.3926   -4073.1141            0    2967.6173    17.554043    20.676343    21.415891    7772.9707    5488.1972    2962.8081     451.8465   -354.27947   -383.00705    1090.2525   -3353.9811 
 7723000    213.44809   -4054.0902   -3688.2475   -4054.0902            0    1566.9038    17.572738    20.698364    21.438699    7797.8321    1672.6138    1510.4894    1517.6083   -435.98542   -215.45109   -590.70564   -3510.0539 
 7724000      227.874   -4059.0403   -3668.4721   -4059.0403            0    2649.1294     17.56303     20.68693    21.426856    7784.9161    3771.1188    2134.6146     2041.655   -722.66858    389.63912   -917.34852   -3367.7031 
 7725000    211.16913   -4050.9646   -3689.0279   -4050.9646            0    1816.2144    17.612131    20.744763    21.486758    7850.3909    2966.4787    2247.1873    234.97706    172.54891    225.94669   -95.530886   -3481.0897 
 7726000    227.76962   -4059.9678   -3669.5785   -4059.9678            0    2578.0667     17.56892    20.693867    21.434041    7792.7505     4710.726    1972.7153     1050.759    567.58259   -969.95772   -45.432742    -3376.583 
 7727000    232.07733   -4012.6822   -3614.9096   -4012.6822            0    2489.3545    17.559947    20.683298    21.423095    7780.8171    3173.9485    3405.8995    888.21561    371.13156    230.78738   -752.52161   -3332.4295 
 7728000    223.43529     -4030.54   -3647.5796     -4030.54            0    3240.1315    17.545608    20.666408      21.4056    7761.7711    4077.2995    3276.6407    2366.4542    144.61161   -799.15261   -381.21191   -3280.8049 
 7729000    236.44085   -4054.4359   -3649.1844   -4054.4359            0    3308.7252    17.514452    20.629712    21.367591    7720.4975    4473.1603    3576.4534     1876.562    1237.2079   -871.47787   -470.16752   -3276.6367 
 7730000    234.73233   -4032.2708   -3629.9476   -4032.2708            0    1884.5474    17.578524     20.70518    21.445759    7805.5377    3916.5724    1449.3886    287.68109    1162.4425    -607.0543    1087.6407   -3415.4187 
 7731000    228.36281   -4041.2239   -3649.8179   -4041.2239            0    883.62212    17.650048    20.789425    21.533017    7901.2033     2413.979    1041.2118   -804.32444    476.81267   -557.60539   -732.22317   -3547.9973 
 7732000    228.14769   -4052.0415   -3661.0042   -4052.0415            0    3250.1002    17.554858    20.677304    21.416886    7774.0546    3987.0245    3449.1431    2314.1328    176.02694   -556.49641    1165.0251   -3292.5188 
 7733000    211.17027   -4041.2608   -3679.3222   -4041.2608            0    343.79467    17.614985    20.748126    21.490241    7854.2084    780.65231    -751.0684    1001.8001    1274.7876   -229.33402    587.55453    -3639.942 
 7734000    217.83637   -4019.3757   -3646.0116   -4019.3757            0    2365.3127    17.590577    20.719376    21.460463    7821.6046    4037.1745    1287.5483    1771.2153   -1443.0743   -413.68726    633.90368   -3376.2002 
 7735000    215.40918   -4064.3738   -3695.1698   -4064.3738            0    2175.9117    17.564463    20.688617    21.428603    7786.8209    1981.5945    2802.0716    1744.0689    163.26454   -2101.7055   -770.64814   -3448.0672 
 7736000    226.47531   -4058.1703   -3669.9994   -4058.1703            0    2662.0469    17.589227    20.717786    21.458816    7819.8034    3518.7999    2949.2486    1518.0923   -1705.8164    897.17516    140.29443   -3366.4094 
 7737000    226.49239    -4066.676   -3678.4758    -4066.676            0    2046.0013    17.624562    20.759407    21.501925    7867.0267    3039.2454    815.00323    2283.7551    479.10243   -401.63415    138.28627    -3443.733 
 7738000    230.17816   -4056.3688   -3661.8513   -4056.3688            0    2109.7526    17.633407    20.769824    21.512715    7878.8757    3320.4978    1502.5473    1506.2126   -432.54009   -488.32171   -91.348695   -3419.4295 
 7739000    222.88818   -4048.1959   -3666.1732   -4048.1959            0    1928.5149    17.630893    20.766863    21.509648    7875.5068    2080.2079    2847.4503    857.88649    -1236.083   -633.50219   -448.36547   -3444.6713 
 7740000    228.91672   -4047.9735   -3655.6181   -4047.9735            0    2243.2635    17.623376    20.758009    21.500477    7865.4377    1393.5404    2517.7506    2818.4996   -671.85042    805.73192   -493.70061   -3398.2948 
 7741000    211.38597   -4055.4478   -3693.1395   -4055.4478            0    3566.5948    17.546008     20.66688    21.406089    7762.3026    4516.2968    2648.3812    3535.1063    1146.8078    159.78425   -468.87639   -3289.3824 
 7742000    223.79338   -4052.2789   -3668.7047   -4052.2789            0    2231.2165    17.577247    20.703675      21.4442    7803.8366    1777.6075    3353.8579    1562.1841   -999.31447     -654.065     539.4299   -3414.7679 
 7743000    219.18006   -4008.8732   -3633.2061   -4008.8732            0    1209.6348    17.560322     20.68374    21.423552    7781.3155    1381.2231    1737.0425    510.63878   -647.19633    1653.5987    20.442985   -3495.9337 
 7744000    216.73236   -4025.1381   -3653.6663   -4025.1381            0    2153.8802    17.623271    20.757885    21.500349    7865.2973    4570.3758    428.44409    1462.8208   -50.981009    1115.4008    15.739847   -3406.6005 
 7745000     232.6002   -4035.1311   -3636.4624   -4035.1311            0    1875.3162    17.659795    20.800906    21.544908    7914.3008    1989.4635    1798.8762    1837.6088    149.62534    420.40622   -88.233287   -3420.0097 
 7746000    224.39637   -4045.4941   -3660.8864   -4045.4941            0    873.88809     17.59279    20.721983    21.463162    7824.5565    1316.9413    622.08112    682.64186   -26.566704   -227.56141   -582.97924   -3561.1643 
 7747000    220.47771   -4045.1243   -3667.2331   -4045.1243            0    3244.5793     17.61927    20.753173    21.495468    7859.9415      3635.74    3343.4995    2754.4985    248.71448    513.19578    631.85432   -3295.3096 
 7748000    225.30047   -4018.2899   -3632.1326   -4018.2899            0    900.62922    17.668618    20.811298    21.555673    7926.1693   -16.117817    1005.9495     1712.056   -313.73212    290.39384    753.74278   -3528.0243 
 7749000    208.89773   -4027.1741   -3669.1306   -4027.1741            0    2026.5354    17.650663     20.79015    21.533768    7902.0301     2033.269    2777.7999    1268.5372    -116.4631    72.646708   -188.87214   -3435.5865 
 7750000    235.81705   -4029.0348   -3624.8524   -4029.0348            0    2139.7076      17.6675    20.809981    21.554308    7924.6643    1411.9883    3555.1236    1452.0109   -889.71279   -73.368738   -960.47685   -3377.5598 
Loop time of 421.754 on 64 procs for 250000 steps with 864 atoms

Performance: 102.429 ns/day, 0.234 hours/ns, 592.763 timesteps/s
99.0% CPU use with 64 MPI tasks x 1 OpenMP threads

MPI task timing breakdown:
Section |  min time  |  avg time  |  max time  |%varavg| %total
---------------------------------------------------------------
Pair    | 16.534     | 24.117     | 31.48      |  59.8 |  5.72
Bond    | 0.26448    | 0.28337    | 0.29383    |   1.1 |  0.07
Kspace  | 187.22     | 196.83     | 214.07     |  35.2 | 46.67
Neigh   | 2.8638     | 3.3704     | 4.3309     |  19.7 |  0.80
Comm    | 82.102     | 93.162     | 100.98     |  43.1 | 22.09
Output  | 0.98814    | 0.98907    | 0.99045    |   0.0 |  0.23
Modify  | 93.241     | 95.633     | 99.739     |  13.1 | 22.68
Other   |            | 7.372      |            |       |  1.75

Nlocal:        13.5000 ave          19 max           8 min
Histogram: 3 2 10 12 7 9 8 3 4 6
Nghost:        2049.31 ave        2088 max        2002 min
Histogram: 2 1 5 10 9 11 7 8 6 5
Neighs:        3899.27 ave        6028 max        2083 min
Histogram: 2 5 9 9 16 7 8 3 3 2

Total # of neighbors = 249553
Ave neighs/atom = 288.83449
Ave special neighs/atom = 2.0000000
Neighbor list builds = 8567
Dangerous builds = 0

unfix		3
unfix		2
unfix		1

write_data	data.final.${pid}
write_data	data.final.0
System init for write_data ...
PPPM initialization ...
  extracting TIP4P info from pair style
  using 12-bit tables for long-range coulomb (../kspace.cpp:340)
  G vector (1/distance) = 0.37252282
  grid = 24 24 25
  stencil order = 5
  estimated absolute RMS force accuracy = 0.0032703102
  estimated relative force accuracy = 9.848442e-06
  using double precision FFTW3
  3d grid and FFT values/proc = 2730 288
Last active /omp style is kspace_style pppm/tip4p/omp
WARNING: Not all mixed pair coeffs generated from mixing. Use write_data with 'pair ij' option to store all pair coeffs. (../write_data.cpp:312)

write_restart   restart.lmp.${pid}
write_restart   restart.lmp.0
System init for write_restart ...
PPPM initialization ...
  extracting TIP4P info from pair style
  using 12-bit tables for long-range coulomb (../kspace.cpp:340)
  G vector (1/distance) = 0.37252282
  grid = 24 24 25
  stencil order = 5
  estimated absolute RMS force accuracy = 0.0032703102
  estimated relative force accuracy = 9.848442e-06
  using double precision FFTW3
  3d grid and FFT values/proc = 2730 288
Last active /omp style is kspace_style pppm/tip4p/omp
Total wall time: 0:07:03
