LAMMPS (30 Jul 2021)
Processor partition = 1
  using 2 OpenMP thread(s) per MPI task
using multi-threaded neighbor list subroutines
variable        pid world 0 1
variable        phase world IceIII Liquid

shell cd ${phase}
shell cd Liquid
include Restart.lmp
echo both
log log.lammps
#include		in.partitions
include		in.temp
variable        temperature equal 259.10
variable	tempDamp equal 100.0
include		in.pressure
variable        pressure equal 9000.0
variable        pressureDamp equal 1000.0 # This is 1 ps
include		in.seed
variable        seed equal 745823

units		real
atom_style	full
read_restart	restart.lmp.${pid}
read_restart	restart.lmp.1
Reading restart file ...
  restart file = 30 Jul 2021, LAMMPS = 30 Jul 2021
  restoring atom style full from restart
  orthogonal box = (0.62933508 1.8328049 0.76778733) to (17.578237 21.796373 21.445408)
  2 by 4 by 4 MPI processor grid
  restoring pair style lj/cut/tip4p/long/omp from restart
  restoring bond style harmonic/omp from restart
  restoring angle style harmonic/omp from restart
  864 atoms
  576 bonds
  288 angles
Finding 1-2 1-3 1-4 neighbors ...
  special bond factors lj:    0        0        0       
  special bond factors coul:  0        0        0       
     2 = max # of 1-2 neighbors
     1 = max # of 1-3 neighbors
     1 = max # of 1-4 neighbors
     2 = max # of special neighbors
  special bonds CPU = 0.002 seconds
  read_restart CPU = 0.009 seconds
include 	in.setup
variable	out_freq equal 1000
variable	out_freq2 equal 10000
variable	out_freq3 equal 1000

timestep	2.0

neigh_modify    delay 7 every 1

include		in.tip4p
# This is TIP4P/Ice

# create groups ###
group ox type 2
288 atoms in group ox
group hy type 1
576 atoms in group hy

# set charges - beside manually ###
set group ox charge -1.1794
Setting atom values ...
  288 settings made for charge
set group hy charge 0.5897
Setting atom values ...
  576 settings made for charge

# ### TIP3P Potential Parameters ###
pair_style lj/cut/tip4p/long/omp 2 1 1 1 0.1577 8.5
pair_coeff 1 1*2 0.000 0.000
pair_coeff 2 2 0.21084 3.1668
bond_style  harmonic
bond_coeff  1 450 0.9572
angle_style harmonic
angle_coeff 1 55 104.52
kspace_style pppm/tip4p/omp 1.0e-5
pair_modify tail yes

thermo          ${out_freq}
thermo          1000
thermo_style    custom step temp pe etotal epair emol press lx ly lz vol pxx pyy pzz pxy pxz pyz enthalpy

restart 	${out_freq3} restart.lmp.${pid} restart2.lmp.${pid}
restart 	1000 restart.lmp.${pid} restart2.lmp.${pid}
restart 	1000 restart.lmp.1 restart2.lmp.${pid}
restart 	1000 restart.lmp.1 restart2.lmp.1


include         in.dump
dump            myDump all atom ${out_freq2} dump.water.${pid}
dump            myDump all atom 10000 dump.water.${pid}
dump            myDump all atom 10000 dump.water.1
dump            myDump2 all dcd ${out_freq2} dump.dcd
dump            myDump2 all dcd 10000 dump.dcd
dump_modify     myDump append yes
dump_modify     myDump2 append yes


variable natoms 	equal  "count(all)"                        # NUMBER ATOMS
variable H      	equal  "enthalpy/v_natoms"                 # ENTHALPY-per-atom
variable Vol      	equal  "vol/v_natoms"                 # volume-per-atom
fix AVG all 		ave/time ${out_freq} 1 ${out_freq} v_Vol v_H file vol_enthalpy.dat
fix AVG all 		ave/time 1000 1 ${out_freq} v_Vol v_H file vol_enthalpy.dat
fix AVG all 		ave/time 1000 1 1000 v_Vol v_H file vol_enthalpy.dat


timer           timeout 23:50:00 every 1000
New timer settings: style=normal  mode=nosync  timeout=23:50:00

fix 		1 all shake 1e-6 200 0 b 1 a 1
Finding SHAKE clusters ...
       0 = # of size 2 clusters
       0 = # of size 3 clusters
       0 = # of size 4 clusters
     288 = # of frozen angles
  find clusters CPU = 0.001 seconds
fix             2 all nph iso ${pressure} ${pressure} ${pressureDamp}
fix             2 all nph iso 9000 ${pressure} ${pressureDamp}
fix             2 all nph iso 9000 9000 ${pressureDamp}
fix             2 all nph iso 9000 9000 1000
fix             3 all temp/csvr ${temperature} ${temperature} ${tempDamp} ${seed}
fix             3 all temp/csvr 259.1 ${temperature} ${tempDamp} ${seed}
fix             3 all temp/csvr 259.1 259.1 ${tempDamp} ${seed}
fix             3 all temp/csvr 259.1 259.1 100 ${seed}
fix             3 all temp/csvr 259.1 259.1 100 745823

run             250000
PPPM initialization ...
  extracting TIP4P info from pair style
  using 12-bit tables for long-range coulomb (../kspace.cpp:340)
  G vector (1/distance) = 0.37438838
  grid = 24 24 24
  stencil order = 5
  estimated absolute RMS force accuracy = 0.0031465679
  estimated relative force accuracy = 9.4757959e-06
  using double precision FFTW3
  3d grid and FFT values/proc = 3549 432
Last active /omp style is kspace_style pppm/tip4p/omp
Neighbor list info ...
  update every 1 steps, delay 7 steps, check yes
  max neighbors/atom: 2000, page size: 100000
  master list distance cutoff = 10.8154
  ghost atom cutoff = 10.8154
  binsize = 5.4077, bins = 4 4 4
  1 neighbor lists, perpetual/occasional/extra = 1 0 0
  (1) pair lj/cut/tip4p/long/omp, perpetual
      attributes: half, newton on, omp
      pair build: half/bin/newton/omp
      stencil: half/bin/3d
      bin: standard
Setting up Verlet run ...
  Unit style    : real
  Current step  : 28250000
  Time step     : 2
  Walltime left : 23:49:59.93
Per MPI rank memory allocation (min/avg/max) = 10.20 | 10.20 | 10.20 Mbytes
Step Temp PotEng TotEng E_pair E_mol Press Lx Ly Lz Volume Pxx Pyy Pzz Pxy Pxz Pyz Enthalpy 
28250000    270.44307   -3859.1633   -3395.6332   -3859.1633            0    10650.382    16.948902    19.963568    20.677621    6996.4915    11262.845    11805.114    8883.1868    794.72273    1035.2864    576.74033   -2308.9038 
28251000    272.48696   -3896.5633     -3429.53   -3896.5633            0    9406.0329    16.929158    19.940312    20.653533    6972.0683     11255.93    7511.0785    9451.0899   -1449.0553   -1880.6838    318.85342   -2473.1202 
28252000    256.74222   -3862.8784   -3422.8311   -3862.8784            0    8865.0297    16.960247     19.97693    20.691461    7010.5497    8303.0853    7751.4995    10540.504    -1531.636   -1755.9004    -2132.843   -2516.4556 
28253000     273.0868   -3886.1369   -3418.0755   -3886.1369            0    8916.1174    16.943146    19.956788    20.670598    6989.3652    7754.9933    7886.4148    11106.944   -61.943535   -1727.3771    681.23666   -2509.2313 
28254000    252.84154   -3874.6179   -3441.2562   -3874.6179            0    9734.8408    16.927882    19.938809    20.651977    6970.4927    11895.693    9147.2146    8161.6148   -1822.8328    1692.0136   -699.19772   -2451.6367 
28255000    258.55055   -3848.3497   -3405.2029   -3848.3497            0    8174.7198    17.006135    20.030981    20.747446    7067.6086    8331.6768    8195.8918    7996.5907   -259.60051    1595.7204    981.54731   -2562.6033 
28256000    268.18735   -3863.0127   -3403.3488   -3863.0127            0    8926.5843    16.920657    19.930299    20.643162    6961.5713    9220.0357    9084.1003     8475.617   -13.732436    -87.90832    1263.6477   -2497.0561 
28257000    265.70376   -3889.3431    -3433.936   -3889.3431            0    9146.6197    16.955802    19.971695    20.686039    7005.0395    9941.9859    9160.6745    8337.1986   -1206.2518    42.935799   -13.502465   -2499.5053 
28258000    270.26458    -3877.667   -3414.4428    -3877.667            0    9060.4174    16.934114    19.946149    20.659579    6978.1934    9875.0257    8725.8003    8580.4261   -1402.2816    1078.4052    292.10709    -2492.366 
28259000    265.79436   -3874.5273   -3418.9648   -3874.5273            0    8952.4664    16.969606    19.987954     20.70288    7022.1623    7587.0729    10071.813     9198.513   -1563.4972   -637.87563    886.34783   -2502.1335 
28260000    254.12344   -3863.7309    -3428.172   -3863.7309            0     10643.61    16.913008    19.921289     20.63383    6952.1342    11210.202    11215.097     9505.531    375.44443   -964.53781   -1302.0149   -2349.0191 
28261000     259.3132   -3875.9647   -3431.5108   -3875.9647            0    10043.969     16.88584    19.889289    20.600686    6918.6858    10419.966    9440.2589    10271.683    -534.0967    636.13761    1355.3875   -2418.0548 
28262000    267.95847    -3877.411   -3418.1394    -3877.411            0    9431.1293    16.894437    19.899415    20.611173    6929.2579    9417.1628    11486.647    7389.5785    574.33748   -883.61603   -424.82735   -2465.0661 
28263000    260.57003   -3882.3773   -3435.7692   -3882.3773            0    7457.8522    16.957529     19.97373    20.688146    7007.1807    7244.3121    9577.3023    5551.9422   -250.75081    950.80628   -1424.9419   -2673.6323 
28264000    248.40316   -3890.7639   -3465.0093   -3890.7639            0    8312.8941    16.923003    19.933062    20.646024    6964.4668    8261.3901    7811.7518    8865.5404   -1167.0673    -380.4539   -344.56274    -2620.672 
28265000    278.74579   -3918.1312   -3440.3705   -3918.1312            0    9051.0106    16.856471    19.854696    20.564855    6882.6476     9409.457    10500.386    7243.1884   -652.05793   -516.45476    1693.8587    -2531.863 
28266000     245.1675   -3861.7353   -3441.5266   -3861.7353            0    7421.9023     16.92957    19.940797    20.654035    6972.5773    8870.6174    7327.1063    6067.9833   -1159.4006   -547.95919     1028.306    -2686.809 
28267000    259.11547   -3892.4445   -3448.3295   -3892.4445            0    7134.9538    16.889489    19.893587    20.605137    6923.1718    10011.553    6325.8156    5067.4924    390.98462    1200.3972    2777.6429    -2727.932 
28268000    236.68201   -3876.1811   -3470.5163   -3876.1811            0     7966.046    16.915268    19.923952    20.636588    6954.9218    7872.4354    10533.559    5492.1438    618.23821   -109.81144   -115.25144    -2662.517 
28269000    270.38432        -3888   -3424.5705        -3888            0    9794.0644    16.851578    19.848933    20.558885    6876.6559     10329.32    11129.897     7922.976   -1011.7699    1004.6177    56.855365   -2442.3338 
28270000    256.13966   -3895.9817   -3456.9671   -3895.9817            0    9911.1674     16.82353    19.815897    20.524668     6842.377    10896.865    8229.7279    10606.909   -240.52187   -115.27679   -1407.1885   -2467.9411 
28271000    241.64921   -3890.0129   -3475.8344   -3890.0129            0    9337.0436    16.884723    19.887973    20.599322    6917.3126    9859.4152     9880.094    8271.6217   -63.045638   -295.02166    1264.8272   -2533.8956 
28272000     273.1649   -3907.0037   -3438.8084   -3907.0037            0     8463.771    16.939147    19.952078     20.66572    6984.4176     7124.758    7911.5783    10354.977    1397.6786    812.91438    -773.7096   -2576.6838 
28273000    252.50245   -3908.8003   -3476.0198   -3908.8003            0     8674.058    16.865551    19.865391    20.575933    6893.7762    8597.1372    8468.9746    8956.0621    230.62712    1618.9827   -1398.2887   -2603.9417 
28274000     270.5616   -3870.1491   -3406.4157   -3870.1491            0    8967.4752    16.887427    19.891159    20.602622    6920.6371    9521.3214    9374.0341    8007.0699   -1082.6289   -1280.5105    -1915.831   -2501.3249 
28275000    255.17192   -3896.4633   -3459.1073   -3896.4633            0    10403.074    16.874334    19.875737    20.586648    6904.5522    9648.3778    10138.811    11422.033   -286.41112    -271.2763   -756.11215   -2411.5614 
28276000    265.98033   -3875.6731    -3419.792   -3875.6731            0    7438.7274    16.903458    19.910041     20.62218    6940.3647    5331.1612    10230.516    6754.5049   -154.50848   -339.07374   -787.27773   -2666.8581 
28277000    263.44681   -3889.7467   -3438.2079   -3889.7467            0     7094.697    16.915205    19.923877    20.636511     6954.844    8314.3652    5449.8765    7519.8492   -16.721246    206.09658   -252.17216    -2718.598 
28278000    244.30902    -3855.615   -3436.8777    -3855.615            0    10362.698    16.871272     19.87213    20.582912    6900.7938    10173.769    11031.548    9882.7764    1043.0375    1044.7463   -213.23913   -2393.9654 
28279000     248.3556    -3901.004    -3475.331    -3901.004            0    8067.0367    16.876555    19.878353    20.589358    6907.2793    7371.7477    9079.1403    7750.2221    -732.9221    590.66723    879.26908   -2662.6933 
28280000    258.76536   -3866.2359   -3422.7209   -3866.2359            0    8721.8983    16.947403    19.961802    20.675792    6994.6351    10482.315    8047.5201    7635.8596   -1139.1882   -209.71955    600.96356   -2533.0037 
28281000     275.2845   -3869.7933   -3397.9651   -3869.7933            0    8396.5104    16.906629    19.913775    20.626047    6944.2705    8204.4614     9943.124    7041.9458   -685.16304    772.90553   -690.85287    -2547.608 
28282000    266.16598   -3859.8338   -3403.6344   -3859.8338            0    10082.368    16.858431    19.857004    20.567246    6885.0487      10828.8    8354.8251    11063.479   -55.063484   -1011.6037     297.8769     -2391.25 
28283000    265.27653   -3879.2193   -3424.5444   -3879.2193            0     8182.482    16.873234    19.874441    20.585306    6903.2017    7951.9739    6696.4879    9898.9841   -1135.7409   -305.61083    261.91426   -2600.7639 
28284000    247.75527   -3900.0861    -3475.442   -3900.0861            0    9794.7146     16.87711    19.879006    20.590035    6907.9601    12781.856     8992.661    7609.6263    144.52396    1105.7792    352.65593   -2488.6685 
28285000    246.83056   -3897.7765   -3474.7173   -3897.7765            0    9565.7393    16.860535    19.859483    20.569813    6887.6269    10421.708    10099.946     8175.564    97.908833   -1682.6605    1504.9842   -2513.8487 
28286000    253.47754   -3906.9681   -3472.5163   -3906.9681            0    10482.069    16.819727    19.811417    20.520028    6837.7378    11048.312    9789.3954      10608.5    1066.0463   -1509.6688   -337.53849   -2427.2297 
28287000    248.79395   -3863.6689   -3437.2446   -3863.6689            0    8860.0616    16.880607    19.883126    20.594302    6912.2557    8452.6202    7511.5177    10616.047    330.29303   -1188.9991    595.42028    -2544.078 
28288000    265.81583   -3893.6311   -3438.0318   -3893.6311            0    8842.8497    16.921875    19.931734    20.644648    6963.0748    9498.9984    7796.8029    9232.7477   -18.787399    658.27603     408.9312   -2540.0466 
28289000    249.00699   -3838.4636   -3411.6741   -3838.4636            0    11486.838    16.892302      19.8969    20.608569    6926.6316    10696.582    10635.631    13128.302    1411.0628   -476.94233   -607.96855   -2251.2988 
28290000    255.40018   -3880.6677   -3442.9206   -3880.6677            0    7730.5582    16.968323    19.986444    20.701315    7020.5701    10484.086    7331.5409    5376.0475   -1026.0579    970.61677    446.66695   -2651.4056 
28291000    256.08019   -3885.9384   -3447.0257   -3885.9384            0    9081.4327    16.882875    19.885796    20.597068    6915.0412    9831.3578    8698.3649    8714.5754   -816.42933   -894.00693   -456.64379   -2531.1743 
28292000     263.2662    -3893.618   -3442.3887    -3893.618            0    9606.5931    16.845354    19.841601    20.551292     6869.039    10573.592    9613.0079    8633.1797   -941.57866    352.25552    1947.7918   -2480.0205 
28293000    259.95582   -3880.3028   -3434.7475   -3880.3028            0    7473.7433    16.989343    20.011202    20.726958    7046.6924    6999.3483     7291.697    8130.1845    205.54094   -73.342212   -708.56159     -2666.68 
28294000    277.50349    -3902.802   -3427.1705    -3902.802            0    9311.8267    16.926729    19.937451     20.65057    6969.0685    8376.8659    9804.7362    9753.8779   -114.28956    -289.8684   -25.774805    -2480.747 
28295000    255.53152   -3909.7144   -3471.7421   -3909.7144            0    8538.4617    16.895396    19.900545    20.612344    6930.4387    5969.6575    9884.6496    9761.0779   -72.452998   -62.137997    1362.8264   -2608.7313 
28296000    263.68376   -3870.7243   -3418.7793   -3870.7243            0    9406.8335    16.876933    19.878798    20.589819     6907.743    9137.8929    9592.1913    9490.4164   -1732.3853    670.62501    1247.5646   -2471.1129 
28297000    246.74715   -3856.9619   -3434.0457   -3856.9619            0    10189.533    16.877666    19.879661    20.590713    6908.6431    11206.397    9226.6443    10135.556   -868.33253   -1790.1986   -347.84817   -2407.3945 
28298000    262.22586    -3883.601   -3434.1548    -3883.601            0    8735.9374    16.899692    19.905604    20.617584     6935.726     9888.465    7303.2961    9016.0512    -259.1968   -1009.9713    2037.8508   -2550.5108 
28299000    264.18502   -3877.9676   -3425.1635   -3877.9676            0    7847.3163    16.897682    19.903238    20.615133    6933.2522    5620.4619    10882.694    7038.7926   -88.277434    1816.3184   -344.50341   -2631.6871 
28300000    257.58774   -3880.3913   -3438.8948   -3880.3913            0    9722.4161    16.849045    19.845949    20.555795    6873.5556    9675.3818    8603.7835    10888.083   -873.15755    935.91328    864.30018   -2464.2832 
28301000    261.73914   -3859.0591   -3410.4472   -3859.0591            0    9113.7008    16.962918    19.980077     20.69472    7013.8628    10324.282    9405.5298    7611.2906   -970.80899   -2145.0917    1212.3965   -2478.2068 
28302000    258.69354    -3876.583   -3433.1911    -3876.583            0    9280.8385    16.990806    20.012925    20.728743    7048.5131     9563.622    9572.6705     8706.223   -1691.5713     -769.447    1099.4155   -2479.1642 
28303000     252.8572   -3888.2737   -3454.8852   -3888.2737            0     7806.151    17.013591    20.039763    20.756541    7076.9078     5779.656    8962.7257    8676.0715   -619.07551   -1579.9248    1169.3091   -2649.2167 
28304000    258.52277   -3841.0563   -3397.9571   -3841.0563            0    8690.9095    17.005425    20.030144    20.746578    7066.7223    8987.9902    9573.8934    7510.8451    -497.9563   -518.90882   -230.85893   -2502.2642 
28305000    245.20358   -3851.8494   -3431.5788   -3851.8494            0    9501.3791    16.978568     19.99851    20.713813    7033.2934     13032.18    6420.9165    9051.0414   -209.48145   -1787.3945   -1847.5216   -2456.9904 
28306000    273.85686   -3858.7208   -3389.3396   -3858.7208            0    10327.236    17.035748    20.065861    20.783573    7104.5932    10534.096    10115.067    10332.545    1535.6327    -379.9667    1173.8609   -2319.3015 
28307000    273.76062   -3895.9097   -3426.6934   -3895.9097            0    8687.4608    16.998792    20.022331    20.738486    7058.4568    7537.1203    10076.463    8448.7986   -438.63384   -702.28728   -819.06077   -2532.4031 
28308000     251.1516   -3840.6424   -3410.1772   -3840.6424            0    10043.907    17.010998    20.036709    20.753378    7073.6729    9605.1695    9142.7223    11383.829      1029.31   -6.4907508   -1425.7337    -2374.025 
28309000    269.99275   -3876.3333   -3413.5749   -3876.3333            0    7771.9075    17.040847    20.071867    20.789794    7110.9745    6232.0024    8182.4314    8901.2889   -211.96934    1730.7308   -527.54464   -2607.5794 
28310000     252.6097   -3895.7833   -3462.8189   -3895.7833            0    8248.8613    16.944062    19.957867    20.671716    6990.4993    8168.2011    8397.9985    8180.3844    -1328.098   -905.06479    590.05641   -2621.8535 
28311000    247.06859   -3862.7097   -3439.2426   -3862.7097            0    11698.732    16.936564    19.949035    20.662569    6981.2232    11732.671     10554.09    12809.437   -698.66528   -27.485557   -756.32994   -2248.1481 
28312000    264.29161   -3868.6486   -3415.6618   -3868.6486            0    8699.8299    17.036371    20.066594    20.784332    7105.3722    10783.027    7366.4114     7950.051     1650.721   -332.08894   -376.29772   -2514.1457 
28313000    265.28099    -3837.969   -3383.2864    -3837.969            0    9688.4907    16.926051    19.936653    20.649743    6968.2312    9615.0814    9712.3424    9738.0483    280.37711    -697.5792   -296.66039   -2398.6984 
28314000    262.31378   -3876.4819    -3426.885   -3876.4819            0    10790.688    16.900829    19.906944    20.618972    6937.1267    11259.976    9738.8556    11373.231   -1225.9838   -1176.5071   -1073.5482   -2335.1817 
28315000    243.08618   -3895.9685   -3479.3271   -3895.9685            0    8638.2849    16.911037    19.918968    20.631426    6949.7041    8285.4222    10035.476    7593.9564    865.22374   -782.95263   -129.83118   -2603.7998 
28316000    262.29724   -3875.8406   -3426.2721   -3875.8406            0    8180.8044    16.992996    20.015504    20.731415     7051.239     9119.019    10452.236     4971.158   -421.75979    -362.8748   -335.70049   -2584.9983 
28317000    247.02489   -3911.6797   -3488.2875   -3911.6797            0    7077.4292    16.952126    19.967366    20.681555    7000.4852    7039.3024     6280.132    7912.8531     37.07572    155.15255   -1729.8358   -2765.7181 
28318000    262.60411   -3909.2448   -3459.1504   -3909.2448            0    9554.3456    16.899056    19.904856    20.616809    6934.9434    10325.506     8734.459    9603.0722   -146.60583    1764.0616     665.8229   -2492.8331 
28319000    253.36447   -3936.3531   -3502.0951   -3936.3531            0    9252.4678    16.889563    19.893675    20.605228    6923.2632    10471.197    9080.7684    8205.4382    13.587134   -1173.8455   -663.19032   -2567.8855 
28320000    263.59021   -3891.4104   -3439.6258   -3891.4104            0    9962.0727    16.918936    19.928271    20.641062    6959.4465    10316.612    9882.9055    9686.7007   -517.01179    1812.7226    135.03185   -2428.5114 
28321000    258.95596   -3893.1792   -3449.3375   -3893.1792            0    8414.7888    16.981665    20.002158    20.717592    7037.1434    8050.2198    8373.2775    8820.8691   -210.99532    1519.7146    139.04386   -2585.7318 
28322000    275.50461   -3846.5563   -3374.3508   -3846.5563            0    10444.129    16.951828    19.967014    20.681191    7000.1156    8608.0315    11750.676    10973.678   -20.187695    57.112445    2306.5799   -2308.1149 
28323000    243.29541   -3889.2511   -3472.2511   -3889.2511            0     8038.518    16.995872    20.018893    20.734925    7054.8205    7657.0586    6995.1626    9463.3329     -777.203   -377.66332   -400.85275   -2645.1895 
28324000    267.80635   -3893.5702   -3434.5593   -3893.5702            0    9593.8553    16.867441    19.867617    20.578238    6896.0938    10176.959    9402.9291    9201.6777   -415.17096   -407.32121    47.061163   -2469.6817 
28325000    252.92279   -3840.5953   -3407.0943   -3840.5953            0    10003.985    16.945379    19.959418    20.673323    6992.1296      10355.3    10682.934    8973.7198   -1992.3455    1390.8359    1160.0839   -2386.9576 
28326000    251.77195    -3856.206   -3424.6775    -3856.206            0     7935.237    16.969378    19.987686    20.702602    7021.8794    7651.9003     8124.861    8028.9496   -1410.5011    2680.5922   -142.86012   -2612.0544 
28327000    260.15857   -3901.0598   -3455.1569   -3901.0598            0     9766.916    16.906088    19.913139    20.625388    6943.6045    10294.952    8480.4573    10525.338   -1549.1254   -285.42793    995.37218   -2466.1068 
28328000    259.41355   -3844.5742   -3399.9483   -3844.5742            0    9568.2836    16.970542    19.989057    20.704021    7023.3242    11098.326    7588.6202    10017.904   -1026.2596    250.00286    274.34098   -2419.8884 
28329000    247.42597   -3889.1557    -3465.076   -3889.1557            0    9888.8825    16.950082    19.964958    20.679061    6997.9528    10023.819    8661.8269    10981.002    1489.4327   -2776.8133    797.45771   -2455.8368 
28330000    268.42193   -3868.2957   -3408.2297   -3868.2957            0    9024.3763     16.91699     19.92598    20.638689    6957.0463    7661.7369    10252.079    9159.3124    23.263993   -940.51082   -712.58221    -2492.604 
28331000    269.34226   -3900.0459   -3438.4025   -3900.0459            0    8867.8188    16.938797    19.951665    20.665293    6983.9847    10748.723    7882.2371    7972.4959   -946.26419   -180.69247   -363.48699   -2535.1774 
28332000    260.21809   -3923.5089    -3477.504   -3923.5089            0    10725.884    16.930341    19.941706    20.654977    6973.5309    9664.2682    10117.256    12396.128    63.409584    368.09868    1396.7957   -2386.6624 
28333000    243.53846    -3896.164   -3478.7474    -3896.164            0    9567.8856    16.961244    19.978106    20.692679    7011.7872    8710.1951    8056.0179    11937.444   -452.00311   -515.23031    1387.0006   -2500.3381 
28334000    285.06089   -3894.8924   -3406.3077   -3894.8924            0    8746.7101    16.963386    19.980628    20.695291    7014.4435    9246.7344    7130.4849    9862.9109   -3461.6072    -1531.344    796.22778   -2511.5327 
28335000    263.89893   -3908.9333   -3456.6195   -3908.9333            0    10418.283    16.891941    19.896476    20.608129    6926.1883    10630.801    9272.9573     11351.09   -57.903245    1092.2264   -1437.2694   -2404.2547 
28336000    253.38473   -3906.6064   -3472.3137   -3906.6064            0    8751.3954    16.964617    19.982078    20.696793    7015.9703    9205.3367    6663.8995     10384.95   -747.66507   -1640.0017   -1030.3141   -2576.8645 
28337000    244.35185   -3926.2742   -3507.4635   -3926.2742            0    7899.8654     17.01347     20.03962    20.756394    7076.7571    9533.3217    7278.9105     6887.364   -1917.1631    92.017381   -889.08331   -2692.1401 
28338000    267.40129   -3906.5725   -3448.2559   -3906.5725            0    9068.3668    17.016115    20.042735     20.75962    7080.0577    8960.6441    10525.393    7719.0628   -70.134056    320.20461     1456.587   -2511.8982 
28339000    253.35519   -3940.3071    -3506.065   -3940.3071            0    10221.609    16.920593    19.930224    20.643084    6961.4922    11185.946    9302.4161    10176.465    936.52223    808.52836   -753.74896   -2468.3036 
28340000    265.13137   -3921.7015   -3467.2754   -3921.7015            0    11014.258    16.896329    19.901644    20.613482    6931.5868    9651.9196    12013.844    11377.011    614.59585   -1396.2347    114.83633   -2353.8432 
28341000    262.20981   -3950.0161   -3500.5974   -3950.0161            0    7596.6448    16.956509    19.972528    20.686901    7005.9158    7023.3033     8015.503    7751.1281    875.11578   -1135.4748   -309.41253   -2724.4171 
28342000    275.04085   -3904.1993   -3432.7887   -3904.1993            0    9437.3504    16.940075     19.95317    20.666851    6985.5652    8711.1316    9463.4494     10137.47   -280.20575    125.22939   -383.75883   -2471.3369 
28343000     252.4287   -3886.2944   -3453.6402   -3886.2944            0    9883.8377    16.910612    19.918468    20.630908    6949.1805    10462.598     9750.848    9438.0669   -1141.6079   -442.34644    2180.2527   -2451.9462 
28344000    261.66696   -3907.4053   -3458.9171   -3907.4053            0    8089.1793    16.971446    19.990122    20.705124    7024.4468    7822.0516    9356.7427    7088.7434    1045.8371   -165.73946    285.72773   -2630.2264 
28345000    253.64731   -3910.9427   -3476.1999   -3910.9427            0     9426.577     16.97637    19.995921    20.711132    7030.5626    9609.0125    9692.6542    8978.0643   -1180.6492   -942.45226    104.79157   -2509.6595 
28346000    263.55333   -3909.8929   -3458.1715   -3909.8929            0    7832.9674    17.026939    20.055485    20.772826    7093.5774    7906.6683    7120.1728    8472.0609    31.177714    945.32478   -264.89394   -2647.8311 
28347000    259.46625   -3892.1466   -3447.4303   -3892.1466            0    7473.7816    16.973507    19.992549    20.707639    7027.0063    5169.7928    9023.4793    8228.0727    1150.1514    135.83196   -1403.1986   -2681.5046 
28348000    249.04949   -3908.2153    -3481.353   -3908.2153            0    7259.2665    17.006781    20.031741    20.748233    7068.4133    6944.7382    6776.9598    8056.1015    1153.5607   -734.92864    792.34099   -2733.0275 
28349000    263.55619   -3890.6636   -3438.9373   -3890.6636            0    10128.226    16.914517    19.923066    20.635671    6953.9949    10218.691     10578.99    9586.9965   -799.50455    463.63957     915.1793   -2411.7642 
28350000     259.9819   -3899.6121    -3454.012   -3899.6121            0    10469.257    16.912606    19.920816     20.63334    6951.6383    8385.7941    11933.764    11088.212   -137.00307   -1026.5664    521.00261   -2392.6124 
28351000    251.36176   -3900.0444   -3469.2189   -3900.0444            0    10492.306    16.895064    19.900153    20.611938    6930.0296    11288.737    9944.2243    10243.959    356.69804     557.7127   -85.252943   -2408.7891 
28352000    270.62488   -3879.5885   -3415.7467   -3879.5885            0    8439.0502    17.011639    20.037463     20.75416    7074.4723    7899.7051    7395.8104    10021.635    771.43127   -37.302127    1090.1998   -2545.0568 
28353000    263.25352   -3866.1091   -3414.9016   -3866.1091            0    9569.9983    16.952802    19.968161    20.682379    7001.3219    8102.2548    9179.0342    11428.706   -354.99636    111.15253    1466.1643   -2437.7368 
28354000    254.75595   -3893.1326   -3456.4896   -3893.1326            0    7314.0066    16.983575    20.004408    20.719922    7039.5178    5923.2626    6844.3476    9174.4094   -924.84566     656.4888     1327.826   -2705.6034 
28355000    272.45161    -3903.643   -3436.6703    -3903.643            0    7611.6179    16.968444    19.986586    20.701462    7020.7198    6202.6452    7869.1628    8763.0457   -1870.2855    -224.3768    1699.2635   -2657.3167 
28356000    250.64365   -3893.3721   -3463.7775   -3893.3721            0    9205.2329    16.899662    19.905569    20.617548    6935.6895    10753.443    8154.9975    8707.2579   -710.21186    67.958438   -1131.9313   -2532.6689 
28357000    253.92804   -3897.5545   -3462.3305   -3897.5545            0    8064.4635    16.953262    19.968703     20.68294    7001.8915    7660.8301    8876.6571    7655.9033   -1224.4825    460.42023   -319.18811   -2638.8246 
28358000    244.68864   -3865.4519    -3446.064   -3865.4519            0     8563.075    16.977617     19.99739    20.712653    7032.1123    8681.5656    7700.9483    9306.7109    1364.1861    617.65174    579.14186    -2567.868 
28359000    252.52612   -3874.9093   -3442.0882   -3874.9093            0    8402.1331    16.951181    19.966252    20.680401    6999.3134     8154.129     9167.697    7884.5731    1449.4383    206.50585    244.70433   -2584.4169 
28360000    246.61934   -3872.8506   -3450.1535   -3872.8506            0    7561.5276    16.971512    19.990199    20.705205    7024.5286     8343.264    6507.8796    7833.4393   -360.45244   -1103.6128   -707.77095   -2675.5087 
28361000    259.63137   -3875.2914   -3430.2921   -3875.2914            0    6587.5957    16.941967    19.955399     20.66916    6987.9063     6176.184    6016.7983    7569.8047   -613.32861    189.60598   -1353.4431   -2758.9407 
28362000    268.79566   -3901.0533   -3440.3467   -3901.0533            0     7201.035    16.956921    19.973013    20.687404    7006.4269    8371.7415    6727.6433    6503.7202    680.15688   -11.647659   -491.36264   -2704.5338 
28363000    253.01194   -3854.4679   -3420.8141   -3854.4679            0    9120.8882    16.943073    19.956702    20.670509    6989.2747     9694.748    9729.0139    7938.9027   -1331.6246    145.69632   -961.82334   -2491.1092 
28364000    266.79879    -3855.327    -3398.043    -3855.327            0    8307.8681    16.985281    20.006417    20.722003    7041.6395    9101.9192    7170.0467    8651.6386     947.9484   -1260.7664   -403.74518   -2544.8657 
28365000    263.93455   -3861.4868    -3409.112   -3861.4868            0    7863.7695    16.963604    19.980885    20.695558    7014.7145    8149.3307    7777.1417    7664.8362   -563.25241    59.108491   -326.75165   -2604.6293 
28366000     267.0769   -3910.1357    -3452.375   -3910.1357            0    9819.9336    16.853801    19.851552    20.561598    6879.3784    9733.3003    9627.6669    10098.834   -1491.7167   -1030.1606   -206.83857   -2467.1541 
28367000    257.04865   -3889.3697   -3448.7971   -3889.3697            0    10581.299    16.883778    19.886861     20.59817    6916.1518    11422.961    9212.3526    11108.584   -705.54144   -1033.9286   -382.02424   -2381.5146 
28368000    254.16724   -3881.4943   -3445.8604   -3881.4943            0    9664.9854    16.887605    19.891368    20.602838     6920.855    9369.8338     8782.495    10842.627    294.22417     1004.003   -2588.6818   -2470.3389 
28369000    261.95732   -3849.4485   -3400.4626   -3849.4485            0    10508.003    16.864353    19.863981    20.574472    6892.3078    11324.755    10971.622    9227.6317    165.40842     1246.919   -195.09719   -2344.2271 
28370000    248.89356    -3858.599   -3432.0039    -3858.599            0    8680.2646    16.957313    19.973475    20.687882    7006.9128    8154.3466    10846.163    7040.2845   -715.18288    77.513483    568.58976   -2544.9795 
28371000    260.56405   -3907.2257   -3460.6279   -3907.2257            0    8297.7774    16.954513    19.970177    20.684467    7003.4428    8455.7875    8730.3105    7707.2343    1315.9299    49.998705    869.43142   -2613.1092 
28372000    267.41355   -3860.3114   -3401.9737   -3860.3114            0    7504.3724    16.983508    20.004329     20.71984    7039.4345    8477.8367    7785.7893    6249.4913     530.0999   -1337.6389   -1591.2818   -2631.5529 
28373000    240.65582   -3893.7501   -3481.2742   -3893.7501            0    6499.7664    16.990606    20.012689    20.728499    7048.2644    5338.7745    6435.1294    7725.3952    833.02275    1126.7149    2059.2184   -2813.1521 
28374000    262.57672   -3862.6328   -3412.5852   -3862.6328            0    10196.606    16.912234    19.920377    20.632886    6951.1794     11443.39    9010.5523    10135.877    1262.8062     1159.767    869.29866   -2378.8959 
28375000    276.58642   -3879.8183   -3405.7586   -3879.8183            0    7557.7675    16.932278    19.943987     20.65734    6975.9249    6160.1214    7945.7951    8567.3859    1087.2246    1524.2711    55.820967   -2636.8562 
28376000    255.50381   -3867.2351   -3429.3103   -3867.2351            0    10521.189    16.862308    19.861572    20.571977    6889.8008    11598.305    9510.5031    10454.759    8.0812229    686.20349    1017.9565   -2372.1341 
28377000    262.79918   -3857.8433   -3407.4145   -3857.8433            0     10830.96    16.896108    19.901383    20.613212    6931.3145    11443.126    11733.468    9316.2874    206.90136    447.56028   -1182.4634   -2312.5548 
28378000    263.73685   -3882.1438   -3430.1079   -3882.1438            0    9938.6173    16.916015    19.924831    20.637498    6955.8427    9592.5967    10063.709    10159.547   -1190.2749   -328.10719   -2055.3691   -2421.8965 
28379000    269.94459   -3857.3088    -3394.633   -3857.3088            0    7602.7381    16.877859    19.879889    20.590949    6908.8805    7293.2494    8187.8108     7327.154    2184.6887     301.3182    1133.0722   -2628.5892 
28380000    251.49594   -3908.7893   -3477.7338   -3908.7893            0     7773.496    16.888559    19.892491    20.604002    6922.0281    6693.9665    7241.3069    9385.2146    -784.1256   -373.29589   -283.33971   -2692.9941 
28381000    250.42006   -3910.2054    -3480.994   -3910.2054            0    8149.9975    16.907083     19.91431    20.626601      6944.83    10658.688     7077.201    6714.1036   -89.616225    537.18971   -443.48152    -2655.536 
28382000    261.49302   -3855.4309   -3407.2408   -3855.4309            0    8329.8614    16.885148    19.888474    20.599841    6917.8351     10454.06    6862.1349     7673.389   -84.246292    982.66881    1304.7009    -2566.845 
28383000    252.12601   -3883.7623   -3451.6269   -3883.7623            0    8028.9035    16.922088    19.931985    20.644908     6963.338    7578.8137    8839.1174    7668.7795   -387.58288   -736.54255    73.569897   -2636.2665 
28384000    245.83085   -3879.6684   -3458.3227   -3879.6684            0    9442.6027    16.906605    19.913748    20.626019    6944.2418    10157.485    8313.6297    9856.6934   -859.65652   -1319.7217   -1624.3894   -2502.0265 
28385000    247.58583   -3889.6297    -3465.276   -3889.6297            0     10121.68    16.868359    19.868698    20.579358      6897.22    11326.914    10118.277    8919.8489    -206.4632   -1920.1403   -183.73309   -2447.1476 
28386000    256.00971   -3865.4134   -3426.6215   -3865.4134            0    9908.0048    16.919431    19.928855    20.641667    6960.0582    9425.7573    10177.554    10120.703    187.84792   -1107.5737    1126.8071   -2420.9064 
28387000    251.65537   -3881.3796   -3450.0509   -3881.3796            0    7361.3145    16.958344    19.974689     20.68914    7008.1909    6665.1989    5087.4816    10331.263   -1128.0351    1047.4177    905.95083    -2697.671 
28388000    269.72946   -3888.4559   -3426.1488   -3888.4559            0    9755.3791    16.864075    19.863652    20.574132    6891.9662    9151.1517    9766.3715    10348.614   -887.74053    305.41006   -777.67244   -2445.6137 
28389000    233.79357   -3884.5971   -3483.8829   -3884.5971            0    11355.211    16.828611     19.82188    20.530866    6848.5775    11673.427    11333.784    11058.421    782.48365   -454.41866    259.80528   -2349.7304 
28390000    258.98202   -3876.4513    -3432.565   -3876.4513            0     7458.924    16.928118    19.939087    20.652264    6970.7835    7400.2816    7069.4676    7907.0228    605.42001    -106.0216    292.56041   -2674.2779 
28391000    259.47638   -3904.3243   -3459.5907   -3904.3243            0    9371.4569    16.850015    19.847092    20.556979    6874.7433    11644.356    7959.8477    8510.1667   -483.96139   -341.16644   -685.55679   -2519.9983 
28392000    251.26838   -3880.4184    -3449.753   -3880.4184            0    10579.066    16.813361    19.803918    20.512261    6829.9759    10316.206    10280.272     11140.72    1330.4678   -269.38042    -313.5147   -2395.9913 
28393000    247.31357   -3860.7467   -3436.8597   -3860.7467            0    9719.2581    16.925224    19.935679    20.648734    6967.2099    10441.091    10908.728    7807.9556   -604.55702   -1149.8278   -141.38843   -2449.2897 
28394000    253.86859   -3869.5575   -3434.4354   -3869.5575            0    9785.5584    16.903759    19.910395    20.622546    6940.7349    11442.454    10383.318    7530.9026     1685.868   -120.74507    711.80879    -2443.907 
28395000    254.17857   -3846.7633     -3411.11   -3846.7633            0    9520.3283    16.852612    19.850151    20.560147    6877.9221    9101.3116    10320.204    9139.4695    884.81823    26.222124    850.41366   -2456.1502 
28396000    256.26371   -3891.5884   -3452.3612   -3891.5884            0     7974.962    16.869214    19.869706    20.580402     6898.269    9830.5715    6380.5398    7713.7747    828.55452     21.81728   -1169.5356   -2650.0467 
28397000    245.66561   -3912.9323   -3491.8698   -3912.9323            0    8396.2562    16.891494    19.895949    20.607583    6925.6377    8225.4723     9213.139    7750.1574    326.08771   -949.19832   -750.97932     -2643.82 
28398000    250.23964   -3900.9645   -3472.0623   -3900.9645            0    10997.545    16.860878    19.859888    20.570232    6888.0482    12106.337    10230.964    10655.335   -1119.1106   -842.85679   -1561.4151   -2367.3026 
28399000    268.92995   -3866.6936   -3405.7569   -3866.6936            0    8402.3261    16.965753    19.983416    20.698179      7017.38    8749.6194    9110.7608    7346.5982   -1008.3235    176.89613    332.44175    -2545.852 
28400000     261.3183   -3903.8462   -3455.9556   -3903.8462            0    8421.5494     16.96059    19.977335    20.691881    7010.9762    8395.0281    9111.1806    7758.4396    251.02543   -1679.6311    -421.5231   -2594.8699 
28401000    263.29219   -3857.0484   -3405.7746   -3857.0484            0    9577.1238    16.933947    19.945953    20.659376    6977.9877    7937.3067    8707.0267    12087.038    35.594636   -1571.3641   -124.08761   -2431.1414 
28402000    243.76894   -3879.1604   -3461.3488   -3879.1604            0    6932.1269     17.00374     20.02816    20.744523    7064.6223    5508.5685    8505.5781     6782.234    206.29909    593.33792    -739.0071   -2747.1299 
28403000    253.41853   -3876.6494   -3442.2987   -3876.6494            0    8421.3556    16.925328    19.935801    20.648861    6967.3383    8313.6066    7718.9037    9231.5564     970.5718   -17.785003   -43.241122   -2586.5923 
28404000    252.39287   -3906.9147    -3474.322   -3906.9147            0    8839.3502     16.92522    19.935674    20.648729    6967.2045    9389.2991    8500.2467    8628.5047   -1143.3481    1104.2054   -2019.3958   -2576.1598 
28405000    258.02973   -3905.0639   -3462.8098   -3905.0639            0     6878.536    16.946198    19.960382    20.674321    6993.1427     7955.208    7883.0076    4797.3922     781.4019    467.99456     922.0678   -2761.2829 
28406000    246.29058   -3924.8566    -3502.723   -3924.8566            0    11597.413    16.845401    19.841658     20.55135    6869.0976     11474.21    11071.345    12246.685    415.63113    1181.9658   -1457.9127   -2340.9087 
28407000    255.63717   -3913.2073   -3475.0539   -3913.2073            0    7699.5647     16.96764    19.985639    20.700482    7019.7225    8314.0379    7988.5402     6796.116   -575.33075   -142.30526    167.84398   -2686.8075 
28408000    257.54205   -3908.9075   -3467.4893   -3908.9075            0    6537.6046    16.974916    19.994209    20.709358    7028.7569     7911.443    6370.1687    5331.2021   -267.32925   -339.02889   -1674.2564   -2797.3377 
28409000     262.9471   -3889.8954   -3439.2131   -3889.8954            0    8625.1361    16.941008     19.95427     20.66799    6986.7201    8074.7882    10162.438    7638.1821   -962.25884   -422.20238   -117.48115   -2560.3622 
28410000    255.56073   -3847.5103   -3409.4879   -3847.5103            0    8983.7247    16.970619    19.989148    20.704116    7023.4204    8995.0187     8633.991    9322.1644   -205.28511    317.76993   -983.58791   -2489.2906 
28411000    266.08859    -3940.255   -3484.1882    -3940.255            0    10934.738    16.907205    19.914455    20.626751    6944.9812    11850.204    9595.7431    11358.266    1524.5472   -52.798516   -291.34553   -2376.6586 
28412000    255.31886   -3899.5251   -3461.9173   -3899.5251            0    9827.4378    16.897237    19.902713    20.614589    6932.7039    9729.2704    9543.3568    10209.686   -144.63378   -648.13857    329.94987   -2468.3007 
28413000    261.37903   -3901.5585   -3453.5638   -3901.5585            0    12038.686    16.907939    19.915318    20.627646    6945.8849    13336.888    11716.072    11063.097    930.89368   -1399.3734   -1021.5719   -2234.0618 
28414000    269.43013   -3909.2314   -3447.4373   -3909.2314            0    11042.313    16.898019    19.903634    20.615543    6933.6665    10479.189    13011.372    9636.3785    976.81697    -836.2442     1066.285   -2330.8341 
28415000    251.11282   -3891.1837   -3460.7849   -3891.1837            0    6606.5139    16.973934    19.993053     20.70816    7027.5372    5379.3981    7386.7107    7053.4328    602.88897    1458.4969    431.49226   -2783.6871 
28416000    262.30592   -3867.4532   -3417.8698   -3867.4532            0    9148.7255    16.917252    19.926288    20.639008    6957.3689    10120.444    7590.2059     9735.527    633.67376    1261.4757    367.40201   -2489.5844 
28417000    242.50359   -3890.6617   -3475.0188   -3890.6617            0    6893.4511    16.953602    19.969104    20.683355    7002.3133    7562.0178    7253.3035    5865.0321    550.42564    457.83906    2102.6011   -2771.0489 
28418000     271.3228   -3871.0746   -3406.0366   -3871.0746            0    8842.7505    16.906498    19.913621    20.625888    6944.1095    10003.581    7278.5881    9246.0827   -155.65872   -81.529487    46.384643   -2510.5073 
28419000    261.15376   -3879.8021   -3432.1935   -3879.8021            0    7907.8499    16.869892    19.870505    20.581229    6899.1011    7187.8243    8984.0249    7551.7005    590.54846    146.60919   -43.190037   -2636.5348 
28420000    266.09532   -3897.5732    -3441.495   -3897.5732            0    6589.7387    16.933803    19.945783      20.6592    6977.8093    5859.1946    7356.9496    6553.0719   -154.59228    809.16667    599.72909   -2770.8955 
28421000    249.64211   -3891.1786   -3463.3005   -3891.1786            0    8872.2454    16.883398    19.886413    20.597706    6915.6848    9568.5788    7104.3622    9943.7952   -458.04576   -531.61353   -1197.8421   -2568.4621 
28422000    259.31956   -3913.5997   -3469.1348   -3913.5997            0    9490.5963    16.879971    19.882376    20.593525    6911.4736    10220.023    9335.6206    8916.1457    1210.7521    308.54128   -327.35499   -2512.5135 
28423000    255.58964   -3904.1969    -3466.125   -3904.1969            0    12519.844    16.834735    19.829094    20.538337    6856.0574     13529.78    12537.936    11491.815     674.8842   -19.083963    -134.0902   -2214.2838 
28424000    249.83339   -3892.8778    -3464.672   -3892.8778            0    8277.9313    16.906827    19.914009     20.62629    6944.5151    8196.6442    9862.3538    6774.7959   -1066.6134    1002.2967    701.11338   -2626.2944 
28425000    253.02078   -3864.8515   -3431.1825   -3864.8515            0    12103.446     16.84762    19.844271    20.554057    6871.8122     14229.31    11944.893    10136.136    144.36178    320.80589   -143.26548   -2218.1953 
28426000    255.69438   -3890.3039   -3452.0525   -3890.3039            0    9843.1732    16.840249    19.835589    20.545065    6862.7967    10991.777    8747.8872     9789.855    1923.4745    578.32026    398.91961   -2466.8803 
28427000    253.40987   -3869.5414   -3435.2056   -3869.5414            0    8160.4498    16.961702    19.978644    20.693237    7012.3545    9056.1969    6821.8512    8603.3015    15.159316    1557.2914   -419.22289   -2600.6527 
28428000    267.82119   -3896.6083   -3437.5719   -3896.6083            0    8553.1956    16.983297    20.004081    20.719583    7039.1725    7939.8794    9364.0221    8355.6852   -93.883991    553.64668   -664.77819   -2559.5085 
28429000     246.8637   -3885.8403   -3462.7244   -3885.8403            0    8876.0646     16.98238       20.003    20.718464    7038.0321    8422.6206    10424.412    7781.1608   -1984.0562   -107.86761    24.945991   -2551.6631 
28430000    251.69534   -3896.5233   -3465.1261   -3896.5233            0    8763.5557    16.928228    19.939217    20.652399    6970.9202    9035.1975    9667.0994    7588.3701    686.70034    605.54144    1230.3177   -2574.1905 
28431000    256.02555   -3865.9635   -3427.1445   -3865.9635            0    12267.247    16.859305    19.858035    20.568313    6886.1207    12812.168    12339.939    11649.635    1310.2161     -342.814   -1797.4695   -2195.1815 
28432000    269.98643   -3891.1986   -3428.4511   -3891.1986            0    9981.4827    16.972586    19.991464    20.706515    7025.8622    10062.059    9651.1577    10231.231    311.15579    1027.0944   -887.16684   -2405.6985 
28433000    251.37034    -3906.488   -3475.6478    -3906.488            0     8435.573     16.92598    19.936569    20.649656    6968.1431    7792.0873    9508.5476     8006.084   -650.67846    438.10243     12.79428   -2618.3977 
28434000    241.05299    -3884.145   -3470.9884    -3884.145            0    8880.9849    16.885709    19.889134    20.600525    6918.5242    7545.5699    10554.545    8542.8402    1249.3567   -187.05553    618.63828   -2574.9008 
28435000    267.73654   -3880.3544   -3421.4632   -3880.3544            0    9432.6968    16.936685    19.949178    20.662717    6981.3731    8573.0402    8455.3999     11269.65   -189.46321    1044.4331    457.68066   -2461.0621 
28436000    272.50782   -3888.4868   -3421.4178   -3888.4868            0    9374.3902    16.958403    19.974758    20.689212    7008.2634    9789.4525    10575.297    7758.4207    78.963248   -119.51824   -661.94151    -2463.277 
28437000    260.03915   -3903.5505   -3457.8523   -3903.5505            0    7742.3769     16.97074     19.98929    20.704263      7023.57    8292.3353    7598.5459    7336.2494   -1568.2141    2356.9308   -966.89889   -2664.7885 
28438000    272.93793   -3893.7222   -3425.9159   -3893.7222            0    9573.0279    16.975994    19.995478    20.710672     7030.095    12458.128    8036.5038    8224.4519    1235.4004   -2285.2863    1621.4732   -2444.4247 
28439000    240.58064   -3894.3345   -3481.9875   -3894.3345            0    10727.538    16.944949    19.958912    20.672799    6991.5976    10006.927    12633.334     9542.354    1486.8599   -844.60667   -273.94632   -2388.1511 
28440000    266.46305   -3852.6303   -3395.9218   -3852.6303            0    9683.4617    16.941529    19.954884    20.668626    6987.3648    10125.306    10174.704    8750.3749    300.19178     999.2468    404.82154   -2409.1427 
28441000    260.98355   -3883.4963   -3436.1794   -3883.4963            0    8639.6504     16.98997    20.011941    20.727724    7047.4735    9376.4855    8367.0152    8175.4504     -521.293    378.59509    274.46042   -2548.1947 
28442000    255.06948     -3877.47   -3440.2896     -3877.47            0      9200.67    16.921021    19.930728    20.643606    6962.0203    8219.5257    9107.2361    10275.248    1414.2158    115.45724    601.35924   -2506.1095 
28443000     270.4137   -3900.4155   -3436.9356   -3900.4155            0    9852.3324    16.913639    19.922033      20.6346    6952.9124    8423.8299    9510.4329    11622.735   -1008.2019    303.88685   -167.36729   -2437.8983 
28444000    261.15275    -3861.705   -3414.0981    -3861.705            0    8810.2101    16.938402      19.9512    20.664811    6983.4961    6727.2255    9035.3634    10668.041   -982.27484   -675.57716    651.91312   -2516.8035 
28445000    255.69094   -3887.7593   -3449.5137   -3887.7593            0    7530.4855    16.941016    19.954279       20.668    6986.7301    6364.9302    8501.6235    7724.9028   -560.99806   -646.70201   -1022.5891   -2682.2002 
28446000    272.04466   -3911.4584   -3445.1831   -3911.4584            0      9567.57    16.874619    19.876072    20.586996    6904.9018    8333.3346    10624.077    9745.2983   -459.44247    488.45646   -179.76611   -2481.7201 
28447000    253.35088   -3896.3569   -3462.1222   -3896.3569            0    8088.9443    16.955512    19.971354    20.685686    7004.6809    5632.7113    9881.4903    8752.6313   -963.45798   -2041.2412     130.9568   -2635.7873 
28448000    256.76929   -3885.4057   -3445.3119   -3885.4057            0    8801.5197    16.923153    19.933239    20.646207    6964.6521    9303.1921    7370.6732    9730.6937   -103.51254   -685.44695    300.11512   -2551.3212 
28449000    270.79776   -3878.9777   -3414.8396   -3878.9777            0    9123.1212    16.928842    19.939939    20.653147    6971.6778     10175.96    9632.4028    7561.0008   -1167.9467   -1925.9987   -922.73752   -2487.2483 
28450000    256.20873   -3886.3252   -3447.1922   -3886.3252            0    7174.9865    16.945882    19.960011    20.673936     6992.752    7182.7047    8442.8227    5899.4321    326.43654   -418.57085   -711.14574   -2715.4719 
28451000    256.70116   -3876.7517   -3436.7747   -3876.7517            0    9538.7794     16.98589    20.007134    20.722746    7042.3967    9404.2644    11014.572    8197.5021    148.87919    940.71025    111.77876   -2457.0835 
28452000    252.98446   -3858.2543   -3424.6476   -3858.2543            0    8594.9944    16.959874    19.976491    20.691006    7010.0876    8012.5565    8266.9951    9505.4316   -518.92573    577.46876   -237.35312   -2545.9388 
28453000    260.98463   -3902.5891   -3455.2704   -3902.5891            0    9588.7728    16.897966    19.903572    20.615479     6933.602     8249.022    9371.9022    11145.394   -16.490711    1390.9358    -17.67978   -2485.6587 
28454000    249.68706   -3885.0246   -3457.0695   -3885.0246            0    8688.0886    16.948113    19.962639    20.676659    6995.5148     9629.757    8374.4079     8060.101   -1349.0845    121.03985     354.7032   -2570.6898 
28455000    251.03689   -3887.5194   -3457.2508   -3887.5194            0    9191.5681    16.883437    19.886458    20.597753    6915.7319    6536.5486    10255.907    10782.248    -1481.166    844.31158   -649.53757   -2530.1997 
28456000    246.45605   -3884.4891   -3462.0718   -3884.4891            0    9605.7386    16.935936    19.948296    20.661802    6980.4465    7915.7015    11432.512    9469.0021    2671.3106    1092.3803    801.63509   -2484.1822 
28457000      246.673   -3873.0985   -3450.3095   -3873.0985            0    7456.3191     16.95693    19.973023    20.687415    7006.4376    6786.0355    6868.1781    8714.7436    1151.9532   -995.94342    343.52456   -2688.4101 
28458000    256.26042   -3857.6938   -3418.4722   -3857.6938            0     9793.658    16.907236    19.914491    20.626789    6945.0191     8666.126    10207.302    10507.545   -584.80629   -118.11621   -11.351174    -2426.512 
28459000    260.52271    -3913.758    -3467.231    -3913.758            0    9779.6585    16.959314    19.975832    20.690324    7009.3937    9558.4724    9053.1973    10727.306    645.20879    373.94609   -688.87277   -2467.5072 
28460000    272.48128   -3906.7914   -3439.7678   -3906.7914            0    10464.189     16.97478    19.994048    20.709192    7028.5872    11653.765    9867.2846    9871.5172     388.5144    947.81206     -620.825   -2367.1389 
28461000    271.12075   -3942.3667    -3477.675   -3942.3667            0    8985.2714    16.959239    19.975743    20.690232    7009.2999    10818.386    7175.7617    8961.6661    469.50168   -198.58681    9.5209402   -2559.1696 
28462000    258.36229   -3924.5652   -3481.7411   -3924.5652            0    7487.8635    16.979459     19.99956    20.714901    7034.4016    8241.9605    7914.5626    6307.0675    450.86595   -307.23869   -408.38895   -2713.5647 
28463000    254.85636   -3882.0047   -3445.1896   -3882.0047            0    9373.0072    16.930997    19.942478    20.655777    6974.3415     10449.59    7942.0298    9727.4015   -501.97581    208.53278   -149.59026   -2491.8271 
28464000    257.52362   -3904.4032   -3463.0165   -3904.4032            0    8407.6986    16.940742    19.953956    20.667665    6986.3906    8823.0188    7792.2071    8607.8698   -430.25021   -24.320569    513.95466   -2606.3617 
28465000    251.72068   -3935.4343   -3503.9936   -3935.4343            0    9152.5122    16.922624    19.932615    20.645561    6963.9987    8964.8004    9578.4382     8914.298    2406.9442     349.0241    893.95282   -2574.4391 
28466000    252.46134    -3896.237   -3463.5269    -3896.237            0    10499.422    16.940855    19.954089    20.667803    6986.5302    12892.033     9236.292    9369.9408    824.35179   -258.65757   -710.30166   -2393.7263 
28467000    245.60091   -3894.5798   -3473.6282   -3894.5798            0    8221.1162    16.930235     19.94158    20.654847     6973.399       9313.5    7703.1683    7646.6802   -198.81067    322.27371    692.02853   -2637.5418 
28468000    253.25481   -3849.5544   -3415.4843   -3849.5544            0    9229.8585    16.950272    19.965182    20.679293    6998.1884    9999.6666    8216.2908    9473.6179    720.67582   -1581.1196    3001.8279    -2473.472 
28469000    266.35756   -3856.9663   -3400.4385   -3856.9663            0    7782.8527    16.956944     19.97304    20.687432    7006.4552    7775.5005    8174.2156     7398.842    2038.5666   -69.222894    393.60345   -2605.1713 
28470000    253.52029   -3879.8766   -3445.3515   -3879.8766            0    10327.512    16.947152    19.961507    20.675486    6994.3243    10980.919    9628.2149    10373.401    744.54193    -191.9635   -3.4677834   -2391.8932 
28471000     270.1009   -3892.3337     -3429.39   -3892.3337            0    10296.645    16.940514    19.953688    20.667387    6986.1084     9577.508    10670.861    10641.566     407.7216    774.97357   -668.42086    -2380.314 
28472000    254.69289   -3891.2063   -3454.6714   -3891.2063            0    10306.533    16.928878    19.939982    20.653192    6971.7229    10799.674      8913.45    11206.475    138.86141     819.7769   -220.93457   -2406.7503 
28473000    246.26122   -3889.9421   -3467.8588   -3889.9421            0    7764.4824    17.018763    20.045855    20.762851     7083.364     8368.728    7931.5047    6993.2145   -1446.1071    940.38894    -950.3895   -2665.7598 
28474000      265.107   -3881.1954   -3426.8111   -3881.1954            0    9063.4807    16.937769    19.950455    20.664039    6982.7131    9625.8192    8906.8214    8657.8014   -1090.6964    59.760719   -273.72948   -2503.8251 
28475000     253.0025   -3876.4416    -3442.804   -3876.4416            0    9078.7057     16.88341    19.886427    20.597721    6915.6994    10171.911     9027.101    8037.1046    879.12877     110.4973   -369.18716   -2527.1404 
28476000    253.34649   -3877.8523   -3443.6251   -3877.8523            0    9629.7317    16.957058    19.973175    20.687571    7006.5968     8618.047    11252.278    9018.8703   -246.85997   -821.86471    1320.1862   -2459.6204 
28477000    267.39628   -3851.8413   -3393.5332   -3851.8413            0     9914.424    16.971955    19.990722    20.705746    7025.0794    10845.562    9748.2118    9149.4983   -1184.3113    74.432645   -276.74841    -2377.765 
28478000    268.03094   -3878.3487   -3418.9529   -3878.3487            0    11025.748    16.915639    19.924388     20.63704    6955.3787    12791.178    11150.419    9135.6471   -2262.5308    -1020.063    5.3652863   -2300.5333 
28479000    255.95208   -3879.0838   -3440.3907   -3879.0838            0    9229.9293    17.025988    20.054365    20.771666    7092.3893    7303.9379    10598.528    9787.3216    2518.8721   -973.97872   -94.405844   -2485.6909 
28480000    267.82839   -3892.7791   -3433.7304   -3892.7791            0    7931.8418    17.015651     20.04219    20.759055    7079.4794    6787.6273    7537.1536    9470.7444   -1238.8341   -361.15267    622.02996    -2614.792 
28481000    261.97278   -3890.0627   -3441.0503   -3890.0627            0    8576.9993    16.979716    19.999862    20.715214    7034.7204    7919.1457    10311.429    7500.4229    27.272124    1059.2489   -1166.2047   -2561.1001 
28482000    251.12654   -3870.7667   -3440.3444   -3870.7667            0    9547.2285     16.95187    19.967064    20.681242     7000.168    8056.6886    9500.7996    11084.197   -1325.1427    756.54064    339.76282   -2465.6652 
28483000     248.0778   -3843.2594   -3418.0626   -3843.2594            0    9081.2976    16.915329    19.924023    20.636662    6954.9965    10838.206    8152.7365    8252.9506    408.83071     -990.761   -564.67533    -2496.933 
28484000    257.68908   -3874.6166   -3432.9463   -3874.6166            0    7424.2301    17.054842    20.088351    20.806867    7128.5084    6299.2527    7072.8904    8900.5471    1047.7428     1871.366    783.53935   -2661.1087 
28485000    250.84591   -3879.7076   -3449.7663   -3879.7076            0     8481.361    16.967213    19.985135     20.69996    7019.1918    7819.7267    8085.1161    9539.2401   -747.21232    1548.0389    791.21928   -2581.5488 
28486000     258.9312   -3889.6284   -3445.8292   -3889.6284            0    11126.481    16.916101    19.924932    20.637603    6955.9487    11345.493    11577.547    10456.405    1005.5384    700.26434    1738.3493   -2317.0991 
28487000    270.88223   -3890.8276   -3426.5447   -3890.8276            0       8783.3     16.91822    19.927429    20.640189    6958.5637    8151.4154    7382.5105    10815.974   -54.297829    20.319326    502.73199   -2535.1846 
28488000    256.20108   -3856.5931   -3417.4732   -3856.5931            0    12080.701    16.891253    19.895665     20.60729    6925.3418    13633.877    9978.5277    12629.698    267.38539   -1863.1376    287.62378   -2197.3344 
28489000    254.99775   -3870.4594    -3433.402   -3870.4594            0    11777.225    16.850762    19.847972    20.557891    6875.6578    12630.523    11071.187    11629.966    698.10143   -1932.3297    1052.0095   -2252.4476 
28490000    248.57874   -3853.6988   -3427.6433   -3853.6988            0     7382.376    16.922034    19.931921    20.644842    6963.2708    6098.4239    8624.8377    7423.8665    81.550107    1101.3509    -2349.198   -2677.9471 
28491000    252.43063   -3896.9907   -3464.3332   -3896.9907            0    7734.8917    16.920881    19.930563    20.643436     6961.848    7899.5561    6868.8626    8436.2563    402.04439   -917.99259    608.25252   -2678.9988 
28492000    259.35819   -3870.3176   -3425.7866   -3870.3176            0    7828.9058    16.956507    19.972525    20.686899     7005.913    8077.2492    5715.6894    9693.7789   -220.20728    1132.0711   -354.52985   -2625.8755 
28493000    256.14557   -3848.8328    -3409.808   -3848.8328            0    8650.1714    16.975278    19.994635    20.709799    7029.2058    9065.3599    8682.7876    8202.3667    194.52923   -102.17791    12.667862   -2523.0464 
28494000    266.30575   -3865.4794   -3409.0404   -3865.4794            0    10824.229    16.897389    19.902892    20.614775    6932.8916    10764.472      11658.4    10049.814   -950.67382    706.64322   -777.57381   -2314.6122 
28495000    267.22823   -3858.8148   -3400.7948   -3858.8148            0    8923.7527    16.957512    19.973709    20.688124    7007.1587    9112.7134    9407.3501    8251.1947    1574.9658    1016.7283   -785.48891   -2488.8567 
28496000    254.28558    -3884.273   -3448.4362    -3884.273            0    7140.0284    16.997574    20.020897    20.737001    7056.9398     5676.418    8346.7185    7396.9489   -916.66604   -483.75624    453.58204   -2713.5972 
28497000    259.61639   -3874.0067    -3429.033   -3874.0067            0    7944.3714    16.940022    19.953108    20.666787    6985.4995    8300.7512    6074.3218    9458.0413    -910.5379   -169.15628   -304.12633   -2619.6895 
28498000    264.58406   -3829.4866   -3375.9986   -3829.4866            0    8882.9036    16.894933    19.899999    20.611778    6929.8682    9784.4553    7920.0871    8944.1683     1302.146   -117.13693   -405.10482   -2478.2478 
28499000    235.82233   -3848.0109   -3443.8195   -3848.0109            0    7285.3386    17.011744    20.037587    20.754287    7074.6031    7407.6672     7915.871    6532.4776    -1006.548    902.18529   -26.986921   -2692.1487 
28500000    279.60132   -3880.2012   -3400.9741   -3880.2012            0    7779.3475    16.990958    20.013104    20.728929    7048.7023    8072.3666    6716.8119     8548.864   -1612.9028    886.09797   -1223.8204   -2601.2721 
Loop time of 363.962 on 64 procs for 250000 steps with 864 atoms

Performance: 118.694 ns/day, 0.202 hours/ns, 686.886 timesteps/s
194.8% CPU use with 32 MPI tasks x 2 OpenMP threads

MPI task timing breakdown:
Section |  min time  |  avg time  |  max time  |%varavg| %total
---------------------------------------------------------------
Pair    | 26.997     | 33.362     | 41.2       |  67.4 |  9.17
Bond    | 0.79591    | 1.109      | 1.6062     |  17.8 |  0.30
Kspace  | 159.95     | 169.68     | 180.31     |  38.2 | 46.62
Neigh   | 3.8179     | 4.342      | 4.9772     |  19.3 |  1.19
Comm    | 69.341     | 74.675     | 80.947     |  37.7 | 20.52
Output  | 0.53893    | 0.53925    | 0.54105    |   0.0 |  0.15
Modify  | 68.598     | 70.614     | 72.8       |  12.2 | 19.40
Other   |            | 9.64       |            |       |  2.65

Nlocal:        27.0000 ave          33 max          21 min
Histogram: 3 1 3 4 3 7 3 4 2 2
Nghost:        2609.88 ave        2661 max        2563 min
Histogram: 1 2 6 5 2 4 7 2 1 2
Neighs:        8751.25 ave       11456 max        6280 min
Histogram: 2 3 2 5 5 4 7 2 0 2

Total # of neighbors = 280040
Ave neighs/atom = 324.12037
Ave special neighs/atom = 2.0000000
Neighbor list builds = 13634
Dangerous builds = 0

unfix		3
unfix		2
unfix		1

write_data	data.final.${pid}
write_data	data.final.1
System init for write_data ...
PPPM initialization ...
  extracting TIP4P info from pair style
  using 12-bit tables for long-range coulomb (../kspace.cpp:340)
  G vector (1/distance) = 0.37418401
  grid = 24 24 24
  stencil order = 5
  estimated absolute RMS force accuracy = 0.0031698668
  estimated relative force accuracy = 9.5459598e-06
  using double precision FFTW3
  3d grid and FFT values/proc = 3549 432
Last active /omp style is kspace_style pppm/tip4p/omp
WARNING: Not all mixed pair coeffs generated from mixing. Use write_data with 'pair ij' option to store all pair coeffs. (../write_data.cpp:312)

write_restart   restart.lmp.${pid}
write_restart   restart.lmp.1
System init for write_restart ...
PPPM initialization ...
  extracting TIP4P info from pair style
  using 12-bit tables for long-range coulomb (../kspace.cpp:340)
  G vector (1/distance) = 0.37418401
  grid = 24 24 24
  stencil order = 5
  estimated absolute RMS force accuracy = 0.0031698668
  estimated relative force accuracy = 9.5459598e-06
  using double precision FFTW3
  3d grid and FFT values/proc = 3549 432
Last active /omp style is kspace_style pppm/tip4p/omp
Total wall time: 0:06:04
