#include		in.partitions
include		in.temp
variable        temperature equal 235.22
variable	tempDamp equal 100.0
include		in.pressure
variable        pressure equal 1527.8
variable        pressureDamp equal 1000.0 # This is 1 ps
include		in.seed
variable        seed equal 745823

units		real
atom_style	full
#include		in.box
read_restart	restart.lmp.${pid}
read_restart	restart.lmp.0
Reading restart file ...
  restart file = 30 Jul 2021, LAMMPS = 30 Jul 2021
  restoring atom style full from restart
  orthogonal box = (0.075613997 0.27462113 -0.0022658558) to (18.131958 23.354557 22.215462)
  2 by 4 by 4 MPI processor grid
  restoring pair style lj/cut/tip4p/long/omp from restart
  restoring bond style harmonic/omp from restart
  restoring angle style harmonic/omp from restart
  864 atoms
  576 bonds
  288 angles
Finding 1-2 1-3 1-4 neighbors ...
  special bond factors lj:    0        0        0       
  special bond factors coul:  0        0        0       
     2 = max # of 1-2 neighbors
     1 = max # of 1-3 neighbors
     1 = max # of 1-4 neighbors
     2 = max # of special neighbors
  special bonds CPU = 0.002 seconds
  read_restart CPU = 0.006 seconds
include 	in.setup
variable	out_freq equal 1000
variable	out_freq2 equal 10000
variable	out_freq3 equal 1000

timestep	2.0

neigh_modify    delay 7 every 1

include		in.tip4p
# This is TIP4P/Ice

# create groups ###
group ox type 2
288 atoms in group ox
group hy type 1
576 atoms in group hy

# set charges - beside manually ###
set group ox charge -1.1794
Setting atom values ...
  288 settings made for charge
set group hy charge 0.5897
Setting atom values ...
  576 settings made for charge

# ### TIP3P Potential Parameters ###
pair_style lj/cut/tip4p/long/omp 2 1 1 1 0.1577 8.5
pair_coeff 1 1*2 0.000 0.000
pair_coeff 2 2 0.21084 3.1668
bond_style  harmonic
bond_coeff  1 450 0.9572
angle_style harmonic
angle_coeff 1 55 104.52
kspace_style pppm/tip4p/omp 1.0e-5
pair_modify tail yes

thermo          ${out_freq}
thermo          1000
thermo_style    custom step temp pe etotal epair emol press lx ly lz vol pxx pyy pzz pxy pxz pyz enthalpy

restart 	${out_freq3} restart.lmp.${pid} restart2.lmp.${pid}
restart 	1000 restart.lmp.${pid} restart2.lmp.${pid}
restart 	1000 restart.lmp.0 restart2.lmp.${pid}
restart 	1000 restart.lmp.0 restart2.lmp.0


include         in.dump
dump            myDump all atom ${out_freq2} dump.water.${pid}
dump            myDump all atom 10000 dump.water.${pid}
dump            myDump all atom 10000 dump.water.0
dump            myDump2 all dcd ${out_freq2} dump.dcd
dump            myDump2 all dcd 10000 dump.dcd
dump_modify     myDump append yes
dump_modify     myDump2 append yes


variable natoms 	equal  "count(all)"                        # NUMBER ATOMS
variable H      	equal  "enthalpy/v_natoms"                 # ENTHALPY-per-atom
variable Vol      	equal  "vol/v_natoms"                 # volume-per-atom
fix AVG all 		ave/time ${out_freq} 1 ${out_freq} v_Vol v_H file vol_enthalpy.dat
fix AVG all 		ave/time 1000 1 ${out_freq} v_Vol v_H file vol_enthalpy.dat
fix AVG all 		ave/time 1000 1 1000 v_Vol v_H file vol_enthalpy.dat


timer           timeout 23:50:00 every 1000
New timer settings: style=normal  mode=nosync  timeout=23:50:00

fix 		1 all shake 1e-6 200 0 b 1 a 1
       0 = # of size 2 clusters
       0 = # of size 3 clusters
       0 = # of size 4 clusters
     288 = # of frozen angles
  find clusters CPU = 0.001 seconds
fix             2 all nph aniso ${pressure} ${pressure} ${pressureDamp}
fix             2 all nph aniso 1527.8 ${pressure} ${pressureDamp}
fix             2 all nph aniso 1527.8 1527.8 ${pressureDamp}
fix             2 all nph aniso 1527.8 1527.8 1000
fix             3 all temp/csvr ${temperature} ${temperature} ${tempDamp} ${seed}
fix             3 all temp/csvr 235.22 ${temperature} ${tempDamp} ${seed}
fix             3 all temp/csvr 235.22 235.22 ${tempDamp} ${seed}
fix             3 all temp/csvr 235.22 235.22 100 ${seed}
fix             3 all temp/csvr 235.22 235.22 100 745823


run             250000
PPPM initialization ...
  extracting TIP4P info from pair style
  using 12-bit tables for long-range coulomb (../kspace.cpp:340)
  G vector (1/distance) = 0.37166588
  grid = 24 27 25
  stencil order = 5
  estimated absolute RMS force accuracy = 0.0031676388
  estimated relative force accuracy = 9.5392501e-06
  using double precision FFTW3
  3d grid and FFT values/proc = 4410 672
Last active /omp style is kspace_style pppm/tip4p/omp
Neighbor list info ...
  update every 1 steps, delay 7 steps, check yes
  max neighbors/atom: 2000, page size: 100000
  master list distance cutoff = 10.8154
  ghost atom cutoff = 10.8154
  binsize = 5.4077, bins = 4 5 5
  1 neighbor lists, perpetual/occasional/extra = 1 0 0
  (1) pair lj/cut/tip4p/long/omp, perpetual
      attributes: half, newton on, omp
      pair build: half/bin/newton/omp
      stencil: half/bin/3d
      bin: standard
Per MPI rank memory allocation (min/avg/max) = 10.19 | 10.21 | 10.23 Mbytes
Step Temp PotEng TotEng E_pair E_mol Press Lx Ly Lz Volume Pxx Pyy Pzz Pxy Pxz Pyz Enthalpy 
 3500000    241.66617   -4251.9502   -3837.7426   -4251.9502            0    2498.4746    18.056344    23.079936    22.217728    9258.9994    2779.4476    3429.6403    1286.3358    52.075487    141.47561   -208.27768   -3500.3661 
 3501000    237.42247   -4288.1995   -3881.2656   -4288.1995            0    1029.5364    18.273102    23.472663    21.915225    9399.8424    624.56506    175.09354    2288.9505    1244.5532    525.73924   -170.00377   -3740.1294 
 3502000    235.11655    -4284.299   -3881.3173    -4284.299            0    4045.0111    17.839577    23.379999    22.047024    9195.5778    5681.4737     3212.275    3241.2847    80.900575    1033.1257   -200.12868   -3338.8486 
 3503000    243.82409   -4308.6722    -3890.766   -4308.6722            0    1136.2058    18.050834    23.558721    22.052598     9377.968    1465.3871    3053.4698   -1110.2394   -506.99932   -626.88715    373.92404   -3735.3694 
 3504000     226.4591   -4308.9565   -3920.8134   -4308.9565            0    1662.1088    18.103931    23.366327    21.877808    9254.8025    1584.7814     596.5363    2805.0085   -124.13391     775.2862   -304.15159   -3696.4756 
 3505000    235.31271   -4279.3912   -3876.0733   -4279.3912            0    1670.0279    17.994009    23.294776    22.270761    9335.1552    3648.4202    2030.5165   -668.85306     702.4786    166.31364   -446.93479   -3648.7095 
 3506000    239.58528     -4280.89   -3870.2491     -4280.89            0     504.5916    18.036276    23.654549    21.995334     9384.089    494.40125     372.8228    646.55073   -271.44734    718.30639    381.80212    -3801.192 
 3507000    234.53888   -4280.7122   -3878.7206   -4280.7122            0      2063.11    17.976035    23.502957    21.956828    9276.5395    2207.1921    1419.3616    2562.7762   -1092.8684   -419.95603    751.09871   -3599.6049 
 3508000    228.86122   -4260.2169   -3867.9566   -4260.2169            0    1000.7496    18.082777    23.298944    22.256697      9376.96    1677.6067    1248.2217    76.420322    212.50856    889.20862   -645.52158   -3731.1007 
 3509000    241.58289   -4273.2621   -3859.1973   -4273.2621            0    2052.5799    18.259256    23.301936     21.99542    9358.5237    2992.5044    2111.8322    1053.4032    338.94522   -156.21398    476.70625    -3579.052 
 3510000    237.16323   -4278.2334   -3871.7438   -4278.2334            0    1724.6309     18.09102    23.412556    22.081096    9352.6029    1991.9471    1992.5709    1189.3748   -432.50721    -1112.111   -109.64047   -3636.5073 
 3511000    230.63898   -4279.9619   -3884.6546   -4279.9619            0    1554.6942    17.910766    23.545305    22.054298    9300.6163    3568.4298    973.30743    122.34545    231.55492   -119.48542   -399.84317    -3673.776 
 3512000    242.01793   -4257.0832   -3842.2728   -4257.0832            0     118.7346    18.053466    23.841663    22.006326     9472.065    1261.1797    -183.3839   -721.59195    123.51771    7.1597394   -292.03785   -3825.8707 
 3513000    234.48958   -4256.9722   -3855.0651   -4256.9722            0    1898.2732    18.129544    23.239398      22.0403    9286.0123   -38.663992    3133.8972    2599.5863   -601.50728   -567.35694   -177.37018   -3597.9877 
 3514000    233.54634   -4304.5274   -3904.2369   -4304.5274            0    1572.8823     18.08967    23.387575    22.023978     9317.762    2477.7498    1792.5511    448.34601    508.69661    110.64954    265.80093    -3690.498 
 3515000    222.52958    -4261.654   -3880.2459    -4261.654            0    2356.2418     17.79454    23.649795    22.146472    9320.0598    3690.7954    2630.3647    747.56535    208.70279    27.745425    179.49719   -3559.9773 
 3516000    240.56504   -4292.1102   -3879.7899   -4292.1102            0    1952.5555    17.913931    23.675457    21.958901    9313.2201     2561.461    1874.5661    1421.6394    820.07843    133.62382   -9.8438154   -3614.5865 
 3517000    240.16263   -4290.9032   -3879.2727   -4290.9032            0    1283.8707    18.158482    23.159327    22.188428    9331.0822    986.22677     2378.729    486.65624   -256.04943   -63.876578   -110.78872   -3704.5581 
 3518000    226.64509   -4298.2514   -3909.7895   -4298.2514            0    1718.2372    18.172885    23.291323    21.917633    9277.0881    1208.4376    1605.5576    2340.7163   -1315.5549    601.26284   -472.28432   -3677.3175 
 3519000    228.36237   -4274.0826   -3882.6773   -4274.0826            0    2102.9133    17.794441    23.718462    22.067851    9313.8858    2712.8819    274.05921    3321.7987    320.93096    103.28317     251.8076   -3597.0313 
 3520000    226.16307   -4294.0924   -3906.4566   -4294.0924            0    815.37862    17.947555    23.592575    22.107331    9360.8859    833.02126    826.48931    786.62528    400.81066    483.76715    204.60957    -3795.142 
 3521000    237.13167     -4302.81   -3896.3744     -4302.81            0    2597.0535    18.096417    23.185006    22.022207    9239.7588    1991.7607    4303.8252    1495.5746    258.18433   -371.50834   -127.44627   -3546.4152 
 3522000    241.34895   -4282.5462   -3868.8824   -4282.5462            0     610.5819    18.124031    23.606997    22.031428    9426.2335     2110.877   -325.75695    46.625661    408.29395     11.38073    258.00607   -3784.9445 
 3523000    241.75133   -4314.8317   -3900.4782   -4314.8317            0    3390.0748    17.923614    23.464007    21.989615    9247.9479     2690.568    2640.2991    4839.3575   -797.89463    679.58857    13.915716   -3443.2526 
 3524000    242.54164    -4244.594   -3828.8859    -4244.594            0    1241.8955     18.36128    23.191405    22.137715    9426.7678    213.73674    2778.1872    733.76258    -568.8366    543.64646   -681.57776   -3658.1505 
 3525000    238.30935   -4283.5539   -3875.0998   -4283.5539            0    2674.1223    18.161551    23.261101     21.93625    9267.1374    1677.9044     1280.041    5064.4214   -109.14151   -359.74675   -747.44699   -3513.6877 
 3526000    246.11257   -4278.6099   -3856.7813   -4278.6099            0    1215.5231    17.889059    23.528896    22.164891    9329.4201    2212.4447    869.16802    564.95659    28.190099   -429.27877    110.10813   -3691.3972 
 3527000    240.08956   -4270.7158   -3859.2105   -4270.7158            0    1591.9654    18.065434    23.605542    22.003522    9383.2781    1980.4372    1557.3776    1238.0814   -782.74004   -99.283649   -628.91557   -3641.3573 
 3528000    237.24274   -4299.7382   -3893.1122   -4299.7382            0    2944.4585    18.210665    23.084716    22.064949    9275.8408    3140.9703     4152.903    1539.5023    89.972324   -710.79067    507.28942     -3494.79 
 3529000    226.76055   -4302.7564   -3914.0966   -4302.7564            0    427.83933    18.181001    23.395357    22.105216    9402.4764   -266.02166   -498.30183    2047.8415   -648.53605    183.15542    397.88802   -3855.4289 
 3530000    245.80873   -4279.8443   -3858.5366   -4279.8443            0     2160.057    17.841454    23.851163    22.014739     9368.139    3044.6715    1496.6934    1938.8061   -94.092232    453.59203    277.74837   -3563.4194 
 3531000    239.52074   -4266.9137   -3856.3834   -4266.9137            0    1856.2382    17.995466    23.584937    22.129319    9392.1678    1170.8814    2162.4025    2235.4307     247.3223   -60.730958    777.01874   -3602.1249 
 3532000    243.54118   -4286.3341   -3868.9128   -4286.3341            0   -17.786953    18.353558    23.467952    22.039778    9492.9823    -2010.068    485.94472    1470.7624   -163.78141    473.18137    31.856942   -3871.3754 
 3533000    233.59259   -4276.2204   -3875.8507   -4276.2204            0    2790.9642     18.13825    23.240592     22.15131    9337.7442    2786.7007    1728.8837    3857.3082    379.56708    325.64932    407.87639   -3495.7732 
 3534000    231.94472   -4308.6474   -3911.1021   -4308.6474            0      1404.84    17.970861    23.539277    22.093107    9345.8498    2245.5508    1857.6948    111.27442   -102.00147    642.84761    425.37246   -3719.6229 
 3535000     232.2228   -4313.8381   -3915.8162   -4313.8381            0    1630.4684    17.934687    23.608344     22.02554    9325.7954    1894.4794    1438.5733    1558.3525   -688.62729   -205.89727    6.7588225   -3694.0608 
 3536000    230.05695   -4294.6181   -3900.3083   -4294.6181            0    1014.6985    18.169361    23.279567    22.084968    9341.3863    1714.5151    444.48609     885.0944   -965.89311   -680.03243    294.50207   -3762.0713 
 3537000    239.19372   -4284.1073   -3874.1375   -4284.1073            0    840.67928    18.251088    23.158086    21.997006    9297.2604     799.6641    951.99169    770.38205   -207.81041    40.531308   -35.704786   -3760.1489 
 3538000    234.18432   -4285.1492   -3883.7653   -4285.1492            0    837.15037    17.972589    23.606455    22.084835    9369.9132    1951.8237    513.63663    45.990811    294.26684   -225.82661    818.98014   -3769.3682 
 3539000    240.61955   -4295.4267    -3883.013   -4295.4267            0    1644.8975    18.026723    23.523219    21.965402    9314.3528    1191.0507    2942.6713    800.97043    737.66088   -122.02867     656.7565   -3659.5697 
 3540000    236.22993   -4299.5183   -3894.6283   -4299.5183            0    2219.0888     17.95708    23.333243    22.165862    9287.4279    1118.6114    2621.3563    2917.2988   -358.50815     148.1452   -113.46463    -3594.058 
 3541000    229.22477   -4283.7329   -3890.8495   -4283.7329            0    1624.1647    18.060351    23.528319    21.993944    9345.8798    1423.6937    1304.3847    2144.4158      240.038    382.15291    135.73455   -3669.4757 
 3542000    231.71363   -4289.3376   -3892.1884   -4289.3376            0    880.17254    17.943527     23.52087    22.247329    9389.4267    950.29213    500.29984    1189.9257   -323.16675    79.880031    9.1586817   -3771.6618 
 3543000    240.91213   -4289.4086   -3876.4934   -4289.4086            0    1496.1771    18.084638    23.326933    22.112768    9328.4731    736.09205     1316.086    2436.3532   -428.23544    659.11256    168.29408   -3672.9442 
 3544000    239.38869   -4290.8611   -3880.5571   -4290.8611            0    1095.9255    18.205261     23.41665    22.009038    9382.5903    2068.2715    2652.3064   -1432.8012    -434.9542    -154.8803    247.16381   -3730.5956 
 3545000    224.52679   -4315.3456   -3930.5144   -4315.3456            0    1078.4566     17.94284    23.449476    22.222538    9350.1374    2905.1818    1230.8583   -900.67028   -636.47864   -294.91585    346.09444   -3783.4537 
 3546000    238.75282   -4275.3077   -3866.0935   -4275.3077            0    3662.9205    17.960154    23.740853    21.652297    9232.3091    3553.6856    2052.2953    5382.7806   -143.45871   -262.38101    -53.47457   -3372.9041 
 3547000    218.95745   -4274.5059   -3899.2203   -4274.5059            0    3314.4486    18.012102    23.205282    22.202129     9279.955    3175.9144    3056.7705     3710.661    119.48881    205.28013    552.40341   -3450.6474 
 3548000    231.20043   -4274.0553   -3877.7856   -4274.0553            0     1570.413    18.123477    23.560102    21.950865    9372.8207    1473.6268    1416.6946    1820.9176   -115.04681   -248.30343   -43.773484   -3663.1212 
 3549000    232.69097   -4270.7076   -3871.8833   -4270.7076            0   -99.236625    18.005678     23.71737    22.096271    9436.1534    939.11865   -1997.0522    760.22365    148.15479    814.13417    281.46836   -3885.5399 
 3550000    227.81565   -4284.3414   -3893.8732   -4284.3414            0    1316.2271    18.140739    23.370368    22.055527    9350.5674    1090.4536    1893.8467    964.38081   -298.27357   -389.12159    496.54445   -3714.3814 
 3551000     240.9578   -4265.3173   -3852.3238   -4265.3173            0    1604.4035    18.284732    23.277101    21.896605    9319.5357    332.21463    2256.6339     2224.362    1362.2262    508.76172     528.4008   -3634.2599 
 3552000    239.71343   -4301.4205   -3890.5598   -4301.4205            0    25.343953    18.013951    23.400808    22.376072    9432.4321   -6.9860595    1685.1635   -1602.1456    319.65168   -523.64236    744.45515   -3887.0735 
 3553000    236.00542   -4306.9311   -3902.4259   -4306.9311            0    1185.8623    18.146259    23.585449     21.86163    9356.5082   -1063.1442    2412.8818    2207.8492    322.79382    160.47956   -393.29334    -3740.609 
 3554000    249.69306   -4287.5101   -3859.5447   -4287.5101            0    2937.5458    17.880265    23.379569    22.250212     9301.321    2621.2626    4370.0637     1821.311   -269.49747   -363.22999   -247.23304   -3461.0659 
 3555000    225.16605   -4278.1468   -3892.2199   -4278.1468            0    1330.2693    18.170998    23.456718    21.932546    9348.3526    1205.6943    1122.3634    1662.7501    28.761061   -67.108762    96.239678   -3710.8561 
 3556000    243.27438   -4273.0886   -3856.1246   -4273.0886            0    1327.9192    18.156396    23.308586    22.143417     9371.092    758.50983     1527.285    1697.9628   -743.04627    382.62941    273.89037   -3674.6408 
 3557000    243.40509   -4300.6379   -3883.4499   -4300.6379            0    3149.4932    17.851028    23.534014    21.992795    9239.3125    2896.5776    4235.0707    2316.8313   -36.888255   -101.45814    774.29057   -3459.0686 
 3558000    244.52655   -4302.5176   -3883.4075   -4302.5176            0    1238.6562    18.030783    23.654129    21.967802    9369.3221    274.06525    1479.5749    1962.3285   -67.308964    158.18423   -335.49111   -3714.1551 
 3559000    234.90439   -4284.9955   -3882.3774   -4284.9955            0    2367.3076     18.04279    23.334426    22.105663    9306.8852    2662.6188     1939.114      2500.19   -319.65769   -248.22941   -226.66348   -3561.0595 
 3560000    235.10068   -4320.1509   -3917.1964   -4320.1509            0    163.23944    18.404401      23.2546    21.931505    9386.3988   -802.98263    384.94041    907.76055    883.69904    -12.39779   -148.37996   -3894.8504 
 3561000    232.95852   -4282.3023   -3883.0194   -4282.3023            0    1130.1165    17.999582    23.504276    22.198478    9391.4465    1748.5125    924.60176    717.23533   -11.670576   -7.7618588    311.29176   -3728.2334 
 3562000    231.07977   -4259.1066   -3863.0438   -4259.1066            0    1381.6965    18.020252    23.705071    21.853371    9335.1337    1630.9849     245.5581    2268.5467   -15.383076    436.96823    898.04102    -3674.935 
 3563000    240.92727   -4264.5781    -3851.637   -4264.5781            0    676.57541    18.207627    23.397538     22.22661    9468.8392    1249.4458   -281.38255     1061.663    771.49564    103.60242     153.8442   -3758.2064 
 3564000    248.82759   -4313.9689   -3887.4869   -4313.9689            0    2667.1273     18.13619     23.26894    22.092478    9323.2445    2237.5599    3827.3349    1936.4872   -51.546804   -360.65674   -92.698316   -3524.8378 
 3565000    225.15432   -4296.9189   -3911.0121   -4296.9189            0    1362.2973    18.031812     23.53662    22.060338    9362.5819    2433.7136    499.25763    1153.9205   -1036.3665    158.97504   -182.65853   -3724.9991 
 3566000    248.83967   -4286.4268   -3859.9241   -4286.4268            0    921.70185    18.021573    23.559946    22.122432    9392.9033    154.25673    708.05974    1902.7891    926.01013    380.09815   -593.24675    -3733.664 
 3567000    223.65482    -4301.838   -3918.5012    -4301.838            0    1533.8511    18.233275    23.531042    21.823869    9363.4866    633.27106    2203.8952     1764.387    -513.1357   -173.44865    283.17497   -3709.0434 
 3568000    234.98973   -4290.3912   -3887.6268   -4290.3912            0    721.58713    18.086003     23.24013    22.262346    9357.3329     1173.429    2354.5539   -1363.2216   -769.69338   -102.23362    481.99297   -3789.1539 
 3569000    226.61048   -4314.5704   -3926.1678   -4314.5704            0    1850.9219     18.07018    23.544582    21.838472    9291.2834    1495.6941    1590.1658    2466.9059   -693.06069    61.119103    119.32943   -3675.3607 
 3570000    242.08122   -4299.1327   -3884.2137   -4299.1327            0    1894.1085    17.985504    23.473751    22.073968    9319.3474    1543.3137    2073.0023    2066.0094    386.89006    58.170187    250.82868   -3626.7796 
 3571000    233.02888   -4286.2905    -3886.887   -4286.2905            0    1212.8387    17.911244    23.564128    22.144186    9346.2385    1807.0025    836.45282    995.06076    -577.7633    583.76513    -184.7775   -3721.5707 
 3572000    251.67321    -4260.059   -3828.6997    -4260.059            0    2181.5859    18.230709    23.205124    21.983975    9300.2297    1380.5299    3152.3953    2011.8324   -193.31737   -613.87431   -132.61083   -3532.8018 
 3573000    227.09897    -4308.987   -3919.7472    -4308.987            0    1959.1405     18.04868    23.416659    22.071789    9328.4158    1832.3289    1586.4605    2458.6323    91.984866   -27.988401    386.39918   -3653.2151 
 3574000    240.62126   -4304.1563   -3891.7397   -4304.1563            0    2114.0487    17.771514    23.628109    22.129391    9292.2921    3235.8989    2590.6299    515.61731   -585.29791   -564.41217    945.13425   -3605.2469 
 3575000    241.31092   -4313.9835   -3900.3848   -4313.9835            0    1068.2524    18.028289    23.565033    22.060032    9371.9229    971.35029    914.48987    1318.9171   -28.934087   -549.23544    121.16171   -3754.3762 
 3576000    226.34675   -4283.5674   -3895.6168   -4283.5674            0    2419.2327    18.120498    23.229532    22.008884    9264.2147    1585.0986     3635.566    2037.0335   -966.54874    402.75201    72.895488   -3568.7565 
 3577000    233.11651   -4298.2631   -3898.7094   -4298.2631            0    3177.3715    18.268629    23.239118    21.891943     9294.155    3051.4938    3346.8627    3133.7579    -622.1402   -337.05084    -235.5462   -3468.0303 
 3578000    245.25967   -4262.9885   -3842.6218   -4262.9885            0    695.08725    18.053252    23.557188    22.108356    9402.3267    400.20353   -234.94239    1920.0006    148.96735   -670.92192    377.34547   -3747.3091 
 3579000     226.2852   -4282.1646   -3894.3195   -4282.1646            0     2166.484    17.817228    23.685438    22.142068    9344.1486    3189.5797    727.33612    2582.5362   -230.66424   -154.68195   -722.59047   -3599.0823 
 3580000    242.48112   -4260.0227   -3844.4184   -4260.0227            0    4004.8335    18.219107    23.227717    21.863245    9252.2685    4455.0678    4283.1425      3276.29       -938.6    -679.2295    787.68053   -3304.0268 
 3581000     232.5979   -4286.9019   -3888.2371   -4286.9019            0    1610.2389    18.149743    23.393384    22.077711     9373.841    1793.0636    2114.0681    923.58499   -371.82248   -434.32729   -497.02641   -3668.1047 
 3582000    228.30476   -4295.5236   -3904.2171   -4295.5236            0    3321.8952    17.876487    23.121904    22.285232    9211.3422    3767.8202    4022.5584    2175.3071   -797.37005    634.72502    1100.4959   -3457.9604 
 3583000    218.39954   -4278.4738   -3904.1445   -4278.4738            0    1380.5092    17.920619    23.755382    21.960686    9348.9089    2982.7254    194.53851     964.2638   -734.01281   -549.48753   -534.97167     -3715.92 
 3584000    244.84755   -4267.8583    -3848.198   -4267.8583            0    1117.0019    17.944332     23.47842    22.189055    9348.3503    850.62477     1996.395    503.98585    411.20912    500.71964    581.86783   -3695.9103 
 3585000    236.67162    -4296.147      -3890.5    -4296.147            0    2251.9777    18.146416    23.290785    22.019482    9306.4077    2631.6005    1932.8034    2191.5291    1051.2098   -602.58047    320.52995   -3584.8516 
 3586000    237.49536   -4296.0183   -3888.9594   -4296.0183            0    1345.0418    18.020421    23.469883    22.004356    9306.4604    1955.7661    1027.6616    1051.6977    205.85507    312.30609    213.48323   -3706.4034 
 3587000    228.89897   -4298.5589   -3906.2339   -4298.5589            0    1080.5224    17.885696    23.657695    22.142285     9369.161     1090.765    715.02232    1435.7798    1270.0283    1392.4444    984.19122   -3758.5918 
 3588000     247.9999   -4281.3577   -3856.2944   -4281.3577            0    2158.2802    18.141176    23.511705    21.765273    9283.5415    270.43163    2232.8341    3971.5749    681.78849    370.94505    54.252202   -3564.0828 
 3589000      229.709   -4309.6789   -3915.9656   -4309.6789            0     3275.547    18.150953    23.164608    22.013049    9255.6001    1346.9773    3911.6921    4567.9716    -823.6647   -14.835444   -179.15738    -3473.821 
 3590000    231.27494   -4279.0722   -3882.6749   -4279.0722            0    645.30521    18.130105    23.436283    22.171548    9420.7411    465.29556   -57.561214    1528.1813   -160.89811    198.68626    589.93223   -3794.0152 
 3591000    226.46971   -4300.3598   -3912.1985   -4300.3598            0    2156.6153    17.855258    23.710037    21.830717    9242.0086     2558.164    943.45861    2968.2233   -357.63721    301.37448    -118.6414   -3621.5186 
 3592000    239.26847   -4282.6112   -3872.5133   -4282.6112            0    251.50507    17.986202    23.550591    22.255454    9427.0922    1025.2807     133.8477   -404.61325   -13.363779   -524.55076    10.649781   -3837.9352 
 3593000    241.67695   -4322.8323   -3908.6063   -4322.8323            0    948.19263    18.157386    23.525515    21.933101    9368.9843   -213.47871     1557.589    1500.4676   -388.28305    665.91726    93.562293    -3779.048 
 3594000    229.21291   -4288.7925   -3895.9294   -4288.7925            0    549.14578    18.206387    23.236748    22.257769    9416.3104    421.10629    1978.3034   -751.97233    754.99325   -642.52591    131.87694   -3820.5168 
 3595000    225.50934   -4296.4084   -3909.8931   -4296.4084            0    1048.1733    18.064643    23.565566    22.040695    9382.8018    1903.0176    1701.4786   -459.97636    938.72134    -198.9844   -84.109373   -3766.4626 
 3596000    236.82646   -4271.4364   -3865.5239   -4271.4364            0    865.55062    18.009648    23.507542    22.150643     9377.753    1174.1271    1746.0655   -323.54075    1118.2756    22.360476    729.98385    -3747.147 
 3597000    248.98499   -4303.9796   -3877.2278   -4303.9796            0     871.8161    18.207566     23.17262    22.200626    9366.8219    331.48463    2273.5124    10.451276    -368.5771     333.1823   -109.65028    -3758.133 
 3598000    223.86536   -4300.5012   -3916.8036   -4300.5012            0    2133.7211    18.175031    23.326518    21.928561    9296.8371    1128.4556     2919.632    2353.0757   -132.69516   -99.198237   -266.96579   -3627.5034 
 3599000    232.19942    -4272.897   -3874.9152    -4272.897            0    3291.2633    17.816559    23.613744    21.992704    9252.6748    4227.5616    3723.2193    1923.0091    228.38604     402.2956    524.09845   -3430.7896 
 3600000    228.67933   -4299.2266   -3907.2781   -4299.2266            0    1601.3055    17.948578    23.620533    22.000677    9327.2966    3386.6582    1297.5618    119.69646   -935.67594   -253.58841   -297.62825    -3689.454 
 3601000    233.20093   -4316.6594    -3916.961   -4316.6594            0    2271.8462    18.118847    23.123026    22.198128    9300.1846    3683.1597    1826.4969    1305.8819   -276.72224    404.22304    526.51008   -3608.8222 
 3602000    253.48224   -4310.1288   -3875.6689   -4310.1288            0    2293.2762    17.962445    23.444834    22.048935    9285.3913    3111.2285    2288.5102    1480.0899    156.17884    408.79004    372.43681   -3565.1182 
 3603000    232.04277   -4270.4408   -3872.7274   -4270.4408            0    511.94301     18.06731    23.722897    21.787549     9338.338    872.80767    380.37478    282.64659    474.83341   -143.74796   -290.13492   -3803.0059 
 3604000    239.23562   -4299.0496   -3889.0079   -4299.0496            0    1009.6071    17.912329    23.435214    22.230399    9331.8602    2611.5937    489.75269   -72.524991    471.14151   -376.38386   -109.59121   -3751.6048 
 3605000    248.91157   -4299.2161   -3872.5902   -4299.2161            0    1077.1327    18.147434    23.628861    21.851694    9370.0764    602.02846    1116.3447    1513.0251    -552.7777   -590.16884    124.38043   -3725.3968 
 3606000    216.75229   -4283.0396   -3911.5336   -4283.0396            0     1875.395    18.046701    23.289623    22.134143    9302.9994    1381.6849    3060.1175    1184.3825   -11.125508   -691.35391    319.28512   -3657.0899 
 3607000    219.28712   -4278.4996    -3902.649   -4278.4996            0    2077.5756    18.091387    23.282381    22.065826    9294.3591    742.53409    2180.2003    3309.9923   -739.07132     519.9543   -68.742594   -3621.0364 
 3608000    236.82659   -4288.5159   -3882.6032   -4288.5159            0     3738.189    18.108803    23.436432    21.790209    9247.8891    3340.1081    4554.8093    3319.6495   -378.17624    663.88888   -479.96265     -3378.43 
 3609000    236.26156   -4296.6571   -3891.7129   -4296.6571            0    2195.6193    18.017901    23.471879     22.09205    9343.0373     3236.368    1206.0654    2144.4246   -259.12254   -309.04601    1391.3823   -3592.5408 
 3610000    238.30942   -4295.9087   -3887.4545   -4295.9087            0   -205.66369    18.235374    23.496324    22.053111    9448.9699    -821.5558    368.11984   -163.55511    925.49521    104.34144    250.47247   -3915.7957 
 3611000    241.88337   -4289.8207   -3875.2409   -4289.8207            0    634.71369    18.136741    23.228508    22.183212    9345.5528    447.93837    1867.8039   -411.60117    358.36622    179.52418    453.05927   -3788.7324 
 3612000    240.73424   -4299.2248   -3886.6145   -4299.2248            0    575.83177    17.983378    23.717505    22.046017     9403.086    729.51532   -509.24853    1507.2285    801.19063   -621.73761   -30.994032   -3807.6482 
 3613000     223.7701   -4279.5828   -3896.0485   -4279.5828            0    180.54275    17.970075    23.628459    22.201026    9426.6702   -156.63427    693.05103    5.2115038   -519.53055    -345.9798    401.01363   -3871.2278 
 3614000    246.44274   -4270.0007   -3847.6063   -4270.0007            0    511.16551    18.541394    23.216657    21.917156    9434.6601   -800.72767    30.228686    2303.9955    399.85531    340.72375    425.88252   -3777.2726 
 3615000    258.70733   -4309.1437   -3865.7282   -4309.1437            0    1418.0778    18.112237    23.353927    22.084229    9341.4491    1397.0662    415.18902    2441.9781    565.05951   -44.135142    853.38231   -3672.5357 
 3616000    231.53781   -4303.1595   -3906.3116   -4303.1595            0    1590.7995    17.924252    23.715068    22.020991    9360.5697     1702.235    2235.8114    834.35207    221.07906   -68.073547    336.20821   -3689.1447 
 3617000    229.07548   -4314.3569   -3921.7294   -4314.3569            0    1287.4894    18.078629    23.402433    22.151159    9371.7989     968.1693    2444.1007    450.19804   -1009.4627   -667.67148    287.24371   -3745.7578 
 3618000    230.85298   -4298.2143   -3902.5402   -4298.2143            0    647.90872    18.210252    23.236987    22.184554    9387.4254    165.94233    996.74818    781.03565   -66.518103   -491.98502   -198.94271   -3813.8376 
 3619000    230.02277   -4272.7457   -3878.4945   -4272.7457            0    1656.8539    18.081847    23.576083    22.010719    9383.1502    2533.4058    1763.0992     674.0567    507.67995    98.923894      608.419   -3651.7646 
 3620000    234.15982   -4300.4457   -3899.1038   -4300.4457            0    1473.0171    17.811758    23.857112    22.000214    9348.7072    2557.5465   -644.26048    2505.7652    17.898257    17.640302   -330.92696   -3698.2707 
 3621000    231.87881   -4298.2017   -3900.7694   -4298.2017            0    2125.8547    18.135929    23.296989     22.06151    9321.2646    1158.8603    3393.1372    1825.5666    2.8691881   -57.970217    295.81632   -3611.7784 
 3622000    251.20621   -4283.6486   -3853.0898   -4283.6486            0     856.8525    18.328318    23.034234    22.161136     9355.961   -626.15662    636.45644    2560.2577    -157.8313    1162.7322    673.38371   -3736.1747 
 3623000    231.09743   -4316.4968   -3920.4037   -4316.4968            0    1829.6786    17.907998    23.456973    22.094517    9281.1869    2508.3516    1544.4612    1436.2229    -510.2154     198.3159     391.9871   -3672.7446 
 3624000    244.54738   -4287.3062   -3868.1603   -4287.3062            0    1118.6529    17.990747    23.528216    22.102979    9355.9738    3177.0664   -145.28194    324.17425   -2013.6111   -406.83312    26.276066   -3715.5232 
 3625000    256.42342    -4291.999    -3852.498    -4291.999            0    1568.6359    18.159434    23.333406    22.027454    9333.5044    2409.8573    1612.8251     683.2252    557.26325    231.45553   -176.73679   -3638.9759 
 3626000    228.62547   -4275.9453    -3884.089   -4275.9453            0    2589.1027    17.994711    23.372182     22.06996    9282.0878    3109.6517    2200.8553     2456.801    70.111179   -986.53937     304.0506   -3533.6029 
 3627000    240.56201   -4288.3435   -3876.0285   -4288.3435            0    1779.7659      17.9437    23.677914    21.948819    9325.3816    2801.1565    1440.3494     1097.792   -704.24509    394.46302   -129.73183   -3633.9783 
 3628000    234.20064   -4289.0362   -3887.6243   -4289.0362            0    2353.0532    17.916795    23.535902    22.154523    9342.2949    2834.1314     1006.808    3218.2202    1130.5592   -394.72058    46.789145    -3567.026 
 3629000    229.65426   -4261.1138   -3867.4942   -4261.1138            0    1411.3352    18.241867    23.391981    22.013318    9393.3778     1116.219    1399.7566    1718.0301    567.75099    622.80985    422.39177   -3674.1515 
 3630000    232.48234   -4313.7853   -3915.3185   -4313.7853            0    951.40005    18.208505    23.392347    21.960257    9353.7443    692.79273   -374.22231    2535.6297   -214.99928    260.94184    87.605185   -3785.5335 
 3631000    234.29711   -4317.7306   -3916.1533   -4317.7306            0    2157.6828    18.031307    23.365536    22.036613    9284.2708    2493.0123    1857.6195    2122.4167    481.15951    508.37037    402.91339   -3623.9997 
 3632000    248.05345   -4278.6875   -3853.5324   -4278.6875            0    2215.1993    18.077764    23.490286    21.910677    9304.4093    2322.0547    1254.9235    3068.6196    434.89556    3.3357561   -139.39872   -3552.9404 
 3633000    231.71094   -4297.1689   -3900.0243   -4297.1689            0     1717.645    17.806403    23.478342    22.247262    9300.7979    2561.6711    1870.0972    721.16679    163.57092   -553.81052   -483.53089   -3667.0384 
 3634000    226.13802   -4299.4775   -3911.8846   -4299.4775            0     1092.292    18.051089    23.551726    21.972523    9341.2732    1303.0093   -236.88721     2210.754   -208.06696    531.22198    99.979912   -3763.0785 
 3635000     223.4134   -4311.9675   -3929.0446   -4311.9675            0   -374.72402    18.296762    23.426655    22.068325    9459.1886    -1083.254   -249.22224    208.30412    260.53349   -654.26979   -6.8365278   -3980.7387 
 3636000    236.42401   -4291.8886   -3886.6659   -4291.8886            0    448.39578    18.046958    23.429218    22.166366    9372.5179    1041.1793    360.04188   -56.033852   -72.720923   -99.130145   -99.509701   -3825.3753 
 3637000    234.08384   -4304.0063   -3902.7946   -4304.0063            0    2246.4069    18.197741    23.424995    21.704494    9252.2348    1679.5385    2535.2035    2524.4788    936.30897   -340.94127   -104.15255   -3599.6771 
 3638000    236.71737   -4293.7712   -3888.0458   -4293.7712            0    1893.0692    18.005387    23.243527    22.273526    9321.6644    2065.0376    1850.7714    1763.3985   -190.90745   -776.52392    123.15828   -3630.6888 
 3639000    220.05995    -4311.547   -3934.3718    -4311.547            0    2390.7567    17.977734    23.462617    21.983306    9272.6615    2553.3296    2625.2744     1993.666   -381.98752    286.35928    249.79388   -3611.0644 
 3640000    224.61012   -4270.8699   -3885.8958   -4270.8699            0    1636.6791     17.82204    23.600728    22.126791    9306.8185    3281.6787    2440.7394   -812.38089   -1251.7214    -1889.613   -351.77859   -3663.7487 
 3641000    223.84421     -4298.69   -3915.0287     -4298.69            0    1137.4795    18.047356    23.358288    22.090983    9312.5719    1294.5772    2197.7258   -79.864447   -269.40284   -290.34062    602.84754   -3760.5427 
 3642000    231.75759   -4303.2994   -3906.0748   -4303.2994            0    2427.6508    18.243074    23.291137    21.867644     9291.604    1768.5073    1892.5434    3621.9019   -436.48261    175.26756   -666.71912   -3577.1074 
 3643000    228.42102   -4297.2249   -3905.7191   -4297.2249            0    1557.2542    17.970385    23.464373    22.184214    9354.2803    2146.6483    2229.2361    295.87804   -1659.8012    108.49854    25.118404   -3693.2744 
 3644000    227.11387   -4283.5803   -3894.3149   -4283.5803            0   -34.171323    18.139066    23.812606    21.899621    9459.2881     43.34169    -736.9526    591.09694   -784.25429    313.32018   -471.58663    -3899.029 
 3645000    238.64933   -4276.6637   -3867.6269   -4276.6637            0    2138.7234    17.896141    23.377701     22.19377    9285.2217    3252.1801    2248.6301    915.35993   -23.781414    267.26157    339.09593   -3578.0107 
 3646000    223.57627    -4289.116    -3905.914    -4289.116            0    998.21243    18.299382    23.386804    21.901177    9372.9169    979.67768    48.881987    1966.0776    338.07821    177.18853    152.70081   -3769.4639 
 3647000    213.11234   -4283.7386   -3918.4713   -4283.7386            0    1941.0109    17.951404    23.398474    22.187083    9319.3614    2533.3507    1705.5023    1584.1797   -107.95641    750.19815    428.91577    -3654.662 
 3648000    225.74421   -4308.5244   -3921.6066   -4308.5244            0    364.58187    18.038969     23.56059    22.031141    9363.4276    836.45344   -702.38395    959.67612    595.58783   -103.25053    364.11825   -3871.8207 
 3649000    240.86942   -4261.1057   -3848.2637   -4261.1057            0    1983.7658     17.95279    23.415864    22.110235    9294.7025    3846.8216   -518.58101    2623.0567   -538.53513    66.665695   -39.254068   -3579.3569 
 3650000    231.20922   -4295.4148   -3899.1301   -4295.4148            0    853.22767    18.081868    23.363915    22.152273    9358.5205     622.5878    466.44841    1470.6468    341.30392    139.24415    521.21403   -3782.6778 
 3651000    228.44876   -4256.1735   -3864.6202   -4256.1735            0    1209.2097    18.344435    23.493904    21.727245    9364.0603   -400.23234    996.44428    3031.4173   -1306.2126   -37.708238    -365.5946   -3699.4842 
 3652000    220.10097   -4288.8007   -3911.5552   -4288.8007            0    1740.2232    18.010042    23.495405    22.103677    9353.2426    2576.4562    1287.8976    1356.3158   -10.998185   -1308.0227   -209.21479   -3674.1758 
 3653000    245.52482   -4301.1976   -3880.3765   -4301.1976            0    2388.9459    17.794869    23.580724    22.006401    9234.2359    2183.4315    2431.6069    2551.7994    1057.7494    378.79022    65.953686   -3558.6527 
 3654000    209.67719   -4269.4958   -3910.1163   -4269.4958            0    857.20606    18.141313    23.515251    21.953616    9365.3587    858.43685    788.34454     924.8368   -1085.8056    62.794452    366.22049   -3793.0356 
 3655000    237.03383   -4305.2835   -3899.0157   -4305.2835            0    66.102086    18.082277    23.381746    22.276691    9418.4779   -308.96036    -183.6001    690.86672   -295.81288    486.20609   -690.32945    -3889.936 
 3656000    223.67667   -4320.0259   -3936.6517   -4320.0259            0     1780.823    18.139929    23.369955    22.012435    9331.7167    3271.3004    1462.2499    608.91877    527.15225   -30.364573    533.96816   -3694.2933 
 3657000    233.26631   -4310.6452   -3910.8347   -4310.6452            0    1632.9374    18.002119    23.597064    21.974444    9334.6818    2111.6004    507.19245    2280.0194   -944.10588   -642.67713   -82.247739   -3688.5319 
 3658000    239.64665   -4315.9339   -3905.1877   -4315.9339            0     962.4892    17.944276    23.552927    22.176803    9372.8087    523.10697    505.72495    1858.6357   -101.97437   -240.95728    88.022458   -3773.6224 
 3659000    241.77959   -4313.2497   -3898.8477   -4313.2497            0    660.36815    18.287207    23.182234    22.161938    9395.2947    792.32478    1055.6598     133.1199    478.78178   -454.58923   -738.19483   -3808.3636 
 3660000    237.99897   -4268.0679   -3860.1458   -4268.0679            0    2155.1879    18.033636     23.39122    22.101583    9323.0831    2667.7491    1655.5862    2142.2285    175.45823    859.36099    515.49905   -3567.1101 
 3661000    221.97746   -4301.1026   -3920.6408   -4301.1026            0    1436.5123    17.823926    23.758857    22.006114    9319.0636    1483.7399     889.9321     1935.865   -1014.6674   -450.55708    521.98939   -3725.4059 
 3662000    232.28686   -4301.5655   -3903.4338   -4301.5655            0    1548.6702    18.005297    23.474865    22.095968    9339.3448    1931.3759    2280.5781    434.05648   -1026.0335   -608.07928   -386.33823   -3692.4976 
 3663000    232.35396   -4284.2095   -3885.9628   -4284.2095            0    2366.5633    18.189017    23.316794    21.917371    9295.3663    2353.3083    2685.5638    2060.8177   -595.14398    -326.7249    369.50651   -3565.1434 
 3664000    231.83488   -4294.0191    -3896.662   -4294.0191            0    2936.9101    17.883329    23.459976     22.09108    9268.1463    2928.6493    1815.4403    4066.6407    556.64812   -469.83976    172.88547   -3499.6904 
 3665000    229.94966   -4280.2481   -3886.1223   -4280.2481            0    410.63189    17.836035    23.708499    22.113138    9350.8859     1272.234    -625.6123      585.274   -161.34554    1288.0991    30.292975   -3830.1231 
 3666000    231.75234    -4273.336   -3876.1204    -4273.336            0    1408.1271    18.054107    23.357807    22.137523    9335.4895    2182.3232    600.13887    1441.9194   -108.81636     270.1197    86.299015   -3684.4059 
 3667000    228.87364   -4302.3412   -3910.0596   -4302.3412            0    2810.8118    18.099149    23.259247     21.95258    9241.4342    2620.2584    2909.1913    2902.9858    594.98075    292.00121    572.42442   -3531.2273 
 3668000    242.82943   -4267.0784   -3850.8771   -4267.0784            0    1137.2802    17.999578    23.438569    22.051135    9303.0289    892.26682    497.11638    2022.4573   -652.65635   -245.78359   -144.68076   -3696.5765 
 3669000    240.01476   -4270.6402   -3859.2631   -4270.6402            0    671.27752    17.966049    23.882501    21.912353    9402.0251    331.49859    18.849604    1663.4844    356.50538   -305.57706   -1541.4901   -3767.2182 
 3670000    244.35744   -4307.4514   -3888.6311   -4307.4514            0    874.01832    18.081448    23.359079    22.137776    9350.2434    761.53772    2261.2093   -400.69205   -97.302556    518.60025    566.73392   -3769.4467 
 3671000      223.881   -4272.0608   -3888.3364   -4272.0608            0    1776.4351    18.420113    23.137803    22.000055    9376.4442   -245.70542    1787.7106    3787.3002   -777.67074   -44.917942    340.95973   -3645.4163 
 3672000    232.92622   -4300.0385    -3900.811   -4300.0385            0    1284.5282    17.970275    23.599116    22.083041    9365.0334    935.69442    1628.0747    1289.8155   -798.24494    220.71786   -132.51511   -3725.3709 
 3673000    231.09071   -4295.3111   -3899.2295   -4295.3111            0    2341.7808    18.015171    23.452335    21.983427    9287.9506    3035.9845    1194.3529    2795.0049    138.44336   -203.59477   -44.562996   -3582.0231 
 3674000    225.87613   -4295.8927   -3908.7488   -4295.8927            0    1499.2448    18.079866    23.309985    22.042242    9289.5133    2377.7354    629.87962    1490.1194    443.07834    596.60421    28.093639    -3705.634 
 3675000    240.34133   -4293.3268   -3881.3899   -4293.3268            0    3079.3738     17.99552    23.358947    22.047118    9267.6471    3103.3287    1884.0349    4250.7579    1466.2335    859.24092    338.00027   -3465.1845 
 3676000    234.08127   -4299.8258   -3898.6185   -4299.8258            0      1604.34    17.926138    23.508501     22.12125     9322.263    2185.5722    1471.1417    1156.3061   -783.88391   -212.50689    27.357807   -3680.4994 
 3677000    237.47403   -4274.7686   -3867.7462   -4274.7686            0     580.5059    18.018974    23.645216    22.060579    9399.1858     546.1134    941.42633    253.97797   -341.18818    130.07431    223.40876   -3788.1719 
 3678000    243.91379   -4287.1067   -3869.0468   -4287.1067            0    1960.1774    18.075907    23.421293    22.026606    9325.2086    1630.8885    1609.9198    2639.7239    675.06601   -141.63081    551.60356   -3602.4654 
 3679000     236.2063   -4298.5995     -3893.75   -4298.5995            0    1164.7058    18.227225    23.224773    22.196523    9396.3023     864.3142     2071.811    557.99221   -537.44766    551.08842   -414.88108    -3734.144 
 3680000    232.13532   -4294.0888   -3896.2168   -4294.0888            0    2149.9261    18.073738    23.384147    21.949401    9276.6713    3648.4987    1692.1708    1109.1089    203.22699    639.04929   -542.00984   -3605.3517 
 3681000    228.58904    -4267.053   -3875.2592    -4267.053            0    1838.3931    17.846252    23.481815    22.183988    9296.4753    1901.1817    2882.0874    731.91024   -400.74086   -852.76039    386.21952   -3626.0106 
 3682000    250.55183   -4287.1115   -3857.6743   -4287.1115            0    2116.3537     18.00579    23.635241    21.861608    9303.6704    2727.6101    1501.8643    2119.5866    424.87021   -768.03825    137.88208   -3570.5179 
 3683000    227.04465    -4299.367   -3910.2202    -4299.367            0    1587.1479     18.05012    23.269449    22.173474    9313.2215    2877.8768    1434.2978    449.26928   -128.18606    927.74067    495.35978   -3694.6478 
 3684000    223.00699   -4292.0058   -3909.7794   -4292.0058            0    1529.4788     18.10875    23.416808    22.034442    9343.6859    1896.2161     676.7595    2015.4607   -891.32486   -87.516845    442.52296   -3701.3603 
 3685000    235.31886   -4279.2215    -3875.893   -4279.2215            0    477.44074    18.125433    23.611395    22.047394    9435.5515    1074.8809    931.20212   -573.76082     737.2569    277.11606    427.43095   -3810.1935 
 3686000    248.82682   -4290.5882   -3864.1075   -4290.5882            0    2674.7821    17.849865    23.428309    22.158982    9266.7125    2633.3436    2616.4855    2774.5172   -451.57724   -410.86074    142.62708   -3502.6228 
 3687000    222.94913   -4283.0224   -3900.8952   -4283.0224            0    171.11375    18.249914    23.458872    21.945793    9395.4853   -694.97843    245.46817    962.85152    -484.2285   -198.10206    57.183539   -3877.4486 
 3688000    251.39598   -4294.1649   -3863.2808   -4294.1649            0    1438.2792    18.159128    23.304514    22.062406    9336.5818    771.40195    1864.3769    1679.0589   -165.59491    319.82302     122.3824   -3667.4382 
 3689000      229.757   -4310.2368   -3916.4412   -4310.2368            0    547.04447    18.206475    23.404773    22.033316    9388.8018    53.665488    1532.5912    54.876732   -467.59555   -371.17384   -189.73989   -3841.5365 
 3690000    247.72954    -4276.155   -3851.5551    -4276.155            0    1885.9122    17.900002    23.664277    22.025449    9329.7732    516.13115    1516.0807    3625.5247   -350.90677   -526.67642    796.90354   -3594.9481 
 3691000    230.02812   -4274.9925   -3880.7322   -4274.9925            0    2317.0911    17.960401     23.45555    22.105658    9312.4748    3844.4654    1152.5091    1954.2987    15.452218   -502.11993    322.09918   -3566.0414 
 3692000    243.94147   -4292.2234    -3874.116   -4292.2234            0    1266.5867    18.307175    23.342261     21.93242    9372.3996    -1237.434    2101.8705    2935.3235   -933.08812   -121.28421    1119.7755   -3700.9903 
 3693000    235.89107   -4284.4673   -3880.1581   -4284.4673            0    908.89793    18.001271    23.554114    22.143823    9389.0692    1141.0468   -117.03791    1702.6849   -885.98774   -162.07395   -89.227634   -3755.7028 
 3694000    254.89387    -4299.778   -3862.8986    -4299.778            0    1050.0074    17.984248     23.89948     21.80491    9372.0593    860.05658   -931.04484    3221.0105    1152.2205    1031.3219    96.674141   -3719.3817 
 3695000    235.20839   -4295.1517   -3892.0126   -4295.1517            0    1071.8399    18.114777    23.353671    22.244605    9410.5031    3146.3789    894.08197   -824.94127   -147.73868   -186.72145   -808.76617   -3744.9105 
 3696000    230.34428   -4286.5665   -3891.7643   -4286.5665            0    2029.8015    18.225376    23.320787     21.95194    9330.2354    1149.0604     4133.429    806.91524   -12.782965   -24.573537    509.65092   -3615.5653 
 3697000    238.03439   -4295.8257   -3887.8429   -4295.8257            0    1621.1923    17.998721    23.402749    22.195855     9349.328    2220.8127    2960.9957   -318.23143   -536.79202   -187.86741    451.70712   -3666.7928 
 3698000    231.83222   -4276.9352   -3879.5827   -4276.9352            0    911.32658    17.919843    23.557022    22.101388    9329.8387    1656.4516     731.6312    345.89692      199.834   -473.24677    500.78348    -3755.582 
 3699000    245.46146   -4287.0224   -3866.3098   -4287.0224            0     2157.189    18.104974    23.439575     21.98254    9328.7944    1141.9606    3159.0079    2170.5984   -243.08635   -365.53062   -670.63099   -3572.8224 
 3700000     238.9114   -4300.4825   -3890.9965   -4300.4825            0    1389.3454    17.959742    23.315789    22.367702    9366.3763    1931.6934    2631.6944   -395.35172   -1123.9626   -420.22126    200.41328   -3701.2133 
 3701000    230.78889   -4276.0933    -3880.529   -4276.0933            0    1172.9205    18.225928     23.43898    21.824703    9323.4508    569.80603     1040.474    1908.4816     1440.422   -417.89432   -316.54196   -3721.0435 
 3702000    239.23259   -4289.0582   -3879.0217   -4289.0582            0    1165.7221    18.011365    23.405784    22.269655    9388.2208    1418.5907    1669.9568    408.61884    1161.2985   -396.76386   -902.76287   -3719.4139 
 3703000    230.99443   -4308.1104   -3912.1938   -4308.1104            0    709.00457    18.054635    23.578645    22.126105    9419.1679    49.291306    392.33558    1685.3868    628.63343   -487.96474    3.7052407   -3814.7986 
 3704000    222.50027   -4286.0074   -3904.6496   -4286.0074            0    1347.4766     18.06414    23.520212    21.894275    9302.2734    1239.1486    1044.8719    1758.4093   -210.02621       434.62    524.00654   -3721.8453 
 3705000     232.7529   -4310.7522   -3911.8217   -4310.7522            0    2410.4314    17.927141    23.144718     22.26119    9236.5824    1642.3025    3263.4688    2325.5228    689.80064    472.13035    471.98882   -3587.1219 
 3706000    234.89926   -4311.2629   -3908.6536   -4311.2629            0    996.14803    18.187622    23.449953     21.94124    9357.9142    1521.2598   -9.4518918    1476.6362   -707.30135    674.36747   -420.09348   -3772.7037 
 3707000    224.24953   -4273.2486   -3888.8926   -4273.2486            0    1996.6469    17.871036    23.404746    22.180666    9277.4418    1392.8324    2253.1674    2343.9408   -236.53476   -840.52805    35.977812   -3618.7423 
 3708000    240.99041   -4287.7966   -3874.7473   -4287.7966            0      1070.89    18.069123     23.62119     22.02761    9401.6962    961.36359    446.51342     1804.793   -524.31829    540.59704   -474.25164   -3727.9132 
 3709000    236.05297   -4294.8875   -3890.3008   -4294.8875            0    1990.3008    18.036583    23.475491    21.879091    9263.9934    2756.5009    744.72141    2469.6802   -343.81518    1088.3274   -582.07041   -3621.3995 
 3710000    233.55793   -4262.5036   -3862.1933   -4262.5036            0     1810.623    17.979747    23.276487    22.286314    9326.9415    2450.5549     1215.269     1766.045    58.484298   -397.64415    567.36618   -3615.9054 
 3711000    223.41973   -4280.1752   -3897.2414   -4280.1752            0     1169.851    18.139812    23.475508    21.937449    9341.8723    1212.5694    1277.1507    1019.8328    135.12924   -425.85905    148.06502    -3737.859 
 3712000    230.58529    -4284.134   -3888.9188    -4284.134            0    1925.9659    17.925721    23.369777    22.228023    9311.7654    1533.9373    2646.3762    1597.5843    471.27663   -49.197794    501.44323   -3627.3677 
 3713000    239.58223   -4286.6208    -3875.985   -4286.6208            0    2736.0306    17.940875    23.441458     22.05091    9273.7367    2996.6425    2370.3398    2841.1095   -4.6069459    11.076968    11.094929   -3505.9425 
 3714000    232.27166   -4288.9589   -3890.8533   -4288.9589            0    1548.0194    18.083267    23.681536    21.779709    9326.9326    1520.8546    259.82863    2863.3749    297.16276   -55.089407    102.21135   -3680.2859 
 3715000    221.33481   -4319.5015   -3940.1412   -4319.5015            0    1383.2271    18.042229    23.193782    22.183178    9282.9395    2245.2591    302.42601    1601.9963    566.55819   -202.87152    233.67348    -3752.877 
 3716000    227.86038   -4287.7961   -3897.2512   -4287.7961            0    1559.0801    18.172776    23.492319    21.878966    9340.5821    1130.8477      139.957    3406.4355    680.70009    128.85802     476.4721   -3684.8689 
 3717000    214.67318   -4283.4813   -3915.5388   -4283.4813            0    1649.4915    17.951989    23.483414    22.104912    9318.8561    690.28424    2166.9678    2091.2226   -96.016141    85.728938   -218.17684   -3691.3631 
 3718000    238.71236   -4290.6368   -3881.4919   -4290.6368            0    1497.9503    18.208119    23.187079    22.154734    9353.5759    1454.1646    611.22026    2428.4661   -76.128549    111.03143   -1098.1848   -3677.1531 
 3719000    243.55075   -4293.5697   -3876.1321   -4293.5697            0    1583.9199    18.248944    23.308174    21.927154    9326.7054   -13.063947    2221.5663    2543.2574    38.364485   -527.32353   -538.83864   -3660.6866 
 3720000    223.36595   -4296.6044   -3913.7628   -4296.6044            0     1495.343    17.896672    23.460919     22.22695    9332.4821    3161.6373     476.0861    848.30572   -1080.9564   -759.61445   -358.54158   -3710.2396 
 3721000    235.61558   -4299.9101    -3896.073   -4299.9101            0    1406.7377    18.019623    23.600437    21.995341    9353.9803    1197.0869    1992.1724    1030.9539    698.21439   -226.21749    534.28203   -3704.1684 
 3722000    235.58728   -4312.8138   -3909.0253   -4312.8138            0    1585.8657    17.995457    23.309023    22.181213    9304.0543    1340.6653    1159.3591    2257.5726    116.05066   -313.62025    470.10907    -3693.839 
 3723000    225.23025   -4293.5093   -3907.4724   -4293.5093            0    981.80946     18.19457    23.188018    22.090752    9320.0002   -604.90584     1683.086    1867.2482    901.52378   -240.53569     210.5684   -3774.0223 
 3724000    236.30341   -4298.1255   -3893.1095   -4298.1255            0    361.76752    18.275469    23.451834    21.982424    9421.5193    844.72476    139.82285    100.75494    61.807272    244.18587   -23.813175   -3843.4015 
 3725000    233.38998    -4304.488   -3904.4656    -4304.488            0    1666.0752    17.946067    23.451582    22.133738    9315.2861    2889.2424    1681.3746    427.60855   -277.97955   -641.82518   -127.50884   -3678.1228 
 3726000    235.61917   -4291.3943   -3887.5511   -4291.3943            0    709.22585    18.055844    23.534845    22.022459    9358.2567    249.11835   -692.54824    2571.1074    110.20725    711.95698    523.54171   -3790.7556 
 3727000    242.13443   -4240.0565   -3825.0464   -4240.0565            0    2223.2828    18.038879    23.181726    22.202844    9284.6155     2559.799    2347.9072    1762.1421   -1347.4674    -272.6929      1133.74   -3523.9992 
 3728000    246.16972   -4277.9003   -3855.9738   -4277.9003            0    2265.7386    18.018999    23.341034    22.062326    9279.0186     1728.508    2243.9097    2824.7982   -970.48993   -80.484249     22.03153   -3549.3628 
 3729000    235.20909   -4281.9459   -3878.8055   -4281.9459            0   -228.89167    18.099262    23.635812    22.056811       9435.7   -280.54962   -145.99647   -260.12893    427.68717   -170.44601     975.6105   -3910.3033 
 3730000    255.02976   -4299.4258   -3862.3135   -4299.4258            0    881.10382    17.942188    23.659917    22.057942    9363.8317    985.70201    238.18828    1419.4212    546.36237   -18.671533    647.17794   -3741.9883 
 3731000    229.33963   -4266.0276   -3872.9473   -4266.0276            0    2119.8819    18.005475       23.429     22.10815    9326.3292    1904.1412    2091.6491    2363.8556   -299.83233    504.16865     89.95921   -3584.6117 
 3732000    239.15731   -4297.9514   -3888.0439   -4297.9514            0   -30.083438    18.337404    23.572604    21.853431     9446.372   -1280.2483   -838.46247    2028.4605    507.40007   -92.863906   -296.06658   -3892.1884 
 3733000    223.80071   -4287.2174   -3903.6306   -4287.2174            0    1315.9468    18.035857    23.449794    22.126824    9358.2553    1302.8851    1939.0401    705.91524    450.52502    480.75832    605.86895   -3724.0295 
 3734000    231.70215   -4269.1178   -3871.9883   -4269.1178            0    287.81198    18.124154    23.693407    22.013979    9453.3078    542.16263    -1004.205    1325.4783   -323.97549    32.992447   -290.93815   -3832.3086 
 3735000    227.66452   -4302.1728   -3911.9636   -4302.1728            0    1953.3393    18.028226    23.610691    21.984718    9357.9905    1608.9793    2978.1621    1272.8765   -602.71331    353.05552    835.98006   -3645.3783 
 3736000    236.59478   -4300.8361   -3895.3207   -4300.8361            0     1559.683    18.093687     23.26229    22.200565     9344.231    1750.6811    2218.7307      709.637   -21.960968    603.14516    135.78791   -3682.7733 
 3737000    234.74366     -4297.37   -3895.0274     -4297.37            0    854.98819    18.113954    23.520078    22.018889    9380.9627    1051.0812   -113.03129    1626.9147   -266.28391    158.12303   -434.71317    -3778.055 
 3738000    234.90177    -4275.806   -3873.1924    -4275.806            0    1846.4171    17.883345    23.468963    22.186699    9311.8362    3479.8993    528.86535    1530.4867   -126.69423   -649.51551    290.47293   -3622.4423 
 3739000    237.97132   -4289.0145   -3881.1399   -4289.0145            0    1958.6651    18.224527     23.32893    21.864087    9295.7069    2194.4796    1608.6577     2072.858    754.13606    497.42582    454.96812   -3615.6069 
 3740000    224.59508   -4268.3299   -3883.3816   -4268.3299            0    766.60979    17.973036    23.368071    22.355131    9389.0473    2044.1093   -162.10214    417.82218    510.30217   -41.929576    242.24727   -3778.4101 
 3741000    237.87533   -4322.3493   -3914.6392   -4322.3493            0    1600.7109    17.994182    23.579129    21.984324    9327.6657    1327.5173    1127.0805     2347.535   -1152.1807    -779.6979    690.39019   -3696.8873 
 3742000    240.22487   -4300.2108   -3888.4736   -4300.2108            0    2419.8372    18.071689    23.380785    21.970214    9283.0807    2268.3865    1885.0388    3106.0865    517.59925    1280.5485   -573.11741   -3560.8658 
 3743000    248.72237   -4294.4009   -3868.0993   -4294.4009            0    1423.6992    18.177633    23.208214    22.150398    9344.5971    2352.2489    1127.2964    791.55226   -450.34432    377.38254   -70.372973   -3674.0756 
 3744000    239.00182   -4286.6711   -3877.0301   -4286.6711            0    2129.3167    18.116932    23.368965    21.958701     9296.742    1276.0278     3197.496    1914.4263    1116.0216    -29.08747   -510.89821     -3588.33 
 3745000    235.68008   -4260.6292   -3856.6816   -4260.6292            0     2194.222    17.849709    23.309594    22.269468    9265.6457    1827.9604    2761.0707     1993.635    179.13048    704.31551    411.09631   -3560.1765 
 3746000    229.41178   -4284.9847   -3891.7807   -4284.9847            0    523.41875    18.221571     23.47031    22.072152    9439.5075    328.53407    671.70459     570.0176   -513.18498   -471.60069    602.63225    -3819.724 
 3747000    241.75189   -4306.7706   -3892.4161   -4306.7706            0    2261.6444    17.982645    23.356759    22.172372    9312.7577    2179.1591    2752.4548    1853.3192    536.82909    470.22594   -147.37716   -3585.2463 
 3748000    241.81531   -4278.3819   -3863.9188   -4278.3819            0    1600.5559    17.919897    23.855625    21.905928    9364.5726    2850.5157    613.01502    1338.1369   -783.82302   -82.991212    480.62796   -3645.3266 
 3749000     221.7532   -4284.7416   -3904.6642   -4284.7416            0    1355.6052     18.12326    23.537318    21.953142    9364.6162     1704.266     1265.354    1097.1957    579.29428    597.93857   -601.86287   -3719.5247 
 3750000    242.63715   -4267.9953   -3852.1236   -4267.9953            0    1304.8597    18.101428    23.286306    22.305444    9402.0884    1133.5394    1090.3298      1690.71    357.49017    264.76906    13.783012   -3673.2014 
Loop time of 441.942 on 64 procs for 250000 steps with 864 atoms

Performance: 97.750 ns/day, 0.246 hours/ns, 565.685 timesteps/s
189.2% CPU use with 32 MPI tasks x 2 OpenMP threads

MPI task timing breakdown:
Section |  min time  |  avg time  |  max time  |%varavg| %total
---------------------------------------------------------------
Pair    | 17.779     | 25.033     | 34.473     | 104.8 |  5.66
Bond    | 0.97863    | 1.2231     | 1.6674     |  14.7 |  0.28
Kspace  | 217.92     | 230.04     | 239.34     |  38.7 | 52.05
Neigh   | 1.6157     | 1.7168     | 1.8469     |   4.8 |  0.39
Comm    | 70.293     | 74.565     | 77.732     |  19.7 | 16.87
Output  | 0.58463    | 0.58497    | 0.58645    |   0.0 |  0.13
Modify  | 77.159     | 81.308     | 87.981     |  32.0 | 18.40
Other   |            | 27.47      |            |       |  6.22

Nlocal:        27.0000 ave          39 max          15 min
Histogram: 2 3 6 4 1 3 5 0 4 4
Nghost:        2098.59 ave        2194 max        2009 min
Histogram: 7 6 3 0 0 0 0 5 5 6
Neighs:        6466.25 ave        9465 max        3553 min
Histogram: 1 5 4 3 3 2 6 1 4 3

Total # of neighbors = 206920
Ave neighs/atom = 239.49074
Ave special neighs/atom = 2.0000000
Neighbor list builds = 5343
Dangerous builds = 0

unfix		3
unfix		2
unfix		1

write_data	data.final.${pid} nocoeff
write_data	data.final.0 nocoeff
System init for write_data ...
PPPM initialization ...
  extracting TIP4P info from pair style
  using 12-bit tables for long-range coulomb (../kspace.cpp:340)
  G vector (1/distance) = 0.37122961
  grid = 24 27 25
  stencil order = 5
  estimated absolute RMS force accuracy = 0.0032181819
  estimated relative force accuracy = 9.6914591e-06
  using double precision FFTW3
  3d grid and FFT values/proc = 4410 672
Last active /omp style is kspace_style pppm/tip4p/omp

write_restart   restart.lmp.${pid}
write_restart   restart.lmp.0
System init for write_restart ...
PPPM initialization ...
  extracting TIP4P info from pair style
  using 12-bit tables for long-range coulomb (../kspace.cpp:340)
  G vector (1/distance) = 0.37122961
  grid = 24 27 25
  stencil order = 5
  estimated absolute RMS force accuracy = 0.0032181819
  estimated relative force accuracy = 9.6914591e-06
  using double precision FFTW3
  3d grid and FFT values/proc = 4410 672
Last active /omp style is kspace_style pppm/tip4p/omp
Total wall time: 0:07:22
