LAMMPS (30 Jul 2021)
Processor partition = 0
  using 2 OpenMP thread(s) per MPI task
using multi-threaded neighbor list subroutines
variable        pid world 0 1
variable        phase world IceIh IceIII

shell cd ${phase}
shell cd IceIh
include Restart.lmp
echo both
log log.lammps
#include		in.partitions
include		in.temp
variable        temperature equal 122.72
variable	tempDamp equal 100.0
include		in.pressure
variable        pressure equal 1969.2
variable        pressureDamp equal 1000.0 # This is 1 ps
include		in.seed
variable        seed equal 745823

units		real
atom_style	full
#include		in.box
read_restart	restart.lmp.${pid}
read_restart	restart.lmp.0
Reading restart file ...
  restart file = 30 Jul 2021, LAMMPS = 30 Jul 2021
  restoring atom style full from restart
  orthogonal box = (0.11663958 0.17587573 0.11590291) to (18.090933 23.453302 22.097293)
  2 by 4 by 4 MPI processor grid
  restoring pair style lj/cut/tip4p/long/omp from restart
  restoring bond style harmonic/omp from restart
  restoring angle style harmonic/omp from restart
  864 atoms
  576 bonds
  288 angles
Finding 1-2 1-3 1-4 neighbors ...
  special bond factors lj:    0        0        0       
  special bond factors coul:  0        0        0       
     2 = max # of 1-2 neighbors
     1 = max # of 1-3 neighbors
     1 = max # of 1-4 neighbors
     2 = max # of special neighbors
  special bonds CPU = 0.002 seconds
  read_restart CPU = 0.006 seconds
include 	in.setup
variable	out_freq equal 1000
variable	out_freq2 equal 10000
variable	out_freq3 equal 1000

timestep	2.0

neigh_modify    delay 7 every 1

include		in.tip4p
# This is TIP4P/Ice

# create groups ###
group ox type 2
288 atoms in group ox
group hy type 1
576 atoms in group hy

# set charges - beside manually ###
set group ox charge -1.1794
Setting atom values ...
  288 settings made for charge
set group hy charge 0.5897
Setting atom values ...
  576 settings made for charge

# ### TIP3P Potential Parameters ###
pair_style lj/cut/tip4p/long/omp 2 1 1 1 0.1577 8.5
pair_coeff 1 1*2 0.000 0.000
pair_coeff 2 2 0.21084 3.1668
bond_style  harmonic
bond_coeff  1 450 0.9572
angle_style harmonic
angle_coeff 1 55 104.52
kspace_style pppm/tip4p/omp 1.0e-5
pair_modify tail yes

thermo          ${out_freq}
thermo          1000
thermo_style    custom step temp pe etotal epair emol press lx ly lz vol pxx pyy pzz pxy pxz pyz enthalpy

restart 	${out_freq3} restart.lmp.${pid} restart2.lmp.${pid}
restart 	1000 restart.lmp.${pid} restart2.lmp.${pid}
restart 	1000 restart.lmp.0 restart2.lmp.${pid}
restart 	1000 restart.lmp.0 restart2.lmp.0


include         in.dump
dump            myDump all atom ${out_freq2} dump.water.${pid}
dump            myDump all atom 10000 dump.water.${pid}
dump            myDump all atom 10000 dump.water.0
dump            myDump2 all dcd ${out_freq2} dump.dcd
dump            myDump2 all dcd 10000 dump.dcd
dump_modify     myDump append yes
dump_modify     myDump2 append yes


variable natoms 	equal  "count(all)"                        # NUMBER ATOMS
variable H      	equal  "enthalpy/v_natoms"                 # ENTHALPY-per-atom
variable Vol      	equal  "vol/v_natoms"                 # volume-per-atom
fix AVG all 		ave/time ${out_freq} 1 ${out_freq} v_Vol v_H file vol_enthalpy.dat
fix AVG all 		ave/time 1000 1 ${out_freq} v_Vol v_H file vol_enthalpy.dat
fix AVG all 		ave/time 1000 1 1000 v_Vol v_H file vol_enthalpy.dat


timer           timeout 23:50:00 every 1000
New timer settings: style=normal  mode=nosync  timeout=23:50:00

fix 		1 all shake 1e-6 200 0 b 1 a 1
Finding SHAKE clusters ...
       0 = # of size 2 clusters
       0 = # of size 3 clusters
       0 = # of size 4 clusters
     288 = # of frozen angles
  find clusters CPU = 0.001 seconds
fix             2 all nph aniso ${pressure} ${pressure} ${pressureDamp}
fix             2 all nph aniso 1969.2 ${pressure} ${pressureDamp}
fix             2 all nph aniso 1969.2 1969.2 ${pressureDamp}
fix             2 all nph aniso 1969.2 1969.2 1000
fix             3 all temp/csvr ${temperature} ${temperature} ${tempDamp} ${seed}
fix             3 all temp/csvr 122.72 ${temperature} ${tempDamp} ${seed}
fix             3 all temp/csvr 122.72 122.72 ${tempDamp} ${seed}
fix             3 all temp/csvr 122.72 122.72 100 ${seed}
fix             3 all temp/csvr 122.72 122.72 100 745823


run             250000
PPPM initialization ...
  extracting TIP4P info from pair style
  using 12-bit tables for long-range coulomb (../kspace.cpp:340)
  G vector (1/distance) = 0.37193594
  grid = 24 27 25
  stencil order = 5
  estimated absolute RMS force accuracy = 0.0031323288
  estimated relative force accuracy = 9.4329153e-06
  using double precision FFTW3
  3d grid and FFT values/proc = 4410 672
Last active /omp style is kspace_style pppm/tip4p/omp
Neighbor list info ...
  update every 1 steps, delay 7 steps, check yes
  max neighbors/atom: 2000, page size: 100000
  master list distance cutoff = 10.8154
  ghost atom cutoff = 10.8154
  binsize = 5.4077, bins = 4 5 5
  1 neighbor lists, perpetual/occasional/extra = 1 0 0
  (1) pair lj/cut/tip4p/long/omp, perpetual
      attributes: half, newton on, omp
      pair build: half/bin/newton/omp
      stencil: half/bin/3d
      bin: standard
Setting up Verlet run ...
  Unit style    : real
  Current step  : 26000000
  Time step     : 2
  Walltime left : 23:49:59.93
Per MPI rank memory allocation (min/avg/max) = 10.19 | 10.20 | 10.22 Mbytes
Step Temp PotEng TotEng E_pair E_mol Press Lx Ly Lz Volume Pxx Pyy Pzz Pxy Pxz Pyz Enthalpy 
26000000    127.60153    -4501.838   -4283.1334    -4501.838            0    2346.6299    17.974293    23.277426     21.98139      9196.91     3035.582    2027.7177      1976.59    692.81947   -600.23348    311.57244   -3968.3858 
26001000    122.60822    -4514.616   -4304.4697    -4514.616            0    2096.2806    17.814061    23.301821     22.15184    9195.2298    3234.5541    1706.9354    1347.3522   -746.95761   -77.607979    38.013655   -4023.3522 
26002000    121.96268   -4515.4201   -4306.3802   -4515.4201            0    2129.7884    17.809733    23.337332    22.111591    9190.2772    2658.7529    2900.1219    830.49017   -30.881794    403.64854    90.875481    -4020.923 
26003000     124.4926    -4525.258    -4311.882    -4525.258            0    1286.7519    17.990165    23.249092    22.071881    9231.6748    1124.4138    1648.0347    1087.8071   -57.230556    193.65859    816.80227   -4138.6408 
26004000    117.91464   -4529.5098   -4327.4082   -4529.5098            0    2257.7976    17.924742    23.379239    21.944412    9196.1748    2939.4655    2293.7252    1540.2021   -405.64159   -133.98125   -548.80548   -4024.5996 
26005000    121.36021   -4514.7869   -4306.7797   -4514.7869            0    1864.0772    18.014588    23.286183    21.967545    9215.1873    2708.7532    1952.0756    931.40267   -102.36821     224.5333      476.366   -4056.2588 
26006000    123.95164   -4511.4542   -4299.0053   -4511.4542            0    1032.2392     18.01549    23.294331    22.077636    9265.0739    1273.2588    1505.8742    317.58453   -32.632793    272.32179   -134.44758   -4159.5275 
26007000    121.52044   -4516.4166   -4308.1347   -4516.4166            0    2610.8374    17.887491    23.419458    21.950454    9195.3818    3386.4986    1394.9804    3051.0332   -289.20648    25.899911    431.76982   -3958.0078 
26008000     127.1405   -4517.0984   -4299.1839   -4517.0984            0    1050.5953    18.002318     23.39461    21.971453    9253.4356    1262.9547    968.48773     920.3434   -673.19649   -410.33296    252.52559   -4157.4041 
26009000      127.164   -4508.6569   -4290.7021   -4508.6569            0    2735.6107    17.986365    23.349613    21.874771    9186.8497    2582.1639    2687.4789    2937.1894    189.18823   -633.03547    170.73373   -3924.1829 
26010000    131.33545   -4529.7365    -4304.632   -4529.7365            0    2583.9917     17.95608    23.413869    21.842095    9182.8822    2650.0142    2768.8367    2333.1242   -537.80478   -363.57273   -119.18545   -3958.5763 
26011000    127.22026   -4526.3501    -4308.299   -4526.3501            0    2016.9727    18.118751    23.329903    21.762293    9199.1109     1959.584    2015.5214    2075.8128     541.7101   -338.45025   -346.30037   -4037.7027 
26012000    129.44929   -4505.7228   -4283.8512   -4505.7228            0    2047.1361    18.053077    23.631064    21.585359    9208.6036    2261.7684    1725.5369    2154.1032    389.30204    227.74973    392.18245   -4008.9248 
26013000    126.33405   -4512.5389   -4296.0066   -4512.5389            0    1557.0708    17.993853    23.453504    21.865859    9227.8061    2143.5161    939.93891    1587.7574     93.06356    227.53986   -209.72033    -4086.459 
26014000    117.10597   -4519.3124   -4318.5968   -4519.3124            0     2162.876    18.181185    23.057921    21.966497    9208.8022    435.99243    3378.4771    2674.1586   -417.24402   -390.62895   -137.23094   -4028.1205 
26015000    125.02697   -4521.6726   -4307.3806   -4521.6726            0    1763.4162    17.896405    23.375367    22.042309    9221.0703    3338.8998    952.26399    999.08481   -158.44701    308.62043   -355.81078   -4070.2367 
26016000     125.2174   -4518.5385   -4303.9202   -4518.5385            0    2600.4967    17.832155    23.300096    22.043822    9159.0077    2902.7266    3685.6361    1213.1273     462.5178   -276.81099     143.0892   -3956.5596 
26017000    125.49595   -4522.6464   -4307.5506   -4522.6464            0    2130.0844    17.989709    23.229774    22.054472    9216.4948    1855.1704    2138.4132    2396.6695    22.009001    362.26346   -477.56673   -4021.2393 
26018000    112.75704   -4512.0415   -4318.7798   -4512.0415            0    962.78204     17.89944    23.326149    22.158166    9251.5885    2126.4148    442.71655    319.21477   -90.671012   -251.77063    62.484895   -4188.8765 
26019000    125.53594   -4521.7538   -4306.5895   -4521.7538            0    1145.4007    17.874114    23.436482    22.077182    9248.2719     1228.162    1126.0358    1082.0042    920.14415    102.22719    -16.53773   -4152.1018 
26020000    115.65195    -4513.585   -4315.3615    -4513.585            0    2334.9577    17.987834    23.111906    22.050154    9166.9795    2077.9737    2535.1156    2391.7839   -210.37099   -397.19293    196.53056   -4003.1987 
26021000    124.27287   -4529.2472   -4316.2477   -4529.2472            0    2641.0959    17.848856    23.254417    22.066023    9158.8283    2285.3729    3365.4217     2272.493    379.51509   -114.70095   -68.353464   -3963.4709 
26022000     125.9195   -4513.5063   -4297.6845   -4513.5063            0    1968.1039    17.778792    23.473044    22.042702    9198.9128    2801.9967    1235.1448    1867.1703   -63.301843    209.87807    539.71187   -4033.6502 
26023000     121.3644   -4525.9718   -4317.9573   -4525.9718            0     2190.633    17.973755    23.221142    21.998112    9181.3765    2086.1841    2127.1858    2358.5292   -247.65118   -244.97815    173.83725   -4024.6295 
26024000     121.0339   -4489.1567   -4281.7088   -4489.1567            0    2739.6703    17.932891    23.270917    21.975068    9170.5219    2602.2621    4171.6305    1445.1183    296.24935   -442.12441    264.36221    -3915.298 
26025000    119.41184   -4509.7444   -4305.0765   -4509.7444            0    2248.4332    17.843871    23.440442     21.96641    9187.8514    1811.6028    1986.1272    2947.5696   -607.74442   -90.859655   -98.332145   -4003.7969 
26026000    124.93009    -4503.536   -4289.4101    -4503.536            0    2303.1003    17.791615    23.283972    22.151739    9176.5676    2460.8178    2504.5783    1943.9046   -726.18863   -741.12548    538.16053   -3981.1843 
26027000    123.98622   -4512.4162   -4299.9081   -4512.4162            0    1523.7037     17.88361    23.314121    22.096463    9212.9135    2849.1171     2216.157   -494.16291    410.32849    544.58386   -532.03211   -4095.1819 
26028000    123.44872   -4525.5167   -4313.9298   -4525.5167            0    1660.2394    17.880009    23.487883    21.942539    9215.0668    2517.4951    867.90492    1595.3182   -845.71151   -276.15914    46.619563   -4090.8064 
26029000    124.28629    -4538.518   -4325.4955    -4538.518            0    1665.4484    18.005362    23.333648    21.959494    9225.8593    1191.4843    2086.4037    1718.4572    289.95495   -509.52621    69.333666     -4101.41 
26030000     126.4615   -4513.9294   -4297.1787   -4513.9294            0    2071.1462    18.016094    23.193261    22.062027    9218.6615    2205.0158    2446.1828    1562.2402   -474.59555    367.78379   -376.91437    -4018.724 
26031000    124.82307   -4505.0373   -4291.0948   -4505.0373            0    1665.4782    17.920935    23.357695    21.959368    9192.0099    1485.0852    947.90998    2563.4394   -60.675191    215.09391   -102.02382   -4067.8274 
26032000    123.99152   -4513.6646   -4301.1473   -4513.6646            0    1437.9405    17.977231    23.440923    21.921973    9237.9827    2174.9431    1885.3107    253.56764   -228.81615    66.338388    436.32604   -4107.4187 
26033000    122.18414   -4514.4129   -4304.9935   -4514.4129            0     2030.158    18.081744     23.21777    21.926021    9204.9333    1181.7512    1658.0225    3250.7004   -208.66634   -69.977742   -153.86401   -4032.4559 
26034000    117.84994   -4521.1964   -4319.2056   -4521.1964            0    2041.4644    18.004996    23.338414    21.916534     9209.504    2163.5956    1971.0564    1989.7413   -86.001608   -127.44366    369.88521   -4045.0141 
26035000    117.22432   -4523.2858   -4322.3674   -4523.2858            0    3028.7864    17.790397    23.563582    21.838172    9154.6813    3175.1877    2748.3548    3162.8166    126.46786    328.55248    516.99367   -3917.9891 
26036000    120.90015   -4524.0276   -4316.8089   -4524.0276            0    2226.7387    17.948099    23.391348    21.893622    9191.6045    2977.6452    1561.9925    2140.5782    215.43978    293.98728    38.439168   -4018.3143 
26037000    128.68232   -4525.5773   -4305.0202   -4525.5773            0    1897.2052    17.992004    23.323995    21.898198    9189.4785    1565.0092    1313.5578    2813.0485    623.88124   -235.45189    384.45573   -4050.7584 
26038000    122.42458   -4514.9398   -4305.1083   -4514.9398            0    2400.0531    17.801541    23.519179    21.877387    9159.5723    1521.5861    2458.3799    3220.1932   -11.775881   -396.27357    397.53311   -3984.5021 
26039000    127.42025   -4523.6071   -4305.2132   -4523.6071            0    2405.4145    18.016121    23.293392    21.942613    9208.3618    2831.2133    1039.4333     3345.597   -803.65457    445.36613     53.18362   -3982.1792 
26040000    122.41432   -4520.0668   -4310.2529   -4520.0668            0    1887.5191    18.063626    23.192163    21.979155    9207.8276    2031.0918    1504.1238    2127.3416    9.0253199    520.25112    184.34969   -4056.7841 
26041000    122.62982   -4522.3485   -4312.1652   -4522.3485            0    1518.2748    18.021656    23.424973    21.809577    9207.0614    768.59904    358.96913    3427.2563    141.52922   -126.98703    -118.1456    -4108.298 
26042000    125.84866   -4525.6021   -4309.9018   -4525.6021            0    2117.4335    18.063898    23.415788     21.74629    9198.2544    1668.9969    1266.2316    3417.0721    302.97831   -3.2113053    244.61656   -4025.8542 
26043000    123.94723   -4515.1348   -4302.6935   -4515.1348            0    1268.3785    18.068291    23.271027     21.97919    9241.5391    252.96393    2233.4203    1318.7512    413.11877    8.7137653   -418.81176   -4131.7435 
26044000    130.40397   -4528.5377   -4305.0297   -4528.5377            0    3134.0436    17.741316    23.469499     21.96275    9144.8456     3729.953     3164.764    2507.4137   -705.66009   -404.64003    402.80247    -3887.048 
26045000    115.41346    -4528.521   -4330.7063    -4528.521            0    1929.2506    17.990242    23.280522    21.942076    9189.8287    512.71508    1656.8171    3618.2197    80.257173    99.386116    113.85982     -4072.14 
26046000    124.02756   -4511.5417   -4298.9627   -4511.5417            0    2450.1377    18.050496    23.168687    21.968444    9187.3413    2189.8159    2925.5302     2235.067    655.57076   -577.00708   -586.73155   -3970.6737 
26047000    121.12817   -4520.1422   -4312.5327   -4520.1422            0    2843.1736    17.743636    23.400405    21.994097    9132.1313    2888.9111    1718.8982    3921.7117    21.440576     -361.494   -459.51409    -3933.871 
26048000    128.40829    -4524.273   -4304.1856    -4524.273            0    2096.7822    17.969175    23.314232    21.948091    9194.8785    2563.4552    2657.1232    1069.7683   -446.12181    388.34357    224.15502   -4023.0115 
26049000    132.79714   -4529.2147    -4301.605   -4529.2147            0    1949.4189    18.068249    23.131686    21.988712    9190.1618    1706.8878    3036.2104    1105.1584   -148.93397   -37.053964   -669.44066   -4040.3262 
26050000    118.37328     -4518.78   -4315.8923     -4518.78            0    2284.7497    17.856108    23.439065    21.965785    9193.3505    2428.8159    1583.7822    2841.6508   -938.99494   -625.28283   -314.54562   -4009.5631 
26051000    123.02258   -4506.5501   -4295.6937   -4506.5501            0    2795.5295    17.822111    23.455873    21.940181    9171.7239    3323.1666    3014.0853    2049.3365    314.17836    26.820254    344.82691   -3921.7631 
26052000    117.54473    -4509.672   -4308.2043    -4509.672            0    2528.6973    18.012126    23.124891    22.058196    9187.8662    2799.2601    3283.4492    1503.3827   -345.79387   -706.07956     140.2096     -3969.37 
26053000    117.57484   -4514.9667   -4313.4474   -4514.9667            0    1894.2426    17.864734    23.374849    22.053204    9209.0976    1772.4517    1683.1593    2227.1166    515.77935    -167.8971     231.4602   -4059.0407 
26054000    123.04806   -4507.6845   -4296.7844   -4507.6845            0    2114.4211    17.741998    23.531648     22.05015    9205.9034    3322.5842    1237.1075    1783.5717   -1044.3598   -145.35534   -405.93685    -4012.905 
26055000    122.05237   -4519.3719   -4310.1783   -4519.3719            0    1354.4113    18.011563    23.224362    22.078437     9235.566    1153.3293    1448.8497    1461.0549   -23.725599    480.48155   -35.288959    -4127.751 
26056000    129.05829   -4513.4901   -4292.2886   -4513.4901            0    1179.4405    17.963027     23.32668    21.987958    9213.3453    1817.0438    1081.1958    640.08201   -887.26244    385.89252   -312.36644   -4133.8105 
26057000    123.20163   -4517.2307   -4306.0673   -4517.2307            0     1349.266    17.830585     23.47009    22.030945    9219.6295    2726.4289      106.567    1214.8022   -65.656842   -400.54373    96.175134   -4124.6465 
26058000    120.31341   -4510.0084   -4303.7953   -4510.0084            0    2149.4198    18.006424    23.223553    21.986794    9194.2865    2807.6835    2755.3726    885.20327    428.61389   -7.8071407   -640.40584   -4015.5812 
26059000    119.47034   -4509.9334   -4305.1654   -4509.9334            0    1970.8544    18.004129    23.218315    22.046708     9216.087      1138.39    2530.2124    2243.9608   -222.81464   -391.04331     72.40513   -4040.2684 
26060000    118.54032   -4528.0659   -4324.8919   -4528.0659            0     806.3262    17.904129    23.538058    21.953909    9252.0012    433.33075    549.07635    1436.5715   -7.9348655   -43.178586    318.57345   -4216.0935 
26061000    116.50673   -4505.6429   -4305.9544   -4505.6429            0    2600.6778    17.925979    23.304948    21.946787    9168.5778    2273.3875     2794.268    2734.3779    278.96857    265.53406    58.257146   -3958.2066 
26062000    120.33924   -4505.6978   -4299.4405   -4505.6978            0    2711.1286    18.003838    23.392037    21.762278    9165.1064    3829.5789    3386.4656    917.34111   -620.53006   -155.30575   -67.779243   -3937.0611 
26063000    129.26038   -4512.3846   -4290.8368   -4512.3846            0    2379.9626    17.969658    23.390574    21.822207    9172.3233    2455.9014    1396.2776    3287.7086      351.816   -493.04904   -118.18318   -3972.4717 
26064000    124.33918   -4520.6274   -4307.5143   -4520.6274            0    2151.8555    17.911535    23.289896    22.062377    9203.4924    2765.6054    1815.9049    1874.0563    258.11038   -825.88846    213.68135   -4018.6848 
26065000    119.54262   -4522.2411   -4317.3492   -4522.2411            0    2454.1207    17.963527     23.10306    22.073475    9160.7665    3399.2921    2438.5088    1524.5613   -691.77286   -376.50395   -120.91171   -3989.4777 
26066000     129.4272   -4516.0213   -4294.1876   -4516.0213            0    1754.7597    17.950955    23.400701    21.890262    9195.3316     1168.663    1607.5454    2488.0707    39.160755     349.6064    6.4010476   -4058.8664 
26067000     120.3303   -4535.5707   -4329.3287   -4535.5707            0    1258.5662     17.87033    23.395731    22.101658    9240.4697    1679.5135    1582.7641    513.42107   -176.45395   -450.45007    -224.3151   -4159.7208 
26068000    125.41831   -4523.0045   -4308.0419   -4523.0045            0    2473.9266    18.055674    23.002312     22.06989    9166.1161    2190.8888    4001.1674    1229.7236   -620.01336   -190.57467   -68.586249   -3977.3313 
26069000    114.80013   -4524.6431   -4327.8796   -4524.6431            0    1513.0973    17.907613    23.392323    21.931655    9187.1851    1025.0073    1502.6326    2011.6521    20.333137    -183.7475    16.852042   -4125.1463 
26070000     127.3679   -4524.9937   -4306.6895   -4524.9937            0    2319.1406    17.783237    23.617664    21.831773    9169.3126    3055.9488    1813.3043    2088.1686    362.92506   -353.89337   -106.83532   -3996.5624 
26071000    125.07378   -4524.8988   -4310.5266   -4524.8988            0    1018.4802    18.099521    23.301841    21.889221    9231.8264     496.6391    1480.7042    1078.0973    564.91869    7.1165028    538.20672   -4173.4018 
26072000    133.41894   -4509.4781   -4280.8026   -4509.4781            0    2183.4927    18.006081    23.270487    21.939056    9192.6899    1884.9212    2864.8775    1800.6793   -405.07026   -29.269568    174.65025   -3988.0706 
26073000    119.25034   -4529.4445   -4325.0535   -4529.4445            0    2301.2858    17.939468    23.474876    21.750878    9159.8775    1871.0178    2231.3816     2801.458   -499.19268    462.43185   -23.050469   -4017.6307 
26074000    121.94041   -4519.2948   -4310.2931   -4519.2948            0     2341.395     18.02101    23.290443    21.870297    9179.3421    2636.9398    2239.0196    2148.2256    471.79772   -90.658424    91.565347   -3996.8475 
26075000    129.00727    -4537.253    -4316.139    -4537.253            0    1359.6289    17.986944    23.307548    22.008373    9226.6046    721.61722    998.34589    2358.9237    81.025781    -355.8361   -290.70044   -4133.1865 
26076000    123.05003   -4524.1271   -4313.2236   -4524.1271            0     1856.679    17.850668    23.393069    22.090852    9224.7405    2028.3966    1989.3156    1552.3247   -724.93765     75.25388   -648.33903   -4063.4383 
26077000    119.74234   -4520.7126   -4315.4783   -4520.7126            0    1406.9015    17.933061    23.266797    22.078428    9212.1113    1900.7494    1848.8365    471.11868    582.91096    108.46092     374.3499   -4126.4623 
26078000    129.67661   -4509.3647   -4287.1034   -4509.3647            0    1556.5507    17.988266    23.206243    22.073072    9214.1851    1006.8609    2477.5138    1185.2776   -213.67712   -559.76441   -271.60246    -4077.935 
26079000    123.25593   -4522.2255   -4310.9691   -4522.2255            0    1491.5373    17.912703    23.349525    22.048333    9221.7837     1655.764    1774.0547    1044.7931    275.48294    606.59354    351.21711   -4110.3718 
26080000    130.30247   -4511.3452   -4288.0112   -4511.3452            0    1476.9078    18.016218    23.410982    21.881739    9229.2221    1493.0098    1699.8496     1237.864    492.87732     218.2791    252.38414   -4089.2213 
26081000    122.74171   -4517.7134   -4307.3383   -4517.7134            0    1902.2254     18.11105    23.198455    21.885327    9195.0844    986.49933    2841.2761    1878.9006   -10.055125   -266.43797     984.5104   -4052.2483 
26082000    120.53617   -4523.9965   -4317.4017   -4523.9965            0    2527.7883    17.795916     23.60378    21.805515    9159.4262     3139.896    2300.9662    2142.5028    166.23374    237.26763    157.02046   -3979.7376 
26083000    118.77117   -4523.4971   -4319.9274   -4523.4971            0    2281.1013    17.961463    23.354355    21.847859    9164.7044    2825.6745    1567.3681    2450.2612    649.46111   -109.67896    391.61219   -4015.0404 
26084000    126.40966   -4505.5739   -4288.9121   -4505.5739            0    2013.3778    18.088107    23.264596    21.868408    9202.4997    1087.4181    2147.6684     2805.047   -452.65363    353.82032    246.04611   -4018.6986 
26085000    120.46138   -4515.7017    -4309.235   -4515.7017            0    2026.1313    17.929594    23.457211    21.872524    9199.1083    1155.0866    2009.7197    2913.5876    717.47971    26.118345    503.42463   -4037.4101 
26086000    121.53739   -4516.6323   -4308.3214   -4516.6323            0    2517.6969    17.815857    23.424549    21.912004    9144.5017    3049.6423    2067.9245    2435.5239   -405.48498    867.54812   -1.7062105   -3972.5534 
26087000    120.14597   -4523.1328   -4317.2067   -4523.1328            0    1833.9456    17.954619      23.3212    22.025064    9222.4066    1772.3758    2716.6544    1012.8065    214.76125    188.18746    301.48045   -4070.5422 
26088000     127.4696   -4512.5659   -4294.0874   -4512.5659            0    1340.6757    17.935186    23.382846    22.013056    9231.7409    1042.4807    1791.7985    1187.7478   -497.82302   -297.56423   -352.04732   -4113.5849 
26089000    119.62893   -4531.5466   -4326.5067   -4531.5466            0    1182.9764    17.915643    23.265028    22.162457    9237.4879    1324.8949    821.59728     1402.437    480.20371   -127.11004    224.89306   -4167.1369 
26090000     121.3786    -4513.514   -4305.4752    -4513.514            0    1874.7721     17.91838    23.306579    22.046103    9206.8086    1734.5873    921.26532    2968.4636     214.8859   -630.43064   -43.636026    -4053.746 
26091000    114.20311   -4520.4005   -4324.6603   -4520.4005            0    2230.7847     17.73846    23.379134    22.141809    9182.4259    2400.6632    2273.8588    2017.8322   -74.145808    673.72671    460.70573    -4025.922 
26092000    128.58852    -4517.531   -4297.1347    -4517.531            0    2549.1176    17.888955    23.296232    21.964007    9153.3958    2279.9346     2733.682    2633.7361   -259.88074    549.28688   -174.70931   -3956.8456 
26093000    120.54734   -4526.4669   -4319.8529   -4526.4669            0     2035.685    17.945656    23.257234     22.02934    9194.3045    2061.4746    2676.6391    1368.9413   -133.04972    -312.3422    831.75709   -4046.8889 
26094000    118.98703    -4512.328   -4308.3883    -4512.328            0    2569.8472    17.888066    23.279704    22.027883    9173.0468    2716.9107     2702.176    2290.4548    278.77794    432.59777    574.01283   -3964.5955 
26095000    120.54597   -4525.0953   -4318.4836   -4525.0953            0    2797.3915    17.926609    23.336403    21.883898    9154.9663    2405.8659    3891.9504    2094.3581    84.597667   -833.17083    354.33975   -3944.9877 
26096000    125.93937   -4514.9413   -4299.0855   -4514.9413            0     2101.968    17.955524    23.309459    21.934649    9180.3863     1963.357    1613.9613    2728.5858    -172.0737   -127.51235    502.67013   -4017.6603 
26097000     123.9756   -4517.8351   -4305.3452   -4517.8351            0    1641.7484    18.079081    23.224814    21.912628    9200.7465    374.78498    2592.9728    1957.4873   -883.06789   -116.37963    129.87212   -4085.0497 
26098000    119.30838   -4528.1777   -4323.6872   -4528.1777            0    766.00643    18.019923    23.360097    21.915624    9225.3197    872.22761    730.98689    694.80478   -123.85807   -259.02988    -67.71201   -4220.6273 
26099000    120.98331   -4512.0329   -4304.6717   -4512.0329            0    670.16947    18.055924    23.507006    21.730277    9223.2141    728.69759    318.26453    963.54628    370.60723   -712.68786   -412.21561   -4214.5264 
26100000    123.77959   -4529.6691   -4317.5151   -4529.6691            0    2687.4466    18.069486    23.234033    21.818575    9160.0277    1751.7797    2867.9192    3442.6409    232.52696    247.11539    46.195474   -3958.5002 
26101000    120.87777   -4529.4207   -4322.2403   -4529.4207            0     2899.827    17.937133    23.325682    21.846015    9140.2822    2836.9165    2616.4555     3246.109   -1426.0774   -418.79494   -142.21987   -3935.6886 
26102000    125.95529   -4513.9979   -4298.1149   -4513.9979            0    1938.1825    17.810467    23.557446    21.888514    9183.7445    2383.1276    1651.9026    1779.5174    451.66628   -493.51972    193.33751   -4038.5234 
26103000    124.57597   -4515.7172   -4302.1983   -4515.7172            0    1691.1634    18.020369    23.377281    21.875453    9215.4117    3406.5192    1409.7389    257.23226   -248.65047    193.36063    298.97689   -4074.9104 
26104000    117.70457   -4508.8452   -4307.1035   -4508.8452            0    1982.2506    18.047631    23.373953    21.797985    9195.3598    2112.2504    2196.1724    1638.3291   -479.78624   -379.35644   -31.535758    -4041.274 
26105000     127.6841   -4515.8595   -4297.0133   -4515.8595            0    2538.9351    17.956227    23.303438    21.939667    9180.4742    3339.3096    2385.9603    1891.5354   -289.98151    424.46779   -366.13894   -3957.0809 
26106000    120.20387   -4528.4659   -4322.4405   -4528.4659            0     2596.889    17.842219    23.449222    21.916612    9169.6068     3050.861    1746.5131    2993.2931      574.749    72.673978   -54.762557   -3975.1604 
26107000    123.64601   -4527.3884   -4315.4634   -4527.3884            0    2471.3096    18.078571    23.233817     21.84063    9173.8115    1768.1643    2746.6909    2899.0737    -836.9545    35.040675    978.30237   -3984.8253 
26108000    122.30708   -4516.1711   -4306.5409   -4516.1711            0    1973.1677    17.952723    23.396357    21.878089    9189.4166      722.519    2899.4088    2297.5752    317.60402   -473.57053   -30.659103   -4042.1005 
26109000    125.89761    -4530.205   -4314.4208    -4530.205            0    1367.9511    17.861937    23.348093    22.157719    9240.7032    948.00925    2163.8587    991.98527     771.3674    37.139732    29.648738   -4130.0673 
26110000    122.17487   -4521.3973   -4311.9937   -4521.3973            0    2342.3897    17.883233    23.262351    22.112189    9198.8039    1913.6047    2179.0009    2934.5634   -22.908622    224.76322    274.93992   -3997.7502 
26111000    127.13777   -4520.8474   -4302.9377   -4520.8474            0    1955.1104    17.965909     23.14087    22.157592     9211.947     3153.843    2701.7019     9.786215     323.1533    265.19503   -7.4558661   -4040.2748 
26112000    122.72922   -4518.0513   -4307.6976   -4518.0513            0    1170.0076    17.946213     23.33548    22.003631    9214.7579    195.29732    2135.2235    1179.5019    86.161465    243.92519    178.65387   -4150.4629 
26113000    125.23285   -4527.1241   -4312.4793   -4527.1241            0    647.56547    17.854692    23.479838    22.097449    9263.8094    883.97102    300.06529    758.66011    -559.4881   -83.908081    157.96374   -4224.9911 
26114000    125.74767   -4504.3685   -4288.8413   -4504.3685            0    2176.7572     17.93928    23.273459     22.02294    9194.7778    2426.8704    2568.9126    1534.4885   -525.82699   -617.92195   -187.95933    -3996.946 
26115000    132.61797   -4523.9573   -4296.6547   -4523.9573            0    2015.2026    18.016394    23.288155    21.969649    9217.7743    2012.5137    920.32236    3112.7718     365.2575   -82.976878     504.5974   -4025.7474 
26116000    121.68177   -4526.9909   -4318.4325   -4526.9909            0      1855.74    17.914069    23.463741    21.894257    9202.8368    3090.9701    1815.4662    660.78384   -347.96051    35.952331   -367.29066   -4069.3664 
26117000    118.34855   -4524.2744    -4321.429   -4524.2744            0    3359.0964    18.022588    23.300354    21.759086    9137.3512    2735.8367    3171.6471    4169.8055   -73.197008   -62.776288    224.53589   -3873.7996 
26118000    119.48475    -4524.757   -4319.9642    -4524.757            0    1601.2297    18.089018    23.309299    21.883878    9227.1694     2168.423    1298.6985    1336.5676   -384.41097   -165.21941   -89.968355   -4104.4887 
26119000    122.14458   -4511.1142   -4301.7626   -4511.1142            0    1361.9288    18.109725    23.475519    21.713653    9231.2386   -133.62964    1021.5039    3197.9121    411.51069    336.58984   -194.56216   -4118.4086 
26120000    123.70457    -4529.583   -4317.5576    -4529.583            0    2383.0588    17.966192    23.465171    21.754929    9171.4384    2524.1266    1977.9674    2647.0822    439.50379    245.28564   -173.98846   -3998.8091 
26121000    123.88217   -4529.4691   -4317.1393   -4529.4691            0     1415.807    18.049289    23.382528    21.848572    9220.9277    1574.3181    1971.7809    701.32185   -357.87774   -64.953815    1.6479976   -4126.7448 
26122000    123.22015   -4508.2887   -4297.0936   -4508.2887            0    1351.7187    18.076393    23.403688    21.835915    9237.7768    487.93999    1504.2105    2063.0056    295.76803    62.212521    -391.3422   -4114.9853 
26123000    121.87528   -4535.2662   -4326.3762   -4535.2662            0    1121.3504    17.953035    23.277867    22.060116     9219.107    367.74164    2082.3652    913.94437    177.11056   -248.69062   -58.643284   -4175.6092 
26124000    127.88001   -4516.9153   -4297.7333   -4516.9153            0    1268.7734    17.858419    23.311914    22.093832    9197.9703    1190.3818    1087.7928    1528.1456    880.91805    472.04136    407.20657   -4127.5363 
26125000    127.91027    -4510.525   -4291.2911    -4510.525            0    1802.2688     18.02461    23.342859    21.889636    9209.9751    825.41656    2541.8436    2039.5463    313.81252   -165.65873   -234.85776   -4049.2139 
26126000    122.94725   -4517.4901   -4306.7628   -4517.4901            0    2126.1587    18.120309     23.28355     21.76084    9181.0101    1062.2918    2587.8345    2728.3498    1178.4559    167.20452   -506.91644   -4022.0794 
26127000    127.62338   -4524.5988   -4305.8566   -4524.5988            0    1720.0684    17.999566    23.433545    21.881163    9229.3353    2142.3704    1142.0265    1875.8083   -269.15035   -224.26353   -122.12444   -4074.3348 
26128000    118.51231    -4509.212    -4306.086    -4509.212            0    1610.7968    17.851962     23.50148    21.948114    9208.2773    2785.5301     1163.865    882.99545    450.41487   -127.09843    470.59611   -4089.7668 
26129000    130.79875   -4518.0508   -4293.8662   -4518.0508            0     1957.235     18.05433    23.203662    21.934693    9189.0259    1687.6848    2219.1913    1964.8289   -725.97179   -160.67129    86.467717   -4031.5723 
26130000    120.23807   -4525.7815   -4319.6975   -4525.7815            0    2395.6388    17.961758    23.332395    21.938878    9194.3827     1979.839    2917.8475    2289.2299   -256.89963    241.68709   -199.28097   -3998.4648 
26131000    122.04244   -4533.3985   -4324.2219   -4533.3985            0    1013.2836    17.834178    23.533794    21.966091    9219.2969    1407.9988    1143.7238    488.12827   -575.74513    211.86877    308.19368   -4187.9819 
26132000    126.64342   -4509.0028   -4291.9403   -4509.0028            0    2048.7064    18.008975    23.238392    21.963455    9191.6975    1965.5817    1767.0857    2413.4517    424.71312   -27.872523    131.54499   -4017.3081 
26133000    121.60673   -4526.3347   -4317.9049   -4526.3347            0    1378.1146    17.919351    23.423166     21.97389    9223.0555    1565.5631   -368.48615    2937.2668   -650.97536    -270.4854   -33.243006   -4132.5364 
26134000    115.61946   -4518.8284   -4320.6606   -4518.8284            0    2421.7477    17.811373    23.421234    22.025416    9188.2181    3076.6961    2726.2168    1462.3304    433.43298   -448.05975   -218.85627   -3996.1446 
26135000    116.51777    -4524.958   -4325.2505    -4524.958            0    2430.4218    17.952464    23.208061    21.958068     9148.651    2519.1288    2599.7991    2172.3375    519.43402   -393.51997   -291.88474   -4000.9746 
26136000    125.46295   -4526.2051   -4311.1659   -4526.2051            0    854.18196    18.104895     23.27259    21.964781    9254.8117    213.29864    734.81048    1614.4368   -136.64617   -262.21878   -226.50139   -4195.8753 
26137000     121.9436   -4528.0489   -4319.0417   -4528.0489            0    1538.9782    17.918736    23.513678    21.903941    9228.9057    798.73491    2003.3455    1814.8544   -650.41453    206.62893   -180.61988   -4111.9043 
26138000    120.39443   -4517.3287   -4310.9767   -4517.3287            0    1927.1543    17.935755    23.321534    22.005873    9204.8219    419.63111    2711.7391    2650.0928   -460.73633    190.88228    740.37288     -4052.27 
26139000    114.36166    -4529.506   -4333.4941    -4529.506            0    1563.5148    18.075991    23.090671    22.046257    9201.8157    1742.5992    2224.2538     723.6913    182.88572    342.58267    318.39608   -4123.6719 
26140000    118.54977   -4515.3308   -4312.1405   -4515.3308            0    2384.2203    17.910902    23.380161     21.93728    9186.4506    3011.4486     2309.625    1831.5873    28.382978    152.45666   -60.967682   -3992.7147 
26141000    113.42113   -4518.0767   -4323.6767   -4518.0767            0    1993.1162    18.009246    23.427536    21.721465    9164.5521    1201.0232    2211.2408    2567.0845   -633.17334   -133.79504   -88.387802   -4057.2856 
26142000    124.08439   -4530.7075   -4318.0311   -4530.7075            0    2105.4551    18.041714    23.284981    21.849721    9179.0891    2818.4383    1407.0295    2090.8974     480.1193   -723.00686   -119.80137   -4036.1789 
26143000    114.52379   -4512.1545   -4315.8647   -4512.1545            0    3033.7834    18.026115    23.141534    21.912507    9140.8451     2169.127     4020.176    2912.0472    -271.9787    266.32055   -462.72381   -3911.4315 
26144000    123.54501   -4519.9263   -4308.1744   -4519.9263            0    2017.3811    17.828654     23.57818    21.875435    9195.7158    1880.9137    2058.1935    2113.0362    326.56532    662.54617    10.730037   -4037.6232 
26145000    128.47524   -4517.0277   -4296.8255   -4517.0277            0    2270.3267    17.935306    23.428286    21.844496    9178.9149    1887.0451    2092.4405    2831.4945    206.97191    19.657415    221.54068   -3992.9081 
26146000    120.82914   -4522.2423   -4315.1453   -4522.2423            0    2386.1674    17.962013    23.243745    21.936797    9158.7106    1365.0851     3464.043    2329.3741   -283.69932    308.55072    182.60323    -3996.424 
26147000    117.26232   -4525.8637   -4324.8801   -4525.8637            0    1475.7715     17.94464    23.338533    21.960398    9197.0493    1701.2218    1015.5368    1710.5558   -388.66044    193.58983   -49.796021   -4126.9356 
26148000    116.15172   -4526.0369   -4326.9569   -4526.0369            0    1607.7865    17.972899    23.445333    21.849744    9207.0579    1450.9982     1814.077    1558.2844   -631.02959   -116.90122   -426.90431   -4111.0705 
26149000    128.38412   -4511.3851   -4291.3391   -4511.3851            0    2368.2667     18.07434    23.265637    21.905982    9211.7068    2251.4228    2687.8345    2165.5427    509.22773    336.51293    143.66333   -3973.1784 
26150000    119.33321   -4519.2311   -4314.6981   -4519.2311            0    1922.0813    18.058508    23.248029    21.927139     9205.555    1880.1299    2259.3775    1626.7367   -255.41786   -382.31465   -532.28667   -4056.6518 
26151000    121.60682   -4510.0638   -4301.6338   -4510.0638            0    1763.4204    17.882052    23.502189    21.945162    9222.8355    2177.9051    1705.9559    1406.4003   -667.08868    -49.05131   -115.65079   -4064.4439 
26152000    119.65318   -4530.6212   -4325.5397   -4530.6212            0    897.93721    17.980926    23.399597    21.974101    9245.5242    594.53141    768.68186    1330.5984    675.74216    288.26407    77.772306    -4204.465 
26153000     118.7645   -4507.2202    -4303.662   -4507.2202            0    1545.8139    18.071968    23.152769    22.027446    9216.6383    1802.9392    1443.4486    1391.0538   -60.617211   -372.20864    335.78179   -4095.8811 
26154000    114.81946   -4516.5854   -4319.7888   -4516.5854            0    2180.0916    18.005029    23.290753    21.938872    9200.0811    1738.6592    3550.6723    1250.9433    593.60879   -202.59741    263.49576   -4027.2777 
26155000    124.08193   -4526.3509   -4313.6787   -4526.3509            0     2607.765    17.914619    23.280686    22.023016    9185.0209    2512.6613      2843.01    2467.6236   -129.37545     429.6381    354.19039   -3964.3579 
26156000     109.5421   -4520.2168   -4332.4654   -4520.2168            0     1431.923    17.889767    23.324496    22.057501     9203.929    1561.9507     1512.936    1220.8824   -79.214888   -344.30344    61.767721   -4140.2586 
26157000    120.39528   -4524.6435   -4318.2902   -4524.6435            0    1854.0599    17.994694    23.283881     21.95253    9197.8098    2376.4421    1716.5703    1469.1672   -422.59218   -645.63996    775.47758   -4069.5854 
26158000    118.60724   -4521.1159   -4317.8271   -4521.1159            0    2844.8103    17.909803    23.463235    21.824478     9171.124    2570.4008    1857.8965    4106.1336    433.16387    495.07099   -330.35745   -3937.3297 
26159000    120.84534   -4519.3879   -4312.2631   -4519.3879            0    2065.9102    17.908938    23.472082    21.875181    9195.4519    2322.8226     2242.196     1632.712   -360.59965    371.55074   -686.13608   -4035.2116 
26160000    124.62275   -4509.2918   -4295.6926   -4509.2918            0    1908.0158    18.090642    23.382513    21.755322    9202.6028    2053.4326    177.14846    3493.4662   -180.64704   -570.52019    448.41229   -4039.6169 
26161000    119.03894   -4530.7927    -4326.764   -4530.7927            0    1199.9688    18.124274    23.319857    21.849236    9234.6992     504.1504    1940.1934    1155.5627   -452.02427    232.08621   -269.45926   -4165.1539 
26162000    116.34419   -4515.9875   -4316.5775   -4515.9875            0    2662.6826    17.966446    23.305941    21.878635    9161.1295    2911.2725    2009.0053    3067.7701     1156.129   -64.876702    594.71299    -3960.828 
26163000    126.47346   -4523.4699   -4306.6987   -4523.4699            0    1744.5934    17.878498    23.490214    21.906279    9199.9741    2257.1622    1845.6312    1130.9868    364.35937    70.558106    14.618894   -4072.6228 
26164000    120.22443   -4520.2868   -4314.2263   -4520.2868            0      2681.44    17.952796    23.295276    21.922023    9168.1262    2244.5507    2679.2288    3120.5404   -772.17512   -139.26391   -244.75337   -3955.6971 
26165000    120.80866   -4520.1719     -4313.11   -4520.1719            0    1658.2859    18.092356    23.141456    21.979024    9202.2539     1316.907    1489.9455    2168.0051     672.4526    159.44213   -486.04846    -4090.559 
26166000    123.12767    -4515.144   -4304.1074    -4515.144            0    1698.4652    17.930844     23.47929    21.833005    9191.7708    1463.7121    814.62884    2817.0546   -1044.3096   -655.88566    316.83004   -4076.4238 
26167000    112.86442   -4515.5054   -4322.0597   -4515.5054            0    2214.6686    18.102517    23.199198    21.835523    9170.1312    1661.2357    3048.4477    1934.3224    297.63836   -862.55898    330.23943   -4025.8766 
26168000    126.09443   -4504.1829   -4288.0614   -4504.1829            0    2051.1893    18.002003    23.352094    21.846105    9183.7629    2223.6001    1997.0331    1932.9347   -331.60451   -559.56997    151.57513   -4013.3338 
26169000    123.52341   -4507.1556   -4295.4407   -4507.1556            0    2400.7192    17.761139    23.482716     22.00393    9177.3942    3817.0389    953.53565    2431.5832   -426.35706   -58.845874   -327.22841   -3974.1215 
26170000    125.87963   -4524.1333   -4308.3799   -4524.1333            0    2197.0993    17.905033    23.253744    22.023915    9169.8566    686.30732    2526.3023    3378.6882   -36.153338   -66.517484   -199.90918   -4014.5554 
26171000    124.04956   -4526.5594   -4313.9427   -4526.5594            0    1652.0684    18.004648    23.220708    22.026251      9208.75    1277.1236     2654.808    1024.2736    462.01307    223.39142    134.71956   -4092.0696 
26172000    120.82717   -4516.6902   -4309.5965   -4516.6902            0    3134.2097       17.742    23.488658    21.919385    9134.5916    4154.7514    2742.3645    2505.5133   -14.681124    350.27908   -213.29731   -3892.0614 
26173000     117.7795   -4515.5533   -4313.6832   -4515.5533            0    2716.6424    17.931339    23.279459    21.976133    9173.5384    2915.1959    3015.8515    2218.8797   -128.63043     315.5244    22.973588   -3950.2327 
26174000    119.79461   -4522.4495   -4317.1256   -4522.4495            0    3635.8522    17.958592    23.083687    21.990117    9116.0144    3414.9137    4056.5878     3436.055    162.15304    442.40344     712.4275   -3833.7474 
26175000    120.57945   -4507.8383   -4301.1692   -4507.8383            0    2364.5068    17.868842    23.439759    21.940177    9189.4532    1554.1258    1437.1277    4102.2669    468.79121   -597.81435    678.74973    -3984.281 
26176000    121.11439   -4523.3473   -4315.7613   -4523.3473            0    1533.6207    17.892272    23.374603    22.075128     9232.365    1851.3471    1028.3297    1721.1853   -783.46523   -604.20044   -14.265625   -4109.2676 
26177000    128.01395   -4516.6351   -4297.2235   -4516.6351            0    2258.7332    17.832916    23.262573    22.157183     9191.675    2562.1088    3463.1513    750.93942   -1367.5684   -413.97895     210.3945   -3994.4377 
26178000     126.7683   -4514.5124   -4297.2358   -4514.5124            0    2671.5907    17.774267    23.339152    22.056954    9150.0257    3364.7402    2260.2117    2389.8203   -373.09988    657.72168    201.88368   -3940.7288 
26179000    121.80533   -4520.7746   -4312.0044   -4520.7746            0    2523.1047    17.937671    23.318661    21.944562    9179.0257    2370.1756    2380.5128    2818.6257     487.9668   -101.99273    516.14151   -3974.2448 
26180000     125.3931   -4529.2698   -4314.3503   -4529.2698            0    1361.3616    17.917189    23.428706    21.998428    9234.4244    1382.7525    1717.1465    984.18583    380.90695    23.550991    395.42328   -4131.0094 
26181000    121.18233   -4513.1201   -4305.4178   -4513.1201            0    1014.6537    18.016032    23.282417    22.033821     9242.235    1157.7279    99.583567    1786.6497   -50.138926   -463.64379   -615.05172   -4168.6541 
26182000    131.53078   -4521.3237   -4295.8845   -4521.3237            0    1566.8347    18.047087    23.334113    21.941624     9239.898    1146.2138    2536.3705    1017.9198   -293.02309   -122.03498   -346.83365   -4084.7465 
26183000    120.92678    -4522.494   -4315.2297    -4522.494            0    3154.8339    17.980148    23.344651    21.795843    9148.5931    2906.8163    3046.9502    3510.7353   -841.33763    303.64751    177.23521   -3894.3027 
26184000    124.23693   -4534.4009   -4321.4631   -4534.4009            0    2111.3225    17.942261    23.433605    21.876292    9197.9272    2337.8014    1564.6133    2431.5528    133.47068   -560.69655   -231.16472   -4038.2453 
26185000     130.0433   -4522.9174   -4300.0276   -4522.9174            0    1379.0752    18.137391    23.317198    21.846387    9239.1246    840.67149    1425.4064    1871.1476   -471.49862   -110.32547   -119.54737   -4114.2067 
26186000    123.59803   -4512.7595   -4300.9167   -4512.7595            0    2108.8418    18.065091    23.328681    21.850953    9208.7505    1710.3207    2455.3192    2160.8854    348.02276   -31.353539    78.575711   -4017.6989 
26187000    124.51214   -4527.3032   -4313.8937   -4527.3032            0    2068.1227    18.051815    23.494991    21.679521    9194.8753    1127.1474    2338.4566     2738.764     635.6362   -500.17944    251.74926   -4036.5629 
26188000    128.10003   -4514.9994   -4295.4403   -4514.9994            0    1787.9551    18.004249    23.420851    21.843467    9210.8401    1547.2031    2664.8369    1151.8253   -225.46633    200.24399    655.34488   -4055.2631 
26189000    116.25416   -4522.6664   -4323.4107   -4522.6664            0     1795.981    18.265861    23.107882    21.816644    9208.4865    1059.7242    3472.3181    855.90077   -23.440443   -463.70996    178.17541   -4082.2171 
26190000    131.62884   -4516.9271   -4291.3197   -4516.9271            0    1526.4911    17.938843     23.37861    21.989174    9221.9344    417.55854    1131.7486    3030.1662    258.16869   -2.1294711   -68.447196   -4086.0182 
26191000    122.92286   -4513.2644   -4302.5788   -4513.2644            0    3357.3288    17.801814    23.407707    21.882128     9118.275    3898.0406    3472.6291    2701.3166   -427.54962   -315.52664    269.75459   -3856.1189 
26192000    122.81986   -4515.2021   -4304.6931   -4515.2021            0    2456.4211    18.006323    23.300779    21.877264    9178.8542    2982.2974    2275.3624    2111.6034    168.25898    476.20051   -223.19462   -3975.8663 
26193000    123.01755   -4516.2588   -4305.4109   -4516.2588            0    2060.6616    17.969082    23.287899    21.953489    9186.7047    2414.1218    1522.8242     2245.039     660.6146     89.46749   -741.67406   -4029.3262 
26194000    124.97089   -4508.3833   -4294.1875   -4508.3833            0    1725.0212    17.858751    23.549332    21.953478    9232.7911    545.85949    2878.4071     1750.797    453.30647    701.25847   -31.265874    -4061.912 
26195000    122.20504   -4522.6128   -4313.1575   -4522.6128            0    1161.6324    17.910954    23.433157    22.026705    9244.8326    1317.1359    1450.0034    717.75797    478.39827    452.04119    141.61398   -4156.5388 
26196000    121.44007    -4520.215   -4312.0709    -4520.215            0    775.83271    18.129937    23.235523    22.003361    9269.1042    679.15874     528.8174     1119.522    438.84241    1049.4469    309.96602   -4207.1935 
26197000    120.42533   -4515.1695   -4308.7646   -4515.1695            0    1574.1213    18.038392    23.349937     21.91874    9232.0707    1681.2256    1850.5095    1190.6288   -369.97319   -67.320365   -523.65449   -4096.8245 
26198000    123.00423   -4514.8086   -4303.9836   -4514.8086            0    2194.5999    17.847266    23.511267    21.907374    9192.5935    1735.6122    1638.1466    3210.0408   -5.4618129   -247.51639    427.26928   -4009.7655 
26199000    125.07374   -4514.7807   -4300.4086   -4514.7807            0    2069.6108    17.982628    23.360609     21.93728    9215.5254    2169.1206    1897.2398    2142.4719   -291.93164    11.361789   -70.508936    -4022.255 
26200000    116.80985   -4512.4551   -4312.2471   -4512.4551            0    1713.3812    18.108126     23.14667    22.039148    9237.5506    1744.2354    2101.1016    1294.8066     -587.506    4.7591178    584.09626     -4081.42 
26201000    118.76092   -4509.8474   -4306.2952   -4509.8474            0    1470.1128    17.804309    23.647693    21.915575    9227.1333    1143.1834    2488.6143    778.54057    964.79611   -250.31684   -56.663118   -4108.4647 
26202000    121.22457   -4511.6883   -4303.9136   -4511.6883            0    1941.1355      17.9334    23.302511    22.025349    9204.2447    2602.0456    1895.4253    1325.9356   -112.32074   -801.18101   -512.55185   -4043.3463 
26203000    120.16454   -4524.0382   -4318.0803   -4524.0382            0    2014.5504    18.002642    23.190301    22.017183    9191.8804    2195.5485    2104.9099     1743.193   -729.72258    775.79608    62.802986   -4048.0214 
26204000    124.97036   -4533.2597   -4319.0648   -4533.2597            0    1858.6862    17.961188    23.284924    22.021647    9210.0014    1710.7715    1981.0841    1884.2031   -382.78855    515.42809    486.52324    -4069.409 
26205000    116.18698   -4522.0638   -4322.9233   -4522.0638            0    1784.0981    17.875176    23.525468    21.873334    9198.2156    2244.8537    856.71466    2250.7261   -949.97031    104.52227   -236.29472   -4083.5927 
26206000    119.49693   -4521.6025   -4316.7889   -4521.6025            0    3253.5191      18.0192    23.212723    21.833082    9132.2262    3506.5065    3205.2198    3048.8311   -750.64198    183.07931    231.94304   -3883.4717 
26207000    122.20697   -4524.8094   -4315.3509   -4524.8094            0    909.12251    18.083841     23.26797    21.993626    9254.3518     448.8965    2284.6522   -6.1811277   -37.698049   -547.85931   -278.29668   -4192.6509 
26208000    125.58148   -4519.7261   -4304.4837   -4519.7261            0    1870.1592    17.897141    23.501491     21.88355    9204.4289    2302.0473    1384.6267    1923.8036    148.53833    198.89665   -568.27902   -4053.4389 
26209000    125.59499   -4525.0192   -4309.7537   -4525.0192            0    1069.9994    17.942164    23.573163    21.802235    9221.3332    987.91429    964.98907    1257.0948   -74.874809    328.75599    16.142305   -4165.8563 
26210000    128.87098    -4519.408   -4298.5276    -4519.408            0    702.57788    18.081114    23.293962     21.94878    9244.4043   -192.09822    1520.7902    779.04166    74.966998   -184.59205   -121.35247   -4203.8059 
26211000    120.64167    -4519.874   -4313.0983    -4519.874            0    1822.6815    17.979231    23.253324    22.030015    9210.2398    2115.4004    2116.4592    1236.1847   -346.40753    346.44909    349.63316   -4068.2723 
26212000    123.16144   -4515.6842   -4304.5897   -4515.6842            0    2792.4494    17.717436    23.426421    22.045204    9149.9968    3333.5613    2300.4827    2743.3044   -643.42747    529.93003    556.92575    -3931.956 
26213000    122.80321   -4511.7996   -4301.3191   -4511.7996            0    1270.3636     17.95996    23.382748    21.996713    9237.5904    1392.1791    1507.9036    911.00814   -305.74532    -132.2813    304.66494   -4130.1747 
26214000     121.0746   -4519.6796   -4312.1619   -4519.6796            0    1658.2051    17.997759    23.215823    22.054708    9215.1797    2407.9809    1025.9836    1540.6509   -77.971704   -464.15147   -28.918863   -4089.3092 
26215000    119.41221   -4539.3058   -4334.6374   -4539.3058            0    1721.5307    18.002082    23.290094    21.966688    9209.9774    1583.8942    1966.0094    1614.6887    509.37656    412.70084    147.72004   -4103.4047 
26216000    123.51844   -4527.6142   -4315.9078   -4527.6142            0    1665.6491    18.018853    23.252522     21.94758    9195.6802    1171.6635    1614.4948    2210.7892   -236.94224   -144.09197   -410.94231   -4092.5283 
26217000    121.84626   -4530.4181   -4321.5778   -4530.4181            0    2098.3985    17.807106    23.526779    21.853976     9155.589    1866.2113    2224.8242      2204.16   -451.84746   -76.113834    359.00266   -4041.3894 
26218000    118.76835   -4512.2945   -4308.7296   -4512.2945            0    1074.4245    18.170665    23.259644    21.888393    9250.9804    530.68437      1854.97    837.61932    159.74726    78.245083   -38.806406   -4163.7724 
26219000    126.89124   -4520.5889   -4303.1017   -4520.5889            0    2199.3035    18.021177    23.306849    21.841162    9173.6557    2694.8581    1537.8886    2365.1638    501.75174    247.20806    145.49725   -4008.8604 
26220000    117.13798   -4522.1739   -4321.4034   -4522.1739            0     1824.377    17.898136    23.549205     21.80936    9192.3591    1755.5266    1283.8146    2433.7897   -689.85968   -287.95333   -564.31091   -4076.8254 
26221000    123.04306   -4522.4512   -4311.5596   -4522.4512            0    2490.9037    17.972315    23.349658    21.843142    9166.4183    2090.5442    1873.1546    3509.0124    605.74835    397.37412    760.69647   -3978.5686 
26222000    122.95499   -4533.6602   -4322.9196   -4533.6602            0    1200.0762    18.039906    23.433974    21.842178    9233.7088    536.13564    1273.5151    1790.5778    -46.74652   -168.58909   -297.27307   -4161.3123 
26223000    122.20886   -4525.5041   -4316.0423   -4525.5041            0    1694.6637    18.056843    23.328808    21.807112    9186.1288    1056.0039    1486.0263    2541.9609   -461.02355    178.17414    -137.1679   -4089.0077 
26224000    120.70418   -4516.1731   -4309.2902   -4516.1731            0    1949.7344    17.758972     23.61928    21.885482    9179.9555    2439.9067    1616.6165    1792.6799   -204.68215   -199.43776    243.66344   -4048.2593 
26225000    117.60481   -4518.7962   -4317.2256   -4518.7962            0    2214.8946    17.841568    23.298976    22.100834    9187.1016    2210.9675    1931.7927    2501.9235   -27.487665   -64.644749    571.44722   -4020.4641 
26226000     126.7064   -4527.1153   -4309.9449   -4527.1153            0    2419.6697    17.956259    23.351063    21.866657    9168.6395    2314.8959    3174.6575    1769.4556   -732.88848    92.958232    504.42104   -3986.3983 
26227000    128.47251    -4499.114   -4278.9165    -4499.114            0    2880.6972    17.964997    23.294143    21.888002    9159.6736    3157.8632    3231.3109    2252.9177   -202.79997    181.02634     375.0224   -3894.1001 
26228000    126.48823   -4514.0936   -4297.2972   -4514.0936            0    3158.8288    17.951395    23.256295    21.903002    9144.1292    2529.3056    3524.9312    3422.2497    754.42026   -1021.8209    42.461194   -3876.0429 
26229000    127.37579   -4522.1322   -4303.8145   -4522.1322            0    2298.0531    17.881213    23.284101    22.077049    9191.7346    2368.1538     2709.528    1816.4774   -631.88233   -65.121112    2.5526715   -3995.7558 
26230000    132.01426   -4518.4824   -4292.2144   -4518.4824            0    1980.1669    17.944103    23.292796    21.997988    9194.4624    2386.0881    1185.8277    2368.5849   -344.24911    197.13741    331.38933   -4026.6903 
26231000    122.42699   -4509.9592   -4300.1235   -4509.9592            0    1435.6653     17.99379    23.386985    21.959599    9241.0498    2232.6833    904.17676    1170.1359   -758.88422    49.181784    719.95591   -4106.6371 
26232000    121.45702   -4518.5939   -4310.4207   -4518.5939            0    1659.6435    18.057587    23.375458    21.801048    9202.3176    1208.5508    1405.1716    2365.2082   -317.05992   -533.74605    56.786098   -4087.6859 
26233000    120.23632   -4527.4342   -4321.3532   -4527.4342            0    1626.2047    18.034799    23.258344    22.008009    9231.4701    619.82593    2027.9879    2230.8002   -528.99267   -101.85896    419.95717   -4102.4148 
26234000    125.83413   -4512.7682   -4297.0928   -4512.7682            0    2283.8479    17.732839    23.377948    22.119252    9169.6994    2289.6734    2643.6308    1918.2396    438.13851    210.91923    304.02678   -3991.6723 
26235000    117.76583   -4520.7263   -4318.8797   -4520.7263            0    2451.1485     17.90759     23.26557    21.987883    9160.8183    2210.0944    3433.0396    1710.3113   -232.37903   -36.363615   -540.31344   -3991.4035 
26236000    120.70565   -4518.2194    -4311.334   -4518.2194            0     1543.616     18.20433    22.989197     21.97325    9195.8694   -111.00825    2595.5209    2146.3354    5.5149419     55.75866   -221.70138   -4104.3161 
26237000    123.80215   -4525.3461   -4313.1535   -4525.3461            0    1531.4044    17.856499    23.497738    21.929823    9201.4763    2522.2622    334.54608    1737.4049   -92.107478    149.48039   -25.591648    -4107.648 
26238000    123.41123   -4512.2795   -4300.7569   -4512.2795            0     1839.644    17.931535    23.384487    21.936143    9198.2579    2226.5194    2228.9798    1063.4328   -168.15317    272.22954   -69.034662   -4053.9739 
26239000    118.97873   -4509.3983   -4305.4728   -4509.3983            0     760.8098     18.06306    23.170567    22.056388    9231.2898    2313.7588    793.30299    -824.6324    -473.7822    364.39437    731.32378   -4203.0458 
26240000    119.03794   -4511.6652   -4307.6382   -4511.6652            0    2818.8207    17.972539    23.306506    21.873772     9162.422     2758.915    2575.0686    3122.4783   -122.98724    204.61553    232.96386   -3930.9747 
26241000    120.58646   -4528.1797   -4321.4986   -4528.1797            0    2005.3625    17.886888    23.582522    21.825407    9206.3479    2432.3696    1067.6298    2516.0882   -412.29963   -94.082684    118.23535   -4052.2484 
26242000    119.55563    -4512.416   -4307.5018    -4512.416            0     3045.928    17.967453    23.212298    21.929747    9146.1487    2015.9913    3614.4267    3507.3661   -9.4447813   -376.91593   -586.58739    -3901.214 
26243000     127.1035   -4512.8516   -4295.0005   -4512.8516            0    3135.3166    17.891005    23.302718    21.934566    9144.7188    3020.8768    3402.1556    2982.9174    -63.35607    116.68478    426.36697   -3876.8548 
26244000    118.35847   -4503.6002   -4300.7379   -4503.6002            0    2373.1601    17.767399    23.625738     21.83314    9164.8514    2952.4235    1567.9505    2599.1063   -105.49001   -226.51735    87.539132   -3983.5414 
26245000    126.55759   -4513.0589   -4296.1435   -4513.0589            0     1767.451    17.933798    23.282194    22.075264    9217.2653    2723.7278    1216.0165    1362.6085   -74.237455   -268.50959    867.61318    -4058.555 
26246000    122.20233   -4522.0283   -4312.5777   -4522.0283            0    786.59523    18.036418    23.273155    21.961395    9218.6105    1219.5224    1169.5255   -29.262145    -411.7262    21.921072   -295.53404   -4206.8247 
26247000    119.84022   -4518.2178   -4312.8158   -4518.2178            0    1188.3931    18.067824     23.34926    21.882041    9231.3835    519.99223    822.17488    2223.0123   -879.11598    62.625322   -254.75327   -4152.8221 
26248000    122.01337   -4505.4299   -4296.3031   -4505.4299            0    2415.0406     17.99047    23.386984    21.811952    9177.2229    2442.5335    2541.2692    2261.3191   -715.03291    479.18993    600.04252   -3973.0732 
26249000    117.09872   -4524.3969   -4323.6937   -4524.3969            0    1418.8934    17.994128    23.474812      21.8209    9217.3393    1521.5901    232.13069    2502.9595    642.90538    143.50968    481.30471   -4132.9583 
26250000    123.09758   -4501.3074   -4290.3223   -4501.3074            0     2412.878    17.995468    23.305147    21.896586    9183.1442    2318.6114    1749.6795    3170.3431    243.42977   -291.76235    478.62451   -3967.1735 
Loop time of 338.238 on 64 procs for 250000 steps with 864 atoms

Performance: 127.721 ns/day, 0.188 hours/ns, 739.125 timesteps/s
195.5% CPU use with 32 MPI tasks x 2 OpenMP threads

MPI task timing breakdown:
Section |  min time  |  avg time  |  max time  |%varavg| %total
---------------------------------------------------------------
Pair    | 17.45      | 24.935     | 34.179     | 107.7 |  7.37
Bond    | 1.0056     | 1.1787     | 1.4591     |   8.3 |  0.35
Kspace  | 167.03     | 177.01     | 185.34     |  44.4 | 52.33
Neigh   | 0.71525    | 0.74795    | 0.81276    |   3.0 |  0.22
Comm    | 51.99      | 55.168     | 57.959     |  24.1 | 16.31
Output  | 0.56365    | 0.56402    | 0.56558    |   0.0 |  0.17
Modify  | 62.499     | 64.302     | 68.621     |  19.1 | 19.01
Other   |            | 14.33      |            |       |  4.24

Nlocal:        27.0000 ave          39 max          18 min
Histogram: 5 7 3 2 1 3 4 0 3 4
Nghost:        2146.78 ave        2264 max        2039 min
Histogram: 12 2 2 0 0 0 0 2 9 5
Neighs:        6613.81 ave        9224 max        4375 min
Histogram: 3 6 5 3 0 3 3 2 3 4

Total # of neighbors = 211642
Ave neighs/atom = 244.95602
Ave special neighs/atom = 2.0000000
Neighbor list builds = 2608
Dangerous builds = 0

unfix		3
unfix		2
unfix		1

write_data	data.final.${pid} nocoeff
write_data	data.final.0 nocoeff
System init for write_data ...
PPPM initialization ...
  extracting TIP4P info from pair style
  using 12-bit tables for long-range coulomb (../kspace.cpp:340)
  G vector (1/distance) = 0.37203327
  grid = 24 27 25
  stencil order = 5
  estimated absolute RMS force accuracy = 0.003118233
  estimated relative force accuracy = 9.390466e-06
  using double precision FFTW3
  3d grid and FFT values/proc = 4410 672
Last active /omp style is kspace_style pppm/tip4p/omp

write_restart   restart.lmp.${pid}
write_restart   restart.lmp.0
System init for write_restart ...
PPPM initialization ...
  extracting TIP4P info from pair style
  using 12-bit tables for long-range coulomb (../kspace.cpp:340)
  G vector (1/distance) = 0.37203327
  grid = 24 27 25
  stencil order = 5
  estimated absolute RMS force accuracy = 0.003118233
  estimated relative force accuracy = 9.390466e-06
  using double precision FFTW3
  3d grid and FFT values/proc = 4410 672
Last active /omp style is kspace_style pppm/tip4p/omp
Total wall time: 0:05:38
