LAMMPS (30 Jul 2021)
  using 1 OpenMP thread(s) per MPI task
package omp 0
using multi-threaded neighbor list subroutines
echo both

include		in.partitions
variable        pid world 0
include		in.temp
variable        temperature equal 262.90
variable	tempDamp equal 100.0
include		in.pressure
variable        pressure equal 4000.0
variable        pressureDamp equal 1000.0 # This is 1 ps
include		in.seed
variable        seed world 745823

units		real
atom_style	full

read_restart	restart.lmp.${pid}
read_restart	restart.lmp.0
Reading restart file ...
  restart file = 30 Jul 2021, LAMMPS = 30 Jul 2021
  restoring atom style full from restart
  orthogonal box = (0.061668755 -0.068759842 -0.16124356) to (19.938332 20.068761 20.861242)
  4 by 4 by 4 MPI processor grid
  restoring pair style lj/cut/tip4p/long/omp from restart
  restoring bond style harmonic/omp from restart
  restoring angle style harmonic/omp from restart
  972 atoms
  648 bonds
  324 angles
Finding 1-2 1-3 1-4 neighbors ...
  special bond factors lj:    0        0        0       
  special bond factors coul:  0        0        0       
     2 = max # of 1-2 neighbors
     1 = max # of 1-3 neighbors
     1 = max # of 1-4 neighbors
     2 = max # of special neighbors
  special bonds CPU = 0.422 seconds
  read_restart CPU = 0.592 seconds
include 	in.setup
variable	out_freq equal 1000
variable	out_freq2 equal 10000
variable	out_freq3 equal 1000

timestep	2.0

neigh_modify    delay 7 every 1

include		in.tip4p
# This is TIP4P/Ice

# create groups ###
group ox type 2
324 atoms in group ox
group hy type 1
648 atoms in group hy

# set charges - beside manually ###
set group ox charge -1.1794
Setting atom values ...
  324 settings made for charge
set group hy charge 0.5897
Setting atom values ...
  648 settings made for charge

# ### TIP3P Potential Parameters ###
pair_style lj/cut/tip4p/long/omp 2 1 1 1 0.1577 8.5
pair_coeff 1 1*2 0.000 0.000
pair_coeff 2 2 0.21084 3.1668
bond_style  harmonic
bond_coeff  1 450 0.9572
angle_style harmonic
angle_coeff 1 55 104.52
kspace_style pppm/tip4p/omp 1.0e-5
pair_modify tail yes

thermo          ${out_freq}
thermo          1000
thermo_style    custom step temp pe etotal epair emol press lx ly lz vol pxx pyy pzz pxy pxz pyz enthalpy

restart 	${out_freq3} restart.lmp.${pid} restart2.lmp.${pid}
restart 	1000 restart.lmp.${pid} restart2.lmp.${pid}
restart 	1000 restart.lmp.0 restart2.lmp.${pid}
restart 	1000 restart.lmp.0 restart2.lmp.0


include         in.dump
dump            myDump all atom ${out_freq2} dump.water.${pid}
dump            myDump all atom 10000 dump.water.${pid}
dump            myDump all atom 10000 dump.water.0
dump            myDump2 all dcd ${out_freq2} dump.dcd
dump            myDump2 all dcd 10000 dump.dcd
dump_modify     myDump append yes
dump_modify     myDump2 append yes


variable natoms 	equal  "count(all)"                        # NUMBER ATOMS
variable H      	equal  "enthalpy/v_natoms"                 # ENTHALPY-per-atom
variable Vol      	equal  "vol/v_natoms"                 # volume-per-atom
fix AVG all 		ave/time ${out_freq} 1 ${out_freq} v_Vol v_H file vol_enthalpy.dat
fix AVG all 		ave/time 1000 1 ${out_freq} v_Vol v_H file vol_enthalpy.dat
fix AVG all 		ave/time 1000 1 1000 v_Vol v_H file vol_enthalpy.dat


timer           timeout 02:55:00 every 1000
New timer settings: style=normal  mode=nosync  timeout=02:55:00

fix 		1 all shake 1e-6 200 0 b 1 a 1
       0 = # of size 2 clusters
       0 = # of size 3 clusters
       0 = # of size 4 clusters
     324 = # of frozen angles
  find clusters CPU = 0.875 seconds
fix             2 all nph aniso ${pressure} ${pressure} ${pressureDamp}
fix             2 all nph aniso 4000 ${pressure} ${pressureDamp}
fix             2 all nph aniso 4000 4000 ${pressureDamp}
fix             2 all nph aniso 4000 4000 1000
fix             3 all temp/csvr ${temperature} ${temperature} ${tempDamp} ${seed}
fix             3 all temp/csvr 262.9 ${temperature} ${tempDamp} ${seed}
fix             3 all temp/csvr 262.9 262.9 ${tempDamp} ${seed}
fix             3 all temp/csvr 262.9 262.9 100 ${seed}
fix             3 all temp/csvr 262.9 262.9 100 745823


run             250000
PPPM initialization ...
  extracting TIP4P info from pair style
  using 12-bit tables for long-range coulomb (../kspace.cpp:340)
  G vector (1/distance) = 0.37208592
  grid = 24 24 25
  stencil order = 5
  estimated absolute RMS force accuracy = 0.003446876
  estimated relative force accuracy = 1.0380165e-05
  using double precision FFTW3
  3d grid and FFT values/proc = 2366 288
Last active /omp style is kspace_style pppm/tip4p/omp
Neighbor list info ...
  update every 1 steps, delay 7 steps, check yes
  max neighbors/atom: 2000, page size: 100000
  master list distance cutoff = 10.8154
  ghost atom cutoff = 10.8154
  binsize = 5.4077, bins = 4 4 4
  1 neighbor lists, perpetual/occasional/extra = 1 0 0
  (1) pair lj/cut/tip4p/long/omp, perpetual
      attributes: half, newton on, omp
      pair build: half/bin/newton/omp
      stencil: half/bin/3d
      bin: standard
Per MPI rank memory allocation (min/avg/max) = 9.227 | 9.230 | 9.238 Mbytes
Step Temp PotEng TotEng E_pair E_mol Press Lx Ly Lz Volume Pxx Pyy Pzz Pxy Pxz Pyz Enthalpy 
  250000    263.87166    -4642.867   -4133.9683    -4642.867            0    4422.4953    19.876663    20.137521    21.022485    8414.6012    3037.6127    5577.5067    4652.3666   -376.39686   -889.39811   -1036.5885   -3591.2471 
  251000    260.89039   -4690.0311   -4186.8821   -4690.0311            0    3479.9126    19.980775    20.022888    21.125302     8451.659    5374.2808    2095.0264    2970.4306    -78.92716    24.237035   -1490.0612   -3757.9523 
  252000     258.6148   -4678.2706   -4179.5102   -4678.2706            0    2511.9329    20.192983    20.257863    20.671119    8455.8663    761.20828    4055.0305    2719.5599    -231.1781    643.91772   -1895.2601   -3869.7383 
  253000    256.70902   -4676.7834   -4181.6985   -4676.7834            0    3136.7692    20.231717    20.077977    20.706556    8411.2505    3517.6716     1428.446      4464.19   -325.61919    429.60313   -561.76323   -3796.9127 
  254000    255.36207    -4714.947   -4222.4598    -4714.947            0    2949.0754    19.980998    19.997464    20.929167    8362.6526    1711.5157    3483.9978    3651.7127   -62.205637    234.87485   -1776.7014   -3862.7884 
  255000    253.43006   -4662.1725   -4173.4113   -4662.1725            0     3845.122     20.17043    20.036619    20.757061    8388.9085    4381.5966    2766.2199    4387.5497    208.49269    -213.9458    334.69739   -3702.9851 
  256000    275.61864   -4693.7789   -4162.2252   -4693.7789            0    1981.3179      20.1701    19.867122    21.102896    8456.3913    1768.9458    3582.9531    592.05496   -119.96258    532.32955    1124.1554   -3917.8736 
  257000    268.65861   -4690.8438    -4172.713   -4690.8438            0    6127.5748    19.893991      19.9231    21.063103    8348.3606    5799.0973    7638.9547    4944.6723   -117.44206   -137.37496   -421.03292   -3426.6668 
  258000    269.98159   -4690.7572    -4170.075   -4690.7572            0    4405.7824    19.945124    20.129486    20.801857    8351.6354    4443.6715    3283.9765    5489.6993    418.29576   -1762.0259    809.84278   -3633.4506 
  259000    270.68625    -4663.991   -4141.9498    -4663.991            0    5192.3146    20.073128    20.043936    20.819941    8376.7882    4304.3371    5602.1367    5670.4701   -189.78974    432.15497   -741.17623    -3507.621 
  260000    282.45738   -4699.0399   -4154.2971   -4699.0399            0    4640.6568    19.915582    20.010548    21.092459    8405.8024    4549.2731    5298.2277    4074.4697   -421.10605    408.06917    53.548324    -3585.399 
  261000    267.52723   -4701.5915   -4185.6427   -4701.5915            0    5156.9896    20.065039    19.955847    20.771128    8317.0682     4088.599    6351.7197    5030.6503   -731.70809    1526.3498    200.16486    -3560.121 
  262000    269.31049   -4652.1282   -4132.7403   -4652.1282            0    3884.0101    20.180028    20.170254    20.698827    8425.1737     2521.551    3017.9001    6112.5792    532.99674    -11.95114    3.5442049   -3655.5022 
  263000    274.85618   -4662.2312   -4132.1479   -4662.2312            0    3684.6857    20.117171    19.957141    20.936739    8405.7075    4245.8131    2024.8567    4783.3872   -159.69892   -270.92686    1145.7466   -3680.4474 
  264000    263.35218   -4697.2868   -4189.3899   -4697.2868            0    3592.0113    20.072176    20.056414    20.887744    8408.9017    3294.2723    4227.4264    3254.3353    6.3636958   -21.971291    355.03346   -3748.8829 
  265000    254.05362   -4664.7416   -4174.7778   -4664.7416            0    4347.1302    20.171993    19.945519    20.758191    8351.8691    4097.6297    4187.8051    4755.9557    -1079.847   -909.08567    787.20757   -3645.2824 
  266000    250.23509    -4655.833   -4173.2335    -4655.833            0    3412.2011    20.103278    20.217941    20.567758    8359.7011     4268.459    3426.5997    2541.5445   -541.94244   -266.28001    664.39487    -3757.226 
  267000    270.68448   -4700.8796   -4178.8418   -4700.8796            0    3534.3396    20.253177    19.904243     20.90506    8427.3347    3122.9335    4078.8457    3401.2398   -256.81666    770.43945   -35.134194   -3744.4572 
  268000     271.3999   -4728.0889   -4204.6713   -4728.0889            0    3674.7774    19.953648    20.198858    20.713493    8348.3848    3052.5509    3551.5406    4420.2407   -199.84432   -480.62195    367.57112   -3757.2575 
  269000    253.91796   -4671.0865   -4181.3844   -4671.0865            0    4694.7299    20.019615     20.13957     20.84641    8404.9897      4902.77    4265.7805    4915.6391   -704.12698   -47.561213   -1066.9419    -3605.913 
  270000    269.10877   -4707.9353   -4188.9364   -4707.9353            0    2875.8061    20.244931    19.910897     20.92725    8435.6645    926.24031    5310.3809    2390.7971   -170.07571   -145.35602    1126.3589   -3835.1389 
  271000    256.78366   -4697.4108   -4202.1819   -4697.4108            0    4778.3577    19.979183    20.110712    20.866788    8384.1832     4011.518    5934.9537    4388.6014    226.55844   -1015.9904   -142.08179   -3617.9096 
  272000    268.52409   -4693.7961   -4175.9248   -4693.7961            0    3985.4695    20.179941    19.925487    20.820122    8371.6702    3972.0792    4569.2871    3415.0422   -30.425337    112.90936    -618.5396     -3689.33 
  273000    254.11407   -4694.3383   -4204.2579   -4694.3383            0    3566.5841    20.047272    20.156747    20.692322    8361.5143    3690.9046    3744.7858    3264.0619    298.78028    442.33576   -1629.4108    -3769.334 
  274000    275.69288    -4654.016   -4122.3191    -4654.016            0    3504.1983    20.006081    20.293714    20.670278     8392.085    5206.0834    1161.9807    4144.5309    595.02496   -539.38438    222.01491   -3693.4404 
  275000    272.07039   -4662.9379   -4138.2273   -4662.9379            0    4838.4081    20.174912     19.93015    20.725469    8333.4836    5156.2399    4124.1785    5234.8061    178.75367   -672.27172    1544.5955   -3550.1899 
  276000    275.39025   -4678.7426   -4147.6294   -4678.7426            0    4784.6958    20.086484    20.314691    20.711646     8451.402    4613.5176    4988.8631    4751.7068    371.63873   -403.60629    730.31693   -3557.8915 
  277000     282.1666   -4681.6735   -4137.4915   -4681.6735            0     4373.053    20.053584    20.078422    20.832741    8388.1845    3970.3992    5221.0206    3927.7391   -364.91441    118.55112    494.32104   -3602.5225 
  278000    252.15387   -4671.1296   -4184.8297   -4671.1296            0    3328.4882    19.978115    20.162342    20.910191    8422.7413    3369.1528    3915.1991    2701.1127   -348.61843   -18.509631   -1570.0561    -3775.968 
  279000    261.99209   -4662.4416   -4157.1678   -4662.4416            0    4338.6678    20.273362    20.013159    20.552815    8338.9762    3935.6062    3824.2868    5256.1106    37.970787    748.54656    86.400892   -3629.5189 
  280000    269.60426   -4668.6271   -4148.6726   -4668.6271            0    5151.5571    20.175666    19.873158    20.784694      8333.71    2835.2951    7735.3795    4883.9968   -128.30398   -1405.5312   -593.55547   -3522.5595 
  281000    274.05125   -4673.9466   -4145.4157   -4673.9466            0    1730.5079     19.99477    20.165961    21.120366    8516.0217    2012.5869    2278.4364    900.50035     371.7178   -858.18609   -146.64213    -3930.491 
  282000    276.73211   -4697.0232    -4163.322   -4697.0232            0     3993.702    20.074904    19.931441    20.952636    8383.6056    3443.8684    4282.6495     4254.588    337.47629    366.78928    588.93355   -3675.0269 
  283000    268.32388   -4674.3228   -4156.8377   -4674.3228            0    4917.0796    20.033507    19.900316    20.899124    8331.9189    6004.2418    5081.0578    3665.9393   -444.17069   -836.87921   -964.94882   -3559.3511 
  284000    268.61708   -4701.3647   -4183.3141   -4701.3647            0    4802.7375    20.019238    20.012218    20.635352    8267.1274     4585.172     3937.245    5885.7954    151.00027     685.5048    6.6214582   -3604.2597 
  285000    266.21101   -4731.5162   -4218.1059   -4731.5162            0    2922.3298    20.240622    20.105866    20.757789    8447.4909    5603.9018    561.70514    2601.3825    3.3945314    684.14634   -241.24189   -3858.0808 
  286000     252.7473   -4687.1763   -4199.7318   -4687.1763            0    4740.8037    19.954695    20.044005    20.785993    8313.8151    4621.8888    4366.3745    5234.1478   -295.82568    1179.0993    536.24472   -3624.9167 
  287000    266.29778   -4684.1252   -4170.5475   -4684.1252            0     4138.212    19.853775    19.962631    20.900625    8283.6197     3194.471    5747.1866    3472.9783   -126.56455   -705.74739    47.453975    -3670.618 
  288000    271.02104   -4682.3453   -4159.6584   -4682.3453            0    2853.7309    19.984939    20.003198    21.010165    8399.0805    740.48687    5013.9953    2806.7106    -147.1134   -351.51556    -130.7412   -3810.0993 
  289000    254.50331   -4682.8713   -4192.0402   -4682.8713            0     4557.593    19.844785    20.091239    20.929708    8344.8068    6351.4676    3726.4968    3594.8146   -226.60417    58.990154    365.11886   -3637.3791 
  290000    260.51992   -4684.5248   -4182.0903   -4684.5248            0    2981.6029    20.093772    20.090967    20.865065    8423.2956    2761.1003    2631.6368    3552.0714    641.97115   -1225.7404   -686.18003   -3815.8149 
  291000    267.14898   -4692.8097   -4177.5904   -4692.8097            0    3931.6154    20.075393    20.080976     20.83763    8400.3465    3179.7084    4816.6279    3798.5098   -40.324064    818.66205   -1441.9536   -3695.9265 
  292000    262.84597    -4684.678   -4177.7574    -4684.678            0    5690.9603    19.810755    20.225782    20.707936    8297.4216    5986.9443    4395.9004    6690.0361    190.66086   -1040.1697   -384.26454   -3489.0978 
  293000    274.99329   -4684.8376     -4154.49   -4684.8376            0    3634.0183    19.756861    20.036806     21.11392    8358.2491    3022.0606    4755.5925     3124.402   -27.007016   -505.64207   -565.13306   -3711.5159 
  294000    254.21587   -4691.3679   -4201.0912   -4691.3679            0    4895.5093    19.961935    19.948996    20.869252    8310.5657     5628.535    5046.8773    4011.1157     62.09486     780.0145    1624.5279   -3607.7502 
  295000     253.9462   -4697.4806    -4207.724   -4697.4806            0    4788.4666    20.244999    19.919239    20.679545    8339.3363    3966.7388    4507.6679    5890.9932    699.14184    401.88865    329.86487   -3625.3475 
  296000    250.94841   -4674.2523   -4190.2772   -4674.2523            0    3383.7622    20.202386    19.965237    20.784569    8383.3605    4308.3673    1722.3703    4120.5489   -400.73737   -606.91387    -105.1614   -3776.5693 
  297000    273.79906   -4707.7989   -4179.7544   -4707.7989            0    3355.9996    20.122352    20.074042     20.85057    8422.3152     3349.497    1989.9615    4728.5401   -187.24485    306.71292    1141.6838   -3767.5342 
  298000    247.18083   -4680.5264   -4203.8174   -4680.5264            0    4021.2299    20.103872    19.934116    20.885023    8369.7339    2614.6124    4699.5418    4749.5356    127.09482    -1149.937    398.05469   -3712.9701 
  299000    272.84034   -4689.4014   -4163.2058   -4689.4014            0    3378.4198    20.105839    20.222749    20.576977    8366.5029    3873.4198     1697.494    4564.3457    982.18613     1144.143   -1001.9737   -3750.9816 
  300000    254.08187   -4692.9907   -4202.9724   -4692.9907            0    3167.7618    19.946824    20.205203    20.897568    8422.3392    4632.7355    1811.1699    3059.3801   -426.55173    67.459456   -494.41956   -3813.8725 
  301000      268.266   -4625.2669   -4107.8933   -4625.2669            0    2867.2008    20.128818    20.130768    20.939606    8484.9078    3442.7829    1579.3777    3579.4417    448.80764   -600.56001   -137.84015   -3753.0954 
  302000    252.85476   -4690.6852   -4203.0336   -4690.6852            0    4876.8812    20.184827    20.013457    20.723908    8371.7991    4628.0183    5152.1165    4850.5087    748.43712    1083.1474   -92.863416   -3607.5951 
  303000    249.43418   -4687.6645   -4206.6097   -4687.6645            0    3900.7185    19.853052    20.121065    20.979688    8380.6418    4505.7054    4359.7231     2836.727   -710.98434    649.10922    731.69783   -3729.8519 
  304000    272.61085   -4668.1121   -4142.3591   -4668.1121            0    5562.8539    20.064918    19.889361    20.895272    8338.8517    5960.7576    5061.1733    5666.6307    439.87123   -2233.0814    296.13738   -3465.8405 
  305000    272.52558   -4685.3499   -4159.7614   -4685.3499            0    4475.9235    20.090467    20.000846    20.684968    8311.7648    3869.0568    4454.4071    5104.3067    713.39299    967.96102    -308.8836   -3617.1964 
  306000    279.03104    -4668.642   -4130.5072    -4668.642            0    5230.7928    19.828077    20.282754    20.772879    8354.1875    6604.0517    4204.2287     4884.098    465.53446    296.64512    335.16979   -3493.2018 
  307000    250.28489   -4692.0688   -4209.3733   -4692.0688            0    4299.1793    20.214071    19.845534    20.923536    8393.6656    2750.9018     5719.221    4427.4152   -361.18251   -92.409278    848.62532   -3683.0979 
  308000     266.3762   -4684.5338   -4170.8049   -4684.5338            0    3138.4561    20.073838    20.152427    21.005555    8497.5147    3389.8734    2812.6761    3212.8188   -851.41199    1422.5785    959.80162   -3781.8637 
  309000    262.40725   -4680.1081   -4174.0337   -4680.1081            0    4467.0705    19.951399    20.108762    20.798514     8344.321    6568.8262    3417.5986    3414.7868   -783.33781     1146.894    418.19907   -3630.4208 
  310000    263.39956    -4686.196   -4178.2078    -4686.196            0    4431.5476    20.134398    20.132177    20.786704     8425.875    4727.4735    3688.3893    4878.7799    89.761621    628.04509   -547.78481   -3633.6471 
  311000    262.69235   -4681.7654   -4175.1411   -4681.7654            0    3556.1026    20.057613     20.05663    21.095415    8486.4349    2417.0452    5718.2751    2532.9875   -551.58981   -1240.6061    155.40585   -3735.0167 
  312000    258.81095   -4624.9457    -4125.807   -4624.9457            0    5265.3608    19.913928    20.139844    20.963069    8407.5199    4709.9344    5779.0938    5307.0543   -419.64271    1253.1785    1755.5127   -3480.1945 
  313000    259.03328   -4643.2278   -4143.6604   -4643.2278            0    5253.3025    20.075468    20.039834    20.935882    8422.6946    7466.6158    4027.9521    4265.3396    213.82447    950.31095   -383.10387   -3498.3638 
  314000    269.89945   -4692.7012   -4172.1774   -4692.7012            0    3054.3929    20.247937    20.048613    20.620141    8370.6031    1684.2555    4540.5722     2938.351   -86.964492    810.76156    252.61683   -3799.3074 
  315000    262.02874   -4690.0815   -4184.7371   -4690.0815            0    5442.0376    20.081866    20.040683    20.735712    8345.1767    3477.6143    6250.1715    6598.3271    223.81356    -1440.617   -592.14405   -3522.4093 
  316000     275.2131   -4663.7213   -4132.9497   -4663.7213            0     4257.312    19.891553    19.938348    21.333997    8461.1637    4867.6512    3409.6974    4494.5875   -896.63906   -484.07481    177.15912   -3607.6085 
  317000     259.1888   -4683.8412   -4183.9738   -4683.8412            0    4355.7773    20.024089    20.035993    20.778439    8336.3618    5729.8578    2241.1926    5096.2817    36.113767    1171.7063    545.93667   -3654.4102 
  318000    261.85352   -4689.3773   -4184.3708   -4689.3773            0    2397.4043    20.315556    20.049982     20.82832    8483.9276    2287.6593    2475.6697    2428.8838   -315.09924    -157.7362   -466.03911   -3887.7414 
  319000    263.09184   -4721.8048   -4214.4101   -4721.8048            0    3371.9475    19.989354    20.231884    20.733099    8384.9276    2882.0732    3050.8433    4182.9259   -551.78937    171.71507    445.02749   -3802.0696 
  320000    263.41352   -4671.5389   -4163.5238   -4671.5389            0    1247.9971     20.29674    19.910137    20.884766    8439.7606    2112.6764    946.59404    684.72097   -83.184194   -455.99204   -334.82284   -4009.9138 
  321000    273.47131   -4697.3224   -4169.9099   -4697.3224            0    4901.9962    19.980043    19.971191    20.897001    8338.4315    5519.5633    3800.1507    5386.2744    89.741912    153.01541   -812.26458   -3573.7906 
  322000    278.16192   -4648.7975   -4112.3388   -4648.7975            0    4873.9822    20.004361    19.951364    21.044274    8399.0706    4111.6145    6951.4646    3558.8675   -59.662965   -1383.1059    1233.3635   -3515.3158 
  323000    252.16043   -4703.1548   -4216.8422   -4703.1548            0    3058.6123    20.193906    20.065905    20.841858    8445.3084    4132.4163    1693.4132    3350.0075    135.58794   -970.37301    259.68957   -3840.1247 
  324000    261.33512   -4709.0282   -4205.0215   -4709.0282            0    3981.3471    19.991998    20.232944    20.662456    8357.9006    4449.4312     3243.968    4250.6421   -582.82981    1198.3254    674.42261   -3719.7295 
  325000    276.09597   -4713.1136   -4180.6393   -4713.1136            0    4538.2209    20.224942    19.986276    20.739404    8383.3081    6249.2856    3267.5966    4097.7803   -28.649411    989.27004   -46.530686   -3625.7876 
  326000    263.32283   -4683.9524   -4176.1121   -4683.9524            0    4531.8083    19.967331    20.067799    20.867742    8361.7124     3980.552     4279.039    5335.8338   -794.64233   -861.43909    1007.4886   -3623.4717 
  327000    254.04104   -4714.2786   -4224.3391   -4714.2786            0    3037.6011    20.034855     19.85977    21.089568    8391.2781     2781.201     3432.699    2898.9032   -479.22543   -1060.5444    127.94312    -3852.603 
  328000    269.53269   -4657.9598   -4138.1434   -4657.9598            0    4097.4567     20.25206    20.152736    20.665057    8434.1211    4499.2451    3541.7821    4251.3429    282.26632    1331.4924    826.89859   -3634.1439 
  329000    260.24064   -4704.4449   -4202.5489   -4704.4449            0    3010.4007    20.119275    20.205483    20.682019    8407.6473    4071.9303    1704.4827    3254.7891   -910.12267   -273.30157    915.44612   -3833.4229 
  330000    269.37501    -4673.557   -4154.0446    -4673.557            0    4297.4909    19.999363    19.938425    21.150907    8434.0466    3528.1557    5670.7183    3693.5985    485.91976    628.29232    443.76787    -3625.445 
  331000     273.0641   -4691.5433   -4164.9162   -4691.5433            0    4439.4276     20.01501    19.914722    21.023578    8379.8583    4100.2149    5190.8392    4027.2288   -133.19931   -431.72516    889.84093   -3622.3665 
  332000    275.82654    -4742.127   -4210.1723    -4742.127            0    3553.7444    20.137455    20.018033    20.754165    8366.2575     2805.841    4186.2724    3669.1199   -68.928681    331.47828    491.12564   -3776.5683 
  333000    268.38005   -4682.9474   -4165.3539   -4682.9474            0    3881.4379     20.22754    20.071266     20.62163    8372.2235    1888.0199    4973.6365    4782.6573    310.94571   -981.20695    97.420738   -3691.4292 
  334000      278.138   -4667.9929   -4131.5803   -4667.9929            0     4622.244    20.082603    20.077505    20.780605    8378.9179    3622.7491    4435.0435    5808.9395     237.9143    481.45245    1353.5591   -3566.7517 
  335000    262.48861    -4707.466   -4201.2346    -4707.466            0     3693.975    19.983929     20.03095    21.056139    8428.7112    3280.9655    4087.1184    3713.8412   -137.60753   -141.76074    48.537653    -3747.156 
  336000    255.69156   -4680.8045   -4187.6819   -4680.8045            0    2837.5889    19.974725    20.170324    20.813009    8385.4921     4318.916     1466.614    2727.2366   -59.062628    808.51037   -1038.4868   -3840.6623 
  337000    268.63661   -4711.0043    -4192.916   -4711.0043            0    3962.6853    20.172904    20.068797    20.860754     8445.391    2657.5304    5334.7698    3895.7559   -807.00465    962.04982    53.429264   -3704.8425 
  338000     271.7742   -4690.7571   -4166.6177   -4690.7571            0    3265.5987     20.13552    20.043977    20.710481    8358.6652    3913.4378    2761.8648    3121.4935   -30.547447    221.42985      378.601   -3768.5329 
  339000    256.44264   -4715.5334   -4220.9622   -4715.5334            0    3578.9515    19.906178    20.211468    20.937592    8423.8859    4789.6763    2278.8792     3668.299   -160.44964    107.83959   -33.135082   -3781.2746 
  340000    248.29334   -4676.1237   -4197.2691   -4676.1237            0    3997.5899    19.942893     20.15031    20.943181    8416.1322    3991.2221    3873.9711    4127.5764    -195.8083    1363.9109   -245.95872   -3706.6023 
  341000    267.62684   -4707.1796   -4191.0387   -4707.1796            0    3321.0562    20.100713     20.02052    20.861094     8395.062    4061.8241    3021.6386     2879.706    884.97839    541.21003    616.33485   -3784.4306 
  342000     256.3971   -4680.9571   -4186.4737   -4680.9571            0    3141.3793    20.034378    20.098871    20.745025    8353.3654    3255.6011    2106.7703    4061.7665    157.86879      363.703    961.55862   -3803.7743 
  343000    260.99906   -4658.3419   -4154.9832   -4658.3419            0    3866.9228    19.872149    20.119304     21.09629    8434.5882    4240.6124     3942.516    3417.6401    821.77048   -188.26174    570.66334   -3679.3138 
  344000    267.05981   -4695.8748   -4180.8275   -4695.8748            0    3754.0924    20.113766    19.982505    20.907382    8403.1667    3291.9433    4460.2308    3510.1032   -827.30172   -1151.0967    159.61557   -3720.7575 
  345000    254.96514   -4716.9123   -4225.1906   -4716.9123            0    3796.7547    20.119713    19.987591    20.846722    8383.3968    3351.7374    2821.4705    5217.0562   -360.98301    1166.8945     74.24642    -3760.987 
  346000    254.72615   -4655.2066   -4163.9458   -4655.2066            0    6031.4533    20.109213     20.07745    20.702184    8358.3352    4738.1683    7054.1946    6301.9971    115.96737   -145.93954   -82.471927   -3428.7253 
  347000    272.14857   -4701.0085   -4176.1471   -4701.0085            0    4268.4579    20.088507    19.896707    20.907073    8356.4554     2692.893    6470.4012    3642.0794     706.4136    121.98956    -223.8796   -3655.9487 
  348000    266.88031   -4693.6107   -4178.9096   -4693.6107            0    4518.4995    19.836197    20.179678    20.979483    8397.8364    6349.8538     3064.699    4140.9459    572.34583   -1504.0796     350.4757   -3625.5116 
  349000    255.24439   -4670.8649   -4178.6046   -4670.8649            0    5488.4838    20.198038    19.941209     20.61468    8303.0429    3887.3271    6024.3152    6553.8091    670.85145   -318.15065     -1679.89   -3513.9966 
  350000    254.81255   -4671.6524   -4180.2249   -4671.6524            0    5317.1669    19.880277    20.136347    20.954781    8388.5373    5592.9751    5590.1377     4768.388    3.8049093    1353.3315    1568.6541   -3529.7323 
  351000    250.65498   -4705.4963   -4222.0871   -4705.4963            0    3002.9802    20.013086    19.982621    21.025454    8408.3713    1453.0411    4963.4954     2592.404    151.07639    1178.3143    1175.9762   -3853.8392 
  352000    254.18091   -4673.1056   -4182.8964   -4673.1056            0    2828.4673    20.005066      20.0933    21.089318    8477.2266    2585.3613    2267.3472    3632.6935    -115.2696   -142.87699    736.02676   -3833.2083 
  353000     269.3176   -4672.8724   -4153.4708   -4672.8724            0    3661.6381    20.165064    20.111305    20.570334    8342.2116    2510.6122    3002.5445    5471.7575   -580.35728    119.43018   -371.41905   -3707.9864 
  354000    280.12724   -4696.8719    -4156.623   -4696.8719            0    5035.5395    20.005137    20.073686    20.734944    8326.6729    5547.7174    4176.5167    5382.3845   -165.17117    958.93088   -243.68251   -3545.1273 
  355000    271.63297   -4658.4198   -4134.5528   -4658.4198            0    3535.8587    20.256808    20.072954    20.871708     8486.728    3559.2963    4537.4934    2510.7864   -177.11793    -940.9943   -449.75389   -3696.9187 
  356000    260.05779   -4708.8202   -4207.2769   -4708.8202            0    2606.9789    20.054335    19.911086    21.008772     8388.878    4529.6642    1189.2243    2102.0481    184.34906    974.29698   -326.97786   -3888.3308 
  357000    267.24717   -4688.6098   -4173.2011   -4688.6098            0    3980.3556    19.896938    20.031469    21.091361    8406.2765    5172.6273    4257.6554    2510.7842    372.00673    396.10002   -1134.4196   -3685.2218 
  358000     260.9745   -4657.4877   -4154.1765   -4657.4877            0    4020.0094    20.058883    20.133395    20.789223    8395.7987    4732.9789    3457.6788    3869.3705   -873.78194   -331.48899    1571.4769     -3661.95 
  359000    255.38226   -4669.4002   -4176.8741   -4669.4002            0    3831.7788    20.261131    20.165439    20.648757    8436.5576     3306.833    3394.5822    4793.9212   -25.869027   -216.60036   -417.42203   -3705.4176 
  360000    275.44368    -4682.764   -4151.5477    -4682.764            0    4420.7822    20.134685    19.977616    20.844741    8384.6514    2911.1848    5857.1933    4493.9684    580.74366     1038.743   -291.10697   -3610.9676 
  361000    285.79042   -4689.0442   -4137.8734   -4689.0442            0    6598.5675    19.879042    20.028705    20.856954    8304.2269    7719.0168    6218.3323    5858.3535    31.313994    519.38081   -1549.1954   -3338.7299 
  362000    266.88775   -4679.0244   -4164.3089   -4679.0244            0    3542.8832    20.147074    20.111322    20.749777    8407.4837    3908.9394    3720.7809    2998.9292    14.771283   -106.60956    328.96708   -3729.8999 
  363000    264.51827   -4718.7802   -4208.6345   -4718.7802            0    4025.9243    20.255454     19.87195    20.749095    8351.8298    1653.4113    6027.7977     4396.564   -64.002023    192.80379   -1185.0386   -3718.2654 
  364000     276.4576   -4703.5891   -4170.4174   -4703.5891            0    4883.7441    19.878695    20.047437    20.946563    8347.5593    5551.2459    4571.8186    4528.1678   -436.29766    555.92234   -747.76301   -3575.8675 
  365000    259.72532   -4676.9768   -4176.0747   -4676.9768            0    4219.7133    20.107733    19.881579    20.991972    8392.0337    4501.5725    3796.8427    4360.7247   -60.779085    650.27221    2414.2963   -3659.6273 
  366000     247.5065   -4673.9031    -4196.566   -4673.9031            0    5951.8111    20.111688    19.850974    20.683956    8257.7923    3765.2379    8363.4851    5726.7104   -567.92889   -542.30982    244.67441   -3479.7809 
  367000    242.96356   -4675.0288   -4206.4531   -4675.0288            0    5224.9077    19.863646    20.191298    20.672632    8291.2305    5168.2996    5072.8426     5433.581    18.120966   -1919.7222   -956.30197    -3574.662 
  368000    264.96544    -4701.041   -4190.0329    -4701.041            0    4279.0514     20.16725    19.848052    20.721745    8294.5128    3421.0026    4446.2983    4969.8533    147.92585    757.07237    1228.3083    -3672.409 
  369000    252.29739   -4695.8388   -4209.2621   -4695.8388            0    4761.6353    20.029005     20.05027    20.771795    8341.6819    4890.6811    4131.0063    5263.2185    330.13948    53.668125   -115.34384    -3629.986 
  370000    266.50329   -4678.3769   -4164.4029   -4678.3769            0    4463.6956    19.977588    20.037274     20.91329    8371.5151    4029.7204    5166.3973    4194.9691   -437.15365    -1286.006    1113.1989   -3619.4305 
  371000     249.1397   -4699.1027   -4218.6158   -4699.1027            0    3560.3797     20.14865     20.15797    20.735843    8421.9849    3911.4024    3419.2459    3350.4907    332.61054    1348.0751   -1248.0409   -3781.3086 
  372000    262.99214   -4653.9635   -4146.7611   -4653.9635            0    3736.1391    19.926306    20.053915    20.912796    8356.7631    4186.4527    2052.2217    4969.7427    365.01716      1085.37   -1079.4462   -3691.4198 
  373000    264.55488   -4685.4893    -4175.273   -4685.4893            0    3528.6748    20.137589    19.953009    21.006725    8440.6178    2134.1766    4915.7075    3536.1404    190.92094   -94.224748    704.54029   -3740.9011 
  374000    258.91124   -4675.4912   -4176.1591   -4675.4912            0    3508.5085    20.173162    19.999594    20.908266    8435.5455    2748.1318    3302.2829    4475.1107    178.20728   -58.829931    886.64647   -3744.5292 
  375000    276.71169   -4676.6872   -4143.0254   -4676.6872            0    7241.9685    20.151811    19.920209    20.666766    8296.2242    7509.4203    6263.2374    7953.2479    1179.5571    508.25075    830.42578   -3266.8057 
  376000     251.3149   -4688.4397   -4203.7577   -4688.4397            0    3119.0987    19.868204    20.053098    21.106424    8409.2015    4395.3331    3091.2747    1870.6883   -124.77151    421.34681   -120.46568   -3821.2328 
  377000    252.16935    -4663.021   -4176.6912    -4663.021            0    4417.2023     20.12969    19.871353    20.785152    8314.1477    3229.3871    5509.1039     4513.116    1169.8697   -417.22196   -729.59932   -3641.0908 
  378000    255.54786   -4687.6601   -4194.8146   -4687.6601            0    4033.1061    20.314124    20.221645     20.46762    8407.7913    4900.4736    2594.6047    4604.2399   -83.663059   -1017.2527   -169.30965   -3700.2791 
  379000    274.88295   -4669.8982   -4139.7634   -4669.8982            0    5337.8971    20.148829     20.10588    20.751107    8406.4794    5818.1168    4964.9594    5230.6151   -786.31847    1139.0426   -895.35586   -3485.3378 
  380000    251.18081   -4700.1428   -4215.7195   -4700.1428            0    3396.9385    20.173126    19.965245    20.757845    8360.4589    3759.5839    3058.0517      3373.18   -365.96298    1092.6625   -182.61249   -3801.5351 
  381000    256.00043   -4716.0945   -4222.3762   -4716.0945            0    2952.8666    19.926632    19.992306    20.988125    8361.2349    3304.6933    3797.2651    1756.6415    177.85657     21.94291    226.64278   -3862.3035 
  382000    274.39659   -4675.3736   -4146.1767   -4675.3736            0    3231.3293    20.035406    20.027327    21.066907    8453.2148    4942.6393    3095.9202    1655.4284    -421.0535    1073.0699    194.52311   -3747.8137 
  383000    261.42572    -4651.024   -4146.8425    -4651.024            0    4454.6376    19.983902    20.255805    20.663599    8364.4188    5861.0771    3783.3511    3719.4846   -716.32446    1020.7411   -141.12793    -3603.437 
  384000    254.81449   -4680.4504   -4189.0192   -4680.4504            0    5030.9866    20.137209    20.165707    20.606883    8368.0649    4367.4526    5301.6414    5423.8658    -91.56964    28.726226    544.80227   -3575.0394 
  385000    263.04149   -4689.3146   -4182.0169   -4689.3146            0    5174.5364    19.909552    20.130891    20.880406    8368.8042    5766.0401    4358.0215    5399.5477   -164.36893   -165.02381    327.32953   -3550.4626 
  386000    269.53232   -4685.1577    -4165.342   -4685.1577            0    4156.3994    20.012599    19.992903    20.919998    8370.2993    3953.9867    4245.2706    4269.9408    188.18412    1064.8443    804.93977    -3657.961 
  387000     264.5284   -4700.5715   -4190.4062   -4700.5715            0    1991.1149    20.234312    19.852757    20.973846    8425.3381    2116.6488     2946.961     909.7349    676.93478    894.03082    563.43987   -3945.7482 
  388000    267.83906   -4709.8406   -4193.2904   -4709.8406            0    4137.2037    20.085786     20.08907    20.826844    8403.7304    4646.5853    4666.3465    3098.6794   -640.08817   -223.37269    389.01417   -3686.2356 
  389000    246.63674   -4697.4603   -4221.8006   -4697.4603            0    2477.8374    20.146238    20.189641    20.702415    8420.6101    1775.7605    2766.1465    2891.6052    202.28783   -1042.6712   -424.13904   -3917.5074 
  390000    259.22705   -4668.0711   -4168.1299   -4668.0711            0    3286.6457    20.164392    19.890805    20.850711    8362.9283    2121.4161    4817.3393    2921.1817   -669.46126   -196.69471   -571.64653   -3767.2751 
  391000     258.8215   -4682.4937   -4183.3347   -4682.4937            0    2887.1781    20.000833    20.017872     20.99269    8404.9299    2459.2283    3649.6718    2552.6342   -446.81473    106.59318   -1351.5498   -3829.4322 
  392000    266.96555   -4697.0104   -4182.1449   -4697.0104            0    4491.2474    19.987865    20.164069    20.822825    8392.3628    5166.2874    5063.0132    3244.4417   -254.13219   -629.20954    488.92406   -3632.4432 
  393000    258.31869   -4695.8437   -4197.6544   -4695.8437            0    1410.3883    20.231912     20.01991    20.845466    8443.2694    2001.1877    889.41942    1340.5578   -299.13381    327.86068    -74.62305   -4023.9842 
  394000    259.62101   -4674.0812   -4173.3803   -4674.0812            0    4104.5106     20.09676    20.352642    20.628246    8437.4094    5222.6116    1679.0469    5411.8734    408.61945   -1499.2733    726.76961   -3668.3163 
  395000    263.27455   -4690.8089   -4183.0618   -4690.8089            0    3087.8071    20.127733    19.963698    21.045471    8456.5751    3651.1399    2392.6606    3219.6207   -819.15507   -718.69106   -105.60698   -3802.2411 
  396000    260.79373   -4701.6492   -4198.6865   -4701.6492            0    5140.3717    19.988254    19.947425    20.785513    8287.4792      4747.58    4619.9827    6053.5523   -1168.1091    -482.9072    685.89711   -3577.3987 
  397000    259.45883   -4716.8858   -4216.4976   -4716.8858            0    3871.6827    20.050796    20.021133    20.835281    8364.1075    4163.3113     4318.935    3132.8017   -278.31605    1182.6835    1078.1211   -3744.2223 
  398000    270.20204   -4709.4692   -4188.3618   -4709.4692            0    5722.4456     20.23841    19.913718    20.646811    8321.1192    4477.9106    7869.8389    4819.5874   -871.82505    1129.3955    304.96997   -3493.9145 
  399000    277.38412   -4699.1202   -4164.1616   -4699.1202            0    2853.6087     20.16344    19.995514    20.920217    8434.5782    2825.9236    2482.8873    3252.0151   -1204.8807     87.40234   -788.77889   -3813.1402 
  400000     265.7104   -4701.4763   -4189.0314   -4701.4763            0    2714.5723    20.112527    19.892413    20.934468    8375.6026    2025.3995    3252.5346    2865.7829   -209.83894    256.14095   -1381.4106   -3857.4476 
  401000    268.60889   -4655.2503   -4137.2154   -4655.2503            0    3145.0123    20.097066    19.895124    21.071019    8424.9015    1941.8933    5832.1494    1660.9943    10.506407    128.91588    699.43828   -3750.7923 
  402000    272.12919   -4680.7941   -4155.9701   -4680.7941            0    2300.6457    20.305667    19.959577    20.860002    8454.4027    2718.5318    3002.0637    1181.3416    266.17573   -1562.2688     644.7841   -3872.3032 
  403000    257.52237   -4680.2743   -4183.6208   -4680.2743            0     4068.509    20.065806    20.095752    20.766602     8373.872    1964.9667     4935.249    5305.3114    104.09221    349.86286    555.52009   -3686.7568 
  404000    263.48328   -4681.0802   -4172.9305   -4681.0802            0    4619.1875    20.213125    19.970198    20.728036    8367.0813    3183.4196    4997.6097    5676.5331   -80.075402    104.75761    585.64643   -3609.2728 
  405000    268.16532   -4704.3958   -4187.2164   -4704.3958            0    4032.5729    19.951922    20.179903    20.767802    8361.6953    4963.8965    4095.5006    3038.3216   -1163.0307    774.44105   -151.55924   -3695.4573 
  406000    257.37143   -4695.6261   -4199.2637   -4695.6261            0    3607.5896    20.132456    19.976947    20.890323    8401.7748    2580.5441    4536.9403    3705.2845   -220.56843    1407.8937   -1233.7156   -3757.2211 
  407000    275.95471   -4707.4861   -4175.2842   -4707.4861            0    4575.7002     20.03786    20.099963    20.691394    8333.6709    2479.5244    5654.4979    5593.0783     61.23841    693.32517    743.50213   -3619.1626 
  408000    269.84475   -4732.9292   -4212.5109   -4732.9292            0    3626.2432     19.76883    20.224983    21.020383    8404.4589    4267.4172    3217.3897    3393.9226   -188.21702    312.20619    -34.38416   -3768.0408 
  409000     264.2799   -4713.3834   -4203.6973   -4713.3834            0    4611.9606    19.968755    19.939316    20.910477    8325.7847    4353.5605    5558.5981    3923.7233   -736.81668    421.22034   -290.78307   -3643.6991 
  410000    272.03767   -4705.0351   -4180.3875   -4705.0351            0    3285.3132    20.076323    20.073186    20.913433    8428.0253    2242.8021    3930.0419    3683.0956    358.99006    345.42126    1190.5563   -3776.5762 
  411000    264.47928   -4711.2006   -4201.1301   -4711.2006            0    3393.4381    20.160492    20.149078    20.630043    8380.2399    3963.1969      2619.81    3597.3073   -937.64063   -96.890672    1045.9532   -3786.3936 
  412000    250.56804   -4650.6575    -4167.416   -4650.6575            0    3731.1288    20.212784    19.929207    20.896161    8417.4909    2809.6652    4801.7233    3581.9977    176.58206   -606.74303    207.08412   -3709.3808 
  413000    267.40057   -4692.4891   -4176.7846   -4692.4891            0    2845.3842    20.128948    19.929006    21.001631    8424.8028    4162.3779    1652.4022    2721.3724   -424.97516   -447.03378     124.3222   -3827.1805 
  414000    266.42976   -4712.1802    -4198.348   -4712.1802            0    4243.1049    19.830574    20.225541    20.890046    8378.6656    6210.6067    1370.3573    5148.3507   -383.00344   -462.26837    440.80561    -3679.865 
  415000    266.86067   -4694.4277   -4179.7645   -4694.4277            0    3649.5079    20.005117    20.003944    20.926112    8374.2375    3357.0512     4975.897    2615.5755   -558.13851   -501.44315    700.31122   -3734.0513 
  416000    277.59955   -4694.1199   -4158.7458   -4694.1199            0    4337.4759    20.059649    20.121747    20.794791    8393.5094    4961.3591    3267.3623    4783.7064    477.11474    287.23154   -286.71093   -3627.7923 
  417000    270.28054   -4699.7222   -4178.4634   -4699.7222            0    4887.5162    20.220849    20.068829    20.506935    8321.8941    3208.2925    6681.9171    4772.3392    510.29473     1212.404   -563.22581   -3585.2837 
  418000    271.57853   -4672.4931   -4148.7311   -4672.4931            0    3646.0842    20.055497    20.200004    20.898092    8466.2585    3517.4848    2992.4154    4428.3523    58.547701   -1256.4971   -1054.0027   -3698.5429 
  419000    273.52553   -4670.6882   -4143.1712   -4670.6882            0    2466.6198    20.250337    20.075808    20.812617    8461.2004    1694.8279    2661.0033    3044.0283    -188.6706   -264.94955   -454.35224   -3838.7954 
  420000    272.41909   -4692.2101    -4166.827   -4692.2101            0    2813.8894    20.048623    20.017451    20.955282    8409.8226     4826.887    1813.9048    1800.8765   -478.74336    433.38206    -941.5584   -3821.7073 
  421000    263.93833   -4668.8434   -4159.8161   -4668.8434            0    2603.2072    20.039813     20.04231    20.973595    8423.9216    4288.4349    1671.1901    1849.9964   -356.00315    1442.8227   -485.27207    -3840.001 
  422000    267.05389   -4713.6325   -4198.5967   -4713.6325            0    3551.9125    20.175518    20.001119    20.839995    8409.6245    3886.2415    3047.3453    3722.1506   -470.62545    522.78632    1635.9123   -3762.9697 
  423000    253.29199   -4699.3237   -4210.8288   -4699.3237            0    3490.5909    19.873842    20.238418    20.797737    8365.1643    4830.7904    1947.4889    3693.4934   -151.34742   -513.60598     351.1685    -3784.986 
  424000    270.01086   -4702.3704   -4181.6318   -4702.3704            0    3868.0476    20.153036    20.010719    20.762424    8373.0025    1644.9284    5373.5194     4585.695   -868.00396    -200.3079   -6.1721636   -3709.2981 
  425000    259.54423   -4690.2113   -4189.6584   -4690.2113            0    2777.6019    20.245416    19.911401    20.753757    8366.1424    1993.3567    4077.6565    2261.7925   -652.71879   -1502.3136   -544.42051   -3850.7587 
  426000    256.04462    -4704.191   -4210.3874    -4704.191            0    5329.9542    19.899079    20.063597    20.821922    8313.0922    4992.6788    6467.5787    4529.6051   -254.29062   -226.15842    728.80481   -3564.1948 
  427000    274.02208   -4706.6164   -4178.1418   -4706.6164            0    3934.7291    20.154127    19.966637    21.056904    8473.5112    2754.0556    5820.4416      3229.69    -431.7945   -101.40484   -865.49531    -3691.898 
  428000    253.90527   -4666.3182   -4176.6405   -4666.3182            0    2992.0311    20.025207    20.123203    20.958634    8445.7281    3048.7425    3005.7004    2921.6504   -107.29313   -789.91876   -154.41281   -3808.1053 
  429000     272.0997   -4663.0447   -4138.2775   -4663.0447            0    2226.3205    20.226325    20.175368    20.665456    8433.0258    626.83989    3307.6062    2744.5154   -88.039999    148.12925   -972.72073    -3864.469 
  430000    261.42941   -4663.7565   -4159.5679   -4663.7565            0    2881.6268    20.221619    20.189152    20.675699    8441.0061    2108.9214    2702.7552    3833.2037    -555.6406    445.19286   -189.70866   -3804.8298 
  431000    253.34156   -4678.4402   -4189.8497   -4678.4402            0    3601.3432    20.101122     20.23765    20.615072    8386.2002    3432.5581    3134.0878    4237.3838    126.33463    1946.6951   -394.90245   -3749.3906 
  432000     253.5848   -4668.1673   -4179.1077   -4668.1673            0    4584.8537    20.224176    20.009921    20.842255    8434.5303    3545.6475    5185.1997    5023.7139   -291.56519   -86.052692   -799.01916   -3615.1295 
  433000    254.28161   -4697.0528   -4206.6494   -4697.0528            0    3670.9514    20.005445    20.052808    21.045002    8442.5256    4212.9816    3690.3667     3109.506   -176.62889   -1300.3583    238.98039   -3754.6614 
  434000    252.59469    -4680.454   -4193.3039    -4680.454            0    3518.6366    20.108195    20.100322    20.557395    8308.9124    3179.0486    2651.0855    4725.7757   -643.17472    230.13565   -858.49067   -3766.9262 
  435000    278.39267   -4690.9659   -4154.0622   -4690.9659            0    3561.6135     20.29951    19.970915    20.732473    8404.9399    2528.5599    4268.0922    3888.1883    205.48941    573.97517   -1433.2915   -3717.4888 
  436000     259.9073   -4661.8902   -4160.6371   -4661.8902            0     4166.713    20.003797    20.135527    20.861926    8402.9125    4136.7987    4417.9856    3945.3546   -429.26386    324.83899   -1011.7345   -3650.0154 
  437000     255.5404   -4684.4422   -4191.6111   -4684.4422            0    3247.7659    20.076674    20.047843    20.923256    8421.4853    3274.5907    3285.9814    3182.7256    382.25947    858.78756   -247.70807   -3792.7246 
  438000    262.90873   -4663.3794   -4156.3378   -4663.3794            0     4978.457    20.096846    20.119768    20.582639     8322.464    5857.9157    4512.7873    4564.6679   -182.09263   -473.16548   -311.64382   -3552.0796 
  439000    241.96604   -4683.8078    -4217.156   -4683.8078            0    4004.4301    20.216099    20.201685    20.638427    8428.7185    4793.6999    2509.5092    4710.0811    291.56474   -1.8454338    1523.3426   -3724.9146 
  440000    275.53213   -4669.1128   -4137.7259   -4669.1128            0    4609.6912    20.094692    20.155603    20.686959    8378.6451    6511.4916    3172.5295    4145.0527   -116.43789   -203.65103    433.03674   -3574.4495 
  441000     272.7772   -4701.1147    -4175.041   -4701.1147            0    2968.6798    19.929103     20.11365    20.996352    8416.3246    2588.1661    3853.4204    2464.4531   -55.833614   -89.330707    1939.6198   -3810.6549 
  442000    254.02179   -4653.3468   -4163.4445   -4653.3468            0    4172.2694    20.003891    19.868326    21.002069    8347.1426    4976.6893    3700.6938    3839.4251   -690.28478    356.17394    776.03921   -3655.5353 
  443000    268.06623    -4686.869   -4169.8808    -4686.869            0    5757.6062    20.143531    20.260192    20.522473    8375.4637    5237.3978    5188.7622    6846.6588   -169.68019    86.119667    -288.5937   -3466.6033 
  444000    265.82151   -4669.6276   -4156.9684   -4669.6276            0    3502.5807     20.27307    20.080598    20.630375    8398.5298    1743.5666    4795.9093    3968.2662   -393.55773    1882.3734   -1673.3236   -3727.9585 
  445000    271.79474   -4713.1107   -4188.9317   -4713.1107            0    3425.0823    20.128679    19.960824    20.997167     8436.347     4205.481    2364.5037    3705.2622   -57.583143   -315.67581   -616.49247   -3767.5251 
  446000    260.53405   -4680.2086   -4177.7468   -4680.2086            0    3575.0343    19.988549    20.096366    20.956891    8418.3244    2699.9359    4343.4347    3681.7325    154.43013    2273.0635   -1012.9656   -3738.8304 
  447000    257.48141   -4672.1501   -4175.5755   -4672.1501            0    3699.6047    20.237701    20.025693    20.662531    8373.9859    2981.9814    4342.4541    3774.3785    167.07481    647.41092    972.57666   -3723.7576 
  448000    253.96564   -4666.2332   -4176.4391   -4666.2332            0    4756.1959    20.175275    20.083225     20.72106    8395.8545    2632.0442    5419.4179    6217.1257    101.42647    -191.8511    982.53131    -3594.067 
  449000    261.83921   -4653.7392   -4148.7602   -4653.7392            0    3003.1799     19.94672    20.047432    20.943954    8375.0792    3140.9458     1946.404    3922.1899    -388.2892    -406.2593   -235.48387    -3781.946 
  450000    271.10441   -4718.5822   -4195.7345   -4718.5822            0    2820.7415    19.886678    20.017596    21.270404    8467.3963    3742.8824    2553.3712     2165.971   -649.32899    1055.8615   -1417.5702    -3847.406 
  451000    255.25759   -4675.4573   -4183.1715   -4675.4573            0    3682.1649    20.111124    20.094528     20.72676    8376.1714    4004.1375     3369.863    3672.4941   -313.41068   -75.758154    542.45724   -3733.3661 
  452000    262.57753   -4668.5107   -4162.1079   -4668.5107            0    5381.6503    19.965308    19.923555    20.876787    8304.3666    5060.9958     5432.476    5651.4793   -6.2914145   -417.58805   -482.77199   -3510.3326 
  453000    250.07329   -4688.2142   -4205.9269   -4688.2142            0    2545.1601    20.070975    19.984766     20.97308    8412.5902    3020.6875    2851.5362    1763.2566   -468.23534    1308.1061    67.988485   -3893.6637 
  454000    255.62003   -4706.7147     -4213.73   -4706.7147            0    2766.0135    20.103227    20.063357    20.863259      8414.95    3346.1741    2817.0269    2134.8395    -895.8676   -294.32827   -1151.5649   -3874.2753 
  455000    256.79798   -4712.4352   -4217.1787   -4712.4352            0    3327.2805    20.025935    20.074473     20.85875    8385.4275    3581.3581    2934.1683    3466.3151    27.316265    1466.0072   -1284.8811   -3810.2761 
  456000    254.41725   -4704.9786   -4214.3135   -4704.9786            0    3523.3301    20.028395    20.022945     21.03804    8436.8313    4282.0486    2802.6342    3485.3074   -214.86401    204.40377   -672.15294    -3780.794 
  457000    263.64494   -4698.2403   -4189.7789   -4698.2403            0    3302.6723     19.94901    20.142856    20.823811    8367.6328    2353.3388    4197.2382    3357.4399   -589.44681   -1013.4773    549.41026   -3786.7428 
  458000    255.26035   -4655.5412   -4163.2502   -4655.5412            0    5670.0124    20.118288    20.048958    20.798599    8389.1296    7997.8154    3344.4945    5667.7271    3.0549687   -224.97866    696.14741    -3469.542 
  459000    261.52552    -4683.203    -4178.829    -4683.203            0    3180.8206    20.225195    19.914232    20.813066    8382.8625    2396.8768    4282.9214    2862.6635   -385.38101    497.48233    232.74551   -3789.9564 
  460000    266.27967   -4671.6821   -4158.1394   -4671.6821            0    3360.4518    20.139526    20.204831     20.60951    8386.3334    3071.5906    4356.2061    2653.5588    423.34265    -991.8941   -871.92868   -3747.1357 
  461000    269.39663   -4699.6913   -4180.1372   -4699.6913            0    3605.1038    20.093066    20.002002    20.859466    8383.4518    3311.0838    3621.4271    3882.8005   -825.16103   -1236.5226   -683.21306   -3739.3626 
  462000    265.14176   -4693.0367   -4181.6885   -4693.0367            0    3704.4793    20.054089    20.154185    20.742359    8383.5185    3619.8351    3279.7806    4213.8222   -151.63716   -190.06879    405.95671   -3728.7603 
  463000    265.77756   -4662.2321   -4149.6578   -4662.2321            0    3321.1897     20.23261    20.325729    20.576804    8462.0576    4423.2309    887.11357    4653.2245   -498.23146   -2205.5004    982.35103   -3739.7883 
  464000    268.66795   -4697.0919   -4178.9432   -4697.0919            0    2342.8335    19.983925    20.139847    21.005547    8454.1691    2733.6698    3035.8222    1259.0085    -408.2476    861.10593    319.63905   -3890.0826 
  465000    241.49682   -4694.2473   -4228.5004   -4694.2473            0    4649.9025    20.021378    19.983729    20.954013    8383.7379    6420.2419    4022.0798    3507.3859     743.4582   -204.47864   -76.854537   -3659.9651 
  466000    249.47418    -4675.267   -4194.1351    -4675.267            0     5587.941     20.01306    20.003056    20.880454    8358.9128    8511.9466     4488.004    3763.8723   -613.64865   -731.76082   -926.39301   -3512.9306 
  467000    260.32264   -4717.2776   -4215.2235   -4717.2776            0    3984.0374    20.372369    19.965894    20.530264    8350.7375    3369.8867    4297.4524    4284.7729    351.80097    211.24896   -319.79883   -3730.0198 
  468000    262.08984   -4663.0212   -4157.5589   -4663.0212            0    4415.3601    20.251581    19.993696    20.728832     8393.186    4311.3532    4915.5866    4019.1403    336.91521    518.47275    296.93428   -3617.0923 
  469000    264.74916   -4674.9508   -4164.3598   -4674.9508            0    4770.3778    19.973411    19.908842    20.975187    8340.7304    5130.5095    4925.7506    4254.8732    164.39362    230.88821   -132.64011   -3584.0863 
  470000    261.13014    -4714.502   -4210.8906    -4714.502            0    3737.6315    20.042514     19.94525    21.018307    8402.1306    3474.6397    4920.2693    2817.9855   -372.36957   -92.781803    492.46153   -3752.8945 
  471000    262.84901    -4689.961   -4183.0346    -4689.961            0    5156.5377    19.982763    20.153733     20.76898    8364.2349    6208.6383    4798.1918    4462.7831   -43.937527    838.39026   -477.79641   -3554.0206 
  472000    255.40091   -4693.9789   -4201.4168   -4693.9789            0    3599.0794    19.950196    20.205345    20.848505    8404.0448    4581.9786    2142.5886     4072.671    726.49059    840.54197   -357.35626   -3760.2979 
  473000    259.45873   -4700.0743   -4199.6863   -4700.0743            0    3417.0054    20.060162    19.942698    20.913689    8366.6001    2614.5232    5171.9077    2464.5851   -419.47851   -618.37662   -1108.7026   -3782.7492 
  474000    261.36011   -4677.1705   -4173.1155   -4677.1705            0    3675.6348    20.155165    19.945802     20.93933    8417.8394    4284.1685    3220.3041    3522.4319   -657.03944    91.189771    1.7851178   -3721.8742 
  475000    262.58023   -4707.4273   -4201.0193   -4707.4273            0    2676.3877    20.054247    20.277188    20.639439    8392.8986    3784.3364    2144.7748     2100.052   -458.12072    788.80463   -186.70771   -3873.4246 
  476000    253.82807   -4677.1988   -4187.6701   -4677.1988            0    4341.4715    19.972104    20.125057    20.872361    8389.4316    3734.2792    3988.7746    5301.3609   -131.59785    276.77429    2023.0054   -3656.4856 
  477000    282.01531   -4656.5411   -4112.6509   -4656.5411            0    4865.3715    20.154367    19.943936    20.957695    8424.1006    3009.2558    5900.9388    5685.9198   -349.11907     425.9868    143.80632   -3514.9066 
  478000    265.51648   -4653.7222   -4141.6514   -4653.7222            0    7172.0766     19.87236     20.02574    20.871936    8306.1687    8675.5274    6786.0475    6054.6551    244.86673   -292.79767   -632.49943   -3272.8479 
  479000    274.51509    -4687.314   -4157.8885    -4687.314            0     4390.017    20.053669    20.081703    20.768163    8363.5847    4111.5464    5159.3061    3899.1985   -42.376433   -99.860109    886.13026   -3622.4193 
  480000    271.15415   -4659.6346    -4136.691   -4659.6346            0    3753.3029    20.011786    20.070371    20.984526    8428.3083    4503.2894    4099.6083     2657.011    -360.6833   -183.97672   -275.52038   -3675.3416 
  481000    263.12564   -4658.3266   -4150.8667   -4658.3266            0    3584.1347    20.291746    20.057877    20.785902    8460.0564    1872.7864    5482.6053    3397.0123    78.033062    -1188.224    391.37184   -3708.6517 
  482000    260.54845   -4677.5781   -4175.0885   -4677.5781            0    3425.2388    19.962167    20.306904    20.714834    8397.1679    3882.2795    2251.4029     4142.034   -491.85061   -383.00258   -1253.7782   -3755.6198 
  483000    251.51466   -4678.4635   -4193.3964   -4678.4635            0    2604.8194    20.038023    19.954604    21.043943    8414.4374     2990.433    1657.9981    3166.0272    -307.1615   -421.74821   -439.09443   -3873.7435 
  484000    266.31427   -4676.3167   -4162.7073   -4676.3167            0    3511.0146    20.078132    20.106209    20.965516    8463.6767     2378.984    3847.2351    4306.8249    183.20162    168.16455     627.5351   -3729.3285 
  485000    258.44551   -4705.1132   -4206.6793   -4705.1132            0    4306.2988     20.14176    19.979251    20.698778    8329.5458    4161.0179    2959.4941    5798.3844   -148.89052    362.87941   -431.67234   -3683.5592 
  486000    265.75215   -4705.5877   -4193.0623   -4705.5877            0    5565.7628    19.920231    20.007767    20.813513    8295.4201     5440.384    6302.3694    4954.5351   -848.69847   -276.19649   -1831.3532   -3519.7153 
  487000    256.33154   -4678.1853   -4183.8284   -4678.1853            0    4316.2686    20.124276    19.927718    20.975422    8411.7926     5639.367    4548.7177    2760.7212   -62.292941    1261.7942    213.18334   -3654.3199 
  488000    267.94693   -4677.3856   -4160.6274   -4677.3856            0    5689.8678    20.363696     19.93902     20.74885    8424.6998    5239.3183    4774.1116    7056.1735   -1207.1496   -380.36948    164.80511   -3461.5384 
  489000    260.98259    -4682.296   -4178.9691    -4682.296            0     4924.306    19.826286    20.212702    20.849841    8355.4234    6428.4172    4577.4838     3767.017    94.094531     -378.811   -1036.0877   -3578.9164 
  490000    267.75723   -4686.0959   -4169.7036   -4686.0959            0    3631.2311    20.236701    19.891186    20.881352    8405.4118    2657.4596    4397.6471    3838.5866   -171.99862   -678.37991     863.5424   -3724.5716 
  491000    259.23623   -4712.8697   -4212.9108   -4712.8697            0    3899.5185    20.051537    20.067818       20.903    8411.1705    2794.0631    5359.3941    3545.0982    422.36419   -43.722569    1206.3506   -3734.5635 
  492000    259.38143   -4674.3447   -4174.1058   -4674.3447            0    5253.8035    19.950579    19.996347    20.821055    8306.3246    6945.6891    4332.7203     4483.001   -831.31096    878.74732   -553.33835   -3537.6641 
  493000    262.52704   -4661.2629   -4154.9575   -4661.2629            0    4425.8564    19.913626    20.010824    21.012946    8373.4083    4281.1703     6368.218     2628.181    504.27096    1476.5421   -1009.1045   -3614.4826 
  494000    267.04684   -4679.0151   -4163.9928   -4679.0151            0    2317.3743    20.203749    19.957328    21.036384    8482.1403    1750.8293    3643.1729    1558.1208    69.779931   -705.97732     -625.457   -3877.3259 
  495000      275.484   -4658.9791    -4127.685   -4658.9791            0    4215.8048    20.065196    20.204791     20.72256    8401.1974    5080.1978    2679.9328    4887.2838   -783.72602   -143.71802    848.70949   -3611.1526 
  496000    272.43503   -4679.0586   -4153.6448   -4679.0586            0    3900.4832    20.181824    19.953222    20.721496     8344.389    5656.3829    2562.0954    3482.9712    636.20392   -327.72989    -75.13637    -3678.978 
  497000    269.92166    -4705.033   -4184.4663    -4705.033            0    3752.0491    20.212178    19.727629    20.908878    8337.1718    4184.7792    3209.3779    3861.9903   -33.910294    840.29371     612.9454   -3728.2581 
  498000    270.75991   -4685.8554   -4163.6721   -4685.8554            0    4100.2113    20.018187    20.121936    20.850784    8398.7933    5636.0417    2655.9687    4008.6233     79.83204    1508.1173   -757.18045   -3661.4463 
  499000    257.70551   -4703.6435   -4206.6368   -4703.6435            0    2868.1598    20.390879    20.123487    20.607622     8456.041     704.5909    3384.4191    4515.4695   -264.79281   -231.05874     -1523.95   -3852.9276 
  500000    278.44191    -4668.976   -4131.9773    -4668.976            0    3874.6596    19.976442    20.196213    20.837237    8406.7515    1737.8429    6651.2062    3234.9298    499.42931    1025.3486    1142.1895   -3656.9292 
Loop time of 441.393 on 64 procs for 250000 steps with 972 atoms

Performance: 97.872 ns/day, 0.245 hours/ns, 566.388 timesteps/s
99.2% CPU use with 64 MPI tasks x 1 OpenMP threads

MPI task timing breakdown:
Section |  min time  |  avg time  |  max time  |%varavg| %total
---------------------------------------------------------------
Pair    | 20.303     | 28.059     | 36.885     |  78.9 |  6.36
Bond    | 0.26596    | 0.27856    | 0.29179    |   0.9 |  0.06
Kspace  | 173.79     | 191.21     | 208.65     |  53.5 | 43.32
Neigh   | 2.979      | 3.9351     | 4.8041     |  24.7 |  0.89
Comm    | 84.017     | 100.97     | 119.93     |  75.3 | 22.87
Output  | 1.4271     | 1.4283     | 1.4378     |   0.1 |  0.32
Modify  | 102.19     | 108.54     | 114.53     |  29.4 | 24.59
Other   |            | 6.973      |            |       |  1.58

Nlocal:        15.1875 ave          20 max          10 min
Histogram: 1 3 4 6 11 10 8 13 3 5
Nghost:        2195.70 ave        2254 max        2154 min
Histogram: 2 6 18 9 8 6 6 4 2 3
Neighs:        4684.31 ave        6981 max        3393 min
Histogram: 6 12 10 8 12 5 8 2 0 1

Total # of neighbors = 299796
Ave neighs/atom = 308.43210
Ave special neighs/atom = 2.0000000
Neighbor list builds = 8537
Dangerous builds = 0

unfix		3
unfix		2
unfix		1

write_data	data.final.${pid}
write_data	data.final.0
System init for write_data ...
PPPM initialization ...
  extracting TIP4P info from pair style
  using 12-bit tables for long-range coulomb (../kspace.cpp:340)
  G vector (1/distance) = 0.37209639
  grid = 24 24 25
  stencil order = 5
  estimated absolute RMS force accuracy = 0.0034465432
  estimated relative force accuracy = 1.0379163e-05
  using double precision FFTW3
  3d grid and FFT values/proc = 2366 288
Last active /omp style is kspace_style pppm/tip4p/omp
WARNING: Not all mixed pair coeffs generated from mixing. Use write_data with 'pair ij' option to store all pair coeffs. (../write_data.cpp:312)

write_restart   restart.lmp.${pid}
write_restart   restart.lmp.0
System init for write_restart ...
PPPM initialization ...
  extracting TIP4P info from pair style
  using 12-bit tables for long-range coulomb (../kspace.cpp:340)
  G vector (1/distance) = 0.37209639
  grid = 24 24 25
  stencil order = 5
  estimated absolute RMS force accuracy = 0.0034465432
  estimated relative force accuracy = 1.0379163e-05
  using double precision FFTW3
  3d grid and FFT values/proc = 2366 288
Last active /omp style is kspace_style pppm/tip4p/omp
Total wall time: 0:07:23
