LAMMPS (30 Jul 2021)
Processor partition = 1
  using 2 OpenMP thread(s) per MPI task
using multi-threaded neighbor list subroutines
variable        pid world 0 1
variable        phase world IceV IceIII

shell cd ${phase}
shell cd IceIII
include Restart.lmp
echo both
log log.lammps
#include		in.partitions
include		in.temp
variable        temperature equal 51.47
variable	tempDamp equal 100.0
include		in.pressure
variable        pressure equal 6787.3
variable        pressureDamp equal 1000.0 # This is 1 ps
include		in.seed
variable        seed equal 745823

units		real
atom_style	full

read_restart	restart.lmp.${pid}
read_restart	restart.lmp.1
Reading restart file ...
  restart file = 30 Jul 2021, LAMMPS = 30 Jul 2021
  restoring atom style full from restart
  orthogonal box = (0.14882205 0.17362427 0.084919420) to (19.851179 19.826377 20.615079)
  4 by 2 by 4 MPI processor grid
  restoring pair style lj/cut/tip4p/long/omp from restart
  restoring bond style harmonic/omp from restart
  restoring angle style harmonic/omp from restart
  972 atoms
  648 bonds
  324 angles
Finding 1-2 1-3 1-4 neighbors ...
  special bond factors lj:    0        0        0       
  special bond factors coul:  0        0        0       
     2 = max # of 1-2 neighbors
     1 = max # of 1-3 neighbors
     1 = max # of 1-4 neighbors
     2 = max # of special neighbors
  special bonds CPU = 0.002 seconds
  read_restart CPU = 0.006 seconds
include 	in.setup
variable	out_freq equal 1000
variable	out_freq2 equal 10000
variable	out_freq3 equal 1000

timestep	2.0

neigh_modify    delay 7 every 1

include		in.tip4p
# This is TIP4P/Ice

# create groups ###
group ox type 2
324 atoms in group ox
group hy type 1
648 atoms in group hy

# set charges - beside manually ###
set group ox charge -1.1794
Setting atom values ...
  324 settings made for charge
set group hy charge 0.5897
Setting atom values ...
  648 settings made for charge

# ### TIP3P Potential Parameters ###
pair_style lj/cut/tip4p/long/omp 2 1 1 1 0.1577 8.5
pair_coeff 1 1*2 0.000 0.000
pair_coeff 2 2 0.21084 3.1668
bond_style  harmonic
bond_coeff  1 450 0.9572
angle_style harmonic
angle_coeff 1 55 104.52
kspace_style pppm/tip4p/omp 1.0e-5
pair_modify tail yes

thermo          ${out_freq}
thermo          1000
thermo_style    custom step temp pe etotal epair emol press lx ly lz vol pxx pyy pzz pxy pxz pyz enthalpy

restart 	${out_freq3} restart.lmp.${pid} restart2.lmp.${pid}
restart 	1000 restart.lmp.${pid} restart2.lmp.${pid}
restart 	1000 restart.lmp.1 restart2.lmp.${pid}
restart 	1000 restart.lmp.1 restart2.lmp.1


include         in.dump
dump            myDump all atom ${out_freq2} dump.water.${pid}
dump            myDump all atom 10000 dump.water.${pid}
dump            myDump all atom 10000 dump.water.1
dump            myDump2 all dcd ${out_freq2} dump.dcd
dump            myDump2 all dcd 10000 dump.dcd
dump_modify     myDump append yes
dump_modify     myDump2 append yes


variable natoms 	equal  "count(all)"                        # NUMBER ATOMS
variable H      	equal  "enthalpy/v_natoms"                 # ENTHALPY-per-atom
variable Vol      	equal  "vol/v_natoms"                 # volume-per-atom
fix AVG all 		ave/time ${out_freq} 1 ${out_freq} v_Vol v_H file vol_enthalpy.dat
fix AVG all 		ave/time 1000 1 ${out_freq} v_Vol v_H file vol_enthalpy.dat
fix AVG all 		ave/time 1000 1 1000 v_Vol v_H file vol_enthalpy.dat


timer           timeout 02:55:00 every 1000
New timer settings: style=normal  mode=nosync  timeout=02:55:00

fix 		1 all shake 1e-6 200 0 b 1 a 1
Finding SHAKE clusters ...
       0 = # of size 2 clusters
       0 = # of size 3 clusters
       0 = # of size 4 clusters
     324 = # of frozen angles
  find clusters CPU = 0.000 seconds
fix             2 all nph aniso ${pressure} ${pressure} ${pressureDamp}
fix             2 all nph aniso 6787.3 ${pressure} ${pressureDamp}
fix             2 all nph aniso 6787.3 6787.3 ${pressureDamp}
fix             2 all nph aniso 6787.3 6787.3 1000
fix             3 all temp/csvr ${temperature} ${temperature} ${tempDamp} ${seed}
fix             3 all temp/csvr 51.47 ${temperature} ${tempDamp} ${seed}
fix             3 all temp/csvr 51.47 51.47 ${tempDamp} ${seed}
fix             3 all temp/csvr 51.47 51.47 100 ${seed}
fix             3 all temp/csvr 51.47 51.47 100 745823


run             250000
PPPM initialization ...
  extracting TIP4P info from pair style
  using 12-bit tables for long-range coulomb (../kspace.cpp:340)
  G vector (1/distance) = 0.37242353
  grid = 24 24 24
  stencil order = 5
  estimated absolute RMS force accuracy = 0.0034825841
  estimated relative force accuracy = 1.0487699e-05
  using double precision FFTW3
  3d grid and FFT values/proc = 3211 432
Last active /omp style is kspace_style pppm/tip4p/omp
Neighbor list info ...
  update every 1 steps, delay 7 steps, check yes
  max neighbors/atom: 2000, page size: 100000
  master list distance cutoff = 10.8154
  ghost atom cutoff = 10.8154
  binsize = 5.4077, bins = 4 4 4
  1 neighbor lists, perpetual/occasional/extra = 1 0 0
  (1) pair lj/cut/tip4p/long/omp, perpetual
      attributes: half, newton on, omp
      pair build: half/bin/newton/omp
      stencil: half/bin/3d
      bin: standard
Setting up Verlet run ...
  Unit style    : real
  Current step  : 42500000
  Time step     : 2
  Walltime left : 2:54:59.95
Per MPI rank memory allocation (min/avg/max) = 10.19 | 10.19 | 10.19 Mbytes
Step Temp PotEng TotEng E_pair E_mol Press Lx Ly Lz Volume Pxx Pyy Pzz Pxy Pxz Pyz Enthalpy 
42500000    52.508928   -5131.9625   -5030.6946   -5131.9625            0    6461.8733    19.702357    19.652752    20.530159    7949.3914    5308.9858    7856.1512     6220.483   -156.68292     943.2837    482.48068   -4281.5456 
42501000    51.523362   -5137.6572     -5038.29   -5137.6572            0    6581.3759     19.69289     19.74748    20.364837    7919.5786    6673.0177    7055.9913    6015.1186   -142.78347   -97.968546    18.049723   -4278.1482 
42502000    50.482678   -5136.7545   -5039.3944   -5136.7545            0    6897.6701    19.754737    19.766592    20.328102    7937.7952    7261.2436    7013.0513    6418.7154   -477.10658    188.55347    274.75585   -4240.8884 
42503000     52.24183   -5142.8807   -5042.1279   -5142.8807            0     6708.888    19.731701    19.762156    20.364757    7941.0526     6199.231      6936.74     6990.693   -359.23477   -224.74911    187.15663   -4265.1574 
42504000    48.613154   -5142.2931   -5048.5386   -5142.2931            0    6517.4007    19.692095    19.761718    20.450398    7958.2647    6884.6235    5747.1965    6920.3821   -330.28133    467.69447    620.12633   -4292.1087 
42505000    50.972915   -5136.9683   -5038.6627   -5136.9683            0    6959.0414    19.641358    19.753535    20.409293    7918.5248    7571.0459    6549.0396    6757.0387   -155.31392    751.02963    590.27232   -4235.0079 
42506000    51.047055   -5133.9125    -5035.464   -5133.9125            0    6714.3214    19.727615    19.725708    20.367477    7925.8235    6797.3083    6802.8471    6542.8089    218.76555    837.17221    333.44309   -4259.3555 
42507000    50.664196   -5134.8782    -5037.168   -5134.8782            0    6779.7755    19.815005    19.623857    20.367812    7919.9591    6574.1851    7589.9603     6175.181   -15.940738    -82.48565    -403.2902   -4254.0736 
42508000    52.561577   -5138.4648   -5037.0953   -5138.4648            0    7106.4455    19.752203     19.77225    20.287566    7923.2175    7045.9115    7038.6599    7234.7652   -307.37853   -950.64773   -396.58995   -4215.9313 
42509000     54.42931   -5137.4165    -5032.445   -5137.4165            0    8028.4244    19.747132    19.739901    20.272579    7902.3813    7005.2323    8844.0623    8235.9785   -413.15502    325.01182    472.97978   -4107.1841 
42510000    52.738452   -5139.1544   -5037.4439   -5139.1544            0     6280.275    19.717706    19.703857    20.415351    7931.6674    5300.6506    7721.7976    5818.3767   -494.99094   -75.342349   -782.07834   -4310.9716 
42511000     51.98035   -5136.7215    -5036.473   -5136.7215            0    7878.3019    19.762898    19.791449    20.212683    7905.9157    7230.9284     7748.445    8655.5324   -234.70824    -65.76531    871.82624   -4128.1074 
42512000    55.027436    -5138.079    -5031.954    -5138.079            0    6884.4655    19.751663    19.638146    20.520744    7959.7103    6555.3664    7385.2761     6712.754   -356.23646    1068.7822    800.03047   -4232.7762 
42513000    52.763236   -5135.6813    -5033.923   -5135.6813            0    6564.5002    19.794003    19.742109    20.358702    7955.6791    6279.4583    6723.1113    6690.9311   -18.367427   -142.73067   -386.95361   -4272.2741 
42514000    50.051747   -5137.5824   -5041.0533   -5137.5824            0    7447.8039     19.69497     19.80421     20.30784    7920.9374    7496.4643    7013.8311    7833.1161    51.347323   -308.85955   -1.9196867   -4180.6924 
42515000    49.446332   -5133.2095   -5037.8481   -5133.2095            0    6860.7473    19.604919     19.76182    20.401165    7904.0005    7574.7113    5639.2583    7368.2722    74.823441    -697.0021   -13.445851   -4246.9979 
42516000    51.020894    -5139.038   -5040.6399    -5139.038            0    6496.0554    19.710797    19.933152    20.236927    7951.0544    6770.5909    5196.8239    7520.7513   -14.104028    -238.5664    115.54614   -4287.3705 
42517000     52.93092   -5141.2902   -5039.2085   -5141.2902            0    7327.0226    19.774142    19.783292    20.267007    7928.4049    7026.4344    7129.7836    7824.8499   -83.128899   -84.516667    128.15835   -4192.0021 
42518000    49.996138   -5144.0708    -5047.649   -5144.0708            0    6209.2859    19.732285    19.703827    20.484488    7964.4002    5242.1129    7393.8771    5991.8676   -346.46452   -11.311862   -289.42862   -4326.4243 
42519000    49.314653   -5134.7797   -5039.6722   -5134.7797            0    7078.9206    19.616696     19.76752    20.460851    7934.1743    7533.7297    6888.5157    6814.5163   -164.46414   -362.05161    40.570701   -4220.5576 
42520000    51.212492   -5140.0857   -5041.3181   -5140.0857            0    7139.1536    19.668292    19.727809    20.446954    7933.6698    7731.9326    7375.8555    6309.6727   -322.03848   -2.3419022    433.39827   -4215.2864 
42521000    49.890057   -5140.9446   -5044.7274   -5140.9446            0    6600.9945    19.721666    19.691257    20.396414    7920.8329    6073.6762    6962.5203     6766.787   -139.61234    706.98847   -565.81521   -4282.1988 
42522000    53.108598   -5143.6309   -5041.2065   -5143.6309            0    6228.9688    19.682815    19.794577    20.436311    7962.2526     6840.158      6178.42    5668.3283   -219.16965    316.65536   -58.180935   -4317.8906 
42523000    51.303989   -5142.3235   -5043.3795   -5142.3235            0    7029.6339    19.722044     19.71292      20.3766    7921.9959    7855.5374    6673.3325    6560.0316   -392.68292   -429.94851   -400.54479   -4231.2165 
42524000    53.591158   -5135.9491   -5032.5941   -5135.9491            0    6666.5532    19.680639    19.786849    20.425703     7954.133    6550.2346    6733.4521    6715.9731   -437.92499   -285.99428    187.96598   -4259.2547 
42525000    53.281307   -5136.0178   -5033.2603   -5136.0178            0     7241.285    19.567484    19.742563    20.492902    7916.6596     6957.566    7802.6809    6963.6081    179.38678   -125.25526    184.94089   -4197.2079 
42526000      53.4442   -5137.3584   -5034.2867   -5137.3584            0    6285.0365    19.745601    19.795177     20.32817    7945.6243    7176.8618     4958.384    6719.8636    54.487026    570.72483    330.78872   -4305.9844 
42527000    53.483188   -5139.2999    -5036.153   -5139.2999            0     6780.166    19.731252    19.774428    20.397322    7958.5091    7107.1498    7091.3452     6142.003     86.56265   -318.58749    686.86126   -4249.2016 
42528000    48.978953   -5135.2915   -5040.8315   -5135.2915            0     7134.044    19.615471    19.728593     20.47203    7922.3815    7588.6244    7083.2244    6730.2831   -31.517479   -87.163226   -105.51661   -4216.5654 
42529000    51.735511   -5137.1517   -5037.3754   -5137.1517            0    6767.5782    19.733407    19.730805    20.354681    7925.2175    7266.3435    5840.3225    7196.0687    18.367738    487.16153   -78.764122   -4255.1708 
42530000    51.736388    -5132.581   -5032.8031    -5132.581            0    6762.4595    19.625598    19.771316    20.360624    7900.4084    6965.1063    6988.8115    6333.4606   -254.64175    630.34071   -247.78448   -4253.6369 
42531000    51.148782   -5132.8989   -5034.2542   -5132.8989            0    6705.7097    19.687882    19.780994    20.393858     7942.304    7207.2316    6610.9803    6298.9172   -232.65859   -35.852347    663.98777   -4257.5295 
42532000    52.097282    -5136.649    -5036.175    -5136.649            0    7021.2055    19.762335    19.750559    20.331568    7935.7601    6979.8157    6685.7997     7398.001   -236.69944    186.89708    280.67092   -4223.5764 
42533000    51.955744   -5137.2804   -5037.0793   -5137.2804            0     6966.594    19.687894    19.780075    20.339515    7920.7766     6952.309    6906.2654    7041.2076   -603.44163    203.04412    131.77557   -4232.3235 
42534000    48.347913   -5133.9134   -5040.6704   -5133.9134            0    6759.9012    19.691861    19.795501    20.304767    7915.0069    7255.5403    6168.8079    6855.3556   -285.82787   -27.004359    560.13535   -4260.3598 
42535000    48.524741   -5139.3997   -5045.8157   -5139.3997            0    6738.1054    19.679037    19.830091    20.315981    7928.0491    6236.6949    7224.4742    6753.1471    -128.3408    82.728502   -330.51755   -4266.7393 
42536000    51.878035    -5146.164   -5046.1129    -5146.164            0    6478.4413    19.820192    19.732329    20.328707    7950.5276    6574.9204     6104.083    6756.3204   -170.52954   -5.0400046   -313.94572   -4294.9357 
42537000    53.855358   -5141.5486    -5037.684   -5141.5486            0    7194.8069    19.531224    19.777434    20.475836    7909.3546    8324.4831    6601.1611    6658.7764  -0.92992262    109.67787    153.13065   -4207.7643 
42538000    52.596642   -5135.2798   -5033.8427   -5135.2798            0    7220.3964    19.822852     19.72548    20.290894    7934.0492    7451.1913    6309.8596    7900.1383    34.591548    467.72387   -978.83881   -4198.3709 
42539000     51.53382   -5143.7708   -5044.3835   -5143.7708            0    6862.2374    19.694751    19.667153    20.490925    7936.9484    7824.3029     6663.234    6099.1754    -173.8849    781.94429   -724.71847   -4250.0641 
42540000    52.242667   -5141.8482   -5041.0938   -5141.8482            0    6944.4113    19.766436       19.716     20.37304    7939.6804    6274.7424    7699.9462    6858.5452   -107.11184    417.00789    648.60156   -4236.9859 
42541000    52.647661   -5138.6403   -5037.1048   -5138.6403            0    7184.9866     19.61296    19.750713     20.46225    7926.4607    7261.3767    7620.7745    6672.8086   -449.02704   -539.59101    388.64256   -4206.5254 
42542000    52.706789   -5143.2573   -5041.6078   -5143.2573            0    6971.6759    19.687617    19.698844    20.426279    7921.7866    7133.6907    7121.4396    6659.8973   -294.69533   -21.431087    -389.3763   -4236.1622 
42543000    52.514315   -5133.8082     -5032.53   -5133.8082            0    6796.3069    19.697616    19.808731    20.286261    7915.3903    7107.7062    6194.3658    7086.8487   -22.227517    101.31746    110.52178   -4247.9789 
42544000    50.767445   -5145.4661   -5047.5568   -5145.4661            0    6133.2094    19.636073     19.83273    20.445654    7962.2926    6242.7712    6109.7571       6047.1    15.389827    87.467556    417.39011   -4335.3571 
42545000    51.084729   -5138.4866   -5039.9654   -5138.4866            0    7434.6018    19.690689    19.667527    20.337157     7875.913     7054.708    8010.4836    7238.6137   -158.08572    87.923782     101.4177   -4186.0114 
42546000    50.125656   -5141.7755    -5045.104   -5141.7755            0    5878.5153    19.844095    19.721251    20.331976    7956.9266    5226.4809    6593.5832    5815.4818   -143.92763   -54.701928   -682.61145   -4362.9398 
42547000    52.282054   -5141.5843   -5040.7539   -5141.5843            0    6985.9032    19.782014    19.657908    20.387425    7928.1193    6266.9977    7908.1567     6782.555   -83.209869   -16.430116   -236.33013   -4233.0195 
42548000    50.308113   -5139.0458   -5042.0224   -5139.0458            0    6452.5942    19.672357    19.753112    20.350636    7908.0591    6411.4758    6529.2581    6417.0489    164.74302    887.97559   -186.89868   -4297.8387 
42549000    51.956629   -5133.7346   -5033.5319   -5133.7346            0    7336.3821    19.722792     19.73626    20.295604    7900.1484     7578.024    6859.0319    7572.0904   -72.653479   -125.94407   -445.09423   -4188.2665 
42550000    50.490826   -5138.7051   -5041.3293   -5138.7051            0    7245.8708    19.687315    19.721595    20.335022    7895.3822    7250.4999    7386.0464    7101.0661   -209.71617     206.0917    80.425878   -4206.9959 
42551000    56.539098   -5132.4338   -5023.3934   -5132.4338            0    7262.9647    19.681494    19.757661     20.33641    7908.0224     6992.367    7222.6868    7573.8403   -213.70663   -516.83946   -180.35188   -4185.7528 
42552000    49.169752   -5141.1061   -5046.2781   -5141.1061            0    6179.8306    19.721577    19.846899    20.281275    7938.3372    7319.2993    4370.8933    6849.2991    163.01934    522.73011   -158.36989   -4330.8236 
42553000     49.36626   -5136.1371   -5040.9301   -5136.1371            0    7513.4884    19.639683    19.654112    20.440534    7890.0571     6771.292    8211.5649    7557.6085   -84.399349    125.91738    279.63223   -4176.3651 
42554000     55.33518   -5140.3029   -5033.5844   -5140.3029            0    6858.4559    19.729503    19.760096    20.339615    7929.5387    5728.1301    7062.5381    7784.6994    82.856408    392.27841   -84.230905   -4240.4438 
42555000    50.081422    -5132.562   -5035.9758    -5132.562            0    7459.6791    19.674835    19.766805    20.324828     7904.501    6237.5173     8336.228    7805.2921   -17.457117    132.60647   -44.232474   -4176.0311 
42556000    53.704901   -5136.4787   -5032.9043   -5136.4787            0    5983.7909    19.730562       19.784    20.388722    7958.7264    6487.6673    5590.1993    5873.5061    38.849269   -27.135178    595.47415   -4338.3665 
42557000    48.383042   -5137.9851   -5044.6744   -5137.9851            0    7022.1591    19.538516    19.821631    20.447254      7918.92    8292.7581    6634.3229    6139.3963   -501.20442    196.33215    28.892092     -4233.69 
42558000    51.985108   -5139.4953   -5039.2376   -5139.4953            0    6856.1827    19.714371    19.711344    20.388459    7922.8891    5895.5066    8103.7155     6569.326   -391.14469   -85.293833    294.91115   -4247.0248 
42559000    50.029404   -5138.8289    -5042.343   -5138.8289            0    6563.0963    19.720658    19.714279    20.416529    7937.5085    6603.3115    6094.6789    6991.2984   -6.1704364   -1.6352536   -266.83436   -4282.5962 
42560000    53.177411   -5142.4138   -5039.8567   -5142.4138            0    6842.6982    19.628883     19.75074    20.469865    7935.8591    8182.0802    6645.7653     5700.249   -295.12686    346.22259    361.51433   -4247.9077 
42561000    51.884306    -5138.364   -5038.3007    -5138.364            0    6465.9903    19.731633    19.705675    20.424681    7941.6297    6288.1403    6730.0362    6379.7945   -257.50669    716.73829    279.63827   -4289.4063 
42562000    53.044593   -5131.8708   -5029.5699   -5131.8708            0    7091.5906    19.781811    19.730882    20.296584    7922.0118    6386.8609    7614.7113    7273.1997    221.67961     149.0652    810.81663   -4210.2471 
42563000    53.109187   -5133.7537   -5031.3281   -5133.7537            0    7432.8225    19.570373    19.771575     20.41275    7898.4498     8462.315    6632.5871    7203.5654   -156.53816    317.02595    189.92331   -4175.1354 
42564000    50.011506   -5134.0847   -5037.6334   -5134.0847            0    6703.0061    19.707097    19.687427    20.394996    7912.8918    5853.7464    7361.1973    6894.0744   -77.131157    555.30153    1052.0974    -4264.097 
42565000    50.689475   -5138.2707   -5040.5118   -5138.2707            0    7007.6138    19.757228    19.725948    20.339324    7926.8459     7271.097    6732.3614    7019.3829   -318.07107   -493.24532   -169.54061   -4230.3972 
42566000    55.571303   -5138.2847   -5031.1107   -5138.2847            0    6424.0465    19.842179    19.710413    20.310899     7943.543     5587.135    7061.1023    6623.9021   -174.23817    121.95783   -354.98908   -4286.8951 
42567000    50.738521   -5141.0323   -5043.1788   -5141.0323            0     6470.216    19.683122    19.738141    20.413187    7930.6913     6813.155    6332.8314    6264.6615    -136.9181    309.22498    18.552526   -4294.8271 
42568000    50.944401   -5136.1078   -5037.8572   -5136.1078            0    7056.5885     19.52596    19.842242    20.437624    7918.3292     7611.583    6416.9198    7141.2625   -126.93417   -137.44388    162.35557   -4222.9574 
42569000    48.870898   -5142.1651   -5047.9134   -5142.1651            0    6412.7162    19.678333    19.810859    20.392072    7949.7405    7355.7744    5388.0574    6494.3169   -309.95869   -355.67434    492.27766   -4304.4307 
42570000    51.262964   -5137.7824   -5038.9175   -5137.7824            0    6117.9876    19.709512    19.719683    20.445414    7946.4236    7802.5392    5314.6999    5236.7236   -385.14034    1235.9762   -801.05841   -4329.9012 
42571000    52.711947   -5139.6466   -5037.9872   -5139.6466            0    6182.3083    19.733107    19.739133    20.418805    7953.4187    6837.5026    5413.7751    6295.6472   -43.309255    562.51755      302.546   -4320.8861 
42572000    53.050321    -5131.422     -5029.11    -5131.422            0    6565.4649    19.742822    19.720319    20.388537    7937.9659    6691.7614    6659.9363    6344.6971   -388.44405   -222.37096   -13.834706   -4269.0452 
42573000     49.23986   -5142.0503   -5047.0871   -5142.0503            0    6646.0662     19.69618    19.759854    20.385979    7934.0934    6126.5881    7657.1023    6154.5081   -184.91259    3.4820358    127.93388   -4278.0667 
42574000    49.634377    -5142.944   -5047.2199    -5142.944            0    6619.4097    19.754392    19.737097    20.420675    7961.9056    5813.1364    7497.7069    6547.3856    -390.0698   -240.58899    107.45884   -4278.5991 
42575000    50.711673   -5139.3816   -5041.5799   -5139.3816            0    6185.4278    19.758297    19.672185    20.412204    7933.9964    6729.3626    6035.7513    5791.1696    143.34927    -37.62602    521.57022    -4325.869 
42576000    51.231436   -5140.9527   -5042.1485   -5140.9527            0    6081.9368    19.707091    19.832864    20.363312    7958.9608    6143.5723    6021.7741    6080.4639   -19.149788     562.4829    74.282492   -4336.1982 
42577000    49.346783   -5140.0743   -5044.9048   -5140.0743            0    7485.1841    19.672336    19.738971     20.35751    7905.0585    7086.5154    7876.9792    7492.0576    -209.1907    767.46717   -46.311484   -4181.9591 
42578000    53.689953   -5140.3031   -5036.7576   -5140.3031            0    6137.1972    19.707304    19.820568    20.413853    7973.8543     5339.878    7057.0749    6014.6387   -140.63586    676.90267    613.99053   -4323.0599 
42579000    51.045953   -5141.2098   -5042.7634   -5141.2098            0    6417.8223    19.736026    19.862905    20.231529    7931.0588    6659.9567    5751.8527    6841.6576   -14.942995    340.77724    122.61735   -4300.4372 
42580000    53.758755   -5139.3486   -5035.6703   -5139.3486            0    6156.5258    19.688568    19.739241    20.454348    7949.3244    6077.6128    6127.6751    6264.2895   -48.757074    221.54751   -843.96411   -4321.9274 
42581000    51.998391   -5135.3647   -5035.0814   -5135.3647            0    7843.5704    19.721893    19.754845    20.326507     7919.267    7951.0883    7684.9614    7894.6614   -9.3038212   -866.82253   -664.67704   -4129.1931 
42582000    48.972604   -5138.6085   -5044.1607   -5138.6085            0    6913.2096    19.643406    19.746919    20.441383    7929.1459    7268.6926     6729.307    6741.6293   -427.86693   -557.38857    442.26478   -4244.7278 
42583000    50.608975   -5135.9273   -5038.3237   -5135.9273            0      7020.62    19.632847    19.705619    20.480538    7923.4573    7338.8704    6903.4469    6819.5426   -60.180376     676.9616     574.2124   -4227.0524 
42584000    54.410543    -5142.961   -5038.0257    -5142.961            0    6093.6261    19.777701    19.813959     20.36616    7980.9799    5531.2208    7348.8856     5400.772   -8.9108003    90.439073     83.40007   -4328.7617 
42585000    49.954159   -5138.1321   -5041.7913   -5138.1321            0    7438.3137    19.732442    19.814207     20.25092     7917.759    7853.6314     6660.147    7801.1627   -314.54872    32.705803    243.36436   -4182.8715 
42586000    51.223131   -5143.7004   -5044.9123   -5143.7004            0    5844.7655    19.727956    19.799941    20.391009      7964.98    5236.4073    6261.7154     6036.174    130.48509    466.61359   -20.213959   -4365.9781 
42587000    51.054428   -5139.3415   -5040.8787   -5139.3415            0    6919.4236    19.703436    19.799725    20.313041    7924.5769    6663.4884    7180.8999    6913.8824   -119.79773      415.877   -569.36679   -4241.1883 
42588000    51.775888    -5137.397   -5037.5429    -5137.397            0    6937.8781    19.708393    19.661398    20.432283    7917.3987    6101.3526    7501.1852    7211.0966    212.01443   -107.72339   -442.51986   -4236.4459 
42589000    50.275616   -5144.8976   -5047.9369   -5144.8976            0    6367.8127    19.644706    19.812525    20.367893    7927.4122    5758.8071    7231.8246    6112.8065   -186.12755    339.71972    -182.5738   -4311.7338 
42590000    51.330211   -5139.2441   -5040.2495   -5139.2441            0    6817.1682    19.638867    19.741813    20.420011    7916.9777    7502.6465    6456.0651    6492.7929   -102.05807     560.3755   -5.9288224   -4253.1324 
42591000    51.125585   -5140.6101   -5042.0101   -5140.6101            0    6959.5109      19.7456    19.698802    20.341636    7912.1779    6556.5321    7465.5774    6856.4232   -142.57582    126.74944   -113.18521   -4238.9452 
42592000    52.261701   -5140.4156   -5039.6245   -5140.4156            0    6564.4017    19.689394    19.770543    20.358012    7924.7638    7160.7421    6257.6292    6274.8337   -703.99782    310.86171   -408.65804   -4280.9468 
42593000    53.500745   -5137.2933   -5034.1126   -5137.2933            0       7494.4    19.641604    19.825654    20.339003    7920.1629    7354.7293    7254.9467    7873.5242   -118.34365    654.36625   -169.58342   -4168.4536 
42594000    50.212661   -5136.0378   -5039.1984   -5136.0378            0     6927.899    19.744058    19.820895    20.269265    7932.2734    6875.7222    6774.8326    7133.1422    18.419654    735.31306    197.20086   -4237.7509 
42595000    48.125313   -5136.9139   -5044.1002   -5136.9139            0    6954.9831    19.613726    19.770135    20.415327    7916.3697    7533.0157    6882.1239    6449.8099   -323.93066    202.12033    1190.4119   -4241.1326 
42596000    53.364293   -5136.1998   -5033.2823   -5136.1998            0    7242.4258    19.611505    19.712275    20.441503    7902.4274    6962.2248    7989.6486     6775.404   -317.05895    82.414033   -192.10324   -4198.6014 
42597000    53.553201   -5141.8815   -5038.5996   -5141.8815            0    6905.5507    19.587784    19.819732    20.438079    7934.5653    6943.3039    6701.3311    7072.0171    29.802942     83.87178    400.61095   -4239.5066 
42598000     52.95656   -5140.0615   -5037.9304   -5140.0615            0    7598.2553    19.632178    19.778434    20.340098    7897.9324    7896.0007    7258.0151      7640.75    -166.8685   -57.340574   -186.43824   -4162.7387 
42599000     52.32392   -5140.7813   -5039.8702   -5140.7813            0    6377.8429    19.818354     19.75921    20.258204    7933.0118    5184.2261    7091.5478    6857.7548   -57.815728    322.00078   -613.06433   -4301.9867 
42600000    51.797157   -5140.2679   -5040.3727   -5140.2679            0    6687.0726      19.8186    19.696901     20.30447    7926.1548    5676.9534    7013.6171    7370.6472    228.58662    212.87524    39.703602   -4267.3817 
42601000    48.630631   -5142.5171   -5048.7289   -5142.5171            0     6520.992    19.670092    19.827632     20.37547    7946.6644    6627.1349    6121.8816    6813.9595    14.333272   -147.12644    150.98539   -4292.9853 
42602000     49.01897   -5132.5399   -5038.0027   -5132.5399            0    7264.9347    19.673716    19.770795    20.407491    7937.8003    7114.3043    7054.7883    7625.7117    74.388493   -328.47459    -79.03485   -4196.9799 
42603000     52.53955    -5138.978    -5037.651    -5138.978            0     6972.761    19.642089    19.778149    20.466867    7951.0534    7392.5992     6370.523    7155.1608     35.67162   -293.33983   -536.95775   -4229.1039 
42604000    50.518102   -5133.9638   -5036.5354   -5133.9638            0    6782.6544    19.722216    19.804607    20.301966    7929.7598    7066.8629    6518.2946    6762.8057    76.089193     227.1324    466.09128    -4252.139 
42605000    52.902241   -5134.3883   -5032.3618   -5134.3883            0    6222.5893    19.651574     19.75593    20.492143    7955.7697    5682.2498    7246.9212    5738.5968   -73.044322    395.39657   -421.42239   -4310.3751 
42606000    51.548298   -5147.8649   -5048.4497   -5147.8649            0    5735.0833    19.720827    19.824163    20.406579    7977.9292    6549.3606    4870.0645    5785.8248    360.68593    1053.2502    255.88017   -4381.1732 
42607000    51.059101   -5135.8854   -5037.4136   -5135.8854            0    6698.9305    19.638807     19.81423    20.380443    7930.5975    6463.4514    6795.5738    6837.7662   -71.890692    597.96368    -639.4117   -4262.6178 
42608000    54.108531   -5138.6049    -5034.252   -5138.6049            0    6764.2268    19.645521    19.800644    20.372441    7924.7567    6383.7638    6505.7785    7403.1381   -79.464368    223.00836    166.75113   -4252.4802 
42609000    53.057747   -5140.8478   -5038.5214   -5140.8478            0    6591.2096    19.580166    19.753502    20.499843    7928.8649    7402.4556     5525.211    6845.9623   -52.085334      436.264   -361.80101   -4276.3511 
42610000    53.142956   -5138.0889   -5035.5982   -5138.0889            0    6779.8547    19.754703    19.792259    20.368967    7964.0663     6741.091    6934.6323    6663.8409    199.22955    972.98814   -686.98609   -4248.1334 
42611000    53.793344   -5137.5723   -5033.8274   -5137.5723            0    6887.8202    19.701102    19.798952    20.371853     7946.269    7550.0565    6730.6899    6382.7142    138.51526    -615.4362   -486.09307   -4235.6104 
42612000    51.518074   -5134.4183   -5035.0613   -5134.4183            0    6646.4742    19.647499    19.758728    20.400542     7919.686    7126.4269    6145.6223    6667.3734   -262.35367    357.75144   -529.59196   -4267.3903 
42613000    49.641932   -5138.2709   -5042.5323   -5138.2709            0    6668.2971      19.6932    19.815388    20.295644     7919.937     7011.344    5920.5964     7072.951   -442.32054   -239.69751    522.00475   -4272.3163 
42614000    52.063497   -5135.2677   -5034.8589   -5135.2677            0    7159.5204     19.69093    19.746471    20.347022     7911.459    7498.1639    6311.6425    7668.7548    405.80716   -153.71014   -63.480873   -4208.7897 
42615000    51.240849    -5139.322   -5040.4997    -5139.322            0    7022.0362    19.828378    19.755991    20.277927    7943.4574    7010.1995    6663.9193    7391.9898   -329.47971    -160.3675    91.742818   -4227.0166 
42616000    50.192323     -5139.85   -5043.0499     -5139.85            0    7305.0507    19.642888    19.706978    20.451183    7916.6931    7505.4849    7030.9678    7378.6993   -45.524233   -431.39652    92.505922   -4199.6317 
42617000    51.193827   -5141.4416     -5042.71   -5141.4416            0     6601.403    19.653883    19.792723    20.327216    7907.3656    6443.3175    6226.9797    7133.9119   -257.69908    145.17823    123.34911   -4281.4308 
42618000    50.705015   -5139.1242   -5041.3354   -5139.1242            0    6978.4651    19.809707    19.661369    20.292803    7903.7621    6054.3088     7846.758    7034.3284   -138.32054    320.15424    741.03974   -4236.9398 
42619000    49.745356   -5141.4377   -5045.4996   -5141.4377            0    6646.0886    19.805206    19.744231    20.338261    7953.0445    6728.6792    6423.5045     6786.082   -632.23402    641.18667    308.46125   -4274.6397 
42620000    51.168585   -5136.0737   -5037.3907   -5136.0737            0    7045.5416    19.724951    19.689483    20.353092    7904.6137    7207.1863    6916.4166     7013.022   -53.880852   -296.71441    6.5165629   -4225.1759 
42621000    50.476771   -5143.5706   -5046.2219   -5143.5706            0    6592.2284    19.625364    19.850427    20.370757    7935.8734    7237.4261    5600.4832    6938.7759   -159.81553    940.32754   -194.93664     -4283.26 
42622000    55.178742   -5138.2418   -5031.8249   -5138.2418            0    7913.8435    19.620072    19.809473    20.346872    7908.0819    8984.4067    7108.0124    7649.1112    272.25727    521.50295   -16.366263   -4119.1114 
42623000    53.241027   -5142.6525   -5039.9727   -5142.6525            0    6828.4436    19.806083    19.700626    20.354297    7942.0886    6384.9679    7411.8638    6688.4991   -165.98746    689.81729   -232.12233   -4249.0531 
42624000    50.301968    -5134.366   -5037.3544    -5134.366            0    6268.9665    19.684024    19.743086    20.415222    7933.8325    7056.7897    5568.0694    6182.0406   -286.22229    407.42541    332.42926   -4311.9923 
42625000    53.359499   -5135.3219   -5032.4136   -5135.3219            0    6519.6662     19.57932    19.759507    20.456028    7913.9812    7021.4734    6348.9669    6188.5584   -568.66621    885.03651    855.05251   -4279.9313 
42626000    51.007263   -5145.3871   -5047.0153   -5145.3871            0    6270.1943    19.703002    19.685063    20.425071    7921.9623     5487.265    7161.6584    6161.6596   -573.73577    566.76999      556.688   -4322.5966 
42627000       52.098   -5146.6141   -5046.1388   -5146.6141            0    6132.1933     19.77525    19.697656    20.461587    7970.3214    6184.2284    6306.3543     5905.997   -128.77631   -464.63475    219.86664    -4333.339 
42628000    49.715641   -5135.9875   -5040.1067   -5135.9875            0    6673.8668    19.747008    19.836467     20.19704    7911.4002    6819.0626    6382.0179      6820.52   -168.36512    612.94278   -470.20425   -4270.0782 
42629000    53.484366   -5135.8347   -5032.6856   -5135.8347            0    6118.7577    19.691835     19.77945    20.419439    7953.2418    5581.0941    6951.1287    5824.0502   -679.45547    828.15677    187.38597   -4322.9716 
42630000    47.612283   -5141.9479   -5050.1236   -5141.9479            0    6935.4853    19.715287    19.792404    20.373686    7950.0755    7976.8084    6196.8596    6632.7877    366.59804    228.70249    156.23312   -4245.9978 
42631000    51.198627   -5148.7523   -5050.0115   -5148.7523            0    6144.7388    19.743559    19.813021    20.338714    7956.0891    5606.7977    6927.2593    5900.1594   -137.58407   -323.79707    435.75449   -4337.0288 
42632000    52.260546   -5130.0413   -5029.2525   -5130.0413            0    7602.1522     19.66483    19.785722    20.291355    7895.0183    8160.9544    6722.7374    7922.7647    434.32833    874.57084     343.2142    -4153.935 
42633000    52.787664   -5133.9905   -5032.1851   -5133.9905            0    6882.9995    19.738713    19.678608    20.391013    7920.4893    5772.6905    8300.0362    6576.2719    187.44826    130.62083    490.86417   -4237.1146 
42634000    50.794795   -5141.9782   -5044.0162   -5141.9782            0    6558.6866    19.730829     19.72938     20.39682    7940.0132    6663.8008    6706.8947    6305.3643   -215.09476   -302.87373   -326.48105   -4284.5403 
42635000    51.241994   -5141.3671   -5042.5426   -5141.3671            0    6632.9023    19.772634    19.767948    20.331616    7946.9049    6598.6792     6612.045    6687.9827   -29.151302    1015.7633     997.4947   -4273.8061 
42636000     52.86124   -5142.3004   -5040.3531   -5142.3004            0    6335.9334    19.773049    19.747541    20.323553    7935.7194    6387.9112    5710.4581     6909.431    36.801686    21.126844    357.15822   -4307.0681 
42637000     50.62122   -5141.5164   -5043.8891   -5141.5164            0    6599.1483    19.673607    19.757941    20.424261    7939.1139    5640.5733    7354.3422    6802.5295   -180.46033    284.32247    261.74718   -4279.8145 
42638000    50.768814   -5138.8112   -5040.8993   -5138.8112            0    6872.2566    19.651279    19.767847    20.387648    7919.8567    7266.1848    6479.6872    6870.8977   -92.664866    301.77949    716.45632   -4247.1332 
42639000    49.998456   -5144.3145   -5047.8883   -5144.3145            0    6802.5706    19.632646    19.696353    20.499426    7926.9542    6619.1337    7479.5542    6309.0239   -194.02649    201.54692    277.88541    -4261.467 
42640000    53.224347   -5139.8025   -5037.1549   -5139.8025            0    7082.7661    19.738314    19.710521     20.43001    7948.3457    7671.0779    6415.6137    7161.6066   -141.04921    382.60831   -12.422894   -4216.1315 
42641000    50.356516   -5137.3549   -5040.2381   -5137.3549            0    7124.4847    19.679865    19.756601    20.352696    7913.2757    7609.0087    6571.7203     7192.725    38.658722   -635.47439   -202.20155   -4218.0226 
42642000    49.962608   -5135.7984   -5039.4413   -5135.7984            0    6631.3714    19.583765    19.690185    20.539254    7920.0997     6560.051    7170.8248    6163.2383     18.23302    1364.7159   -94.692057   -4273.4746 
42643000    49.592503   -5139.8543    -5044.211   -5139.8543            0    5997.5006    19.742783     19.72877    20.434733    7959.3456    5738.5293    6492.8378    5761.1348    99.828729    195.76916   -457.37769   -4348.0277 
42644000    53.257756   -5144.8185   -5042.1064   -5144.8185            0    6561.8795    19.735039    19.874651    20.279523    7954.1765    6341.9485    6603.2222    6740.4679   -549.44801   -172.55843    1156.1504   -4280.9054 
42645000    52.675626   -5139.8048   -5038.2154   -5139.8048            0    6748.6089    19.638976    19.761915    20.385601     7911.729    6998.5307    6077.4288    7169.8672    28.525922    276.02196   -295.78401   -4259.5308 
42646000    49.782753   -5139.4622    -5043.452   -5139.4622            0    5685.0326    19.722212     19.76901    20.364169    7939.7577    5618.3573    5532.9203    5903.8202   -103.00229    426.09363    207.68163   -4385.1637 
42647000    48.692373   -5142.1267   -5048.2194   -5142.1267            0    6597.4543    19.722569    19.761704    20.408478     7954.236    7254.2901    5644.9946    6893.0782    177.09096   -155.33699    92.873442   -4282.8858 
42648000    48.346007   -5137.9376   -5044.6982   -5137.9376            0    6269.3387    19.735386    19.798408    20.309176    7935.3888    6074.2094    5620.5418    7113.2649   -149.60155    229.84232    135.01517   -4319.1508 
42649000    54.087335   -5137.9242   -5033.6122   -5137.9242            0    6377.0603    19.661928    19.696145    20.457216    7922.3467    6136.2877    6787.7594     6207.134    210.99949    403.97046    862.36657   -4296.8111 
42650000    50.634137   -5137.7146   -5040.0625   -5137.7146            0    7197.0687    19.720174    19.720166    20.355375     7915.902    6962.1555    7652.2781    6976.7724   -243.77959     688.7586    270.63628   -4209.1946 
42651000    54.329584   -5134.0621   -5029.2829   -5134.0621            0    7363.5779    19.708354     19.79376      20.2772     7910.185    7772.8532    6586.6827    7731.1977   -203.39645    198.10899    276.16621   -4179.8063 
42652000    51.706643   -5133.9794   -5034.2588   -5133.9794            0     7090.057     19.66094    19.785813    20.329047    7908.1552    6868.7762    7032.7719    7368.6228   -22.240988    259.66052    224.55623    -4216.546 
42653000    51.751836   -5141.2827    -5041.475   -5141.2827            0    6469.6782    19.726876    19.696456    20.424049    7935.7552    6623.6754    6359.1176    6426.2415   -504.16793   -118.94653   -205.28706   -4292.7077 
42654000    52.954774   -5142.0953   -5039.9676   -5142.0953            0    6727.8311    19.732561    19.714503     20.40677    7938.5933    6542.5057    7021.7246    6619.2631   -119.53711    42.450269   -666.48619   -4261.0446 
42655000    52.099027   -5140.7963   -5040.3189   -5140.7963            0    6530.1096    19.758813    19.739626    20.340877    7933.5847    5416.9057     7595.546    6577.8769   -410.80185    344.79541    42.059952   -4284.7644 
42656000    48.904102   -5138.2133   -5043.8977   -5138.2133            0    6847.0334    19.755911    19.733283    20.318533    7921.1597    6779.5793    6705.3675    7056.1534   -210.82197   -213.25222    953.92129   -4252.9147 
42657000    51.433181   -5139.2393   -5040.0461   -5139.2393            0    6626.1658    19.701879    19.783712    20.418487    7958.6425     6571.992    6875.0789    6431.4263    130.42311    445.63081   -11.647042    -4270.956 
42658000     48.91412   -5139.8836   -5045.5486   -5139.8836            0    7345.5449    19.752581    19.752776    20.297396    7919.4005    7392.9766    7216.8096    7426.8485    236.76911    446.37432    297.29528   -4197.1651 
42659000      49.9758   -5140.2558   -5043.8732   -5140.2558            0    6181.5405     19.83978    19.721816    20.299824    7942.8436    6552.5644    5494.7922    6497.2648     125.6782    192.20807   -276.88158   -4327.8146 
42660000    50.829141    -5138.514   -5040.4857    -5138.514            0     6729.356    19.766563    19.810277    20.245435    7927.7294    7379.0124    5882.7842    6926.2713   -154.82796    210.96174   -34.077901   -4262.4524 
42661000    51.845086   -5140.8307   -5040.8431   -5140.8307            0      6718.42    19.704924    19.727573    20.370777    7918.7387    6413.7525    7188.5727    6552.9349   -240.43671    249.98893    218.60289   -4264.9551 
42662000     51.44721   -5135.8531   -5036.6328   -5135.8531            0    7284.5108     19.68012    19.711583    20.377891    7905.1203    7491.0686    7209.4182    7153.0455   -344.54492    308.78081     551.6076   -4196.8156 
42663000    52.229884   -5139.5436   -5038.8139   -5139.5436            0    6469.0155    19.816791    19.769336    20.288968    7948.5037    5163.5545    7278.5067    6964.9852   -203.74754   -121.15245    436.77627   -4288.9206 
42664000    50.941118   -5139.9865   -5041.7423   -5139.9865            0     6534.312    19.696059    19.801483    20.294818     7915.206    6683.5016    6154.6844    6764.7499   -356.66732    1213.9919   -89.800841   -4287.4529 
42665000    53.147911    -5143.935   -5041.4348    -5143.935            0    6828.7591    19.750037    19.725788    20.359273    7931.6684    7147.3166    6798.4818    6540.4788   -364.36933     717.9662   -190.44125   -4251.5164 
42666000    52.024969   -5137.9801   -5037.6456   -5137.9801            0    6694.7238    19.713174    19.742148    20.402317    7940.1815    6268.5097     7204.772    6610.8896   -120.12132   -110.74408     660.2192   -4262.4006 
42667000    52.018192   -5136.7874    -5036.466   -5136.7874            0      7039.75    19.732105    19.709084    20.331905     7907.113    5821.9384    8134.6662    7162.6453    -138.8592    97.150775     286.0631   -4224.6622 
42668000    54.168109   -5138.4221   -5033.9544   -5138.4221            0    6602.6564    19.791676    19.779124    20.297526    7945.7103    6403.6237    6346.6294    7057.7162   -108.14011    161.14026   -191.95364   -4268.8383 
42669000    54.556445   -5135.5567     -5030.34   -5135.5567            0    7093.0991    19.683513    19.754158    20.319707    7900.9365       6900.7    6873.3774    7505.2199    175.17361    926.09627    384.20378   -4213.0231 
42670000    51.247921   -5137.8484   -5039.0125   -5137.8484            0    6690.4599    19.755745    19.743055     20.33724    7932.3119    7085.2449    6323.0704    6663.0643   -354.95143     391.6321    155.80365   -4265.0291 
42671000    50.118948   -5129.7946    -5033.136   -5129.7946            0    6944.5094    19.753222    19.712604    20.310271    7908.5644    7822.6656    6168.2348    6842.6279   -193.91375     -434.041   -198.55795   -4232.1681 
42672000    52.159021   -5142.3637   -5041.7706   -5142.3637            0    7189.2733    19.700772    19.723918    20.377137    7918.0748    7918.7285    6585.9326    7063.1588    7.3471732    292.42982    480.23841   -4211.5749 
42673000    49.311972   -5140.8174   -5045.7151   -5140.8174            0    6138.2704    19.748858    19.698197    20.410421    7939.9986    5723.4849    6164.7666    6526.5598    -77.97613     708.6244    267.27684   -4334.9234 
42674000    49.934576   -5137.6572   -5041.3542   -5137.6572            0    6264.4731    19.704577    19.784628    20.390782    7949.2999    6851.4852    5789.5323    6152.4018   -296.99004    458.76127   -652.73573   -4315.0989 
42675000    53.216995   -5142.4535     -5039.82   -5142.4535            0    6716.9142    19.751004    19.749865    20.308417    7921.9003    5770.1779    7833.7663    6546.7985   -260.24492    182.38413   -415.20788   -4263.7962 
42676000    48.764085   -5137.5801   -5043.5345   -5137.5801            0    7183.7985    19.736602    19.676314    20.391466    7918.8946    7423.5624    6866.7497    7261.0834   -507.14843    306.31573    121.27628   -4213.8851 
42677000    51.955933   -5139.9458   -5039.7444   -5139.9458            0     6240.781    19.641339    19.781357     20.41557    7932.1094    6541.4129    5786.3486    6394.5815    -411.2691    791.30904    114.89084   -4317.8004 
42678000    52.227824   -5136.5762   -5035.8504   -5136.5762            0    6743.1942    19.630495    19.783128    20.360402    7907.0151    6120.2404    7768.9571    6340.3851   -485.58376    115.19427    205.34097   -4258.2542 
42679000     52.22065   -5135.8122   -5035.1003   -5135.8122            0    6715.3921    19.685929    19.819545    20.318086    7927.4298    6420.4754     6536.842    7188.8588   -204.28538    468.18033   -99.609696   -4258.7107 
42680000    53.507028   -5138.9208    -5035.728   -5138.9208            0    6952.1006    19.846366    19.691261    20.331308    7945.4745    6359.4678    7352.6468    7144.1872   -249.80236    488.59069   -592.38247   -4230.1423 
42681000    51.450178   -5144.2846   -5045.0586   -5144.2846            0     6570.391    19.747949    19.827632    20.337386    7963.2067    6463.9732    5672.6735    7574.5262   -228.57673     7.318605    222.13429    -4282.005 
42682000    50.443466   -5134.2748   -5036.9903   -5134.2748            0    7301.4073    19.586634    19.720848    20.499595    7918.2768    8279.5452    7363.6019    6261.0749   -57.083759    537.40486   -44.193502   -4193.8242 
42683000    48.220424   -5134.3319   -5041.3347   -5134.3319            0    6910.2223     19.61177    19.768826     20.37262    7898.4989    7724.5474    6008.8218    6997.2977    4.1272404    306.57154   -209.61215   -4245.3358 
42684000    48.534171   -5140.5363   -5046.9341   -5140.5363            0    6935.5824    19.732804    19.746132    20.376726    7939.7211    6140.6058    7559.6822    7106.4591    76.033244    625.24974   -641.82426   -4243.8443 
42685000    51.736184   -5135.8762   -5036.0986   -5135.8762            0     6447.488    19.714556    19.726252    20.405498     7935.582    6736.4582    6549.2212    6056.7847   -402.95734    122.84106   -104.56465   -4289.9158 
42686000    53.560889   -5139.3585   -5036.0618   -5139.3585            0    6876.3857    19.747014    19.692697    20.399028    7932.6101    7371.5184    6774.8298    6482.8088   -76.493116    674.84194   -23.741638   -4240.5398 
42687000    49.011337   -5136.8067   -5042.2842   -5136.8067            0    6319.3581    19.719549    19.794241    20.286821    7918.6262    5086.5771    7438.3873    6433.1098    -55.21971     166.1565    230.98382   -4312.4929 
42688000    52.251499   -5138.7472   -5037.9758   -5138.7472            0    6787.5299    19.658402    19.792262    20.414482    7942.9533    7515.4442    6153.1711    6693.9744   -290.12066    244.97738   -954.18831   -4251.7095 
42689000    50.000441   -5142.6395   -5046.2094   -5142.6395            0    6391.0494    19.686439     19.71879     20.46369    7943.8563    6168.0388    6863.0225    6142.0868    45.068934     282.2114    759.10252   -4305.7872 
42690000    52.398249   -5131.2962   -5030.2417   -5131.2962            0    7140.6222     19.59773    19.686343    20.493187    7906.4282    8516.9483    7028.6381    5876.2802    -190.6467    439.80723     196.7579    -4206.877 
42691000    50.757912   -5138.3338   -5040.4429   -5138.3338            0     6534.719    19.739894    19.817012    20.365862    7966.8342    6406.0389    6181.2479      7016.87    378.37196    -15.80647   -15.253329   -4281.1863 
42692000    50.066937   -5136.2277   -5039.6694   -5136.2277            0     6636.304    19.714229    19.763789    20.368906    7936.2933      6587.75    6453.6945    6867.4675    -315.1779    386.50596   -498.44242   -4271.5657 
42693000    50.724939   -5134.8012   -5036.9739   -5134.8012            0    6938.1652    19.734804    19.679228    20.377208    7913.8083    5993.8641    7772.2816      7048.35     95.26978    499.48941    6.0467847   -4236.2071 
42694000    51.474401   -5133.2058   -5033.9331   -5133.2058            0    6665.3251    19.648464    19.758222    20.397603    7918.7313    6890.9768    6731.4161    6373.5823   -3.7615371     199.3309    376.70753   -4264.1776 
42695000     50.83807    -5134.799   -5036.7535    -5134.799            0    7508.8885    19.661337    19.684532    20.436858    7909.5589    7267.0397    8288.2484    6971.3773   -44.699055    191.30654    188.68767   -4170.5822 
42696000    50.252057   -5141.4653     -5044.55   -5141.4653            0    5590.6301    19.717782    19.736101    20.486438    7972.3408    5368.9894    5908.0821     5494.819    -650.3226    300.60803    135.69565   -4394.5363 
42697000    51.245355   -5137.0591   -5038.2281   -5137.0591            0    6632.5182    19.732657    19.754233    20.334054    7926.2852    6628.8804    6677.0075    6591.6667   -202.88613    796.04709   -289.87281   -4271.5307 
42698000     51.00196   -5136.3365   -5037.9749   -5136.3365            0    7129.6637    19.581557     19.71633    20.529124    7925.8112    6902.6741    7979.9201     6506.397    172.88162    101.40947    453.22415   -4213.8583 
42699000    53.194094   -5139.3236   -5036.7344   -5139.3236            0    6664.9921    19.742769    19.747184    20.385435    7947.5491    6698.2143    6881.3682    6415.3937   -54.663694   -143.58005    394.53425   -4264.2161 
42700000    50.363433   -5140.3459   -5043.2158   -5140.3459            0    6932.1629    19.754226    19.722045    20.382921    7941.0585    6714.8862    6767.5442    7314.0583    69.588133    648.32602   -221.64813   -4240.3868 
42701000    47.096843   -5131.8806   -5041.0504   -5131.8806            0    6165.7088    19.726175    19.770842    20.387339    7951.1249    4872.4658    7203.2121    6421.4485   -84.880956    192.25499    189.92086    -4326.081 
42702000    49.991609   -5134.2423   -5037.8293   -5134.2423            0    6469.7449    19.639238    19.707387    20.482739    7927.5996    7285.4917    5983.7499    6139.9932    22.627695    274.92139   -573.31376   -4289.8239 
42703000    50.331031   -5141.4147   -5044.3471   -5141.4147            0    6910.9324    19.737134    19.686223    20.426468    7936.6969    6791.8658    7033.1507    6907.7806   -340.30089    282.36633    538.95831   -4244.4164 
42704000    49.599446   -5138.9069   -5043.2502   -5138.9069            0    6893.1117    19.662295    19.857484    20.282826    7919.3018     7063.769    6064.5853    7550.9808    55.606531    107.13886    188.70056    -4247.131 
42705000    48.153794   -5139.2746   -5046.4059   -5139.2746            0    6967.8975     19.68591    19.744074    20.387524    7924.2243    6706.7793    7039.7504    7157.1629   -248.91597   -136.67768   -370.29313   -4241.1491 
42706000    51.509879    -5145.712   -5046.3709    -5145.712            0    6873.3315      19.7574    19.706346    20.387751    7937.8929    6458.5862    6841.2191    7320.1893   -153.24493    517.45446    289.68371   -4250.6726 
42707000    52.715966   -5146.5037   -5044.8365   -5146.5037            0    5568.5509    19.733423    19.737371    20.463738    7970.3372    4458.7995     6389.191    5857.6621   -41.010369    275.41823    625.02678   -4397.5527 
42708000    52.098785   -5135.2995   -5034.8227   -5135.2995            0    7122.5484    19.712638    19.647797    20.422917    7909.9983    6809.6139    8221.7144    6336.3169   -239.27218    855.71718    519.14788   -4213.1711 
42709000    51.236508   -5138.7297   -5039.9158   -5138.7297            0    6499.3657    19.588965    19.767384    20.491793    7934.8851    6728.8383    6550.7398     6218.519    35.383293   -142.16303   -59.481133   -4287.7952 
42710000    51.628355   -5130.5325   -5030.9628   -5130.5325            0    7128.8709    19.726584    19.696316    20.348611    7906.2705    6255.4156    7886.8277    7244.3693   -236.68822    628.37419    257.24122   -4208.9695 
42711000     53.13667   -5138.5647   -5036.0862   -5138.5647            0     7512.669    19.758497    19.637298    20.368793    7903.1628    7770.8991    7490.1706    7276.9373   -134.43643    391.76205    199.20015   -4170.1795 
42712000    50.110312   -5135.4329   -5038.7909   -5135.4329            0     7304.112     19.74847    19.659361    20.423392    7929.2245    7452.0911    7110.1556    7350.0893   -51.799892   -126.28559    373.28761   -4194.1463 
42713000    54.248972   -5140.1171   -5035.4934   -5140.1171            0    6135.9977    19.691852    19.785559    20.378644    7939.8111    6451.1349    5525.1665    6431.6918   -236.32213    144.76169     141.8079   -4324.9817 
42714000    53.362448   -5141.7083   -5038.7944   -5141.7083            0    6727.7345    19.633246    19.743038    20.482202    7939.3098    5684.0158    8015.6599    6483.5279    2.8146873    444.80595    437.06246   -4259.8123 
42715000    50.365682   -5146.1352   -5049.0008   -5146.1352            0    6442.5455    19.687264    19.744951    20.413431     7935.192    6370.7525    6503.9491    6452.9349   -271.73489    596.25889    661.42582   -4303.4266 
42716000    50.077714   -5142.9832   -5046.4041   -5142.9832            0    6521.0848    19.685441    19.773286     20.48225     7972.631    7529.9387    5386.0666    6647.2492   -163.09415   -606.61312    886.93958   -4288.1803 
42717000    49.245937   -5142.0571   -5047.0822   -5142.0571            0    6375.0908     19.70439    19.699978     20.40834     7922.029    6028.5567    6991.4875    6105.2282    -197.3722    561.06903     48.35861   -4310.5382 
42718000    52.123223   -5134.1249   -5033.6009   -5134.1249            0    6988.4296    19.700732    19.749211    20.362478    7922.5088    6465.7658    7319.5031    7180.0199   -393.00265   -70.482518    584.59384   -4226.1461 
42719000     53.32685   -5136.3163    -5033.471   -5136.3163            0    7529.9199    19.621219    19.716282    20.373521    7881.6492    7599.5252    7687.9758    7302.2586   -152.41524   -348.51307    6.1508842   -4167.9386 
42720000    50.827952   -5143.9585   -5045.9325   -5143.9585            0    6541.3331    19.692757    19.771414    20.378197    7934.3251    6372.9346    6602.6366    6648.4281   -359.35451    338.39729    255.85742   -4289.0087 
42721000    50.580249   -5139.8738   -5042.3256   -5139.8738            0    6689.2363    19.670558    19.639369    20.558919    7942.2671    6778.8447    7303.1199    5985.7444   -53.983919    1114.4761   -52.907489   -4267.5125 
42722000    48.520914   -5137.1912   -5043.6145   -5137.1912            0    6476.5106    19.632843    19.823938    20.352278     7921.112     6570.228    6719.2278    6140.0761   -456.28351   -190.02516    504.52927   -4295.4397 
42723000    51.921922   -5141.7517   -5041.6159   -5141.7517            0    6863.1397    19.680548    19.759939     20.37537    7923.7052     7382.796    7081.7922    6124.8308    221.02315     678.2168    -221.2519   -4248.5176 
42724000    49.805217   -5138.6486    -5042.595   -5138.6486            0    6458.1447     19.76715    19.764693    20.341621    7947.3016    5881.6335     6913.302    6579.4985    184.53307    676.15181    52.531938   -4294.0751 
42725000     51.81592   -5144.9251   -5044.9937   -5144.9251            0    6565.1159    19.779029    19.765402     20.34879    7955.1653    6678.4399    6354.6276    6662.2804   -466.83665   -182.91251   -357.59927   -4283.3226 
42726000    53.076755   -5140.7089   -5038.3459   -5140.7089            0    6842.0554    19.692155     19.72436    20.373258    7913.2823     6423.384    7369.4283     6733.354   -54.128464   -197.66188    681.99928   -4248.7241 
42727000    54.934085   -5136.7676   -5030.8226   -5136.7676            0    6680.8987    19.680907    19.795646    20.428047    7958.6908    7444.7887    6503.5782    6094.3291   -40.900085   -237.28311    185.42834    -4255.375 
42728000    51.528617   -5135.3762   -5035.9989   -5135.3762            0    6711.6113    19.694836     19.76024    20.442508     7955.707    6427.5977     6887.192    6820.0441   -197.07188   -387.83278    889.40697   -4257.2786 
42729000    52.964345   -5138.7696   -5036.6234   -5138.7696            0    6904.1669      19.6806    19.728778    20.380608    7913.2642    6741.2848    7072.6533    6898.5625   -241.33367    253.44988   -249.98573   -4239.8353 
42730000    53.664568   -5133.7714   -5030.2748   -5133.7714            0    7088.3907    19.779055    19.842813    20.180592     7920.319    6428.3776    7233.7867    7603.0077   -135.51349    31.582068    846.94519   -4211.4967 
42731000    50.414903   -5133.7533   -5036.5239   -5133.7533            0    6375.3341    19.723243    19.759843    20.384065    7944.2449    7191.7914    6087.6597    5846.5513    125.57088    709.17607   -389.08258   -4297.8862 
42732000    50.439878   -5135.8114   -5038.5338   -5135.8114            0    7705.3454    19.826322    19.695387    20.299949    7926.8678    7658.5311    7905.6362     7551.869    213.81005    909.64651    139.24239   -4147.7556 
42733000    50.216055   -5139.2628   -5042.4169   -5139.2628            0    6859.7327    19.711485    19.724157    20.405598    7933.5423    7565.7144    6361.6024    6651.8812   -330.06926    265.42869     149.5837   -4248.7281 
42734000    52.598716   -5135.9109   -5034.4698   -5135.9109            0    7458.7377    19.748956    19.749935    20.289077    7913.5636    6668.6771    7845.2427    7862.2934   -320.10878    331.84258    363.89486   -4173.6479 
42735000    49.577503   -5141.1054    -5045.491   -5141.1054            0    6519.7203    19.688028    19.746051    20.389243    7926.5385    6681.8262    6449.6707    6427.6641   -110.83041    522.75783    -561.6839   -4291.8085 
42736000     49.95203    -5139.938   -5043.6013    -5139.938            0    7001.0267    19.805983    19.676538     20.34014    7926.8207    7332.7013    6541.1603    7129.2185   -205.99479    334.76878      348.825   -4234.2508 
42737000    53.130649    -5141.804    -5039.337    -5141.804            0    6333.1219    19.680842    19.800766     20.36217    7935.0506    6354.3518     6545.469    6099.5448    96.570539    348.91302    306.15037   -4306.4392 
42738000    50.780555   -5136.1583   -5038.2237   -5136.1583            0    6363.2232    19.647966    19.840387    20.344043    7930.5809    6511.2334    5526.2981    7052.1381   -110.39325     480.0761    365.38516   -4302.2572 
42739000    51.812854   -5137.3429   -5037.4175   -5137.3429            0    7307.2026     19.81707    19.731216    20.235709    7912.4635     6545.672    7936.4991    7439.4368   -13.465582    77.270361   -827.93996   -4194.2016 
42740000    52.440819   -5140.9004   -5039.7639   -5140.9004            0     6899.216    19.721419     19.71652    20.442206    7948.7017    6542.5826    8076.9083     6078.157   -14.208207    106.76417    138.86501   -4239.9815 
42741000    48.343631   -5135.0736   -5041.8388   -5135.0736            0    7228.9523     19.62364    19.726333    20.421009     7905.023    7005.2501    7434.7677     7246.839   -150.11047    795.80894    -404.8698   -4208.4371 
42742000    51.839398   -5142.4107   -5042.4341   -5142.4107            0    6652.8071    19.743855     19.69639    20.461271    7957.0338    6068.8396    7295.0045    6594.5772   -401.41857   -140.39221    670.29831   -4270.4079 
42743000    52.939994   -5138.5518   -5036.4526   -5138.5518            0     6671.417    19.773536    19.710453    20.336033    7925.8742    6994.7194    6377.6875    6641.8442   -576.65313    16.545874     976.9006   -4265.2985 
42744000    52.174963   -5137.3067   -5036.6829   -5137.3067            0    6245.7506      19.7621    19.733633    20.365359    7942.0427    5884.8125    5888.9493    6963.4901   -468.91723     294.2401    185.34347   -4313.2591 
42745000    52.985702   -5134.8314    -5032.644   -5134.8314            0    6444.1369    19.749866    19.741408    20.375755    7944.3067    6671.0619     6209.537    6451.8116    490.13913     255.8483   -255.25107   -4286.0291 
42746000     53.63561   -5139.5219   -5036.0811   -5139.5219            0    6294.9234    19.814555    19.712169    20.306319    7931.4017    5507.1314    7504.8074    5872.8314   -190.76461    141.48022    65.573039   -4307.9388 
42747000    51.495363    -5140.559   -5041.2458    -5140.559            0    6412.1061    19.750109      19.7261    20.406816    7950.3446    6844.8674    6860.2913    5531.1596    458.25867    38.979039   -123.64739   -4297.7774 
42748000    52.606745   -5138.2449   -5036.7883   -5138.2449            0    6494.2825     19.69588    19.783117    20.394506    7946.6359    6410.2346    6137.0156    6935.5972    308.17957    280.31508    308.83477    -4284.143 
42749000    48.379898   -5133.4834   -5040.1787   -5133.4834            0    6946.6577    19.642979     19.69825    20.400026     7893.429    7493.2561    6824.7222    6521.9946   -42.111002    864.20002    363.97697   -4240.4964 
42750000    52.807247   -5132.7157   -5030.8725   -5132.7157            0    6573.8123    19.670781    19.840526    20.288457    7918.1515    6192.5083    6565.3179    6963.6106   -130.94887    381.47748   -647.19805    -4271.741 
Loop time of 348.708 on 64 procs for 250000 steps with 972 atoms

Performance: 123.886 ns/day, 0.194 hours/ns, 716.931 timesteps/s
195.5% CPU use with 32 MPI tasks x 2 OpenMP threads

MPI task timing breakdown:
Section |  min time  |  avg time  |  max time  |%varavg| %total
---------------------------------------------------------------
Pair    | 26.062     | 34.845     | 43.679     |  77.6 |  9.99
Bond    | 0.9891     | 1.1828     | 1.4494     |   9.5 |  0.34
Kspace  | 148.57     | 160.61     | 170.89     |  49.6 | 46.06
Neigh   | 0.077536   | 0.10043    | 0.11476    |   3.2 |  0.03
Comm    | 56.345     | 63.697     | 74.935     |  52.8 | 18.27
Output  | 0.46549    | 0.4658     | 0.46716    |   0.0 |  0.13
Modify  | 70.176     | 74.552     | 78.245     |  23.0 | 21.38
Other   |            | 13.26      |            |       |  3.80

Nlocal:        30.3750 ave          36 max          22 min
Histogram: 1 0 3 2 2 6 6 8 1 3
Nghost:        2749.00 ave        2769 max        2731 min
Histogram: 4 6 1 1 2 4 6 5 1 2
Neighs:        9915.31 ave       12872 max        7329 min
Histogram: 3 2 3 5 3 4 8 1 1 2

Total # of neighbors = 317290
Ave neighs/atom = 326.43004
Ave special neighs/atom = 2.0000000
Neighbor list builds = 265
Dangerous builds = 0

unfix		3
unfix		2
unfix		1

write_data	data.final.${pid}
write_data	data.final.1
System init for write_data ...
PPPM initialization ...
  extracting TIP4P info from pair style
  using 12-bit tables for long-range coulomb (../kspace.cpp:340)
  G vector (1/distance) = 0.37260063
  grid = 24 24 24
  stencil order = 5
  estimated absolute RMS force accuracy = 0.0034562775
  estimated relative force accuracy = 1.0408477e-05
  using double precision FFTW3
  3d grid and FFT values/proc = 3211 432
Last active /omp style is kspace_style pppm/tip4p/omp
WARNING: Not all mixed pair coeffs generated from mixing. Use write_data with 'pair ij' option to store all pair coeffs. (../write_data.cpp:312)

write_restart   restart.lmp.${pid}
write_restart   restart.lmp.1
System init for write_restart ...
PPPM initialization ...
  extracting TIP4P info from pair style
  using 12-bit tables for long-range coulomb (../kspace.cpp:340)
  G vector (1/distance) = 0.37260063
  grid = 24 24 24
  stencil order = 5
  estimated absolute RMS force accuracy = 0.0034562775
  estimated relative force accuracy = 1.0408477e-05
  using double precision FFTW3
  3d grid and FFT values/proc = 3211 432
Last active /omp style is kspace_style pppm/tip4p/omp
Total wall time: 0:05:48
