LAMMPS (30 Jul 2021)
  using 1 OpenMP thread(s) per MPI task
package omp 0
using multi-threaded neighbor list subroutines
echo both

include		in.partitions
variable        pid world 0
include		in.temp
variable        temperature equal 263.08
variable	tempDamp equal 100.0
include		in.pressure
variable        pressure equal 4125.0
variable        pressureDamp equal 1000.0 # This is 1 ps
include		in.seed
variable        seed world 745823

units		real
atom_style	full

read_restart	restart.lmp.${pid}
read_restart	restart.lmp.0
Reading restart file ...
  restart file = 30 Jul 2021, LAMMPS = 30 Jul 2021
  restoring atom style full from restart
  orthogonal box = (0.011027263 -0.054180648 -0.18065892) to (19.988974 20.054182 20.880657)
  4 by 4 by 4 MPI processor grid
  restoring pair style lj/cut/tip4p/long/omp from restart
  restoring bond style harmonic/omp from restart
  restoring angle style harmonic/omp from restart
  972 atoms
  648 bonds
  324 angles
Finding 1-2 1-3 1-4 neighbors ...
  special bond factors lj:    0        0        0       
  special bond factors coul:  0        0        0       
     2 = max # of 1-2 neighbors
     1 = max # of 1-3 neighbors
     1 = max # of 1-4 neighbors
     2 = max # of special neighbors
  special bonds CPU = 0.340 seconds
  read_restart CPU = 0.610 seconds
include 	in.setup
variable	out_freq equal 1000
variable	out_freq2 equal 10000
variable	out_freq3 equal 1000

timestep	2.0

neigh_modify    delay 7 every 1

include		in.tip4p
# This is TIP4P/Ice

# create groups ###
group ox type 2
324 atoms in group ox
group hy type 1
648 atoms in group hy

# set charges - beside manually ###
set group ox charge -1.1794
Setting atom values ...
  324 settings made for charge
set group hy charge 0.5897
Setting atom values ...
  648 settings made for charge

# ### TIP3P Potential Parameters ###
pair_style lj/cut/tip4p/long/omp 2 1 1 1 0.1577 8.5
pair_coeff 1 1*2 0.000 0.000
pair_coeff 2 2 0.21084 3.1668
bond_style  harmonic
bond_coeff  1 450 0.9572
angle_style harmonic
angle_coeff 1 55 104.52
kspace_style pppm/tip4p/omp 1.0e-5
pair_modify tail yes

thermo          ${out_freq}
thermo          1000
thermo_style    custom step temp pe etotal epair emol press lx ly lz vol pxx pyy pzz pxy pxz pyz enthalpy

restart 	${out_freq3} restart.lmp.${pid} restart2.lmp.${pid}
restart 	1000 restart.lmp.${pid} restart2.lmp.${pid}
restart 	1000 restart.lmp.0 restart2.lmp.${pid}
restart 	1000 restart.lmp.0 restart2.lmp.0


include         in.dump
dump            myDump all atom ${out_freq2} dump.water.${pid}
dump            myDump all atom 10000 dump.water.${pid}
dump            myDump all atom 10000 dump.water.0
dump            myDump2 all dcd ${out_freq2} dump.dcd
dump            myDump2 all dcd 10000 dump.dcd
dump_modify     myDump append yes
dump_modify     myDump2 append yes


variable natoms 	equal  "count(all)"                        # NUMBER ATOMS
variable H      	equal  "enthalpy/v_natoms"                 # ENTHALPY-per-atom
variable Vol      	equal  "vol/v_natoms"                 # volume-per-atom
fix AVG all 		ave/time ${out_freq} 1 ${out_freq} v_Vol v_H file vol_enthalpy.dat
fix AVG all 		ave/time 1000 1 ${out_freq} v_Vol v_H file vol_enthalpy.dat
fix AVG all 		ave/time 1000 1 1000 v_Vol v_H file vol_enthalpy.dat


timer           timeout 02:55:00 every 1000
New timer settings: style=normal  mode=nosync  timeout=02:55:00

fix 		1 all shake 1e-6 200 0 b 1 a 1
       0 = # of size 2 clusters
       0 = # of size 3 clusters
       0 = # of size 4 clusters
     324 = # of frozen angles
  find clusters CPU = 0.065 seconds
fix             2 all nph aniso ${pressure} ${pressure} ${pressureDamp}
fix             2 all nph aniso 4125 ${pressure} ${pressureDamp}
fix             2 all nph aniso 4125 4125 ${pressureDamp}
fix             2 all nph aniso 4125 4125 1000
fix             3 all temp/csvr ${temperature} ${temperature} ${tempDamp} ${seed}
fix             3 all temp/csvr 263.08 ${temperature} ${tempDamp} ${seed}
fix             3 all temp/csvr 263.08 263.08 ${tempDamp} ${seed}
fix             3 all temp/csvr 263.08 263.08 100 ${seed}
fix             3 all temp/csvr 263.08 263.08 100 745823


run             250000
PPPM initialization ...
  extracting TIP4P info from pair style
  using 12-bit tables for long-range coulomb (../kspace.cpp:340)
  G vector (1/distance) = 0.3719406
  grid = 24 24 25
  stencil order = 5
  estimated absolute RMS force accuracy = 0.0034644475
  estimated relative force accuracy = 1.0433081e-05
  using double precision FFTW3
  3d grid and FFT values/proc = 2366 288
Last active /omp style is kspace_style pppm/tip4p/omp
Neighbor list info ...
  update every 1 steps, delay 7 steps, check yes
  max neighbors/atom: 2000, page size: 100000
  master list distance cutoff = 10.8154
  ghost atom cutoff = 10.8154
  binsize = 5.4077, bins = 4 4 4
  1 neighbor lists, perpetual/occasional/extra = 1 0 0
  (1) pair lj/cut/tip4p/long/omp, perpetual
      attributes: half, newton on, omp
      pair build: half/bin/newton/omp
      stencil: half/bin/3d
      bin: standard
Per MPI rank memory allocation (min/avg/max) = 9.227 | 9.231 | 9.237 Mbytes
Step Temp PotEng TotEng E_pair E_mol Press Lx Ly Lz Volume Pxx Pyy Pzz Pxy Pxz Pyz Enthalpy 
  750000    273.37699   -4661.6421   -4134.4116   -4661.6421            0    3097.2663    19.977946    20.108362    21.061316    8460.8315    3876.0447    2282.4148    3133.3394    451.58914    880.80555    471.16578    -3752.232 
  751000    265.77365   -4694.7756   -4182.2087   -4694.7756            0    3652.3023    20.025227    19.980846    20.998281    8401.8525    1954.0728    4638.9395    4363.8947    215.38707     307.6034   -656.21786   -3734.6834 
  752000    265.31317   -4680.8002   -4169.1214   -4680.8002            0    3889.2892    20.181272    20.143641    20.600614    8374.6504    2995.1027    3784.3388     4888.426   -313.18127   -349.76959    461.87604   -3694.1004 
  753000    268.65689   -4698.8007   -4180.6732   -4698.8007            0    4485.9102    20.164889    19.970638    20.636131    8310.2872    4586.0869    5289.5102    3582.1335   -491.03184   -1329.4527    -545.5937   -3636.9943 
  754000      260.443   -4717.8273   -4215.5411   -4717.8273            0     4696.284    20.143473    19.943055    20.674645    8305.4678    4252.1613    4865.2943    4971.3965   -522.98349   -675.48557   -1005.0433   -3646.6956 
  755000    260.93051    -4682.891   -4179.6646    -4682.891            0     3922.212    20.039475    19.976312    21.062682    8431.7035    3286.6383     4766.753    3713.2449   -630.47082   -665.52591    416.97678    -3697.359 
  756000     274.7711   -4687.3189   -4157.3997   -4687.3189            0     4523.268    20.114368    20.053973    20.686208    8344.2574    5358.5037    3346.4617    4864.8387   -325.03719    775.27528   -448.10027   -3606.9522 
  757000     269.8616   -4687.8638    -4167.413   -4687.8638            0    4662.1997    20.069664    20.233591    20.627332    8376.3753    3172.2533    5492.0694    5322.2762   -1.6561396   -1422.2435    401.67215   -3597.8748 
  758000    267.74299   -4684.2306   -4167.8657   -4684.2306            0    3924.6277    19.988644    19.966584    20.992849    8378.3502    2437.1038     6009.446    3327.3331   -735.00955     11.86157    1950.5234   -3688.3169 
  759000    270.63548   -4660.4128   -4138.4695   -4660.4128            0    6450.9084     19.91026    20.151972    20.650336    8285.5551    9134.6621    4782.6969    5435.3662   -404.62844    418.26518    394.55087   -3358.9654 
  760000    264.10374    -4669.752   -4160.4057    -4669.752            0    3100.5529    20.213499    19.913988    20.947756     8432.129    865.19318    5272.7853    3163.6802    488.02221    307.44698    539.69682   -3779.1185 
  761000    267.95185   -4695.8198   -4179.0521   -4695.8198            0    5658.7591     19.85411    20.076009    20.913551    8335.9598    7248.3365    4181.0644    5546.8765   -374.83601    2234.0422   -97.471875   -3491.1087 
  762000    270.70666   -4654.3884   -4132.3079   -4654.3884            0    5245.1284    20.040998     20.04778    20.792039    8353.7737     6995.079    4622.4588    4117.8473   -573.74032   -965.43953    36.052165   -3493.2875 
  763000    265.17899   -4646.3878   -4134.9678   -4646.3878            0    1902.8689    20.173589    20.209365    20.693995     8436.847    905.30249    231.17552    4572.1287   -1550.8072   -650.40752    475.73432   -3900.8336 
  764000     263.0673   -4693.8273   -4186.4798   -4693.8273            0    3296.2272    20.028578    20.144204    20.699102    8351.2545    4097.3241    2717.4161    3073.9415   -166.90873    1506.5996   -269.18474   -3785.0176 
  765000    264.93138    -4691.954   -4181.0115    -4691.954            0    4622.5402     20.03367    20.012194    20.936257    8393.7161    6661.7925    4037.6197    3168.2083    20.472349    1119.8534   -300.55104   -3615.1491 
  766000    261.11486   -4680.3293   -4176.7473   -4680.3293            0     4131.444    20.243826    19.858074    20.891464    8398.4395    3836.5231    4011.2095    4546.5993    872.63153   -45.595246   -327.96865   -3670.7172 
  767000    270.03777   -4701.8632   -4181.0726   -4701.8632            0    4759.6276     19.89717    20.298677    20.719027      8368.13    6160.6978     3099.507    5018.6781    484.99248    182.63426    145.40464   -3600.2048 
  768000    262.40645   -4708.1445   -4202.0716   -4708.1445            0    4149.3564    20.182819    20.026822    20.700357    8367.0373    3771.1492    4422.5391     4254.381   -88.827588    666.88613   -463.25982   -3695.7478 
  769000    263.16455   -4688.3476   -4180.8127   -4688.3476            0    5461.0245    20.043605     20.06533    20.559519    8268.6591    5046.3318    6087.6776    5249.0641   -200.13871     106.4848   -1352.7043   -3522.2682 
  770000    257.74349   -4678.5695   -4181.4895   -4678.5695            0    3798.6314    20.218993     19.93101    20.814338     8387.865     1823.314    4801.7189    4770.8614    241.81107   -244.60701   -143.24261    -3716.809 
  771000    261.98851   -4711.9414   -4206.6746   -4711.9414            0    3648.8215    19.834818    20.200292     20.96299    8399.2227    5415.7419    1873.6133    3657.1093    126.74328     339.8362    337.47699   -3759.7156 
  772000    262.43408   -4678.0723   -4171.9461   -4678.0723            0    4352.6554    20.215968    19.871156    20.919664    8403.7357    3711.7216    4664.5753    4681.6694   -522.96143    275.26566    1626.6065   -3638.4852 
  773000    260.01124   -4698.2371   -4196.7836   -4698.2371            0    5135.0593    20.102911    20.115786    20.654529    8352.3994    3952.9804     6259.564    5192.6336   -26.392983    845.84545   -967.16106    -3571.276 
  774000    275.07923   -4647.7348   -4117.2213   -4647.7348            0    6242.3266    20.307723    19.830882    20.583615    8289.4351    6380.1124    5158.6533     7188.214    631.18598    1294.2234    487.74755   -3362.5683 
  775000    267.54677   -4674.8536   -4158.8672   -4674.8536            0    4955.2643    19.855799    20.266926    20.943585     8428.034    5817.6116    4980.8101    4067.3711   -498.81434    76.456037    186.41346   -3549.7947 
  776000    266.86876   -4657.2333   -4142.5545   -4657.2333            0    3740.8504    20.062841    20.099907     20.97644    8458.9855     2736.344    4089.4189    4396.7882    -82.77988    1045.2432     1510.787   -3681.0621 
  777000    278.75948   -4677.9041    -4140.293   -4677.9041            0     3815.456     19.94109    20.191431    20.902395    8416.1223    6020.9853    2106.6898    3318.6928    165.08171    -196.9695    720.78719    -3671.982 
  778000    259.66407   -4692.2379   -4191.4539   -4692.2379            0    4601.4041    20.028607    20.168538    20.810162    8406.2174    4298.4313    4470.8952     5034.886   -371.78642    400.06112     237.6021   -3627.3399 
  779000    262.82065   -4678.2046   -4171.3328   -4678.2046            0    3505.1163    20.395894    19.976916    20.669317    8421.6526    1479.6203    3895.8432    5139.8854    281.43207   -637.90104   -794.97245   -3740.8304 
  780000    258.52837   -4649.9714   -4151.3777   -4649.9714            0    4303.8775    19.939239    20.033803     20.86226    8333.6132    6729.3631    2342.9966    3839.2728    294.42036   -622.63715   -20.965555   -3628.2965 
  781000    261.49173   -4644.9552   -4140.6464   -4644.9552            0    5081.1966    19.985087    19.889478    20.922161    8316.4115    5469.2428    5030.8565    4743.4904   -293.39403    91.998569    951.38626   -3524.3667 
  782000    273.32755   -4693.4831   -4166.3479   -4693.4831            0    2759.6731    20.131293    20.061618    20.983897    8474.6891    2488.9852    3279.6197    2510.4144   -535.66174    2090.4363    676.98666   -3825.2671 
  783000    258.69405   -4664.2195   -4165.3063   -4664.2195            0    2470.4354    20.120938    20.178673    20.669401    8392.0623    1463.5061    1983.8453    3963.9547   -603.72214    1710.3564    854.70053   -3862.9507 
  784000    256.61992   -4691.6043   -4196.6912   -4691.6043            0    2540.0199    20.191668    20.054726     20.69426    8379.9001    2298.2166    2271.2638    3050.5791   -458.21965   -706.21476    1389.6646   -3886.2697 
  785000    252.11578   -4706.9027   -4220.6763   -4706.9027            0    4004.4122    19.981474    20.205614    20.701025    8357.7892    3632.6446    4247.8185    4132.7736   -434.98272    211.63187    193.16402   -3732.5793 
  786000    253.06945   -4693.8205   -4205.7548   -4693.8205            0    2771.4623    19.966859    20.017696     20.98652    8388.1126    5510.1808     1210.648    1593.5583   -88.169778    1348.5476   -251.80274   -3866.7162 
  787000    258.24984   -4665.4413   -4167.3848   -4665.4413            0    5389.8032    19.909349    20.018069    20.780016    8281.8074      5072.19    5342.8595    5754.3601   -57.155848    -426.6386    1095.6741   -3516.3953 
  788000    266.12632   -4664.0711   -4150.8241   -4664.0711            0     4404.165    19.910002    19.986868    20.944487    8334.6195    3909.5027    5426.8627    3876.1296   -318.72628   -312.50221    428.27336   -3615.4896 
  789000    254.29316    -4684.367   -4193.9412    -4684.367            0    3476.0801    19.968622    20.068086    20.905937    8377.6779     3301.884    3443.7038    3682.6525    210.68341    353.03324   -1350.6868   -3769.2343 
  790000      252.033   -4665.0656   -4178.9987   -4665.0656            0     5305.125    20.059626    19.922884    20.758023    8295.8527    3275.3765    5824.6211    6815.3774   -139.00654    464.10283    484.33142   -3537.1502 
  791000     264.3077   -4680.0111   -4170.2714   -4680.0111            0    3686.1061    19.870444    20.153685    21.071954    8438.5311    5805.3848    2530.0715     2722.862    346.71279   -628.30287    140.33648   -3716.6322 
  792000    273.45405   -4710.9505   -4183.5713   -4710.9505            0    2941.8163    20.162345    20.248126    20.559261    8393.3122    1627.8388    4175.0753    3022.5348    553.91981   -939.12931    512.36843   -3823.4699 
  793000    270.16921   -4667.4176   -4146.3736   -4667.4176            0    5073.9815    20.135885    20.059404    20.603522    8322.0478    3887.1884    4611.9571    6722.7989   -527.49924    1024.2968   -563.33917   -3530.5519 
  794000    249.87266   -4682.2058   -4200.3053   -4682.2058            0    5237.5138    19.788739    20.004113    20.999748    8312.8798    6582.6047     5248.212    3881.7248    269.35663   -516.03152   -765.03926   -3565.3363 
  795000    249.02498   -4689.8394   -4209.5737   -4689.8394            0    4789.4866    19.783234    20.192902    20.947182    8367.9991    4408.5982    4660.2762    5299.5852    558.79272   -862.13338    843.77878   -3625.0711 
  796000    251.59492   -4681.7679   -4196.5459   -4681.7679            0    4385.1145    20.086878    20.065679    20.825571    8393.8892    2913.1213    4813.3725    5428.8496    279.75521    1421.1802   -1363.0581   -3659.7366 
  797000    267.11561   -4700.8046   -4185.6497   -4700.8046            0    3691.8542    19.929068    19.992873    21.157265    8429.8863    3692.7876    6106.4746    1276.3003    420.29545   -253.97212   -238.85878   -3731.7685 
  798000    244.46602   -4677.3935   -4205.9202   -4677.3935            0     4357.395    20.090342    19.966852    20.882267    8376.7309    1776.0549    5776.9692    5519.1608    252.59911    148.77308   -306.48759   -3673.5945 
  799000    277.94102   -4705.3726     -4169.34   -4705.3726            0    3071.0392    19.970871    20.364967    20.731253    8431.5277    4389.9752    2144.0426    2679.0997    595.79736   -706.65887    34.964139   -3791.7091 
  800000    259.27178   -4692.5559   -4192.5285   -4692.5559            0    3701.0569     20.27221    20.052568    20.588664    8369.4953    3926.3838    2670.4473    4506.3397   -338.84235    904.66796    342.58414   -3740.7756 
  801000    279.31608   -4649.8812   -4111.1967   -4649.8812            0    4700.6369    20.104193    20.281939    20.672589      8429.29    3924.7595    3726.4449    6450.7064   -278.72776    263.98505      702.027   -3533.3354 
  802000    261.85075   -4704.1943   -4199.1931   -4704.1943            0    4098.5116    20.135585    19.965211    20.859511    8385.7571    4922.2463         3581    3792.2885    737.86455    1103.9096    -1018.816   -3697.9547 
  803000    244.24083   -4681.6154   -4210.5764   -4681.6154            0    4126.7714    20.196978     20.02416    20.675104    8361.5809    1921.3562    5308.2768    5150.6812   -312.04805    659.09799    67.234769    -3707.337 
  804000    276.50823   -4676.5337   -4143.2643   -4676.5337            0    4373.6521    20.082263    20.098462    20.669423    8342.6462    4907.5415    3022.9272    5190.4875    697.46971    562.49122   -209.49552   -3611.1267 
  805000    260.89263   -4670.2646   -4167.1112   -4670.2646            0    5266.5885    19.991518    19.791664    21.132335    8361.3338     6625.238    5641.6545     3532.873   -585.50784   -386.96128    -766.1752   -3524.8956 
  806000     265.8603   -4650.1743   -4137.4404   -4650.1743            0    3909.3225    20.086239    20.116499    20.900122    8445.0038    4585.4204    3559.7692    3582.7778    855.22053    2421.6502    28.293131   -3655.9615 
  807000    250.11583   -4691.2556   -4208.8862   -4691.2556            0    3918.5164    19.976962      20.2652    20.547902    8318.5536    3810.5082    3036.9157    4908.1253    601.10197    358.60354    1488.7993   -3733.5013 
  808000    265.44315   -4677.9217   -4165.9923   -4677.9217            0    5682.7179    20.038535    19.874162    20.726986    8254.5034    4908.2134    6430.6772     5709.263   -435.96857    443.40662   -1037.7052    -3481.887 
  809000    265.50292   -4691.3565   -4179.3118   -4691.3565            0    3127.4831    20.213384    20.129058    20.573329    8370.8018    3067.2563    2627.6917    3687.5011    163.39326   -825.93885    434.91896   -3797.5101 
  810000    263.58508   -4680.2914   -4171.9454   -4680.2914            0    5155.3462    20.178689     20.05002    20.600929    8334.7881    4839.7766    5246.4054    5379.8565    508.88568    2126.2554   -1287.8426   -3545.2907 
  811000    269.01036    -4684.055   -4165.2459    -4684.055            0    4899.9966    20.044453    20.138476    20.787955    8391.3645    5207.6243    4359.4545     5132.911   -584.44002    709.47118   -1361.8041   -3565.5871 
  812000    273.73474   -4656.6961   -4128.7757   -4656.6961            0    4348.7219    19.792465    20.139632    21.070371    8398.9234    5997.7299    3295.1706    3753.2652     140.8693   -872.58812   -749.33869   -3596.1021 
  813000    282.59474   -4681.6338   -4136.6261   -4681.6338            0    4590.4119    20.218918    19.870188    20.883992    8390.2209    1357.4476    7847.3258    4566.4623    54.020607    373.36395   -272.36487   -3574.9306 
  814000    261.30296   -4679.0537    -4175.109   -4679.0537            0    2813.1465    20.114523    20.163547     20.80466    8437.9569    2234.3363    3548.6502    2656.4531    580.29875    -784.9438   -160.03182   -3828.9261 
  815000    266.12017   -4695.3215   -4182.0863   -4695.3215            0    5192.6248    20.177678    20.286361    20.402445    8351.3667    4548.7551    4781.4389    6247.6804    48.033557   -983.47225   -906.24631   -3549.6448 
  816000    272.50879   -4646.6866   -4121.1305   -4646.6866            0    2947.3915    20.116233    20.278906    20.776939     8475.645    2508.8879    3437.3927     2895.894   -25.662237    1375.3324   -475.83695   -3756.8076 
  817000    253.46991   -4675.7894   -4186.9514   -4675.7894            0    4802.5155    20.140306    19.758634     20.93116    8329.4491    5050.4561    6501.0044     2856.086   -172.28127    1653.5676    1118.4828   -3603.5588 
  818000    263.27948   -4690.9103   -4183.1537   -4690.9103            0    3675.1563    19.953813     20.13755    20.911501    8402.6784    3670.8118    2999.6255    4355.0316   -335.37418    -1120.706   -222.26383   -3732.7837 
  819000    254.17939   -4703.9296   -4213.7233   -4703.9296            0    4177.7784     19.99353    19.975244    20.811516    8311.6121    4131.8233    5218.0426    3183.4693   -748.68873   -786.25174    77.396064   -3707.3083 
  820000    263.87786   -4671.7991   -4162.8884   -4671.7991            0      878.758    20.270018     20.07536    20.804107    8465.7718    316.04351    1098.5604    1221.6701   -62.186034   -321.69025    876.49776   -4054.3929 
  821000    254.64033   -4675.3871   -4184.2918   -4675.3871            0    2955.8974    20.045312    20.216816    20.868343    8456.9457    3277.3443    2119.1099     3471.238   -18.105709   -378.80121   -42.612357   -3819.7236 
  822000      291.731   -4683.8277   -4121.1999   -4683.8277            0    4838.2285    20.030412    19.971499    20.965049    8386.8028    4596.3822    4739.9469    5178.3564   -443.87276   -1091.2873   -570.93744   -3529.4221 
  823000    252.19053   -4693.5542   -4207.1835   -4693.5542            0    4284.2527    19.991169     20.03146     20.91726    8376.3649    6393.5551    2532.7429    3926.4603    166.64091   -239.58192    302.45152   -3683.8162 
  824000    261.62828    -4702.569   -4197.9968    -4702.569            0    4613.2766    20.172135    20.042766    20.468048    8275.3415    3169.8307    4194.3666    6475.6325    327.62459    -79.96462    -493.2295   -3641.2326 
  825000    264.27554   -4691.1243   -4181.4467   -4691.1243            0    4170.1394    20.150284     20.01797    20.793642    8387.4853     3741.216    5194.7254    3574.4767    515.95271    -649.7719   -2059.8425   -3671.3432 
  826000    264.43373   -4690.1959   -4180.2132   -4690.1959            0    4500.7406    20.018825    20.211423    20.611043    8339.4122    3469.1638    4131.1037    5901.9542    852.96644    399.13377   -512.07215   -3632.8251 
  827000      257.988   -4721.9728   -4224.4212   -4721.9728            0    4469.6968     20.03624    19.927088    21.007993    8387.7339    6105.0537    4438.7168    2865.3197   -728.78149    2289.5879   -100.99822   -3677.6589 
  828000    277.34615   -4670.9532   -4136.0678   -4670.9532            0    2619.8456    19.965154    20.115548    21.025682    8444.1244     3140.355    2023.6101    2695.5718   -239.45931    667.49568   -994.47505   -3813.4367 
  829000    261.90331   -4709.0302   -4203.9276   -4709.0302            0    3605.7999    20.105985    20.047384    20.939458    8440.1175    4585.6133    2746.1413    3485.6451   -315.75102   -1855.8277    193.18355    -3760.088 
  830000    268.14526   -4677.6054   -4160.4647   -4677.6054            0    2797.8914    20.052352    20.050926     20.99244     8440.393    5455.8706    1254.8617    1682.9419   -1088.3875   -478.76245   -1022.6692   -3816.0597 
  831000    264.91416   -4682.8612    -4171.952   -4682.8612            0    4598.5344    20.155992    19.929275    20.871918    8384.1304    7291.4034    2657.8108    3846.3889    499.69718   -1250.7962   -317.67679    -3609.671 
  832000    254.50552   -4693.1774   -4202.3421   -4693.1774            0    5376.2212    20.111017    20.074947    20.559376    8300.3877    6388.2503    4133.1401    5607.2733    132.97874    1012.0665    1701.3866   -3551.5363 
  833000    262.99773   -4673.1275   -4165.9142   -4673.1275            0     4051.056    20.135306    20.086438    20.831052    8425.0475    5041.4691    2639.7104    4471.9886    309.50095    1200.5165    748.86109   -3668.1582 
  834000    279.08701   -4668.2437   -4130.0009   -4668.2437            0    4690.8265    20.087884    19.897519    20.914156    8359.3688    4944.1945    5045.5559    4082.7291    322.80719    -385.3805   -339.29329    -3558.129 
  835000    253.01309    -4683.397     -4195.44    -4683.397            0     3899.135    19.995701    19.982089    20.945334    8368.8315    3082.5825    5202.9093    3411.9132   -21.187705     1312.716    627.90167   -3719.5473 
  836000    268.49159   -4705.1325   -4187.3239   -4705.1325            0    4259.2901    19.989852    20.153185    20.768444    8366.7582       5340.3    3294.2174    4143.3528   -419.22397   -356.87249   -1092.8836   -3667.6028 
  837000    260.18091   -4694.4205   -4192.6397   -4694.4205            0    2476.1798    20.110404    20.268895    20.621149    8405.5031    4654.8177    463.86681    2309.8548    86.319827    526.65557    179.29558   -3889.0957 
  838000    255.30786    -4665.972   -4173.5894    -4665.972            0    5455.5117    20.045737    19.901178    20.824771    8307.7047    3763.0248    7548.5639    5054.9465   -53.324954     516.1975   -1515.3249   -3512.6031 
  839000    249.86877   -4714.4842   -4232.5913   -4714.4842            0    2781.7726    20.256806    19.927031    20.906419    8439.0431    1178.0831    5470.9262    1696.3085    38.432183    932.73545    97.844217   -3890.2252 
  840000    253.13169   -4675.5296   -4187.3439   -4675.5296            0    5641.2761    19.916726    20.211411    20.673015    8321.8218    3933.6276    6596.1802    6394.0203   -213.28563   -571.87815   -1101.3578   -3502.6891 
  841000     248.6602    -4674.003   -4194.4409    -4674.003            0    2576.4192    20.158323    20.109701    20.935145     8486.644     1015.962    2873.3343    3839.9612   -245.47685    317.04425   -98.687622   -3875.5601 
  842000    251.02705   -4675.5939   -4191.4671   -4675.5939            0    5744.7933    20.169418    19.927762    20.719186    8327.6904     6880.771    5535.7188      4817.89   -301.31744    344.98791    269.31032   -3493.7573 
  843000    281.01339   -4691.2302   -4149.2722   -4691.2302            0    3786.6052    19.968287    20.029781    20.961004     8383.572    3433.4665    3627.3719    4298.9771    867.65572   -1005.5958    250.10347   -3686.2999 
  844000    266.33734   -4701.7029    -4188.049   -4701.7029            0    4086.3069    20.089661    19.947822    20.940901    8391.9612    3990.3313    4357.2473    3911.3421    331.89916    292.68803    70.452379   -3687.9334 
  845000    251.77338   -4704.6917   -4219.1255   -4704.6917            0     3609.262    19.854971    20.238427    20.800368    8358.2825    6165.3159    1928.8735    2733.5965   -28.846252    1326.7662    1049.7958   -3779.1674 
  846000    274.27106   -4687.6522   -4158.6974   -4687.6522            0    4575.5246    19.915445    20.087869    20.874659    8351.0919    6001.0996    2933.0714    4792.4029   -168.14112   -325.93354    1296.5238   -3601.4346 
  847000    262.34532   -4665.5504   -4159.5954   -4665.5504            0    5456.2648     20.00342    19.655187    21.125099    8305.7757    6089.1737     6898.164    3381.4566    429.16632    302.85041    257.04622   -3498.6714 
  848000    256.32694   -4668.7632   -4174.4151   -4668.7632            0     5410.332     20.30021    19.888535    20.574683     8306.852    3654.4029    6552.6068    6023.9864    -194.0513    118.59564    1164.1652   -3518.9701 
  849000    265.69446   -4688.5596   -4176.1455   -4688.5596            0    4344.6426    20.115016    19.946525    20.755337    8327.5529    4537.3917     4235.464     4261.072   -516.52503    222.29305   -730.14749   -3648.4938 
  850000    265.78374   -4691.0988   -4178.5125   -4691.0988            0    3486.7603    20.295321    19.992025     20.79813    8438.7284    791.73261    5837.7689    3830.7793   -115.57114    -298.4814   -270.10858   -3749.3962 
  851000    245.77851   -4699.5607   -4225.5562   -4699.5607            0    2950.3901     20.15176    19.921195    21.061412    8455.0438    2469.9898    2760.1273    3621.0533    89.403604    -913.2136   -67.272189   -3861.7491 
  852000    257.52974   -4669.0088    -4172.341   -4669.0088            0    4866.3533    19.880749    19.915801     21.08893    8349.9731    5878.1584    4970.2433    3750.6583   -215.47619    -381.9625   -633.96804    -3579.737 
  853000    262.27538   -4666.2691    -4160.449   -4666.2691            0    3587.2073    20.032913    20.038234    20.870856    8378.0668    2301.8151    5519.1729    2940.6337    415.30872   -688.74727   -87.125032   -3722.1442 
  854000    256.90884   -4664.5532   -4169.0829   -4664.5532            0    3743.0163    19.910519    20.168046    20.963741    8418.1216    4581.9625    2851.0596    3796.0269    378.38981    1000.4824    265.52922    -3709.554 
  855000    272.95644   -4651.6533   -4125.2338   -4651.6533            0    4745.5652      19.9839    19.851333    21.172819    8399.4068    2901.8767    7342.4111    3992.4077   -572.77514   -392.66591   -556.44209   -3543.9176 
  856000    261.89054   -4707.0245   -4201.9466   -4707.0245            0    4551.2844     20.08412     20.09189    20.761437    8377.8195    5906.5539    3005.7308    4741.5684    98.954846   -600.72945   -1137.8802    -3645.862 
  857000    265.28623   -4688.4872   -4176.8604   -4688.4872            0    4908.3177    20.157697    20.207633    20.441419    8326.5938    5105.6135    3302.4353    6316.9044    364.06425    910.88235   -620.61382   -3580.8196 
  858000    265.54124   -4659.7757   -4147.6571   -4659.7757            0    6616.0254    20.100959    20.046396    20.667315    8327.9315    6128.5757    7678.2672    6041.2333    559.15502   -27.511271   -1004.9305   -3344.1121 
  859000      249.168   -4656.8147   -4176.2733   -4656.8147            0    4719.2355    19.768498    20.232109    20.953281    8380.4409    5956.5015    4484.2865    3716.9184    218.06724    299.20205   -431.89666   -3599.4877 
  860000    272.11367   -4673.3264   -4148.5323   -4673.3264            0    3622.9033    20.253734    19.883452    21.054018    8478.7508    1224.7642    5394.1184    4249.8273   -602.29434   -1364.6447   -555.97199   -3700.5463 
  861000    266.91764   -4660.1135   -4145.3404   -4660.1135            0    3188.6475    20.096414    19.990585    20.981906    8429.2511    2785.2478    3664.6156    3116.0791   -232.36478    472.22032   -418.81528   -3753.3537 
  862000    265.72318   -4672.5549   -4160.0854   -4672.5549            0    3547.7465    19.799244    20.068673    21.258726    8447.0389    5476.7652     2573.901    2592.5735    187.99098    633.65705    251.69451   -3723.0336 
  863000    266.65314   -4718.2414   -4203.9784   -4718.2414            0     3504.567    20.178224    19.919778    20.885976    8395.0288    2408.1343    5083.0128    3022.5537    162.49392    806.41104    471.44125   -3774.9042 
  864000    263.06765   -4670.2862   -4162.9381   -4670.2862            0    4517.2409     20.06892    19.998915    20.719713    8315.9938    5824.5414     3308.833    4418.3482    366.11847    1740.4877   -497.08691    -3615.086 
  865000    257.60048   -4668.0252    -4171.221   -4668.0252            0    4564.3545    19.826316    20.053981    21.010114    8353.5489    6085.6873    4091.0647    3516.3115   -174.23464    1624.1864    1531.7791   -3615.1551 
  866000    249.87016   -4693.1846    -4211.289   -4693.1846            0    2524.8023    19.992892    20.109282    21.013638      8448.38    3962.0043    2366.4524    1245.9503    37.027955    33.365362    933.53811   -3900.2056 
  867000    256.89563   -4706.1678    -4210.723   -4706.1678            0    3779.3524     19.82887    20.062791    20.948697    8333.8625    5008.6045     2569.141    3760.3119   -359.32099    1488.1815     555.0326   -3751.3774 
  868000    255.63819   -4693.1667    -4200.147   -4693.1667            0     3023.226    20.204332    19.999769    20.894257    8442.9923    2919.7445    3173.4032    2976.5303    469.15789    950.44139    1788.9312   -3827.8899 
  869000    236.08698   -4654.0958   -4198.7822   -4654.0958            0    5512.7361     20.10133    20.125327    20.596747    8332.3281    6831.0556    4678.5073    5028.6454   -358.03007    35.452842   -557.98848    -3528.883 
  870000    276.81188   -4709.4368   -4175.5818   -4709.4368            0    3122.8766    20.276422    20.227098    20.599909    8448.7058    926.59395    4626.6213    3815.4144    -277.3477    383.01757    41.633863   -3790.7944 
  871000    258.50123   -4696.4591   -4197.9177   -4696.4591            0    4463.0803    19.960896    20.014504    20.844746    8327.6309    4820.5048     4386.233    4182.5032    288.54524    283.76807   -386.84385   -3655.8768 
  872000    274.54715   -4673.1353    -4143.648   -4673.1353            0    3968.9654    19.995137    20.189791    20.793594    8394.3244    4617.8206    2690.5614    4598.5144     867.7149    437.55361   -749.80777   -3657.7569 
  873000    265.48912   -4691.4371    -4179.419   -4691.4371            0    4557.6543    20.027871    19.999349    20.960316    8395.5368    4158.4734    5513.3076    4001.1819    343.27238    1342.7466    775.93225   -3621.3785 
  874000    253.34875   -4658.5333   -4169.9289   -4658.5333            0    2833.6855    19.975634    20.172565    20.999494    8461.9514    3341.6887    2013.5342    3145.8337    119.17275    472.96366    817.28212   -3820.2269 
  875000     273.3274   -4677.9677   -4150.8328   -4677.9677            0    3633.3559    19.966959    20.155336     21.05053    8471.5913    4794.3298    3756.9218    2348.8161   -28.936013    1608.6539   -628.13583   -3701.9336 
  876000    254.40704   -4703.8375   -4213.1921   -4703.8375            0    3195.5548    20.080853    19.872918    21.073907    8409.8619    5072.8687     2776.415    1737.3806   -370.00187   -29.535355    708.67056   -3821.2598 
  877000    270.66773   -4698.7531   -4176.7477   -4698.7531            0    5626.2592    20.054216    19.839485    20.701648    8236.4676    4059.2871    7736.8459    5082.6445   -649.98278    940.68492   -171.88644    -3500.919 
  878000    266.39762   -4704.8492    -4191.079   -4704.8492            0    2606.0321    20.095488    20.023579     20.90878    8413.3504    2519.9899    2022.6458    3275.4606   -218.44962   -94.439886   -917.31756   -3871.3186 
  879000    271.00898   -4658.1441   -4135.4805   -4658.1441            0     2560.358    20.168182    19.991151    20.968208    8454.0706    2090.1821     2188.397    3402.4948    543.92796   -110.79951    34.286858   -3819.8039 
  880000    250.11839   -4703.8332   -4221.4588   -4703.8332            0    2770.9637    20.120849    20.334527     20.54457    8405.7688    2849.6884    2095.5665    3367.6362    68.818555   -520.70761     181.2023   -3881.7677 
  881000    246.82167   -4696.9363     -4220.92   -4696.9363            0    4054.8801    20.077794    20.112418    20.718649    8366.4596     3178.077     4676.646    4309.9173   -294.66021   -5.6497396    -333.6293   -3726.1588 
  882000    266.24236    -4642.113   -4128.6422    -4642.113            0    5447.1029    19.686419    20.063444     20.95767    8277.8051    5339.5728    5695.6071    5306.1289    203.60887   -899.23388   -451.72287     -3471.05 
  883000    267.92425   -4651.5295    -4134.815   -4651.5295            0    3269.9054    19.959947    20.118238    20.998085    8431.9694    3452.2043    3194.3002    3163.2117    793.11195   -685.47225    276.96012   -3732.7094 
  884000    248.67695   -4669.7207   -4190.1263   -4669.7207            0     5537.319    19.722191     20.04776    20.957732    8286.3887    6727.2161     4400.488    5484.2528    322.27818    276.70132    1146.1763   -3520.9497 
  885000     277.6408   -4716.4977   -4181.0441   -4716.4977            0    4703.4567      20.1111    19.996867    20.692818    8321.8028    5403.8984    3673.6365    5032.8352   -607.40745   -642.46977    10.933407   -3610.2093 
  886000    261.72232   -4675.4315    -4170.678   -4675.4315            0    3768.9494    20.003614    20.168362    20.968842    8459.6729    4406.1143    3586.7787    3313.9552    110.15863    7.2394662    711.60207   -3705.6814 
  887000    259.67688    -4701.901   -4201.0923    -4701.901            0    3304.1669    20.010945    20.072523      20.9114    8399.4856    2829.5069     3408.784    3674.2099   -176.49003   -102.04857   -464.22544   -3796.3389 
  888000    256.91908   -4683.8924   -4188.4024   -4683.8924            0    4119.7855    20.044836    20.053922    20.976387    8432.0371    4645.4043    4520.2935    3193.6587   -1069.7593   -786.47556   -1142.1378   -3681.7816 
  889000    244.93933   -4693.8304   -4221.4443   -4693.8304            0    4610.0249    20.117145    20.003634    20.774637    8360.0466    5452.4315    4687.8421    3689.8011    367.29991    104.98677   -1062.0341   -3659.3776 
  890000    267.50726   -4683.0048   -4167.0946   -4683.0048            0    3507.6413    20.110004    20.240358    20.589595    8380.6586    2243.9446    3020.2771    5258.7023   -669.49742   -183.29147   -1045.0104    -3738.379 
  891000    260.58975   -4687.0131   -4184.4439   -4687.0131            0    4324.6894    20.058813    20.023345    20.959285    8418.1824    5364.4393    4064.4593    3545.1694   -631.68745   -869.64253    87.120453   -3653.4994 
  892000    262.04183   -4685.0642   -4179.6945   -4685.0642            0    3398.0575    19.917826    20.187127    20.949902    8423.6138    5046.7329    3127.5858    2019.8538   -181.19969    734.59479    599.46498   -3762.2439 
  893000    260.72014   -4687.6061   -4184.7854   -4687.6061            0    4096.0588    20.056863    20.156347    20.613192    8333.3591    3639.8058    5131.2572    3517.1135   -239.99204   -182.73179   -103.96294    -3686.977 
  894000    261.53458   -4682.7668   -4178.3754   -4682.7668            0    4354.9004    20.200778    20.114396    20.700275    8411.0691    4845.3576    3052.8469    5166.4968   -72.654996    144.16943    2067.6951   -3644.1736 
  895000    255.40868   -4676.0538   -4183.4767   -4676.0538            0    4165.9378    20.101134    19.983073    20.951686     8415.924    4138.3347    4135.4982    4223.9805   -567.43256    176.42617    893.11091   -3672.1594 
  896000    250.73058   -4685.7997   -4202.2447   -4685.7997            0    2920.3795    19.978213    20.159471    20.891336    8413.9896     3502.808    2532.9014     2725.429   -108.69663    113.45263   -543.92287   -3843.8866 
  897000    249.79823   -4683.6253   -4201.8684   -4683.6253            0    3743.0598    20.313347    19.770711    20.785964     8347.837    4053.9767    3634.5858    3540.6169   -24.916081     1583.762   -50.827949    -3746.171 
  898000     254.5926   -4685.2276   -4194.2243   -4685.2276            0    4640.8734    20.072944    19.959429     20.82671     8344.107    6549.7926    3725.8154    3647.0122    370.58219    1337.2256   -881.67883   -3629.4753 
  899000    265.71812    -4675.759   -4163.2993    -4675.759            0    3346.9882    20.169192    19.959245    20.917604    8420.6289    2027.0842    4574.6462    3439.2342    71.261219    90.593463    289.14689   -3752.2683 
  900000    260.72906   -4685.8156   -4182.9777   -4685.8156            0    4814.3236    20.081907       20.003    20.768309     8342.596    5891.5647    4521.1833    4030.2227   -676.38045    842.63637   -79.231635   -3597.2276 
  901000    256.80943   -4642.4555   -4147.1769   -4642.4555            0    2990.3861    20.033073    20.083952    21.174788    8519.5334    3384.2115    3795.2925    1791.6543   -266.54193    995.60572    897.93538   -3775.6255 
  902000    282.19594   -4701.1315   -4156.8929   -4701.1315            0    3709.8841    20.132966    20.004297    20.740663    8353.2154    4513.0146    2896.0621    3720.5756    295.49984   -642.12806    481.33869   -3704.9434 
  903000    258.78768   -4683.2081   -4184.1143   -4683.2081            0    3265.8905    20.214089    20.147778    20.631724    8402.6614    3290.2062    2590.3873    3917.0779   -455.12105    1305.3044    -865.0704   -3783.8984 
  904000    264.37181   -4684.6533     -4174.79   -4684.6533            0     4428.362    20.216005    20.071772    20.561364     8343.206    2718.5968    5850.1061    4716.3831   -389.06847   -597.04177    1119.3722   -3635.9598 
  905000    273.22728   -4711.1865   -4184.2447   -4711.1865            0    4625.7747    19.908031    20.006893    20.782103    8277.4665    4986.5502    3308.5038      5582.27    -485.3361    989.96868    1318.7995   -3625.8288 
  906000    254.21793   -4689.7236    -4199.443   -4689.7236            0      3823.08    19.998784    20.080756     20.97381    8422.8876    3959.6338    4137.0462      3372.56    848.77991    984.71097    1515.2938    -3729.819 
  907000    268.23501   -4684.5474   -4167.2337   -4684.5474            0    4049.6566     20.26199    19.933289     20.76771    8387.8309    3909.4017    4027.9064    4211.6616    7.8961452    1130.7815    465.65228   -3671.8476 
  908000    255.74991    -4705.017   -4211.7818    -4705.017            0    4711.4888     20.02041    20.066628    20.758621    8339.6122    4825.9606     4338.048    4970.4579   -826.44974    2139.1104    952.38598   -3638.7484 
  909000    253.54804   -4692.3795   -4203.3908   -4692.3795            0    4509.9371    20.174439     19.95704    20.897523    8413.8043     4409.676    4071.9268    5048.2085    453.90016    359.81783   -143.50048   -3649.9913 
  910000    271.35508    -4700.062   -4176.7309    -4700.062            0    3183.1142    20.064573    20.040749    21.051229      8464.89    3169.6293    2605.8688    3773.8444    490.93689    -367.1379   -752.64568     -3783.77 
  911000    260.82451   -4701.0856   -4198.0635   -4701.0856            0    3612.3372    19.923756    20.029091    20.882293    8333.1776    3309.5852    4346.9994     3180.427     334.5595   -594.13577   -1192.9727   -3759.0532 
  912000    270.19193   -4700.8428    -4179.755   -4700.8428            0    3015.4431    20.157745    20.149183    20.795431    8446.3158    3035.8618     3308.704    2701.7636   -224.09712    -2242.281    465.20761   -3808.3101 
  913000    273.83391   -4696.3297    -4168.218   -4696.3297            0    3663.0667    19.979314    19.971282    21.012308    8384.1733    4388.9667    3872.7035    2727.5299    354.89862    563.64222    236.89092   -3720.3181 
  914000    267.20558   -4702.1426   -4186.8142   -4702.1426            0    4941.6684     20.14072    19.886226    20.867512    8357.9163    4294.7629     5403.942    5126.3004    460.56697   -1079.4576   -597.41266   -3584.4661 
  915000    270.86563   -4706.3133   -4183.9262   -4706.3133            0     5127.992    20.204531    19.979341    20.630479    8327.9721    4326.9382    5440.8631    5616.1747   -234.82142    733.40874   -581.53367   -3561.1062 
  916000    272.99433   -4688.7285    -4162.236   -4688.7285            0    3142.6537    20.103767    20.039566    20.851799    8400.5805    2513.6647    4639.8141    2274.4824   -141.88977    999.50018      415.277   -3777.2174 
  917000    263.62367   -4684.4766   -4176.0562   -4684.4766            0    3883.2591     19.82976    19.988361    21.159388    8386.8282    4948.7868    3666.6667    3034.3239    916.99285    845.78368    1788.2874    -3701.082 
  918000    269.70211   -4663.0504   -4142.9072   -4663.0504            0    3806.1466    20.245695    19.702937    21.110241    8420.8676    3599.6413    5120.7083    2698.0902   -10.943556    522.60638    70.445775   -3675.4754 
  919000    278.18468   -4691.2991   -4154.7966   -4691.2991            0     4755.397    20.196774    20.001422    20.743986    8379.8275    5229.5039    4498.5742    4538.1128    157.84114   -1149.5971    282.69663   -3573.6338 
  920000     264.5484   -4671.9019    -4161.698   -4671.9019            0    3275.2637    20.269407    20.354925    20.504241     8459.686    1550.7188    3324.5874    4950.4848   -78.286778   -488.34342    -1121.503   -3757.6096 
  921000     263.0289   -4674.0564   -4166.7831   -4674.0564            0    2431.4464    20.065745    20.070144    20.963428    8442.4415    1497.6848    4018.4454     1778.209   -432.88675    1.5048803    1215.7341   -3867.4128 
  922000    256.14324    -4693.366   -4199.3722    -4693.366            0    2805.8861    20.203233    20.026954    20.918606    8463.8607    1239.5605     3446.613    3731.4849    264.45327    1241.7489    580.70527   -3853.0228 
  923000    264.76193   -4717.6224   -4207.0068   -4717.6224            0    2949.8186    20.151454     20.17079    20.778249    8445.7505    1105.9911    4043.1566    3700.3082    641.54046    829.10438    83.693691   -3843.6699 
  924000    264.44365   -4690.2345   -4180.2326   -4690.2345            0    3234.7462    20.223943    19.935837    20.634612    8319.4882    3418.0125    2279.6822    4006.5438    490.09539    122.13414   -693.41292    -3787.757 
  925000    255.00965   -4682.5549   -4190.7473   -4682.5549            0    1969.9805    20.171415    19.826884    21.070426    8426.8286    959.48647    3119.8558    1830.5991    513.94702     1069.637   -1586.8265   -3948.6433 
  926000    257.39314   -4703.0518   -4206.6475   -4703.0518            0    4224.5991     20.00289    19.885988    21.241952     8449.565    4849.5187    3741.8356     4082.443   -617.20029    -95.37176    1355.9476   -3686.0575 
  927000     248.8001   -4663.4576   -4183.6257   -4663.4576            0    4139.3516    20.040806    20.138428    20.710314    8358.4824    4695.1089    3813.5067    3909.4393   -361.68206   -851.91603   -1417.1257   -3679.0391 
  928000    263.19713   -4679.6133   -4172.0155   -4679.6133            0    3160.8423    20.086331    20.133421    20.629774    8342.8159    3714.1536    2357.2271    3411.1462    440.16219   -179.76457   -751.87682   -3787.4314 
  929000    264.75473   -4660.1603   -4149.5585   -4660.1603            0    2593.6965    20.306394    19.875412    20.964231    8461.1207    1654.0981    3522.5411    2604.4504   -182.78396    -1597.166   -57.478179   -3829.5048 
  930000    264.95563   -4667.8468   -4156.8576   -4667.8468            0    4945.8163    20.102766    20.264735    20.573808    8381.3007     5260.582    2228.2042    7348.6626   -191.09454    -335.7607   -673.09774   -3552.3173 
  931000    262.82442   -4699.3969   -4192.5179   -4699.3969            0    4048.2542    20.166745    19.933092    20.885086    8395.5035    3111.3724    5659.4528    3373.9375    36.142963    533.30076   -1482.5067   -3696.8504 
  932000    253.52256   -4658.9345   -4169.9949   -4658.9345            0    2965.0301    19.783161    20.384195    20.857621    8411.1239    4874.1276    1197.0645    2823.8982    588.45305    846.93971    295.12371   -3806.2818 
  933000    253.33361   -4692.5007   -4203.9256   -4692.5007            0     2661.513    20.282644    19.966774    20.799418    8423.3264    2605.6939    1663.1907    3715.6543   -1144.7509    502.10024    393.46189   -3876.9705 
  934000    254.83424   -4700.3729   -4208.9037   -4700.3729            0    4011.9575    19.977454    20.093999    20.796874    8348.4257    4950.7598    4559.7262    2525.3866    95.762431   -767.49426    410.22702   -3720.4349 
  935000    270.18429   -4676.7391    -4155.666   -4676.7391            0     4448.834    20.132509    20.139153    20.738915    8408.6281    3617.4331    5647.9133    4081.1557    647.69217     537.1221   -1313.4767   -3610.1001 
  936000    271.87081   -4676.7906   -4152.4649   -4676.7906            0    3633.4084     20.00685    20.162347    20.837158    8405.3976    4376.6598    3498.6434    3024.9221    617.60345    219.42224   -293.57651   -3707.0668 
  937000    263.98111   -4702.4826   -4193.3728   -4702.4826            0    3367.4075    20.174613     20.04005    20.789614    8405.2463    3615.5287    2995.2686    3491.4252   -532.41658   -996.58484   -752.73346   -3780.5896 
  938000    267.09252   -4675.9302   -4160.8198   -4675.9302            0    4301.3344    19.976502    20.332727    20.588552    8362.5911    4073.4493    3330.3037    5500.2503   -738.32123     709.2121   -621.98941   -3636.2298 
  939000    259.70804   -4714.2138   -4213.3451   -4714.2138            0    3782.7683    20.164199     19.82607    20.959449    8379.1023      3587.61     4450.559    3310.1359   -429.03016   -355.17184    2106.9137   -3751.0884 
  940000    276.08498    -4674.984   -4142.5309    -4674.984            0    4265.4533    20.053519    20.032387    20.926818    8406.7187    2629.1259    6278.7097    3888.5242    79.492926    619.11901     348.0436   -3619.5719 
  941000    255.20572   -4658.7863   -4166.6006   -4658.7863            0    5598.4709    19.882651    20.150764    20.693471    8290.8519    6054.2895    5185.7716    5555.3516   -279.98358   -75.449499    974.53169   -3489.6695 
  942000    265.75031   -4679.2641   -4166.7423   -4679.2641            0    5062.3203    20.100855    20.017836    20.672519    8318.1177    5566.0984    4790.3416    4830.5208    26.958743    1408.8302   -1829.6136   -3552.6261 
  943000    260.74442   -4669.9254   -4167.0579   -4669.9254            0    3196.9288    20.011932    19.984762    20.940943    8374.9884    3518.6477    4332.0234    1740.1153    486.43314   -134.32422    1357.5612    -3776.583 
  944000    256.14456   -4650.5997   -4156.6034   -4650.5997            0    4878.5608    20.199454    19.818446    20.890391    8362.8788    6278.9272    3048.1882    5308.5669   -815.17018   -237.50253   -240.09404   -3561.5946 
  945000    269.37412   -4693.1349   -4173.6243   -4693.1349            0    5148.3659    20.010961    20.105627    20.663873    8313.7563      5898.21    4023.6146    5523.2731   -518.07889    550.90219    1079.0107   -3549.3972 
  946000    261.23661   -4692.2819   -4188.4651   -4692.2819            0    2841.4955    20.297416    19.984162    20.842425    8454.2473    994.75621    3302.6992    4227.0312    6.8738649    479.53492    1270.8406   -3838.1186 
  947000    256.58303   -4670.7204   -4175.8784   -4670.7204            0    3312.0665    20.011063    20.129514    20.752384    8359.3293    5335.2598    1294.7664    3306.1733    14.126664    -505.6869   -197.34676    -3772.097 
  948000    268.09809   -4677.6546   -4160.6049   -4677.6546            0     4233.228    20.113073    19.653354    21.060712    8325.0747    3688.2615    5260.5479    3750.8746    319.85359   -558.99624    926.02122   -3646.6374 
  949000    270.89671   -4669.7599   -4147.3128   -4669.7599            0    3875.3367    20.018627    19.899566    20.912795    8330.8631    2760.2835    5814.9552    3050.7714   -283.40224   -808.48429    1562.1605   -3676.4707 
  950000     257.5873   -4688.2438    -4191.465   -4688.2438            0    3394.4328     20.02255    20.154542     20.94353    8451.6634    3163.1547    3788.4885    3231.6551   -164.24703    691.91405   -493.21507   -3773.0711 
  951000    258.38125   -4678.5105   -4180.2005   -4678.5105            0    2657.4675      20.2747    20.127101    20.413432    8330.1279    1161.0361    3089.5013     3721.865   -135.12163   -286.09858    478.68988   -3857.3544 
  952000    277.54187   -4706.9931   -4171.7302   -4706.9931            0     3921.779     20.03128    20.135462    20.764253    8375.0345    3759.7435    3456.3826    4549.2108   -351.06345   -212.66979    738.79524   -3692.7191 
  953000    250.68271   -4696.8581   -4213.3954   -4696.8581            0    4399.6634    20.037651    20.042739    20.947979    8412.9052    4666.4181    3724.4503    4808.1218    1296.8876    -273.4798    942.57778   -3673.5849 
  954000    253.17729   -4688.0388   -4199.7652   -4688.0388            0     4353.806    19.944694    19.877936     21.01934     8333.314     4892.229    6222.9671    1946.2218    379.47071    75.853721    952.83759   -3670.6348 
  955000    260.22897   -4715.6817   -4213.8083   -4715.6817            0    3679.3868    19.989605    20.110635    20.749523    8341.3839    3787.0198      3090.46    4160.6807   -698.53167    -675.7402    1538.4037   -3766.2089 
  956000    248.86134   -4683.5321   -4203.5821   -4683.5321            0    4710.7379    20.198702    20.044172    20.542983    8317.1605    3555.6906    4148.4954    6428.0277     841.0251   -771.54852   -1165.6371   -3632.1825 
  957000    269.46255   -4695.1556   -4175.4744   -4695.1556            0    3849.6618     20.15864    19.982902    20.850142    8399.0238    2730.4146    5292.5317    3526.0393    185.35276    1043.7499    1223.4795   -3703.9249 
  958000    258.20059   -4655.6431   -4157.6815   -4655.6431            0    4735.4997    19.933292    19.958753    20.997239    8353.6183    4575.1593    5589.8912    4041.4487    -730.6176    359.63466    424.72916   -3580.7605 
  959000    258.75257   -4682.0327   -4183.0066   -4682.0327            0    3724.7648    20.179652    20.052075    20.690405    8372.2461     4077.869    3598.2268    3498.1985    124.55849   -40.277737   -318.62392   -3728.2105 
  960000    263.99073   -4651.5444   -4142.4161   -4651.5444            0    5097.7309    20.141211    20.130985    20.529508    8323.9439     6766.148     3152.215    5374.8297     18.43955     -4.92822    122.28852    -3523.571 
  961000    271.66601   -4702.0641   -4178.1333   -4702.0641            0    4945.9879    20.036907    20.047166    20.855598    8377.3431    2172.8491    6922.4093    5742.7052    409.59395   -292.01231   -357.08936   -3573.8575 
  962000    252.65443   -4657.6506   -4170.3852   -4657.6506            0    4581.3604    20.021199    19.993948     20.91762    8373.3819    4816.8951    6508.5046    2418.6816   -116.58573   -1159.6798   -164.52485   -3610.9224 
  963000     272.3339   -4683.4748    -4158.256   -4683.4748            0    4213.1066    20.127755    19.945289    20.855283    8372.4347    3314.3646    4016.0859    5308.8692    393.80402   -648.30742     762.5113   -3643.8215 
  964000     260.0862   -4670.3223   -4168.7242   -4670.3223            0    3852.8947    19.985792     20.14863    20.939263    8431.9546    4617.7216    2993.6218    3947.3408   -526.75174    870.32093    63.849147   -3694.9283 
  965000    243.34798   -4698.8226   -4229.5056   -4698.8226            0    5217.9276     19.99077    19.984509    20.706239     8272.261    6157.7182    4500.1578    4995.9068     462.2607    1335.8569    883.08978   -3600.0021 
  966000    250.20054   -4677.5234   -4194.9906   -4677.5234            0    3051.8794    20.209201    20.067822    20.723177    8404.3807    2496.6259    2554.9782    4104.0342    -116.8659   -675.55399   -118.63111    -3820.924 
  967000    255.25347   -4701.4717   -4209.1939   -4701.4717            0    4238.7984    19.932009    20.077935    20.653359    8265.3418    6493.2703    2319.2405    3903.8845   -91.678282   -270.81576   -516.64577   -3698.2426 
  968000    275.40896   -4689.4241   -4158.2748   -4689.4241            0    5433.5462    19.898678     20.09105    20.929408    8367.2707    6126.3013    5836.5371    4337.8001   -358.61676   -243.59085    -1564.068   -3495.2297 
  969000    264.08221   -4684.8765   -4175.5718   -4684.8765            0    1694.1245     20.00218    20.004018    21.250104     8502.676    1713.5689    2096.5234    1272.2811   -576.83451   -291.19002    778.61005   -3965.4956 
  970000    262.29959    -4713.522   -4207.6552    -4713.522            0    4862.9438    19.986956    20.020532    20.801149    8323.5695    3817.2698    5750.5776    5020.9841    371.09441     41.04679   -883.44207   -3617.3389 
  971000    262.72046   -4692.5139   -4185.8354   -4692.5139            0    3256.0326    20.130046    20.059959    20.797845    8398.3338    4062.1706    2174.5834    3531.3437    23.216458   -500.32407   -517.72983    -3787.033 
  972000    261.69303   -4699.2015   -4194.5045   -4699.2015            0    4863.7064    20.033532    20.168019    20.467394    8269.5774    5957.7924    4554.9508     4078.376    245.72337   -652.13848    680.34429   -3607.9255 
  973000    262.45517   -4698.2092   -4192.0424   -4698.2092            0    4536.1855    19.976626    20.102934    20.739288    8328.6656    5427.7603    4245.8555    3934.9407   -150.15901    485.85663    151.05584   -3641.0544 
  974000     267.5252   -4690.1906   -4174.2458   -4690.1906            0    5771.4387    19.871532    19.940672    21.010696    8325.5237    6318.5161    6177.6321     4818.168   -140.77828    1449.0493    86.196772   -3473.4822 
  975000    267.41512   -4712.7929   -4197.0604   -4712.7929            0    4620.4006     20.08842    19.907977    20.848249    8337.6277    4395.5599      4737.14     4728.502    -351.1732    634.66447    213.03641   -3635.2393 
  976000    264.91507   -4697.9956   -4187.0846   -4697.9956            0    1634.4323    20.210212     19.97655    21.129503    8530.6206    1099.6873    3127.5048    676.10498   -212.04563    458.39552   -414.43663   -3983.7443 
  977000    279.22967   -4651.9669    -4113.449   -4651.9669            0    4068.1791    20.248475    20.043219    20.758685     8424.801    3224.5086       3748.8    5231.2288   -225.05109   -451.04114   -187.24467   -3613.6037 
  978000     275.0588   -4677.6542   -4147.1802   -4677.6542            0    4730.6539    20.027146    20.125707    20.771121    8372.0177    5159.5178    4477.0534    4555.3906   -228.92326    594.59459    824.51923   -3569.5802 
  979000    266.82389   -4681.3155   -4166.7232   -4681.3155            0    3028.9233    20.172706    19.871547    20.932896    8391.2208    1838.3642    4741.4877    2506.9181   -45.895983    448.85963    98.855523   -3796.0516 
  980000    276.71188   -4675.5268   -4141.8646   -4675.5268            0    2653.5708    20.005083    20.038416    20.943001    8395.4242    4795.0492    762.63114    2403.0321    74.030665    927.25832    391.49236    -3816.965 
  981000     272.0003   -4685.8774   -4161.3019   -4685.8774            0    3009.4063    20.224714    20.122209    20.783691    8458.2541    5040.6464    1028.5547    2959.0178   -2.2394398    240.93035    699.41733   -3790.0768 
  982000    260.70567     -4670.67   -4167.8771     -4670.67            0    6247.8232    20.167052    19.955147    20.667945    8317.5355    3570.1373    9901.1106    5272.2215    641.07059    1435.9103    66.586183   -3409.9992 
  983000    265.60781    -4700.105   -4187.8579    -4700.105            0     5670.808    19.775772    20.085456    20.912491    8306.5542    6368.1542    5709.9768    4934.2929    545.07197    1867.4074    1400.8662   -3500.8817 
  984000    269.59594   -4678.7719   -4158.8335   -4678.7719            0    4286.7775     20.12975    19.940479    21.017422    8436.3269    5304.4363    4007.9462    3547.9501    -207.8334   -142.85662    1227.4707    -3631.409 
  985000    246.02591   -4677.6193   -4203.1376   -4677.6193            0      3992.85    20.023237    20.205345    20.782075    8407.9373    4275.6118    3869.8978    3833.0403   -510.28357    1741.9042    42.330613   -3713.5298 
  986000    255.27775   -4700.4177   -4208.0931   -4700.4177            0    2034.5282    20.129442    20.110618    20.979191    8492.7022    1663.1863    2857.8006    1582.5976   -193.98035   -124.09964   -502.44682   -3956.1018 
  987000    250.16713   -4663.0466   -4180.5782   -4663.0466            0    5340.9886    20.223831    19.817165    20.916235    8382.7874    4413.5522    7445.2332    4164.1803    649.84462   -153.01886    1204.5836   -3527.6191 
  988000    271.42226   -4688.1842   -4164.7236   -4688.1842            0    4240.4847    19.885647    20.140764    20.834491    8344.4661     4994.748    3051.2581    4675.4481    236.96194    832.88092   -1227.3109   -3648.6758 
  989000    254.65065   -4673.8527   -4182.7375   -4673.8527            0    2604.1106    20.248782     20.05114    20.823704    8454.6563    1475.0331    3288.7024    3048.5965   -84.362113   -265.92598   -254.72323   -3861.6441 
  990000    251.28955   -4643.7796   -4159.1465   -4643.7796            0    4549.0389    20.104745    20.279705    20.624813    8409.1138     3545.301    4847.9311    5253.8845    340.55124    167.57821    293.22368   -3601.2601 
  991000    251.72309   -4688.6301   -4203.1609   -4688.6301            0     5467.822    20.052137    19.794176     20.98663    8329.9191    4463.4742    6986.1958    4953.7961    91.244999     1036.478    485.28633   -3538.9117 
  992000    268.84318   -4693.6619   -4175.1753   -4693.6619            0    5337.1618    19.960632     19.83032    20.949193    8292.2292    6313.1952     6574.811    3123.4792   -348.29835     120.6533   -1343.9594   -3529.7328 
  993000    270.17851   -4664.4031   -4143.3411   -4664.4031            0    3390.6957    20.100925    20.233452    20.700275    8419.0316    2807.7547    4629.8298    2734.5026    314.83531     617.9772    928.09046   -3727.0215 
  994000    266.27504   -4665.9812   -4152.4473   -4665.9812            0    4867.8793    20.142929    20.210455    20.554387     8367.645    2692.3419    6554.8417    5356.4543   -416.25994   -249.05499    807.93568   -3558.4029 
  995000    287.79304   -4692.5584   -4137.5253   -4692.5584            0    3729.5692    20.006661    19.975259    20.908489    8355.8317    3977.1633    4624.6439    2586.9004   -448.07298   -168.12069    667.50415   -3683.0354 
  996000    273.52375   -4679.3082   -4151.7946   -4679.3082            0    4212.7687    20.127698    19.790204    21.036152    8379.3568    2121.4706    6376.5784    4140.2572    -217.2497   -806.87911    291.86677   -3636.9761 
  997000    258.32541    -4684.071   -4185.8688    -4684.071            0    4167.6607     20.19333    20.011619     20.80757    8408.3642    2997.5061    4443.3358    5062.1403     632.6358   -549.57743   -735.76951   -3674.7995 
  998000    267.28788   -4672.9835   -4157.4963   -4672.9835            0    4932.9666    20.036607    20.374393    20.591532    8406.1574    2408.5924    4796.2411    7594.0663    188.75007    2531.6612    1383.4782   -3552.7384 
  999000    259.51877        -4703   -4202.4962        -4703            0    3689.0867    20.053476    20.015253    20.915998    8395.1669    4967.2734    4003.3184    2096.6682   -279.64137    193.84806    1342.9388   -3750.8233 
 1000000    273.55129   -4656.9713   -4129.4046   -4656.9713            0    4330.6922    19.985197    19.883833    21.048754    8364.4027    3984.7471    5094.3092    3913.0202   -1069.2898    1188.7286    -259.8552   -3601.1198 
Loop time of 556.353 on 64 procs for 250000 steps with 972 atoms

Performance: 77.648 ns/day, 0.309 hours/ns, 449.355 timesteps/s
99.1% CPU use with 64 MPI tasks x 1 OpenMP threads

MPI task timing breakdown:
Section |  min time  |  avg time  |  max time  |%varavg| %total
---------------------------------------------------------------
Pair    | 20.182     | 27.492     | 35.575     |  76.5 |  4.94
Bond    | 0.25979    | 0.27525    | 0.29216    |   1.3 |  0.05
Kspace  | 228.71     | 244.63     | 262.65     |  46.8 | 43.97
Neigh   | 3.3298     | 4.0836     | 4.8172     |  22.8 |  0.73
Comm    | 119.39     | 132.81     | 149.85     |  60.9 | 23.87
Output  | 1.2858     | 1.2866     | 1.2915     |   0.1 |  0.23
Modify  | 133.4      | 138.17     | 144.14     |  22.9 | 24.83
Other   |            | 7.605      |            |       |  1.37

Nlocal:        15.1875 ave          19 max          11 min
Histogram: 3 3 9 12 0 5 13 8 10 1
Nghost:        2221.94 ave        2246 max        2188 min
Histogram: 1 2 3 5 11 12 11 6 8 5
Neighs:        4704.28 ave        6845 max        3072 min
Histogram: 3 5 9 13 9 9 12 1 2 1

Total # of neighbors = 301074
Ave neighs/atom = 309.74691
Ave special neighs/atom = 2.0000000
Neighbor list builds = 8390
Dangerous builds = 0

unfix		3
unfix		2
unfix		1

write_data	data.final.${pid}
write_data	data.final.0
System init for write_data ...
PPPM initialization ...
  extracting TIP4P info from pair style
  using 12-bit tables for long-range coulomb (../kspace.cpp:340)
  G vector (1/distance) = 0.3722594
  grid = 24 24 25
  stencil order = 5
  estimated absolute RMS force accuracy = 0.0034250421
  estimated relative force accuracy = 1.0314413e-05
  using double precision FFTW3
  3d grid and FFT values/proc = 2366 288
Last active /omp style is kspace_style pppm/tip4p/omp
WARNING: Not all mixed pair coeffs generated from mixing. Use write_data with 'pair ij' option to store all pair coeffs. (../write_data.cpp:312)

write_restart   restart.lmp.${pid}
write_restart   restart.lmp.0
System init for write_restart ...
PPPM initialization ...
  extracting TIP4P info from pair style
  using 12-bit tables for long-range coulomb (../kspace.cpp:340)
  G vector (1/distance) = 0.3722594
  grid = 24 24 25
  stencil order = 5
  estimated absolute RMS force accuracy = 0.0034250421
  estimated relative force accuracy = 1.0314413e-05
  using double precision FFTW3
  3d grid and FFT values/proc = 2366 288
Last active /omp style is kspace_style pppm/tip4p/omp
Total wall time: 0:09:17
