LAMMPS (30 Jul 2021)
  using 1 OpenMP thread(s) per MPI task
package omp 0
using multi-threaded neighbor list subroutines
echo both

include		in.partitions
variable        pid world 0
include		in.temp
variable        temperature equal 212.48
variable	tempDamp equal 100.0
include		in.pressure
variable        pressure equal -500.0
variable        pressureDamp equal 1000.0 # This is 1 ps
include		in.seed
variable        seed world 745823

units		real
atom_style	full
read_restart	restart.lmp.${pid}
read_restart	restart.lmp.0
Reading restart file ...
  restart file = 30 Jul 2021, LAMMPS = 30 Jul 2021
  restoring atom style full from restart
  orthogonal box = (-0.22363109 0.82812338 -0.27282941) to (18.431203 22.801054 22.486025)
  4 by 4 by 4 MPI processor grid
  restoring pair style lj/cut/tip4p/long/omp from restart
  restoring bond style harmonic/omp from restart
  restoring angle style harmonic/omp from restart
  864 atoms
  576 bonds
  288 angles
Finding 1-2 1-3 1-4 neighbors ...
  special bond factors lj:    0        0        0       
  special bond factors coul:  0        0        0       
     2 = max # of 1-2 neighbors
     1 = max # of 1-3 neighbors
     1 = max # of 1-4 neighbors
     2 = max # of special neighbors
  special bonds CPU = 1.410 seconds
  read_restart CPU = 1.814 seconds
include 	in.setup
variable	out_freq equal 1000
variable	out_freq2 equal 10000
variable	out_freq3 equal 1000

timestep	2.0

neigh_modify    delay 7 every 1

include		in.tip4p
# This is TIP4P/Ice

# create groups ###
group ox type 2
288 atoms in group ox
group hy type 1
576 atoms in group hy

# set charges - beside manually ###
set group ox charge -1.1794
Setting atom values ...
  288 settings made for charge
set group hy charge 0.5897
Setting atom values ...
  576 settings made for charge

# ### TIP3P Potential Parameters ###
pair_style lj/cut/tip4p/long/omp 2 1 1 1 0.1577 8.5
pair_coeff 1 1*2 0.000 0.000
pair_coeff 2 2 0.21084 3.1668
bond_style  harmonic
bond_coeff  1 450 0.9572
angle_style harmonic
angle_coeff 1 55 104.52
kspace_style pppm/tip4p/omp 1.0e-5
pair_modify tail yes

thermo          ${out_freq}
thermo          1000
thermo_style    custom step temp pe etotal epair emol press lx ly lz vol pxx pyy pzz pxy pxz pyz enthalpy

restart 	${out_freq3} restart.lmp.${pid} restart2.lmp.${pid}
restart 	1000 restart.lmp.${pid} restart2.lmp.${pid}
restart 	1000 restart.lmp.0 restart2.lmp.${pid}
restart 	1000 restart.lmp.0 restart2.lmp.0


include         in.dump
dump            myDump all atom ${out_freq2} dump.water.${pid}
dump            myDump all atom 10000 dump.water.${pid}
dump            myDump all atom 10000 dump.water.0
dump            myDump2 all dcd ${out_freq2} dump.dcd
dump            myDump2 all dcd 10000 dump.dcd
dump_modify     myDump append yes
dump_modify     myDump2 append yes


variable natoms 	equal  "count(all)"                        # NUMBER ATOMS
variable H      	equal  "enthalpy/v_natoms"                 # ENTHALPY-per-atom
variable Vol      	equal  "vol/v_natoms"                 # volume-per-atom
fix AVG all 		ave/time ${out_freq} 1 ${out_freq} v_Vol v_H file vol_enthalpy.dat
fix AVG all 		ave/time 1000 1 ${out_freq} v_Vol v_H file vol_enthalpy.dat
fix AVG all 		ave/time 1000 1 1000 v_Vol v_H file vol_enthalpy.dat


timer           timeout 23:50:00 every 1000
New timer settings: style=normal  mode=nosync  timeout=23:50:00

fix 		1 all shake 1e-6 200 0 b 1 a 1
       0 = # of size 2 clusters
       0 = # of size 3 clusters
       0 = # of size 4 clusters
     288 = # of frozen angles
  find clusters CPU = 0.200 seconds
fix             2 all nph iso ${pressure} ${pressure} ${pressureDamp}
fix             2 all nph iso -500 ${pressure} ${pressureDamp}
fix             2 all nph iso -500 -500 ${pressureDamp}
fix             2 all nph iso -500 -500 1000
fix             3 all temp/csvr ${temperature} ${temperature} ${tempDamp} ${seed}
fix             3 all temp/csvr 212.48 ${temperature} ${tempDamp} ${seed}
fix             3 all temp/csvr 212.48 212.48 ${tempDamp} ${seed}
fix             3 all temp/csvr 212.48 212.48 100 ${seed}
fix             3 all temp/csvr 212.48 212.48 100 745823

run             250000
PPPM initialization ...
  extracting TIP4P info from pair style
  using 12-bit tables for long-range coulomb (../kspace.cpp:340)
  G vector (1/distance) = 0.37190516
  grid = 24 25 27
  stencil order = 5
  estimated absolute RMS force accuracy = 0.0031151307
  estimated relative force accuracy = 9.3811236e-06
  using double precision FFTW3
  3d grid and FFT values/proc = 2730 384
Last active /omp style is kspace_style pppm/tip4p/omp
Neighbor list info ...
  update every 1 steps, delay 7 steps, check yes
  max neighbors/atom: 2000, page size: 100000
  master list distance cutoff = 10.8154
  ghost atom cutoff = 10.8154
  binsize = 5.4077, bins = 4 5 5
  1 neighbor lists, perpetual/occasional/extra = 1 0 0
  (1) pair lj/cut/tip4p/long/omp, perpetual
      attributes: half, newton on, omp
      pair build: half/bin/newton/omp
      stencil: half/bin/3d
      bin: standard
Per MPI rank memory allocation (min/avg/max) = 9.203 | 9.213 | 9.222 Mbytes
Step Temp PotEng TotEng E_pair E_mol Press Lx Ly Lz Volume Pxx Pyy Pzz Pxy Pxz Pyz Enthalpy 
18250000    216.43613    -4103.319   -3732.3548    -4103.319            0    140.95972    18.654835    21.972931    22.758855    9328.8862   -472.55778    645.10705    250.32988   -302.67525   -471.58587   -747.80497    -3713.177 
18251000    212.44294   -4116.7301   -3752.6102   -4116.7301            0    -1228.026    18.707132     22.03453    22.822657    9407.5642   -1204.7614   -177.05353   -2302.2631   -309.55236    -89.17961   -400.71767    -3921.095 
18252000    207.64659   -4109.8811   -3753.9819   -4109.8811            0    602.40733    18.616018     21.92721    22.711498    9270.7728   -65.561355    778.09067    1094.6927    278.92528   -178.10087   -453.87244   -3672.5336 
18253000    210.55047   -4119.6057   -3758.7294   -4119.6057            0    -1575.545    18.710378    22.038354    22.826618    9412.4633   -1551.8031   -585.91475   -2588.9172   -492.53131   -119.90122   -1025.1581   -3975.0063 
18254000    206.28692   -4146.2972   -3792.7285   -4146.2972            0   -1602.7873    18.666863    21.987099     22.77353     9346.944   -634.32195   -2173.3599   -2000.6801    967.29346   -599.71146    229.34509   -4011.2134 
18255000    194.78881   -4082.5203   -3748.6589   -4082.5203            0   -1353.3028    18.739168    22.072264    22.861741    9455.9786   -1856.1713   -945.68232   -1258.0547     203.3848   -444.96418   -1230.9668   -3935.2872 
18256000    209.93713   -4107.6961   -3747.8711   -4107.6961            0   -715.18729    18.650598     21.96794    22.753686    9322.5312   -1130.6636    108.81761   -1123.7159   -623.87848   -747.05423   -576.89209   -3845.1076 
18257000    216.28407   -4128.2886   -3757.5851   -4128.2886            0   -165.76782    18.661022    21.980219    22.766403    9338.1718   -470.88843   -700.97007    674.55505    283.43485   -585.53502   -483.32438   -3780.1606 
18258000    216.25485   -4115.3234     -3744.67   -4115.3234            0   -717.91857    18.671973    21.993117    22.779763    9354.6209   -2337.5316     876.7642   -692.98833    209.17846   -806.26496   -710.73036   -3842.6139 
18259000    208.18112   -4092.2559   -3735.4406   -4092.2559            0   -901.37764    18.722713    22.052883    22.841667    9431.0914   -897.61058   -406.07147   -1400.4509    789.89467   -1774.3382   -1189.9941   -3859.4186 
18260000    210.96211   -4109.2873   -3747.7054   -4109.2873            0   -1424.0374    18.730145    22.061636    22.850733    9442.3257   -2499.6638    110.32883   -1882.7773   -423.01345   -1114.9019    95.203755   -3943.8048 
18261000    216.19133   -4130.4918   -3759.9473   -4130.4918            0    -230.2536    18.650099    21.967353    22.753077    9321.7831   -869.12625    465.24216   -286.87671   -23.195505     157.4497   -876.73531   -3791.2499 
18262000    220.37754    -4096.377   -3718.6574    -4096.377            0   -1296.1031    18.675981    21.997839    22.784654    9360.6472   -1746.5782   -1025.9485   -1115.7825    886.46304   -55.890543   -637.99058   -3895.5955 
18263000    220.97448    -4112.421   -3733.6783    -4112.421            0   -294.00267    18.656148    21.974478    22.760457     9330.857   -1365.6649    226.59632     257.0606    642.68132   -89.735526   -874.19539   -3773.6864 
18264000    209.51178   -4134.8108   -3775.7148   -4134.8108            0    172.18677    18.626352    21.939382    22.724106    9286.2209   -1589.0971     616.5299    1489.1275   -823.01093   -978.46179   -1370.5454   -3752.3956 
18265000    206.66474   -4110.1215   -3755.9052   -4110.1215            0   -276.55388    18.612571     21.92315    22.707293    9265.6237   -282.31404   -58.130487   -489.21711    42.263148    -907.2143   -728.35985   -3793.2759 
18266000    220.15642   -4130.7426    -3753.402   -4130.7426            0   -304.59017    18.620424      21.9324    22.716874    9277.3573   -326.82391    248.94057   -835.88715    130.59435   -938.67027   -485.14286   -3794.6133 
18267000    226.83242   -4134.8098   -3746.0268   -4134.8098            0   -646.40412    18.682601    22.005637     22.79273     9370.605   -1600.1132    144.24449   -483.34367    248.16292   -306.63328    22.748658   -3834.3648 
18268000    198.29019   -4115.4303   -3775.5677   -4115.4303            0   -1120.5157    18.664744    21.984603    22.770944    9343.7606   -1470.8671    119.06059   -2009.7406   -762.14416   -28.117866    206.85756   -3928.2595 
18269000    206.41557   -4101.2686   -3747.4794   -4101.2686            0   -2017.4431    18.749865    22.084864    22.874792    9472.1818    -1895.232   -2049.3485   -2107.7487    115.04802   -822.39172   -277.35527   -4026.1731 
18270000    216.66748   -4141.9129   -3770.5523   -4141.9129            0   -649.13659    18.615165    21.926206    22.710458    9269.4991   -1294.3078   -261.97072   -391.13121    794.87333    1695.7235    -812.1935   -3858.3065 
18271000    217.09046   -4139.7634   -3767.6778   -4139.7634            0   -368.77309    18.633896    21.948269     22.73331    9297.5093   -830.78251    1143.8454   -1419.3821    529.69249     33.90084   -1005.8581   -3817.6815 
18272000    216.01982   -4110.6851   -3740.4345   -4110.6851            0   -45.793736     18.68603    22.009675    22.796913    9375.7653    271.66635   -619.79727    210.74971   -525.46211   -947.88505    -658.0532   -3746.6962 
18273000    204.98198   -4130.5892   -3779.2571   -4130.5892            0    708.05622    18.595919    21.903536    22.686978     9240.778     1191.547    713.40196    219.21971    1082.5902   -368.77798   -385.80766   -3683.8343 
18274000    226.81366   -4106.9076   -3718.1568   -4106.9076            0    689.54162    18.660269    21.979333    22.765485    9337.0422   -45.707826    2341.9484   -227.61572    76.974562   -107.78975   -386.11691   -3624.2611 
18275000    209.34293   -4109.2944   -3750.4877   -4109.2944            0   -96.058312    18.648761    21.965777    22.751445    9319.7778   -1161.3811   -109.99988    983.20604   -421.12176   -48.528152    1213.8701   -3763.5439 
18276000    225.77593   -4118.0699   -3731.0977   -4118.0699            0    281.05033    18.669794    21.990551    22.777105     9351.347   -686.32089    1451.8757    77.596211    1434.2237    770.57595     -763.163   -3692.7681 
18277000    217.15742    -4110.555   -3738.3546    -4110.555            0   -219.00889    18.687925    22.011907    22.799225    9378.6178   -132.01967    215.44029    -740.4473    717.05623    1023.4705    -97.06655   -3768.3101 
18278000    206.53545   -4124.4762   -3770.4815   -4124.4762            0   -293.28291    18.655249    21.973419     22.75936    9329.5083   -701.25325    609.47733   -788.07282    175.87866   -679.26492   -425.78602    -3810.386 
18279000    208.30752   -4140.9865   -3783.9545   -4140.9865            0   -1129.3947    18.732078    22.063914    22.853092    9445.2505   -1381.0712   -1153.7228   -853.39007    469.65489   -237.66736   -344.04931   -3939.5278 
18280000    207.82667   -4084.6761   -3728.4683   -4084.6761            0   -401.08302    18.660506    21.979612    22.765774    9337.3977    398.09167    74.092426   -1675.4332   -1004.2134   -174.15946   -95.176847   -3783.0864 
18281000    215.44571   -4091.9061   -3722.6395   -4091.9061            0   -422.42438    18.728466     22.05966    22.848685     9439.788   -1126.8089   -440.36474    299.90049   -1009.9443   -848.77509    409.38229   -3780.7945 
18282000    212.79703   -4102.3958    -3737.669   -4102.3958            0    736.68037    18.668859    21.989449    22.775964    9349.9414   -473.81116    2668.5602    15.292087   -6.2457753    345.76819   -502.12332   -3637.2157 
18283000    223.76298    -4125.754   -3742.2319    -4125.754            0   -875.80047    18.712831    22.041243     22.82961    9416.1653   -1816.0398   -424.01973   -387.34191    534.17317    157.17422    195.18846   -3862.5013 
18284000    200.80021   -4119.1833   -3775.0186   -4119.1833            0    349.98962    18.613115    21.923791    22.707957    9266.4368   -1068.1125      2417.61   -299.52865    234.52644    183.90938    1037.0863   -3727.7205 
18285000    206.90532   -4127.4282   -3772.7995   -4127.4282            0   -346.27683    18.664074    21.983814    22.770127    9342.7544   -1482.5884   -33.322252    477.08021    697.38561    340.41225   -505.84631   -3819.9813 
18286000    212.52452   -4129.2752   -3765.0155   -4129.2752            0   -978.73331    18.738425     22.07139    22.860835    9454.8549   -833.64494   -1029.4355   -1073.1195    700.74423   -264.22651     754.4707   -3899.9724 
18287000    220.42199   -4114.7092   -3736.9135   -4114.7092            0   -628.54183    18.628028    21.941356    22.726151    9288.7277   -815.90022    195.94945   -1265.6747    671.17497    200.09858    656.45725   -3822.0599 
18288000    215.72616   -4115.1451   -3745.3978   -4115.1451            0    -980.9488    18.651797    21.969353    22.755149      9324.33   -1657.9646   -23.485612   -1261.3962    322.97776    351.25627   -471.06867   -3878.7929 
18289000    210.15881   -4101.3961    -3741.191   -4101.3961            0   -1094.2273    18.655293    21.973471    22.759413    9329.5734   -1716.3521   -206.15466   -1360.1749    406.68719   -879.81852   -257.36989   -3890.0741 
18290000    213.56706   -4122.3754   -3756.3288   -4122.3754            0    765.75067    18.648304    21.965239    22.750887    9319.0922    359.30202     1446.594    491.35594    424.60537   -241.23383   -186.94251   -3652.2561 
18291000    198.46688   -4091.1723   -3751.0068   -4091.1723            0    220.22746    18.685781    22.009382    22.796609      9375.39    464.19095    530.75594   -334.26451   -297.74398   -772.27477   -95.965915    -3720.895 
18292000    199.50098   -4088.9111   -3746.9732   -4088.9111            0   -1538.3204     18.71201    22.040276    22.828608    9414.9255   -936.12512   -2293.2663   -1385.5698    941.87625    1293.3694    995.29447   -3958.1954 
18293000    214.77069   -4104.6833   -3736.5737   -4104.6833            0   -1628.9746    18.751508    22.086799    22.876796     9474.672   -2134.9094   -81.168114   -2670.8461   -431.55875    946.59365   -137.75344   -3961.6627 
18294000    219.94866   -4120.0193   -3743.0348   -4120.0193            0   -605.78275    18.633244      21.9475    22.732514    9296.5327   -820.35334    215.19744   -1212.1924    267.12936    259.06433    598.20227   -3825.1671 
18295000    205.74663   -4145.3001   -3792.6574   -4145.3001            0   -309.38278    18.584345    21.889904    22.672858    9223.5349   -589.42101    492.35794   -831.08526    173.27603    397.22775   -953.99934   -3834.2743 
18296000    213.73896   -4108.2305   -3741.8893   -4108.2305            0   -100.19646    18.617228    21.928636    22.712975    9272.5813   -748.46566    816.60314   -368.72684   -1042.9929    -323.7907    143.33706    -3755.439 
18297000    213.67303   -4132.6202    -3766.392   -4132.6202            0   -604.60485    18.666245    21.986371    22.772775    9346.0147   -521.44374    1427.7582    -2720.129   -170.96772   -109.12117    251.50399   -3848.8008 
18298000    220.23667   -4125.4578   -3747.9797   -4125.4578            0   -605.28591    18.655709    21.973961    22.759921     9330.198   -806.97174    -606.9676   -401.91839   -119.72467   -98.649401    702.06974   -3830.3418 
18299000    215.73369   -4111.5691   -3741.8089   -4111.5691            0   -746.02779    18.658963    21.977793    22.763891    9335.0808   -1478.4307    110.86968   -870.52239    562.18631     420.7524   -719.47553    -3843.375 
18300000    207.28039   -4114.8162   -3759.5448   -4114.8162            0   -276.80751    18.625324    21.938172    22.722852    9284.6836    670.05758   -1131.1734   -369.30675    323.38693    354.44794   -849.03107   -3797.0266 
18301000     220.8484   -4110.2364   -3731.7098   -4110.2364            0   -1042.0793    18.667079    21.987353    22.773793    9347.2678   -1113.5457   -136.75583   -1875.9364   -112.72043   -94.435568     660.3166   -3873.7664 
18302000    216.33772   -4130.2873   -3759.4919   -4130.2873            0    -502.6775    18.692137    22.016868    22.804364    9384.9608    182.91024    75.628766   -1766.5715     185.9718   -174.92654    -41.85564   -3828.2933 
18303000    206.73428   -4116.0257   -3761.6902   -4116.0257            0   -651.00534    18.652632    21.970337    22.756168    9325.5828    137.15234   -774.82007   -1315.3483    241.18532   -184.35237   -1093.9244   -3850.2296 
18304000     213.9825   -4101.4225   -3734.6639   -4101.4225            0   -1527.4295    18.720227    22.049955    22.838634     9427.335   -814.11469   -1611.5341   -2156.6398   -149.51415    19.979474    70.745833   -3944.6671 
18305000    209.49065   -4116.6947   -3757.6349   -4116.6947            0   -685.33161    18.660551    21.979664    22.765829    9337.4647   -820.73055   -1015.3803   -219.88393    86.451197   -1556.3714   -278.81424   -3850.9615 
18306000     214.7152   -4095.0083   -3726.9938   -4095.0083            0   -506.45391    18.677508    21.999638    22.786517    9362.9437    90.644212   -1062.0398   -547.96617    160.33478    482.08573   -122.58275   -3796.1495 
18307000    217.23462   -4126.8397    -3754.507   -4126.8397            0    674.65371    18.600464     21.90889    22.692523     9247.555    469.13685    1788.8313   -234.00703   -906.12126   -378.56506   -369.70989    -3663.519 
18308000    210.90245   -4105.2284   -3743.7488   -4105.2284            0   -204.86099    18.730424    22.061966    22.851074     9442.749    -349.2839     618.5924   -883.89145   -262.26597    -359.5349    321.40405   -3771.9608 
18309000    211.93957   -4107.1136   -3743.8564   -4107.1136            0    324.82742    18.617358    21.928788    22.713133     9272.775   -637.66735    1829.5829   -217.43333    553.73824    -669.5435   -751.63827   -3699.9287 
18310000      202.258   -4130.5085   -3783.8452   -4130.5085            0   -1453.6361    18.675229    21.996952    22.783735    9359.5155     -1860.07   -894.41478   -1606.4235    619.07605   -1589.1773   -436.94094    -3982.265 
18311000      216.804   -4123.0391   -3751.4445   -4123.0391            0   -1952.5926    18.671984    21.993131    22.779777    9354.6382   -2441.4752   -997.18756   -2419.1151   -511.14991   -1288.3114    4.5098856   -4017.8324 
18312000    211.63893   -4098.1944   -3735.4525   -4098.1944            0   -1543.0208    18.734919     22.06726    22.856558     9449.549   -1091.8682   -1266.3921    -2270.802    398.65326    -786.9306   -593.40004   -3948.0993 
18313000    226.93303   -4112.7259   -3723.7705   -4112.7259            0    611.54175    18.610211     21.92037    22.704413    9262.0996    263.08135    1973.1591   -401.61517    -445.1459   -652.63922    -294.6221   -3641.1645 
18314000    214.11498   -4120.0222   -3753.0364   -4120.0222            0   -934.78025    18.691788    22.016457    22.803937    9384.4345    -973.1539    1032.4164   -2863.6032   -54.142938   -328.42731   -846.31728   -3880.9726 
18315000    206.50882   -4138.0049   -3784.0559   -4138.0049            0    34.238714     18.62178    21.933997    22.718528    9279.3844    642.84126   -652.81634    112.69122     1197.708    299.47246    30.292491   -3779.4224 
18316000    230.33299   -4126.3747   -3731.5918   -4126.3747            0    374.91496    18.644728    21.961027    22.746524    9313.7318    633.73297     1381.042   -890.03005    215.31428    532.90826    9.7028377   -3680.6666 
18317000    205.13831   -4135.7294   -3784.1294   -4135.7294            0    -1235.249    18.682875    22.005959    22.793064    9371.0164   -1349.1035   -431.91238   -1924.7311   -107.36835    497.94581   -32.344989   -3952.9467 
18318000    206.74548   -4116.3125   -3761.9579   -4116.3125            0    1165.2394    18.627202    21.940384    22.725143    9287.4928    1816.0213    792.54676    887.15009   -156.92453    420.47419    373.15796   -3604.1279 
18319000    201.49748   -4135.5485   -3790.1887   -4135.5485            0   -602.57981    18.642243      21.9581    22.743494    9310.0093   -1174.5735   -94.476361   -538.68956    25.225528   -393.05069    111.77122   -3872.0052 
18320000    207.81231   -4111.0489   -3754.8657   -4111.0489            0    442.65715    18.624766    21.937514    22.722171    9283.8485    573.58471    1110.6426   -356.25585   -24.706271    12.836864    176.16412    -3694.932 
18321000    214.39942   -4121.3621   -3753.8888   -4121.3621            0   -646.83419    18.616556    21.927844    22.712155    9271.5778    329.65054   -1192.7278   -1077.4253    937.52121    311.63832     90.34499   -3841.3515 
18322000    225.72964   -4082.7048   -3695.8119   -4082.7048            0   -855.74751    18.642173    21.958018    22.743408    9309.9043   -1314.0115   -390.44763   -862.78344   -317.62164    329.58608    145.12237   -3812.0014 
18323000    201.45193   -4127.8879   -3782.6062   -4127.8879            0    362.64653    18.606047    21.915466    22.699334    9255.8853   -287.29119    1855.6977    -480.4669   -95.608132   -628.12278     -171.983   -3733.6534 
18324000    203.33496   -4112.2044   -3763.6953   -4112.2044            0    165.20578    18.598965    21.907124    22.690694    9245.3199    648.50916   -407.83208    254.94026    526.47463    291.14771   -658.95508     -3741.42 
18325000     211.9315   -4117.5362   -3754.2929   -4117.5362            0    448.86659    18.594197    21.901508    22.684877    9238.2106   -118.94936    1252.0239     213.5252    122.30743   -315.37198   -662.72899   -3693.8172 
18326000    210.18719   -4117.3141   -3757.0605   -4117.3141            0    27.578165    18.651588    21.969107    22.754894    9324.0164   -235.36237    2009.2881   -1691.1912   -416.91832   -229.01965   -294.19272   -3753.3104 
18327000    208.55051   -4138.1086   -3780.6602   -4138.1086            0   -1097.3219    18.566027    21.868327    22.650509    9196.2864   -495.41836   -653.85935    -2142.688   -341.51935    715.56669     783.9612   -3927.8313 
18328000    216.40622   -4088.2273   -3717.3145   -4088.2273            0   -1498.1134    18.701135    22.027467    22.815341    9398.5202   -1864.9512   -849.57522   -1779.8139   -1202.6881   -180.12696   -814.22431   -3922.6576 
18329000    211.27175   -4128.1843   -3766.0717   -4128.1843            0    409.54233    18.558259    21.859178    22.641032    9184.7486    122.76178    1152.8993   -47.034084   -204.95408   -1028.3446    32.050736   -3711.2135 
18330000    225.00831   -4106.5243   -3720.8678   -4106.5243            0   -853.86108    18.701079    22.027401    22.815273    9398.4364    -480.6488    -730.3878   -1350.5466   -886.49712    526.09514    186.99911   -3837.9036 
18331000     205.8107   -4106.2395    -3753.487   -4106.2395            0   -805.64226    18.654807    21.972899    22.758821    9328.8451    -1587.729    824.21047   -1653.4082    722.83713    7.7466837   -273.12634   -3863.0959 
18332000    219.18403   -4148.7835   -3773.1096   -4148.7835            0     1359.513     18.50564      21.7972    22.576838    9106.8444    1669.6242    1696.0363    712.87836   -357.92944   -48.777931     255.5514   -3592.5473 
18333000    199.20774   -4111.5699   -3770.1347   -4111.5699            0   -491.31183    18.641764    21.957536    22.742909     9309.291   -621.33598   -777.95373   -74.645776   -325.78277   -266.23609   -170.57731   -3836.8383 
18334000    230.31139   -4114.4969    -3719.751   -4114.4969            0   -779.18789    18.697959    22.023726    22.811467    9393.7333   -883.85018    310.57193   -1764.2854    131.93614   -55.109606   -512.30677   -3826.4982 
18335000    228.27763   -4154.1039   -3762.8438   -4154.1039            0   -100.91647    18.589313    21.895756    22.678919    9230.9339   -103.12784    166.41939   -366.04097   -542.92084     -391.928    58.236118   -3776.4296 
18336000    209.34116   -4116.6921   -3757.8885   -4116.6921            0   -65.804226    18.587298    21.893381     22.67646    9227.9313   -705.68513    94.218017    414.05444   -247.38484    1019.9803   -384.04693   -3766.7444 
18337000    215.77058   -4142.1849   -3772.3615   -4142.1849            0   -724.72247    18.610664    21.920904    22.704966    9262.7765   -1909.8775    1661.3039   -1925.5938    26.809398    659.46109    203.76561   -3870.2628 
18338000    217.74909   -4103.6051   -3730.3906   -4103.6051            0   -199.45806     18.65732    21.975859    22.761887     9332.616   -479.11407    1133.6543   -1252.9144    -682.0136   -1582.5355   -30.918302   -3757.5382 
18339000    207.94886   -4146.3361   -3789.9189   -4146.3361            0   -552.89287    18.630537    21.944312    22.729212     9292.482   -1378.2729    348.59042   -628.99609   -268.33656   -536.20474    -941.1415   -3864.8476 
18340000    215.85574   -4123.1827   -3753.2134   -4123.1827            0   -879.76602    18.649916    21.967137    22.752854    9321.5089   -473.32881   -571.70656   -1594.2627    233.73095   -937.16481     162.1625   -3872.8128 
18341000    202.33923   -4132.6026   -3785.8001   -4132.6026            0   -523.46664    18.610507    21.920719    22.704775    9262.5427    11.358807    188.86119   -1770.6199   -432.35628   -33.717733    -873.6635   -3856.5124 
18342000     219.1783        -4114   -3738.3359        -4114            0    150.08436    18.617306    21.928727     22.71307    9272.6977   -49.843971    770.97935    -270.8823   -174.26971   -453.14618   -225.44362   -3718.0395 
18343000    205.58713   -4131.1503    -3778.781   -4131.1503            0   -437.23097    18.632602    21.946744    22.731731    9295.5723   -842.36278     999.2367   -1468.5668   -234.03119   -291.90519    207.33132   -3838.0548 
18344000    217.86008   -4135.3907    -3761.986   -4135.3907            0   -88.717989    18.650443    21.967759    22.753497    9322.2997   -549.20351    968.84472   -685.79518    96.340171   -440.68939   -287.28917   -3774.0477 
18345000    211.57509   -4136.9438   -3774.3114   -4136.9438            0   -404.83735    18.615902    21.927074    22.711357    9270.5999    -862.9863    942.26976   -1293.7955    804.67632    695.18681    428.39377   -3829.0463 
18346000    213.26953   -4112.3004   -3746.7638   -4112.3004            0   -514.42306    18.629025    21.942531    22.727367    9290.2197   -1330.1031   -894.15184    680.98574   -703.17823   -1105.9558   -1300.5232   -3816.4621 
18347000    213.73752   -4124.5103   -3758.1715   -4124.5103            0   -1314.9966     18.61327    21.923974    22.708146    9266.6685   -2989.8528   -15.919754   -939.21724    231.81915   -201.12503   -255.90737   -3935.8866 
18348000    210.89689   -4151.4521   -3789.9821   -4151.4521            0   -83.904794    18.577536    21.881884    22.664551    9213.4001   -41.744954    399.68495   -609.65438    131.52184   -182.79623   -92.659278   -3801.2562 
18349000     200.4848    -4094.066   -3750.4419    -4094.066            0   -1171.1284    18.667407    21.987739    22.774193    9347.7601   -1638.3163    295.32331   -2170.3922    504.76565    -251.1355   -472.05756   -3910.0989 
18350000    198.87775    -4121.357   -3780.4874    -4121.357            0    628.35444    18.615966    21.927148    22.711435     9270.695   -537.13752    2210.5352    211.66568    403.75534   -241.27115   -60.229372   -3695.5316 
18351000    218.36716   -4161.7797   -3787.5059   -4161.7797            0    57.778805    18.561857    21.863416    22.645422    9190.0919    747.72144    840.99786   -1415.3829    1345.8958    118.33724   -303.32571   -3779.7619 
18352000    210.95219   -4101.1991   -3739.6342   -4101.1991            0    286.49135      18.6314    21.945328    22.730264    9293.7725    814.56859    1207.7511   -1162.8457    82.142009    -106.5238   -217.79768   -3700.8031 
18353000    214.53242   -4111.6098   -3743.9086   -4111.6098            0    -727.0521    18.639382    21.954729    22.740002    9305.7223   -1063.3781   -144.61889   -973.15929   -403.29982    561.64446    73.469046   -3842.5801 
18354000    221.11248   -4139.1706   -3760.1914   -4139.1706            0   -1360.0974    18.645875    21.962378    22.747925    9315.4519   -1763.9467    -252.0968   -2064.2487    813.92908   -661.87642   -312.35541   -3944.9692 
18355000    220.86035   -4121.8284   -3743.2813   -4121.8284            0   -1776.8999    18.635323    21.949949    22.735051    9299.6454   -2289.0359   -1404.5184   -1637.1455   -1318.1647    316.61245    52.583225   -3984.2748 
18356000    198.36894   -4117.2169   -3777.2194   -4117.2169            0    120.69971    18.603693    21.912694    22.696463    9252.3726   -1072.3488    969.86899    464.57894   -707.28037    568.76132   -296.24069   -3760.9326 
18357000    209.09482   -4139.8779   -3781.4965   -4139.8779            0     686.6846    18.612624    21.923213    22.707358    9265.7038    942.29835    492.43253    625.32292   -250.97313    364.32373    205.48106   -3688.7043 
18358000    209.97676   -4114.9073   -3755.0144   -4114.9073            0   -850.47556     18.67742    21.999534    22.786409    9362.8107   -1096.5444    -945.9899   -508.89242    -280.5427    614.81971    541.62641   -3871.1442 
18359000    211.98377   -4127.3909   -3764.0579   -4127.3909            0    298.92969    18.618836    21.930529    22.714936    9274.9834   -1597.7094    1961.4239    533.07456     217.2917   -475.18675   -1857.1932   -3723.6229 
18360000    210.16565   -4127.0253   -3766.8085   -4127.0253            0   -310.04115    18.585714    21.891516    22.674527    9225.5721   -1438.5024    900.44737   -392.06847   -185.92565    313.38862    553.13952   -3808.5232 
18361000    208.39037    -4105.539    -3748.365    -4105.539            0   -860.55065    18.631833    21.945839    22.730793    9294.4214    96.516877   -787.54627   -1890.6225   -476.63073    -859.5412   -558.69507   -3865.0123 
18362000    212.70145   -4127.2014   -3762.6384   -4127.2014            0    885.51762    18.554399    21.854631    22.636324     9179.019    1747.6673    1538.4429   -629.55735   -27.070761   -776.85757   -283.36333   -3644.0972 
18363000    213.13396   -4132.5477   -3767.2434   -4132.5477            0   -28.985278    18.633979    21.948366    22.733411    9297.6331   -1185.6037    765.99078    332.65713    536.70398   -323.77427   -447.48406   -3771.1737 
18364000    222.59947   -4107.9968   -3726.4689   -4107.9968            0   -1778.5819    18.669545    21.990258    22.776801    9350.9722   -2568.9315   -1142.1956   -1624.6185     810.0336   -514.51042   -209.45798   -3969.0218 
18365000    213.02907   -4104.9819   -3739.8574   -4104.9819            0   -309.40263    18.630325    21.944062    22.728953    9292.1647   -1190.9158    691.11787   -428.40997    -1554.352     446.9658    241.17863   -3781.7866 
18366000    205.93796   -4129.0547   -3776.0841   -4129.0547            0   -370.22225    18.610776    21.921036    22.705104    9262.9445   -1289.7054    489.82727   -310.78867   -27.928616   -1143.8317     44.72977   -3826.0976 
18367000    208.81573   -4147.2756   -3789.3725   -4147.2756            0   -649.00096    18.662322     21.98175    22.767989    9340.1232   -636.11487   -257.83796     -1053.05   -37.640592   -443.17246    898.58906   -3877.7769 
18368000    209.71139   -4145.1884   -3785.7502   -4145.1884            0   -1120.7128    18.629194    21.942729    22.727573    9290.4715   -943.66468   -549.70657   -1868.7672    157.33522    548.10458    166.28109   -3937.5979 
18369000    218.22241   -4127.6262   -3753.6005   -4127.6262            0     334.0458    18.608419     21.91826    22.702228    9259.4251   -1205.2445    1756.6985    450.68339     280.9612   -113.56244     11.30229   -3708.4912 
18370000    202.22781   -4113.3229   -3766.7114   -4113.3229            0   -498.50336    18.628047    21.941378    22.726173    9288.7556    283.25228   -312.14197   -1466.6204   -493.58676    -980.4063    698.21653   -3834.2421 
18371000    214.65486   -4142.4781    -3774.567   -4142.4781            0    597.10777    18.578128    21.882581    22.665273    9214.2805   -2.2501426     712.4243    1081.1492   -795.22797   -238.12068   -240.55273   -3694.3272 
18372000    221.23108   -4112.0919   -3732.9094   -4112.0919            0    -866.9271    18.604278    21.913382    22.697175    9253.2443   -1121.2639   -757.56596   -721.95143    190.26114   -659.79846    1252.6719   -3849.9004 
18373000    208.32165   -4146.9929   -3789.9368   -4146.9929            0   -107.10377    18.601113    21.909654    22.693314    9248.5228    79.381655   -31.956319   -368.73665    32.805529    101.76758    798.40663   -3804.3829 
18374000    215.19697   -4114.2623   -3745.4221   -4114.2623            0   -1462.6987    18.669212    21.989866    22.776395    9350.4724   -2395.3579   -716.00343   -1276.7348   -150.06921   -88.356754   -106.74385    -3944.886 
18375000     218.4228   -4107.2714   -3732.9022   -4107.2714            0   -257.56591    18.642895    21.958867    22.744288    9310.9848    393.07106    193.65196   -1359.4207   -1256.5088   -971.52128   -426.27859   -3767.8774 
18376000    213.56272   -4131.0622    -3765.023   -4131.0622            0   -936.15419    18.676934    21.998961    22.785816    9362.0799   -1843.1258    472.05852   -1437.3953   -617.18039   -486.12665   -133.49359   -3892.8421 
18377000    215.62318   -4121.6049   -3752.0342   -4121.6049            0   -506.53439    18.682662    22.005708    22.792804    9370.6966   -426.85318   -832.84869   -259.90131   -969.91383   -635.73019   -653.63572   -3821.2582 
18378000    215.15788   -4131.5533     -3762.78   -4131.5533            0   -343.40716    18.660116    21.979151    22.765297    9336.8113    438.75961   -474.89821   -994.08289    338.01086   -550.86561    799.72441    -3809.541 
18379000    217.32048   -4108.6777   -3736.1978   -4108.6777            0   -1443.1701    18.682625    22.005665    22.792759    9370.6409   -616.46544   -1710.0798   -2002.9651    298.27853   -1460.9667   -845.14932   -3933.4231 
18380000    209.83482    -4145.134   -3785.4843    -4145.134            0    -1122.066    18.666982    21.987239    22.773675    9347.1225   -1583.7424   -994.13269    -788.3229   -43.337228   -835.91619    222.29031   -3938.4423 
18381000    216.57442   -4162.3245   -3791.1234   -4162.3245            0   -1031.8318     18.60561    21.914951      22.6988    9255.2321   -334.00795   -1768.0601   -993.42724    56.178078    -205.9693    556.66787    -3930.398 
18382000    222.92091    -4120.932   -3738.8532    -4120.932            0   -387.52929    18.620207    21.932144    22.716609    9277.0328   -927.30956    1475.2316   -1710.5099   -979.97189   -216.92077   -343.79961   -3791.2843 
18383000     206.5103   -4127.1793   -3773.2277   -4127.1793            0   -1182.2672    18.599406    21.907643    22.691231    9245.9765   -128.65374   -964.08249   -2454.0652    245.46571   -610.30737    429.46252   -3932.6482 
18384000     206.2955    -4141.741   -3788.1576    -4141.741            0   -459.78891    18.665096    21.985018    22.771374    9344.2894   -1174.0116    206.72787   -412.08297   -745.47829   -904.30027      -95.071   -3850.8162 
18385000    207.49163   -4148.1093   -3792.4758   -4148.1093            0    -1158.296    18.681327    22.004135    22.791175    9368.6869   -1455.1455    258.31078   -2278.0532   -61.259706    1058.4613   -345.57225   -3950.7369 
18386000    213.50386   -4131.1401   -3765.2018   -4131.1401            0   -1202.3812    18.666363     21.98651    22.772919    9346.1922     -1516.43   -72.798426   -2017.9153    937.38749   -953.02115    -389.9336    -3929.092 
18387000    211.65972   -4145.5007   -3782.7231   -4145.5007            0   -1381.8181    18.671437    21.992486    22.779109    9353.8157    -1391.872   -549.69483   -2203.8874   -368.78491    324.21594   -1130.6344    -3971.225 
18388000    213.16753   -4129.8216   -3764.4598   -4129.8216            0   -432.37153    18.646758    21.963418    22.749001    9316.7742    -380.5325   -9.3730992   -907.20899    48.380562    637.48974    300.85664   -3823.2085 
18389000    202.61768   -4158.0407   -3810.7609   -4158.0407            0   -635.88805    18.642719     21.95866    22.744073    9310.7213   -274.81018    517.54895   -2150.4029    884.77268    -7.217857     280.6512   -3897.1064 
18390000    200.94181   -4113.9534    -3769.546   -4113.9534            0    151.38402    18.660009    21.979026    22.765168    9336.6514   -60.839989    1485.0346   -970.04258    1514.9306    720.56446    103.57017   -3748.9327 
18391000     207.4111   -4144.9824   -3789.4868   -4144.9824            0   -335.93936    18.598632    21.906732    22.690288    9244.8227   -1584.3958    1686.9474   -1110.3697   -73.274625   -253.84031   -96.661833   -3834.7803 
18392000    206.46516   -4140.6276   -3786.7534   -4140.6276            0   -1024.4175    18.667799    21.988202    22.774672    9348.3501   -684.94627   -57.265594   -2331.0405    672.87689   -180.60671   -185.88158   -3926.4185 
18393000    200.41676   -4125.8083   -3782.3008   -4125.8083            0    76.033828     18.61124    21.921583     22.70567    9263.6372    212.56326    638.43227   -622.89404    234.46538   -299.51775    63.005222   -3772.0286 
18394000    211.00969   -4132.8235   -3771.1601   -4132.8235            0   -1103.3298    18.677805    21.999987    22.786878    9363.3894   -232.78931     -1130.54   -1946.6602   -400.82536    594.88818   -615.18745   -3921.8258 
18395000    209.77256   -4107.6415   -3748.0986   -4107.6415            0     -1223.81    18.673702    21.995154    22.781872    9357.2198   -1569.0053    -505.6917    -1596.733   -87.594646   -123.80581     216.4548   -3915.1063 
18396000    209.93584   -4140.7554   -3780.9325   -4140.7554            0   -1240.3273    18.717926    22.047244    22.835826    9423.8586   -1176.9974   -1154.0631   -1389.9212    235.77393   -56.336644    440.17589   -3951.3998 
18397000    205.03441    -4149.359    -3797.937    -4149.359            0    282.76841    18.581219    21.886222    22.669044    9218.8809    303.42507    586.17324   -41.293083   -607.58124    438.95875   -399.72423   -3759.9194 
18398000    191.39945   -4126.7137   -3798.6616   -4126.7137            0   -106.13152    18.612752    21.923364    22.707514    9265.8953   -1275.4184    595.30649    361.71739    284.34281    53.451659   -31.627963   -3813.0035 
18399000    211.78073   -4098.0281   -3735.0432   -4098.0281            0   -801.67386    18.654908    21.973018    22.758944    9328.9965   -1255.5256    717.26691   -1866.7628    366.44891    -130.3693     358.5256    -3844.114 
18400000    203.67375   -4122.6178    -3773.528   -4122.6178            0   -107.30122    18.665082    21.985001    22.771357    9344.2687   -1133.8365    1456.2555   -644.32265   -139.20176   -701.50996    508.17847   -3788.1506 
18401000      214.045   -4116.2821   -3749.4163   -4116.2821            0   -140.56717    18.638849    21.954102    22.739352    9304.9241   -158.67931    722.73276   -985.75495   -855.90608    57.063518    618.86167   -3768.4917 
18402000    205.49294   -4143.9434   -3791.7355   -4143.9434            0   -1198.6599     18.64733    21.964092    22.749699    9317.6326   -892.45182   -1365.4831   -1338.0449    169.20247    47.032119    225.69987   -3954.6192 
18403000    207.70341   -4112.2291   -3756.2325   -4112.2291            0   -349.56436    18.655029     21.97316    22.759092    9329.1783   -554.17295    299.02392   -793.54404   -736.75811    -224.2284   -91.321359    -3803.793 
18404000    200.78055   -4123.5309   -3779.3999   -4123.5309            0   -1245.8142    18.663423    21.983047    22.769333    9341.7771   -1048.3909   -598.13962   -2090.9121   -24.449928    949.50619    619.97202   -3949.1299 
18405000    210.68653   -4128.3391   -3767.2296   -4128.3391            0   -490.66831    18.635673    21.950362    22.735478    9300.1692    -633.5675    1088.4347   -1926.8721   -115.15313   -181.54116   -522.57353   -3833.7806 
18406000    201.83417   -4142.4679   -3796.5311   -4142.4679            0   -1529.4616    18.687136    22.010978    22.798262    9377.4296   -2271.3505   -266.56163   -2050.4726    83.530561    349.88277   -78.881716   -4005.7005 
18407000    209.66719   -4136.5885   -3777.2261   -4136.5885            0    -468.8618    18.655534    21.973755    22.759708    9329.9359   -76.642981    408.12308   -1738.0655    -323.3351   -115.24907    851.57823    -3841.023 
18408000    207.76724   -4129.7647   -3773.6588   -4129.7647            0    1525.7505    18.626824    21.939938    22.724682    9286.9265    987.56803    1904.7497    1684.9336   -424.31766    -78.02204   -869.19161   -3567.0107 
18409000    211.82507   -4131.9145   -3768.8535   -4131.9145            0    230.17087    18.576443    21.880596    22.663217    9211.7739   -728.38857    126.96531    1291.9359   -123.98902   -676.29028    52.951365   -3737.9314 
18410000    221.23552     -4117.76   -3738.5699     -4117.76            0   -556.29097    18.662162    21.981562    22.767794    9339.8837   -1644.4152   -280.08932    255.63162   -112.23459    -108.1369     399.3139   -3814.3438 
18411000    193.51899   -4117.2996   -3785.6147   -4117.2996            0   -45.906088    18.617528    21.928989    22.713341    9273.0301    449.85297    1361.5672   -1949.1384      143.022   -497.28844    987.46872   -3791.8229 
18412000    200.40271   -4118.7131   -3775.2297   -4118.7131            0   -809.28183     18.67235    21.993562    22.780223    9355.1879   -1783.6136    371.59934   -1015.8312    513.81277    824.63914    826.19949   -3885.6447 
18413000    215.32938   -4127.3797   -3758.3125   -4127.3797            0    182.62149    18.631394    21.945321    22.730257    9293.7639    690.43329    39.425704   -181.99454   -170.40248    662.91957    208.20858     -3733.56 
18414000    207.49757   -4134.3257   -3778.6819   -4134.3257            0   -295.60962    18.678807    22.001167      22.7881    9364.8961   -831.31799    363.05673    -418.5676   -360.60127     53.05079    -3.843433   -3819.0555 
18415000    212.19732   -4132.0439   -3768.3449   -4132.0439            0    -140.4595    18.670849    21.991794    22.778393    9352.9328   -722.42936    1099.8979   -798.84708   -126.25155   -176.69972   -860.07566    -3787.504 
18416000     208.9563   -4109.6677   -3751.5237   -4109.6677            0   -715.21144    18.692998    22.017883    22.805414    9386.2578   -1128.1245   -759.42234   -258.08748    618.15681    8.9634153    357.73193   -3849.4283 
18417000    204.85261   -4138.4106   -3787.3003   -4138.4106            0   -546.89734    18.680588    22.003265    22.790273    9367.5754   -801.80554    583.51701   -1422.4035   -569.67284    5.1591847   -352.58588   -3862.0155 
18418000    227.88975   -4130.7934   -3740.1982   -4130.7934            0    406.66906    18.654821    21.972916    22.758839    9328.8665   -364.32738    1825.2852   -240.95068    501.51646    104.29086    460.36658     -3684.87 
18419000    226.41049   -4124.3387   -3736.2788   -4124.3387            0   -800.22552    18.693786     22.01881    22.806375    9387.4441   -754.55629    -350.4783    -1295.642    1366.4978    440.68557   -64.744426   -3845.8347 
18420000    206.15408   -4118.0427   -3764.7017   -4118.0427            0   -807.98416    18.714236    22.042898    22.831324    9418.2868   -759.77315    84.693308   -1748.8726   -102.23098    4.9696195    604.87506   -3875.6832 
18421000    204.53262   -4120.9554   -3770.3934   -4120.9554            0   -985.01164    18.670616    21.991519    22.778108    9352.5821   -1382.1511    276.42516    -1849.309   -1102.0877    667.39899   -54.791803   -3904.7469 
18422000    199.55773   -4115.1335   -3773.0984   -4115.1335            0    -1478.353    18.692059    22.016776    22.804268    9384.8426   -1269.4782   -884.97692   -2280.6039    762.45425    758.06338   -325.85448    -3975.438 
18423000    208.91057   -4137.6332   -3779.5677   -4137.6332            0   -630.85283    18.666085    21.986183    22.772581    9345.7753   -1772.3338    294.29767   -414.52241   -648.30265    -328.3031    518.93024    -3865.552 
18424000    203.69972    -4130.235   -3781.1006    -4130.235            0    -939.8164    18.717134    22.046312     22.83486    9422.6631   -784.50756    39.266938   -2074.2086    1002.2621   -866.24456   -799.90439   -3910.2501 
18425000    211.66061   -4112.5372   -3749.7582   -4112.5372            0   -521.10834    18.678486    22.000789    22.787709    9364.4135   -1085.7775    1035.7563   -1513.3038   -8.7329124    570.29195      978.194   -3820.9261 
18426000    206.61242   -4129.7941   -3775.6675   -4129.7941            0   -1579.0831    18.742355    22.076019    22.865629    9460.8045   -1291.7902   -1531.8238   -1913.6352   -639.67741    721.23347    1043.8502   -3993.5433 
18427000    216.96615    -4121.299   -3749.4264    -4121.299            0   -12.611516    18.637477    21.952487    22.737679    9302.8707   -1641.7371    1572.9804    30.922143    634.51858    -441.2749     115.6174   -3751.1374 
18428000    220.69527   -4129.5255   -3751.2613   -4129.5255            0   -220.92314    18.698513    22.024379    22.812142     9394.568   -1032.4512    1559.9213   -1190.2394   -150.13191    294.00246     205.2917     -3781.53 
18429000     206.3901    -4110.041   -3756.2954    -4110.041            0   -1891.0959    18.731383    22.063095    22.852243    9444.1988   -2220.2746   -747.85706   -2705.1562    51.493194    468.91079   -427.14583   -4016.7635 
18430000    204.46398   -4122.2941   -3771.8499   -4122.2941            0   -679.24809    18.622404    21.934732    22.719289    9280.3166   -703.62523    557.24212   -1891.3612    371.25066    301.14541   -722.11401    -3863.782 
18431000    216.30769   -4126.0765   -3755.3325   -4126.0765            0    377.56926    18.607263    21.916898    22.700817    9257.6994    817.28405    1267.2509   -951.82712    23.177097    222.78819   -597.38869   -3704.3553 
18432000    210.97492   -4095.6698    -3734.066   -4095.6698            0    363.64661    18.605025    21.914262    22.698087      9254.36    466.38624    724.00104   -99.447443    1180.0942    1407.0177   -197.53973   -3684.9863 
18433000    217.83656   -4148.9018   -3775.5374   -4148.9018            0   -2035.2816    18.698439    22.024291    22.812052    9394.4557   -1846.9064   -1904.0384   -2354.8998     135.4816   -826.15332    36.419878   -4054.3883 
18434000    218.62677   -4155.5907   -3780.8719   -4155.5907            0   -953.46404    18.656049    21.974362    22.760337    9330.7088   -570.31259   -670.37216   -1619.7074   -85.502392    379.50112    -273.1408   -3910.6181 
18435000     217.0994   -4116.6404   -3744.5394   -4116.6404            0   -1188.7716    18.682096    22.005041    22.792113    9369.8441   -1683.7747   -439.02656   -1443.5136      180.771   -71.138503    38.747514   -3906.9846 
18436000     220.4735    -4116.392    -3738.508    -4116.392            0   -1073.7963    18.692936     22.01781    22.805339    9386.1648   -1361.0057   -352.55628   -1507.8269    150.59069    268.93711   -1280.1771   -3885.4973 
18437000    212.87715   -4133.4616   -3768.5974   -4133.4616            0   -2197.9328    18.713644    22.042201    22.830602    9417.3925   -1899.7039   -2133.8027   -2560.2918    975.68751    369.29307   -12.905361   -4070.4681 
18438000    219.22222   -4109.2355   -3733.4962   -4109.2355            0    449.18124    18.615188    21.926232    22.710485    9269.5326    497.22853    947.25113   -96.935948   -566.93696   -466.35602    394.41953   -3672.7729 
18439000    211.08845   -4153.6518   -3791.8534   -4153.6518            0   -790.95933    18.660686    21.979823    22.765993    9337.6675   -1399.7348    177.55351   -1150.6967    118.46657   -1370.2239   -38.800256   -3899.5665 
18440000    226.69776   -4110.9468   -3722.3946   -4110.9468            0   -100.48216    18.679145    22.001566    22.788514    9365.4056   -440.46239    1009.0801   -870.06418   -315.86213   -1136.0255   -31.403848   -3736.1189 
18441000    215.89654   -4122.7167   -3752.6775   -4122.7167            0    -647.4411    18.654886    21.972991    22.758917    9328.9629   -1114.5425   -438.42994   -389.35088   -132.10105   -225.24333    445.80004    -3840.764 
18442000    215.39754   -4117.0752   -3747.8912   -4117.0752            0   -1272.8487    18.671407    21.992451    22.779073    9353.7709   -2457.0279    72.593042   -1434.1112    640.44512   -923.91008    -85.02294    -3921.527 
18443000    217.51538   -4117.9276   -3745.1137   -4117.9276            0    58.535265      18.6029    21.911759    22.695494    9251.1887    125.08661    280.90822   -230.38904   -27.314574      839.563    317.91561   -3737.2162 
18444000    215.09207   -4104.8599   -3736.1995   -4104.8599            0   -432.76269    18.635114    21.949703    22.734796    9299.3319   -99.218534   -362.99405   -836.07548   -34.918398   -787.26702   -349.71162   -3794.8913 
18445000    209.60593   -4125.7846   -3766.5272   -4125.7846            0   -757.98598    18.646744    21.963402    22.748985    9316.7543   -1416.8451    532.56545   -1389.6783    489.26669    0.4271677   -459.09504   -3869.5188 
18446000    214.36961   -4129.0589   -3761.6367   -4129.0589            0   -723.74652    18.679377    22.001838    22.788796    9365.7536   -256.40823    465.16091   -2379.9922     621.7286   -613.78853   -1260.5103   -3860.4932 
18447000    201.17446   -4104.5881   -3759.7819   -4104.5881            0    635.84368    18.621105    21.933203    22.717705    9278.3761    -882.4883     1112.387    1677.6323   -875.70932    454.88315   -788.20308   -3673.7424 
18448000    205.72426   -4113.2065   -3760.6022   -4113.2065            0   -166.65912    18.588134    21.894366     22.67748    9229.1764   -421.71363    841.69116   -919.95491   -613.40935   -737.33874   -231.60577   -3783.0342 
18449000    221.32616   -4123.1116   -3743.7661   -4123.1116            0   -709.87578    18.682202    22.005166    22.792243    9370.0043   -1941.9782   -236.82007    49.170915   -592.41283    392.86515    927.93435    -3840.772 
18450000     208.7965   -4125.6781   -3767.8081   -4125.6781            0   -975.80219    18.699286    22.025289    22.813086    9395.7336   -763.57153    -245.4514   -1918.3836    451.03178   -132.35731    405.52244   -3901.5195 
18451000    214.54046   -4120.2391   -3752.5241   -4120.2391            0    -323.4141    18.671663    21.992752    22.779385    9354.1551   -425.87847    162.52563   -706.88946   -108.38279   -80.967534   -769.89042   -3796.6445 
18452000    218.01891   -4123.7932   -3750.1162   -4123.7932            0   -564.12033     18.65068    21.968038    22.753787    9322.6554   -666.77806   -635.87152   -389.71142    650.82249    2198.4888    305.26714   -3826.8148 
18453000    216.68029   -4152.3129   -3780.9303   -4152.3129            0   -808.57715    18.631348    21.945267    22.730201    9293.6954   -1166.5925    -368.7076   -890.43135    11.579319    344.71499   -239.93187   -3890.5241 
18454000    202.89931    -4127.585   -3779.8225    -4127.585            0   -1340.3361    18.645967    21.962487    22.748037    9315.5896   -593.34156   -908.81359   -2518.8532   -127.22342  -0.53033813    646.83005   -3961.9184 
18455000     206.4838   -4139.4909   -3785.5847   -4139.4909            0   -1272.6473    18.715718    22.044643    22.833132    9420.5239   -1196.2778   -410.05158   -2211.6126   -850.78229   -84.243961    630.64594   -3960.4321 
18456000     205.9274   -4130.6278   -3777.6753   -4130.6278            0   -1329.2307    18.674015    21.995523    22.782254    9357.6905   -2716.6525   -396.17012   -874.86955    91.582258   -713.82717    303.70645   -3959.0785 
18457000    213.11403   -4133.7382    -3768.468   -4133.7382            0   -234.75307    18.627831    21.941124     22.72591    9288.4332   -167.63721   -543.54102    6.9190144   -359.28698    176.77496   -980.95079   -3800.2682 
18458000    224.33693   -4135.1446   -3750.6387   -4135.1446            0   -519.14663     18.68451    22.007885    22.795059    9373.4779   -373.41341    16.576561    -1200.603   -589.44791   -157.44661    221.26039   -3821.6074 
18459000    209.96975    -4126.311     -3766.43    -4126.311            0   -398.71574    18.664212    21.983976    22.770295    9342.9612    724.28483   -30.401608   -1890.0304    39.442937    311.80735    375.54092    -3820.758 
18460000    212.48827   -4103.3356   -3739.1379   -4103.3356            0    95.156161    18.603126    21.912025    22.695771    9251.5264    345.38722    482.90113   -542.81987    112.29616   -422.30587   -660.17141   -3726.2991 
18461000    212.12328   -4136.2886   -3772.7165   -4136.2886            0    367.62952    18.623018    21.935456    22.720039    9281.2356    397.14363    1868.2553   -1162.5104    296.66475   -440.61465    418.73013   -3722.9552 
18462000    213.89493   -4128.1527   -3761.5441   -4128.1527            0   -1055.3122    18.675931     21.99778    22.784592    9360.5713   -806.17708   -895.44867   -1464.3109    106.31049    298.97045   -203.35967   -3905.6093 
18463000    221.83946    -4124.976   -3744.7508    -4124.976            0   -654.03507    18.694478    22.019626     22.80722    9388.4874   -442.93728       -788.4   -730.76794   -1294.2152    199.00066    375.60209   -3834.3022 
18464000    216.74898   -4142.7732   -3771.2729   -4142.7732            0   -71.892313    18.670745    21.991672    22.778266    9352.7766   -210.10836    1056.9529   -1062.5215    509.26592    429.28203   -266.07381   -3781.0791 
18465000    197.20973   -4151.9125   -3813.9018   -4151.9125            0   -395.89378    18.676054    21.997925    22.784743    9360.7569   -1341.6456   -809.97138    963.93566    916.16964   -309.76126   -257.31793    -3867.948 
18466000    200.07152   -4114.2955   -3771.3798   -4114.2955            0   -649.03517     18.62721    21.940393    22.725153    9287.5047   -1004.9642     1013.087   -1955.2283   -171.51708   -912.85136    524.43918   -3859.2907 
18467000    213.87496   -4152.8337   -3786.2593   -4152.8337            0   -945.84758    18.647119    21.963843    22.749442    9317.3158   -1430.1022   -513.26491    -894.1756     1273.953    414.58044    964.40935   -3914.7844 
18468000    217.13184   -4124.2564   -3752.0999   -4124.2564            0    439.82727    18.677903    22.000103    22.786998    9363.5374   -126.03207    119.28112    1326.2327    564.43509    564.29984     862.9111   -3692.0381 
18469000    200.54467    -4086.448   -3742.7213    -4086.448            0   -444.69047    18.708638    22.036305    22.824495    9409.8378   -457.10179    95.102648   -972.07227   -1213.5841   -244.62253    291.03601   -3803.7474 
18470000    207.23909   -4141.7119   -3786.5112   -4141.7119            0    87.697366    18.669224    21.989879    22.776409    9350.4899   -20.378762    151.38567    132.08519   -574.96613     39.95458    621.13547   -3774.5522 
18471000    203.62497   -4111.5562     -3762.55   -4111.5562            0   -276.13348    18.671492    21.992552    22.779177    9353.8989   -1782.0306    1871.1402   -917.51002     16.21118    1119.5867   -343.14255   -3800.2193 
18472000    212.64426   -4143.8731   -3779.4081   -4143.8731            0   -668.03377    18.721715    22.051708    22.840449    9429.5835   -1768.4538    433.40311   -669.05063    1294.5465   -449.91575     581.5783   -3871.2767 
18473000    214.87219   -4140.1384   -3771.8548   -4140.1384            0   -913.27943    18.652318    21.969966    22.755784    9325.1106   -1381.6287   -406.60124   -951.60837    931.12119    419.94281    537.05383   -3896.0583 
18474000    217.18278   -4133.5773   -3761.3335   -4133.5773            0   -1342.3167    18.723717    22.054066    22.842891    9432.6083   -2466.9981   -1318.1614   -241.79056    341.91508   -64.511147    238.10348   -3945.9891 
18475000     209.9602   -4137.4943   -3777.6297   -4137.4943            0   -562.98066    18.667511    21.987862    22.774319    9347.9163   -1288.4789    108.84986   -509.31295    83.929919   -150.39209    78.621444   -3854.3807 
18476000    210.39753   -4125.6105   -3764.9964   -4125.6105            0   -848.64729    18.667312    21.987628    22.774077    9347.6176   -257.48882   -1134.2886   -1154.1644   -28.726486    154.34086    558.13533   -3880.6886 
18477000    225.33179    -4093.978    -3707.767    -4093.978            0   -2040.6369     18.76987    22.108428    22.899198    9502.5335   -2202.1932   -2123.1253   -1796.5923   -661.92919    771.16332   -194.79545   -3990.5681 
18478000    219.27149   -4105.9737   -3730.1499   -4105.9737            0    -995.8919    18.699889    22.025999    22.813821    9396.6419    -492.8864     -1028.17   -1466.6193    588.37529    -613.6652    551.01946   -3866.6273 
18479000    222.71679   -4133.2405   -3751.5116   -4133.2405            0     736.2557    18.689861    22.014188    22.801587    9381.5328     881.3403    1590.6466   -263.21979   -515.95613    27.270213   -229.66885   -3650.7771 
18480000    213.60646   -4097.0653   -3730.9511   -4097.0653            0   -638.15852    18.681119    22.003891    22.790922    9368.3753    -198.0105   -145.50119   -1570.9639   -617.99438    14.994481    155.49567   -3818.1415 
18481000    229.17418   -4141.5898   -3748.7931   -4141.5898            0   -913.07451    18.667998    21.988436    22.774914    9348.6485    -685.5902   -681.15998   -1372.4734    560.50594   -666.21351   -282.46796   -3873.2821 
18482000    213.12471   -4118.6732   -3753.3847   -4118.6732            0   -867.63495     18.65663    21.975046    22.761045    9331.5801    350.93464   -1911.1775    -1042.662   -610.37746   -276.58522      791.139   -3871.4625 
18483000    215.25735   -4139.2624   -3770.3186   -4139.2624            0     1009.353    18.606913    21.916486    22.700391    9257.1774    588.87576    1347.6586    1091.5248   -29.178137    380.37333    408.39618   -3634.0495 
18484000    211.39408   -4111.2392    -3748.917   -4111.2392            0    364.88875     18.63656    21.951406    22.736559    9301.4964     562.5005    1548.7166   -1016.5509     138.0758   -376.81665    272.93843   -3699.4189 
18485000    206.11985    -4140.059   -3786.7767    -4140.059            0   -483.43943    18.716077    22.045067     22.83357    9421.0663   -793.41923   -77.894633   -579.00443     1115.013   -255.56404   -152.24168   -3853.1996 
18486000    216.01739   -4137.6149   -3767.3684   -4137.6149            0    338.64028    18.695652    22.021008    22.808652     9390.256    1086.6236    38.849009   -109.55171     752.3977    1192.2804   -675.55233   -3720.9926 
18487000    208.37656   -4118.5913    -3761.441   -4118.5913            0   -991.87092    18.738799     22.07183    22.861291    9455.4202   -652.46858   -784.56036   -1538.5838    391.63589    193.48531    585.59096   -3898.2176 
18488000    197.11598   -4082.9607   -3745.1106   -4082.9607            0    -454.3183     18.69104    22.015576    22.803025    9383.3079   -317.81822    476.03768   -1521.1744    29.991317   -70.042811   -242.33111   -3807.2823 
18489000    216.55916   -4131.8524   -3760.6774   -4131.8524            0   -1732.0079    18.726618    22.057483    22.846431    9436.9938   -2150.8656   -1759.6046   -1285.5537   -484.01945   -155.09995    412.18206   -3999.0517 
18490000    198.75255   -4100.2667   -3759.6117   -4100.2667            0   -131.61838    18.695587    22.020932    22.808572    9390.1579    201.66208    941.38845   -1537.9057   -3.2556564    82.733995   -681.04824   -3777.6363 
18491000    210.33394   -4144.2902    -3783.785   -4144.2902            0   -954.93826    18.651066    21.968492    22.754257    9323.2334   -1843.2314    160.62608   -1182.2095   -33.296108    683.00281   -72.053223   -3913.6277 
18492000     208.2666   -4116.6755   -3759.7137   -4116.6755            0   -909.74353    18.655922    21.974212    22.760182    9330.5184   -1829.3322   -379.38962   -520.50876   -1116.8539   -450.86701    24.074203    -3883.508 
18493000    215.93366   -4109.7832   -3739.6803   -4109.7832            0   -306.86199    18.655436    21.973639    22.759588    9329.7878    148.98522    108.78007   -1178.3513    -487.8187   -1138.6075    962.68746   -3781.4335 
18494000    214.37094   -4114.3705    -3746.946   -4114.3705            0    174.19433    18.561967    21.863545    22.645556    9190.2547    896.77023   -3.3834637   -370.80376   -288.69293    1856.5045   -84.341807   -3723.5987 
18495000    218.80935   -4106.9936   -3731.9619   -4106.9936            0   -103.34054    18.656057    21.974371    22.760346      9330.72     685.0386    931.83386   -1926.8941   -734.21096    1003.3078    117.63406   -3746.0244 
18496000    203.72519   -4106.7411   -3757.5631   -4106.7411            0   -223.55843    18.651743    21.969289    22.755082    9324.2484   -1307.3252    1089.9227    -453.2728   -125.62463    1223.8474   -515.70981   -3787.9636 
18497000    206.80974   -4122.0967   -3767.6319   -4122.0967            0   -1535.2094    18.673102    21.994447    22.781141    9356.3183   -1308.8214   -1316.2842   -1980.5226   -349.41308    722.31016     201.9907   -3977.1147 
18498000    225.58433   -4125.1013   -3738.4574   -4125.1013            0    3.8989786    18.617689    21.929179    22.713537    9273.2704   -1011.8658    313.74511    709.81762    266.00513    371.90925   -150.19005   -3737.9301 
18499000    200.51164   -4113.4239   -3769.7538   -4113.4239            0   -1197.3873    18.718859    22.048343    22.836964    9425.2681   -2012.6513    -382.1716   -1197.3391   -150.17807    947.35661    362.64006   -3934.3441 
18500000    219.59245   -4097.9151   -3721.5412   -4097.9151            0   -1676.0046    18.667636    21.988009    22.774472    9348.1045   -940.41476   -1074.4226   -3013.1763   -14.472426    362.00393     543.7257   -3950.0351 
Loop time of 465.174 on 64 procs for 250000 steps with 864 atoms

Performance: 92.868 ns/day, 0.258 hours/ns, 537.433 timesteps/s
99.0% CPU use with 64 MPI tasks x 1 OpenMP threads

MPI task timing breakdown:
Section |  min time  |  avg time  |  max time  |%varavg| %total
---------------------------------------------------------------
Pair    | 12.607     | 19.817     | 27.985     |  69.0 |  4.26
Bond    | 0.26434    | 0.27961    | 0.28988    |   0.9 |  0.06
Kspace  | 224.27     | 235.09     | 248.96     |  30.5 | 50.54
Neigh   | 1.9505     | 2.3032     | 2.8692     |  14.0 |  0.50
Comm    | 85.306     | 94.518     | 102.49     |  38.4 | 20.32
Output  | 0.84855    | 0.84953    | 0.85085    |   0.0 |  0.18
Modify  | 97.685     | 101.32     | 106.07     |  20.3 | 21.78
Other   |            | 11         |            |       |  2.36

Nlocal:        13.5000 ave          21 max           8 min
Histogram: 5 4 7 14 12 8 10 1 1 2
Nghost:        1781.73 ave        1830 max        1738 min
Histogram: 2 2 4 14 16 14 4 4 1 3
Neighs:        3294.47 ave        4843 max        1951 min
Histogram: 4 7 3 9 13 8 10 6 1 3

Total # of neighbors = 210846
Ave neighs/atom = 244.03472
Ave special neighs/atom = 2.0000000
Neighbor list builds = 6101
Dangerous builds = 0

unfix		3
unfix		2
unfix		1

write_data	data.final.${pid}
write_data	data.final.0
System init for write_data ...
PPPM initialization ...
  extracting TIP4P info from pair style
  using 12-bit tables for long-range coulomb (../kspace.cpp:340)
  G vector (1/distance) = 0.37184835
  grid = 24 25 27
  stencil order = 5
  estimated absolute RMS force accuracy = 0.0031214817
  estimated relative force accuracy = 9.4002495e-06
  using double precision FFTW3
  3d grid and FFT values/proc = 2730 384
Last active /omp style is kspace_style pppm/tip4p/omp
WARNING: Not all mixed pair coeffs generated from mixing. Use write_data with 'pair ij' option to store all pair coeffs. (../write_data.cpp:312)

write_restart   restart.lmp.${pid}
write_restart   restart.lmp.0
System init for write_restart ...
PPPM initialization ...
  extracting TIP4P info from pair style
  using 12-bit tables for long-range coulomb (../kspace.cpp:340)
  G vector (1/distance) = 0.37184835
  grid = 24 25 27
  stencil order = 5
  estimated absolute RMS force accuracy = 0.0031214817
  estimated relative force accuracy = 9.4002495e-06
  using double precision FFTW3
  3d grid and FFT values/proc = 2730 384
Last active /omp style is kspace_style pppm/tip4p/omp
Total wall time: 0:07:48
