LAMMPS (30 Jul 2021)
Processor partition = 1
  using 2 OpenMP thread(s) per MPI task
using multi-threaded neighbor list subroutines
variable        pid world 0 1
variable        phase world IceVI Liquid

shell cd ${phase}
shell cd Liquid
include Restart.lmp
echo both
log log.lammps
#include		in.partitions
include		in.temp
variable        temperature equal 263.75
variable	tempDamp equal 100.0
include		in.pressure
variable        pressure equal 8375.0
variable        pressureDamp equal 1000.0 # This is 1 ps
include		in.seed
variable        seed equal 745823

units		real
atom_style	full
read_restart	restart.lmp.${pid}
read_restart	restart.lmp.1
Reading restart file ...
  restart file = 30 Jul 2021, LAMMPS = 30 Jul 2021
  restoring atom style full from restart
  orthogonal box = (0.60999565 1.8100256 0.74419327) to (17.597577 21.819152 21.469003)
  2 by 4 by 4 MPI processor grid
  restoring pair style lj/cut/tip4p/long/omp from restart
  restoring bond style harmonic/omp from restart
  restoring angle style harmonic/omp from restart
  864 atoms
  576 bonds
  288 angles
Finding 1-2 1-3 1-4 neighbors ...
  special bond factors lj:    0        0        0       
  special bond factors coul:  0        0        0       
     2 = max # of 1-2 neighbors
     1 = max # of 1-3 neighbors
     1 = max # of 1-4 neighbors
     2 = max # of special neighbors
  special bonds CPU = 0.002 seconds
  read_restart CPU = 0.007 seconds
include 	in.setup
variable	out_freq equal 1000
variable	out_freq2 equal 10000
variable	out_freq3 equal 1000

timestep	2.0

neigh_modify    delay 7 every 1

include		in.tip4p
# This is TIP4P/Ice

# create groups ###
group ox type 2
288 atoms in group ox
group hy type 1
576 atoms in group hy

# set charges - beside manually ###
set group ox charge -1.1794
Setting atom values ...
  288 settings made for charge
set group hy charge 0.5897
Setting atom values ...
  576 settings made for charge

# ### TIP3P Potential Parameters ###
pair_style lj/cut/tip4p/long/omp 2 1 1 1 0.1577 8.5
pair_coeff 1 1*2 0.000 0.000
pair_coeff 2 2 0.21084 3.1668
bond_style  harmonic
bond_coeff  1 450 0.9572
angle_style harmonic
angle_coeff 1 55 104.52
kspace_style pppm/tip4p/omp 1.0e-5
pair_modify tail yes

thermo          ${out_freq}
thermo          1000
thermo_style    custom step temp pe etotal epair emol press lx ly lz vol pxx pyy pzz pxy pxz pyz enthalpy

restart 	${out_freq3} restart.lmp.${pid} restart2.lmp.${pid}
restart 	1000 restart.lmp.${pid} restart2.lmp.${pid}
restart 	1000 restart.lmp.1 restart2.lmp.${pid}
restart 	1000 restart.lmp.1 restart2.lmp.1


include         in.dump
dump            myDump all atom ${out_freq2} dump.water.${pid}
dump            myDump all atom 10000 dump.water.${pid}
dump            myDump all atom 10000 dump.water.1
dump            myDump2 all dcd ${out_freq2} dump.dcd
dump            myDump2 all dcd 10000 dump.dcd
dump_modify     myDump append yes
dump_modify     myDump2 append yes


variable natoms 	equal  "count(all)"                        # NUMBER ATOMS
variable H      	equal  "enthalpy/v_natoms"                 # ENTHALPY-per-atom
variable Vol      	equal  "vol/v_natoms"                 # volume-per-atom
fix AVG all 		ave/time ${out_freq} 1 ${out_freq} v_Vol v_H file vol_enthalpy.dat
fix AVG all 		ave/time 1000 1 ${out_freq} v_Vol v_H file vol_enthalpy.dat
fix AVG all 		ave/time 1000 1 1000 v_Vol v_H file vol_enthalpy.dat


timer           timeout 23:50:00 every 1000
New timer settings: style=normal  mode=nosync  timeout=23:50:00

fix 		1 all shake 1e-6 200 0 b 1 a 1
Finding SHAKE clusters ...
       0 = # of size 2 clusters
       0 = # of size 3 clusters
       0 = # of size 4 clusters
     288 = # of frozen angles
  find clusters CPU = 0.000 seconds
fix             2 all nph iso ${pressure} ${pressure} ${pressureDamp}
fix             2 all nph iso 8375 ${pressure} ${pressureDamp}
fix             2 all nph iso 8375 8375 ${pressureDamp}
fix             2 all nph iso 8375 8375 1000
fix             3 all temp/csvr ${temperature} ${temperature} ${tempDamp} ${seed}
fix             3 all temp/csvr 263.75 ${temperature} ${tempDamp} ${seed}
fix             3 all temp/csvr 263.75 263.75 ${tempDamp} ${seed}
fix             3 all temp/csvr 263.75 263.75 100 ${seed}
fix             3 all temp/csvr 263.75 263.75 100 745823

run             250000
PPPM initialization ...
  extracting TIP4P info from pair style
  using 12-bit tables for long-range coulomb (../kspace.cpp:340)
  G vector (1/distance) = 0.37420041
  grid = 24 24 24
  stencil order = 5
  estimated absolute RMS force accuracy = 0.0031679917
  estimated relative force accuracy = 9.5403128e-06
  using double precision FFTW3
  3d grid and FFT values/proc = 3549 432
Last active /omp style is kspace_style pppm/tip4p/omp
Neighbor list info ...
  update every 1 steps, delay 7 steps, check yes
  max neighbors/atom: 2000, page size: 100000
  master list distance cutoff = 10.8154
  ghost atom cutoff = 10.8154
  binsize = 5.4077, bins = 4 4 4
  1 neighbor lists, perpetual/occasional/extra = 1 0 0
  (1) pair lj/cut/tip4p/long/omp, perpetual
      attributes: half, newton on, omp
      pair build: half/bin/newton/omp
      stencil: half/bin/3d
      bin: standard
Setting up Verlet run ...
  Unit style    : real
  Current step  : 6500000
  Time step     : 2
  Walltime left : 23:49:59.94
Per MPI rank memory allocation (min/avg/max) = 10.20 | 10.20 | 10.20 Mbytes
Step Temp PotEng TotEng E_pair E_mol Press Lx Ly Lz Volume Pxx Pyy Pzz Pxy Pxz Pyz Enthalpy 
 6500000    268.03986   -3839.4781   -3380.0669   -3839.4781            0     7448.245    16.987581    20.009127    20.724809    7044.5007    6209.3283     8824.153    7311.2537   -2050.4696   -1214.0397   -1380.2476   -2614.8579 
 6501000    268.52708   -3876.3771   -3416.1309   -3876.3771            0    8464.2743    16.910906    19.918813    20.631266    6949.5423     9061.646    7822.1215    8509.0555    930.29213    1279.3532    1453.9334   -2558.2602 
 6502000    267.15707   -3888.5486   -3430.6505   -3888.5486            0    8537.9178    16.914532    19.923085     20.63569    6954.0142    9169.0784    7678.9098    8765.7652   -945.96682    90.147335    -219.9096   -2564.7591 
 6503000    258.90198   -3886.3912   -3442.6421   -3886.3912            0    9022.7335    16.958515     19.97489    20.689348    7008.4021    9153.6778    8386.3017    9528.2209    398.58161   -1061.7052   -761.12811   -2520.4253 
 6504000    254.00832   -3919.5897   -3484.2281   -3919.5897            0    6283.0107    16.997043    20.020271    20.736353    7056.2784    5976.2365    6423.5309    6449.2648   -249.06521    950.34492   -912.97696   -2837.6524 
 6505000     258.8063   -3863.6242   -3420.0391   -3863.6242            0    6209.6009    17.013907    20.040135    20.756927    7077.3023    6737.4446    7635.0349    4256.3231      1775.43    447.91208   -47.345609   -2779.1139 
 6506000    279.25433   -3868.3954    -3389.763   -3868.3954            0    8587.3284    16.984202    20.005146    20.720686    7040.2973    7509.9192     9773.121    8478.9449    527.36592    1397.9062   -1043.1923   -2508.0547 
 6507000    273.37564    -3877.849   -3409.2925    -3877.849            0    7258.6682    17.015006     20.04143    20.758268    7078.6744    6698.2452    7809.1284    7268.6311    718.48719    415.79937    32.894455   -2659.9424 
 6508000     279.7342   -3879.1514   -3399.6966   -3879.1514            0    7186.3437    17.035263     20.06529    20.782981    7103.9866    6096.5641    9023.7647    6438.7023    -1047.465   -222.30765    1217.0653     -2655.16 
 6509000    275.83324   -3849.3154   -3376.5467   -3849.3154            0     9016.856    16.993891    20.016559    20.732508    7052.3541    9074.7873    10183.422    7792.3591   -328.48489    1532.2194   -947.82686   -2449.1509 
 6510000    267.43924   -3837.6451   -3379.2634   -3837.6451            0    9068.3806    16.967746    19.985763     20.70061    7019.8531    7875.7674        11327    8002.3745   -1444.9455   -42.407108   -242.64039   -2450.8666 
 6511000    262.04108   -3834.1069   -3384.9774   -3834.1069            0     9297.773    16.939454    19.952439    20.666094    6984.7968    9309.2346    9201.2809    9382.8036   -319.12478   -1878.7803    169.03966   -2437.8496 
 6512000    269.34779   -3801.1973   -3339.5444   -3801.1973            0    8678.7169    16.977656    19.997436      20.7127    7032.1602     7026.935    10303.477    8705.7387   -617.61126   -613.50123     316.5044   -2449.4826 
 6513000     278.4384   -3853.8984   -3376.6645   -3853.8984            0    8017.8563    16.979305    19.999378    20.714712    7034.2093    9074.4973    7633.6631    7345.4086   -85.798714   -847.72193    1645.1261   -2554.1388 
 6514000     256.0176   -3869.1304   -3430.3249   -3869.1304            0    7934.5886    16.956153    19.972108    20.686467    7005.4744    9134.7758    6962.0721    7706.9179    105.51492   -1662.4762    159.61551   -2619.6666 
 6515000    255.75404   -3858.9309   -3420.5772   -3858.9309            0    10061.356    16.891858    19.896377    20.608027    6926.0852    9699.1521      10627.9    9857.0174     378.7936    216.29584   -313.71438   -2404.2811 
 6516000    260.70717   -3871.7754   -3424.9323   -3871.7754            0    7057.1332    16.972416    19.991264    20.706308    7025.6512     7067.135    6674.2586    7430.0059   -390.04509   -23.593705    2129.1033   -2701.8449 
 6517000     271.2362   -3878.1415    -3413.252   -3878.1415            0    10859.064    16.852316    19.849802    20.559786    6877.5592    13250.465    9836.1253    9490.6031   -880.36524   -344.99957    8.9144286   -2324.0645 
 6518000     261.2055   -3888.2207   -3440.5234   -3888.2207            0    7708.6121    16.952243    19.967503    20.681696     7000.629    8142.7938    7348.7161    7634.3264    729.23672   -1520.9849    852.33918   -2653.4973 
 6519000    265.57164   -3837.6693   -3382.4886   -3837.6693            0    9280.2488    16.875147    19.876694     20.58764    6905.5499    11266.328    7848.5893    8725.8291   -755.26849     -1176.84   -271.47596   -2447.8713 
 6520000    252.13809   -3851.7676   -3419.6115   -3851.7676            0     6921.512    16.996915     20.02012    20.736196    7056.1184    6506.1231    6371.1087    7887.3042    428.02169   -1279.0699    878.65088   -2707.3447 
 6521000    258.53967   -3869.1615   -3426.0334   -3869.1615            0    6622.6379    17.012065    20.037965    20.754679    7075.0037    5528.6125    7460.2207    6879.0806    375.75113   -687.88741   -949.26548   -2742.6985 
 6522000    254.56262   -3825.7711   -3389.4595   -3825.7711            0    9819.2455    16.979272     19.99934    20.714672    7034.1689    8899.7843    9195.9479    11362.004    835.64675    340.54857    205.60133    -2382.141 
 6523000    254.04654   -3875.4628   -3440.0357   -3875.4628            0    6692.2708    17.009156     20.03454    20.751131    7071.3757    7191.4463    3153.7433    9731.6227   -1587.8518    2340.6543    511.35893   -2749.8701 
 6524000    265.13909   -3814.7046   -3360.2653   -3814.7046            0    7261.7238    17.039142    20.069858    20.787713    7108.8398    9375.6725    5401.1153    7008.3837    56.800443    -338.0095   -533.68821   -2607.4051 
 6525000    263.15014   -3862.6334   -3411.6031   -3862.6334            0    9625.1822    16.978376    19.998284    20.713579    7033.0549    8599.3938    11006.347    9269.8059    822.92999   -405.96288     648.5114   -2424.3492 
 6526000    266.94243   -3809.5535   -3352.0233   -3809.5535            0    7643.7917    17.025245     20.05349    20.770759    7091.4607    7647.9317      9448.19    5835.2534   -1226.7576     468.5184    534.92311   -2561.4895 
 6527000    274.87796   -3851.1554    -3380.024   -3851.1554            0     7696.794     17.00678    20.031741    20.748232    7068.4126    6610.2663      7531.49    8948.6259    1266.7318    298.91382   -3.0525071   -2586.5958 
 6528000     241.4038   -3835.8683   -3422.1105   -3835.8683            0    10195.827    16.963299    19.980526    20.695185    7014.3356    9609.4813    10537.387    10440.613   -908.16102    809.36889   -61.680703   -2379.1091 
 6529000    259.75503   -3908.1127   -3462.9015   -3908.1127            0    6690.2419    17.056224    20.089979    20.808554    7130.2421    6499.4022    6865.1099    6706.2135    1046.7867   -1728.0319    450.54269   -2767.2015 
 6530000    266.02869    -3824.078   -3368.1139    -3824.078            0     9413.588    17.003207    20.027531    20.743872    7063.9577    8022.2104    11041.702    9176.8511   -1523.7103    175.17904    1155.5201   -2398.3206 
 6531000    266.27156   -3817.0604   -3360.6801   -3817.0604            0     7126.001    17.053754    20.087069    20.805539     7127.144    6449.8121    8746.0225    6182.1684    453.92154    347.86084   -782.79587   -2619.9887 
 6532000    265.65042   -3846.5303   -3391.2146   -3846.5303            0    9244.8709    16.977824    19.997634    20.712905    7032.3688    9524.3082    9263.3861    8946.9184    -531.6074    446.95594   -40.589978   -2443.0617 
 6533000    263.28119   -3857.5588   -3406.3038   -3857.5588            0    6722.0375    16.975927      19.9954    20.710591    7030.0125    6715.4757    6729.5548     6721.082     -1055.34   -400.35509    406.70609   -2717.1234 
 6534000    257.94868   -3882.8168   -3440.7016   -3882.8168            0     8635.261    16.913973    19.922426    20.635008    6953.3246    9336.4704    7619.2058    8950.1069    282.44033     1022.744   -413.91131   -2565.0248 
 6535000    252.90168   -3874.6914   -3441.2266   -3874.6914            0    8857.5043     16.95588    19.971786    20.686133    7005.1358    10107.514    6418.2664    10046.733    623.96144    1891.2783    -427.6715   -2536.3198 
 6536000    252.77381   -3899.9801   -3466.7345   -3899.9801            0    7268.4914    17.035123    20.065125    20.782811    7103.8116    8317.6914    8903.7925    4583.9904    1525.5663     123.2808    1.6200223   -2713.7056 
 6537000    268.55421   -3876.9809   -3416.6882   -3876.9809            0    9546.8107     16.93774    19.950421    20.664004    6982.6778    10563.977    7737.9608    10338.495   -1441.4412   -677.53049    154.41283   -2444.4869 
 6538000     274.2719    -3895.847   -3425.7543    -3895.847            0     8907.571    17.002463    20.026656    20.742965    7063.0311    10817.224    7222.6414     8682.848     868.2004    251.07794    1846.3044   -2508.2116 
 6539000     260.8653   -3864.1557   -3417.0415   -3864.1557            0    8543.1062    16.991937    20.014258    20.730124    7049.9214    8741.3596    9149.8603    7738.0986    1036.9403   -2479.7495    1318.0694   -2538.6746 
 6540000    268.12684   -3911.8388   -3452.2786   -3911.8388            0    6824.8366     17.04137    20.072483    20.790432    7111.6293    7171.3813    8146.6598    5156.4685    288.31544    498.50271   -227.71527   -2744.4351 
 6541000    257.03728    -3854.354   -3413.8009    -3854.354            0    7910.8674     17.01686    20.043613    20.760529    7080.9881    8826.9161     5252.378    9653.3082   -184.85357    622.95395    916.46923   -2596.8539 
 6542000      263.905   -3881.3046   -3428.9805   -3881.3046            0    7504.8651    16.990064    20.012051    20.727838    7047.5901     6838.859     8344.601    7331.1354   -262.12713   -959.56065   -1287.3417   -2657.6164 
 6543000    265.62132   -3862.1745   -3406.9087   -3862.1745            0    6417.7547    16.997429    20.020727    20.736824    7056.7597    6286.2284    5062.1545    7904.8813   -1016.0597     131.0729   -258.58772   -2746.4216 
 6544000    265.37305   -3853.9162   -3399.0759   -3853.9162            0    9272.0148    16.884088    19.887226    20.598548    6916.5325    8724.4779    8771.2775    10320.289    22.901535   -772.00375    1000.3219   -2463.8028 
 6545000    258.00701    -3925.839   -3483.6238    -3925.839            0    8280.2997    16.944193    19.958022    20.671876    6990.6617    7223.8756    8485.6944    9131.3292    640.35441   -521.00917    495.16147   -2639.4337 
 6546000     269.2553   -3868.2372   -3406.7429   -3868.2372            0    8289.3411    16.973592    19.992649    20.707742    7027.1112    10320.406    7597.7896    6949.8277   -273.67614    508.23642    137.71482   -2557.2246 
 6547000    259.09242   -3893.4216    -3449.346   -3893.4216            0    7382.7441    16.971598      19.9903     20.70531    7024.6352    7040.0299    7104.8806    8003.3219    579.77219    646.98702   -43.902521   -2693.0053 
 6548000    265.10185   -3878.6833   -3424.3077   -3878.6833            0     9843.372    16.903816    19.910462    20.622616    6940.8052    9955.0406    8937.8295    10637.246   -865.96298    954.70073    77.129482   -2427.9171 
 6549000     272.8752   -3886.1122   -3418.4135   -3886.1122            0    9334.2486    16.955225    19.971015    20.685335    7004.3245    8725.7936    10818.583    8458.3688   -348.64423   -1544.6381      793.158   -2464.9117 
 6550000    262.26639   -3912.0569   -3462.5413   -3912.0569            0    8645.9034    17.063768    20.098865    20.817757    7139.7072    10333.187    7290.1254    8314.3979   -1922.4191   -974.75942   -1160.6026   -2562.2839 
 6551000    262.41891   -3845.2149   -3395.4379   -3845.2149            0    7143.5534    17.114016     20.15805    20.879059    7202.9658     6824.834    9280.8371     5324.989   -1311.6482    880.09361    1497.3614   -2645.0228 
 6552000    255.15434   -3852.8539   -3415.5281   -3852.8539            0    9210.6123    17.016284    20.042935    20.759826    7080.2687    9314.1591    8326.9617     9990.716     542.5803     573.7908   -846.13886   -2464.4545 
 6553000     267.5681   -3902.7851   -3444.1825   -3902.7851            0    9244.6614    17.007749    20.032881    20.749413    7069.6199    10999.057    7767.7699    8967.1576   -569.99592   -38.435439   -511.90468   -2491.0288 
 6554000    286.61811   -3886.3254   -3395.0718   -3886.3254            0    6304.1146    17.028954    20.057858    20.775284    7096.0964    6294.6695    6472.5931    6145.0812    31.514375   -2200.2612   -826.79211   -2742.6635 
 6555000    261.88054   -3865.7878   -3416.9335   -3865.7878            0     5296.574    17.028326    20.057119    20.774518    7095.3114    4333.6104    5496.6332    6059.4785    237.47203   -1037.1366    429.21685   -2868.8555 
 6556000    278.76602   -3882.3486   -3404.5532   -3882.3486            0    7040.7691    17.010311      20.0359     20.75254    7072.8163    7241.9403    6957.4857    6922.8814   -609.31625   -969.18186      1001.68   -2678.2994 
 6557000    275.36624   -3902.8618   -3430.8934   -3902.8618            0     7555.832    17.018431    20.045463    20.762446    7082.9489     6671.323    8665.7865    7330.3864    415.89501    365.36867    976.94845   -2650.3945 
 6558000    273.04316   -3920.8668   -3452.8802   -3920.8668            0     6891.121    17.019911    20.047208    20.764252    7084.7981    7729.1886    6435.8714    6508.3032   -63.430966    -2056.001   -1045.2813   -2740.8584 
 6559000    263.95497   -3881.0238    -3428.614   -3881.0238            0    9771.2135    16.930438    19.941819    20.655094      6973.65    9530.3918    10438.114    9345.1343   -423.54815    185.52319    205.12401   -2434.8471 
 6560000    263.60542    -3918.417   -3466.6064    -3918.417            0    8803.5143    16.993007    20.015518    20.731429     7051.253    8793.6058    8272.8237    9344.1134    -754.5778    1225.8424   -414.82826   -2561.2944 
 6561000    261.40695   -3891.1652   -3443.1227   -3891.1652            0    7270.4825    16.993365     20.01594    20.731866    7051.6989    9968.1391    6280.4993    5562.8093   -1463.1502    34.376012    767.45565   -2695.4132 
 6562000    269.03569   -3867.7205   -3406.6025   -3867.7205            0    8468.8343    16.999024    20.022605     20.73877    7058.7463    8391.9206    9832.0666    7182.5158   -758.43801    1290.0362    986.31707    -2534.782 
 6563000    273.23004   -3836.5287   -3368.2217   -3836.5287            0    8169.1789    16.941437    19.954775    20.668514     6987.251    9025.0816    7193.8144    8288.6406     343.4837    1915.9748    563.70163    -2535.767 
 6564000    266.92667   -3867.8409   -3410.3377   -3867.8409            0    8279.8373    16.893355    19.898141    20.609854    6927.9274    6684.7825    8756.7625    9397.9669   -475.06254   -271.60699    1977.4841   -2573.7701 
 6565000    260.41461    -3896.397   -3450.0553    -3896.397            0    7854.2189    16.913921    19.922365    20.634945    6953.2607    6784.8402    8811.1369    7966.6794     2304.945    2828.7075   -1520.0501    -2653.589 
 6566000     273.9807    -3848.319   -3378.7254    -3848.319            0    6499.6822    16.981031    20.001412    20.716818    7036.3554    7911.0947    5696.6248    5891.3271   -518.51285    513.92137   -784.05579   -2711.7409 
 6567000    250.29858   -3868.9009   -3439.8977   -3868.9009            0    7069.0499    16.977921    19.997748    20.713024    7032.4894    8964.8319    6319.2311    5923.0867    617.48111   -1424.3383    1134.7878   -2714.8843 
 6568000    266.98165   -3862.0673   -3404.4699   -3862.0673            0    8797.0715    16.957006    19.973113    20.687507    7006.5317    8909.6491    9976.7884     7504.777    392.04349    585.40929    -901.6066    -2505.558 
 6569000    253.79438   -3900.0751   -3465.0802   -3900.0751            0    7812.9248    16.930683    19.942108    20.655393    6973.9526    9380.3608    7603.2087    6455.2048   -803.92228   -919.22852   -477.41802   -2670.4437 
 6570000    268.03139    -3883.522   -3424.1254    -3883.522            0     7844.254      16.9818    20.002317    20.717756    7037.3113    6108.9084    8214.2023    9209.6513   -332.44021   -133.92725   -217.54767   -2619.0542 
 6571000     252.9701   -3865.3091    -3431.727   -3865.3091            0    6660.4392    16.983153    20.003911    20.719407     7038.993    5189.8993    6597.5774     8193.841    828.78898    534.18991    -1640.226   -2747.9897 
 6572000    269.41674    -3836.472   -3374.7009    -3836.472            0    8339.7396    16.991964    20.014289    20.730156    7049.9542    8777.9244    7715.0169    8526.2776    1412.4878    928.52406   -36.456041   -2517.2393 
 6573000    248.96381   -3885.3118   -3458.5963   -3885.3118            0    9127.3858    16.950573    19.965536    20.679659    6998.5608    10308.809    8252.7141    8820.6346    1742.6871    877.31752    -470.4469    -2526.993 
 6574000    266.81414   -3890.2503     -3432.94   -3890.2503            0    7000.9912    16.978096    19.997954    20.713237    7032.7069    6108.8917    6192.1141    8701.9679    340.69516     3328.051    807.89728   -2714.8846 
 6575000    275.06384   -3900.7632   -3429.3132   -3900.7632            0    10578.083    16.899697     19.90561    20.617591    6935.7323    10655.214    10738.314    10340.721    1246.5597    635.08918   -921.13473   -2359.3344 
 6576000    254.58493    -3856.564   -3420.2141    -3856.564            0    9793.9827    16.911942    19.920033    20.632529    6950.8194    10462.109    10216.359    8703.4795    1343.6051   -634.97827   -801.77525   -2427.3925 
 6577000    254.49744   -3869.8125   -3433.6126   -3869.8125            0    7532.4216    16.938306    19.951087    20.664693     6983.377    7124.2603    7886.1441    7586.8605     25.54217   -13.527155   -612.90674   -2666.4702 
 6578000    267.77478   -3840.6033   -3381.6465   -3840.6033            0    8018.9902    16.959683    19.976266    20.690774     7009.851    8671.0194    7461.9829    7923.9683   -562.09542   -1135.8574   -328.67738   -2561.8533 
 6579000    255.52546   -3889.9914   -3452.0295   -3889.9914            0    7404.9793    16.938237    19.951006     20.66461     6983.292    7284.0676    6467.2414    8463.6289     2225.324   -779.94196   -2223.5811   -2697.8757 
 6580000     280.5049   -3880.0969   -3399.3211   -3880.0969            0    7015.6181    16.942612    19.956159    20.669947    6988.7048    7404.0719    6906.8451    6735.9375    1382.3422   -882.65749    1045.3261   -2684.2676 
 6581000    259.93822   -3871.7974   -3426.2722   -3871.7974            0    7660.0702    16.994478    20.017251    20.733224    7053.0849    6698.4665    9757.5316    6524.2125    343.82802    270.36292   -213.68708    -2638.342 
 6582000    258.18842   -3885.4846   -3442.9585   -3885.4846            0    7874.9687    16.961375    19.978259    20.692838    7011.9491    5762.3337    8793.2494    9069.3228    34.942765   -217.99385    16.913411   -2637.6478 
 6583000    255.73239   -3872.0238   -3433.7073   -3872.0238            0    7184.8978    16.951736    19.966906    20.681078    7000.0015    7929.6351    6809.5747    6815.4837   -417.89777   -747.99184    557.64942   -2700.2166 
 6584000    274.86608   -3842.3264   -3371.2154   -3842.3264            0    6996.4208    16.952288    19.967556    20.681752    7000.6856    7066.9235    7373.3346    6549.0043    161.67216   -1543.1122   -364.49381   -2656.8961 
 6585000    258.55544   -3854.7694   -3411.6143   -3854.7694            0    9361.7032    16.948268    19.962821    20.676847    6995.7057    8417.2903    10747.181    8920.6382     581.6494    271.29458    -1554.322   -2456.4847 
 6586000    268.20161   -3873.9735   -3414.2852   -3873.9735            0    8406.8126    16.922259    19.932186    20.645117    6963.5487    6776.3758    8103.0698    10340.992    504.89453    740.88904     1308.687   -2560.5211 
 6587000    269.79607   -3878.4334   -3416.0122   -3878.4334            0    9415.4657     16.84646    19.842905    20.552642    6870.3927    10060.535    10948.532    7237.3293    650.13808   -769.81799   -81.167538   -2472.6048 
 6588000    269.80056   -3827.3935   -3364.9646   -3827.3935            0     7939.618    16.940854    19.954089    20.667803    6986.5296     6984.059    9127.2502    7707.5446   -190.77019   -89.200319   -904.61087    -2555.986 
 6589000    248.86559    -3887.924   -3461.3769    -3887.924            0    7212.9375     17.02279    20.050598    20.767764    7088.3929    6360.7155    8967.3731     6310.724     379.0114   -742.60025   -6.2060174   -2715.7255 
 6590000      270.466   -3883.2217   -3419.6522   -3883.2217            0    9434.8698    16.923456    19.933596    20.646577    6965.0265    8781.6993    12369.637    7153.2735   -196.19418    2528.2816    34.609155   -2461.2792 
 6591000    258.94513     -3877.03   -3433.2069     -3877.03            0    7988.2943    16.882206    19.885009    20.596252    6914.2202    7313.9286    8337.0668    8313.8874    -629.8922     126.5425   -634.24647   -2627.6928 
 6592000    278.54938    -3872.202   -3394.7779    -3872.202            0    9255.5415    16.959517    19.976071    20.690571    7009.6454    9446.6734    9782.5175    8537.4336    1198.6196   -403.94124    980.63744   -2448.5979 
 6593000    259.22853   -3902.2445   -3457.9357   -3902.2445            0    8311.0702    16.931665    19.943264    20.656591    6975.1663    10772.279    8038.8173    6122.1142   -521.50037    295.15204    1119.1261   -2612.4867 
 6594000    269.56192   -3908.2553   -3446.2353   -3908.2553            0    6808.5731    16.998871    20.022425    20.738583    7058.5556    5208.2137     9103.794    6113.7117   -7.0676694    1220.4527   -1556.2635   -2745.3486 
 6595000    258.37927     -3891.84   -3448.9867     -3891.84            0    10493.592    16.924136    19.934397    20.647406    6965.8658    10704.437    9014.8868    11761.452    63.265297   -161.34984    95.314504   -2382.9427 
 6596000    274.20603    -3865.658   -3395.6783    -3865.658            0    7180.9618    16.981764    20.002275    20.717713    7037.2668     7085.035    6712.1214    7745.7289    -717.3646    429.48836   -547.19963   -2658.6867 
 6597000    269.08996   -3861.5847   -3400.3737   -3861.5847            0     8388.788    16.978172    19.998044     20.71333    7032.8016    8592.5838     6715.702    9858.0781   -22.973232   -29.376798    127.35487   -2539.9676 
 6598000    262.28305   -3889.2084   -3439.6643   -3889.2084            0    8168.2711    16.969668    19.988027    20.702955    7022.2394     8828.283    7918.7454     7757.785   -1231.1248   -146.87583   -658.08197    -2603.134 
 6599000    269.91667   -3885.5863   -3422.9583   -3885.5863            0    8881.6934    16.988095    20.009731    20.725436    7045.1395     7863.952    9468.4954    9312.6328   -1065.2875   -193.60934    2233.0306   -2510.3987 
 6600000    260.13931   -3878.6479   -3432.7781   -3878.6479            0    7880.5519    16.992226    20.014598    20.730477    7050.2814    8929.1122    7767.9379    6944.6057    1379.4335   -612.28796   -124.07002   -2622.4909 
 6601000    265.94125   -3899.5055   -3443.6913   -3899.5055            0    10275.014    16.904318    19.911054    20.623229    6941.4241    9548.6646    10816.753    10459.625    2192.9503     99.00909   -614.57387   -2403.5151 
 6602000     267.5383   -3844.5116   -3385.9601   -3844.5116            0    6814.9186    17.024832    20.053004    20.770256    7090.9452    5910.0353    7151.8608    7382.8597   -874.03265    219.68663   -409.80762    -2681.201 
 6603000    262.58518   -3808.1372   -3358.0752   -3808.1372            0    10339.911    16.918624    19.927905    20.640682    6959.0625    11153.814    9589.4696    10276.449    1183.3008    454.85011   -821.46403   -2308.6695 
 6604000    260.01277   -3844.0204   -3398.3674   -3844.0204            0    7985.4523    16.955028    19.970784    20.685095    7004.0808    7958.1172    8071.5476    7926.6922    806.24045    933.01981    1228.0353   -2582.6748 
 6605000    272.35651   -3840.0263   -3373.2165   -3840.0263            0    8874.3118    16.932978    19.944812    20.658194    6976.7899    9538.0104    7880.4461     9204.479   -663.78719   -287.49363   -1563.1058   -2470.2613 
 6606000    245.14654   -3844.9665   -3424.7937   -3844.9665            0     8338.293    16.982558    20.003211    20.718682    7038.2541    9041.4269    5547.7208    10425.731   -344.57986   -465.32255    1310.5022   -2568.9037 
 6607000    252.30759   -3859.7008   -3427.2543   -3859.7008            0    7246.3982    16.979427    19.999522    20.714861    7034.3614    8350.3078    8926.5078    4462.3791    406.74286   -844.20907    1236.7072   -2683.8539 
 6608000    265.41295   -3850.6657    -3395.757   -3850.6657            0    8215.4245    16.962709    19.979831    20.694466     7013.604    9089.2766    9370.8787    6186.1182    111.15881      4.08426    102.42067   -2555.4323 
 6609000    264.27277   -3859.9883   -3407.0338   -3859.9883            0    9716.5887    16.906168    19.913232    20.625485    6943.7024    9482.0157    9331.6101     10336.14    -2306.576    1118.0239   -1422.4823   -2423.0662 
 6610000    259.37404   -3852.7766   -3408.2184   -3852.7766            0     9463.726    16.954885    19.970615     20.68492     7003.903    11062.765     8641.717    8686.6958      321.315    1732.1348   -384.03616   -2441.5485 
 6611000    256.93569   -3829.0089   -3388.6299   -3829.0089            0    8208.3286    16.985624    20.006821    20.722422    7042.0662    6501.7431    9303.6386    8819.6043    351.64481   -1553.9695    1551.5371   -2545.6238 
 6612000    263.21455   -3866.6793   -3415.5385   -3866.6793            0    6830.5684     17.07774    20.115322    20.834803    7157.2603    6134.0801    6527.1436    7830.4815   -796.78983    -699.7583   -1540.6778   -2702.5549 
 6613000    266.20351   -3872.7798   -3416.5161   -3872.7798            0    7498.5329    16.962166    19.979191    20.693803    7012.9301    8131.4477    8124.6685    6239.4826    119.80581   -512.83806    698.90824   -2649.5932 
 6614000    270.49222   -3842.8301   -3379.2157   -3842.8301            0    8672.3588    16.938974    19.951874    20.665509    6984.2041    10327.271    6630.4437    9059.3617    -324.1391   -161.23544    362.39661   -2495.8713 
 6615000    268.79031   -3845.0524    -3384.355   -3845.0524            0    8342.7703    16.962804    19.979943    20.694582    7013.7219    8847.1773    7692.1055    8489.0282   -1446.8753    1105.7941    717.27952   -2530.9902 
 6616000    263.54801    -3863.703   -3411.9908    -3863.703            0    10214.188    16.911945    19.920038    20.632534    6950.8238    9374.7715    10442.639    10825.154     425.1735   -755.82381    877.71411   -2376.5721 
 6617000    262.53322   -3900.6275   -3450.6546   -3900.6275            0    7537.7367    16.981724    20.002228    20.717664    7037.2168    7205.8181      6087.32     9320.072    151.07875   -442.21304   -592.91432   -2677.0522 
 6618000    270.93032   -3890.7243    -3426.359   -3890.7243            0     7272.704    16.954922    19.970659    20.684965    7003.9493    8431.5444    7749.9022    5636.6652    1557.5651   -2464.1402   -1153.7838   -2683.4856 
 6619000    269.82897    -3865.204   -3402.7264    -3865.204            0    7874.5083    16.948298    19.962857    20.676884    6995.7437    8541.5835    7708.6057    7373.3357    -2420.573    119.40083   -1139.6569   -2599.3238 
 6620000    261.65227   -3856.4035   -3407.9405   -3856.4035            0    8882.0789    16.924279    19.934566    20.647581    6966.0429    10265.024    9040.9187    7340.2938   -147.09774    437.65676    1901.5654   -2505.5871 
 6621000    253.40666   -3868.0915   -3433.7611   -3868.0915            0     8250.133     16.96571    19.983365    20.698126    7017.3268    8345.9187    7887.3744    8517.1059   -159.38544    596.70672   -1427.4914   -2589.4383 
 6622000     275.8008   -3844.3252   -3371.6121   -3844.3252            0    5792.8035    17.050506    20.083244    20.801578    7123.0738    5193.6294    5869.2382    6315.5428    -69.16621   -2071.7576    1253.0942   -2769.8399 
 6623000    256.56155   -3865.1449   -3425.4072   -3865.1449            0    7384.2773    16.962021     19.97902    20.693626    7012.7499    7434.5802    8162.6818      6555.57    485.85792   -177.06451    527.92025   -2670.1894 
 6624000    277.77554   -3839.1149   -3363.0171   -3839.1149            0    8161.8234    16.938518    19.951337    20.664952    6983.6397    5834.2531    9956.0871    8695.1301   -1544.7393    544.90349    3404.6284   -2531.7417 
 6625000    266.17173   -3825.0007   -3368.7914   -3825.0007            0    10536.882    16.958398    19.974753    20.689206    7008.2573    12554.996    9540.6161    9515.0347   -1083.3664     750.8103   -673.92205   -2291.8352 
 6626000    260.94662   -3849.7019   -3402.4483   -3849.7019            0    7893.8092    16.963466    19.980723    20.695389     7014.543    7302.0573    7968.5799    8410.7904    454.85822    1563.7706    1596.6497   -2594.9123 
 6627000    275.35843   -3864.5869    -3392.632   -3864.5869            0    8082.9411    16.990572    20.012649    20.728458    7048.2217    9856.0821    6454.5393    7938.2019   -1343.1627    728.38466   -80.985743   -2561.7777 
 6628000    257.08573   -3827.0665   -3386.4303   -3827.0665            0    8255.9823    17.050943    20.083759    20.802111    7123.6208    8183.3451    9413.7517    7170.8502   -337.32717    449.47752   -313.21565   -2528.7105 
 6629000    261.07981   -3850.8145   -3403.3326   -3850.8145            0    7802.3948    17.072303    20.108918     20.82817    7150.4258    8474.5988    8234.4579    6698.1277   -327.15166   -549.95041   -1064.6987   -2589.6862 
 6630000    264.40907   -3893.0218   -3439.8337   -3893.0218            0    8248.3443    16.969337    19.987638    20.702552    7021.8289    8847.2855     6971.515    8926.2322   -383.08339     1158.256    180.00775   -2595.1523 
 6631000    270.99403    -3900.997   -3436.5225    -3900.997            0    8363.5934    16.943388    19.957073    20.670893    6989.6644    7760.4183    8334.8975    8995.4645   -622.21823   -1066.1711   -1124.6009   -2583.9622 
 6632000     261.6729   -3837.8438   -3389.3454   -3837.8438            0    8670.2192    17.013308     20.03943    20.756197    7076.5555    9353.1142    8958.6376    7698.9057   -607.05688   -1048.2521   -75.083688   -2494.5415 
 6633000    253.46196   -3843.3166   -3408.8915   -3843.3166            0    9749.2166    16.983108    20.003858    20.719352    7038.9377    12208.091    8383.5611    8655.9978   -694.68582    1191.9281    261.10005    -2408.079 
 6634000    261.03703   -3888.9199   -3441.5113   -3888.9199            0    7038.1877    17.013132    20.039222    20.755981    7076.3349    8038.3648     5790.239    7285.9593   -1521.0533    1091.4049   -262.36334   -2715.1627 
 6635000    257.72664   -3865.5239   -3423.7892   -3865.5239            0    7322.6099    16.993612    20.016231    20.732167    7052.0066    7985.8387     6642.565    7339.4262   -462.98856   -304.81408    -522.6477    -2670.686 
 6636000    265.18749   -3843.9275   -3389.4052   -3843.9275            0     10785.24    16.933803    19.945783      20.6592    6977.8095    11781.886    9193.8285    11380.006    644.07149   -217.25635    900.77507   -2291.8539 
 6637000    252.54362   -3832.7765   -3399.9254   -3832.7765            0    7791.7363    16.993844    20.016503     20.73245    7052.2947    8531.2636     8645.262    6198.6832   -1130.9323   -631.94426    541.99066   -2598.5416 
 6638000    267.57343   -3851.9701   -3393.3584   -3851.9701            0    8824.3985    16.973089    19.992057    20.707129    7026.4877    10399.686    7401.7871    8671.7226   -850.13227   -485.35144    315.13857    -2489.086 
 6639000    254.33536   -3903.8644   -3467.9423   -3903.8644            0    7628.3127    16.877392    19.879339    20.590379    6908.3071    9528.2858    5583.9668    7772.6855    -261.5611     226.5061   -640.76626   -2699.3854 
 6640000     260.2587   -3863.1141   -3417.0395   -3863.1141            0    10999.603     16.97587    19.995333    20.710522     7029.942    9825.5585    11813.665    11359.585    -580.6943     319.4762    259.75114   -2289.3109 
 6641000    244.83282   -3860.1649   -3440.5299   -3860.1649            0    7593.8296     17.00084    20.024744    20.740985    7061.0087    6649.6116    7110.7679    9021.1094    1081.6559     1187.336    2172.4019   -2658.5358 
 6642000    252.50224   -3868.3215   -3435.5413   -3868.3215            0    7251.4164    17.002718    20.026956    20.743276    7063.3484      8184.43    6979.6711    6590.1482    401.78131   -112.69907     630.6745   -2688.5607 
 6643000    250.38514   -3857.2701   -3428.1185   -3857.2701            0    9504.1283    16.967057    19.984952     20.69977    7018.9985    8753.5615     9385.363     10373.46    2001.3382    813.12869   -1335.8104   -2455.2294 
 6644000    270.28272   -3877.3389   -3414.0835   -3877.3389            0     8868.947    16.927357    19.938191    20.651337    6969.8444     9641.242    9101.4461    7864.1528   -2089.0724    -351.8281   -246.04278   -2512.5725 
 6645000    269.96647   -3835.9059   -3373.1926   -3835.9059            0    8119.4906    16.945602    19.959681    20.673595    6992.4056    8140.2998    7918.3043    8299.8676   -1272.2122    627.28508    117.28563   -2545.1908 
 6646000     261.0761   -3878.8919   -3431.4164   -3878.8919            0    6481.5389    17.032845    20.062442    20.780031    7100.9619    6902.2603    5477.1495    7065.2069    -243.1298   -1177.9027    1003.6404   -2760.1867 
 6647000    252.48455   -3849.2978   -3416.5479   -3849.2978            0      9998.13    16.910555      19.9184    20.630837    6949.1092    10538.218    9413.7841    10042.388    994.11227    297.11586    420.89069   -2403.2811 
 6648000    258.27352   -3891.1029   -3448.4309   -3891.1029            0    7962.3988    17.016916    20.043679    20.760598     7081.058    8169.1456    6337.5174    9380.5333    81.263408    255.90349    846.12898   -2626.1543 
 6649000    271.95081   -3866.9352   -3400.8208   -3866.9352            0    7222.8297    17.105968     20.14857    20.869241     7192.809    7426.1999    8912.5707    5329.7185   -338.20247    677.38979   -1394.4793   -2643.1479 
 6650000    259.36701   -3885.6567   -3441.1105   -3885.6567            0    5348.0548    17.108645    20.151725    20.872508    7196.1875      5024.83    4936.4666    6082.8679   -231.33964    76.099327   -1323.2316   -2879.8375 
 6651000    268.69889   -3842.3522   -3381.8115   -3842.3522            0    8729.1594    17.029051    20.057973    20.775403     7096.218     7491.111    7559.7443    11136.623    459.73839    15.505593     1908.348   -2478.4215 
 6652000    250.29642   -3887.3894   -3458.3899   -3887.3894            0    7620.5805    17.034427    20.064305    20.781961    7102.9405     7428.901    5671.4146    9761.4258    -679.2837    140.31053   -890.88091   -2668.9808 
 6653000    268.47436   -3883.3537   -3423.1978   -3883.3537            0    5430.1136    17.048873    20.081321    20.799586     7121.027    5835.6657    5987.3579    4467.3174    239.00117    1049.9409    423.60143   -2859.2649 
 6654000    254.97107   -3860.1981   -3423.1864   -3860.1981            0    9038.0339    16.965934    19.983629    20.698399    7017.6042     9632.929    9677.4863    7803.6865   -58.176366    742.14034   -319.59696   -2498.1928 
 6655000    262.21017   -3864.6024   -3415.1831   -3864.6024            0    7905.3608    16.921581    19.931388     20.64429     6962.712    8572.2734    7484.4312    7659.3777    2501.6567    496.35312    -233.3222    -2612.441 
 6656000    244.99879   -3875.7153   -3455.7958   -3875.7153            0    8790.3559    16.914173    19.922661    20.635251    6953.5704    8882.6126    9379.2239    8109.2314    2374.7901   -1540.2364    -167.1405   -2564.3597 
 6657000    250.60953   -3868.8696   -3439.3334   -3868.8696            0     8324.624    16.924223      19.9345    20.647513    6965.9739    8677.8145    8330.8226    7965.2349   -798.95564    939.09493   -864.35994   -2593.6217 
 6658000    264.06285   -3893.5038   -3440.9092   -3893.5038            0    6771.9879    17.003937    20.028392    20.744764    7064.8683    5876.7576    8956.7303    5482.4758   -749.47768   -933.49983    401.26591   -2743.1651 
 6659000    268.21424    -3887.759    -3428.049    -3887.759            0    8644.9651    17.039898     20.07075    20.788636     7109.787    8501.0583    9751.2242    7682.6128   -414.33804    780.50715   -1343.5773   -2531.6616 
 6660000    269.74066   -3848.2507   -3385.9244   -3848.2507            0    8822.7844    17.015271    20.041742    20.758591    7079.0049    8695.3237    8187.9034    9585.1262   -1275.9944   -217.11006   -1751.2947   -2475.0599 
 6661000    257.46348   -3883.8331   -3442.5495   -3883.8331            0    7800.6375    17.029113    20.058046    20.775478    7096.2949    8403.0056    7108.4312    7890.4758     1263.055    23.056321    -411.6369   -2635.2445 
 6662000    258.10026    -3839.918    -3397.543    -3839.918            0    10617.892    16.894043    19.898951    20.610693    6928.7733    11403.991      10844.2    9605.4833   -281.65594   -2382.8753    71.717956   -2324.6152 
 6663000    268.87164   -3868.6215   -3407.7847   -3868.6215            0    8314.6003    16.978062    19.997914    20.713196    7032.6647    8319.8909    7931.5572    8692.3529   -1130.0795    156.12569   -114.57222   -2555.0044 
 6664000    263.58992   -3859.9881    -3408.204   -3859.9881            0    8765.8317    16.981957    20.002503    20.717948    7037.5069    11179.654    6444.4574    8673.3835    462.25779   -384.94402    481.63858   -2508.5245 
 6665000    257.89974   -3870.1232   -3428.0919   -3870.1232            0    9537.7875    17.013881    20.040105    20.756895    7077.2702    8351.9703    11007.169    9254.2235    1433.2149    1132.3428    617.30279   -2443.6518 
 6666000    263.20791   -3836.5812   -3385.4519   -3836.5812            0    7347.1444    17.023739    20.051716    20.768922    7089.5795    7892.5507    6461.4838    7687.3985   -1045.8647   -38.600735    194.39397   -2625.7994 
 6667000    251.74275   -3895.7121   -3464.2336   -3895.7121            0    8333.2167    17.052506    20.085599    20.804017    7125.5797    9256.0349    7984.9092    7758.7059    952.85052    122.51757   -487.26198   -2598.2518 
 6668000    277.51125   -3836.7207   -3361.0759   -3836.7207            0    6216.7869    17.083813    20.122475    20.842212    7164.8976    6206.4907    6582.2458    5861.6243   -1656.2752    1905.9285    481.30016   -2711.4672 
 6669000    268.20529   -3832.2527    -3372.558   -3832.2527            0    8762.2739    17.086857    20.126061    20.845926    7168.7289    9251.0353    8327.3518    8708.4345   -533.39412    544.46643     995.5413   -2456.4749 
 6670000    259.09369   -3823.2249   -3379.1472   -3823.2249            0    10589.848    17.015418    20.041915    20.758771    7079.1888    10517.553     10873.89    10378.102   -950.29648    1321.3944   -1403.3875   -2285.8226 
 6671000     260.8002   -3832.9831   -3385.9805   -3832.9831            0    9047.9473     16.95277    19.968124     20.68234    7001.2824    9871.6082    8403.4509    8868.7829   -436.52983   -725.64273    774.36005    -2462.126 
 6672000    263.44211   -3854.5565   -3403.0258   -3854.5565            0    8130.0946    16.949322    19.964063    20.678133    6997.0114    9344.7499    7602.5313    7443.0027    2228.0652    1231.0448   -153.83359   -2573.3965 
 6673000    250.49799   -3851.6539   -3422.3089   -3851.6539            0    9922.3072    16.963502    19.980765    20.695433    7014.5877    10676.831    9240.4539    9849.6371    70.257657    227.65305    614.31508   -2407.2512 
 6674000     245.4574   -3852.5185   -3431.8129   -3852.5185            0    6198.2278    16.998784    20.022323    20.738477    7058.4475    5612.6615    9269.6954    3712.3266    826.14012   -1147.5278   -1547.8087    -2793.766 
 6675000     267.7615   -3858.5704   -3399.6364   -3858.5704            0    6936.5856    17.037015    20.067353    20.785118    7106.1783     8306.884    4994.2865    7508.5865   -210.75055   -215.67659   -879.32736   -2680.7541 
 6676000    270.78902   -3863.0676   -3398.9445   -3863.0676            0    11544.612    16.913298    19.921631    20.634184    6952.4914    12751.363    11656.413    10226.059   -593.33284   -1554.4504   -919.27851   -2228.3791 
 6677000    263.52561   -3842.6883   -3391.0144   -3842.6883            0    7446.3942    17.029646    20.058673    20.776128    7096.9611    8764.9165    6955.6446    6618.6215    601.04399    483.54097    92.134813   -2620.2985 
 6678000    254.99685   -3846.7502   -3409.6943   -3846.7502            0    7790.1742    16.977332    19.997054    20.712305    7031.7577    9447.5075    7522.7964    6400.2187   -124.67283    -339.7793   -1254.5701   -2610.8044 
 6679000    263.07533   -3890.8539   -3439.9518   -3890.8539            0    9907.2746    16.914124    19.922604    20.635192    6953.5108     12556.73    9132.7647    8032.3292    1582.0351   -982.20529   -1237.0643   -2435.2568 
 6680000    250.79458   -3872.0476   -3442.1943   -3872.0476            0    7993.3751    16.999143    20.022746    20.738915    7058.8948    9543.5472    6508.3132    7928.2648    737.39218   -506.03227   -1885.1367   -2619.3024 
 6681000    266.58964   -3858.7569   -3401.8314   -3858.7569            0    9323.0174    16.986032    20.007302    20.722919    7042.5734    9825.9578    9380.5518    8762.5424    972.55819    586.01691   -582.81104   -2444.2763 
 6682000    280.31372   -3821.9348   -3341.4866   -3821.9348            0     9640.567    16.941048    19.954317     20.66804    6986.7699    9845.8142    8459.1175    10616.769    990.33771    1046.6412   -1644.4493   -2359.1623 
 6683000    252.23699    -3853.517   -3421.1914    -3853.517            0    9282.9531    16.937219    19.949807    20.663368    6982.0334    9957.0742    8737.6858    9154.0993    577.81309       1086.6    105.67884   -2475.9473 
 6684000    252.37337   -3858.9637   -3426.4043   -3858.9637            0    11559.605    16.920402    19.929999    20.642851    6961.2565     12511.37    11143.534    11023.911   -1195.5819    918.67141   -901.01876    -2252.841 
 6685000    254.78882   -3835.1712   -3398.4718   -3835.1712            0    10241.124    16.954494    19.970154    20.684443    7003.4186    11643.625    9710.6992    9369.0472    1490.0023    950.82744    1134.6984   -2352.4672 
 6686000    269.05198   -3833.7887   -3372.6428   -3833.7887            0     8504.257    16.954325    19.969955    20.684236    7003.2088    9003.8186    9272.7768    7236.1756     2103.415    1029.9048    920.97128   -2504.0638 
 6687000    252.44174   -3830.2594   -3397.5829   -3830.2594            0    7937.7603    16.988824    20.010591    20.726326    7046.0476     10265.82    5319.2517    8228.2091    39.533384    690.72129    1851.0797   -2581.9036 
 6688000    285.83985   -3858.4189   -3368.4992   -3858.4189            0    11180.905    16.923928    19.934151    20.647152    6965.6088    11563.374     11087.75    10891.592    194.37003    1486.3885   -880.12105   -2232.6728 
 6689000     249.1954   -3861.3374    -3434.225   -3861.3374            0    8469.6121    16.909331    19.916959    20.629345    6947.6015    7865.1233    9522.4418    8021.2712    1835.2086   -141.14054    602.89673   -2576.0531 
 6690000    282.24113   -3839.3609   -3355.6093   -3839.3609            0    9562.8816    16.942243    19.955725    20.669497    6988.2484    8954.1059    11389.212     8345.327    1785.3523   -129.28367      240.535   -2380.9944 
 6691000    273.51722   -3858.3514   -3389.5523   -3858.3514            0    7628.0573    16.948176    19.962713    20.676735    6995.5923    8784.8139    7017.7488    7081.6091    303.72884   -286.32487    545.46283   -2611.3109 
 6692000    265.07492   -3845.8257   -3391.4964   -3845.8257            0    8481.1201     17.01577     20.04233      20.7592    7079.6276    8267.8683    8562.0487    8613.4432   -210.10462    2.8771051    339.35541   -2515.8283 
 6693000    262.28832   -3834.3142    -3384.761   -3834.3142            0    9954.5072    16.945601     19.95968    20.673594    6992.4043    10775.402    10456.399     8631.721    272.70355    -21.00927   -857.88496   -2369.6298 
 6694000    271.73127   -3851.9943   -3386.2562   -3851.9943            0    9710.0117    16.908385    19.915845    20.628191    6946.4354    9098.0378    10477.709    9554.2885     370.0561    219.25046   -197.83971   -2402.5676 
 6695000    273.47098   -3869.4575   -3400.7376   -3869.4575            0     6664.695    17.004625    20.029202    20.745602    7065.7251    6677.6078    7221.1023     6095.375   -520.37251   -2481.8484    1374.7601    -2713.965 
 6696000    267.22652   -3865.2068   -3407.1897   -3865.2068            0    7040.2869     17.01234    20.038289    20.755015    7075.3472    7258.4624    6917.6949    6944.7034   -682.04339    965.18302    298.97749   -2680.7258 
 6697000    246.98974   -3810.7845   -3387.4525   -3810.7845            0    8526.3669    16.941137    19.954421    20.668147    6986.8789    8392.2608     9115.664    8071.1758   -572.67182    797.89751   -682.72147   -2518.6459 
 6698000    270.87922   -3886.0361   -3421.7583   -3886.0361            0    8110.1881    16.975607    19.995022      20.7102    7029.6142    6394.5209    9400.7035    8535.3398    1412.3087    -1176.486    674.90168   -2590.3042 
 6699000    258.17264   -3806.7302   -3364.2312   -3806.7302            0    11396.599    16.913594    19.921979    20.634545    6952.8563    10234.001    10388.333    13567.463    1820.0642    677.32472   -250.52396   -2208.6129 
 6700000      261.208   -3864.9403   -3417.2387   -3864.9403            0    8925.7895    17.011046    20.036765    20.753436    7073.7327    8519.5985    9253.0098    9004.7604    632.14016   -271.13771   -772.34486   -2496.4263 
 6701000    265.59483   -3860.0938   -3404.8734   -3860.0938            0    7760.6745    16.937627    19.950287    20.663865    6982.5376    7260.0809    9102.8002    6919.1424   -290.88851   -1258.2678    823.61289   -2614.5795 
 6702000    257.02712   -3847.3764   -3406.8407   -3847.3764            0    10272.014    16.943175    19.956823    20.670634    6989.4019    11308.404    9937.0827    9570.5566   -995.66717    81.202412    216.12603   -2359.7808 
 6703000    262.36287   -3921.1457   -3471.4647   -3921.1457            0    7285.1991    17.041813    20.073004    20.790972    7112.1834     7510.064    7712.3014    6633.2318   -432.66425    631.27521     96.67282   -2715.8155 
 6704000     254.1961   -3897.9197   -3462.2363   -3897.9197            0     7368.708    17.025839     20.05419    20.771484    7092.2032     5417.923    6261.3032    10426.898   -757.23001     122.3908   -482.47102   -2700.0724 
 6705000    271.80058   -3947.2511   -3481.3942   -3947.2511            0    7753.8079    16.984009    20.004919    20.720451    7040.0578    7367.6378    8357.2778     7536.508    536.86606   -635.73962   -237.93185   -2685.2951 
 6706000    256.73558   -3893.0666   -3453.0306   -3893.0666            0    8996.1233    16.885991    19.889467     20.60087    6918.8713    10023.348    7609.3477    9355.6739    105.18154    564.27466   -1801.8391     -2545.28 
 6707000    264.49353   -3896.5723   -3443.2394   -3896.5723            0    7739.3659    16.957367    19.973539    20.687948    7006.9796    7618.5306     6828.822    8770.7452   -286.82084    293.55204   -1297.0766   -2652.3566 
 6708000    265.70989   -3869.0534   -3413.6357   -3869.0534            0    9380.1629    16.926893    19.937645     20.65077    6969.2713    11075.162    7997.0808    9068.2463    810.99321   -191.17025   -1008.4178    -2460.239 
 6709000     256.7129   -3878.2532    -3438.256   -3878.2532            0    8812.9276    16.917853    19.926996    20.639741    6958.1101     7282.833    10264.645    8891.3044   -263.08509     1872.015   -49.077611   -2543.9475 
 6710000     268.7543     -3868.43   -3407.7944     -3868.43            0    9090.3175    16.958376    19.974727    20.689179      7008.23    9826.0499    8666.5044    8778.3982    1334.2313    1662.4461    758.30997   -2478.6926 
 6711000    268.92542   -3896.5011   -3435.5721   -3896.5011            0    7985.8436    16.972625     19.99151    20.706563    7025.9107    7989.2854    8266.4532    7701.7922   -489.65137    357.89911    411.51442    -2617.297 
 6712000    255.06962    -3849.158   -3411.9774    -3849.158            0    9015.4761    16.933717    19.945681    20.659095    6977.7026    8627.1844    9764.5944    8654.6494   -936.32159    562.06254    1693.0629   -2494.5388 
 6713000    271.88743   -3864.6069   -3398.6012   -3864.6069            0    8346.6565    16.977879    19.997699    20.712973    7032.4378    10911.602    6832.2726    7296.0953    378.60689    815.95389   -383.49044   -2542.5606 
 6714000    254.09687   -3841.3064    -3405.793   -3841.3064            0     9427.702    16.967311    19.985251    20.700079    7019.3132    10837.673    7227.9247    10217.508   -192.77396    476.05774    513.15692    -2440.684 
 6715000    242.51334   -3877.5905    -3461.931   -3877.5905            0    8467.8801    16.938814    19.951685    20.665313    6984.0055    7693.5353     9578.227     8131.878   -33.370065   -1859.5048   -79.732395   -2599.4388 
 6716000    254.30961   -3870.2831   -3434.4051   -3870.2831            0    6210.1982    17.026439    20.054896    20.772216    7092.9525     7134.685    4579.8298    6916.0799     1428.726   -847.79816    408.17633   -2792.0009 
 6717000     258.5991   -3870.0309   -3426.8009   -3870.0309            0    8795.5952     16.94715    19.961504    20.675484     6994.322    10453.614    8503.4338    7429.7372   -99.321641    1947.5293    674.45353   -2529.6061 
 6718000    268.84698   -3860.8784   -3400.0839   -3860.8784            0     7176.358    17.025617    20.053928    20.771213    7091.9254    8313.1575    5731.5895     7484.327   -539.71585   -741.12767    -674.9457   -2657.8443 
 6719000    268.93613   -3860.5743    -3399.627   -3860.5743            0    7499.9501    17.027765    20.056458    20.773834    7094.6106    9155.3688     6934.877    6409.6045    1465.7373    1004.8448    -1409.172    -2623.625 
 6720000    262.97422   -3896.8319   -3446.1031   -3896.8319            0    9096.5338    16.958301    19.974639    20.689088    7008.1376    8561.1056    9647.6442    9080.8517    1197.4772    29.611138   -530.10848   -2516.3782 
 6721000    263.30649   -3885.9715   -3434.6732   -3885.9715            0    8429.4328    17.040522    20.071484    20.789397    7110.5677    7796.9319    9267.2342    8224.1322   -1711.7767    1054.6846   -995.99725   -2560.5382 
 6722000    253.25933   -3896.1649   -3462.0871   -3896.1649            0    8428.7438    17.062696    20.097602    20.816449    7138.3619    8220.1044    7923.1792    9142.9478   -273.37267   -300.38229   -973.30469   -2584.6069 
 6723000    246.64878   -3848.1367   -3425.3892   -3848.1367            0    7376.6726    17.010188    20.035754    20.752389    7072.6619    7507.8292    6536.4756    8085.7129     144.9655   -712.06364     673.2407   -2664.5037 
 6724000    265.96272   -3868.7322   -3412.8812   -3868.7322            0    9942.1054    17.021761    20.049387    20.766509    7087.1086    10921.231    9501.8667    9403.2184    80.535789    120.41127    663.83175    -2385.283 
 6725000    261.25381   -3893.1612   -3445.3811   -3893.1612            0    9553.3816    16.912975     19.92125     20.63379    6952.0935        10707    7739.4911    10213.653    715.59523   -1907.3622    28.947227   -2476.7719 
 6726000    263.45074   -3890.4592   -3438.9137   -3890.4592            0    7269.0024    17.014752    20.041131    20.757958    7078.3573    6147.0332    6779.9813    8879.9927    432.95863   -325.75034    1884.3069   -2688.5303 
 6727000    273.16938   -3836.6794   -3368.4764   -3836.6794            0    9297.9193    16.966863    19.984723    20.699533    7018.7575    7822.2867    8342.1357    11729.336   -693.37004     2992.898   -241.85081   -2416.7286 
 6728000    276.00733   -3876.0259   -3402.9588   -3876.0259            0    6522.9509    17.018924    20.046044    20.763047    7083.5645    6588.8275    7326.8335    5653.1916    258.48371   -689.30964   -71.453071   -2729.0954 
 6729000    263.35897   -3857.8335   -3406.4453   -3857.8335            0    8665.3546    16.904982    19.911836    20.624039    6942.2422    8130.7437    9533.0798    8332.2402   -307.33957   -102.95152     316.6506   -2529.1173 
 6730000    270.23903   -3854.5015   -3391.3211   -3854.5015            0     6213.843    17.095641    20.136407    20.856642      7179.79    5964.6315    5158.4027    7518.4948   -167.79481   -1069.9211    16.957238   -2740.6704 
 6731000    270.28221   -3848.2748   -3385.0204   -3848.2748            0    11622.325    16.954517    19.970181    20.684471    7003.4468    10931.107    11393.166    12542.702    71.090991    1066.8834    376.14753   -2197.9384 
 6732000    267.06367   -3873.5921   -3415.8541   -3873.5921            0       8617.9    17.022674    20.050462    20.767623    7088.2486    9426.1634    9025.5497    7401.9869   -132.44061    428.66174    -329.1489   -2524.9801 
 6733000    244.12363   -3847.4748   -3429.0553   -3847.4748            0    5845.3598    17.041864    20.073065    20.791034    7112.2477    5321.9595    7241.7917    4972.3284   -638.55359   -313.76632    949.16756   -2822.7463 
 6734000    255.65091   -3818.3361   -3380.1592   -3818.3361            0    10812.013    16.915769    19.924542    20.637199    6955.5397    11596.471    9877.3423    10962.225   -650.15423   -960.08673   -807.42616    -2283.395 
 6735000    251.72741   -3862.2573   -3430.8051   -3862.2573            0     9728.851    16.969143    19.987409    20.702314    7021.5873     9147.072    12317.503    7721.9778    101.83243    1220.8724    159.57812    -2434.545 
 6736000     270.6957   -3885.4047   -3421.4415   -3885.4047            0    9027.4319    17.009589    20.035049    20.751659    7071.9154    9475.6918    7816.3491    9790.2548    603.80785   -1667.9992    83.155331   -2490.3826 
 6737000    265.02202   -3874.7088   -3420.4701   -3874.7088            0    8613.9443    17.027362    20.055983    20.773342    7094.1061    8851.6048     8086.351    8903.8772   -483.90281   -108.26744   -1579.1438   -2529.2692 
 6738000    273.18758    -3867.846   -3399.6119    -3867.846            0    7618.6241    17.053596    20.086884    20.805347    7126.9467    9272.3072    7083.9326    6499.6325   -756.34868    1271.0257   -1201.7062   -2607.7381 
 6739000    271.44055   -3877.5357   -3412.2959   -3877.5357            0    7815.7804    16.986093    20.007374    20.722994    7042.6496    7491.2371    6976.1076    8979.9964     943.5696   -219.74608   -281.76751   -2609.5385 
 6740000     265.7816   -3871.6209   -3416.0804   -3871.6209            0    7749.6944    16.996901    20.020104    20.736179    7056.1014    8120.2961    8925.3652    6203.4218    620.34098   -378.56357   -646.46624   -2618.5903 
 6741000    256.06706    -3856.321   -3417.4308    -3856.321            0    7158.6829    17.020497    20.047897    20.764967    7085.5293    9069.1489    4874.6422    7532.2575   -1128.0226    767.43614    266.42464    -2677.687 
 6742000    264.46263   -3813.6766   -3360.3967   -3813.6766            0    8041.9526    16.942954    19.956561    20.670364    6989.1274    8507.9818    6359.9567    9257.9192    590.71453   -1075.2714    1525.1305   -2540.6865 
 6743000    261.93992   -3791.7211    -3342.765   -3791.7211            0    7677.4132    17.016945    20.043713    20.760633    7081.0938    7584.9721    8828.9556    6618.3117    1409.3388   -417.18228    452.96213   -2549.9148 
 6744000    261.72864   -3852.0091   -3403.4151   -3852.0091            0    8812.1584    16.943899    19.957675    20.671517     6990.297    8932.3467    8272.9586    9231.1699    1016.6567   -1442.1944    1638.3143   -2505.0481 
 6745000    271.62971   -3813.2955   -3347.7315   -3813.2955            0    8413.5238    17.001062    20.025005    20.741256    7061.2847    8240.0086    9010.3996    7990.1632   -125.83292    861.11186    329.31257   -2481.2934 
 6746000    281.05652   -3874.8505   -3393.1293   -3874.8505            0    9637.8544    16.996456     20.01958    20.735637    7055.5475    8196.8334    7891.9559    12824.774   -491.59713    -188.7459    1553.0937   -2401.4141 
 6747000    265.79726   -3853.3277   -3397.7603   -3853.3277            0     7594.028    16.977766    19.997566    20.712835    7032.2977    8964.4671    7474.3053    6343.3118   -440.70921   -580.05951   -1429.9477   -2618.9255 
 6748000    273.98821   -3835.2337   -3365.6273   -3835.2337            0     7872.386    17.018836    20.045941     20.76294    7083.4552     7553.626    6001.8709    10061.661    433.20072    2343.3121   -937.99592    -2552.371 
 6749000    254.18361     -3855.19    -3419.528     -3855.19            0     8131.211    17.035418    20.065473    20.783171    7104.1807    9279.0094    7533.4157    7581.2079    571.93822   -1280.0687    971.41312   -2577.0761 
 6750000    281.20165   -3861.4459   -3379.4759   -3861.4459            0    9445.7377    16.992623    20.015065     20.73096    7050.7746    8551.3609    9332.2541    10453.598    1090.6338    1367.9445    930.89057   -2408.1866 
Loop time of 341.784 on 64 procs for 250000 steps with 864 atoms

Performance: 126.395 ns/day, 0.190 hours/ns, 731.455 timesteps/s
194.7% CPU use with 32 MPI tasks x 2 OpenMP threads

MPI task timing breakdown:
Section |  min time  |  avg time  |  max time  |%varavg| %total
---------------------------------------------------------------
Pair    | 27.539     | 33.666     | 41.547     |  57.4 |  9.85
Bond    | 0.83637    | 1.1664     | 1.6075     |  17.3 |  0.34
Kspace  | 145.83     | 155.94     | 163.5      |  31.4 | 45.62
Neigh   | 3.5707     | 4.0219     | 4.3813     |  12.1 |  1.18
Comm    | 67.663     | 71.644     | 75.477     |  24.4 | 20.96
Output  | 0.53544    | 0.53579    | 0.53736    |   0.0 |  0.16
Modify  | 64.519     | 66.738     | 68.558     |  11.5 | 19.53
Other   |            | 8.074      |            |       |  2.36

Nlocal:        27.0000 ave          33 max          20 min
Histogram: 1 2 2 6 2 4 6 5 1 3
Nghost:        2629.97 ave        2672 max        2587 min
Histogram: 1 0 4 5 2 9 7 2 0 2
Neighs:        8742.59 ave       11355 max        6057 min
Histogram: 2 1 5 4 6 2 3 4 2 3

Total # of neighbors = 279763
Ave neighs/atom = 323.79977
Ave special neighs/atom = 2.0000000
Neighbor list builds = 14218
Dangerous builds = 1

unfix		3
unfix		2
unfix		1

write_data	data.final.${pid}
write_data	data.final.1
System init for write_data ...
PPPM initialization ...
  extracting TIP4P info from pair style
  using 12-bit tables for long-range coulomb (../kspace.cpp:340)
  G vector (1/distance) = 0.37417593
  grid = 24 24 24
  stencil order = 5
  estimated absolute RMS force accuracy = 0.0031707918
  estimated relative force accuracy = 9.5487452e-06
  using double precision FFTW3
  3d grid and FFT values/proc = 3549 432
Last active /omp style is kspace_style pppm/tip4p/omp
WARNING: Not all mixed pair coeffs generated from mixing. Use write_data with 'pair ij' option to store all pair coeffs. (../write_data.cpp:312)

write_restart   restart.lmp.${pid}
write_restart   restart.lmp.1
System init for write_restart ...
PPPM initialization ...
  extracting TIP4P info from pair style
  using 12-bit tables for long-range coulomb (../kspace.cpp:340)
  G vector (1/distance) = 0.37417593
  grid = 24 24 24
  stencil order = 5
  estimated absolute RMS force accuracy = 0.0031707918
  estimated relative force accuracy = 9.5487452e-06
  using double precision FFTW3
  3d grid and FFT values/proc = 3549 432
Last active /omp style is kspace_style pppm/tip4p/omp
Total wall time: 0:05:41
