#include		in.partitions
include		in.temp
variable        temperature equal 278.29
variable	tempDamp equal 100.0
include		in.pressure
variable        pressure equal -1625.0
variable        pressureDamp equal 1000.0 # This is 1 ps
include		in.seed
variable        seed equal 745823

units		real
atom_style	full
read_restart	restart.lmp.${pid}
read_restart	restart.lmp.1
Reading restart file ...
  restart file = 30 Jul 2021, LAMMPS = 30 Jul 2021
  restoring atom style full from restart
  orthogonal box = (-0.26303329 0.78171280 -0.32090000) to (18.470606 22.847465 22.534096)
  2 by 2 by 4 MPI processor grid
  restoring pair style lj/cut/tip4p/long/omp from restart
  restoring bond style harmonic/omp from restart
  restoring angle style harmonic/omp from restart
  864 atoms
  576 bonds
  288 angles
Finding 1-2 1-3 1-4 neighbors ...
  special bond factors lj:    0        0        0       
  special bond factors coul:  0        0        0       
     2 = max # of 1-2 neighbors
     1 = max # of 1-3 neighbors
     1 = max # of 1-4 neighbors
     2 = max # of special neighbors
  special bonds CPU = 0.001 seconds
  read_restart CPU = 0.005 seconds
include 	in.setup
variable	out_freq equal 1000
variable	out_freq2 equal 10000
variable	out_freq3 equal 1000

timestep	2.0

neigh_modify    delay 7 every 1

include		in.tip4p
# This is TIP4P/Ice

# create groups ###
group ox type 2
288 atoms in group ox
group hy type 1
576 atoms in group hy

# set charges - beside manually ###
set group ox charge -1.1794
Setting atom values ...
  288 settings made for charge
set group hy charge 0.5897
Setting atom values ...
  576 settings made for charge

# ### TIP3P Potential Parameters ###
pair_style lj/cut/tip4p/long/omp 2 1 1 1 0.1577 8.5
pair_coeff 1 1*2 0.000 0.000
pair_coeff 2 2 0.21084 3.1668
bond_style  harmonic
bond_coeff  1 450 0.9572
angle_style harmonic
angle_coeff 1 55 104.52
kspace_style pppm/tip4p/omp 1.0e-5
pair_modify tail yes

thermo          ${out_freq}
thermo          1000
thermo_style    custom step temp pe etotal epair emol press lx ly lz vol pxx pyy pzz pxy pxz pyz enthalpy

restart 	${out_freq3} restart.lmp.${pid} restart2.lmp.${pid}
restart 	1000 restart.lmp.${pid} restart2.lmp.${pid}
restart 	1000 restart.lmp.1 restart2.lmp.${pid}
restart 	1000 restart.lmp.1 restart2.lmp.1


include         in.dump
dump            myDump all atom ${out_freq2} dump.water.${pid}
dump            myDump all atom 10000 dump.water.${pid}
dump            myDump all atom 10000 dump.water.1
dump            myDump2 all dcd ${out_freq2} dump.dcd
dump            myDump2 all dcd 10000 dump.dcd
dump_modify     myDump append yes
dump_modify     myDump2 append yes


variable natoms 	equal  "count(all)"                        # NUMBER ATOMS
variable H      	equal  "enthalpy/v_natoms"                 # ENTHALPY-per-atom
variable Vol      	equal  "vol/v_natoms"                 # volume-per-atom
fix AVG all 		ave/time ${out_freq} 1 ${out_freq} v_Vol v_H file vol_enthalpy.dat
fix AVG all 		ave/time 1000 1 ${out_freq} v_Vol v_H file vol_enthalpy.dat
fix AVG all 		ave/time 1000 1 1000 v_Vol v_H file vol_enthalpy.dat


timer           timeout 23:50:00 every 1000
New timer settings: style=normal  mode=nosync  timeout=23:50:00

fix 		1 all shake 1e-6 200 0 b 1 a 1
       0 = # of size 2 clusters
       0 = # of size 3 clusters
       0 = # of size 4 clusters
     288 = # of frozen angles
  find clusters CPU = 0.000 seconds
fix             2 all nph iso ${pressure} ${pressure} ${pressureDamp}
fix             2 all nph iso -1625 ${pressure} ${pressureDamp}
fix             2 all nph iso -1625 -1625 ${pressureDamp}
fix             2 all nph iso -1625 -1625 1000
fix             3 all temp/csvr ${temperature} ${temperature} ${tempDamp} ${seed}
fix             3 all temp/csvr 278.29 ${temperature} ${tempDamp} ${seed}
fix             3 all temp/csvr 278.29 278.29 ${tempDamp} ${seed}
fix             3 all temp/csvr 278.29 278.29 100 ${seed}
fix             3 all temp/csvr 278.29 278.29 100 745823

run             250000
PPPM initialization ...
  extracting TIP4P info from pair style
  using 12-bit tables for long-range coulomb (../kspace.cpp:340)
  G vector (1/distance) = 0.37155578
  grid = 24 25 27
  stencil order = 5
  estimated absolute RMS force accuracy = 0.003154373
  estimated relative force accuracy = 9.4993007e-06
  using double precision FFTW3
  3d grid and FFT values/proc = 5700 1200
Last active /omp style is kspace_style pppm/tip4p/omp
Neighbor list info ...
  update every 1 steps, delay 7 steps, check yes
  max neighbors/atom: 2000, page size: 100000
  master list distance cutoff = 10.8154
  ghost atom cutoff = 10.8154
  binsize = 5.4077, bins = 4 5 5
  1 neighbor lists, perpetual/occasional/extra = 1 0 0
  (1) pair lj/cut/tip4p/long/omp, perpetual
      attributes: half, newton on, omp
      pair build: half/bin/newton/omp
      stencil: half/bin/3d
      bin: standard
Per MPI rank memory allocation (min/avg/max) = 12.19 | 12.22 | 12.23 Mbytes
Step Temp PotEng TotEng E_pair E_mol Press Lx Ly Lz Volume Pxx Pyy Pzz Pxy Pxz Pyz Enthalpy 
 6750000    273.04609   -3765.1035   -3297.1119   -3765.1035            0   -1784.7766    18.733639    22.065752    22.854996    9447.6116   -2563.8978   -2080.2175   -710.21457    1353.4154    379.21343   -29.271864    -3543.025 
 6751000    279.39669   -3804.5878   -3325.7114   -3804.5878            0   -854.81373    18.627237    21.940424    22.725185    9287.5443   -2367.8828    111.38542   -307.94378    269.01354   -495.32626   -23.093554   -3441.4953 
 6752000     268.5941    -3795.106   -3334.7449    -3795.106            0   -2275.5736    18.414436    21.689773    22.465569    8972.8591   -3440.4905   -1652.1312    -1734.099    146.02009    743.45584    651.23103   -3632.5263 
 6753000    287.93282   -3848.0471   -3354.5402   -3848.0471            0   -1376.3066    18.637603    21.952634    22.737832    9303.0582   -2177.6581    -840.2272   -1111.0346   -651.25377   -831.57384   -534.22085   -3541.2713 
 6754000    266.45692   -3822.9493   -3366.2513   -3822.9493            0   -74.339691    18.614606    21.925547    22.709775    9268.6632    207.25891   -289.87431   -140.40367   -181.90885   -1068.2462    1324.7148   -3376.3001 
 6755000    285.94366   -3787.3833   -3297.2856   -3787.3833            0   -2501.2818    18.728925    22.060199    22.849244     9440.481   -1952.6578   -2646.8815    -2904.306   -1121.1011    1001.2539    590.72944   -3641.6615 
 6756000    286.86615   -3790.7116   -3299.0328   -3790.7116            0   -1237.0368    18.692755    22.017597    22.805118    9385.8922   -1215.3228   -1268.5002   -1227.2873    333.19153   -1410.4379   -61.192131   -3468.3629 
 6757000    264.56281   -3755.5395   -3302.0879   -3755.5395            0   -2323.0789    18.731585    22.063333     22.85249    9444.5041    -2485.213   -2337.2285   -2146.7952   -239.38359   -992.41757    -1325.526    -3622.065 
 6758000    280.18774   -3780.3216   -3300.0894   -3780.3216            0   -2486.9635    18.798921    22.142645    22.934639    9546.7232   -2702.4573   -2422.0739   -2336.3592    1222.4367   -1547.0686   -804.56436   -3646.3472 
 6759000    290.48709   -3778.4781   -3280.5932   -3778.4781            0   -2302.4501    18.772349    22.111347    22.902222    9506.2985   -2767.7198   -1512.5575    -2627.073    332.72293    658.61659    569.75083    -3599.804 
 6760000    284.50029   -3781.7818    -3294.158   -3781.7818            0   -1182.8752    18.661449    21.980722    22.766924    9338.8127   -290.82763   -2083.6103   -1174.1876    1263.3015     757.9366    769.83732   -3455.2621 
 6761000    278.66242   -3726.6364   -3249.0186   -3726.6364            0   -2061.7894     18.78584    22.127238    22.918681    9526.8091   -2632.9067   -2004.6792   -1547.7823    68.323381    24.186567   -257.01363    -3535.481 
 6762000    284.87601    -3731.808   -3243.5402    -3731.808            0   -1942.9369    18.620523    21.932516    22.716994    9277.5048   -2080.0626   -1811.9534   -1936.7947    -853.8809   -452.56497   -581.31241   -3506.4252 
 6763000    293.75582   -3754.6001   -3251.1127   -3754.6001            0   -851.83082    18.510047    21.802391    22.582214    9113.3524    -539.2127    -1758.302    -257.9778   -391.70254   -575.39311    156.69541   -3364.3286 
 6764000    275.16177   -3807.3723   -3335.7544   -3807.3723            0   -1588.7831    18.655691     21.97394    22.759899     9330.171   -1099.0669    -1286.607   -2380.6754       369.19    749.57142   -246.87835   -3551.9417 
 6765000     275.9779   -3797.2734   -3324.2568   -3797.2734            0   -784.62681    18.640204    21.955698    22.741006    9306.9543   -576.91436   -892.46166    -884.5044   -393.03236   -535.12475    117.89511    -3430.756 
 6766000    275.48939   -3803.4612   -3331.2818   -3803.4612            0   -3263.9044    18.708012    22.035567    22.823731    9408.8929    -2515.167    -3705.549   -3570.9972   -277.44646   -483.77322   -493.84916   -3779.1517 
 6767000    287.26446   -3820.0812   -3327.7198   -3820.0812            0   -540.73598    18.689368    22.013606    22.800985    9380.7897    1172.6478    -2724.966    -69.88974    106.38495   -401.00616    21.260053   -3401.6974 
 6768000    267.52565   -3827.3885   -3368.8587   -3827.3885            0   -2160.5733    18.720303    22.050044    22.838726    9427.4496   -1046.5063   -3152.9988   -2282.2148    267.17068    956.47426   -377.82828   -3665.9152 
 6769000     279.1801   -3814.8466   -3336.3415   -3814.8466            0   -2819.6388    18.737217    22.069966    22.859361    9453.0253   -3105.7114   -2414.3614   -2938.8437   -388.05631    228.95608    223.88842   -3725.0645 
 6770000    273.52609   -3847.4511   -3378.6367   -3847.4511            0   -756.58772    18.619409    21.931204    22.715636    9275.8405   -1204.3576   -861.02098    -204.3846     1490.382    396.01145    1199.5963   -3480.9869 
 6771000    279.37412   -3855.9058   -3377.0681   -3855.9058            0   -957.94266    18.688678    22.012794    22.800144    9379.7516   -1703.6284   -915.06292   -255.13662   -458.07652     86.86462    1221.7851   -3508.1089 
 6772000     284.0507   -3834.3254   -3347.4723   -3834.3254            0   -698.63805    18.663302    21.982904    22.769184    9341.5945   -1024.4003   -947.06565   -124.44825   -121.56028    517.07589    296.26644    -3442.653 
 6773000    268.91296   -3820.7386    -3359.831   -3820.7386            0   -1598.2822    18.665825    21.985877    22.772263    9345.3845   -3011.6318   -1509.4106   -273.80421   -96.206429    513.73225    1134.1199   -3577.6655 
 6774000    297.04483   -3788.1476    -3279.023   -3788.1476            0   -1766.0022    18.807812    22.153118    22.945487    9560.2759   -3042.1006   -1014.3875   -1241.5185    313.73954   -380.95283   -739.58897    -3525.251 
 6775000    268.71121   -3791.6433   -3331.0815   -3791.6433            0   -1603.7387    18.756408    22.092571    22.882774    9482.1017   -1203.6336   -1766.6932   -1840.8893    -344.9192    728.04921    434.69855   -3552.8573 
 6776000    279.94417   -3789.7629   -3309.9481   -3789.7629            0   -2173.1423    18.916272     22.28087    23.077808    9726.6264    -2087.772   -2462.6334   -1969.0215   -1218.6118    121.34912    -1300.765   -3618.2146 
 6777000    282.85178   -3790.9502   -3306.1519   -3790.9502            0   -1389.9854    18.859478    22.213974    23.008519    9639.2797   -2072.0231   -1783.7935   -314.13958    112.02284    1143.2769      326.599   -3501.5547 
 6778000    259.95151   -3835.1451   -3389.5971   -3835.1451            0    -2830.285    19.004602    22.384911     23.18557    9863.5196   -3754.4265    -1699.063   -3037.3656   -544.78673    575.97545    367.24562   -3796.7317 
 6779000    258.88273     -3858.13   -3414.4138     -3858.13            0   -2305.1704    19.004375    22.384643    23.185293     9863.166   -2218.0523   -1445.0255   -3252.4334   -495.51753   -1045.9599    76.773084   -3745.9991 
 6780000    282.76456   -3819.9216   -3335.2728   -3819.9216            0   -1493.3983    19.014992    22.397149    23.198246     9879.706   -1411.0499   -1823.2167   -1245.9282     309.4881   -765.16103    397.33361   -3550.4497 
 6781000    274.15087   -3812.7451   -3342.8599   -3812.7451            0   -751.31966    18.993126    22.371393    23.171569    9845.6619   -737.52221    7.1145703   -1523.5513    142.48919    67.389435   -518.69512    -3450.741 
 6782000    271.73803   -3827.3917   -3361.6421   -3827.3917            0   -1938.5709    19.005231    22.385652    23.186337    9864.4992   -807.35894   -2313.7421   -2694.6116   -594.66158    786.05753    8.1349076   -3640.5319 
 6783000    287.23645   -3877.9184    -3385.605   -3877.9184            0   -1514.2605    18.965769     22.33917    23.138193    9803.1791   -916.83809    -1513.011   -2112.9324   -333.60713   -439.97414   -787.33134   -3602.0978 
 6784000    266.27713   -3851.2929   -3394.9031   -3851.2929            0   -2896.8614    18.953366    22.324561    23.123062     9783.959   -2004.9251   -3645.0201    -3040.639    630.79704   -279.31502    576.89923   -3808.2533 
 6785000    274.91414   -3881.3478   -3410.1543   -3881.3478            0   -1620.6919    18.957137    22.329003    23.127663    9789.8005   -1227.4174   -1019.0231   -2615.6352    445.39783    715.29248   -193.77429   -3641.5473 
 6786000     262.2752   -3842.8012   -3393.2704   -3842.8012            0   -960.44747    18.860057    22.214656    23.009225    9640.1678   -803.31075   -1040.7845   -1037.2472    669.60962   -221.93631   -628.08488   -3528.3016 
 6787000    285.01865   -3854.5079   -3365.9957   -3854.5079            0   -1644.5884    18.811264    22.157184    22.949698    9565.5407   -1839.6819   -1422.9268   -1671.1565    35.044453   -995.02077    9.2989315   -3595.4217 
 6788000    279.65577   -3856.5188   -3377.1984   -3856.5188            0   -2057.9659    18.831337    22.180828    22.974188    9596.1953   -2045.3644   -1291.8755   -2836.6578    529.50293    332.72746    14.071377   -3665.2121 
 6789000    280.49918   -3837.1295   -3356.3635   -3837.1295            0    -2166.105    18.899715    22.261368    23.057609    9701.1089   -3247.6124   -1623.8664   -1626.8364    557.57865    204.90622   -434.21971   -3662.8256 
 6790000     281.3628   -3860.2395   -3377.9933   -3860.2395            0   -764.13562    18.859917    22.214492    23.009055    9639.9538   -1812.6006    23.520412   -503.32668    412.29783    249.80086   -929.90376   -3485.4223 
 6791000    268.59189   -3823.2054   -3362.8481   -3823.2054            0   -639.88933    18.865699    22.221301    23.016108    9648.8216    759.08275   -1345.8005   -1332.9503    122.80961    1061.6294    319.84365   -3452.8922 
 6792000    262.43277   -3803.7076   -3353.9068   -3803.7076            0   -1440.6594    18.891674    22.251897    23.047798    9688.7316   -2281.5912    -630.9207   -1409.4665   -39.248194   -192.95976   -1249.6933   -3557.4723 
 6793000    278.84798   -3803.5005   -3325.5646   -3803.5005            0   -1076.1513    18.797067    22.140462    22.932378    9543.8999    -1697.109   -455.41592   -1075.9289    107.08844   -1007.4629    37.197031    -3475.352 
 6794000    272.45236   -3823.5932   -3356.6192   -3823.5932            0   -212.72291    18.645356    21.961766     22.74729    9314.6728   -1504.8232    767.76627     98.88824    133.20052   -105.40633    309.96989   -3385.5165 
 6795000    277.27979   -3912.5879   -3437.3399   -3912.5879            0   -2022.0815    18.681976      22.0049    22.791967    9369.6638   -2622.1609   -1766.2227   -1677.8608   -729.90546   -524.51126   -304.95713   -3713.6511 
 6796000    279.56809   -3836.1305   -3356.9603   -3836.1305            0   -1798.2584    18.716716     22.04582     22.83435     9422.032   -2539.4478   -760.17187   -2095.1556   -273.25265    788.32652   -352.41114   -3604.0602 
 6797000    281.01664   -3877.8477   -3396.1948   -3877.8477            0   -2172.6003    18.720242    22.049972    22.838651    9427.3571    -2863.347   -1034.6235   -2619.8305   -43.776114   -595.61261    574.60251    -3694.902 
 6798000    283.12145    -3833.767   -3348.5065    -3833.767            0   -2525.7334     18.81271    22.158888    22.951463    9567.7471   -1534.2274   -2130.7812   -3912.1915    440.74076    205.69409    150.22849   -3700.9367 
 6799000    280.04439   -3817.6715    -3337.685   -3817.6715            0   -801.67445    18.650248    21.967529    22.753259    9322.0073   -1259.6996   -642.42834    -502.8954   -280.80746    -873.8137   -72.844891   -3446.6742 
 6800000    281.68348   -3865.7388    -3382.943   -3865.7388            0   -1544.0301    18.798516    22.142169    22.934146    9546.1068   -2027.7777   -446.03098   -2158.2817    213.96449    -541.3735   -461.98666   -3597.9031 
 6801000    286.73603   -3824.8757     -3333.42   -3824.8757            0   -2040.6571    18.865476    22.221038    23.015836    9648.4794   -1988.5047   -3288.7338   -844.73276   -692.14606   -235.05349   -604.44384   -3620.5673 
 6802000    280.41799   -3866.4869   -3385.8601   -3866.4869            0   -1835.1414    18.836717    22.187165    22.980751     9604.422   -1455.1972   -1802.0407   -2248.1864   -111.31588   -1073.8066   -315.24477   -3642.9095 
 6803000     260.0426    -3813.081   -3367.3769    -3813.081            0   -1425.3358    18.848015    22.200472    22.994534    9621.7135   -278.39792   -3117.1729   -880.43661    291.13699    63.720036   -32.493362   -3567.3841 
 6804000     299.5139   -3870.3971   -3357.0405   -3870.3971            0   -1507.8362    18.765533    22.103319    22.893906    9495.9469   -1178.2163   -2308.6877   -1036.6047    560.60385   -584.68691   -196.30801   -3565.8587 
 6805000    266.84399   -3834.8188   -3377.4573   -3834.8188            0   -2027.7562     18.83951    22.190454    22.984158    9608.6946   -2120.2017   -2945.0081   -1018.0587    155.30989   -591.34612   -839.64966   -3661.6128 
 6806000    299.59141   -3844.4833   -3330.9939   -3844.4833            0   -2659.2342    18.816345    22.163169    22.955897    9573.2937   -4120.7169   -1534.0019   -2322.9836   -580.85546   -1448.4108    795.85555   -3702.2673 
 6807000    276.38172   -3830.3407   -3356.6319   -3830.3407            0   -802.44349    18.835607    22.185857    22.979397    9602.7244    -1539.193   -346.95671   -521.18074   -638.88868    222.52302   -827.92773   -3469.0108 
 6808000    268.90395   -3816.6432   -3355.7511   -3816.6432            0   -1888.2903    18.829308    22.178437    22.971711    9593.0926   -2713.3239   -2683.8878    -267.6593   -1331.6792   -113.27876   -296.94556   -3619.9331 
 6809000    280.43733    -3829.324   -3348.6641    -3829.324            0   -3443.9132     18.90753    22.270573    23.067143    9713.1482   -4310.8513   -3624.8986   -2395.9896   -409.35796   -184.79482    147.49241   -3836.5161 
 6810000    269.08751   -3850.5376   -3389.3309   -3850.5376            0   -1396.9254    18.792997    22.135668    22.927412    9537.7009   -1217.3988   -2060.9508   -912.42678   -668.88713   -1101.8145    74.078249   -3583.6398 
 6811000    277.81432    -3840.232   -3364.0678    -3840.232            0   -958.91506    18.804688    22.149438    22.941675    9555.5122   -908.41134   -804.67186    -1163.662    688.56373   -531.84219    1077.2597   -3497.6996 
 6812000    278.67216   -3810.8457   -3333.2112   -3810.8457            0    -3492.392    18.816352    22.163177    22.955905    9573.3044   -2996.0819   -2526.2725   -4954.8217    229.21078   -705.98538    -587.6677   -3820.8079 
 6813000    288.87656   -3809.4502   -3314.3256   -3809.4502            0   -1956.8816    18.896439    22.257509    23.053612     9696.065    -2255.611   -1717.8603   -1897.1735    301.63463    219.81898    485.00507   -3591.0427 
 6814000    290.92021   -3866.2393    -3367.612   -3866.2393            0   -1658.7553    18.763159    22.100523     22.89101    9492.3443   -1113.2656   -2401.2127   -1461.7876    7.0093333   -954.20915   -1548.8072   -3597.2436 
 6815000    275.07593   -3907.6175   -3436.1467   -3907.6175            0   -1384.9967    18.729926    22.061378    22.850466    9441.9946   -878.78481    -1229.181   -2047.0245   -359.27401   -230.66182   -731.25041   -3626.8633 
 6816000    286.19493   -3831.4197   -3340.8914   -3831.4197            0   -684.57144    18.623198    21.935667    22.720258    9281.5043   -1020.0094   -181.27777   -852.42711    1338.7342   -610.24131   -433.71877   -3433.5558 
 6817000    264.43541   -3854.2276   -3400.9943   -3854.2276            0    -3356.748    18.785877    22.127281    22.918726    9526.8644   -4029.2041   -3207.3333   -2833.7066    1135.8721   -600.89709    -303.8768   -3867.3793 
 6818000    274.96485   -3847.2267   -3375.9463   -3847.2267            0   -2530.2928     18.80212    22.146414    22.938543    9551.5985   -2548.2865   -2185.6355   -2856.9564    339.53677   -946.65896     597.5114   -3728.4168 
 6819000    283.95705   -3896.6333   -3409.9407   -3896.6333            0   -2929.7768     18.73588    22.068391    22.857729     9451.002    -3142.207   -2259.7804    -3387.343     -504.419   -600.35245    21.684554   -3813.7611 
 6820000    270.48126   -3816.9429   -3353.3473   -3816.9429            0   -868.15951    18.745665    22.079918    22.869668    9465.8184   -486.94124   -1325.3449    -792.1924    1486.0886    -397.7364   -751.88277    -3473.196 
 6821000    282.61195    -3837.194   -3352.8068    -3837.194            0   -442.21684    18.752641    22.088134    22.878178    9476.3898   -1563.5079   -147.04938     383.9068   -478.54217     -240.226   -40.017033   -3413.9226 
 6822000    289.69106   -3769.4836    -3272.963   -3769.4836            0   -3198.0267    18.877124    22.234759    23.030048     9666.363   -4075.4499    -2250.112   -3268.5183   -1167.8828    354.41712   -126.04714   -3723.8016 
 6823000    266.19761   -3839.5826    -3383.329   -3839.5826            0   -2567.9774     18.94484    22.314519    23.112661    9770.7617   -2917.2135   -1931.2877   -2855.4308    290.60592    166.61824    1166.1243   -3749.2569 
 6824000    288.20531   -3865.4151    -3371.441   -3865.4151            0   -1621.5482    18.917849    22.282728    23.079732    9729.0599   -513.79999   -1329.4926    -3021.352   -357.33997   -445.28971    1162.9521   -3601.5198 
 6825000    297.10704   -3881.3714   -3372.1401   -3881.3714            0   -3404.8821    18.965951    22.339385    23.138416    9803.4623    -4097.248   -2166.7132   -3950.6851    1686.4187    799.66727    666.36471   -3858.9478 
 6826000    275.14975   -3859.2977   -3387.7004   -3859.2977            0   -1450.9095    18.947468    22.317615    23.115867    9774.8286   -1590.0504   -1555.3515   -1207.3265    261.62325   -1470.7139   -220.38131   -3594.5361 
 6827000    270.03286   -3881.6003   -3418.7732   -3881.6003            0   -795.88721      18.8263    22.174895    22.968042    9588.4967   -755.12706   -1598.9047   -33.629853    -423.7532   -786.91755    654.49178   -3530.0688 
 6828000    299.06535   -3872.8038   -3360.2161   -3872.8038            0   -1978.1622    18.921044     22.28649    23.083629    9733.9893   -1446.3712   -2265.2473   -2222.8681    1145.4238    420.24656   -174.76103   -3641.0365 
 6829000    272.06584   -3866.6875   -3400.3759   -3866.6875            0   -1827.1556    18.851598    22.204692    22.998905    9627.2017   -1311.0447   -1476.7279   -2693.6942   -638.29025    1103.5678   -49.267481   -3656.9138 
 6830000    302.25649    -3839.372   -3321.3147    -3839.372            0   -2958.2149    18.861173    22.215971    23.010587    9641.8796   -1997.9467   -2955.6018   -3921.0961   -876.95257     729.2914   -612.17134   -3737.2898 
 6831000    296.31637    -3884.132   -3376.2559    -3884.132            0   -1952.1791    18.767373    22.105486    22.896151    9498.7405   -1110.3552   -2848.4857   -1897.6964    76.977795    86.694545    955.78754   -3646.6901 
 6832000    282.35404   -3917.2646   -3433.3194   -3917.2646            0   -732.95364    18.673231      21.9946    22.781299    9356.5131   -1583.6703   -132.33141   -482.85922    189.18446    -206.9011   -245.69041   -3533.3347 
 6833000    273.69003   -3868.0711   -3398.9758   -3868.0711            0   -2363.5686    18.846019    22.198121    22.992099     9618.657   -2911.2486   -1658.3031   -2521.1541    87.020732   -429.23867    69.058415    -3730.533 
 6834000    290.60499   -3812.1208   -3314.0338   -3812.1208            0   -3097.9479     18.87651    22.234035    23.029298    9665.4188   -4668.1169    -2846.792   -1778.9348    293.47398   -92.207364   -347.15917   -3750.7212 
 6835000    281.37366   -3861.8671   -3379.6023   -3861.8671            0   -1348.5008    18.721709      22.0517    22.840441    9429.5736   -2254.2643   -1962.0595    170.82146    1605.3469      314.528   -425.01414    -3565.049 
 6836000    277.01505   -3848.5802   -3373.7859   -3848.5802            0   -294.08687    18.639275    21.954604    22.739872    9305.5631    -465.1056   -582.10572    164.95073    488.33204    49.775367    -520.1903    -3413.697 
 6837000    276.17757   -3881.3771   -3408.0182   -3881.3771            0   -1458.2239    18.727252    22.058229    22.847204     9437.952   -678.43115   -2119.0918   -1577.1487   -821.66346   -1110.5531    124.31843   -3608.7323 
 6838000    291.02955   -3826.9061   -3328.0914   -3826.9061            0   -1291.8474    18.730942    22.062575    22.851705    9443.5317   -1149.2247   -1189.8836    -1536.434   -736.59169     1292.497    1080.8225   -3506.0101 
 6839000    263.92859    -3854.956   -3402.5914    -3854.956            0   -791.57642    18.742508    22.076199    22.865816    9461.0359   -1245.0724   -777.65931   -351.99755   -556.41513     916.7727    415.56937   -3511.8128 
 6840000    278.20578   -3831.2024   -3354.3672   -3831.2024            0   -2147.2034    18.886469    22.245766    23.041448    9680.7255    -2731.919   -2484.8868   -1224.8045    266.89206   -574.57755   -312.09247   -3657.5168 
 6841000    261.37895   -3839.6742   -3391.6796   -3839.6742            0   -1437.8268    18.822432    22.170339    22.963323    9582.5882   -862.74881   -2309.0751   -1141.6565   -473.87922     370.5641    410.28791   -3592.6191 
 6842000    284.17117   -3823.0229   -3335.9632   -3823.0229            0   -2215.8225     18.79345    22.136201    22.927965    9538.3905   -2491.6162   -1866.3467   -2289.5045    447.07464   -905.83067   -1377.6557   -3644.2011 
 6843000    265.69078   -3838.7596   -3383.3747   -3838.7596            0     -2998.94    18.957024     22.32887    23.127525    9789.6247   -3566.9684   -2733.3987   -2696.4528    393.18725    771.79516    127.07821   -3811.5382 
 6844000    267.96583   -3833.5242   -3374.2399   -3833.5242            0   -1855.9381     18.75895    22.095565    22.885875    9485.9566   -1432.3108   -2985.0476   -1150.4559    -440.2708    201.02389   -872.11593   -3630.9959 
 6845000    282.28382   -3884.8629   -3401.0381   -3884.8629            0   -1805.2491    18.828596      22.1776    22.970844    9592.0058   -832.44417   -2045.9461   -2537.3569    1891.2961    317.91163    101.03774   -3653.5736 
 6846000    286.96295   -3852.7655   -3360.9208   -3852.7655            0   -2039.3362    18.907046    22.270002    23.066551     9712.401   -1142.7794   -2331.1233   -2644.1058    530.65363    53.124074   -245.75828   -3649.7834 
 6847000    283.27368   -3848.4776   -3362.9562   -3848.4776            0   -1160.3285    18.816898     22.16382    22.956571    9574.1375   -1355.0641   -1543.2188   -582.70258   -389.57072   -30.493005    229.01089   -3524.9717 
 6848000    261.10951   -3856.6401   -3409.1073   -3856.6401            0   -1473.3188    18.811607    22.157589    22.950117    9566.0645   -1401.4062   -1219.8718   -1798.6783    445.14008   -1412.9213   -58.745257   -3614.6519 
 6849000    274.47468   -3837.2449   -3366.8047   -3837.2449            0   -1847.5289    18.785003    22.126252    22.917659     9525.535   -1911.4585   -995.78871   -2635.3394   -500.78183   -37.335759    482.70276   -3623.4637 
 6850000    275.47582   -3851.1874   -3379.0313   -3851.1874            0   -2330.5112    18.768037    22.106268    22.896961    9499.7487   -3690.8683   -1764.6778   -1535.9874    206.94144   -518.76601   -101.71782   -3701.9099 
 6851000    287.34643   -3886.7801   -3394.2781   -3886.7801            0   -924.05989    18.833874    22.183816    22.977282    9600.0738   -337.34416   -1046.0842   -1388.7513    784.18557    532.62203   -582.86338   -3523.6532 
 6852000    278.06825   -3828.2748   -3351.6754   -3828.2748            0   -2074.0716    18.832218    22.181866    22.975262    9597.5421    -2428.527   -2197.9789   -1595.7088    335.72217   -248.34158    1079.5225   -3641.9838 
 6853000    273.81994   -3818.8847   -3349.5667   -3818.8847            0   -1489.4833    18.788315    22.130153    22.921701    9530.5748   -1680.1399   -1992.0852   -796.22459    1158.4721    44.256141     617.0678   -3556.5955 
 6854000    273.69007   -3825.6653   -3356.5699   -3825.6653            0   -1888.3823    18.814225    22.160672    22.953311    9570.0587   -1887.6284    -1110.748   -2666.7704    297.17983   -752.17846    879.78394   -3620.1304 
 6855000    273.88543   -3779.3479   -3309.9176   -3779.3479            0   -1376.3234    18.907381    22.270398    23.066961    9712.9181   -520.41802   -2574.2158   -1034.3365     -1498.55    578.42512   -701.08373   -3504.8779 
 6856000     281.0607   -3878.4303   -3396.7019   -3878.4303            0   -1949.5187    18.872537    22.229356    23.024452    9659.3183   -2832.3533    -1559.438   -1456.7647    693.17766    493.30039    -354.1871    -3671.333 
 6857000    265.03666   -3836.9394   -3382.6756   -3836.9394            0   -951.38028    18.709006    22.036738    22.824944    9410.3928   -1059.4934   -1759.9107   -34.736764    471.76085    683.01236    707.74731   -3513.2439 
 6858000    282.16266   -3806.1709   -3322.5537   -3806.1709            0   -1790.3173    18.809112     22.15465    22.947073    9562.2586   -2134.6256   -1066.8356   -2169.4907    202.33098   -687.53301   -1248.2982   -3572.2237 
 6859000    286.71589   -3843.6298   -3352.2086   -3843.6298            0   -1566.2769    18.717254    22.046453    22.835006    9422.8441   -734.33829   -2275.6746   -1688.8177     159.3644    -505.6147   -127.83197   -3567.4503 
 6860000    265.35351    -3792.665   -3337.8582    -3792.665            0   -1944.8748     18.84976    22.202528    22.996664    9624.3871   -1592.6056   -1983.3439   -2258.6748   -978.89202    790.89336   -125.73677   -3610.8443 
 6861000    282.21291   -3841.2025   -3357.4992   -3841.2025            0   -2078.7807    18.722738    22.052912    22.841696    9431.1284     -2562.76   -1161.9832   -2511.5988   -1115.9788    167.29455    -160.0946   -3643.4216 
 6862000    275.54099   -3847.4172   -3375.1493   -3847.4172            0     -341.017    18.703375    22.030105    22.818074     9401.898    410.06571   -300.16483   -1132.9519   -698.75091    365.68957    320.54035   -3421.9086 
 6863000    272.94809   -3823.4729   -3355.6492   -3823.4729            0   -1275.3147    18.784212     22.12532    22.916694    9524.3315   -2118.2277   -535.75975   -1171.9567   -349.79736   -1101.4096   -568.81878   -3532.7937 
 6864000     290.0999   -3838.6418   -3341.4205   -3838.6418            0   -1612.4447    18.673172     21.99453    22.781226    9356.4237   -1941.5956    -721.7322   -2174.0063    1483.8325      293.501   -47.303244   -3561.4448 
 6865000    281.32765   -3814.7323   -3332.5464   -3814.7323            0   -1554.4093    18.726644    22.057513    22.846462    9437.0323   -1500.2145   -2306.3084   -856.70515   -745.81708    822.19605   -316.53902   -3546.4789 
 6866000     283.4031   -3905.9938   -3420.2506   -3905.9938            0   -1279.6422    18.778394    22.118468    22.909597    9515.4852   -1959.8862    -1628.422   -250.61847    502.65959    469.84413     -848.642   -3597.8311 
 6867000    268.27681   -3887.9273     -3428.11   -3887.9273            0   -514.18351    18.695076     22.02033    22.807949    9389.3877   -1131.8054   -95.114509   -315.63061   -160.28275    359.02057   -160.63251   -3498.5196 
 6868000     284.1602    -3905.831   -3418.7901    -3905.831            0   -2118.8118    18.754871    22.090761    22.880899    9479.7712   -2228.4897   -2785.0313   -1342.9144   -2085.2027    146.66533    211.48576   -3711.7217 
 6869000    281.00566   -3880.5229   -3398.8888   -3880.5229            0   -1723.4663     18.79432    22.137226    22.929026    9539.7153   -891.74357   -2644.8415   -1633.8138    53.710292    -565.4799    1678.9515   -3638.6694 
 6870000    276.09923   -3904.7251   -3431.5005   -3904.7251            0   -2023.6342    18.858611    22.212953    23.007461    9637.9508   -3259.8794   -836.94967   -1974.0737   -1122.0145   -24.226264    1015.5794   -3715.9417 
 6871000    282.50105   -3914.9967   -3430.7996   -3914.9967            0   -499.63727    18.697247    22.022887    22.810598    9392.6594   -761.39581    -1186.598    449.08196   -215.91605   -1003.4785   -854.23763    -3499.241 
 6872000    293.32662   -3880.6764   -3377.9246   -3880.6764            0   -2362.9801    18.794437    22.137364    22.929169    9539.8936   -1885.6802   -3286.6747   -1916.5856   -6.0827591   -396.44647   -597.34193    -3706.685 
 6873000    271.69871   -3917.7734   -3452.0911   -3917.7734            0   -877.47478    18.689099     22.01329    22.800658    9380.3859   -893.93924   -2133.9076    395.42251   -915.74816   -213.87034   -1023.0903   -3572.1325 
 6874000    271.63901    -3859.124    -3393.544    -3859.124            0   -1209.4097    18.770249    22.108874     22.89966    9503.1081   -1199.4023    -3381.766    952.93922     509.0223   -368.70349   -300.63529   -3561.1598 
 6875000     275.6437   -3826.8537   -3354.4098   -3826.8537            0    -1508.367    18.811117    22.157011    22.949519    9565.3162   -2503.3734    -1111.534   -910.19367   -814.90815   -749.26355    623.61439   -3564.8275 
 6876000    276.29542   -3867.5637   -3394.0028   -3867.5637            0   -2350.3978    18.804001    22.148629    22.940837    9554.4653   -2062.3989   -1935.7014   -3053.0931    280.06801   -507.90193   -59.846595   -3721.5121 
 6877000    294.50895   -3863.7443   -3358.9661   -3863.7443            0   -982.40305    18.749482    22.084413    22.874324    9471.6006   -764.82297   -1422.0059   -760.38023    14.351863    489.73414    233.24732   -3494.6689 
 6878000    278.42442   -3853.3769    -3376.167   -3853.3769            0   -1612.6556    18.801879     22.14613    22.938248    9551.2305   -2192.1734   -1954.9575   -690.83577    303.04872    553.48006   -8.5857756   -3600.8017 
 6879000    280.17447   -3825.7725    -3345.563   -3825.7725            0   -2254.8832    18.835167    22.185339     22.97886    9602.0517    -2020.426   -3058.6361   -1685.5875    1442.4452   -1223.4822   -598.98258    -3661.328 
 6880000    272.62072   -3885.8905   -3418.6279   -3885.8905            0   -1071.2268    18.696689     22.02223    22.809917    9391.8182   -831.78578   -2057.6957   -324.19894   -405.39677    606.26678    455.35028   -3565.3538 
 6881000    273.24699   -3887.6423   -3419.3063   -3887.6423            0   -1171.0912    18.796206    22.139448    22.931328    9542.5886   -1876.8009   -2022.1085    385.63589    555.26115   -365.57925   -1211.4273   -3582.2857 
 6882000    283.88478   -3832.0692   -3345.5004   -3832.0692            0   -625.20697    18.753032    22.088595    22.878655    9476.9825   -444.76599   -516.83045   -914.02446    178.15281   -220.60214   -347.15434   -3431.9116 
 6883000      274.275   -3858.5803   -3388.4824   -3858.5803            0   -2300.7471    18.808154    22.153521    22.945904    9560.7973   -3297.7555   -2233.7029   -1370.7828     393.9675    235.60365   -446.95879   -3709.2857 
 6884000    276.98797    -3887.129   -3412.3811    -3887.129            0   -2319.3728    18.723162    22.053412    22.842215    9431.7702   -1716.4578   -2357.2625   -2884.3981   -1065.2529    659.69179    77.245328   -3731.4171 
 6885000    257.55295   -3873.5508   -3432.1139   -3873.5508            0   -1263.9141    18.612248     21.92277    22.706899    9265.1423     -1007.21   -1308.2668   -1476.2653    291.72967   -267.43474   -722.36206   -3602.8973 
 6886000    273.56469   -3857.1564   -3388.2759   -3857.1564            0   -2401.0513    18.683379    22.006553    22.793679    9371.7757    -2510.245    -2360.968    -2331.941    238.07918    9.5904099   -499.19831   -3716.4462 
 6887000    263.93712   -3852.2409   -3399.8617   -3852.2409            0   -888.59687    18.586428    21.892357    22.675398    9226.6355   -75.849248   -1566.3502   -1023.5912    417.52401    848.06773   -1077.1444   -3519.4322 
 6888000    276.94834   -3841.1238   -3366.4438   -3841.1238            0   -460.77186    18.713174    22.041648    22.830029    9416.6837   -734.71679   -1006.0719    358.47307    1039.0534    266.82422   -974.97505   -3429.7228 
 6889000    267.18124   -3878.1748   -3420.2353   -3878.1748            0   -2170.5618    18.671652     21.99274    22.779372    9354.1393   -3556.9059   -721.19868   -2233.5809    940.61163   -1046.1951   -1092.7253   -3716.3445 
 6890000    280.37568   -3834.5336   -3353.9793   -3834.5336            0    -1791.434    18.670786     21.99172    22.778315    9352.8377   -2396.4147   -1491.5695   -1486.3177       50.794    992.98941   -331.63958   -3598.3336 
 6891000    264.80445   -3831.1396   -3377.2739   -3831.1396            0   -396.07047    18.588692    21.895024    22.678161    9230.0082   -1102.5828    65.776705   -151.40531    77.515024    482.56262   -1571.4086    -3430.589 
 6892000    283.23621   -3854.2599   -3368.8027   -3854.2599            0   -1737.7696    18.603552    21.912527     22.69629     9252.162   -1901.7427   -1954.9296   -1356.6364   -665.16053   -626.16743   -1685.7713   -3603.2857 
 6893000    278.68357   -3829.3235   -3351.6694   -3829.3235            0   -1410.1368    18.611399     21.92177    22.705864    9263.8745   -2324.6937   -66.872581   -1838.8442    872.85907    703.18645    42.262553   -3542.1846 
 6894000    272.14333   -3812.3351   -3345.8908   -3812.3351            0   -876.48183    18.550894    21.850503    22.632047    9173.8178    475.47042   -303.33074   -2801.5852   -1107.1571    460.59829    381.82626   -3463.1559 
 6895000    282.32057   -3806.9188    -3323.031   -3806.9188            0   -1739.0267    18.711996     22.04026    22.828592    9414.9053   -2198.7927   -879.93631   -2138.3511    513.10144    218.22081    441.50389   -3561.8111 
 6896000    265.30403   -3843.4671   -3388.7451   -3843.4671            0   -1276.7186    18.628464     21.94187    22.726683    9289.3804   -2403.4008   -695.32318   -731.43167     777.2108   -209.59713   -475.06978   -3561.7099 
 6897000    269.25185   -3833.1294   -3371.6409   -3833.1294            0   -735.74112    18.716508    22.045574    22.834096    9421.7167   -423.11525   -556.42052   -1227.6876   -397.24914   -307.12681   -280.87832   -3472.7362 
 6898000    267.74815   -3832.4975   -3373.5864   -3832.4975            0    116.07306    18.573936    21.877644    22.660159    9208.0455   -386.68708   -401.09914    1136.0054   -27.754677   -1051.5735    791.82548   -3357.9989 
 6899000    304.23646   -3813.5908   -3292.1399   -3813.5908            0   -1379.1272     18.74873    22.083527    22.873407    9470.4614   -1960.7616   -901.28651   -1275.3335   -870.27734   -610.11202   -650.91787   -3482.6208 
 6900000    267.80678   -3814.1355   -3355.1238   -3814.1355            0   -2862.8248    18.788618     22.13051     22.92207    9531.0357   -2944.6017   -1569.9842   -4073.8884    386.77983   -646.37813    26.640023   -3753.0576 
 6901000    286.08105   -3798.3988   -3308.0657   -3798.3988            0   -1283.6279    18.672116    21.993287    22.779938    9354.8371   -678.51243   -1068.7909   -2103.5805   -297.84389    719.81659    245.54787    -3483.192 
 6902000    262.68181   -3801.4626    -3351.235   -3801.4626            0   -885.94617    18.648713    21.965721    22.751386    9319.7054   -696.18778   -1946.8309   -14.819827    441.93663   -648.31283    75.947302   -3471.6513 
 6903000    276.69521   -3811.0953   -3336.8492   -3811.0953            0   -2283.0678    18.670951    21.991914    22.778516    9353.0852   -2952.7156   -2914.0498   -982.43792   -242.20894   -620.30472    -549.4218   -3648.2714 
 6904000     262.0852   -3803.0507   -3353.8456   -3803.0507            0   -922.08537    18.660148     21.97919    22.765337      9336.86   -26.439582   -595.23834   -2144.5782   -139.94467    216.87848   -1076.9236   -3479.4046 
 6905000    282.28422   -3831.1482   -3347.3227   -3831.1482            0   -1909.3695     18.64783    21.964681     22.75031    9318.3823   -2911.6385   -1868.9722   -947.49774   -333.76945    262.51178   -157.72778   -3606.8042 
 6906000    244.41154   -3797.9632   -3379.0502   -3797.9632            0   -1916.1971    18.652563    21.970255    22.756083    9325.4784   -1884.5886    -1216.308   -2647.6946   -597.95531    229.31496    155.36078   -3639.6579 
 6907000     265.0241   -3795.4411   -3341.1989   -3795.4411            0   -1638.1446    18.549534    21.848901    22.630389    9171.8012   -1937.8196   -1716.2997   -1260.3146    638.71113    1239.8543   -454.92691   -3560.3192 
 6908000     282.3359   -3825.3975   -3341.4835   -3825.3975            0   -2021.4849    18.610136    21.920282    22.704322    9261.9884   -2519.7694   -2495.0931   -1049.5922   -716.36504   -584.37357   -1473.7702   -3614.5388 
 6909000    278.95669   -3820.5677   -3342.4455   -3820.5677            0   -1075.2345    18.647467    21.964253    22.749867    9317.8381   -1900.1298   -1399.9397    74.366107   -537.15342   -1391.6955    51.434628   -3488.5603 
 6910000    289.14972   -3783.5264   -3287.9336   -3783.5264            0   -2656.6804    18.742463    22.076146    22.865761    9460.9685    -2739.361   -2212.7042   -3017.9761    180.80462    719.07888   -59.950576   -3654.4985 
 6911000    279.38855   -3832.4864    -3353.624   -3832.4864            0   -1104.4673    18.640253    21.955756    22.741065    9307.0276   -207.15525   -2290.6634    -815.5833   -708.84523    220.40774     1007.112   -3503.5372 
 6912000    277.31727   -3805.5328   -3330.2205   -3805.5328            0   -1206.5916    18.706328    22.033583    22.821676     9406.352    -1489.985   -1098.4289    -1031.361   -179.77345    95.902731    727.33417   -3495.7432 
 6913000     274.4925   -3788.8275   -3318.3567   -3788.8275            0   -1591.2892    18.673385    21.994781    22.781486    9356.7439   -669.47884   -2742.1398    -1362.249    1101.0068    267.67663    44.375795   -3535.5017 
 6914000    273.13696   -3793.4382   -3325.2908   -3793.4382            0   -1917.1681    18.793587    22.136363    22.928132       9538.6   -2629.0707   -2708.5839    -413.8497    1718.5473    730.66786    136.95113   -3591.9894 
 6915000    268.20065    -3786.287   -3326.6002    -3786.287            0   -744.98303     18.80721    22.152409    22.944752    9559.3576   -2072.1246   -901.54742    738.72295   -294.98076    384.45274    470.57442   -3430.4609 
 6916000    288.28806   -3790.3314   -3296.2155   -3790.3314            0   -1214.2546    18.816136    22.162923    22.955642    9572.9746   -2334.4622   -40.205007   -1268.0965    121.94246    31.352452   -499.78144     -3465.74 
 6917000    267.91202   -3838.1122   -3378.9202   -3838.1122            0    -1901.575    18.690424    22.014851    22.802274    9382.3812    -1444.419   -1053.5951   -3206.7109    -537.7631    930.41374   -267.02342   -3639.1173 
 6918000    295.73806   -3793.3995   -3286.5146   -3793.3995            0   -1875.9133    18.744047    22.078011    22.867693    9463.3662   -1367.9046   -2561.9464   -1697.8887    1160.0629    582.22584    218.33594    -3545.416 
 6919000    273.64303    -3758.296   -3289.2812    -3758.296            0   -1290.1086    18.719744    22.049385    22.838044    9426.6046   -1435.9641    -1494.568   -939.79351     573.2293    381.86051    162.32477   -3466.6419 
 6920000    284.10795   -3797.1857   -3310.2344   -3797.1857            0   -1306.8703     18.81217    22.158251    22.950803    9566.9228    -1522.562   -2215.2555   -182.79337   -831.39308    335.24702     465.6662   -3492.5738 
 6921000    270.43993   -3805.9436   -3342.4188   -3805.9436            0   -1863.1145    18.795028    22.138061    22.929891    9540.7944   -2323.0923   -1334.8809   -1931.3702    751.30225   -326.41038    358.73679   -3601.6576 
 6922000    277.63893   -3818.8687   -3343.0051   -3818.8687            0   -1800.0113    18.737237     22.06999    22.859386    9453.0564    -1632.231   -1646.9679    -2120.835    191.79204    897.47642    496.52379   -3591.1603 
 6923000    280.04534   -3836.0278   -3356.0396   -3836.0278            0   -2582.8076    18.793157    22.135856    22.927607    9537.9446   -3875.6432   -2165.6425   -1707.1372    765.96214    1352.9364    234.21189   -3715.3111 
 6924000    273.23405   -3840.9387   -3372.6249   -3840.9387            0   -2435.5893    18.635323    21.949949    22.735051    9299.6451   -1567.7338     -3031.61   -2707.4241     62.14704     211.1912    383.30595   -3702.9536 
 6925000    289.41587   -3831.2104   -3335.1615   -3831.2104            0   -503.67597    18.523174    21.817852    22.598229    9132.7545     83.39144   -186.84977   -1407.5696   -1251.7114    327.34847    1067.2023    -3402.247 
 6926000    281.44602   -3811.7788     -3329.39   -3811.7788            0   -1259.4479    18.709646    22.037492    22.825724    9411.3581   -2926.6233   -298.87806   -552.84232   -809.58878    355.03043   -386.79554   -3502.2555 
 6927000    289.50222    -3816.598   -3320.4011    -3816.598            0   -2129.3001    18.775325    22.114853    22.905852    9510.8202   -3416.7979   -902.72575   -2068.3766   -1093.1503   -216.54392    -820.5761   -3615.7469 
 6928000    279.52744   -3801.9196   -3322.8191   -3801.9196            0   -1294.8986    18.806713    22.151824    22.944146       9558.6   -2159.9089   -1675.7532   -49.033773   -1052.9584    311.63419    41.439612   -3503.3311 
 6929000    276.71423   -3797.6501   -3323.3714   -3797.6501            0    -1305.103    18.940817    22.309781    23.107753    9764.5384   -1780.2513   -1294.9119   -840.14571   -855.68194    706.99987   -757.07057   -3509.2256 
 6930000    285.56565   -3816.2637   -3326.8139   -3816.2637            0   -2131.1817    18.792196    22.134724    22.926435    9536.4817   -1492.7944   -2197.0674   -2703.6833   -831.28775    81.900884   -477.53171   -3623.2183 
 6931000    289.45922   -3780.4228   -3284.2996   -3780.4228            0   -2582.6073    18.908811    22.272081    23.068705    9715.1213    -1153.347   -3760.5703   -2833.9045     262.8228   -520.60042   -1039.7317   -3650.2165 
 6932000    280.99431   -3758.5632   -3276.9486   -3758.5632            0   -517.94387    18.770052    22.108642    22.899419     9502.809    33.698856   -1566.1391   -21.391385    1424.1122   -833.64365    782.57577   -3348.7297 
 6933000    266.89696   -3819.3962   -3361.9439   -3819.3962            0   -1547.5371    18.702311    22.028852    22.816776    9400.2938      -205.74   -2689.6898   -1747.1816    445.52375   -157.79516   -1251.4861   -3574.1014 
 6934000    278.65173   -3847.6661   -3370.0666   -3847.6661            0   -895.83402    18.622426    21.934758    22.719316    9280.3503   -867.71227   -2209.0668    389.27702   -203.24128   -1896.5438    787.83734   -3491.3127 
 6935000     273.3321   -3828.6038    -3360.122   -3828.6038            0   -2424.8646    18.819544    22.166937      22.9598     9578.178   -2690.1453   -2833.7001   -1750.7483    555.53452    228.04267    156.94885   -3698.8462 
 6936000    280.70212   -3816.1972   -3335.0834   -3816.1972            0   -569.08203    18.743259    22.077084    22.866733    9462.1741   -1268.2139    431.62742   -870.65961    261.22374    332.01522    289.88816   -3413.6145 
 6937000    275.13468   -3841.8311   -3370.2596   -3841.8311            0   -1836.1843    18.780682    22.121162    22.912388    9518.9633   -1322.6949   -2147.3767   -2038.4814    121.30304   -865.59079    985.97414   -3625.1667 
 6938000    287.84243   -3799.5404   -3306.1883   -3799.5404            0   -677.70121    18.704853    22.031846    22.819877    9404.1267   -1773.4085   -665.16762     405.4725   -451.30496   -621.32036    198.71885   -3399.1347 
 6939000    257.46112   -3833.4033   -3392.1238   -3833.4033            0   -1208.0173    18.709929    22.037825     22.82607    9411.7856    -1099.676   -149.92849   -2374.4476    866.91028   -1387.5056    747.77125   -3557.9377 
 6940000    274.98754   -3789.8679   -3318.5487   -3789.8679            0   -770.63379    18.736799    22.069474    22.858851    9452.3931   -281.98107    235.82398   -2265.7443    992.21986   -340.77596    41.840783   -3424.7832 
 6941000    265.30967   -3778.7886   -3324.0569   -3778.7886            0   -1864.4708    18.853594    22.207043     23.00134    9630.2603   -1278.8884   -1764.1797   -2550.3445   -1460.2975   -331.82206    655.15024   -3585.9171 
 6942000    277.76879   -3809.0766   -3332.9905   -3809.0766            0   -1535.7671    18.763213    22.100586    22.891075    9492.4252   -2720.4535   -1443.2935   -443.55431   -488.54749   -175.43471    283.19293   -3545.5979 
 6943000    286.16321   -3831.5839   -3341.1099   -3831.5839            0   -2849.3151    18.805301     22.15016    22.942423    9556.4466    -3674.115   -3086.7626   -1787.0677   -175.77637   -127.15568    1277.0654   -3738.2217 
 6944000    290.34214   -3832.3418   -3334.7053   -3832.3418            0   -2843.9108    18.721204    22.051106    22.839826    9428.8112   -2180.3104   -3026.4204   -3325.0016    288.46406    886.09113    872.66392   -3725.7702 
 6945000    266.05403   -3828.1373   -3372.1298   -3828.1373            0   -2209.0922    18.641093    21.956745     22.74209    9308.2854   -2334.8873   -3129.8907   -1162.4987    570.33448   -653.39251    1179.5722   -3672.0181 
 6946000    278.38164   -3798.7224   -3321.5858   -3798.7224            0   -593.70487    18.593573    21.900773    22.684115    9237.2805   -1010.1605   -997.48279     226.5287    249.82768    797.68827    1762.0006   -3401.5675 
 6947000     278.1917   -3800.9704   -3324.1593   -3800.9704            0   -1785.1041    18.690492     22.01493    22.802356    9382.4825   -955.70267   -1712.1697   -2687.4401   -764.47029    919.19559    713.23862   -3568.4221 
 6948000    276.47565     -3779.42   -3305.5502     -3779.42            0   -1850.4026    18.635128    21.949719    22.734813    9299.3529   -2084.2228   -1776.8218   -1690.1632    242.53751    1315.2696    1669.6517   -3556.5047 
 6949000    287.10855   -3772.1126   -3280.0184   -3772.1126            0   -1506.3955    18.614694     21.92565    22.709883     9268.795   -1742.6286   -420.99278   -2355.5651   -411.96757   -281.43412   -338.18744   -3483.6467 
 6950000     269.3127   -3768.4931   -3306.9004   -3768.4931            0   -2724.2855    18.838078    22.188767    22.982411    9606.5035   -2432.8696   -3245.3132   -2494.6738   -1415.4298    1154.1807    631.87782   -3688.5755 
 6951000    284.31807   -3816.0904   -3328.7789   -3816.0904            0   -1895.6283    18.660555    21.979669    22.765834    9337.4712   -1568.4635   -2171.6258   -1946.7957    287.32147    733.27665     893.9738   -3586.9207 
 6952000     283.2317    -3771.196   -3285.7465    -3771.196            0   -2795.1582    18.692419    22.017201    22.804708    9385.3855   -2893.9678   -3056.9117    -2434.595   -754.60442   -506.05725    1098.8909   -3668.3372 
 6953000    285.99439   -3832.0957   -3341.9111   -3832.0957            0   -2105.2551    18.641026    21.956666    22.742008    9308.1847   -983.27569    -3569.693   -1762.7967   -1887.7579    -292.9269    980.10083   -3627.7002 
 6954000     266.2309   -3794.9149   -3338.6042   -3794.9149            0   -1786.6283    18.704822    22.031809    22.819839    9404.0801   -2889.6025    -1410.866   -1059.4163   -522.22306    395.27198    65.323486   -3583.6383 
 6955000    266.92077   -3829.6226   -3372.1295   -3829.6226            0   -2078.9105    18.745484    22.079704    22.869447    9465.5439   -1757.0593   -1353.6381    -3126.034    -216.1452     812.9405   -282.12416   -3659.1132 
 6956000    286.21781   -3866.4454   -3375.8778   -3866.4454            0   -933.07529    18.656185    21.974521    22.760502    9330.9118   -1737.1288    133.72467   -1195.8218   -576.77477    2241.1485    741.03918   -3502.8524 
 6957000    279.06277   -3842.5858   -3364.2817   -3842.5858            0   -2095.0158    18.552983    21.852963    22.634595     9176.917   -2517.4127     -2302.21   -1465.4248    965.26389    194.19556    569.44558   -3644.6701 
 6958000    289.27628   -3815.0474   -3319.2377   -3815.0474            0   -2654.4481    18.621299     21.93343    22.717941    9278.6651    -3912.963    -1110.772   -2939.6092    95.990684   -699.24871     45.08157   -3678.4372 
 6959000     266.2361    -3799.832   -3343.5124    -3799.832            0   -1397.9165    18.710205     22.03815    22.826406    9412.2017   -1518.2221   -2834.1443    158.61688    242.44395    142.25912   -46.449872   -3535.4006 
 6960000     278.7257   -3785.7712   -3308.0449   -3785.7712            0   -859.92821    18.586506    21.892449    22.675494    9226.7518   -1937.1604   -510.31373    -132.3105    200.42048   -41.643189     608.0996   -3423.7592 
 6961000    265.30076   -3816.0224    -3361.306   -3816.0224            0   -769.45014    18.502846    21.793909    22.573429    9102.7208   -1137.7608   -325.01592   -845.57372    203.58388   -693.53767    -659.2667   -3463.4534 
 6962000      285.174   -3813.4428   -3324.6643   -3813.4428            0   -2386.1192    18.568086    21.870752    22.653021    9199.3469   -2073.8911   -3934.4125   -1150.0541    258.72283   -229.77057   -307.24274   -3644.7933 
 6963000    290.99909   -3779.0604   -3280.2979   -3779.0604            0   -1430.0618    18.681188    22.003971    22.791005     9368.478   -1340.1312   -1835.6211   -1114.4331   -153.69924    1727.6239   -191.42873   -3475.6867 
 6964000    270.24555   -3804.8265   -3341.6349   -3804.8265            0   -1236.6825    18.626369    21.939403    22.724127    9286.2467   -985.87269   -1333.6709    -1390.504   -659.06175    900.04421   -148.44623   -3509.1193 
 6965000    256.88378   -3840.9648   -3400.6748   -3840.9648            0   -2467.0192    18.673337    21.994725    22.781428     9356.672   -965.78106   -3288.4744   -3146.8021   -494.84977    791.45204    460.19383    -3737.318 
 6966000    270.21583   -3821.6647    -3358.524   -3821.6647            0   -600.81112    18.599017    21.907186    22.690758    9245.3973   -425.82583   -2124.0327    747.42518   -1231.9575     966.5542    1021.3504   -3439.5341 
 6967000    266.90643   -3826.0499   -3368.5814   -3826.0499            0   -1457.3682    18.720958    22.050816    22.839525    9428.4392   -1507.7696   -1316.6746   -1547.6605   -1524.7572    834.96637   -1131.1051   -3568.9756 
 6968000    287.18678   -3820.3698   -3328.1415   -3820.3698            0   -2430.1331    18.658858     21.97767    22.763763    9334.9229   -3192.3215   -2854.3794   -1243.6984    120.24459   -51.410672    48.821251   -3658.9805 
 6969000     280.6113   -3788.0596   -3307.1015   -3788.0596            0   -1958.8717    18.677418    21.999531    22.786406    9362.8079   -2173.9311   -2208.1145   -1494.5695    451.20033    277.99953   -957.40849   -3574.5794 
 6970000    262.39112   -3846.9476   -3397.2182   -3846.9476            0   -1471.0744    18.638817    21.954064    22.739313    9304.8766    -900.7031    -1341.976   -2170.5443     708.1833    818.95969   -994.24474   -3596.8461 
 6971000     277.1678   -3850.0494   -3374.9933   -3850.0494            0   -1158.9592    18.607634    21.917334    22.701269    9258.2525   -1076.7265   -1724.4901   -675.66091    931.27331   -1392.2634   -152.45073   -3531.4784 
 6972000    283.56749   -3865.1439    -3379.119   -3865.1439            0   -1798.2997    18.750012    22.085037     22.87497    9472.4041   -2777.9933   -1390.1594   -1226.7463     184.2426    47.143317    602.00814   -3627.5456 
 6973000    282.36436   -3861.4986   -3377.5358   -3861.4986            0   -2514.9722     18.79675    22.140089    22.931991    9543.4168   -2351.8241   -2361.7436   -2831.3488    901.04602    143.07413    346.02896    -3727.572 
 6974000    286.79527   -3834.1802   -3342.6229   -3834.1802            0   -2698.2775    18.742686    22.076408    22.866033    9461.3052   -3769.3836    -1479.334   -2846.1148   -426.40293   -675.22873    1208.8442   -3714.9405 
 6975000    288.23067   -3863.1016   -3369.0841   -3863.1016            0   -3082.1961    18.848534    22.201083    22.995167    9622.5085   -2992.2292    -3216.167    -3038.192   -639.07021   -220.86963    672.84495   -3801.6223 
 6976000    273.14117   -3775.2953   -3307.1407   -3775.2953            0   -3444.5594    18.893759    22.254353    23.050342    9691.9399   -3277.1524    -2646.715   -4409.8108    104.04325   -511.89742    839.27689   -3794.0188 
 6977000    299.74591   -3771.4523   -3257.6981   -3771.4523            0   -937.77097    18.794802    22.137794    22.929614    9540.4495   -52.976692   -975.36016   -1784.9761    367.40367    110.56355   -155.11481   -3388.1773 
 6978000    284.47618   -3803.4999   -3315.9174   -3803.4999            0    -1321.062     18.75942    22.096119    22.886448    9486.6702   -895.00267   -1510.3084    -1557.875   -1355.7054   -313.41751    783.51099   -3498.6908 
 6979000    282.84635   -3812.5273   -3327.7383   -3812.5273            0   -2602.8618    18.850503    22.203403     22.99757    9625.5252   -1202.9465   -2903.4041   -3702.2349   -271.29585    58.210241    -609.8047   -3693.1239 
 6980000    284.17824   -3765.3347   -3278.2629   -3765.3347            0   -2308.6093    18.890682    22.250728    23.046588    9687.2053   -1208.2793   -2521.1931   -3196.3556   -865.37168   -747.49293    373.31942   -3604.4185 
 6981000    276.05897   -3767.2752   -3294.1195   -3767.2752            0   -1199.2506    18.788883    22.130822    22.922393     9531.439   -774.21784   -1965.0389   -858.49519    190.83856   -710.39796   -841.80088   -3460.8229 
 6982000     285.6039   -3814.0366   -3324.5213   -3814.0366            0   -2202.9601    18.807554    22.152815    22.945172    9559.8827   -2311.7408   -2528.1368   -1769.0027   -853.69719    330.35203   -944.78963   -3631.6603 
 6983000    255.05108   -3785.6299   -3348.4811   -3785.6299            0   -2205.3444     18.93905      22.3077    23.105597    9761.8061   -1834.2028    -2823.274   -1958.5564   -140.35555    535.58857    -614.6229    -3662.447 
 6984000    288.16786   -3833.4089    -3339.499   -3833.4089            0   -874.17686    18.776296    22.115996    22.907037    9512.2956   -932.91557    -1415.519   -274.09601    163.08095    760.11905    336.03722    -3460.771 
 6985000    256.71134   -3807.6155   -3367.6211   -3807.6155            0    -1161.373     18.79153     22.13394    22.925623    9535.4682    -1636.561   -441.33099   -1406.2269    609.00465   -670.88082   -904.36825   -3529.1274 
 6986000    281.70765   -3817.0157   -3334.1784   -3817.0157            0   -1296.3457    18.768118    22.106363     22.89706    9499.8717   -1622.5368   -1066.9715   -1199.5286   -213.58119    -163.9625    41.498386   -3513.7818 
 6987000    287.65227    -3804.261   -3311.2349    -3804.261            0   -1228.6887    18.819935    22.167398    22.960277    9578.7747   -863.19591   -1984.0328   -838.83742    36.069972    566.80027    1214.2833   -3482.8785 
 6988000    281.96499   -3762.5731   -3279.2948   -3762.5731            0   -837.52039    18.675084    21.996782    22.783559    9359.2981   -1785.8579   -313.80765   -412.89561   -490.18059   -366.30747   -1375.6872   -3393.6128 
 6989000    266.19523   -3775.5942   -3319.3447   -3775.5942            0   -2063.6804    18.823697    22.171828    22.964866    9584.5191   -2171.3609   -1721.3827   -2298.2975    477.97686   -521.87473    534.09692   -3607.8067 
 6990000    263.39927   -3754.8272   -3303.3699   -3754.8272            0   -1117.6366     18.68051    22.003173    22.790179    9367.4586   -404.76077    -1789.652   -1158.4969   -223.93375   -317.47285    512.45657   -3456.0556 
 6991000    268.73641   -3825.1364   -3364.5314   -3825.1364            0   -752.74122    18.742372    22.076039     22.86565    9460.8305   -1137.2511   -322.16198   -798.81058    370.71935    178.74427    649.22984    -3468.392 
 6992000     273.7991   -3776.2968   -3307.0145   -3776.2968            0   -1771.6683     18.87068    22.227168    23.022185    9656.4659   -3389.2432   -822.77563   -1102.9862   -283.46087    512.27023     148.1604   -3556.5179 
 6993000    295.08988   -3807.1266   -3301.3526   -3807.1266            0   -3035.0422    18.765415     22.10318    22.893763    9495.7686   -3386.9978   -3068.5567    -2649.572    405.23022   -562.90011    379.80749   -3721.6636 
 6994000     280.8609   -3819.2519    -3337.866   -3819.2519            0   -1012.9233    18.830284    22.179587    22.972902    9594.5851   -417.13603   -2257.5052   -364.12855   -484.01223   -367.88446   -665.04669   -3479.6015 
 6995000    280.66911   -3801.8663    -3320.809   -3801.8663            0   -2521.3342    18.799228    22.143007    22.935014    9547.1908    -2050.066   -2049.2688   -3464.6678   -446.37398    292.79449   -429.09642   -3671.8695 
 6996000     279.2242   -3822.7284   -3344.1477   -3822.7284            0   -2103.9988    18.834046    22.184019    22.977492    9600.3371    -2373.411   -3170.9293   -767.65609   -1241.1163   -127.45804    127.97391   -3638.7308 
 6997000    262.27706   -3822.0274   -3372.4935   -3822.0274            0   -1806.7271    18.781007    22.121545    22.912784    9519.4575   -1399.5046   -1980.1522   -2040.5245    580.20918    1011.2931    414.87449   -3623.3242 
 6998000    276.37004     -3809.85   -3336.1612     -3809.85            0   -1572.0471    18.771429    22.110264    22.901099    9504.9007   -2051.1509   -1590.6311   -1074.3591   -222.52276   -318.16243     1675.437   -3554.0771 
 6999000    268.98468   -3816.1382   -3355.1077   -3816.1382            0   -2017.5835    18.778258    22.118307     22.90943    9515.2777   -1626.5287   -2744.0822   -1682.1397    719.03979    337.16062   -136.63645   -3635.0889 
 7000000    283.99545   -3809.8107   -3323.0522   -3809.8107            0   -2494.6812    18.796018    22.139226    22.931098    9542.3012    -1986.032   -3720.7992   -1777.2124    586.32184     175.4072   -844.89877   -3670.2237 
Loop time of 298.427 on 64 procs for 250000 steps with 864 atoms

Performance: 144.759 ns/day, 0.166 hours/ns, 837.726 timesteps/s
385.3% CPU use with 16 MPI tasks x 4 OpenMP threads

MPI task timing breakdown:
Section |  min time  |  avg time  |  max time  |%varavg| %total
---------------------------------------------------------------
Pair    | 25.257     | 26.489     | 27.603     |  14.1 |  8.88
Bond    | 1.6566     | 1.8077     | 2.0888     |   9.1 |  0.61
Kspace  | 156.84     | 158.12     | 161.08     |   9.0 | 52.98
Neigh   | 2.7684     | 2.8694     | 2.9507     |   2.8 |  0.96
Comm    | 43.009     | 46.291     | 49.012     |  23.2 | 15.51
Output  | 0.58555    | 0.58582    | 0.58739    |   0.1 |  0.20
Modify  | 46.818     | 52.81      | 56.078     |  41.4 | 17.70
Other   |            | 9.453      |            |       |  3.17

Nlocal:        54.0000 ave          58 max          46 min
Histogram: 1 0 0 2 0 2 3 2 2 4
Nghost:        2447.94 ave        2480 max        2411 min
Histogram: 1 2 3 0 1 1 1 3 1 3
Neighs:        12904.1 ave       14587 max       10447 min
Histogram: 1 0 0 1 2 1 7 3 0 1

Total # of neighbors = 206465
Ave neighs/atom = 238.96412
Ave special neighs/atom = 2.0000000
Neighbor list builds = 14783
Dangerous builds = 1

unfix		3
unfix		2
unfix		1

write_data	data.final.${pid}
write_data	data.final.1
System init for write_data ...
PPPM initialization ...
  extracting TIP4P info from pair style
  using 12-bit tables for long-range coulomb (../kspace.cpp:340)
  G vector (1/distance) = 0.37127985
  grid = 24 25 27
  stencil order = 5
  estimated absolute RMS force accuracy = 0.0031856831
  estimated relative force accuracy = 9.59359e-06
  using double precision FFTW3
  3d grid and FFT values/proc = 5700 1200
Last active /omp style is kspace_style pppm/tip4p/omp
WARNING: Not all mixed pair coeffs generated from mixing. Use write_data with 'pair ij' option to store all pair coeffs. (../write_data.cpp:312)

write_restart   restart.lmp.${pid}
write_restart   restart.lmp.1
System init for write_restart ...
PPPM initialization ...
  extracting TIP4P info from pair style
  using 12-bit tables for long-range coulomb (../kspace.cpp:340)
  G vector (1/distance) = 0.37127985
  grid = 24 25 27
  stencil order = 5
  estimated absolute RMS force accuracy = 0.0031856831
  estimated relative force accuracy = 9.59359e-06
  using double precision FFTW3
  3d grid and FFT values/proc = 5700 1200
Last active /omp style is kspace_style pppm/tip4p/omp
Total wall time: 0:04:58
