LAMMPS (30 Jul 2021)
Processor partition = 0
  using 2 OpenMP thread(s) per MPI task
using multi-threaded neighbor list subroutines
variable        pid world 0 1
variable        phase world IceIII Liquid

shell cd ${phase}
shell cd IceIII
include Restart.lmp
echo both
log log.lammps
#include		in.partitions
include		in.temp
variable        temperature equal 259.72
variable	tempDamp equal 100.0
include		in.pressure
variable        pressure equal 2625.0
variable        pressureDamp equal 1000.0 # This is 1 ps
include		in.seed
variable        seed equal 745823

units		real
atom_style	full

read_restart	restart.lmp.${pid}
read_restart	restart.lmp.0
Reading restart file ...
  restart file = 30 Jul 2021, LAMMPS = 30 Jul 2021
  restoring atom style full from restart
  orthogonal box = (-0.099129203 -0.031043026 -0.12653552) to (20.099130 20.031044 20.826534)
  4 by 2 by 4 MPI processor grid
  restoring pair style lj/cut/tip4p/long/omp from restart
  restoring bond style harmonic/omp from restart
  restoring angle style harmonic/omp from restart
  972 atoms
  648 bonds
  324 angles
Finding 1-2 1-3 1-4 neighbors ...
  special bond factors lj:    0        0        0       
  special bond factors coul:  0        0        0       
     2 = max # of 1-2 neighbors
     1 = max # of 1-3 neighbors
     1 = max # of 1-4 neighbors
     2 = max # of special neighbors
  special bonds CPU = 0.002 seconds
  read_restart CPU = 0.009 seconds
include 	in.setup
variable	out_freq equal 1000
variable	out_freq2 equal 10000
variable	out_freq3 equal 1000

timestep	2.0

neigh_modify    delay 7 every 1

include		in.tip4p
# This is TIP4P/Ice

# create groups ###
group ox type 2
324 atoms in group ox
group hy type 1
648 atoms in group hy

# set charges - beside manually ###
set group ox charge -1.1794
Setting atom values ...
  324 settings made for charge
set group hy charge 0.5897
Setting atom values ...
  648 settings made for charge

# ### TIP3P Potential Parameters ###
pair_style lj/cut/tip4p/long/omp 2 1 1 1 0.1577 8.5
pair_coeff 1 1*2 0.000 0.000
pair_coeff 2 2 0.21084 3.1668
bond_style  harmonic
bond_coeff  1 450 0.9572
angle_style harmonic
angle_coeff 1 55 104.52
kspace_style pppm/tip4p/omp 1.0e-5
pair_modify tail yes

thermo          ${out_freq}
thermo          1000
thermo_style    custom step temp pe etotal epair emol press lx ly lz vol pxx pyy pzz pxy pxz pyz enthalpy

restart 	${out_freq3} restart.lmp.${pid} restart2.lmp.${pid}
restart 	1000 restart.lmp.${pid} restart2.lmp.${pid}
restart 	1000 restart.lmp.0 restart2.lmp.${pid}
restart 	1000 restart.lmp.0 restart2.lmp.0


include         in.dump
dump            myDump all atom ${out_freq2} dump.water.${pid}
dump            myDump all atom 10000 dump.water.${pid}
dump            myDump all atom 10000 dump.water.0
dump            myDump2 all dcd ${out_freq2} dump.dcd
dump            myDump2 all dcd 10000 dump.dcd
dump_modify     myDump append yes
dump_modify     myDump2 append yes


variable natoms 	equal  "count(all)"                        # NUMBER ATOMS
variable H      	equal  "enthalpy/v_natoms"                 # ENTHALPY-per-atom
variable Vol      	equal  "vol/v_natoms"                 # volume-per-atom
fix AVG all 		ave/time ${out_freq} 1 ${out_freq} v_Vol v_H file vol_enthalpy.dat
fix AVG all 		ave/time 1000 1 ${out_freq} v_Vol v_H file vol_enthalpy.dat
fix AVG all 		ave/time 1000 1 1000 v_Vol v_H file vol_enthalpy.dat


timer           timeout 02:55:00 every 1000
New timer settings: style=normal  mode=nosync  timeout=02:55:00

fix 		1 all shake 1e-6 200 0 b 1 a 1
Finding SHAKE clusters ...
       0 = # of size 2 clusters
       0 = # of size 3 clusters
       0 = # of size 4 clusters
     324 = # of frozen angles
  find clusters CPU = 0.001 seconds
fix             2 all nph aniso ${pressure} ${pressure} ${pressureDamp}
fix             2 all nph aniso 2625 ${pressure} ${pressureDamp}
fix             2 all nph aniso 2625 2625 ${pressureDamp}
fix             2 all nph aniso 2625 2625 1000
fix             3 all temp/csvr ${temperature} ${temperature} ${tempDamp} ${seed}
fix             3 all temp/csvr 259.72 ${temperature} ${tempDamp} ${seed}
fix             3 all temp/csvr 259.72 259.72 ${tempDamp} ${seed}
fix             3 all temp/csvr 259.72 259.72 100 ${seed}
fix             3 all temp/csvr 259.72 259.72 100 745823


run             250000
PPPM initialization ...
  extracting TIP4P info from pair style
  using 12-bit tables for long-range coulomb (../kspace.cpp:340)
  G vector (1/distance) = 0.37183229
  grid = 24 24 25
  stencil order = 5
  estimated absolute RMS force accuracy = 0.0034785922
  estimated relative force accuracy = 1.0475677e-05
  using double precision FFTW3
  3d grid and FFT values/proc = 3458 576
Last active /omp style is kspace_style pppm/tip4p/omp
Neighbor list info ...
  update every 1 steps, delay 7 steps, check yes
  max neighbors/atom: 2000, page size: 100000
  master list distance cutoff = 10.8154
  ghost atom cutoff = 10.8154
  binsize = 5.4077, bins = 4 4 4
  1 neighbor lists, perpetual/occasional/extra = 1 0 0
  (1) pair lj/cut/tip4p/long/omp, perpetual
      attributes: half, newton on, omp
      pair build: half/bin/newton/omp
      stencil: half/bin/3d
      bin: standard
Setting up Verlet run ...
  Unit style    : real
  Current step  : 2750000
  Time step     : 2
  Walltime left : 2:54:59.93
Per MPI rank memory allocation (min/avg/max) = 10.19 | 10.19 | 10.20 Mbytes
Step Temp PotEng TotEng E_pair E_mol Press Lx Ly Lz Volume Pxx Pyy Pzz Pxy Pxz Pyz Enthalpy 
 2750000     269.0044   -4670.1581   -4151.3605   -4670.1581            0     4140.913    20.198259    20.062087    20.953069    8490.5867    3468.3919    3938.1395    5016.2077     611.3674   -554.02035   -1941.7152   -3638.6057 
 2751000    267.01586   -4707.1827   -4192.2202   -4707.1827            0    3342.0218    20.320491    20.024394    20.805924    8466.0454    1684.0431    3129.6508    5212.3715    46.209857   -793.05172   -599.21481   -3779.5854 
 2752000    263.80575   -4694.3649   -4185.5933   -4694.3649            0    2689.6826    20.255131    20.005465    20.957435    8492.2315    1380.3537    3821.5984    2867.0956   -647.76107    175.57925    623.65258   -3852.4748 
 2753000     253.2648    -4682.228   -4193.7856    -4682.228            0    2793.1291     20.04019    20.034831    21.031301    8444.1051     3410.284    1910.2918    3058.8116   -417.79516    -600.3757    141.06038   -3849.8156 
 2754000    241.34066   -4693.3404   -4227.8946   -4693.3404            0    1247.2979    20.115191    19.964855    21.328103    8565.2995    1011.8142    1742.4663    987.61315    401.67152    486.07817    195.31882    -4072.087 
 2755000    259.40936    -4687.001   -4186.7083    -4687.001            0    2052.3416    20.115226    20.090792    20.980595    8478.9051    1171.4665    2441.3112     2544.247   -49.384126   -80.375314   -1753.5172   -3932.9237 
 2756000    263.67997   -4680.5702   -4172.0412   -4680.5702            0    1955.1288    20.194756    20.278616    20.787616    8512.9801    1173.3141    1373.8429    3318.2292     69.33458   -697.68876    687.55754    -3929.306 
 2757000    261.98514   -4682.1763   -4176.9159   -4682.1763            0    2751.3898    20.222088    19.951221    21.030944    8485.0464    632.93575     4781.586    2839.6477   -82.403718    423.04987    433.93537   -3836.4433 
 2758000    265.88432   -4690.7962    -4178.016   -4690.7962            0    2171.0342     20.31361    20.096107    20.783225    8484.2211    1397.4074     3182.483    1933.2121    492.88412    1465.7227   -1258.5424   -3909.3859 
 2759000    269.37004   -4671.8602   -4152.3574   -4671.8602            0    2806.6398     20.08851    20.191246    20.964649    8503.5138    3393.7808    2856.0384    2170.1003    185.61521    164.48153    59.767625   -3804.2919 
 2760000    266.74997   -4680.7737   -4166.3239   -4680.7737            0    2998.8661    20.115964    20.004726    21.050674    8471.0931    4579.7355     1195.382    3221.4807    233.08921   -197.36522    316.43891   -3795.8374 
 2761000    260.09426   -4679.4655   -4177.8519   -4679.4655            0     2549.052    20.195635    19.991685    21.087943    8514.1466    3735.5227    568.19257    3343.4407   -366.52462    1406.2989   -1832.5028   -3861.3359 
 2762000    266.66559   -4657.9284   -4143.6414   -4657.9284            0    1539.6127    20.160231    20.203964    21.098222    8593.6556    3770.4103    168.54369    679.88427    129.44276    463.90042    510.96447   -3950.6822 
 2763000    276.70777   -4674.7876   -4141.1334   -4674.7876            0    3784.2305    19.835723     20.12208    20.940305    8358.0299    5047.8382    4192.8073     2112.046    201.84725   -1079.0779   -1300.8225    -3679.861 
 2764000     258.1343   -4696.7027    -4198.869   -4696.7027            0     3094.133     20.21878    19.968031    20.837174     8412.576     2586.276      4239.11    2457.0132    571.24808    2489.4894    708.50696   -3819.2535 
 2765000    264.72595   -4698.7157   -4188.1694   -4698.7157            0    2573.3151    19.982854    20.355266    20.954171    8523.2411    3198.2035    2302.2833    2219.4586    230.41162    74.153186    281.05032   -3868.2993 
 2766000    259.25679   -4683.4818   -4183.4833   -4683.4818            0    1802.3833    20.381048    20.032996    20.822396    8501.6479    372.61321     2354.361    2680.1758    170.20684   -1214.9651   -847.92642   -3960.0097 
 2767000    264.24406   -4704.9757   -4195.3588   -4704.9757            0    3302.0298    20.106944    20.013538    21.052662    8471.8246    3043.7582     3531.507    3330.8241    -632.4527   -102.23999   -421.69561   -3787.3835 
 2768000    251.04476   -4696.9062   -4212.7453   -4696.9062            0    2551.1783    19.970652    20.209657    21.142722    8533.2034    1325.0621    4165.2743    2163.1985   -466.09968    292.09073   -315.68878   -3895.2562 
 2769000    261.61181   -4687.0294    -4182.489   -4687.0294            0    2681.9858    20.159417    20.000284    20.989162    8462.7055    2910.0376    2197.9493    2937.9705    156.56815    737.28868    811.64217   -3851.4786 
 2770000     267.6432   -4712.2139   -4196.0414   -4712.2139            0    1821.4567    20.148935    20.238899    21.016812    8570.4934    2926.1118    933.12613     1605.132    72.717317    69.661479   -107.70805   -3968.3742 
 2771000    246.81571    -4686.046   -4210.0412    -4686.046            0    3420.6282    20.070168     20.02593    20.842607    8377.1393     3475.749    4320.4097    2465.7258   -105.46337    1382.3971    733.81834   -3792.1362 
 2772000      256.937   -4683.6967   -4188.1721   -4683.6967            0    1297.8775    20.028497    20.215261    21.201017    8583.8952    1380.4937    1176.8692    1336.2695    -231.1859    -289.6415    835.00813   -4025.6943 
 2773000    253.21307   -4694.5089   -4206.1661   -4694.5089            0    2483.5012    20.018045    20.202531    20.979004    8484.2274     3343.827   -111.11038     4217.787    131.52224   -556.45895    1863.2572   -3898.8732 
 2774000    274.50545   -4662.8315   -4133.4247   -4662.8315            0    2786.5043     20.28994    20.216125    20.691451    8487.3013    3206.6735    1350.0835    3802.7559   -712.24407    477.71321   -1004.9094   -3788.5151 
 2775000    266.24975   -4672.8153   -4159.3302   -4672.8153            0    2878.9923    20.231495    20.083295    20.981653    8525.1618    3927.1514    1184.5076    3525.3179   -391.32885    1415.5174    -632.5662    -3801.383 
 2776000    285.77743   -4694.8837   -4143.7379   -4694.8837            0    2021.2557    19.997089    20.228025    20.990053    8490.5105     3752.858    842.05064    1468.8586    1025.5539    334.06348   -738.55184   -3893.4551 
 2777000    277.49659    -4687.843   -4152.6675    -4687.843            0    3327.2681    20.128241     20.07973    20.928025     8458.472    2340.4424    2825.7776    4815.5842   -278.04695    1038.6302    1098.7015   -3742.2219 
 2778000    253.33024   -4685.5192   -4196.9506   -4685.5192            0    4709.1509     20.06407    19.866095    21.152486    8431.2694    4178.6455    4493.8761    5454.9312    977.74029   -123.19347   -992.84853   -3617.9067 
 2779000    262.89536   -4684.4571   -4177.4413   -4684.4571            0    1713.0436    20.211718    20.154415    20.904062    8515.3818    1829.2353    1108.9788    2200.9167    1014.1776   -418.63635   -390.24162   -3964.7016 
 2780000    273.80903   -4688.2536   -4160.1899   -4688.2536            0    3123.8014    20.133414    20.176932    20.691472    8405.5077    3033.1033    2132.9437    4205.3573    154.59887    303.81215    592.83893   -3777.2565 
 2781000    256.72964   -4640.0195   -4144.8948   -4640.0195            0    2614.4533    20.319738    20.031297    20.874973    8496.7548     2085.779    2444.4483    3313.1326    40.731418    365.22881   -193.33087    -3820.921 
 2782000    271.08226   -4690.3495   -4167.5446   -4690.3495            0     3017.462    20.020255    19.953779    21.234425    8482.7228    2463.3693    4133.7681    2455.2487   -77.965482    4.2971409   -12.405941   -3794.2489 
 2783000    258.60744   -4680.0085   -4181.2623   -4680.0085            0       2637.3    20.019813    20.027379    21.228263    8511.3525     2761.877    2670.8355    2479.1874   -1340.7595    537.48368   -696.75534    -3853.896 
 2784000    247.27673   -4677.4021   -4200.5081   -4677.4021            0     1008.362    20.242339    20.089709    21.014464    8545.7986    1593.5447    1417.8316    13.709854    178.90563    207.51016    83.750287   -4074.8342 
 2785000    251.86336   -4724.4922   -4238.7525   -4724.4922            0    2721.2682    20.232114    20.196177    20.741526    8475.2231    3364.2101    2391.0082    2408.5865   -895.46614    1631.1355   -589.20117   -3902.3971 
 2786000    253.76667    -4702.657   -4213.2466    -4702.657            0    4118.8335    20.031445     20.06612     20.89195    8397.5895    4391.0063    3299.7603    4665.7339   -101.84332    -524.6987   -1001.5649   -3708.8121 
 2787000    254.36017   -4679.7785   -4189.2235   -4679.7785            0    3310.4989    20.340955    19.813375     21.05548    8485.8422    2368.5555    4712.7313    2850.2099    51.415399    1783.0176   -558.21457    -3779.525 
 2788000    259.00036    -4671.162    -4171.658    -4671.162            0    2894.5375    20.171157    20.049777    21.132359    8546.5009    3166.1165    3811.3263    1706.1698    364.28551    876.40649   -1115.7558   -3810.8772 
 2789000    246.16044   -4674.3161    -4199.575   -4674.3161            0    3931.9073    19.951254    20.019109    21.104546    8429.2893    4844.7744    4192.7696    2758.1777    239.98866   -456.10749   -124.98717   -3716.2156 
 2790000    251.25869   -4675.9023   -4191.3288   -4675.9023            0    2430.1169    20.199416    20.139891    20.849627    8481.9206    1736.1929    2049.5669    3504.5909    454.28578    1140.7202   -1242.3715   -3890.7231 
 2791000    260.03849   -4683.4713   -4181.9652   -4683.4713            0    1866.9154    20.221087      20.2914    20.614391    8458.3766    2757.0271   -130.21001    2973.9292   -530.57305     1213.024    207.60159   -3951.6686 
 2792000    259.29868   -4698.8472   -4198.7678   -4698.8472            0    3461.6317    20.162239    20.056644    20.962529    8476.9712    3368.4905    2630.6142    4385.7906   -115.84834   -47.568173   -1838.0983   -3770.8135 
 2793000    262.44622   -4677.9979   -4171.8483   -4677.9979            0     2103.568    20.106118    20.118452    21.196602    8574.1095    1143.3828    3433.4436    1733.8777   -901.46309     1384.642   -411.34312   -3908.8085 
 2794000    262.72874   -4722.6698   -4215.9753   -4722.6698            0    3283.6321    19.794072     20.15783    21.049472    8398.8558    4450.5421    3343.4011    2056.9531   -40.466934   -187.12875    -1317.768   -3813.7675 
 2795000    261.46097   -4734.6157   -4230.3662   -4734.6157            0    3694.1957    20.129811     19.96832    20.959882    8425.0032     3919.759    2921.4028    4241.4253   -72.072428   -54.063893    213.57852   -3776.4603 
 2796000    256.68982   -4701.6429    -4206.595   -4701.6429            0    2165.9545    20.179942     20.00558    21.037616    8493.1266    2191.6356    2240.4615    2065.7665   -474.57856   -120.22839   -839.67569   -3938.3122 
 2797000     257.1411   -4683.0988   -4187.1806   -4683.0988            0    3635.5252    20.345648     19.92534    20.949097    8492.6372    4361.8086    3124.3096    3420.4574   -614.25921     -230.605   -132.70197   -3736.8975 
 2798000    250.71612   -4699.6396   -4216.1125   -4699.6396            0    2571.7384    20.208833    19.993102    20.897918    8443.5374    3279.7865    2163.7817     2271.647    -606.9499    1460.8922    1064.1494   -3899.4278 
 2799000     267.4628   -4684.6511   -4168.8266   -4684.6511            0    1544.9208     20.32257    20.259731    20.603569    8483.1033    347.99218    653.18659    3633.5837   -69.486865   -130.29589    520.05705   -3977.6931 
 2800000    257.56358   -4700.7628   -4204.0297   -4700.7628            0    3183.4691    20.206778     20.25799    20.703411    8474.9146    2629.6318    3303.0759    3617.6996    280.85632     2299.563    2186.7886   -3810.5595 
 2801000    269.26661   -4636.9213   -4117.6181   -4636.9213            0    2232.0232    20.157255    20.155126    21.072677    8561.2389    1816.8681    2282.5881    2596.6134   -20.953954     197.1899    266.12152   -3838.9346 
 2802000    269.54469   -4724.7949   -4204.9553   -4724.7949            0     3158.607    19.780325     20.28601    21.082971    8459.8348    4601.2328    1407.2702    3467.3179   -812.88765   -703.38458   -166.10735   -3815.2527 
 2803000    249.80695   -4698.8088   -4217.0351   -4698.8088            0    2462.4925    20.206521    20.142533    20.903251    8507.8429    3020.7311     3401.514    965.23253   -867.97492    344.36758    1844.2346   -3911.4936 
 2804000    274.96117   -4693.3405   -4163.0548   -4693.3405            0    2037.3126      20.1633    20.011669    20.925175    8443.3349    568.05343     2796.917    2746.9673    137.70443    634.12049   -280.65969   -3912.1855 
 2805000    251.11262   -4665.5724   -4181.2806   -4665.5724            0    2749.2732    20.011911    20.184981    21.098506    8522.5311    2584.4321    3521.6635     2141.724    429.36094    962.13662    279.62251   -3839.5669 
 2806000    271.97224    -4665.854   -4141.3326    -4665.854            0    3568.6473    20.159033    19.973984    21.000668     8456.049     4216.511     3863.695     2625.736    365.61365   -297.85281   -42.487342    -3701.237 
 2807000    251.30126   -4702.4217   -4217.7661   -4702.4217            0    3899.0639    20.277771    19.809528    21.061912    8460.4247     2462.483    5294.7566    3939.9521   -3.6657235   -299.87387   -664.02382   -3736.6738 
 2808000     262.6526   -4685.0851   -4178.5375   -4685.0851            0    3888.2843    20.193927    19.828928    20.927131    8379.7235     2711.996    4782.4621    4170.3949   -938.39339    17.114342    803.76737   -3703.3516 
 2809000    251.76502   -4682.5485   -4196.9985   -4682.5485            0    1850.6127     20.24938    20.137007    20.995068    8560.9885    1698.7679    1687.1126    2165.9578   -65.657992    234.34724    418.86098   -3965.9435 
 2810000    259.13956   -4687.5636   -4187.7912   -4687.5636            0     3568.209    20.126186    20.172186    20.754138    8425.9551    2247.0655     3154.209    5303.3525    130.46365    931.02079    754.00071   -3749.3157 
 2811000    257.69785   -4680.7147   -4183.7227   -4680.7147            0    1571.6791    20.212985    19.967592     21.04359    8493.2904    2381.4001    2698.2124   -364.57521    121.76084    446.33389   -754.40853   -3989.0452 
 2812000    269.95384   -4665.9741   -4145.3454   -4665.9741            0    672.12478    20.087131    20.202132    21.064864    8548.1824    182.63382     708.3014    1125.4391    202.35207    546.73878   -611.42685    -4061.554 
 2813000    272.69107   -4684.9452   -4159.0376   -4684.9452            0    2896.6593    20.140614    20.030813    21.036023    8486.6231    4130.0781    1506.8723    3053.0276   -837.29788   -1776.0421   -970.06527   -3800.5218 
 2814000    257.16312   -4674.0181   -4178.0574   -4674.0181            0    1571.5269    20.354321    20.015239     20.88859    8509.9405    1176.0364    1222.8594    2315.6849    150.65804     1535.639   -672.52232   -3983.0172 
 2815000    258.15489   -4695.0066   -4197.1332   -4695.0066            0    3763.7248    20.127139    19.974601    20.827584     8373.346    4124.8485    2512.9383    4653.3877    -301.1924   -1882.1914    541.94017   -3737.5197 
 2816000    270.99629   -4661.2416   -4138.6025   -4661.2416            0     1334.055    20.188088    20.286146    20.869395    8546.8207    901.42034    1293.3517     1807.393   -16.928533    1070.4149   -37.381659    -3972.317 
 2817000    266.05614   -4714.2465   -4201.1348   -4714.2465            0    2830.3816    20.175162    19.845588    20.994554    8405.9663     3400.577    3531.8953    1558.6725    656.06839    545.39482   -870.94751   -3854.1516 
 2818000    258.13488    -4682.981   -4185.1461    -4682.981            0    2656.3757    20.015864    20.163992    21.079849    8507.8213    2139.3183    2465.7235    3364.0854   -27.179743   -516.54885   -1689.5088   -3855.5488 
 2819000    250.13046   -4697.9567   -4215.5591   -4697.9567            0    2105.4476    20.362483    20.016552    21.064555    8585.6323    579.19043    3919.3493     1817.803   -477.74963    1034.5163    1243.4436   -3951.9304 
 2820000    265.86317   -4684.0506   -4171.3111   -4684.0506            0    2953.9332    20.342505    20.197124    20.572511    8452.4239    2726.4264    2697.9917    3437.3814   -657.73327   -933.38276   -1155.6871     -3807.18 
 2821000    252.93829   -4670.4276   -4182.6149   -4670.4276            0    1080.6544     20.26929     20.20904    20.966488    8588.3537   -72.313001    1687.7836    1626.4926    33.114333    95.389231     765.2222   -4047.2604 
 2822000     272.0237   -4652.0167   -4127.3961   -4652.0167            0    3962.1478    20.056522    20.045795    21.066635    8469.8184    2748.3668    6152.5968    2985.4798   -414.09454   -583.20452   -348.40379   -3637.9773 
 2823000    244.82699   -4691.6426   -4219.4732   -4691.6426            0    736.61698    20.171583    19.934118     21.29729    8563.6983    -608.8276     2051.853    766.82555    9.3916803   -81.418485   -1491.7119   -4127.4751 
 2824000    253.70605   -4698.7934   -4209.4999   -4698.7934            0    3297.9956    20.149703    20.027418    20.840299    8410.0303    3671.2416    3080.1106    3142.6346    432.91309    1095.7456    173.96777   -3804.9953 
 2825000    269.46913   -4714.2325   -4194.5387   -4714.2325            0    2673.9463    20.182897     20.08464    20.933631    8485.7869    2720.9398    2790.1365    2510.7626    147.64433   -691.17742    910.23173   -3863.6204 
 2826000    259.10562   -4688.7342   -4189.0272   -4688.7342            0    2519.5505    19.784294    20.298049    21.193437    8510.9147    4651.1927    1350.0209    1557.4378   -1216.0147    872.28704   -85.547673   -3876.2932 
 2827000    255.96983   -4732.0684   -4238.4091   -4732.0684            0    3193.6611    20.089941    19.988795    20.860047    8376.8464     2724.577    3847.3817    3009.0247    93.391012    1551.3454     346.5497   -3848.2468 
 2828000    264.59642    -4655.263   -4144.9666    -4655.263            0    3468.0458    20.139107    20.170897    21.070156    8559.2002    2284.2651    5177.0243    2942.8479    356.31342    954.18825     -223.645   -3712.0603 
 2829000    256.46816   -4706.9176   -4212.2972   -4706.9176            0    2437.3283    20.169502    20.162574    21.034087    8553.9129    2561.4638     1476.801      3273.72   -159.15439   -21.931954     152.6422   -3908.2404 
 2830000     261.8286   -4664.7836   -4159.8251   -4664.7836            0    3126.5384    20.128898    20.137936    20.777559     8422.276    3936.7603    2062.5959    3380.2588    163.81609    631.20213   -531.30098   -3775.7916 
 2831000    263.55576   -4676.0401   -4167.7507   -4676.0401            0     2692.666    20.046727    20.177199     20.77929    8404.9485    3935.6524    2167.5831    1974.7626    48.775787    15.474724    709.17008   -3837.6902 
 2832000    253.95532   -4709.6954   -4219.9212   -4709.6954            0    1900.0236      20.1632    20.149565    21.057676    8555.3062    2092.2275    1457.9868    2149.8564    648.81263    339.18827   -672.90042   -3982.8545 
 2833000    266.92029   -4687.8692    -4173.091   -4687.8692            0    2674.1976    19.858575    20.284167    21.253947    8561.4014    4082.7988    1016.9908    2922.8033     354.0068   -72.030097     875.7103   -3839.1927 
 2834000    268.80449   -4666.1786   -4147.7665   -4666.1786            0    2637.5023    20.291847    19.927965    21.088164    8527.5308    3455.0516     3236.709    1220.7465    145.37756   -110.37358   -551.50732   -3819.7528 
 2835000     258.9833   -4703.5407   -4204.0696   -4703.5407            0      3035.31    20.115003    20.109297    20.830703    8425.9895     4574.814    1566.1247    2964.9914   -934.71349   -124.31385   -290.68689   -3831.0773 
 2836000    249.79392   -4686.3218   -4204.5732   -4686.3218            0    3353.5443    19.837235    20.359215     20.77629    8390.9311    6059.0556     941.2909    3060.2863    -5.862817    432.11141    1074.8364   -3794.1896 
 2837000    258.44361   -4695.4581   -4197.0279   -4695.4581            0      1535.29    20.258776    20.014256    21.095784     8553.588    2084.2869    1464.3651    1057.2178    260.90338     420.8218   -82.929264   -4005.5076 
 2838000    259.47894   -4689.0297   -4188.6028   -4689.0297            0    935.65873     20.02689    20.372958    21.042363    8585.4312    1954.8245   -233.01692    1085.1687   -434.54446   -466.53455   -879.22526   -4071.4492 
 2839000    256.22007    -4732.476    -4238.334    -4732.476            0    2663.5544    20.215963     19.95765     20.86748    8419.2586    1923.7158    4320.4952    1746.4523    -159.4917    243.41074    -254.7776   -3911.2861 
 2840000    252.73227   -4687.1846   -4199.7692   -4687.1846            0    2185.8365    20.427836    20.044946    20.708147    8479.4659    2823.7887    2446.5481    1287.1726    550.08401    1118.9025   -648.59627   -3929.4592 
 2841000    257.15007   -4693.0521   -4197.1165   -4693.0521            0    3621.6971    20.065959    20.134511     20.88376    8437.4204    4027.9506     5252.645    1584.4957   -400.88269   -1523.0656    746.79189   -3751.4626 
 2842000     262.0779   -4699.7816   -4194.3423   -4699.7816            0    2337.3423    19.954353    20.087619    21.107106    8460.4763    2707.6922    2982.3709    1321.9638   -242.74323   -309.19435    670.24054   -3905.9438 
 2843000    270.78227    -4691.382   -4169.1556    -4691.382            0    1591.8819    20.204572      20.1231     20.91084    8501.9007    1815.5595    1129.9565    1830.1296   -310.19296   -554.61162   -864.35527   -3971.7758 
 2844000    257.55434   -4680.8835   -4184.1683   -4680.8835            0    3547.5713     20.07634    20.320629       20.653    8425.6773    4286.9922    2773.7955    3581.9261   -628.77958    872.37119    317.38622   -3748.2432 
 2845000    247.22589   -4703.5939    -4226.798   -4703.5939            0    3980.6043    19.994308    20.123148    20.858651    8392.4451    4940.5075    3703.1186    3298.1868    283.17244    98.954482    147.04621   -3739.5911 
 2846000    256.90911   -4672.3168    -4176.846   -4672.3168            0     2178.446    20.205602    19.954478    21.227516    8558.7695    1649.6239    3134.1684    1751.5458   -789.09154    214.55728   -103.12071   -3904.9304 
 2847000     254.4058   -4672.0055   -4181.3625   -4672.0055            0    2529.4732    19.897725     20.08447    21.142963    8449.4736    3439.8896    2901.7076    1246.8223    239.01787    777.52655    46.736289   -3869.6634 
 2848000    272.07787   -4720.0061    -4195.281   -4720.0061            0    3588.7957    20.055426     20.13895    20.984124    8475.3872    3745.5235    3980.3155    3040.5481   -158.21725    -659.4753   -1378.2315   -3751.6885 
 2849000    258.37165   -4687.1708   -4188.8793   -4687.1708            0     3779.669    20.256127    19.948351    20.801817     8405.522    2259.2531    4012.2844    5067.4696   -474.47255    530.13205    7.3962473   -3725.5451 
 2850000     264.9441   -4700.3377   -4189.3707   -4700.3377            0    3327.2207    20.125439    20.132617    20.939917    8484.3891    2912.3261    3199.7266    3869.6095    406.69334    1273.1756    991.65288   -3777.6734 
 2851000    243.41524   -4702.0777    -4232.631   -4702.0777            0    1022.4553    20.353345    20.300304      20.6706    8540.6598   -897.38726    1445.9093    2518.8438    174.41489    665.71965   -262.99335   -4105.2773 
 2852000    250.27573   -4668.1387   -4185.4609   -4668.1387            0     2804.082    20.214046    20.093377    20.941206     8505.657    1431.0304    3673.5878    3307.6278    530.17271    146.57467   -592.58977   -3837.6249 
 2853000    262.08659   -4672.6794   -4167.2234   -4672.6794            0    4037.5801    19.874516    19.993986    21.196394     8422.828     6188.213    2281.6337    3642.8935   -49.232338   -584.50436    238.32344   -3671.2539 
 2854000     263.5689   -4677.6725   -4169.3577   -4677.6725            0    1133.2655    20.036226      20.0672    21.292184    8560.9687    538.95804    2933.4444   -72.605875   -1253.6158    677.12255   -673.85687   -4027.8661 
 2855000    273.43906   -4661.2015   -4133.8513   -4661.2015            0    2455.7442    20.359796    20.000746    20.891329    8507.1814    1902.4902    3349.9241    2114.8184    256.22512    2732.6809    1058.4599   -3829.1707 
 2856000    245.40799   -4685.1626   -4211.8726   -4685.1626            0    2513.7929    20.091058     20.25407    20.714572    8429.2917    1755.2811    1706.5977    4079.4999   -42.486589    711.25326    582.06179   -3902.8456 
 2857000    265.84987   -4703.2026   -4190.4888   -4703.2026            0    3661.1334    20.140546    20.063262    20.995256    8483.8691    3535.3162    4562.5111    2885.5729    571.45264    292.21785    147.55717   -3737.5021 
 2858000    262.14191   -4671.5025   -4165.9398   -4671.5025            0     2882.451    20.187534    19.937777    21.033679    8465.9411    3659.8803    2259.9153    2727.5575   -18.516001   -179.08648   -326.06604   -3810.0521 
 2859000    261.71082   -4688.9147   -4184.1834   -4688.9147            0    2328.9538    19.969959    20.025366    21.235951    8492.3785    2936.7985    2742.9184    1307.1445    -303.6801      540.109   -437.61905   -3895.7363 
 2860000    267.96198   -4676.0891   -4159.3019   -4676.0891            0    2305.3978    20.108266    20.091293    20.872534    8432.5255    2479.2841    1661.2647    2775.6447    248.05971    886.60237    851.79919   -3875.7847 
 2861000    277.48829   -4683.5665    -4148.407   -4683.5665            0    2834.8808    20.141203    20.154118     20.90817    8487.2156    3277.0394    1991.9821     3235.621    475.72997    784.11424    155.92459    -3797.513 
 2862000    254.18147   -4668.6691   -4178.4588   -4668.6691            0    1556.9934     20.01419     20.20321     21.22697    8583.1442    1753.1125     2405.089    512.77859    291.12018    569.60251    670.51609     -3983.56 
 2863000    259.49578   -4723.1346   -4222.6752   -4723.1346            0     2677.796    20.135057    19.955554    21.012686    8443.0275    2042.4347    3462.2904    2528.6628    489.13038   -1265.7579   -47.069239   -3892.9504 
 2864000    253.77048   -4665.1906   -4175.7729   -4665.1906            0    4198.8131    19.912561    20.122755    20.903175    8375.8096    5119.6218    3642.3803    3834.4371   -465.64476   -517.75706    1061.8997    -3662.877 
 2865000    258.09714   -4679.6197   -4181.8576   -4679.6197            0     1129.268    20.304034    20.057325    20.996397    8550.6696    57.065794    1879.5057    1451.2324   -620.09258   -1096.8602    578.53992   -4041.0348 
 2866000     249.6873   -4695.3753   -4213.8323   -4695.3753            0    2920.5679    20.182013    19.934207    21.187819     8524.123    3722.6949    2739.3492    2299.6596   -293.47929     1286.486   -193.03494   -3850.7602 
 2867000    264.10749   -4730.9962   -4221.6427   -4730.9962            0    249.23784    20.151149    20.229103    20.996871    8559.1573    1298.8696   -757.40905    206.25297   -87.906714    289.85265    241.24223   -4190.5312 
 2868000    260.16633   -4694.8447   -4193.0921   -4694.8447            0    2216.1308    20.420783    20.126494    20.606058    8469.0644    1324.7748    1071.5777    4252.0399   -91.927675    716.88451   -1194.1407   -3919.3719 
 2869000    257.42767   -4710.7035   -4214.2326   -4710.7035            0    1801.5053    20.051897    20.274019    20.881088    8488.8415    1324.7833    1076.1116    3003.6209    -226.6075   -852.82083   -950.68802   -3991.2044 
 2870000    259.51202   -4677.6457    -4177.155   -4677.6457            0    2837.7216    19.830461    20.266237    21.169766    8507.8924    2732.4121    2922.7827      2857.97    385.80196    652.55277    -541.9886   -3825.0537 
 2871000    257.96304   -4715.3107   -4217.8073   -4715.3107            0    1950.1988    20.098168    20.113654    20.963881    8474.5987    1934.0862    1519.2061    2397.3042   -278.65128   -2053.0199    844.15334   -3976.7758 
 2872000    255.43397   -4653.1312   -4160.5053   -4653.1312            0    2312.1682    20.085432    20.191818    20.982762    8509.7978    2533.9255    3102.7046    1299.8743     270.8093   -883.01326    45.689345   -3873.5498 
 2873000    265.52406   -4690.3122   -4178.2267   -4690.3122            0    1730.0153    20.421756    20.124897    20.658732    8490.4439   -576.92436    3307.3722     2459.598   -345.43823   -645.05454    202.97944   -3964.0086 
 2874000    258.46655    -4676.618   -4178.1435    -4676.618            0    3963.4234    20.191212    20.138895    20.747622    8436.5782    4186.3132    4059.4333    3644.5236     769.2642   -438.80236    992.43991   -3690.4885 
 2875000    264.12246    -4671.935   -4162.5526    -4671.935            0    2701.5385    19.988559    20.159584    21.061578     8486.995    3139.7198    2018.7798    2946.1159    399.65873   -630.18261    363.11658    -3828.172 
 2876000    252.91712   -4705.0383   -4217.2663   -4705.0383            0    2496.1958    20.332622    20.148719    20.818607    8528.8896    2159.0222     1689.377    3640.1883   -384.36604   -1043.8502    335.69654   -3906.7767 
 2877000    263.16903   -4702.8813   -4195.3377   -4702.8813            0     4476.444      20.1092     20.13848    20.787986     8418.484    4994.7617      3968.53    4466.0404   -941.45001    1621.5775    899.94143   -3645.7425 
 2878000     268.7336     -4718.11   -4199.8347     -4718.11            0    3931.4458    20.151524     19.87004    21.057883    8431.8202    3960.4586    4190.3548     3643.524   -349.57826    787.59673   -783.23341    -3716.387 
 2879000    269.03818   -4658.9074   -4140.0447   -4658.9074            0    990.92289    20.025587    20.258465    21.050981    8540.1232    572.13086    1653.9708      746.667   -665.57041    1107.7533     1018.246   -4016.6263 
 2880000    244.78157   -4703.2239   -4231.1421   -4703.2239            0    2037.3257    20.086715    19.911798    21.177185    8470.0821    1422.5126    3125.9698    1563.4948   -303.10817   -715.71867    556.46685   -3979.4764 
 2881000    252.71834   -4710.2252   -4222.8366   -4710.2252            0    1340.8114    20.139965    20.216945    21.014377    8556.3936    305.53132    1187.9388    2528.9642     766.3345    145.69579    -443.0981   -4055.5218 
 2882000    272.63117   -4676.3166   -4150.5244   -4676.3166            0    3573.0521    20.230509    20.032672    20.821432    8438.3256    1796.2195    6206.0541    2716.8826    270.90966   -455.90284     -355.125   -3710.8092 
 2883000    259.76594    -4654.723   -4153.7425    -4654.723            0    1531.5732    20.100525    20.282228    21.061441    8586.4008    985.51076     1742.571    1866.6377   -505.65268   -35.931592    189.72896    -3961.953 
 2884000    251.72272   -4694.0979   -4208.6295   -4694.0979            0    1803.4971    20.193677     20.08248    20.911192    8480.3067    1993.3508    1019.2767    2397.8636    932.36268   -402.30693    479.44174   -3985.5792 
 2885000    261.22962   -4698.9004   -4195.0971   -4698.9004            0    3144.5154    19.888871    19.966641    21.226774    8429.4477    3565.2278    3695.7108    2172.6076   -313.19322   -907.04292   -220.36193   -3808.5266 
 2886000    254.30517   -4669.3762   -4178.9273   -4669.3762            0    3391.1486    20.212364    20.034816    20.970312    8491.9486    4521.2303    2325.5081    3326.7072    410.08504   -356.92972    304.42868   -3758.9459 
 2887000    253.65611   -4695.4043   -4206.2071   -4695.4043            0    3418.2075    20.185509    20.224442    20.567255    8396.3896    3703.8806    2002.3641    4548.3779   -453.32826   -11.894229    594.38861   -3787.6383 
 2888000    252.82341   -4690.1354   -4202.5442   -4690.1354            0    1645.1056    20.241484    20.060489    20.945514    8505.0108    807.45225    2084.5568    2043.3078   -117.49431   -329.36524    321.87988   -3998.4904 
 2889000    254.65885   -4728.8424   -4237.7114   -4728.8424            0     4694.535    19.946176    19.779874    21.143216    8341.6934    6455.2704    4443.6953    3184.6393    582.73229    47.412518   -640.64848   -3666.5975 
 2890000    257.40761   -4674.1079   -4177.6757   -4674.1079            0    692.61336     20.07632    20.209112    21.161373    8585.6895    2271.5661   -1280.6853    1086.9593   -688.81375    309.51344   -666.84357   -4090.9512 
 2891000     252.7428   -4684.9653   -4197.5295   -4684.9653            0    2863.9465    20.046984    20.264244    20.867066    8476.9738    3190.9723    2023.8208    3377.0463    -393.4739    635.46691    361.08303   -3843.4657 
 2892000    256.00519   -4685.0375   -4191.3099   -4685.0375            0    1734.1872     20.02064    20.354174    20.910083     8520.934    3277.3011    883.84283    1041.4175    597.21668   -478.69084    407.12966   -3975.8041 
 2893000    268.45362   -4724.7474    -4207.012   -4724.7474            0      2433.54    20.240645    19.947497    21.071062    8507.4457     2318.465    3034.8732    1947.2818    232.01678    1320.9773   -1165.6473   -3905.0769 
 2894000    261.22396   -4680.0034    -4176.211   -4680.0034            0    2784.8703    20.050046    19.991026    21.203385    8498.7616    5291.0586    1978.9265    1084.6258   -148.30822   -372.71268    100.30941   -3831.0383 
 2895000    256.62379   -4689.5218   -4194.6012   -4689.5218            0    1237.0327    20.163984    20.266764    20.822431    8509.2678     677.3106     980.2242    2053.5633   -379.87909   -714.09164    893.41146   -4041.0867 
 2896000    245.92441   -4686.1202   -4211.8343   -4686.1202            0    2278.8011    20.328282    20.085121    20.669099    8439.1103    1324.3924    2436.9092    3075.1016   -433.49113   -29.806267    -34.06982   -3931.3691 
 2897000    250.47198   -4706.9251   -4223.8688   -4706.9251            0    2366.3269     20.06371    20.188554    20.905039    8467.7385    2862.1912    1270.3803    2966.4091   -183.33128    104.32798    607.29247   -3931.6433 
 2898000    242.43383   -4679.6333   -4212.0793   -4679.6333            0     2883.612    20.060539    20.010506    21.102278    8470.9088    2232.7039    3301.4563    3116.6757   -174.25224    -605.9538    421.62872   -3855.8392 
 2899000    265.35838   -4673.4188   -4161.6529   -4673.4188            0    2228.4802    20.172864    19.990436     21.15394    8530.6295    1822.0967    2642.9468     2220.397   -58.489934    -144.5823   -74.507363   -3884.4066 
 2900000    259.81199   -4703.7877   -4202.7184   -4703.7877            0    1425.1017    20.179527    19.938757    21.033937    8463.1029    948.33722    3339.8005   -12.832515    196.40864    1206.4934   -238.89521   -4026.8242 
 2901000    266.93573   -4659.1743   -4144.3663   -4659.1743            0    2343.4241    20.393094    19.985442     20.78447    8471.0223    413.19647    3676.6249     2940.451    459.26364   -487.34111   -711.22304    -3854.857 
 2902000    256.43078   -4666.6619   -4172.1135   -4666.6619            0    2152.5338    20.164152    20.183584    20.973608    8535.9408    1521.8721    1251.8644    3683.8647   -576.42596   -561.95763   -991.10617    -3904.149 
 2903000     252.2614   -4682.0465   -4195.5392   -4682.0465            0    2948.5091    20.064904    19.933661    21.051682    8419.9778     3891.956    3670.2782    1283.2932    479.12613   -1332.1064   -724.18925   -3833.4719 
 2904000    251.26671   -4671.9997   -4187.4108   -4671.9997            0    1632.2964    20.319156    19.924977    21.140129    8558.7657    528.17165    3246.7726     1121.945    -319.2739   -987.10847    137.25602   -3983.6662 
 2905000    253.95898   -4678.4266   -4188.6453   -4678.4266            0    4239.3026    20.115717    19.929144    20.814377    8344.2552    4154.8106    5763.0475    2800.0498   -427.42146    1144.9427   -336.74047   -3672.7544 
 2906000    244.78539   -4680.1691   -4208.0799   -4680.1691            0     2448.741    20.181894     20.30126    20.982381    8596.8565    2542.5428    2371.1715    2432.5088   -442.39686   -742.70914    489.89211   -3901.0657 
 2907000    262.21417    -4695.329   -4189.6269    -4695.329            0    2232.1695    20.100129    20.071665    21.050434    8492.6515    2616.0909     1960.947    2119.4705   -977.66959    913.28166    614.80693    -3913.158 
 2908000    250.17007   -4707.1666   -4224.6925   -4707.1666            0    2433.7185     20.17417    20.046088     21.07303     8522.211    1817.4593    2668.6103    2815.0859   -297.50854   -498.98465    506.93197   -3922.2113 
 2909000    263.54212   -4719.1086   -4210.8454   -4719.1086            0    3624.6272    20.052966    20.146527    20.866982     8430.211     4713.526    2491.8837     3668.472    -607.7094   -656.67439   -73.845462   -3765.2121 
 2910000    259.46428   -4684.8988   -4184.5001   -4684.8988            0    2506.7127    20.081308    20.162913    20.935711    8476.8208    2877.1075    2192.3214    2450.7092    67.057618    655.59933    265.92461   -3874.6059 
 2911000    243.91422   -4684.9349   -4214.5259   -4684.9349            0    1925.8917    20.271735    20.027781    20.949804    8505.5761   -55.116086    2879.2486    2953.5427   -141.74621    636.45449   -362.02535   -3975.6284 
 2912000    257.38767   -4675.8843   -4179.4905   -4675.8843            0    1460.0492    20.450089     20.17067    20.652732    8519.0869    497.90685    1611.3001    2270.9407   -609.43439     250.2992     -667.563   -3998.0908 
 2913000    259.96053   -4675.4363   -4174.0805   -4675.4363            0    3298.8551    20.141074      20.0645    20.816189    8412.2501    2764.9083    4020.2943    3111.3629   -535.80949    94.932933   -475.59587   -3769.3637 
 2914000    260.91833   -4696.1901   -4192.9872   -4696.1901            0    3689.8577    19.966171    20.115618    21.061126    8458.8195    4967.6984    1790.5201    4311.3544    46.575342     1642.208    1270.6708   -3737.7945 
 2915000    269.73349   -4711.6024   -4191.3987   -4711.6024            0    2942.0612     19.89263    20.271678    20.914236    8433.8117    3219.5647    1709.8228    3896.7959    239.16784    1543.0074    262.41466   -3829.5296 
 2916000    254.97212   -4658.1611   -4166.4259   -4658.1611            0    3686.0863    20.144725    20.095334    20.996324    8499.6265    3981.7984    4574.4061    2502.0543   -194.95516   -99.269453    446.13463   -3709.5048 
 2917000    261.51914   -4697.2806   -4192.9189   -4697.2806            0    3051.6632     20.22712    20.177904    20.753702    8470.4344    1291.0718    3600.6511    4263.2667    105.70603   -648.28734    -5.990358    -3815.939 
 2918000    269.61374   -4669.7292   -4149.7564   -4669.7292            0    4476.9041    19.929652    20.296819    20.929895    8466.3214    6763.1315    3434.7821    3232.7988     407.6453    320.79438   -40.895414   -3596.9814 
 2919000      271.111   -4670.4438   -4147.5834   -4670.4438            0    2574.4911     20.16073    19.885587    21.163761    8484.7199    2509.5159    2779.5819    2434.3754   -238.94105   -1449.0993    558.97206   -3829.0135 
 2920000    268.46625   -4693.6728   -4175.9131   -4693.6728            0    1453.6394    20.318782    19.991658    21.055243    8552.7687    1094.4092    2080.2341    1186.2749    189.76964    962.11201   -1187.3236   -3994.5957 
 2921000    260.56255   -4669.4159   -4166.8991   -4669.4159            0    2608.5113    20.189741    20.245125    20.806874    8504.6814     5637.927    181.41082    2006.1961    163.60941    426.58582   -448.50124   -3843.3601 
 2922000    262.83709   -4715.7774    -4208.874   -4715.7774            0    1636.3098    20.280339    20.229032    20.721722    8501.1201    1230.9636    876.10569      2801.86    130.87278   -368.21896    -697.7937   -4006.0041 
 2923000    247.21339    -4698.508   -4221.7362    -4698.508            0    2494.3541     20.15577     19.94421    21.071934    8470.7262    1502.5097    4151.8564    1828.6962     121.2613   -352.08794   -926.40853   -3913.5916 
 2924000    263.54105   -4699.6394   -4191.3783   -4699.6394            0    2910.6381     20.09164    19.933214    21.115892    8456.7235     3784.744    2940.3055    2006.8647    578.01835    107.41048   -907.48126   -3832.4016 
 2925000    265.96278   -4710.1055   -4197.1739   -4710.1055            0    2287.5432    19.953561    20.126918    21.111526    8478.4665    2265.1804    2720.7927    1876.6566    446.96418   -264.00072    385.99539   -3914.3198 
 2926000     250.8257   -4707.9594    -4224.221   -4707.9594            0    1653.5948    20.240319    19.967386    21.042037    8504.0607    1072.7432    3106.8308    781.21044    -110.7916   -517.44871   -236.30107   -4019.1372 
 2927000    265.89951   -4685.0355    -4172.226   -4685.0355            0    4146.1111    19.864322    20.374522    20.925309     8469.018    5711.6595    3050.8972    3675.7768    907.33465    374.29894   -74.511673   -3660.1317 
 2928000    262.25987   -4693.6291   -4187.8389   -4693.6291            0     4630.765    20.061664    20.135077    20.818971    8409.6805    3756.9324    5070.0268    5065.3356    596.51212   -548.03751    197.74676   -3619.8915 
 2929000     260.0832   -4662.4211   -4160.8288   -4662.4211            0    2356.5132    19.999298    20.205016    21.136012    8540.7694     2615.737    2714.5329    1739.2697    36.592578   -342.23963   -1001.6443   -3867.3054 
 2930000    275.05994   -4687.7786   -4157.3024   -4687.7786            0    2387.5753    19.871751    20.098644    21.084904    8421.2103    1782.0564    3734.4211    1646.2485   -223.10505    482.50902   -454.28023    -3864.073 
 2931000    261.50959   -4697.2632   -4192.9199   -4697.2632            0    3345.1603    20.212838    20.160322    20.773332    8465.0769    2407.8627    3455.0219    4172.5964   -247.77778   -778.33854    684.46034    -3779.945 
 2932000    254.27025   -4687.0906    -4196.709   -4687.0906            0    2530.4764    20.154592    20.265702    20.868419    8523.6423    2204.1982    2498.5669     2888.664    -699.8696    734.80592   -517.48353   -3882.1491 
 2933000    252.83506   -4703.5292   -4215.9155   -4703.5292            0    2593.4475    20.190139    20.016645    21.152334    8548.4801     2579.081    1842.0403    3359.2213    780.98767    89.114634     1222.142   -3892.5883 
 2934000    253.26313   -4706.5564   -4218.1172   -4706.5564            0    1570.2082    20.185737    20.030161    21.157156     8554.337    1934.5159    1324.2654    1451.8435   -213.91439   -1164.1205   -781.68166   -4022.2239 
 2935000    270.67614   -4682.5514   -4160.5297   -4682.5514            0    2703.6903     20.05735    20.180452    21.109795    8544.5357    3001.2668     1841.984    3267.8201   -141.04159    865.91679    649.91448   -3823.6139 
 2936000    280.79673   -4701.7811    -4160.241   -4701.7811            0    3567.7092    20.180859    20.071557     20.76022    8409.1611    2226.1485    3893.7445    4583.2347    260.25177    632.06385    258.87471   -3722.7007 
 2937000    260.83284   -4710.1231    -4207.085   -4710.1231            0     2242.997    20.297084    20.049984    21.044903    8564.3537    1879.8923    2720.5681    2128.5305    128.10498   -533.05574   -404.76564   -3926.9295 
 2938000    262.94258   -4678.4849    -4171.378   -4678.4849            0    1199.7602     20.22886    20.096977    21.095315    8576.0669    945.75749    2844.5874   -191.06428   -300.23466    672.50233   -464.02092   -4021.3202 
 2939000    249.60419   -4690.6862   -4209.3035   -4690.6862            0    2426.1558    20.019167    20.008971    20.856116    8354.1872    2720.9777    3801.2407    756.24902   -639.97885    1115.9608    874.53541   -3913.7074 
 2940000    265.33365   -4667.3008   -4155.5826   -4667.3008            0    3382.6672    20.292169    20.019606    21.099444    8571.4639    2572.2639    4243.1734    3332.5644    283.02049   -76.068237   -261.44197   -3732.7289 
 2941000    247.23444   -4656.4845   -4179.6721   -4656.4845            0    3487.8636    20.123759    19.981771    20.985532    8438.4577     3243.715    3917.4456    3302.4304   -137.14584    974.75733   -130.22764   -3750.4338 
 2942000    270.59114   -4698.5699   -4176.7121   -4698.5699            0    1570.1493    20.234329    19.916028    21.017705    8469.8715    484.43146    3311.3199    914.69636   -727.49534    62.747526    710.93225   -3982.7604 
 2943000    254.93651   -4668.3814   -4176.7149   -4668.3814            0    1815.3359    20.193753    20.104027    21.106492     8568.724     2653.223    1373.6747      1419.11   -714.75302   -658.85418   -11.149205   -3949.8596 
 2944000    262.93861   -4674.1853   -4167.0861   -4674.1853            0    1897.7559    20.099087    20.167185    21.087581    8547.6824    1711.0817    1963.6883    2018.4976   -108.36853   -1245.3212    59.281355   -3930.5134 
 2945000    260.83665   -4692.2471   -4189.2017   -4692.2471            0    4164.8768    20.105187    20.048649    20.866164    8410.7717    3350.5182    4521.2807    4622.8315   -222.00791    738.23016   -831.74728   -3678.3276 
 2946000    262.73998    -4692.705   -4185.9889    -4692.705            0    2442.5567    20.205945    19.971201    20.965146    8460.2121     3003.645     2258.618    2065.4072   -628.38133    789.71124   -538.46205   -3884.6177 
 2947000    253.94546   -4680.1808   -4190.4256   -4680.1808            0    1643.0425    20.089672    20.118842    20.866618    8433.8894    2357.9728    512.47357    2058.6812    515.50227    1465.6106    642.24713    -3988.332 
 2948000    267.54771   -4697.5069   -4181.5187   -4697.5069            0    2318.7161    20.272662    20.184731    20.860164    8535.9424    1996.7583    1768.8679    3190.5221     539.5438   -526.83807    577.78542   -3892.8664 
 2949000    259.19067   -4661.9403   -4162.0693   -4661.9403            0    1655.9409    20.268664    20.186658    21.029127     8604.206    3617.2886   -377.54054    1728.0746   -700.65624   -193.71999   -624.28256    -3954.276 
 2950000    258.84006   -4699.7708   -4200.5759   -4699.7708            0    1570.1965      20.0103     20.16257    21.162355     8538.144    2476.6473    1919.8012     314.1409   -153.45193   -116.25247    562.96304    -4005.055 
 2951000    252.85954     -4683.33   -4195.6691     -4683.33            0    2205.8449    20.194924    20.028782    21.081306    8526.9608    1630.6391    3102.5549    1884.3406   -78.258057    746.52299   -765.18989   -3921.3569 
 2952000    267.69284    -4694.172   -4177.9038    -4694.172            0    3772.4332    20.137379    20.152699    20.828464    8452.6601    1685.6469     5010.947    4620.7056   -336.94962   -969.75458   -466.57911   -3712.8633 
 2953000    254.09605   -4713.9951   -4223.9495   -4713.9951            0    1691.3564    20.301775    19.873281    21.157621    8536.3147    2531.7665    558.70984     1983.593   -366.62561    410.75946    285.05402   -4013.3868 
 2954000    257.60671   -4718.8052    -4221.989   -4718.8052            0      2631.97    20.039903     20.00918    21.071889    8449.4487    3071.0755     3220.772    1604.0624    8.0181365   -195.83166   -704.62127   -3897.6604 
 2955000    256.16056   -4716.1243   -4222.0971   -4716.1243            0    3397.7075    20.155426    20.081176    20.827692    8429.8967    2650.4496    4277.8542    3264.8187   -585.39849    1611.7186    116.76724   -3804.3782 
 2956000     256.8552   -4714.7351   -4219.3682   -4714.7351            0    1697.9819    20.175139    20.183743     20.72419    8439.0936    1121.0678    1881.2946    2091.5833   -657.33086   -431.52352   -748.51554   -4010.3882 
 2957000    265.96744   -4696.7298   -4183.7893   -4696.7298            0    3355.7762    20.224626    20.073816    21.042304    8542.8687    2347.4108    4449.4207    3270.4972     -91.6782   -1257.2007    381.04662   -3765.6965 
 2958000     251.6359   -4667.4392   -4182.1382   -4667.4392            0   -344.61725     20.05138    20.051732    21.278686    8555.4128     283.2075   -921.84768   -395.21158   -349.20932    748.73285    94.489662   -4225.1368 
 2959000    256.84437   -4692.6883   -4197.3424   -4692.6883            0    2284.4349    20.097639    20.172181    21.020745    8522.0881      1893.51     2415.384    2544.4107   -118.66166   -138.52201    591.45095   -3913.4193 
 2960000    271.32093   -4685.2642    -4161.999   -4685.2642            0     1959.997    20.309742    20.047685    21.043962    8568.3291    607.92288    3872.1392     1399.929    187.75222    1555.1368    430.32309   -3917.0772 
 2961000    254.75753   -4672.7579   -4181.4366   -4672.7579            0    3088.3261     20.42188    19.886581    20.810649    8451.6492    1862.7823    5168.4478    2233.7481     -652.337    1303.2822   -515.39831   -3800.7737 
 2962000    260.20498   -4691.2737   -4189.4465   -4691.2737            0    1940.0885    20.137983    20.213478    20.907444    8510.5567    3189.1805    390.97271    2240.1122   -371.63614     1611.578   -1523.0813   -3948.6471 
 2963000    267.91516   -4687.7844   -4171.0875   -4687.7844            0    2451.4451    20.197361    20.113979    20.982842    8524.2649    1592.6862    2947.5772    2814.0718    81.034833   -219.93363   -1211.8963   -3866.3295 
 2964000     266.9209   -4696.9976   -4182.2182   -4696.9976            0     1315.377    19.884943    20.293291    21.090436    8510.6429    2867.9316   -371.71557    1449.9149   -113.94435   -61.647693    176.03393   -4018.9549 
 2965000    249.79121   -4717.3414    -4235.598   -4717.3414            0    2247.7613    20.108538    20.026117    21.040571     8472.952     3490.082    1355.2666    1897.9353    273.35502    206.53861   -136.44721   -3957.8437 
 2966000    266.98341   -4723.5624   -4208.6624   -4723.5624            0     1974.421    20.036643    20.333481    20.964089     8541.078     4817.016    316.49096    789.75591   -651.19956     60.08713   -291.15202   -3962.7229 
 2967000    251.16915   -4710.7084   -4226.3076   -4710.7084            0    3071.5505    20.176987     20.24506    20.768145    8483.4614    1499.9654      4703.85    3010.8361    -61.28678    1010.0534   -194.97971   -3846.2874 
 2968000    256.02835   -4665.0612    -4171.289   -4665.0612            0    2671.4141    20.115892    20.252875    20.894851    8512.6591    3354.0311    1494.3847    3165.8263    466.63053   -1423.7803   -1120.1919   -3839.6373 
 2969000    266.80113   -4686.6164    -4172.068   -4686.6164            0    1443.3929    20.071024    20.094059    21.232113    8563.0884    895.46055    2253.7401    1180.9779    165.67876    103.62264    968.94596   -3991.8115 
 2970000    264.23635   -4727.1478   -4217.5458   -4727.1478            0    2881.3175    20.076388    20.072062     21.01812    8469.7665    3096.3533    3557.9626    1989.6365    -399.3341     1271.507    563.03624   -3861.6372 
 2971000    252.73919   -4690.5703   -4203.1416   -4690.5703            0    1916.4825    20.348965    20.001423     21.06783    8574.7803    2594.9975    1403.5128    1750.9373   -209.29599   -1603.7233   -388.70562    -3963.477 
 2972000    257.48692   -4710.9011   -4214.3159   -4710.9011            0    4302.2906    19.966949    20.080524    21.014465    8425.6825    5019.7435     4940.618    2946.5104    243.91146    866.72253   -193.14442   -3685.6507 
 2973000     252.6277   -4688.7122   -4201.4984   -4688.7122            0    3210.9733     19.95722    20.209197    20.829919    8401.1105     3376.962    2403.9942    3851.9638    -414.8471   -353.45256    280.31685   -3808.0849 
 2974000    260.37232   -4690.5661   -4188.4162   -4690.5661            0    2658.3966     20.15274    20.279502    20.791516    8497.2332    2567.2024    2652.9799    2755.0075   -413.68198   -699.38015    31.484659   -3858.9785 
 2975000    253.83275   -4701.1526   -4211.6148   -4701.1526            0    4871.8652    20.130172    20.144357    20.609533    8357.3586    4431.0434    4689.6599    5494.8923    1037.0569    279.81096    54.553856   -3617.8148 
 2976000    256.65334   -4683.4298   -4188.4523   -4683.4298            0    1326.4533    20.049293     20.26989    20.996477    8532.9046   -657.43601    3062.5842    1574.2118   -952.51678    997.16261    150.76387   -4023.3836 
 2977000    266.10627   -4632.2962   -4119.0878   -4632.2962            0    2701.0833    20.246927    20.070528    20.998208    8532.9689    3697.2437    759.41118    3646.5949    306.55425    1715.1045   -479.78336   -3782.9526 
 2978000    274.47889   -4695.1135   -4165.7579   -4695.1135            0    4359.0261    20.124173    20.127925    20.790199    8421.2332    7061.8781    1851.1908    4164.0094    41.726673   -758.94588    770.29044   -3630.4039 
 2979000    263.91661   -4686.9819   -4177.9965   -4686.9819            0    2321.3795     20.20777    19.951155    21.042794    8483.7884    3442.7807    1276.0778    2245.2799    346.35255   -51.533385   -39.498681   -3890.7784 
 2980000    261.88947   -4657.9763   -4152.9004   -4657.9763            0    2171.7501    20.243237    20.163776    21.108803    8616.1931    2020.8331    2270.4109    2224.0064   -335.96168    589.19908    854.58485   -3880.0019 
 2981000     259.1627   -4672.5768   -4172.7597   -4672.5768            0     2454.506    20.285583    20.104347    20.903351    8524.9802    2622.7679    2736.6081    2004.1418   -50.141443   -678.95011   -608.59589   -3867.5957 
 2982000     254.7053   -4681.8925   -4190.6719   -4681.8925            0    613.36507     20.38424    20.250818    20.799413    8585.9459     734.2589   -336.90348    1442.7398   -488.03009    656.95591   -403.38514    -4113.868 
 2983000     253.4411   -4688.8155    -4200.033   -4688.8155            0    2338.8267    20.086899    20.172554    20.857593     8451.581    1058.2085    2760.5804    3197.6911   -278.47027   -149.23151    908.71482   -3911.7547 
 2984000    263.92936   -4683.8029   -4174.7929   -4683.8029            0    1710.5574    20.370728    20.205354    20.934174    8616.4595    405.01551    2868.1479    1858.5088    115.25377     290.2952   -194.93176   -3959.8405 
 2985000    248.47667   -4693.5505   -4214.3424   -4693.5505            0    3075.4801    19.994639    20.198755     21.06024     8505.532    2506.8869    3268.8011    3450.7522   -436.73019    112.77325   -898.72046   -3832.8461 
 2986000    252.84073   -4699.0957   -4211.4711   -4699.0957            0    2247.5169    20.178772     19.86966    21.093647    8457.3994    1852.4212    3630.7196    1259.4099   -536.67738    248.85628    1156.6761   -3934.2567 
 2987000    253.15573   -4677.1686   -4188.9364   -4677.1686            0    3403.6283    20.009278    20.138408    20.944314    8439.6158    1912.1119    5094.1764    3204.5965   -307.64273    604.88777    -272.4423   -3770.0072 
 2988000    256.28015   -4665.8027   -4171.5449   -4665.8027            0    2318.8695    20.053249    20.326268    21.012363    8564.8012    2714.0193    1378.5814    2864.0078   -661.16302    398.67408   -894.07162   -3881.8976 
 2989000     258.8763   -4697.9688    -4198.704   -4697.9688            0     3422.932    20.234588      20.0892    20.756852    8437.5915    2879.3748    3156.8375    4232.5837   -85.936796   -831.10812   -439.64995   -3777.4999 
 2990000    260.07994   -4676.4597   -4174.8737   -4676.4597            0    3281.2892    19.979633    20.141871    21.008087    8454.2254     2870.747    3778.5949    3194.5257   -291.97457   -784.59185    50.459889   -3770.3032 
 2991000    251.64703    -4687.834   -4202.5115    -4687.834            0    2240.0194    20.236354    19.994392    20.888688    8451.8472    2987.8768    1745.4341    1986.7472      -184.79    24.562671    -792.9817   -3926.4033 
 2992000    254.64627   -4674.3534   -4183.2466   -4674.3534            0    1829.8412    20.082369    20.078674    21.258912    8572.1746    2051.5522    2248.3083    1189.6632   -767.80313    320.87011    1190.8073   -3954.4865 
 2993000    259.28246   -4674.6352   -4174.5872   -4674.6352            0    1266.0481     20.13168    20.264035    21.179738    8640.2547    2403.3913    781.64953    613.10359   -231.50995   -585.52434    195.09275   -4015.0534 
 2994000    262.12636   -4675.8129   -4170.2801   -4675.8129            0     4130.873    20.191556    20.124384    20.781167    8444.2744    3412.8403    4314.8878     4664.891    255.21773    334.00339    510.59535   -3661.5587 
 2995000    282.04601    -4688.805   -4144.8556    -4688.805            0    2527.9477    20.294561     19.99959    21.027939    8534.8808    1610.6562    2559.7642    3413.4227    37.616116    1511.8514   -329.74241   -3830.1956 
 2996000     266.2436    -4685.718   -4172.2449    -4685.718            0    2371.4708    19.970992    20.274524     21.13154    8556.2107    2751.2799    3226.5277    1136.6048    913.83104   -43.289966   -374.53622   -3876.3243 
 2997000    257.12229   -4689.4715   -4193.5896   -4689.4715            0    1517.5396    20.204432    20.075378    21.010201    8521.9815    1202.8916    1890.6264    1459.1007   -684.04691    67.527286   -851.46918   -4004.9831 
 2998000    267.19101   -4683.9326   -4168.6323   -4683.9326            0    2057.9905    20.141988    20.411588    20.937977      8608.23    4180.6339    298.29216    1695.0454    487.21914   -24.681221    416.38778   -3910.2676 
 2999000    251.80651   -4694.5085   -4208.8784   -4694.5085            0    2919.8596    20.083847    20.300705    20.750439    8460.2916    3009.7396    2481.1878    3268.6513   -96.782457   -13.379843    1408.1749   -3848.6125 
 3000000    277.18285   -4682.2021   -4147.6316   -4682.2021            0    2984.5719    20.141401    20.062592    20.995679     8484.117    2626.3781     2774.476    3552.8615   -360.75799    276.54253   -413.53013   -3778.3442 
Loop time of 391.756 on 64 procs for 250000 steps with 972 atoms

Performance: 110.273 ns/day, 0.218 hours/ns, 638.152 timesteps/s
193.5% CPU use with 32 MPI tasks x 2 OpenMP threads

MPI task timing breakdown:
Section |  min time  |  avg time  |  max time  |%varavg| %total
---------------------------------------------------------------
Pair    | 25.909     | 34.266     | 46.695     |  80.3 |  8.75
Bond    | 0.73134    | 1.1346     | 2.082      |  22.4 |  0.29
Kspace  | 168.17     | 178.85     | 191.13     |  36.6 | 45.65
Neigh   | 2.3661     | 2.5183     | 2.7405     |   7.5 |  0.64
Comm    | 75.911     | 82.144     | 85.998     |  26.1 | 20.97
Output  | 0.60576    | 0.60604    | 0.60753    |   0.0 |  0.15
Modify  | 73.677     | 76.991     | 80.465     |  18.3 | 19.65
Other   |            | 15.24      |            |       |  3.89

Nlocal:        30.3750 ave          36 max          22 min
Histogram: 1 2 2 2 2 4 4 12 0 3
Nghost:        2578.06 ave        2620 max        2535 min
Histogram: 1 3 3 6 2 2 8 3 2 2
Neighs:        9293.47 ave       12208 max        6570 min
Histogram: 4 2 1 2 7 6 4 2 2 2

Total # of neighbors = 297391
Ave neighs/atom = 305.95782
Ave special neighs/atom = 2.0000000
Neighbor list builds = 8290
Dangerous builds = 0

unfix		3
unfix		2
unfix		1

write_data	data.final.${pid}
write_data	data.final.0
System init for write_data ...
PPPM initialization ...
  extracting TIP4P info from pair style
  using 12-bit tables for long-range coulomb (../kspace.cpp:340)
  G vector (1/distance) = 0.37186011
  grid = 24 24 25
  stencil order = 5
  estimated absolute RMS force accuracy = 0.0034747115
  estimated relative force accuracy = 1.0463991e-05
  using double precision FFTW3
  3d grid and FFT values/proc = 3458 576
Last active /omp style is kspace_style pppm/tip4p/omp
WARNING: Not all mixed pair coeffs generated from mixing. Use write_data with 'pair ij' option to store all pair coeffs. (../write_data.cpp:312)

write_restart   restart.lmp.${pid}
write_restart   restart.lmp.0
System init for write_restart ...
PPPM initialization ...
  extracting TIP4P info from pair style
  using 12-bit tables for long-range coulomb (../kspace.cpp:340)
  G vector (1/distance) = 0.37186011
  grid = 24 24 25
  stencil order = 5
  estimated absolute RMS force accuracy = 0.0034747115
  estimated relative force accuracy = 1.0463991e-05
  using double precision FFTW3
  3d grid and FFT values/proc = 3458 576
Last active /omp style is kspace_style pppm/tip4p/omp
Total wall time: 0:06:31
