#include		in.partitions
include		in.temp
variable        temperature equal 228.27
variable	tempDamp equal 100.0
include		in.pressure
variable        pressure equal 8366.5
variable        pressureDamp equal 1000.0 # This is 1 ps
include		in.seed
variable        seed equal 745823

units		real
atom_style	full
read_restart	restart.lmp.${pid}
read_restart	restart.lmp.0
Reading restart file ...
  restart file = 30 Jul 2021, LAMMPS = 30 Jul 2021
  restoring atom style full from restart
  orthogonal box = (-0.039414784 -0.089867839 -0.075179956) to (24.769416 24.819869 22.885180)
  4 by 4 by 2 MPI processor grid
  restoring pair style lj/cut/tip4p/long/omp from restart
  restoring bond style harmonic/omp from restart
  restoring angle style harmonic/omp from restart
  1920 atoms
  1280 bonds
  640 angles
Finding 1-2 1-3 1-4 neighbors ...
  special bond factors lj:    0        0        0       
  special bond factors coul:  0        0        0       
     2 = max # of 1-2 neighbors
     1 = max # of 1-3 neighbors
     1 = max # of 1-4 neighbors
     2 = max # of special neighbors
  special bonds CPU = 0.002 seconds
  read_restart CPU = 0.008 seconds
include 	in.setup
variable	out_freq equal 1000
variable	out_freq2 equal 10000
variable	out_freq3 equal 1000

timestep	2.0

neigh_modify    delay 7 every 1

include		in.tip4p
# This is TIP4P/Ice

# create groups ###
group ox type 2
640 atoms in group ox
group hy type 1
1280 atoms in group hy

# set charges - beside manually ###
set group ox charge -1.1794
Setting atom values ...
  640 settings made for charge
set group hy charge 0.5897
Setting atom values ...
  1280 settings made for charge

# ### TIP3P Potential Parameters ###
pair_style lj/cut/tip4p/long/omp 2 1 1 1 0.1577 8.5
pair_coeff 1 1*2 0.000 0.000
pair_coeff 2 2 0.21084 3.1668
bond_style  harmonic
bond_coeff  1 450 0.9572
angle_style harmonic
angle_coeff 1 55 104.52
kspace_style pppm/tip4p/omp 1.0e-5
pair_modify tail yes

thermo          ${out_freq}
thermo          1000
thermo_style    custom step temp pe etotal epair emol press lx ly lz vol pxx pyy pzz pxy pxz pyz enthalpy

restart 	${out_freq3} restart.lmp.${pid} restart2.lmp.${pid}
restart 	1000 restart.lmp.${pid} restart2.lmp.${pid}
restart 	1000 restart.lmp.0 restart2.lmp.${pid}
restart 	1000 restart.lmp.0 restart2.lmp.0


include         in.dump
dump            myDump all atom ${out_freq2} dump.water.${pid}
dump            myDump all atom 10000 dump.water.${pid}
dump            myDump all atom 10000 dump.water.0
dump            myDump2 all dcd ${out_freq2} dump.dcd
dump            myDump2 all dcd 10000 dump.dcd
dump_modify     myDump append yes
dump_modify     myDump2 append yes


variable natoms 	equal  "count(all)"                        # NUMBER ATOMS
variable H      	equal  "enthalpy/v_natoms"                 # ENTHALPY-per-atom
variable Vol      	equal  "vol/v_natoms"                 # volume-per-atom
fix AVG all 		ave/time ${out_freq} 1 ${out_freq} v_Vol v_H file vol_enthalpy.dat
fix AVG all 		ave/time 1000 1 ${out_freq} v_Vol v_H file vol_enthalpy.dat
fix AVG all 		ave/time 1000 1 1000 v_Vol v_H file vol_enthalpy.dat




fix 		1 all shake 1e-6 200 0 b 1 a 1
       0 = # of size 2 clusters
       0 = # of size 3 clusters
       0 = # of size 4 clusters
     640 = # of frozen angles
  find clusters CPU = 0.007 seconds
fix             2 all nph aniso ${pressure} ${pressure} ${pressureDamp}
fix             2 all nph aniso 8366.5 ${pressure} ${pressureDamp}
fix             2 all nph aniso 8366.5 8366.5 ${pressureDamp}
fix             2 all nph aniso 8366.5 8366.5 1000
fix             3 all temp/csvr ${temperature} ${temperature} ${tempDamp} ${seed}
fix             3 all temp/csvr 228.27 ${temperature} ${tempDamp} ${seed}
fix             3 all temp/csvr 228.27 228.27 ${tempDamp} ${seed}
fix             3 all temp/csvr 228.27 228.27 100 ${seed}
fix             3 all temp/csvr 228.27 228.27 100 745823


run             250000
PPPM initialization ...
  extracting TIP4P info from pair style
  using 12-bit tables for long-range coulomb (../kspace.cpp:340)
  G vector (1/distance) = 0.37466182
  grid = 30 30 30
  stencil order = 5
  estimated absolute RMS force accuracy = 0.0032459384
  estimated relative force accuracy = 9.7750471e-06
  using double precision FFTW3
  3d grid and FFT values/proc = 5400 960
Last active /omp style is kspace_style pppm/tip4p/omp
Neighbor list info ...
  update every 1 steps, delay 7 steps, check yes
  max neighbors/atom: 2000, page size: 100000
  master list distance cutoff = 10.8154
  ghost atom cutoff = 10.8154
  binsize = 5.4077, bins = 5 5 5
  1 neighbor lists, perpetual/occasional/extra = 1 0 0
  (1) pair lj/cut/tip4p/long/omp, perpetual
      attributes: half, newton on, omp
      pair build: half/bin/newton/omp
      stencil: half/bin/3d
      bin: standard
Per MPI rank memory allocation (min/avg/max) = 10.54 | 10.55 | 10.56 Mbytes
Step Temp PotEng TotEng E_pair E_mol Press Lx Ly Lz Volume Pxx Pyy Pzz Pxy Pxz Pyz Enthalpy 
 7250000     231.5597   -9237.7605   -8354.9493   -9237.7605            0    9323.6577    24.808831    24.909737     22.96036    14189.076    10244.012    8818.7434    8908.2182   -754.96962   -694.11501   -144.72328   -6425.5757 
 7251000    236.82984   -9301.8041   -8398.9007   -9301.8041            0    6140.8665    25.030631    24.847734    23.010267    14311.338     4866.848    7415.2957    6140.4558   -33.540839    153.67007    675.61211   -7117.2025 
 7252000    231.78441   -9260.2668   -8376.5989   -9260.2668            0    8155.6049    24.985547    24.837669    23.002731    14275.098    7854.7317    9238.2354    7373.8476     -59.4572    758.40512   -153.46419   -6678.7026 
 7253000    240.18247   -9288.3078   -8372.6227   -9288.3078            0    8743.6711    24.787652    24.898877    23.003209    14197.228    10110.517     8026.242    8094.2545    150.97667   -581.93541    131.33082   -6562.2279 
 7254000    226.40765    -9287.387   -8424.2178    -9287.387            0    6966.2214    24.887685    25.020903    22.967671    14302.253    6611.8851    6187.7071    8099.0721   -99.500986   -597.67526   -607.87971   -6971.1777 
 7255000      223.549   -9210.0764   -8357.8057   -9210.0764            0    8511.5338    24.903984    24.949685    23.005349    14294.294    8761.1347    8385.1835    8388.2831   -531.55445    459.24376    -1052.986   -6583.4265 
 7256000    234.47972   -9229.5546    -8335.611   -9229.5546            0    8845.8815     24.97237    24.826247    22.936446    14219.914    8445.2909    9934.5614    8157.7921    629.62359   -889.29343    428.71915   -6501.1267 
 7257000    226.78798   -9275.1887   -8410.5695   -9275.1887            0    7883.3104    24.941272    25.034782     22.85503    14270.664    7969.5002    7041.5416    8638.8894   -203.99773   -782.75485    198.50481   -6769.8713 
 7258000     226.3035   -9258.6107   -8395.8385   -9258.6107            0    8433.6563    24.926336    24.951861    22.906189    14246.698    8601.1608     8488.829     8210.979   -836.59023   -523.04631    1304.2857   -6643.5484 
 7259000    234.87674   -9232.4297   -8336.9725   -9232.4297            0    8058.6698    24.841227    24.840044    23.139624    14278.471    9688.4733    8112.5803    6374.9558   -132.96368    -71.78667    421.37884   -6658.8604 
 7260000    226.73167    -9227.994   -8363.5894    -9227.994            0    8633.2407    24.800183     24.89555    23.062003    14238.808    9023.2978    8951.5503     7924.874   -166.23153    749.76508   -338.80013   -6570.8244 
 7261000    228.31043   -9261.9716   -8391.5482   -9261.9716            0     7595.311     24.80036    24.988687    23.040934    14279.122    8359.8528     7184.109     7241.971    318.45451   -416.09166   -373.27729   -6809.8524 
 7262000    232.49673    -9221.444   -8335.0605    -9221.444            0    9507.3891    24.950171    24.837866    22.957363    14226.884    10217.315    9204.6167    9100.2352   -675.01046    69.567946    358.69557   -6362.4244 
 7263000    229.03458   -9227.1589   -8353.9746   -9227.1589            0    7775.0958     25.09837    24.898897    22.875636    14295.482    5635.7619    8545.9857    9143.5397    466.58609   -10.997305     1601.489   -6732.9843 
 7264000    229.86246   -9290.1577   -8413.8171   -9290.1577            0    8513.9739    24.964287    24.920845    22.852411    14217.196    7294.3664     8725.737    9521.8183    371.41152   -641.12191    804.10301   -6648.5024 
 7265000    224.35618   -9233.3741    -8378.026   -9233.3741            0    8958.3091    24.843704    24.949999    22.963132    14233.706    9162.9752    7912.4487    9799.5035   -548.05406   -944.70529   -1328.2223   -6518.4243 
 7266000    235.08041   -9264.0276   -8367.7939   -9264.0276            0    8425.1382     24.77396    24.895387    23.085144    14237.932    8466.0515    8369.6446    8439.7186     485.5708   -593.15565    115.52783   -6618.3508 
 7267000     228.3407     -9242.72   -8372.1812     -9242.72            0    7690.8119    24.875537     24.94766    22.999957    14273.461    7698.8711    7591.8332    7781.7313   -238.65165    296.35441    423.38536   -6771.2326 
 7268000    220.11565    -9239.599   -8400.4177    -9239.599            0    9506.7999    24.893648    24.899981     22.88776    14187.009    8376.4251     10167.09    9976.8848    78.392842   -1109.2053    719.48418   -6433.4326 
 7269000    220.72204   -9228.6445   -8387.1514   -9228.6445            0    8206.0574    24.969173    24.932069    22.877804    14242.191    7261.4005     8204.919    9151.8527   -373.96802    1044.6812    175.93714   -6682.6897 
 7270000    215.22198   -9219.4242   -8398.8999   -9219.4242            0    8896.3462    25.095758    24.919805    22.810763    14265.427    6585.4657    8588.7486    11514.824     346.0811   -1025.2676    425.35218   -6548.0452 
 7271000    227.15405   -9257.2177   -8391.2029   -9257.2177            0    8767.0574    24.970564    24.873577    22.888775    14216.384    7863.8535     9969.393    8467.9256     759.2688    798.75515    1066.1135   -6573.5168 
 7272000    233.37303   -9234.3605   -8344.6361   -9234.3605            0    9165.4521    24.858382    25.027532    22.815467    14194.504     10048.66    8123.0881    9324.6087   -620.78847    461.45576   -963.64803   -6447.2749 
 7273000    218.70445   -9256.4608   -8422.6597   -9256.4608            0    9073.0298     24.81861    25.013999    22.919711    14228.848    8922.7085    7889.3533    10407.028    1259.5934    341.66152   -383.19572   -6539.8867 
 7274000    233.37367   -9211.2933   -8321.5665   -9211.2933            0    7039.0303    24.856039    24.965537    23.115212    14344.015     7614.883    7025.3432    6476.8646    322.64868    38.042257   -464.95559   -6849.0524 
 7275000    233.55318   -9256.2404   -8365.8292   -9256.2404            0    8409.6396    24.861072    24.883799    23.019114    14240.497    7973.6268    8225.2637    9030.0282   -156.79838    47.769098   -297.01446   -6619.2897 
 7276000    234.36444   -9235.8609   -8342.3567   -9235.8609            0    9776.8007    24.910037    24.884269    22.889602    14188.533    9648.2676    9349.5636    10332.571   -536.46398      290.933   -110.36226   -6319.2903 
 7277000    227.45988   -9244.0489   -8376.8681   -9244.0489            0    7324.4835    24.969909    24.942042    22.934264    14283.472    7977.0101    6762.0181    7234.4222    274.83126   -211.24384   -1113.9638   -6851.1065 
 7278000    224.63795   -9244.8171   -8388.3948   -9244.8171            0    9675.2637    24.820681     24.92012    22.923194    14178.783     10134.85    8633.6851    10257.257   -49.603772   -551.10624    -1133.876   -6387.7147 
 7279000    224.37224   -9267.9581   -8412.5488   -9267.9581            0    6727.4158    24.890233    25.074172    22.954275    14325.808    7125.8854    5878.6422    7177.7198    354.78512   -91.145334    631.28544   -7007.0085 
 7280000    225.50459   -9198.7406   -8339.0142   -9198.7406            0    8944.0424    24.807847    24.985948    22.981851    14245.244    9536.9743      7754.29    9540.8629    56.690634    481.26272   -180.82501   -6480.8691 
 7281000    234.55743    -9234.603   -8340.3631    -9234.603            0    8017.9316    24.883144    24.854598    23.113735    14294.933    8709.2725     9109.153    6235.3692    208.87605    819.82542    1253.3362   -6668.8093 
 7282000    230.45241   -9231.0332   -8352.4435   -9231.0332            0    7929.6424    24.919889    24.831483    23.061505    14270.408    6614.6914    9835.8554    7338.3806    284.53864    158.20909      420.245   -6702.1322 
 7283000    233.05495   -9243.9215   -8355.4098   -9243.9215            0    8575.8333    24.949929    24.889614    22.934464    14242.167    8356.1002    8838.2327    8533.1672   -1580.2406    512.28301    691.84744   -6574.1458 
 7284000    218.34297   -9253.2897   -8420.8667   -9253.2897            0     7157.553    24.909737    25.137004    22.826428    14292.909    7201.5821    6790.8591    7480.2179   -182.48898    197.06927   -625.28649   -6928.8933 
 7285000    222.14813   -9271.8913   -8424.9614   -9271.8913            0    8335.0962    24.875685    24.942035     22.95087    14239.872    7549.3292    8864.6293      8591.33    375.06568   -97.341911   -114.16785   -6693.9792 
 7286000    228.29717   -9257.2882   -8386.9153   -9257.2882            0     8624.442    24.953975    24.764749    23.046251    14242.097    7797.6994    10056.847    8018.7797    344.77533   -858.16278   -963.60682   -6595.5636 
 7287000    226.03958   -9241.2673   -8379.5014   -9241.2673            0    8370.9658      24.9133    24.868873    23.013599    14258.436     8202.247    9437.7511    7472.8992   -483.47854   -355.26279     132.0449   -6638.8037 
 7288000    238.28063    -9266.551   -8358.1166    -9266.551            0    8932.2614    24.853126    24.956855    22.904648    14206.742    9336.5915    8233.7411    9226.4517   -519.80459   -241.53811     2233.389   -6507.4346 
 7289000    226.53415   -9267.3101   -8403.6586   -9267.3101            0    6746.0629    24.881011    25.110025    22.907264    14311.607    7705.4003    5939.7762    6593.0122   -837.49199   -818.36451   -68.368478   -6995.6197 
 7290000    222.01768    -9231.176   -8384.7434    -9231.176            0    9305.6062    24.882809    25.020384    22.794856    14191.563    9319.6855    8655.0515    9942.0816   -301.57235   -269.99079    544.52981   -6458.7677 
 7291000     217.7622   -9252.0499   -8421.8411   -9252.0499            0    9348.6755    24.830864    25.049352    22.821518    14194.916    9900.0337    8598.1884    9547.8044   -353.01033   -1495.4345    138.22175   -6486.4942 
 7292000    231.70166   -9272.9334    -8389.581   -9272.9334            0    7507.3792    24.875222    24.878941    23.049443     14264.59    7823.4471    8085.7032    6612.9873    338.23872   -373.28277     483.7504   -6827.7878 
 7293000    229.34079   -9245.5144   -8371.1628   -9245.5144            0    7005.1815    24.879402    24.907202    23.150327    14345.709    8362.2626    6889.4256    5763.8561    364.90901    288.49284   -521.14002   -6905.5565 
 7294000    231.30726   -9259.0553   -8377.2066   -9259.0553            0    9168.6267    24.847019    24.861011    22.979708    14195.071     9205.561    8949.3911    9350.9281    -99.54869    219.05682    282.08295   -6479.1123 
 7295000     224.4449   -9296.7114   -8441.0251   -9296.7114            0    8299.4841    24.927641    24.956823    22.868774    14227.001    7909.6214     7926.292    9062.5389   -415.10989   -817.69937    -605.1037   -6718.9965 
 7296000    232.26325   -9224.2761   -8338.7827   -9224.2761            0    8089.8173    25.007196    24.914132    22.881112    14255.678    7964.7488    8596.8468    7707.8564   -257.13644     424.3158   -203.25368   -6656.8737 
 7297000     226.3796   -9252.3447   -8389.2825   -9252.3447            0    8799.2293    24.979054    24.768547    22.991609     14224.79    8519.1387    9944.2683    7934.2808   -629.13733   -29.953181    815.84605   -6563.8473 
 7298000    226.64472   -9258.2034   -8394.1304   -9258.2034            0    8123.5563     24.93641    24.826101    23.040496    14263.769     8574.157    8652.8938    7143.6181      289.515   -759.75246    1155.4724   -6704.2484 
 7299000    233.57532   -9247.8912   -8357.3956   -9247.8912            0     8117.902    24.905611    24.899364    23.042109    14289.192    7988.4845    8352.8213    8012.4002   -57.831183   -271.88678   -782.15285   -6665.6799 
 7300000    237.08522   -9246.3659   -8342.4889   -9246.3659            0    8501.2345    24.859072    24.971572    22.974379    14261.808    9005.4529    8525.8832    7972.3674    574.28487   -535.87414    416.57098   -6574.2845 
 7301000    232.18561   -9253.4771   -8368.2796   -9253.4771            0    7927.3624     25.02916    24.946021    22.820331    14248.512    7932.7761    6996.9963    8852.3149   -385.84449   -1074.8221   -70.895154   -6720.9743 
 7302000    217.17741   -9212.9006   -8384.9212   -9212.9006            0    8382.5623    25.039826    24.962105     22.83385    14272.224    6999.8429    8687.4971    9460.3468   -217.43521   -48.892741    803.19258   -6640.1265 
 7303000    227.06047   -9241.1576   -8375.4995   -9241.1576            0    8325.9737    24.961148    24.933347    22.885216    14242.956    8351.0678    8543.9484    8082.9048    928.86598   -436.58783    133.97104   -6646.0374 
 7304000    227.04852    -9226.577   -8360.9645    -9226.577            0    8475.8199    24.895478    25.010415    22.917262    14269.347    8998.6179     7309.733     9119.109     739.2615   -251.75521   -311.06971   -6597.1143 
 7305000    232.45288   -9237.8778   -8351.6615   -9237.8778            0    8778.0887    24.779656    24.957598    23.028465     14241.74    9248.7957    9587.5791    7497.8912    580.47549   -972.06136    354.93672   -6528.4422 
 7306000    240.61134   -9263.0397   -8345.7195   -9263.0397            0     8222.099    24.823971    24.909909    23.082032    14273.072    9155.4821    7883.3114    7627.5036   -487.44363   -249.67997   -127.53131   -6634.2229 
 7307000    224.09219   -9232.2966    -8377.955   -9232.2966            0    8235.8953    24.804418    24.937234    23.023473    14241.251    9881.7381       8271.9    6554.0476   -62.700648   -115.59461    1052.1202   -6667.4086 
 7308000    229.01329   -9266.2993   -8393.1963   -9266.2993            0    8082.7238    24.811866    25.073113    22.908094    14251.371    8988.1706    6493.9573    8766.0434   -890.72409    680.55171    99.604079   -6713.2698 
 7309000    224.93108   -9237.4562   -8379.9163   -9237.4562            0     8286.368    24.909959    24.988235    22.857019    14227.487    8452.4431    8054.9257     8351.735    117.62833    1390.3367   -580.17846   -6660.5505 
 7310000    217.78303   -9256.9945   -8426.7063   -9256.9945            0    8228.0595    25.018636    24.865969    22.928785    14264.287    7272.2415    8391.2897    9020.6472    232.80037    232.98468   -139.16431   -6715.0231 
 7311000    226.56227   -9264.1023   -8400.3436   -9264.1023            0    8190.2396    24.986019    24.832461    22.924484    14223.825    6977.8407    8796.2672    8796.6108   -410.38257   -864.42818     23.22717   -6701.3611 
 7312000     232.8827   -9272.1167   -8384.2617   -9272.1167            0    8379.0192    24.882002     24.93685    22.919373    14220.984    8865.4341    8120.1542    8151.4693   -322.61273     359.6323   -501.56571   -6646.4659 
 7313000    233.57835   -9224.9151   -8334.4079   -9224.9151            0    8635.4105    24.827099    24.851522    23.070083    14234.038    8967.0155    9482.9195    7456.2964    37.115282   -286.02533   -445.06358    -6541.793 
 7314000    226.41899   -9233.2103   -8369.9978   -9233.2103            0    8461.3907    24.902994    24.897157    22.973257    14243.736    8149.4823    9233.0972    8001.5927    109.78157   -1744.3162   -759.75393   -6612.3108 
 7315000    229.40827   -9293.8497   -8419.2408   -9293.8497            0    7817.0717    24.899595    25.000738     22.90139    14256.304    8423.1665     6813.555    8214.4936    106.43681    601.50087    166.35387   -6793.9654 
 7316000    238.47238    -9212.512   -8303.3465    -9212.512            0     9447.841    24.803798    24.943324    23.001886    14231.018     9153.684    9416.2424    9773.5966     1022.329     6.587399    1008.2719   -6342.4962 
 7317000    225.68915   -9287.3051   -8426.8751   -9287.3051            0    7783.4729    24.794365    24.987486    23.009206    14255.328    9176.0207    6023.6788    8150.7192   -177.86862     213.4553   -539.30325   -6808.6963 
 7318000    226.88832   -9274.8852   -8409.8834   -9274.8852            0    9552.6684    24.871108    24.944687     22.86964    14188.371    11375.542    7888.2551    9394.2079    581.07157   -111.13817    309.62319   -6433.2182 
 7319000    225.74999   -9282.7074   -8422.0455   -9282.7074            0    6896.3462    24.917619    24.959522     22.97913    14291.453     7380.213    6925.6493    6383.1762   -471.34786    -296.2548    637.08128   -6984.6664 
 7320000    224.62915   -9252.9375   -8396.5488   -9252.9375            0    8520.3656    24.924812    24.788069    23.045534    14238.406    8318.6967    9693.2571    7549.1431    190.66053   -512.55951    395.39916   -6627.2732 
 7321000    231.05214   -9255.9837   -8375.1076   -9255.9837            0    8687.0184    24.938212    24.849236      22.9417    14216.868    7372.6298    9239.2919    9449.1335    685.68578   -36.523735   -240.25231   -6573.9547 
 7322000    229.66208   -9236.3815   -8360.8049   -9236.3815            0    6786.6742    24.878187    25.118618     22.93198    14330.325    7470.2615    6433.4096    6456.3516    33.846043   -335.26413   -111.43502    -6942.437 
 7323000    225.28096   -9303.5596   -8444.6858   -9303.5596            0    8202.1189    24.824137    24.907403    22.994644    14217.698    9313.2028    7702.3139      7590.84    1133.5182   -745.37717    510.64242    -6743.972 
 7324000    232.79192   -9246.8289   -8359.3199   -9246.8289            0    9907.8868    24.814922    24.847505    23.026803    14198.071    9778.8336    9819.7456    10125.081    513.78974   -332.52532   -551.90614   -6307.7503 
 7325000    225.56721   -9210.7919   -8350.8268   -9210.7919            0    8354.7349    24.949998    24.913481    22.974352    14280.657    7832.6848    9183.2218    8048.2981    -116.4418    785.89946   -37.681265   -6610.7968 
 7326000    236.99677   -9288.7634   -8385.2236   -9288.7634            0    8848.2565    24.938798    24.897839    22.907485    14223.765    7615.0418     8598.738     10330.99    591.70521    1163.0358     922.2912   -6549.7499 
 7327000    226.03305   -9271.0983   -8409.3572   -9271.0983            0    9147.9877    24.887788     24.91218    22.864241    14176.036    8495.4246    9772.8434     9175.695    491.82241   -1223.1681    83.853959   -6518.0753 
 7328000    223.06921   -9197.7655    -8347.324   -9197.7655            0    8325.7114    24.832404    25.075704    22.932522    14279.853    9405.5749    7465.9006    8105.6587   -282.21804   -490.73165    -661.4885   -6613.4363 
 7329000    227.40169   -9256.7538   -8389.7949   -9256.7538            0     8189.808    24.875728    24.869336    23.056091    14263.486    7721.0408    7658.0015    9190.3817    304.70661    149.02402   -603.71173   -6686.1648 
 7330000    232.55784   -9259.4401   -8372.8236   -9259.4401            0    8722.6637    24.816047    24.861001    23.110614    14258.134    9509.4227     8945.456    7713.1124   -137.52801   -212.04986    198.69377   -6559.0306 
 7331000    233.19604   -9249.7392   -8360.6895   -9249.7392            0    7942.0337    24.885397    25.036581    22.932112    14287.744    8265.2116    7657.5604     7903.329    180.96336   -579.64009   -160.80626   -6705.7914 
 7332000    230.42342   -9263.0534   -8384.5742   -9263.0534            0    7881.7992     24.87537    24.950769    22.969953    14256.522     8030.943    7858.2583    7756.1962    5.3860847    865.92944    47.740839   -6745.8162 
 7333000    225.18778   -9280.8789   -8422.3604   -9280.8789            0    8676.6967    24.901549    24.806407    22.974984     14192.06    9202.2943    8408.7895    8419.0064   -576.11376   -781.64528   -113.91101   -6626.4868 
 7334000    231.05531   -9224.8768   -8343.9886   -9224.8768            0    8193.9405    24.950878    24.758215    23.080571    14257.774    8201.2392    9433.5697    6947.0125    228.27479    -841.2489    340.78675   -6640.1816 
 7335000    222.56237   -9243.6136   -8395.1043   -9243.6136            0     8296.968    24.938225    24.910263    22.957916    14261.865    7793.5227    8493.3989    8603.9822    79.314721   -427.12034     762.1026   -6669.3793 
 7336000    224.10185   -9223.9217   -8369.5433   -9223.9217            0    7697.2216    25.013549    24.928366    22.912948    14287.297    6145.0368    8390.1522    8556.4759   -647.07428    974.42301    702.71697   -6765.7072 
 7337000    229.74199   -9258.0653    -8382.184   -9258.0653            0    8807.6169    25.027718    24.877065    22.815236    14205.135     6997.968    9792.0981    9632.7846    57.069451   -415.92981    265.55927   -6557.5337 
 7338000    234.03819   -9230.0684   -8337.8081   -9230.0684            0     9723.288    24.821032    24.854089    22.996105    14186.393    11188.474    9534.2359    8447.1544   -332.67967   -675.28879    1145.1559   -6326.1183 
 7339000    227.09256   -9299.7243   -8433.9439   -9299.7243            0    7962.1938    24.855499    24.934018    22.944078    14219.534    8258.9043    7975.1158    7652.5614    623.53589   -778.87699    861.88294   -6782.7655 
 7340000     233.9667   -9266.3244   -8374.3366   -9266.3244            0    7166.3666    24.848727    24.965605    23.037775    14291.795    8037.0396    7077.0465    6385.0137   -1084.3218   -68.134689    666.90342   -6880.6424 
 7341000      224.889   -9271.6747   -8414.2952   -9271.6747            0    8221.4516     24.95253    24.840036    22.979543     14243.22    6384.5715    9827.1734      8452.61    -232.9814   -457.98103     96.19472   -6706.5127 
 7342000    235.47693   -9263.7824    -8366.037   -9263.7824            0    8943.3447    24.976231    24.820055    22.913656    14204.437    7527.8867    9859.4238    9442.7236   -409.21962   -479.91452    497.76923   -6513.3592 
 7343000    228.19326   -9230.4537    -8360.477   -9230.4537            0    9754.3926    24.960684    24.909599    22.825699    14192.121    8801.1105    10169.697     10292.37   -790.18738    -848.9693    -129.5338   -6341.5369 
 7344000    223.68726    -9240.607   -8387.8091    -9240.607            0     8679.419     24.91573    24.990006    22.918076    14269.808    8703.0971    7868.3076    9466.8523   -448.24682   -401.15477   -1038.7296   -6581.5308 
 7345000    220.07578   -9274.3219   -8435.2926   -9274.3219            0    8870.7316    24.808709      24.8936    23.037726    14227.594    9346.0433    8777.7341    8488.4174   -640.72018   -443.92636    373.21552   -6594.6613 
 7346000    226.99902   -9239.2605   -8373.8368   -9239.2605            0    8331.6221    24.963784    24.887223    22.969305    14270.352    7917.1012    8706.0645    8371.7005   -36.285603    898.52128    1294.8302   -6639.8725 
 7347000    231.15451   -9232.0508   -8350.7843   -9232.0508            0    10284.421    24.905253    24.780111    22.925061    14148.314    9121.2859    11960.089    9771.8877   -590.78148   -273.88682   -467.61361   -6228.7108 
 7348000    225.14193   -9294.3671   -8436.0234   -9294.3671            0    7589.2844    24.895001    24.888018    23.000596    14250.876    7214.2845    7767.6367    7785.9321   -156.14848   -385.55398    18.642696   -6858.7089 
 7349000    230.81369     -9237.47    -8357.503     -9237.47            0    8245.4443    24.843222    24.985761     22.97995     14264.27    7430.0896    9062.4222     8243.821   -338.49696   -120.61269    266.83499   -6642.2052 
 7350000     225.7785   -9280.0777   -8419.3071   -9280.0777            0    7493.9228    24.792617    24.990601    22.997125    14248.614    7897.6252    8573.5797    6010.5635    -738.6738   -865.92709   -1400.6673   -6862.0593 
 7351000    229.86787   -9262.8072   -8386.4461   -9262.8072            0    9292.6855    24.902151    24.895644    22.929261    14215.113    9391.9957    9560.3467    8925.7141    234.50224   -58.982942    671.51171   -6459.9531 
 7352000    234.14436   -9233.6279   -8340.9628   -9233.6279            0    9657.2086    25.006267    24.889818    22.793995    14187.015     9412.848    8940.8435    10617.934   -121.12533   -733.89016   -866.02449   -6342.8567 
 7353000    233.34287   -9268.1288   -8378.5194   -9268.1288            0    7675.5728    25.015663    24.890779    22.924513    14274.162    6228.8857    7558.4274    9239.4052   -575.92453   -619.96029   -54.409257   -6780.6645 
 7354000    227.97809   -9255.2815    -8386.125   -9255.2815            0    8306.1058     24.82088    24.972223    23.024876    14271.568    10089.528    7277.9858    7550.8036   -132.08128    520.50834   -365.24177   -6657.3239 
 7355000    227.00468   -9227.0698   -8361.6244   -9227.0698            0    8758.3746    24.761845    24.980727    23.013905    14235.685    9696.9394    6831.4299    9746.7546   -143.13761    56.436512    808.12187   -6543.2731 
 7356000    225.90247   -9272.8775   -8411.6343   -9272.8775            0    8221.4662    24.861913    24.854294    23.035247    14234.062    8001.3083    7700.5836    8962.5069   -427.43286   -248.35829   -854.40429   -6704.9468 
 7357000    231.27699   -9270.4142   -8388.6808   -9270.4142            0    7830.0096    24.974344    24.865692    22.986781    14274.891    7106.2101    8055.2127    8328.6061   -49.063352   -76.416835   -1096.0241   -6758.5931 
 7358000    234.96837   -9275.0189   -8379.2123   -9275.0189            0    8663.6272    24.963083    24.925419    22.843403    14213.515    8770.2684     8122.546    9098.0672   -487.91927    435.04043   -264.60157   -6583.3331 
 7359000    226.77097   -9251.0191   -8386.4647   -9251.0191            0    8638.9237     24.86269    25.018103    22.908696    14249.606    7388.7274    8423.8684    10104.175   -685.92718    130.43442    175.78967   -6591.1591 
 7360000    234.10001   -9291.9854   -8399.4894   -9291.9854            0    8440.9672    24.865166    24.968411    22.892226    14212.495    9045.8141    7609.0414     8668.046    -658.3678    268.69067    503.14686   -6649.8909 
 7361000    230.36547   -9256.7077   -8378.4495   -9256.7077            0    7246.2736    24.941198    24.903654    22.990704    14280.146    7940.1735    7236.6942    6561.9532   -218.74463    908.96974    311.30912   -6869.3312 
 7362000      226.482   -9234.8759   -8371.4232   -9234.8759            0    7947.3404    24.996733    24.843729    22.976569    14268.726    7569.1696    8465.3026    7807.5491    506.71998   -831.98047   -370.45054   -6717.6235 
 7363000    225.94561   -9234.4963   -8373.0886   -9234.4963            0    8006.8966    24.941087    24.905784    22.963722    14264.543    6835.5544    8767.7387    8417.3966    383.62944   -142.14554    261.34731    -6707.384 
 7364000    232.97117   -9209.8616   -8321.6692   -9209.8616            0    9716.3921    24.817422    24.952975    22.976453    14228.594    9740.1581    10032.081    9376.9375   -979.44651    360.74555    569.91421   -6305.4261 
 7365000    231.83688   -9222.3073   -8338.4394   -9222.3073            0    7710.6147    24.844088    24.999041    23.020294    14297.407    8584.6672    6699.5675    7847.6093   -293.72795   -448.44389    428.50698   -6730.6758 
 7366000    227.55271   -9261.8934   -8394.3587   -9261.8934            0    8821.5068    24.730244    24.948949    23.051302    14222.506    9540.1498    9001.5736     7922.797   -639.87892   -660.36753    1000.4359    -6564.596 
 7367000    221.86849   -9282.1955   -8436.3316   -9282.1955            0    8756.9378    24.931427    24.872122    22.974295    14246.302    8066.4844    8929.9655    9274.3636   -661.98682   -126.75376   -103.50089   -6616.9227 
 7368000    220.24463   -9263.9905   -8424.3175   -9263.9905            0    7810.3217    25.016129    24.768806    23.007788    14256.077    6628.4361    9783.3318    7019.1971   -924.57871   -401.66123    778.06936   -6800.4714 
 7369000    222.21217   -9229.3508   -8382.1767   -9229.3508            0    8699.3016    24.839613    24.889832    23.032888     14240.17    9302.7916     8203.506    8591.6073    -392.7407    500.97377    137.86382   -6575.5207 
 7370000    226.75199   -9252.6417   -8388.1597   -9252.6417            0    9274.7406    24.805196    24.953148    22.949691    14205.118    10382.256    9095.0987    8346.8671   -547.50841    -312.3213   -225.76268   -6466.7389 
 7371000    230.30296   -9273.3802   -8395.3602   -9273.3802            0    8437.0998    24.822843    25.070512    22.859839    14226.166    9500.2802    6461.6334    9349.3857   -59.180057    206.67121   -407.97283    -6644.881 
 7372000    228.38273   -9228.1196   -8357.4204   -9228.1196            0    7997.3063    24.939508    24.954117    22.916419    14261.882    9231.6656    7024.7519    7735.5014   -336.75898    384.37872      1145.52   -6694.0214 
 7373000     228.8207   -9269.8482   -8397.4794   -9269.8482            0    8483.9247    24.995987    24.857939    22.927218    14245.798    8292.1025    8011.4945    9148.1771    514.51308     -430.456   -146.35244   -6634.8562 
 7374000    230.75147   -9232.7507   -8353.0209   -9232.7507            0    8952.6418    24.853738    24.926748    22.973434    14232.568    8722.5497    8521.1353    9614.2405   -337.09646    994.01533    236.63835   -6494.7442 
 7375000    227.83628   -9208.7674   -8340.1516   -9208.7674            0    8212.6519     24.84733    24.951523    23.059358    14296.311    9376.2377    8414.3542    6847.3637   -246.43424   -520.02927   -136.44564    -6627.838 
 7376000    234.60952   -9284.8678   -8390.4293   -9284.8678            0    7981.7815    24.986247    24.776157    23.047074    14267.595    6814.3188    9488.9852    7642.0403   -331.82927    -807.6443    663.67557   -6729.5943 
 7377000    231.93213    -9253.438   -8369.2069    -9253.438            0    9163.7924     24.95322    24.921029     22.82714    14195.284    8948.0382    9486.4269    9056.9122    689.78706    762.91208    331.95255   -6472.0851 
 7378000    224.63738   -9252.8871    -8396.467   -9252.8871            0    7912.9152    24.995573    24.993848    22.829721    14262.538    6312.9799    7861.8234    9563.9421    219.72489    413.09026    225.45834   -6750.5451 
 7379000    225.36808    -9225.292   -8366.0862    -9225.292            0    8550.9136    24.892707    24.948126    22.910871    14228.255    8317.7327    8823.5355    8511.4727   -341.11319    413.24513   -200.74485    -6591.733 
 7380000    221.35119   -9262.2552   -8418.3635   -9262.2552            0    8304.4795    24.833538    24.981132    22.968145    14248.746    8189.7139    8036.1645    8687.5601   -564.28149   -1050.2815    248.79683   -6692.6649 
 7381000    225.06802   -9280.5775   -8422.5156   -9280.5775            0     7831.711    24.848572    24.916028    23.044294    14267.361    8636.3725    7484.0584    7374.7022    -426.3018    843.31373   -508.31999   -6792.9337 
 7382000    226.53248   -9243.0463   -8379.4012   -9243.0463            0    8333.9586     24.82839    24.957354    23.024704    14267.279    8146.2144    9117.2449    7738.4165    107.90122   -280.40424    152.52569   -6645.3242 
 7383000    228.72825    -9259.138   -8387.1216    -9259.138            0    9509.8585    24.858143    24.920523    22.913784    14194.584    9603.8665    9087.2222    9838.4868   -306.82575   -1093.1228   -338.08807   -6418.4531 
 7384000    224.04729   -9274.1672   -8419.9968   -9274.1672            0    8338.4714    24.845311    25.094019    22.859884    14252.422    9742.8686    7088.3141    8184.2315      18.2997   -218.64691    119.63512   -6686.7875 
 7385000    225.15439   -9296.9236   -8438.5324   -9296.9236            0     7142.898    24.870316     24.98848    22.935126    14253.525    8761.4595    6194.8876    6472.3468     895.2844   -876.63105    472.14002   -6953.7165 
 7386000    231.92254   -9251.4929   -8367.2984   -9251.4929            0    9250.4308    24.843677    25.014483    22.854618    14203.042     11000.75    7617.1002     9133.442   -493.51134   -1793.3003    724.93692   -6451.1938 
 7387000    226.99782   -9265.5234   -8400.1042   -9265.5234            0    8241.5835    24.943358    24.961097    22.871419    14240.056    8602.7842    7388.2818    8733.6845    501.07915   -930.77261    606.36414   -6688.5202 
 7388000    228.02115   -9246.8783   -8377.5577   -9246.8783            0    7719.7521    25.032486    24.861804    22.953806    14285.365    7291.9091    8767.3538    7099.9934   -821.85436    -984.3414   -267.18534   -6769.2447 
 7389000    229.65107    -9292.156   -8416.6214    -9292.156            0    9045.5934    24.857548    24.782451    23.042867     14195.12    9000.3876    9585.5474     8550.845    155.74561    -473.3234    66.531856   -6543.9912 
 7390000    231.36898   -9267.5205   -8385.4364   -9267.5205            0    8287.2665    24.879828    24.876353    23.028385    14252.714    7707.7138    8274.6302    8879.4555    529.97009    242.87591   -2.6763064   -6662.8352 
 7391000    225.30782   -9269.5539   -8410.5777   -9269.5539            0    7675.8187    24.908309    24.989814    22.933769    14275.216    7277.9056    7792.2946     7957.256   -795.37103    -619.4581    359.45843   -6812.5537 
 7392000    227.37132   -9284.2697   -8417.4266   -9284.2697            0    8774.5377    24.908903    25.012779    22.798722    14204.536    9171.4968     7382.407    9769.7093    495.08443   -1558.0712     489.9753   -6599.7058 
 7393000    232.77488   -9261.2809   -8373.8369   -9261.2809            0    8419.4712    24.902713    25.011244    22.849227    14231.591    8562.3071    7757.1447    8938.9619    351.25063    668.11714    71.869147    -6626.349 
 7394000    226.87065   -9253.8117   -8388.8773   -9253.8117            0    8992.2437    24.939292     24.85542    22.900043      14195.2    8267.7861    9759.2178    8949.7272   -617.13948   -327.65174    543.14656   -6527.2811 
 7395000    237.14187   -9244.4694   -8340.3764   -9244.4694            0    7042.7248    25.037577    24.918477    22.940111    14312.296    6770.2103    6537.3487    7820.6155    741.10293    603.36038   -428.84133   -6870.3474 
 7396000    229.27863   -9270.3939   -8396.2792   -9270.3939            0    8159.7025     24.90149    24.899145    22.993767    14256.729     7878.352    8673.4898    7927.2656   -138.98981   -506.27747    688.73657   -6699.7158 
 7397000    229.70479   -9262.5869   -8386.8475   -9262.5869            0    9067.7059     24.78885    24.865606    23.025358    14192.595    8805.0137    9890.8637    8507.2404   -85.553749    199.40358    152.71821   -6509.9735 
 7398000    231.02902   -9301.7385   -8420.9505   -9301.7385            0    9290.1205    24.815136    24.908654    22.972438    14199.531     10343.92    8438.0107    9088.4311   -824.23493   -931.84958    674.61696   -6497.1004 
 7399000    234.50945    -9267.443    -8373.386    -9267.443            0    8710.9162    24.946658    24.933202    22.859902     14218.86    8172.9515    9333.6412    8626.1559   -328.39186     346.8134    59.779739   -6567.0251 
 7400000    227.38321   -9274.9133   -8408.0248   -9274.9133            0    7367.7598    24.969823    24.980821    22.882005    14273.033    6611.1909    7092.6862    8399.4022   -108.81264   -75.528506   -609.67206     -6874.37 
 7401000      229.255   -9243.5027   -8369.4781   -9243.5027            0    9374.4827    24.840152    24.939409    22.937516    14209.761    9851.8217    9056.0854    9215.5409    819.01234    289.83029    1552.6222   -6426.7591 
 7402000    227.87648   -9280.2565   -8411.4875   -9280.2565            0    6843.2567    24.910404    24.810742    23.136076     14299.15    6970.4367    7693.9629    5865.3704   -173.16853    373.38405    44.768928   -6984.4054 
 7403000    224.71637   -9227.6438   -8370.9225   -9227.6438            0    8377.5918      24.9178    24.879465    23.022334    14272.501    9172.4437    8174.5446    7785.7872   -444.08371    481.38057   -316.99321   -6627.1285 
 7404000    229.47079   -9280.7495   -8405.9022   -9280.7495            0    9084.3759    24.932037    24.933744    22.794229     14170.01    8438.2918    9166.8007    9648.0354    -1078.547   -1145.6602   -529.11963   -6528.5699 
 7405000    230.68311   -9263.8656   -8384.3964   -9263.8656            0    8842.9903    24.896918    24.919753    22.884455    14198.089    8566.1378     8394.981    9567.8521   -338.93005   -328.71058    953.96757   -6553.3264 
 7406000    217.15403   -9289.5713   -8461.6811   -9289.5713            0    8722.3267    25.000235    25.075338    22.622424    14181.757    7890.5942    6864.0081    11412.378   -458.16543    386.10816   -899.23771   -6657.6739 
 7407000    231.66422   -9277.2761   -8394.0664   -9277.2761            0    8146.3806     24.94725    24.942228    22.916483    14259.552    8139.0217    7671.5206    8628.5996   -421.83937     624.8684    10.734102   -6699.9374 
 7408000    234.82581   -9277.0889   -8381.8258   -9277.0889            0    7862.3186    24.707765    24.954334    23.105166    14245.856    8706.2946    8199.1392    6681.5219    119.11266   -502.64226   -93.982935   -6748.3411 
 7409000     233.2344   -9249.5601   -8360.3642   -9249.5601            0    8627.7682    24.822764    25.016409    22.936687    14243.142    8986.0266    7854.9612    9042.3168    -430.3607   -474.83867   -423.47313   -6568.1902 
 7410000    228.71616   -9258.5179   -8386.5476   -9258.5179            0    9585.0783    24.828653    24.997714    22.817067    14161.631    9730.4435    8875.2067    10149.585   -648.54246   -322.66543   -11.686256   -6406.9139 
 7411000    222.71346   -9286.1634   -8437.0781   -9286.1634            0    8329.3152     24.95108    24.896617     22.88548    14216.402    8150.2314    7942.5051    8895.2093   -508.00054   -734.72938    71.523329   -6710.1475 
 7412000    231.01854    -9270.641    -8389.893    -9270.641            0    7746.6655    24.978356    24.842029    23.023732    14286.526    7002.5166    7871.5683    8365.9115   -284.24553     720.0126   -98.069562   -6775.8417 
 7413000    231.18212   -9256.0076   -8374.6359   -9256.0076            0    8401.8912    24.924086    24.816059    22.991301    14220.524    8625.9482    8790.8128    7788.9127   -569.34576    -1547.653    885.20564   -6632.1529 
 7414000    223.58839   -9262.1657   -8409.7448   -9262.1657            0    8450.9771    24.817643    24.961054    23.001545    14248.871    9000.2597    7435.2148    8917.4569    -715.7636   -899.48748   -84.943048   -6653.5881 
 7415000    229.71839     -9267.02   -8391.2287     -9267.02            0    8134.0813    24.750011    25.062315    22.938883    14228.819    9190.9788    7588.0408    7623.2244    333.67313   -334.25754   -963.53785   -6703.3033 
 7416000    229.00035   -9230.6177    -8357.564   -9230.6177            0    7473.2771    24.924208    24.924572    23.010052    14294.425    7005.8315     8285.355    7128.6447   -111.85417    -455.3052    680.18727   -6799.6134 
 7417000     220.2366   -9280.1952   -8440.5529   -9280.1952            0    7392.3671    24.968144    24.802765    23.013597    14251.837    7176.7927    8022.6692    6977.6393    221.34606    224.07171   -672.38435    -6904.061 
 7418000      229.011   -9213.4798   -8340.3855   -9213.4798            0    10241.816    24.851065    24.869006    22.904875      14155.7    10073.057    11212.059    9440.3325   -21.339097    1117.5925    605.06331   -6225.9998 
 7419000    227.21001   -9252.4974   -8386.2692   -9252.4974            0    7624.5811    24.869416    24.975225    23.013031    14293.837    7827.4131    6927.7552    8118.5751   -481.57559    268.13075    433.85407   -6796.8418 
 7420000    226.03484   -9250.9909    -8389.243   -9250.9909            0     9688.981    24.731196    24.930324    22.965947    14159.809    11120.414    8565.4649    9381.0641    721.59499    776.35794    453.76983   -6388.4076 
 7421000    221.76115   -9253.3942   -8407.9395   -9253.3942            0     6019.526    24.926317    24.988883    23.019763    14338.568    5854.2064     5982.521    6221.8507   -281.86715    435.69827   -190.68359   -7149.1765 
 7422000    231.58553   -9262.9123   -8380.0027   -9262.9123            0    10206.716    24.871367    24.858434    22.844341    14123.816    9506.3899    10966.137    10147.622   -206.64548    -389.0733     202.4172   -6277.6092 
 7423000    226.39483   -9252.6076   -8389.4873   -9252.6076            0    9056.3736    24.838596    24.923661    22.962382    14215.293     8875.574    9371.7846    8921.7622    478.14298   -1380.0717    395.02111   -6511.9609 
 7424000    228.25036   -9277.8334   -8407.6389   -9277.8334            0    6538.8904    24.839756    25.014978    23.045443    14319.654    6765.1231    5766.0638    7085.4843   -697.51936   -252.93725   -727.88673   -7042.0736 
 7425000    228.81843   -9257.4838   -8385.1236   -9257.4838            0     8573.946     24.87564    24.784043    23.103385    14243.674     7961.004    9899.0293    7861.8047   -401.46648    751.20791   -1026.1212   -6604.0631 
 7426000    224.50188   -9270.6501   -8414.7465   -9270.6501            0    8062.6288    24.928242    24.916046    22.945735      14251.9    7113.8334    8424.0085    8650.0446    79.373472    228.26838   -744.83578   -6738.9344 
 7427000    225.61775   -9237.1085   -8376.9508   -9237.1085            0    7914.8598     24.93415    25.038914    22.879695    14284.344    8213.3821    6761.5584    8769.6389    2.0528764    -684.9118   -157.07168   -6728.1074 
 7428000    225.27448   -9231.6714   -8372.8223   -9231.6714            0    8945.5162    24.957601     25.01281    22.776568    14218.495    9261.5993    7603.3669    9971.5824   -63.319113   -770.40584   -394.11762   -6517.8607 
 7429000    224.36868    -9250.201   -8394.8053    -9250.201            0    8735.2775    24.880922     24.97659    22.878932    14217.897    8852.1702    7584.1324    9769.5298   -325.88717    -1499.682    444.66034   -6583.5155 
 7430000    229.35217   -9285.0435   -8410.6484   -9285.0435            0    8948.4561    24.761107    24.962547    22.980367    14204.172    9469.1412     8661.973    8714.2541    223.52299    613.56135   -50.753505   -6556.9465 
 7431000    230.14669   -9261.9939   -8384.5697   -9261.9939            0     8868.164    24.861583    24.801217     23.02758    14198.748    9590.1541    10413.725    6600.6126    167.84623    76.287172    599.45404   -6548.2019 
 7432000    232.88727   -9238.0523   -8350.1798   -9238.0523            0     9291.771    24.951349    24.803483    22.992914    14229.863    8062.0062    9910.5033    9902.8034    629.22506   -509.99943    581.03144   -6421.8776 
 7433000    224.14182   -9235.5631   -8381.0322   -9235.5631            0    8813.6716    24.888569    24.922251     22.95627    14239.296    9681.2014    8188.3853    8571.4281   -55.300113    185.81853    -589.9405   -6550.7365 
 7434000    233.82243   -9263.9261   -8372.4884   -9263.9261            0    10086.842    24.803617    24.933311    22.891221    14156.762    10660.625    10223.517    9376.3852   -695.69751    754.88336    514.19455   -6289.9403 
 7435000    240.20333   -9256.9443   -8341.1797   -9256.9443            0    8285.0786    24.799825    25.023219     22.97586    14258.163    8483.3674    7409.9634     8961.905    56.459283     859.5961    101.24039   -6618.3747 
 7436000    227.45313    -9215.978   -8348.8229    -9215.978            0    7528.1563    24.759242    25.014218    23.130244    14325.325    8937.1095    6921.2757    6726.0835   -566.06487   -137.33929   -385.02606   -6776.0392 
 7437000     227.7117   -9298.8198    -8430.679   -9298.8198            0    7198.6044    24.877645    24.942664    23.019605    14284.004    7646.4653    7227.0166    6722.3312   -588.67653   -412.17908    661.05286   -6931.0833 
 7438000    229.68866   -9226.8525   -8351.1746   -9226.8525            0    9826.2989    24.960557    24.978698    22.753795    14186.587    9206.2162    9741.4239    10531.257    1229.0491    29.874353   -959.70226   -6318.1446 
 7439000    221.37382   -9278.2134   -8434.2355   -9278.2134            0    8520.4749    24.889965    24.931318    22.900475    14210.652    8170.0469    8623.9244    8767.4533   -238.64713   -399.36137    19.319296   -6668.3859 
 7440000    234.69885   -9228.2834   -8333.5043   -9228.2834            0    9209.4197    24.744696    24.969295    22.987811    14203.193    10120.221    7984.0706    9523.9675   -243.31708   -1722.3463   -381.78224   -6425.8743 
 7441000    226.97018   -9253.7564   -8388.4426   -9253.7564            0    7695.7848    24.899655    24.976076    22.990247    14297.535    8292.9427    7295.6599    7498.7516   -102.78033    361.40443   -109.82108   -6783.7569 
 7442000     229.7343   -9224.1734   -8348.3215   -9224.1734            0    9618.9926    24.885127    24.890422    22.921931    14197.874    8813.2381    11117.693    8926.0469   -314.20214   -1095.2231   -956.12956   -6356.5991 
 7443000    236.61256   -9293.9056   -8391.8306   -9293.9056            0    7833.9165    24.948906    24.854192    22.978848    14248.837    6916.0856     8490.848    8094.8159    1187.0216    901.33397   -227.84518   -6763.9062 
 7444000    231.45193   -9279.6897   -8397.2894   -9279.6897            0    7156.1081    24.961563    24.797873    23.117509    14309.591    7425.8954    7334.0006    6708.4282    52.822112   -647.47188   -138.37862   -6903.8761 
 7445000    228.61474   -9257.6442   -8386.0606   -9257.6442            0    8345.2276    24.878719    24.768618    23.092597    14229.924    8461.4282    8574.4486    7999.8061   -114.27668    182.64141    777.72801   -6654.1851 
 7446000    226.41426   -9230.2538   -8367.0594   -9230.2538            0    8803.8514    24.918037    24.913982    22.941433    14242.214    7448.8617    9383.0108    9579.6816    135.91912     568.0802   -159.67826   -6538.4283 
 7447000    224.94876   -9242.3888   -8384.7815   -9242.3888            0     8365.038    24.919672    25.012475    22.875322    14258.249    7965.0076    8131.2738    8998.8324   -1084.9995    542.40308    23.810289   -6645.3393 
 7448000    239.35714   -9269.5944   -8357.0558   -9269.5944            0    9635.9476    24.889635    24.887946    22.877069    14171.244     10159.21    8920.0507    9828.5827    -374.1086   -217.10198    408.58084   -6365.5651 
 7449000    227.76671   -9225.8975    -8357.547   -9225.8975            0    8172.9158    25.027738    24.959607    22.869918    14286.437    7042.8705    7237.1239    10238.753    724.59994    222.51091   -16.705178   -6654.6952 
 7450000    218.95887   -9226.8877   -8392.1166   -9226.8877            0    7196.8857    24.955982    25.073167    22.888201    14321.731    7548.4014    6155.0108    7887.2448   -154.56574   -650.71647    1518.9888   -6888.9193 
 7451000    235.14866   -9244.4664   -8347.9724   -9244.4664            0    8955.3765    24.804604      24.9848    22.958907    14228.508    9861.9187     7694.668    9309.5427   -478.34454    149.84195   -368.03184   -6489.6584 
 7452000    224.40386   -9265.9404   -8410.4106   -9265.9404            0     8167.444    24.981175    24.936883     22.90707     14270.02    6538.1737     10070.15    7894.0078    372.11037    702.86885   -616.05763   -6710.6543 
 7453000     225.1361   -9283.6257   -8425.3042   -9283.6257            0    8558.0323    24.927155    24.840829    22.995757     14239.23    8324.4674    8732.8767    8616.7529   -91.819688    801.65676    11.331256   -6648.1041 
 7454000    237.34546   -9269.6959   -8364.8268   -9269.6959            0    8180.9208    24.812201    24.859577    23.086255    14240.083    7986.9057    8700.3124    7855.5442      735.269   -373.70457    722.68253   -6665.8377 
 7455000    222.20509   -9258.9956   -8411.8485   -9258.9956            0    8332.7785    24.792913    24.925601    23.018505    14224.935    9782.9547    8113.5482    7101.8325    151.91385   -387.27031    718.53416   -6683.1628 
 7456000    215.01513   -9284.1601   -8464.4243   -9284.1601            0    7729.3793    24.947283    25.021719    22.861268     14270.55    6637.2904    7788.9676      8761.88    123.93558     616.8327    917.03362   -6855.7755 
 7457000    228.88435   -9259.0939   -8386.4824   -9259.0939            0    8205.1221    24.954243    24.937364    22.902397    14252.003    7447.6095    8068.4318    9099.3251   -34.060647   -285.66604    440.32394   -6681.0409 
 7458000    226.83906   -9237.0971   -8372.2832   -9237.0971            0    9467.8578    25.027077    24.831397    22.830275    14188.041    8947.9848    10332.115    9123.4732   -34.410433   -207.14518    70.129665   -6413.2128 
 7459000    232.13556     -9245.08   -8360.0734     -9245.08            0    7854.2158    25.023254    24.927069    22.880504    14271.861    7321.3492    8014.5713    8226.7269    605.39935    -816.2162   -736.89182   -6725.2934 
 7460000    236.60817   -9269.7102    -8367.652   -9269.7102            0    8839.0125    24.733498    24.962926    23.045592    14228.821    9589.8665     8600.922     8326.249    -445.6094   -693.13055     531.0823   -6533.4442 
 7461000    227.11235   -9223.3984   -8357.5426   -9223.3984            0    8891.3215    24.736001    24.931621      23.0738    14229.811    11283.649    7035.2669    8355.0492   -292.39607   -1144.0625    234.20285   -6512.3516 
 7462000    231.13478   -9279.7752    -8398.584   -9279.7752            0    7407.8897    24.924908    24.968327    22.981498    14302.151     6330.461    8013.5032    7879.7048   -314.46157   -376.97253   -196.60485   -6853.4301 
 7463000      224.299   -9249.3333   -8394.2032   -9249.3333            0    9356.6623    24.898512    24.904215    22.884812    14190.366    9400.3122    9448.4569     9221.218    48.438477    228.35318   -209.66361   -6457.8239 
 7464000    228.85103   -9237.9335    -8365.449   -9237.9335            0    8678.4453    24.999155    24.819725    22.923028      14223.1    7613.5675    9106.5397    9315.2287   -592.13255    566.02981     242.8244   -6565.2849 
 7465000    233.10993   -9300.7957   -8412.0744   -9300.7957            0    7233.4474    24.982206    24.899953     22.90889    14250.607    7606.9413     7025.997    7067.4037    650.49246   -593.57161   -554.30241   -6908.7435 
 7466000    223.53879   -9275.9707   -8423.7389   -9275.9707            0     7378.732    24.911191    25.043288    22.894381    14282.846    8286.8726    6836.7932    7012.5303    505.33627    632.70291    708.55188   -6886.7442 
 7467000    237.30902   -9254.5239   -8349.7937   -9254.5239            0    9639.4027    24.898013    24.963613    22.845623    14199.568    9410.3614     8531.684    10976.163   -1043.8983   -1112.5165   -611.91789   -6353.6071 
 7468000    228.14736   -9245.0583   -8375.2565   -9245.0583            0    9240.6907    24.873113    24.869713    22.967753    14207.557    9757.4749     9391.861    8572.7362    884.88175   -102.30145    122.70669   -6460.5609 
 7469000    223.01503   -9267.3658   -8417.1308   -9267.3658            0    8842.6556     24.91961    24.892702    22.935902    14227.517    9393.3004    8994.9072    8139.7592   -227.74655   -703.97373   -951.54783   -6582.3351 
 7470000      228.409   -9264.6106   -8393.8114   -9264.6106            0    8462.3484    24.877953    24.801381    23.074209    14236.962     8754.559    8723.3902     7909.096   -155.81681   -335.67042    669.80349   -6636.7614 
 7471000    218.80367   -9222.4091   -8388.2297   -9222.4091            0    9183.2165    24.832717     24.85923    23.034257    14219.559     8850.532     9590.029    9109.0885   -376.31919   -65.033794   -911.62307   -6483.8355 
 7472000     225.5167   -9271.1273   -8411.3548   -9271.1273            0    8216.3641    24.894358    24.950331    22.941593    14249.539    8257.4805    7499.2117    8892.4001   -515.99218     209.9784     689.0507   -6703.8718 
 7473000    224.88156   -9238.0587   -8380.7076   -9238.0587            0    9101.8106    24.980652    25.012328     22.73453    14205.086    8182.7532    8873.4007    10249.278    561.42952   -610.15561   -11.072992   -6495.1164 
 7474000    234.34927   -9217.6704   -8324.2241   -9217.6704            0    8480.1292    24.990822    24.908662    22.884109    14245.081    7462.7103    9377.5409    8600.1362    -466.0621    355.34186   -240.97733   -6562.4781 
 7475000    229.03724   -9275.3491   -8402.1547   -9275.3491            0    6791.1135    24.897532    24.933338    23.007653    14282.658    6757.4567    6303.0627    7312.8212   -696.54116   -403.81332   -686.73481   -6987.5799 
 7476000    229.91299   -9261.4427   -8384.9095   -9261.4427            0    9759.7089    24.915252    24.792803     22.94528    14173.734    9624.0298    10065.415    9589.6821   -102.74148   -1567.4525  -0.74617163   -6367.4862 
 7477000    230.46604   -9244.5228   -8365.8812   -9244.5228            0    7224.5018     24.99063    24.924029    22.956549    14298.881    6577.2111    7860.5924    7235.7018    -212.9863   -444.21706    37.041887   -6859.3233 
 7478000    228.90409   -9229.6914   -8357.0046   -9229.6914            0    6997.8984    24.969586    25.012855    22.911425    14309.574    6436.0827    7273.1714    7284.4411   -801.40711   -273.23925    298.10599     -6896.61 
 7479000    229.57288   -9269.1619   -8393.9254   -9269.1619            0    9826.9504    24.795803    24.874675     22.97948    14173.457    9203.6445    10982.913    9294.2935   -585.65071     496.1713   -7.8520218   -6362.6424 
 7480000    229.58528   -9253.6454   -8378.3616   -9253.6454            0    7155.4715    24.871247    24.962414    23.050752    14310.975    7074.8957    7486.8822    6904.6367   -18.124301    781.45044    445.01621   -6884.9368 
 7481000    234.12324   -9240.1742   -8347.5896   -9240.1742            0    7726.0002    24.908268    24.937122    22.993665    14282.297    7510.2648    7563.0474    8104.6884    759.31142   -63.272567    14.661987   -6738.3205 
 7482000    229.24891   -9244.3823   -8370.3809   -9244.3823            0    8351.2857    24.974184     24.85298    22.985447    14266.674    7594.0547    8941.1016    8518.7007   -1338.4606   -1138.9084    708.27932   -6632.7723 
 7483000    233.48505   -9241.4793   -8351.3278   -9241.4793            0    7713.3751    24.970268    24.830428    23.014221    14269.333    7937.6796      7385.28    7817.1656    211.34751    198.69308    1125.2822   -6746.1468 
 7484000    227.22553   -9227.4534    -8361.166   -9227.4534            0    7505.5945    24.999142    24.799349    23.037626    14282.463    7737.1826    7820.4631    6959.1379    651.54336   -1102.5757    704.16246   -6797.7877 
 7485000    220.72612   -9245.0468   -8403.5382   -9245.0468            0    9118.0099    24.894493    24.909398    22.910699    14207.081     9044.375    8573.0748    9736.5799    213.25145   -780.07746   -777.50831   -6514.3257 
 7486000    231.81533   -9255.8488   -8372.0631   -9255.8488            0    8023.2884    24.945465    25.014363    22.868397    14269.763    7210.9539    7541.0554    9317.8559    516.02229      522.136    81.233768   -6702.3376 
 7487000    228.85827    -9268.842   -8396.3299    -9268.842            0    8651.3406    24.922239    25.044631     22.81663    14241.417    8531.8333    8141.2634     9280.925    514.20785    59.119231    1373.9484   -6599.4771 
 7488000    231.95125   -9215.3301   -8331.0262   -9215.3301            0    7560.3605    24.953999    25.014717    22.942455    14321.076    7609.3581    7082.8804    7988.8431   -718.35179   -830.56548   -1029.7717   -6751.9829 
 7489000    231.69462   -9251.6419   -8368.3163   -9251.6419            0    9171.8903    24.794099    24.820815    23.065953    14195.012    10517.832    9443.4488    7554.3903   -64.891997    295.10436    576.09927   -6469.5544 
 7490000    227.16811   -9214.2316   -8348.1632   -9214.2316            0    8743.6751     24.88542     24.87126    23.020725    14248.258    8863.2599    8778.4937    8589.2719     -18.2223   -857.73221    933.41245   -6531.2605 
 7491000    227.97821   -9241.3619    -8372.205   -9241.3619            0    7424.5631    24.934839    24.947678    23.001148     14308.24    7082.5013    7282.6148    7908.5731    331.21771    -1053.495   -183.81236   -6822.9139 
 7492000    236.90391   -9243.4334   -8340.2476   -9243.4334            0    9762.2814    24.919971    24.863863    22.887656    14181.346    9356.2275    9511.7847    10418.832    89.918179   -578.44727    -191.1696   -6321.2088 
 7493000    228.92481   -9274.2419   -8401.4761   -9274.2419            0    7741.4678    24.942284    24.872041    22.970589    14250.161    6876.5753    8376.1179    7971.7101    335.25312   -370.92833   -577.92416   -6792.6135 
 7494000    221.83785   -9251.8674   -8406.1204   -9251.8674            0    7814.9561    24.850052    25.079147    22.877124    14257.437    8315.5445    7770.8146    7358.5093   -629.93094   -673.69285   -412.23442   -6781.1558 
 7495000    227.79063   -9234.0409   -8365.5991   -9234.0409            0    9131.1477    24.790887    24.985812    22.923178    14199.085    9480.9615    8694.2331    9218.2485    233.58083   -247.19555    775.62011   -6474.7294 
 7496000     228.7791   -9269.0226   -8396.8123   -9269.0226            0    9200.3787    24.789479    25.038444    22.861754    14190.061    9373.2589    8564.8182    9663.0589   -932.81678   -163.85552    162.65405    -6492.817 
 7497000    228.22838    -9208.174   -8338.0633    -9208.174            0    8698.5813    24.911099    24.945213    22.893979    14226.609    9433.1363    8233.7102    8428.8975   -342.52694   -594.39692   -261.40839   -6533.2774 
 7498000    226.32195   -9287.5869   -8424.7444   -9287.5869            0    7380.1736    24.989948     24.90648    22.944213    14280.745    6883.5042    7598.0662    7658.9504   -372.22723   -366.03511   -841.14017   -6887.6755 
 7499000    225.56918   -9281.6358   -8421.6632   -9281.6358            0    10151.961    24.906366    24.784388    22.894053    14132.248    8369.4341    11475.097    10611.351    1165.4102   -163.99059    675.93284      -6329.3 
 7500000    235.72949   -9252.2619   -8353.5536   -9252.2619            0    8902.7728    24.870373    24.963274    22.931021    14236.631    8597.5798    8225.9941    9884.7447   -947.49795    92.053465   -221.33573   -6505.1006 
Loop time of 563.056 on 64 procs for 250000 steps with 1920 atoms

Performance: 76.724 ns/day, 0.313 hours/ns, 444.005 timesteps/s
192.6% CPU use with 32 MPI tasks x 2 OpenMP threads

MPI task timing breakdown:
Section |  min time  |  avg time  |  max time  |%varavg| %total
---------------------------------------------------------------
Pair    | 73.175     | 75.252     | 77.587     |  13.0 | 13.36
Bond    | 0.83661    | 0.97052    | 1.3939     |   9.9 |  0.17
Kspace  | 260.55     | 268.09     | 275.6      |  24.9 | 47.61
Neigh   | 3.6311     | 3.9424     | 4.3887     |  10.6 |  0.70
Comm    | 83.839     | 90.628     | 97.253     |  40.9 | 16.10
Output  | 0.69631    | 0.69663    | 0.69855    |   0.0 |  0.12
Modify  | 93.298     | 99.169     | 105.08     |  23.4 | 17.61
Other   |            | 24.31      |            |       |  4.32

Nlocal:        60.0000 ave          64 max          55 min
Histogram: 1 0 3 5 4 6 3 6 3 1
Nghost:        3392.62 ave        3423 max        3355 min
Histogram: 1 0 3 5 3 7 4 4 2 3
Neighs:        21335.0 ave       22968 max       19741 min
Histogram: 2 1 5 4 5 2 5 5 2 1

Total # of neighbors = 682720
Ave neighs/atom = 355.58333
Ave special neighs/atom = 2.0000000
Neighbor list builds = 7343
Dangerous builds = 0

unfix		3
unfix		2
unfix		1

write_data	data.final.${pid}
write_data	data.final.0
System init for write_data ...
PPPM initialization ...
  extracting TIP4P info from pair style
  using 12-bit tables for long-range coulomb (../kspace.cpp:340)
  G vector (1/distance) = 0.37453979
  grid = 30 30 30
  stencil order = 5
  estimated absolute RMS force accuracy = 0.0032620593
  estimated relative force accuracy = 9.8235947e-06
  using double precision FFTW3
  3d grid and FFT values/proc = 5400 960
Last active /omp style is kspace_style pppm/tip4p/omp
WARNING: Not all mixed pair coeffs generated from mixing. Use write_data with 'pair ij' option to store all pair coeffs. (../write_data.cpp:312)

write_restart   restart.lmp.${pid}
write_restart   restart.lmp.0
System init for write_restart ...
PPPM initialization ...
  extracting TIP4P info from pair style
  using 12-bit tables for long-range coulomb (../kspace.cpp:340)
  G vector (1/distance) = 0.37453979
  grid = 30 30 30
  stencil order = 5
  estimated absolute RMS force accuracy = 0.0032620593
  estimated relative force accuracy = 9.8235947e-06
  using double precision FFTW3
  3d grid and FFT values/proc = 5400 960
Last active /omp style is kspace_style pppm/tip4p/omp
Total wall time: 0:09:23
