LAMMPS (30 Jul 2021)
Processor partition = 0
  using 2 OpenMP thread(s) per MPI task
using multi-threaded neighbor list subroutines
variable        pid world 0 1
variable        phase world IceIII Liquid

shell cd ${phase}
shell cd IceIII
include Restart.lmp
echo both
log log.lammps
#include		in.partitions
include		in.temp
variable        temperature equal 259.72
variable	tempDamp equal 100.0
include		in.pressure
variable        pressure equal 8750.0
variable        pressureDamp equal 1000.0 # This is 1 ps
include		in.seed
variable        seed equal 745823

units		real
atom_style	full

read_restart	restart.lmp.${pid}
read_restart	restart.lmp.0
Reading restart file ...
  restart file = 30 Jul 2021, LAMMPS = 30 Jul 2021
  restoring atom style full from restart
  orthogonal box = (-0.020212380 0.12701601 0.13288851) to (20.020213 19.872985 20.567109)
  4 by 2 by 4 MPI processor grid
  restoring pair style lj/cut/tip4p/long/omp from restart
  restoring bond style harmonic/omp from restart
  restoring angle style harmonic/omp from restart
  972 atoms
  648 bonds
  324 angles
Finding 1-2 1-3 1-4 neighbors ...
  special bond factors lj:    0        0        0       
  special bond factors coul:  0        0        0       
     2 = max # of 1-2 neighbors
     1 = max # of 1-3 neighbors
     1 = max # of 1-4 neighbors
     2 = max # of special neighbors
  special bonds CPU = 0.003 seconds
  read_restart CPU = 0.009 seconds
include 	in.setup
variable	out_freq equal 1000
variable	out_freq2 equal 10000
variable	out_freq3 equal 1000

timestep	2.0

neigh_modify    delay 7 every 1

include		in.tip4p
# This is TIP4P/Ice

# create groups ###
group ox type 2
324 atoms in group ox
group hy type 1
648 atoms in group hy

# set charges - beside manually ###
set group ox charge -1.1794
Setting atom values ...
  324 settings made for charge
set group hy charge 0.5897
Setting atom values ...
  648 settings made for charge

# ### TIP3P Potential Parameters ###
pair_style lj/cut/tip4p/long/omp 2 1 1 1 0.1577 8.5
pair_coeff 1 1*2 0.000 0.000
pair_coeff 2 2 0.21084 3.1668
bond_style  harmonic
bond_coeff  1 450 0.9572
angle_style harmonic
angle_coeff 1 55 104.52
kspace_style pppm/tip4p/omp 1.0e-5
pair_modify tail yes

thermo          ${out_freq}
thermo          1000
thermo_style    custom step temp pe etotal epair emol press lx ly lz vol pxx pyy pzz pxy pxz pyz enthalpy

restart 	${out_freq3} restart.lmp.${pid} restart2.lmp.${pid}
restart 	1000 restart.lmp.${pid} restart2.lmp.${pid}
restart 	1000 restart.lmp.0 restart2.lmp.${pid}
restart 	1000 restart.lmp.0 restart2.lmp.0


include         in.dump
dump            myDump all atom ${out_freq2} dump.water.${pid}
dump            myDump all atom 10000 dump.water.${pid}
dump            myDump all atom 10000 dump.water.0
dump            myDump2 all dcd ${out_freq2} dump.dcd
dump            myDump2 all dcd 10000 dump.dcd
dump_modify     myDump append yes
dump_modify     myDump2 append yes


variable natoms 	equal  "count(all)"                        # NUMBER ATOMS
variable H      	equal  "enthalpy/v_natoms"                 # ENTHALPY-per-atom
variable Vol      	equal  "vol/v_natoms"                 # volume-per-atom
fix AVG all 		ave/time ${out_freq} 1 ${out_freq} v_Vol v_H file vol_enthalpy.dat
fix AVG all 		ave/time 1000 1 ${out_freq} v_Vol v_H file vol_enthalpy.dat
fix AVG all 		ave/time 1000 1 1000 v_Vol v_H file vol_enthalpy.dat


timer           timeout 02:55:00 every 1000
New timer settings: style=normal  mode=nosync  timeout=02:55:00

fix 		1 all shake 1e-6 200 0 b 1 a 1
Finding SHAKE clusters ...
       0 = # of size 2 clusters
       0 = # of size 3 clusters
       0 = # of size 4 clusters
     324 = # of frozen angles
  find clusters CPU = 0.000 seconds
fix             2 all nph aniso ${pressure} ${pressure} ${pressureDamp}
fix             2 all nph aniso 8750 ${pressure} ${pressureDamp}
fix             2 all nph aniso 8750 8750 ${pressureDamp}
fix             2 all nph aniso 8750 8750 1000
fix             3 all temp/csvr ${temperature} ${temperature} ${tempDamp} ${seed}
fix             3 all temp/csvr 259.72 ${temperature} ${tempDamp} ${seed}
fix             3 all temp/csvr 259.72 259.72 ${tempDamp} ${seed}
fix             3 all temp/csvr 259.72 259.72 100 ${seed}
fix             3 all temp/csvr 259.72 259.72 100 745823


run             250000
PPPM initialization ...
  extracting TIP4P info from pair style
  using 12-bit tables for long-range coulomb (../kspace.cpp:340)
  G vector (1/distance) = 0.37201358
  grid = 24 24 24
  stencil order = 5
  estimated absolute RMS force accuracy = 0.0035300818
  estimated relative force accuracy = 1.0630736e-05
  using double precision FFTW3
  3d grid and FFT values/proc = 3211 432
Last active /omp style is kspace_style pppm/tip4p/omp
Neighbor list info ...
  update every 1 steps, delay 7 steps, check yes
  max neighbors/atom: 2000, page size: 100000
  master list distance cutoff = 10.8154
  ghost atom cutoff = 10.8154
  binsize = 5.4077, bins = 4 4 4
  1 neighbor lists, perpetual/occasional/extra = 1 0 0
  (1) pair lj/cut/tip4p/long/omp, perpetual
      attributes: half, newton on, omp
      pair build: half/bin/newton/omp
      stencil: half/bin/3d
      bin: standard
Setting up Verlet run ...
  Unit style    : real
  Current step  : 27250000
  Time step     : 2
  Walltime left : 2:54:59.93
Per MPI rank memory allocation (min/avg/max) = 10.18 | 10.19 | 10.19 Mbytes
Step Temp PotEng TotEng E_pair E_mol Press Lx Ly Lz Volume Pxx Pyy Pzz Pxy Pxz Pyz Enthalpy 
27250000    272.66469   -4682.4462   -4156.5895   -4682.4462            0    8712.1702    20.040426    19.745969    20.434221    8086.1814    9894.0014    6810.6333     9431.876    111.09219   -1310.9999    929.52901   -3129.1749 
27251000    257.62872    -4699.048   -4202.1893    -4699.048            0    7710.1275    19.638815    19.929414    20.705515    8103.9329    9352.0048    7703.1927     6075.185    768.85974   -1197.3404    -1229.816   -3290.9482 
27252000    266.37496   -4717.7426   -4204.0161   -4717.7426            0    8925.0967    19.987919    19.740566    20.598981    8127.7981    7000.1016    10977.502    8797.6859   -105.96489    790.19424    619.20276   -3146.0744 
27253000    250.05935   -4664.5606   -4182.3001   -4664.5606            0    9424.0338    19.538928    20.212936    20.305996    8019.6315    8909.8259    8809.9606    10552.315   -94.811605   -31.019508   -817.78467   -3080.0831 
27254000    264.66081   -4744.8678   -4234.4472   -4744.8678            0    6770.2852    19.968933    19.728523    20.490074    8072.2197     5196.851    7728.4616     7385.543   -57.315225   -886.85777   -83.571708   -3437.4151 
27255000    250.79835   -4682.6306   -4198.9449   -4682.6306            0    8198.5183     19.80608    19.883894    20.575562    8103.1087    10307.231    7067.0751    7221.2486    136.61088      340.853    844.21221   -3230.0806 
27256000    262.05422   -4687.8817   -4182.4881   -4687.8817            0      8444.13    19.944087    19.874658      20.4613    8110.4888     8961.544    7532.5016    8838.3443    32.839004    1217.3093   -1145.1486   -3183.6898 
27257000    259.31832   -4697.8825   -4197.7653   -4697.8825            0     9755.109    19.847598    20.048123    20.215798    8044.0092     10518.09     8971.403    9775.8341    -499.8773   -1062.4332   -233.79126   -3053.3581 
27258000    258.73393   -4690.7621    -4191.772   -4690.7621            0    10523.287    19.899189    19.541055    20.627693     8021.102    10375.062    11091.697    10103.101     588.2849      63.8238   -1422.0577   -2960.7627 
27259000    259.05291   -4659.1814    -4159.576   -4659.1814            0    10054.077    19.654711    19.885827    20.601047    8051.9227    10949.631    8815.1527    10397.446     712.4675    1265.5882    1.7926629   -2978.9355 
27260000    263.40462   -4688.9223   -4180.9243   -4688.9223            0    8001.5725    19.829225    19.900948    20.525824    8099.9083    7853.8889     8231.703    7919.1257   -431.85152    -560.4717   -554.00793   -3235.7077 
27261000    257.96804   -4697.0598   -4199.5467   -4697.0598            0    8900.0243      19.7893    19.856227    20.497846    8054.4407    7533.1969    10715.142    8451.7343   -856.03084   -201.01568    644.55816   -3154.0986 
27262000    259.71515   -4646.1364   -4145.2539   -4646.1364            0    9127.2292     20.01211    19.816057    20.319087    8057.7599    10298.141    7357.6452    9725.9009    764.19336    421.40795    142.23549   -3072.6752 
27263000    282.26334   -4706.6553   -4162.2867   -4706.6553            0    8044.1849    19.931653    19.816973    20.416002    8064.0152    8605.7765    7584.2479    7942.5303   -794.66954   -1355.4656     632.1458   -3216.2472 
27264000    255.82261   -4713.7282   -4220.3528   -4713.7282            0    7299.6471    19.826776    20.029918    20.482983    8134.3806    6705.8286    7705.9862    7487.1266   -326.83577    139.53313   -57.516954    -3354.384 
27265000    261.01476   -4711.9386   -4208.5497   -4711.9386            0    8026.6999    19.867711    19.707655    20.654764    8087.2901    9509.6239    6294.2705    8276.2052    221.54222    1292.6142    642.11022   -3261.8419 
27266000    254.64735   -4689.1805   -4198.0717   -4689.1805            0    9921.3438    19.857838    19.933343    20.359806    8059.0847     9012.789    11133.678    9617.5644   -220.72364    96.302098     152.0017   -3031.9816 
27267000     256.9831   -4702.7906   -4207.1771   -4702.7906            0    9457.1934     20.06873    19.943411    20.214022    8090.4386     9850.806    8709.7318    9811.0425   -583.97085   -798.37285   -286.37881   -3091.3158 
27268000     253.2446   -4715.9475    -4227.544   -4715.9475            0    7795.4368    19.836941    19.699497    20.695197    8087.2226    7135.4735    8864.6502    7386.1867    228.40498    1059.0986   -1823.8211   -3308.1202 
27269000    249.25877   -4690.3116   -4209.5951   -4690.3116            0     7809.474    19.765039    19.854184     20.63757    8098.5687    8336.9956    8145.6147    6945.8116    -314.4651   -681.22994    -1517.092   -3287.2235 
27270000    263.64023   -4722.5138   -4214.0614   -4722.5138            0    8454.8794    19.951127    19.836741    20.446947    8092.1931    8003.7691    8086.8815    9273.9875     452.8428   -796.77554   -307.64065   -3216.2475 
27271000    253.18701   -4713.5921   -4225.2996   -4713.5921            0    9142.2401    19.836754    19.994439    20.273568    8040.9989     8970.031    8221.4585    10235.231    816.75814    -924.9633   -1498.3029   -3153.1917 
27272000    253.96962   -4692.9578    -4203.156   -4692.9578            0    9053.2677    19.960312    19.844857    20.456342    8102.9518    7760.7459    10358.389    9040.6682    578.33548    1020.7533    1768.4104   -3133.3021 
27273000    250.83382   -4708.2673   -4224.5132   -4708.2673            0    9053.8132    19.667505    19.787505    20.700878    8056.1785    9512.5059    10809.555    6839.3789     3.558925    1358.3122    788.78091   -3160.7707 
27274000    271.12413   -4672.3841   -4149.4984   -4672.3841            0    8509.8074    19.848035    20.010394    20.436179     8116.576    10517.697    5966.9805    9044.7447   -107.50269   -1441.4041    105.59894    -3142.176 
27275000    266.89344    -4693.474   -4178.7476    -4693.474            0    8188.5072    19.777549    19.860616    20.816829    8176.7323    11133.137    6658.8157    6773.5686    82.966523    1264.4102   -824.31232   -3202.2742 
27276000    266.08591   -4675.5693   -4162.4002   -4675.5693            0    8839.2483    19.877221    19.745548    20.548238    8064.9085    8473.5456    9760.7185    8283.4809    528.44538     481.7673    2075.0711   -3122.7418 
27277000    266.65596   -4674.2732   -4160.0048   -4674.2732            0     9795.023    19.870277    20.125312    20.077421    8028.8709    9469.0027    9616.1181    10299.948    604.53857   -744.93428   -28.340478   -3013.0776 
27278000    267.19015    -4731.369   -4216.0703    -4731.369            0    10149.446    19.905388    19.781654    20.437672    8047.5682    10370.989    10619.578    9457.7701   -449.72786    714.25178   -212.55216   -3024.8752 
27279000    271.73408   -4727.6382   -4203.5762   -4727.6382            0    8700.6072    19.834301    19.667691    20.877383    8144.1607    10414.416    9737.6984    5949.7073    -319.3799   -142.58385    1160.6276   -3170.1683 
27280000    267.00505   -4691.1475   -4176.2058   -4691.1475            0    8728.8232    19.967093    19.879933    20.377443    8088.7133    8687.8389     9262.167    8236.4636    257.67065    425.70613    399.93393   -3146.5051 
27281000     254.7569   -4669.2196   -4177.8995   -4669.2196            0    7652.8881    20.020891      19.9738    20.388459    8153.2075    5081.8971    8642.9217    9233.8455    364.27047   -1647.5413   -738.30566   -3267.9239 
27282000    260.52551   -4686.7065   -4184.2611   -4686.7065            0    8883.1341    19.836216    19.832696    20.498852    8064.3641    8350.7953    9111.6391    9186.9679    453.65018   -205.82045   -214.39034   -3139.5115 
27283000    253.14768   -4677.6915   -4189.4749   -4677.6915            0    8281.6741    19.682297    19.745155    20.803411    8084.8297     9428.205    7278.9465    8137.8708   -240.31924    227.94935   -462.17552   -3212.9915 
27284000    250.83041   -4696.5474   -4212.7998   -4696.5474            0    8738.4138    20.066215    19.594211    20.446535    8039.2026      8459.47    10079.637    7676.1344   -250.96151    752.58181     531.0143   -3188.2774 
27285000    240.73789   -4719.6921   -4255.4089   -4719.6921            0    8434.1227     19.65425     19.89405     20.59738    8053.6294    8871.4362    7961.9866    8468.9455    213.48271    206.18965   -442.99992    -3264.788 
27286000    250.38329   -4706.6171   -4223.7318   -4706.6171            0    10167.765    20.066015    19.755276    20.259676    8031.1316    9719.0601     9918.387    10865.848   -652.23631    332.00844    2093.3244    -3032.824 
27287000    263.16482   -4712.9231   -4205.3877   -4712.9231            0    9430.1506    19.734639    19.900196    20.541555    8067.1452    10046.151     9088.868    9155.4328    161.09796    627.05808    485.05291   -3095.9206 
27288000    265.80776   -4694.6449   -4182.0123   -4694.6449            0    10481.318      19.9384    20.010068    20.204812    8061.0881    9647.2648    10107.575    11689.113   -537.04896    775.65852    -166.4233   -2949.8002 
27289000    253.12076   -4706.0263   -4217.8617   -4706.0263            0    9208.5097    19.825448    19.942868    20.405691    8067.9263    6939.4139    10091.693    10594.422    588.84537    819.31651    411.85126    -3134.366 
27290000    258.44983   -4711.9055   -4213.4632   -4711.9055            0    9440.3104    19.863392    19.863796    20.517245    8095.3329    9594.6247    9543.7244     9182.582   -1189.0821   -666.63987    705.10366   -3098.9201 
27291000     264.3716   -4687.6514   -4177.7886   -4687.6514            0    10391.996    19.752107    19.743882     20.62959    8045.1951    9014.2478    12128.087    10033.654    187.61481    10.967039    286.28803   -2958.4861 
27292000    260.26887   -4706.2615   -4204.3111   -4706.2615            0    11134.137    19.878614    19.883322    20.254893    8005.8051    11218.364     9662.883    12521.165    313.84869    88.014733    387.16633   -2904.3287 
27293000     265.6915   -4690.9476   -4178.5392   -4690.9476            0    8635.0379    19.830327    19.951654    20.373754    8060.8319    7363.4825    8866.4851     9675.146    268.87768    1396.9915   -1003.5587   -3163.4131 
27294000    263.49706   -4737.0508   -4228.8746   -4737.0508            0    10659.925    19.882243    19.705963    20.449209    8011.9742    9384.8435    10840.827    11754.105   -441.33479    1314.1059    768.44466   -2983.3004 
27295000     247.2798   -4711.9261   -4235.0262   -4711.9261            0    8408.5194    19.779574    19.744671    20.652775    8065.7591    7508.7513    10086.471    7630.3358   -893.90119    500.59349   -1394.7865   -3245.9251 
27296000    261.16301   -4724.1917   -4220.5168   -4724.1917            0    8235.0431    19.884211    19.895298    20.348604    8049.9544     8776.974    7272.2252      8655.93    1149.0322   -1363.8967    192.83487   -3253.7201 
27297000    266.82605   -4737.2899   -4222.6934   -4737.2899            0    7203.2069     19.94203    19.835411    20.626671     8159.052    6767.9913     8409.646    6431.9834   -931.90604   -962.52237   -168.37394   -3365.5737 
27298000     257.6227   -4725.6343   -4228.7873   -4725.6343            0     8311.276    19.842262     19.92289    20.347315    8043.6028    9155.0532    8172.2409    7606.5339   -554.57626    141.43588   -465.63071   -3253.8106 
27299000    265.58478   -4697.2145   -4185.0119   -4697.2145            0    10321.364    19.971263    19.868046    20.206839    8017.8712    8169.0685    12164.356    10630.667   -102.74358    -1217.742   -1818.5492   -2978.1098 
27300000    249.05839   -4705.4012   -4225.0711   -4705.4012            0    10271.632    19.722247    19.902182    20.479584    8038.5595    10380.561     12007.41    8426.9244   -370.64399   -1140.0515    230.57016   -3020.8851 
27301000    279.44663   -4674.3114   -4135.3751   -4674.3114            0    8069.6033    20.055442    19.706098    20.453565    8083.5455    6720.8859    9003.7758    8484.1481   -170.92688   -709.76446   -260.63484   -3184.0478 
27302000    258.71604   -4716.7362   -4217.7805   -4716.7362            0    9860.4392    19.788628    19.720938    20.500576     8000.356    11091.336    9610.1364    8879.8449    766.18748    987.84807   -373.05072   -3067.2942 
27303000    253.81529   -4719.6437   -4230.1396   -4719.6437            0    8787.2568    19.849599    19.751039    20.472867    8026.3917    8670.1412    9101.9826    8589.6466    47.770175   -472.21269    1254.6116   -3201.5324 
27304000    270.63196   -4706.3275    -4184.391   -4706.3275            0    8274.1824    20.097938     19.91471    20.249876    8104.9036    6179.6505    7629.3133    11013.584   -145.85045   -743.96355    146.92397   -3206.3686 
27305000    261.91947   -4691.7288   -4186.5951   -4691.7288            0    9845.4752    19.784636    19.685662    20.582795    8016.4564    12617.191    7713.9138    9205.3212    354.51027    1343.4531    1635.7181   -3035.5429 
27306000     262.6747   -4667.3374   -4160.7472   -4667.3374            0    8342.0416    19.927826    19.873863    20.580714    8150.8453    9453.1216    6488.4699    9084.5334    296.11601    279.63284    971.32414   -3169.1144 
27307000    253.61913   -4724.3219    -4235.196   -4724.3219            0    7616.6118    19.932963    19.772149    20.500266    8079.5139    6403.9341    7488.8475    8957.0537    240.99658   -15.309741     572.6955   -3337.7198 
27308000    258.24005   -4695.9922   -4197.9546   -4695.9922            0    9584.9075    19.802919    19.724146    20.706923    8088.0345    8895.7138    10459.064    9399.9442    499.02525    422.26035    302.63713   -3067.3602 
27309000    268.46054   -4728.8273   -4211.0785   -4728.8273            0    7925.7741    19.799476    19.973468    20.507693    8110.0582     9628.031    7502.1913    6647.0999    42.549761    401.48202   -328.11624   -3273.6427 
27310000    261.02597   -4697.4139   -4194.0033   -4697.4139            0    9327.5697    19.924119    19.783576    20.460161    8064.7878    9052.6076    8350.0281    10580.073    639.35863    -751.0201    369.07546   -3096.9258 
27311000    260.46448   -4697.9948   -4195.6671   -4697.9948            0    9566.6536    19.608091    19.953122     20.78362     8131.438     10475.82    9038.8495    9185.2918    1186.6868    298.45459   -41.022113   -3061.1703 
27312000    268.04058    -4677.356   -4160.4172    -4677.356            0    9412.6578    20.064006    19.804328    20.370473    8094.2919    9164.9048    9569.7658    9503.3029   -58.635544    1979.9194   -508.57682   -3049.2817 
27313000    265.01523   -4689.2968   -4178.1926   -4689.2968            0    7369.5941    19.855918    20.031916    20.436431    8128.6327    7013.3472    6849.5196    8245.9153   -511.72265   -331.71272   -1772.2878   -3304.5437 
27314000    256.20578   -4687.3631   -4193.2487   -4687.3631            0    9598.8162     20.16548    19.629435    20.329759    8047.2704    8515.1488     11178.81    9102.4902   -835.09366    1672.2745   -544.89818   -3066.7203 
27315000    250.61363   -4693.6942   -4210.3647   -4693.6942            0    9102.2632    19.657506    19.825801    20.639979    8043.9321    10951.478    8163.5752    8191.7363   -597.36614   -393.42304    1061.1639   -3142.5554 
27316000      270.748   -4680.9376   -4158.7773   -4680.9376            0    7838.7416    19.926464    19.874058     20.60532    8160.1126    7949.4241    7357.7475    8209.0533    689.69043    781.70462   -585.56747   -3225.9132 
27317000    260.63051   -4717.5698   -4214.9219   -4717.5698            0    9312.8388    19.802456    19.776934    20.585864    8062.0804    8903.7302    9871.7664    9163.0199   -30.002021     737.4952   -1078.1888   -3119.9446 
27318000    253.99391   -4699.2671   -4209.4184   -4699.2671            0    8100.2574    19.853849     19.76847    20.779718     8155.628     8044.946    8244.4683    8011.3579    594.35618     338.0871    283.12615   -3245.9619 
27319000    253.00561   -4731.1766    -4243.234   -4731.1766            0    7329.6459    19.847179    19.901904     20.49016    8093.5445    8400.5476    6335.1276    7253.2627     389.6284    307.67415    70.612927   -3378.0716 
27320000    259.00503    -4691.965    -4192.452    -4691.965            0    7968.4958     19.90027     19.79237    20.530597    8086.4582    7719.6415    8727.0367    7458.8092   -313.07299    647.36467   -32.291778   -3252.7058 
27321000    264.50394   -4705.1851    -4195.067   -4705.1851            0    8199.2486    19.961941    19.694514    20.646629    8117.0306    6308.0631    11066.905    7222.7779   -558.82293    87.998261    743.99414   -3224.4517 
27322000      286.591   -4690.5369   -4137.8221   -4690.5369            0     8638.856    19.718773    20.063486     20.42706    8081.5033     9855.343     7337.435    8723.7898    16.988005   -1564.9158   -436.29532   -3119.6428 
27323000    252.77117   -4718.2141   -4230.7236   -4718.2141            0    9089.3737    19.900333    19.551009    20.802915    8093.8232      10677.4    7698.9601    8891.7607    892.89082    1468.9747   -922.36347    -3157.813 
27324000      247.944   -4697.6064   -4219.4256   -4697.6064            0    9011.8356    19.937853    19.878192    20.249404    8025.4155    8900.2684    7163.4678     10971.77   -231.18717   -420.77556    668.68335   -3164.6582 
27325000    253.63671   -4706.4004   -4217.2406   -4706.4004            0    8391.1751    19.929046    19.791238    20.589376    8120.8717    7352.0326    8993.7358    8827.7568    562.50107    290.31703   -2831.9227   -3223.4353 
27326000      261.453    -4703.768   -4199.5339    -4703.768            0    6087.6827    19.999637    19.754903    20.673376    8167.8624    7059.5479    5099.3771    6104.1231    719.65314    1402.8945    346.83265   -3474.3698 
27327000    250.08471   -4732.7837   -4250.4743   -4732.7837            0     7458.943     19.99146    19.798768    20.394487    8072.2658    7617.0264    6047.0945     8712.708   -687.35881   -1307.3662   -1387.8936   -3372.3649 
27328000    270.94317   -4678.5511   -4156.0144   -4678.5511            0    9956.7648     19.60312    20.134428    20.363813    8037.5482    11191.446     9134.794    9544.0547    50.972164   -1528.9539    2019.3206   -2988.8884 
27329000    261.77735   -4713.7858   -4208.9262   -4713.7858            0    9468.2986    19.751317    19.861452    20.391588    7999.4128    11039.914    7077.3846    10287.597   -708.76342     588.0325   -178.98623   -3104.3239 
27330000     254.2326    -4659.169     -4168.86    -4659.169            0    9131.0443    19.899774    19.853551    20.372932    8048.9622    10309.854    7983.4505    9099.8286   -297.38181    1097.7175   -798.64978   -3097.0046 
27331000    265.42985   -4709.5993   -4197.6955   -4709.5993            0    8047.8326    19.917607    19.906775    20.446401    8106.9024    6466.5496    9148.3223    8528.6259    461.71575   -1281.7821     -57.7766   -3246.1934 
27332000    266.32841   -4743.5272   -4229.8905   -4743.5272            0    7426.0466    20.064963    19.776088     20.53337    8147.7741    7333.7742     7869.767    7074.5986    -431.6904   -420.24738   -169.43499   -3347.4762 
27333000    269.93987   -4704.8914   -4184.2897   -4704.8914            0    9249.3668     19.58744    19.904759    20.607669    8034.5856    10974.729    8617.9763    8155.3951    669.20205   -31.656803      187.267   -3100.4841 
27334000     256.4011   -4652.4172   -4157.9261   -4652.4172            0    10375.594     20.07283    19.474757    20.571134    8041.5337    10891.231     11198.18    9037.3711    287.60842    1139.0547    1349.3186   -2941.1022 
27335000    262.41025   -4722.5466   -4216.4664   -4722.5466            0    9117.5389    19.706998    19.875717    20.600285    8068.9402     8687.892    9741.6884    8923.0364    576.84683     124.4766    294.87042   -3143.5398 
27336000     253.8691   -4696.6193   -4207.0114   -4696.6193            0    9825.9695    20.069962    19.708049    20.269959    8017.5758    9739.2021    9668.4653    10070.241   -455.43328   -383.95403    -697.7029   -3058.0793 
27337000    261.06414   -4720.3481    -4216.864   -4720.3481            0    7568.2924     19.83599    19.741672    20.743307    8122.9876    8902.0097    7110.5127    6692.3547    623.29905    1149.5381   -102.04483   -3320.2829 
27338000    271.33918     -4718.59   -4195.2896     -4718.59            0     7831.548    19.730129    19.830875    20.628381    8071.1784    8700.2597    7078.4475    7715.9367   -1011.8283    1352.4348    238.71024   -3273.4392 
27339000    244.96177   -4728.2413   -4255.8119   -4728.2413            0    6801.3414    19.906565    20.008849     20.45515    8147.4388    7567.0703    4188.2326    8648.7212   -82.799758    1361.9737   -1897.1563   -3447.6626 
27340000    249.84485     -4684.66   -4202.8132     -4684.66            0    9425.5794    19.843218    19.954465    20.249217    8017.8961    7868.6834    8891.4094    11516.645   -527.77315   -1138.2784   -927.78717   -3100.6539 
27341000    250.60974   -4700.3061   -4216.9841   -4700.3061            0     8562.132    19.836672    19.808777    20.532875    8068.1924    10094.985    6742.0103    8849.4002   -291.65732   -159.49174     -194.342   -3209.5096 
27342000    259.24262   -4711.1084   -4211.1372   -4711.1084            0    9161.0196    19.694145    19.847786    20.684865    8085.4073    8049.8116    10820.129    8613.1179   -22.473663    738.21452   -717.32568   -3130.8939 
27343000    265.73443   -4688.4583   -4175.9671   -4688.4583            0    9825.5835    19.850969    19.773423    20.380238    7999.6838    8831.4632    9948.9134    10696.374   -980.35358   -713.54184    916.17585    -3029.644 
27344000    259.91515   -4707.2326   -4205.9644   -4707.2326            0     9001.861    19.730902    19.992381    20.484823    8080.6012    8602.8488    8826.1821     9576.552   -13.741311    1023.9796    944.74491   -3145.1196 
27345000    254.76487   -4746.1822   -4254.8468   -4746.1822            0    8412.3458    20.101759    19.672968    20.501573     8107.578    7091.9263    8914.1904    9230.9207   -763.25615   -292.68863    1002.8378    -3260.165 
27346000    256.16574   -4678.4388   -4184.4016   -4678.4388            0    7660.3603    19.867546    20.004235    20.344138    8085.4736    9211.7973    6154.2825     7615.001   -623.50959    321.73525    661.76905   -3281.1047 
27347000    275.43131   -4730.5366   -4199.3442   -4730.5366            0    11084.454    19.964066    19.803427    20.274668    8015.7304    9198.3368    11761.571    12293.455   -629.87805    373.31393    261.70715   -2903.5581 
27348000    267.55513   -4709.1911   -4193.1885   -4709.1911            0    10558.916    19.797287    19.837458    20.409016    8015.1889    10523.734    10772.593    10380.422   -241.29783     321.6001      -345.11   -2958.9219 
27349000    255.12243   -4702.9095   -4210.8844   -4702.9095            0    7664.4527    19.766504    19.835625     20.67158    8104.9328    7871.2191    7882.0331    7240.1058    1286.0445    163.06214    1749.7959   -3304.9298 
27350000    258.23965   -4706.0543   -4208.0174   -4706.0543            0    8504.8878     19.97565     19.74112    20.498461    8083.3977    10505.745    6010.0217    8998.8962    458.45785   -140.24379   -374.78822   -3205.3927 
27351000     255.7454   -4739.1591   -4245.9325   -4739.1591            0    8412.9928    20.073273    19.922727    20.220432    8086.4408    6882.1291    8821.5845     9535.265    243.29285    613.44544    248.14519   -3253.7677 
27352000    255.76363   -4687.2167    -4193.955   -4687.2167            0    9105.6188    19.876048    19.835614    20.437199    8057.4393     10595.25     8995.402    7726.2046   -175.35359   -414.92366    189.55903   -3123.9585 
27353000    257.89659   -4681.9753      -4184.6   -4681.9753            0     8294.935    19.755738    19.792545    20.725953    8104.1859    11303.243    5932.8632    7648.6985    169.42326    1160.4878    448.07796   -3204.2114 
27354000    261.24927   -4685.2299   -4181.3888   -4685.2299            0    9545.5207    19.714423    19.886444    20.518408    8044.2372    11817.526    7083.9605    9735.0754    80.186381   -1460.3483    1937.9243   -3061.5374 
27355000    288.42947   -4717.5355   -4161.2751   -4717.5355            0     9348.044     20.12437    19.889985      20.2492    8105.2168    8055.7425    9143.5928    10844.797   -35.642391    1671.5025   -829.80977   -3056.2776 
27356000    255.04441   -4726.4057   -4234.5311   -4726.4057            0    7177.8742    19.871006     19.81241    20.574891    8100.1804    6696.3838    7852.1216     6985.117   -38.457079   -1005.9061    -971.0345   -3386.5886 
27357000     261.4849   -4702.0212   -4197.7255   -4702.0212            0    8944.2517    19.800836    19.828741    20.543818    8066.0297    8790.8432    8922.3184    9119.5936    226.22554    91.423051   -381.36746   -3145.5706 
27358000    252.01215   -4669.1318   -4183.1052   -4669.1318            0    9414.1235    20.063348    19.853618    20.318204     8093.351    6798.8314    10154.597    11288.942    533.90038   -379.23906   -949.88061   -3071.9259 
27359000    251.65321   -4678.2947   -4192.9603   -4678.2947            0    9628.3654     19.78814    19.910518    20.323128    8007.1522    10274.778    9233.0311    9377.2872    185.11974   -564.12745   -1495.6689   -3068.5974 
27360000    275.50706   -4708.4656   -4177.1271   -4708.4656            0    8324.9727    19.950928    19.908888     20.34627    8081.5546    7324.2578    8604.8937    9045.7667     -883.045   -190.42091    526.71841    -3195.936 
27361000    268.24006   -4686.8603   -4169.5368   -4686.8603            0    8699.4551    19.686711    20.018261    20.478989    8070.6411    10641.221    6900.5663    8556.5776   -715.98616    313.54348   -325.98913   -3145.5933 
27362000    259.78983   -4684.5749   -4183.5484   -4684.5749            0    8410.9685    20.010582    19.693578    20.523401    8087.8608    7194.3384    7306.4777     10732.09    1390.3083    691.36206   -281.79133   -3191.4481 
27363000    254.39302   -4708.7621   -4218.1437   -4708.7621            0    9499.3822    19.857949    19.767597     20.40907    8011.4566    9541.4195    9631.8278    9324.8994   -569.60691    -248.0316    517.45397   -3108.2466 
27364000    267.78795   -4695.3977   -4178.9461   -4695.3977            0    7841.1764    20.142039    19.954174    20.097374    8077.4914    6827.0614    6721.2839     9975.184   -45.684323   -727.78984   -172.00101   -3255.2404 
27365000    265.46048   -4716.4697   -4204.5068   -4716.4697            0    9381.9276     19.95679    19.835711    20.455055    8097.2795    7977.1008    11462.906    8705.7758    447.06528   -15.138909   -965.24623   -3096.5902 
27366000    244.83397    -4708.045   -4235.8621    -4708.045            0    9379.8772    19.902152    19.728927    20.602435    8089.5072    9686.3434    10258.965    8194.3233   -292.02292   -467.67735    652.53383   -3129.2508 
27367000    256.87978   -4731.6955   -4236.2812   -4731.6955            0    7479.8256    19.723898    20.039291    20.496781    8101.4133     6851.787    8104.4737     7483.216     538.1992   -705.46002   -259.29675   -3352.5338 
27368000    257.32153   -4713.7958   -4217.5296   -4713.7958            0    9182.7683    19.943438    19.624092    20.590558    8058.5651    8430.9383    9164.2573    9953.1091    79.137389   -940.98701   -459.38081   -3138.3165 
27369000    253.03243   -4707.3707   -4219.3763   -4707.3707            0    9748.7568    19.838354    19.991504    20.263913    8036.6381    8864.3679    10388.149    9993.7532   -496.06468   -473.40724   -315.25759   -3076.7623 
27370000     264.2187   -4709.2522   -4199.6842   -4709.2522            0    9666.6787    19.843536    19.961803    20.401626    8081.3445    8524.8306    10329.004    10146.202    654.88984    490.12257   -483.34253   -3060.3876 
27371000    250.82082   -4727.4526   -4243.7235   -4727.4526            0    7297.7164    20.136848    19.620933    20.610833    8143.4174    6233.2018    8103.1529    7556.7943     32.73217     1647.715    19.656007    -3377.022 
27372000    263.68174   -4672.2532   -4163.7207   -4672.2532            0    6676.7548    19.950144    19.777152    20.578749    8119.4904    6403.6446    7198.2501    6428.3698   -242.53712   -283.45032    623.16835   -3373.0966 
27373000    263.00676    -4706.529   -4199.2983    -4706.529            0    7660.5412    19.817867    19.887367    20.632005    8131.5929    8173.4075    7986.5905    6821.6256   -31.336662    291.46447    975.66945   -3290.8276 
27374000    263.36455   -4711.5151   -4203.5945   -4711.5151            0    8794.2675    19.811097    20.027398    20.482205    8126.6162    9443.7391    8529.1784     8409.885    335.43181    507.74504    1208.7941   -3161.3123 
27375000    271.74007   -4696.6353   -4172.5617   -4696.6353            0    11221.694    19.920933    19.818261    20.360714    8038.3742    9598.9222    12239.659    11826.502   -379.20623    -1213.486   -600.63272   -2857.0263 
27376000    251.57885   -4730.8141   -4245.6232   -4730.8141            0    7877.6861     19.80387    19.932857    20.589481    8127.6505    7779.2064    9039.2733    6814.5785    489.75528    20.263453    639.67414   -3311.8539 
27377000    258.80626   -4708.5531   -4209.4234   -4708.5531            0    8916.0038    19.786806    19.821135    20.559732    8063.4645    9288.1342    7835.8574    9624.0198   -66.476451   -333.30033    -781.6084   -3160.9249 
27378000    255.34157   -4716.7932   -4224.3456   -4716.7932            0    8326.8257    19.888481    19.918539    20.463662    8106.6693    8145.2569    8361.4629    8473.7572   -350.79415    663.59298   -308.20976   -3239.8861 
27379000    266.47301   -4667.7908   -4153.8752   -4667.7908            0    10031.355    19.941834     19.98205    20.311341    8093.6373    8437.0163    11792.321     9864.729    1010.7225      187.563    967.52732   -2969.8001 
27380000    254.90816   -4734.2464   -4242.6346   -4734.2464            0    9058.9104    19.685532    19.722081     20.70023    8036.6499    10001.549    9288.6984    7886.4843    593.06561   -360.12011    325.73361   -3180.8732 
27381000    248.72989   -4723.5694   -4243.8729   -4723.5694            0     10173.29    19.830377    19.864253     20.41914    8043.4185    10223.944    10542.519    9753.4056   -687.72343    916.93827    505.28778   -3050.4951 
27382000    273.75264   -4696.0605   -4168.1055   -4696.0605            0    9748.2479    20.041408    19.862884    20.328417    8092.3394    9354.9709    9657.5459    10232.227   -245.65236    -414.8794    50.226273   -3017.6322 
27383000    271.83363   -4696.2455   -4171.9915   -4696.2455            0    8217.7723    20.008646    19.928567    20.511668    8178.8973    8622.6674    6565.9239    9464.7257    923.67661   -9.4923011    1686.1261   -3191.7688 
27384000    239.68375     -4681.28   -4219.0297     -4681.28            0     8426.221    19.803235      19.9794    20.434288    8084.9641    7670.6609    8312.3376    9295.6644    561.82521   -257.34379    723.95457   -3225.4863 
27385000    265.89797   -4717.1864   -4204.3798   -4717.1864            0    8229.0113    20.037358    19.778105    20.316183    8051.3229    7789.7348    9177.4903    7719.8088   -184.41629     -1083.22   -133.81333   -3238.1269 
27386000    260.93293    -4693.592   -4190.3609    -4693.592            0    10873.084    19.672682    20.012251    20.335953    8006.1559    11490.947     9677.152    11451.154   -210.34753   -214.79019   -440.39751   -2920.8025 
27387000    260.75402   -4718.2302   -4215.3442   -4718.2302            0    9546.7134    19.996251    19.418685    20.627292     8009.596    9089.6969    12183.701    7366.7419   -327.02245   -1715.4716   -208.17525    -3100.176 
27388000    253.36411    -4697.717    -4209.083    -4697.717            0    8140.9406    19.613657    19.857213    20.776944    8092.0496    9188.2471    9512.6519    5721.9228   -573.74209   -69.510699   -2359.2628   -3248.3361 
27389000     245.4011   -4719.0221   -4245.7454   -4719.0221            0    8843.3829    20.197222    19.856315     20.09868    8060.4225    7245.8988    10199.983    9084.2668    -212.5278    842.81833   -457.07488   -3206.1793 
27390000    274.80976   -4720.9312   -4190.9375   -4720.9312            0     8438.427    19.773742     19.90262    20.558413    8090.7484    10636.779    7954.6878    6723.8148   -41.915343    142.91199    480.73755    -3195.243 
27391000    245.63803   -4689.7739   -4216.0403   -4689.7739            0    8042.0948    19.918714     19.58698    20.872545    8143.3701    8114.4434    8650.6841    7361.1571    62.062647    268.50333   -882.13653   -3260.9394 
27392000    262.20484   -4713.9583   -4208.2742   -4713.9583            0    8774.7367    19.778028    19.749055    20.538779    8022.3931    8719.2544    8905.0994    8699.8563   -424.86196   -247.22269   -1005.6666   -3181.6443 
27393000    263.40259   -4710.3118   -4202.3178   -4710.3118            0    11039.211    19.446663    19.844416    20.622391    7958.3386    10301.808    11061.954    11753.871    125.22713    313.01238    155.93012   -2921.0605 
27394000    259.05381   -4686.2485   -4186.6415   -4686.2485            0    11005.139    19.931565    19.663312    20.427679    8006.0282    10644.232    11354.004     11017.18   -766.36445   -165.66057    547.41074   -2901.6847 
27395000    260.65429   -4709.3219   -4206.6281   -4709.3219            0    9062.8609      19.6873    19.743072    20.815676    8090.7989    9235.7545    9448.1371    8504.6912    617.81633     453.1593    721.91321   -3137.2468 
27396000    254.44132   -4709.2604   -4218.5489   -4709.2604            0    8587.0024    19.723683    19.658874    20.700682    8026.5941    9801.3648    8591.8713    7367.7711   -766.57435    1852.6697   -1044.4782   -3213.3575 
27397000    252.98285   -4717.0118   -4229.1131   -4717.0118            0    10277.554    19.709176    19.709378    20.643417    8019.0512    11101.983     11186.62    8544.0597   -137.06287   -22.423219   -284.57385   -3027.1569 
27398000    262.65839   -4740.4158    -4233.857   -4740.4158            0    8124.8573    19.902085    20.043098    20.471063    8165.8951    7485.7612    8077.8624    8810.9484    -2.465818    902.81705    -835.6088   -3266.2579 
27399000    265.95319   -4686.7514   -4173.8383   -4686.7514            0    8065.8155    20.055211    19.816492    20.455254    8129.4073    4918.5117    10822.244     8456.691    905.89831    1579.4975    1651.4819   -3217.5627 
27400000    262.22923   -4713.9028   -4208.1717   -4713.9028            0    8824.2833    19.690918    20.015207     20.34294    8017.5148    9104.7477    8673.4486    8694.6535    -727.9897    1646.7579   -839.09726   -3176.3727 
27401000    264.76552   -4676.7829   -4166.1603   -4676.7829            0    7372.6565    20.030338    19.634606    20.549734    8081.9594     8607.098    6854.5741    6656.2974    213.49085    457.99519    488.56824   -3297.1667 
27402000    265.06826   -4698.9718   -4187.7653   -4698.9718            0     8038.034     19.67282    19.786375    20.889902    8131.4737    9197.9991    8328.7225    6587.3805    492.52529    892.59539   -2210.3349   -3234.5413 
27403000    251.93434   -4684.2373   -4198.3608   -4684.2373            0    9859.2889    20.057299    19.590287    20.450077     8035.413    8087.7188    10770.822    10719.326   -61.652226    677.07827    1570.1722   -3042.9679 
27404000    263.18816   -4708.8511   -4201.2706   -4708.8511            0    7862.0745    19.747879    19.857608    20.632888    8091.0967     8776.874    8709.8627    6099.4867    794.53082     725.0148   -856.38807   -3273.5431 
27405000    261.16247   -4711.0802   -4207.4064   -4711.0802            0    11022.664    19.803802    19.878327    20.426183    8041.1033    11406.883    11445.962    10215.148    495.06724    1328.4236     192.8939   -2914.7649 
27406000    245.15478   -4688.2192   -4215.4176   -4688.2192            0    9681.4242    19.920305    19.969978    20.272703    8064.6447    8364.8272    9485.8177    11193.628   -595.82153   -607.70946   -759.61659   -3076.7411 
27407000    255.59898   -4696.7296   -4203.7855   -4696.7296            0    7991.7522    19.937071    19.682554    20.587973    8078.9774     8286.357    8244.8683    7444.0315     6.994639   -1202.4247   -999.37675   -3262.1685 
27408000    243.30683   -4706.2283   -4236.9906   -4706.2283            0     7497.783    19.718905    19.865779    20.682189    8101.8627     8864.104    7269.0608    6360.1841   -698.77536   -612.38936   -741.11656   -3351.0724 
27409000    256.15485   -4727.9928   -4233.9767   -4727.9928            0    10303.586     20.09292    19.757024    20.356616    8081.0942    9612.3282    10393.599    10904.832   -476.74396    -736.1167   -147.91194    -3019.653 
27410000    264.10906    -4706.937   -4197.5805    -4706.937            0    8282.2732    19.752106    19.996375    20.452929    8078.3041    8149.8235    10471.362    6225.6344   -677.08481    -171.1376   -241.53687   -3221.8146 
27411000    250.99652   -4704.2931   -4220.2252   -4704.2931            0     9244.135    20.007312    19.642489    20.509388    8060.0543    8536.0334    11010.747    8185.6245    185.14213    1478.2607   -654.78524   -3133.5991 
27412000    254.58772   -4701.1383   -4210.1445   -4701.1383            0    7327.6014    19.803182    19.982511    20.481925    8105.0524    6601.1719    6797.6744    8583.9579   -127.37198    539.07897    -347.1103   -3343.9936 
27413000    263.62555    -4702.597   -4194.1729    -4702.597            0    8729.2459    19.875635     19.46549    20.831152     8059.343    7158.5866    10663.751    8365.4007    711.45809   -911.02041    -1161.102   -3168.1614 
27414000    250.34685   -4690.4171   -4207.6021   -4690.4171            0    8363.2808    19.911368    19.694204    20.553974    8060.0056    8369.8038    7095.7715    9624.2671   -466.23193   -233.01481   -360.05769   -3224.5243 
27415000    259.65516   -4709.5228    -4208.756   -4709.5228            0    9334.1683    19.896547    19.745235    20.527917    8064.6385    9664.3349    9699.5361    8638.6339     215.8962   -646.83109    1041.7305   -3110.9226 
27416000    268.63607   -4707.7157   -4189.6284   -4707.7157            0    9680.9311    19.769156    19.923821     20.48372    8068.0688    9583.6012    8479.7521     10979.44   -264.72515    1686.7195    407.28429   -3050.5264 
27417000    261.85524   -4704.6795   -4199.6696   -4704.6795            0    8827.1668    19.848735    19.785146    20.494788    8048.5107    7819.8055    9214.7866    9446.9085   -742.88073    1509.0947   -1008.1111   -3163.5432 
27418000    272.38928   -4685.5576    -4160.232   -4685.5576            0     10260.08    19.970719     19.62646     20.46778    8022.4393    8652.9663    12044.063    10083.212    188.84289   -481.43624   -478.45833   -2959.8123 
27419000    276.79513   -4700.2298   -4166.4071   -4700.2298            0    8854.4952    19.884441    20.153221    20.207821    8097.9916    8079.0196    8817.2975    9667.1684  -0.54910096   -319.33988     169.1298   -3120.6833 
27420000    258.43999   -4679.1189   -4180.6956   -4679.1189            0    9897.9609    20.036542    19.745957     20.29594    8029.9002    9780.1943    9510.5118    10403.177   -564.03646    727.51753     1086.656   -3021.5666 
27421000    259.71093   -4687.4711   -4186.5967   -4687.4711            0    9957.9173    19.688942    19.892309    20.527352    8039.7122    11064.702    10741.059    8067.9911    325.38994   -165.47683   -1031.1267   -3019.0214 
27422000    264.73766   -4723.9131   -4213.3442   -4723.9131            0    9203.3908    19.971112      19.8914    20.300601     8064.482    8995.1372    8577.4231    10037.612    197.69062    465.39566   -809.07415   -3130.9132 
27423000    247.63177   -4718.4993   -4240.9206   -4718.4993            0    9103.4185    19.750923    20.050396    20.520776    8126.5112    10104.428    7615.0082    9590.8194   -84.871478    872.70235   -403.53425   -3162.0123 
27424000    250.23737   -4681.8934   -4199.2895   -4681.8934            0     10110.76    19.898134     19.86483    20.423318    8072.7872     9901.654    11635.813    8794.8134   -257.59931    691.73887    895.50685   -3008.9162 
27425000    257.05679   -4706.9618   -4211.2062   -4706.9618            0    9206.8892    19.887869     19.98912    20.304924    8072.0403     9961.558     8482.746    9176.3635   -352.69089    1155.7709    1593.7851   -3127.3488 
27426000    257.36551   -4731.1145   -4234.7635   -4731.1145            0    9787.7262    19.831532    19.676279    20.704058    8078.9459    9964.8744    9159.9533    10238.351    96.003847   -755.99664   -1096.6231   -3081.5429 
27427000    258.87605   -4684.3873   -4185.1231   -4684.3873            0    9091.9419    19.924602    19.834938    20.316704    8029.2273    9634.1772    7595.4353    10046.213    424.87719    1525.9661   -494.69838   -3120.4745 
27428000    260.07778   -4704.7688   -4203.1869   -4704.7688            0    10931.516    19.901693     19.93519    20.263384    8039.3769    10487.225    10574.335    11732.989    137.49289    790.64095   -141.11463   -2921.5096 
27429000    266.56087   -4698.3452   -4184.2602   -4698.3452            0    7663.4549    19.978528    19.803332    20.590622    8146.5027    7668.9718    7195.5167     8125.876   -1126.0829    935.46975   -23.620501   -3273.7775 
27430000    266.80991   -4698.9092   -4184.3438   -4698.9092            0    8298.1266    19.672274    19.787359    20.759947    8081.0653    6689.1013    10436.635    7768.6433    149.75707   -1452.1121    469.70522    -3206.376 
27431000    268.36446   -4735.3976   -4217.8342   -4735.3976            0    8787.0585    19.806991    19.948976    20.456571     8082.988    8578.2276     8641.809    9141.1388   -319.61998      704.577   -150.58247   -3181.9974 
27432000    266.81778   -4713.9644   -4199.3838   -4713.9644            0    7824.6638    19.971988    19.879979    20.263773    8045.5832    6986.9479    8491.9202    7995.1232    218.17457    403.36093    649.59099   -3281.2646 
27433000    238.68884   -4692.6852   -4232.3537   -4692.6852            0    8149.7107    20.060393     19.67013    20.617737    8135.5641    8150.1191    8467.5893    7831.4238   -437.71633    1326.0775   -894.00199   -3265.3998 
27434000     266.2757    -4745.053   -4231.5179    -4745.053            0    8879.5352    19.653859    19.921793     20.62117     8074.015    9218.4364    9010.2975    8409.8716    7.0213918    1030.6279    210.37037   -3185.9418 
27435000    268.33961   -4706.9743   -4189.4588   -4706.9743            0    8185.6834    20.171574    19.889931     20.35033    8164.7805    8738.2365    5834.4276    9984.3862    366.95138     1287.721   -681.94081   -3214.7489 
27436000    267.19176   -4696.1174   -4180.8156   -4696.1174            0    7451.9501    19.922696    19.953145    20.519684    8156.9936    8477.4837    6511.7105    7366.6562   -73.095367   -167.20571    2461.6398   -3294.3213 
27437000    255.04117   -4694.9634    -4203.095   -4694.9634            0    9968.6273    19.658216    19.804092    20.644624     8037.223    11670.155    10041.598    8194.1292    154.74944    39.490517   -773.15534   -3034.6259 
27438000    263.49452   -4691.9247   -4183.7533   -4691.9247            0    9691.1108    19.849977    19.940483    20.300907    8035.4666    7673.5806     11078.41    10321.342   -30.310267   -308.01474   -1230.7421   -3048.0614 
27439000    256.52764   -4724.0255   -4229.2904   -4724.0255            0    9579.6583     20.00709    19.788814    20.338394    8052.3076    9342.1868    8654.9189    10741.869    270.49682     852.5671    251.28823   -3104.3066 
27440000    274.57298    -4690.961   -4161.4239    -4690.961            0    7029.1628    19.804832    20.079406    20.391077    8108.9046    7553.9223    7286.2268    6247.3393   -373.81242   -784.50409    138.97273   -3330.1547 
27441000     255.6387   -4697.0195   -4203.9988   -4697.0195            0    6205.9357    20.106126    19.858799     20.43986     8161.299    6285.0214    5344.2703    6988.5153   -92.965416    499.85936   -1581.4623   -3465.3424 
27442000    254.10022   -4687.7071   -4197.6535   -4687.7071            0    7910.1823    20.015579    19.702165    20.658305    8146.6074    7963.0772    9568.9247    6198.5451    172.23871   -288.22523    320.04864   -3257.8454 
27443000    258.74468   -4706.3404   -4207.3296   -4706.3404            0    9006.3632    19.994578    19.795285    20.444257    8091.8035    7440.1526    9681.9465    9896.9906    535.72375   -441.43612    89.292198   -3144.4828 
27444000    261.64649   -4674.3471   -4169.7398   -4674.3471            0    9917.5053    19.863465    19.910498    20.305422    8030.6212    8933.5504    9607.3727    11211.593   -103.05784   -470.70903   -26.589423   -3008.2177 
27445000    254.53154   -4702.5314   -4211.6459   -4702.5314            0    7118.7099    19.924189    20.061789     20.49526    8192.2607    6613.6611    6528.3341    8214.1347   -310.87563    1401.1371    1171.7157   -3361.1329 
27446000    273.37044   -4737.1559    -4209.938   -4737.1559            0    8390.2282    19.922696    19.753573    20.594825    8104.9787    8255.6132    8840.6882    8074.3832    511.76082    32.438371   -153.72813   -3218.1896 
27447000     265.6527   -4720.2334   -4207.8998   -4720.2334            0    8351.9184     19.82598    19.814544    20.650466    8112.3857    8681.1809    7561.3936    8813.1805   -344.37037    114.87868    919.63184   -3219.7775 
27448000    254.90134   -4688.2059   -4196.6072   -4688.2059            0    9344.2247       19.878    20.092912     20.21056     8072.237    9493.7006    7846.1036     10692.87   -735.61977     1319.649    1019.8523   -3096.5556 
27449000    266.65514   -4690.2528    -4175.986   -4690.2528            0    10390.752    19.923397    19.836988    20.431978    8075.1299    10179.315    11843.015    9149.9245   -455.35433   -258.44817    136.88084   -2952.2933 
27450000    251.01849   -4701.2676   -4217.1574   -4701.2676            0    8261.4586     19.90951     19.74748    20.598223    8098.4519    7496.9212    8585.1898    8702.2648   -515.76859    1063.3004   -402.39242   -3241.4162 
27451000    258.55021   -4719.1976   -4220.5618   -4719.1976            0      6535.89    19.870447    19.996395    20.515339    8151.5099    6768.4058    6373.5007    6465.7635    357.00931    1121.1178    882.09278    -3443.566 
27452000    255.05255   -4682.3838   -4190.4936   -4682.3838            0    7510.4262    19.773851    19.857866    20.645916    8106.9593     9436.114    5984.9907     7110.174   -295.45992   -1209.0515   -274.61084   -3302.5232 
27453000     252.1525   -4710.1989   -4223.9016   -4710.1989            0    8956.9767    19.958791    19.855394    20.297279    8043.6015    8277.6495    9658.7064    8934.5741   -701.15301   -1225.2141    189.55982   -3173.1794 
27454000    254.16394   -4715.9024   -4225.7259   -4715.9024            0    9876.9171    19.742065    19.928944    20.482174    8058.4759    9730.2015    9295.3933    10605.156    357.26294    2832.8462    2125.9113   -3064.9451 
27455000    249.08397   -4727.9944    -4247.615   -4727.9944            0    8225.5094    19.911773    19.883977    20.534685    8130.2003    9038.1066    6860.3363    8778.0853   -786.01099   -404.12496   -87.747368   -3272.3112 
27456000    254.40702   -4726.9527   -4236.3074   -4726.9527            0    8408.8587    19.662275    19.944318    20.712886    8122.5721    9553.8326    8295.5721    7377.1714    34.285979    1270.9069   -2076.4387   -3240.1992 
27457000    269.83644   -4736.0036   -4215.6013   -4736.0036            0    5582.3332     20.03078    20.096274    20.355977    8194.1773    4516.5878    5289.7822    6940.6295    372.44954   -470.78863    1229.0834    -3548.492 
27458000    254.05579   -4692.2015   -4202.2335   -4692.2015            0     6263.799    19.694779    20.178056    20.651551     8206.975    7540.1067    5019.2519    6232.0385    317.36247   -596.52513    659.66222   -3452.5175 
27459000    266.41288   -4714.2268   -4200.4272   -4714.2268            0    9538.3496    19.990504    19.849381    20.354873     8076.796     8772.973    10248.412    9593.6636    289.88101    632.67686   -679.93794    -3076.888 
27460000    274.11966   -4710.8431   -4182.1802   -4710.8431            0    8372.0304    19.929882    19.757311    20.600897    8111.8273    9121.7736     8750.108    7244.2095    616.69937   -505.95508   -382.79368   -3191.7466 
27461000    268.26765   -4731.0177    -4213.641   -4731.0177            0    7385.7581    19.955931    19.928697    20.586321    8187.0912    7209.9709    6629.6634    8317.6399   -263.61796    11.995809    669.02953    -3331.779 
27462000    255.13834   -4685.2036   -4193.1478   -4685.2036            0    10182.016    19.825621    19.646162    20.524914    7994.3996    10510.537    10542.127    9493.3845     360.8132   -469.77257   -635.02242   -3006.0253 
27463000     260.2323   -4676.4183   -4174.5384   -4676.4183            0    7941.9194    19.746864    19.927997    20.612061    8111.1646    9547.0449    8094.2702    6184.4432   -9.0201694   -39.301936    819.72338   -3235.0648 
27464000    269.50415   -4709.5084   -4189.7469   -4709.5084            0    8396.6751    19.937004    19.885181    20.329043    8059.4678    7998.4362    8462.9782    8728.6109   -53.306414   -225.31807    280.01051   -3202.8096 
27465000    254.18881   -4740.8378   -4250.6133   -4740.8378            0     8318.592    19.885372    19.915866    20.344344    8057.0598    8735.5405    7459.6452    8760.5902    521.21154    163.87689   -1446.3348   -3273.1459 
27466000    256.12969   -4708.3864   -4214.4187   -4708.3864            0    9928.4455    19.612659     19.69947    20.781722    8029.2054    10630.172    10660.444    8494.7216   -400.33075   -978.06744    1203.4032   -3051.8203 
27467000    251.01754    -4725.806   -4241.6976    -4725.806            0    8642.5272    19.661141    19.962746    20.493148    8043.3631    9560.4329    7251.8151    9115.3337    596.86792    -1031.751   -87.271742   -3227.8929 
27468000     253.6038   -4677.7599   -4188.6637   -4677.7599            0    8271.9324    19.948323    19.643082    20.640284    8087.8242      8104.14    8078.1327    8633.5245    75.858065    321.35664   -6.7498959   -3212.9676 
27469000    260.35901   -4705.5117   -4203.3874   -4705.5117            0    8658.7552    19.944676    19.838348     20.67067     8178.752    7666.5522    10497.939    7811.7739    20.486338   -367.86092   -48.528182   -3170.5823 
27470000    248.13485   -4713.9526   -4235.4036   -4713.9526            0    8247.5746    19.948635    19.989146     20.29203    8091.5726    6619.0458    8754.8135    9368.8647    400.82684    25.079604    283.40934   -3262.1297 
27471000    262.75762   -4718.9022    -4212.152   -4718.9022            0     7697.795     19.95365    20.015274    20.325182    8117.4259    6633.9608    8389.6094    8069.8146    -914.8146    413.73228    -991.8222   -3300.8537 
27472000    246.20147   -4701.0991   -4226.2789   -4701.0991            0    9176.4042     19.81255    19.755248    20.629772     8074.531    9244.4096    9641.9373    8642.8658    450.59022    1378.5961    365.32119    -3145.677 
27473000    259.80054   -4716.6375   -4215.5903   -4716.6375            0    8209.2704    19.692574    19.877962    20.624942    8073.5973    9231.2815     7659.533    7736.9968    193.15293   -741.20026    -53.68392   -3248.9887 
27474000    267.46479   -4725.8964   -4210.0681   -4725.8964            0    7438.0435     19.94916     19.67361    20.651971    8105.3198    6970.6732    7557.7893    7785.6679   -349.43298   -790.90389   -510.30929   -3330.8335 
27475000    251.17218   -4705.5106   -4221.1039   -4705.5106            0    9153.3935    19.901953    20.026829    20.223064    8060.3674    9963.4625    7387.3648    10109.353    352.99369    86.878074   -1527.5296   -3145.1025 
27476000    256.30846   -4710.1878   -4215.8754   -4710.1878            0     7641.292    20.044092    19.830832    20.504618    8150.4011    8585.0314    7134.6728    7204.1718    702.44162   -889.66444    516.87214   -3307.5914 
27477000    279.25196   -4693.9415   -4155.3806   -4693.9415            0    6400.1135    19.884092    19.822978    20.729052    8170.6032    6056.6616    7080.6087      6063.07   -419.05686   -778.11463    365.20212   -3392.7439 
27478000    268.26993   -4676.9512   -4159.5701   -4676.9512            0    11082.304    19.739896    19.875801    20.486077     8037.635    10510.439     11513.25    11223.222    -281.5263    794.28835    1019.4596   -2860.4952 
27479000    269.36248   -4724.3196   -4204.8314   -4724.3196            0    7492.1321    20.100082    19.904387    20.441371    8178.1799    8281.2373    6669.0419    7526.1171    65.960436   -61.362596    774.53405   -3311.2421 
27480000    264.88375   -4670.3177   -4159.4671   -4670.3177            0    8375.7484    19.627451    20.022047    20.490476    8052.3832    8071.9953    8366.5906    8688.6593   -1175.6578    -1029.612   -1358.3055   -3175.8548 
27481000    267.85672    -4695.568   -4178.9838    -4695.568            0    8881.5718    19.886559    19.645177    20.694314    8084.7507    5768.3594    10694.444    10181.912    216.74362     313.2297   -762.66101   -3131.7772 
27482000    260.67687   -4706.3713    -4203.634   -4706.3713            0    10568.869     19.60301    20.068723    20.505599     8067.054    10812.675    10080.116    10813.817     9.844345   -439.21051   -331.23148   -2960.2096 
27483000    262.61167   -4716.3788   -4209.9101   -4716.3788            0    9108.0541    20.022014    19.901744    20.209986    8053.1341    8146.9074    8638.6038    10538.651    516.70386    735.55313   -11.430791   -3140.1992 
27484000    260.40842   -4698.7105    -4196.491   -4698.7105            0    6959.3314    19.991352    19.896835    20.639457    8209.6463    7502.5468    7417.8467    5957.6007   -603.61483   -544.17979    1290.5303   -3363.2553 
27485000    245.43276   -4709.6655   -4236.3278   -4709.6655            0    6649.5125    19.923524    20.171236    20.303999    8159.8138     7573.528     4390.131    7984.8786    293.25762    328.23434    -208.1792   -3445.0191 
27486000    254.29128   -4709.5748   -4219.1526   -4709.5748            0    6953.5224    19.929819      19.7453     20.58089    8098.9967    8237.2868    6293.8597    6329.4206    370.81044   -1184.0534   -707.70243   -3397.8334 
27487000    269.02173   -4724.8943   -4206.0633   -4724.8943            0    7299.9204    19.943843    19.940816    20.520995    8161.1281    5818.7309    9306.0133    6775.0168   -20.894206   -352.97025   -578.37104   -3337.2145 
27488000    258.08431   -4679.8031   -4182.0658   -4679.8031            0    10861.391    19.716439    19.774402    20.606583     8034.111    11205.706     11129.85    10248.618    324.15564   -250.95862    13.331172   -2909.4446 
27489000    257.20769   -4704.4637    -4208.417   -4704.4637            0    9255.3502    19.981435    19.740831    20.406037    8049.1642    8369.8588    8918.9288    10477.263   -89.918653   -803.64997   -446.76076   -3121.9425 
27490000    259.44227   -4693.2612   -4192.9049   -4693.2612            0    9757.4384    20.030535    19.708338    20.501549    8093.3671    9442.3804     11799.96    8029.9743    100.12597   -710.15304   -105.78031   -3041.2008 
27491000    250.48675   -4705.5732   -4222.4884   -4705.5732            0    8782.9827    19.762943    19.782704    20.659292    8077.0488    9216.6433    8825.1573    8307.1474    143.57448    164.40358   -345.61643   -3187.8928 
27492000     253.8447   -4700.2243   -4210.6634   -4700.2243            0    8084.6022     19.92991    19.979989    20.440256    8139.2974     8220.635    8784.7255    7248.4461    53.979966   -1289.9531    -847.3646   -3250.9945 
27493000    259.10412   -4686.0945   -4186.3904   -4686.0945            0    9444.6848      19.9262    20.052144    20.256326    8093.6791    9047.0083    9692.5598    9594.4863   -504.33559   -730.00849   -729.42991   -3071.5586 
27494000     270.5204   -4716.4824    -4194.761   -4716.4824            0    9506.1821    19.890557    19.745393    20.610888    8094.8618    9356.3716    8936.4981    10225.677   -213.33413   -868.41521   -1023.5297   -3072.5062 
27495000    274.08545   -4691.9423   -4163.3455   -4691.9423            0    7795.1065    19.730656    19.780807    20.832212    8130.5684     9312.371     8160.971    5911.9775   -294.15848    -669.0911   -1070.3624    -3239.033 
27496000    269.63909   -4706.0305   -4186.0088   -4706.0305            0    7953.2155    19.862728     19.82765    20.583661    8106.4883    6999.4949    9319.6716    7540.4801   -778.48357     492.3242   -648.35752   -3245.7413 
27497000    255.37057   -4710.1637   -4217.6601   -4710.1637            0    6323.1741    19.901853    20.010753    20.496475    8162.7431    6714.9791    5618.8314    6635.7116    586.81352   -583.91103    -53.27584   -3464.9164 
27498000    255.16972   -4665.7324   -4173.6161   -4665.7324            0    9791.6432    19.944015    19.774983    20.511004    8089.3876    10765.798     9115.506    9493.6257    256.37178   -192.79055   -452.19995   -3018.4429 
27499000    250.49514   -4688.7074   -4205.6064   -4688.7074            0    11561.925    19.691569    19.854205     20.33023     7948.316    11783.605    11104.154    11798.017     715.2502   -549.24666   -113.69283   -2865.3708 
27500000    266.68169   -4670.7885   -4156.4705   -4670.7885            0    8887.9383    19.912146    19.864119    20.492981    8105.7375    8358.1907    8671.7856    9633.8387   -243.84898   -289.46068   -654.97621   -3105.7929 
Loop time of 474.599 on 64 procs for 250000 steps with 972 atoms

Performance: 91.024 ns/day, 0.264 hours/ns, 526.761 timesteps/s
189.7% CPU use with 32 MPI tasks x 2 OpenMP threads

MPI task timing breakdown:
Section |  min time  |  avg time  |  max time  |%varavg| %total
---------------------------------------------------------------
Pair    | 28.718     | 36.052     | 45.258     |  72.3 |  7.60
Bond    | 0.9054     | 1.1442     | 1.6259     |  14.6 |  0.24
Kspace  | 200.97     | 212.24     | 229.72     |  39.0 | 44.72
Neigh   | 2.3378     | 2.9614     | 3.5372     |  19.1 |  0.62
Comm    | 90.374     | 102.4      | 113.98     |  54.5 | 21.58
Output  | 0.4337     | 0.43405    | 0.43555    |   0.0 |  0.09
Modify  | 91.009     | 97.039     | 104.58     |  32.9 | 20.45
Other   |            | 22.33      |            |       |  4.71

Nlocal:        30.3750 ave          37 max          23 min
Histogram: 1 1 2 3 6 9 4 2 3 1
Nghost:        2669.12 ave        2699 max        2637 min
Histogram: 2 0 4 7 4 2 5 3 3 2
Neighs:        9693.94 ave       12246 max        7320 min
Histogram: 3 3 1 3 8 4 5 1 2 2

Total # of neighbors = 310206
Ave neighs/atom = 319.14198
Ave special neighs/atom = 2.0000000
Neighbor list builds = 7715
Dangerous builds = 0

unfix		3
unfix		2
unfix		1

write_data	data.final.${pid}
write_data	data.final.0
System init for write_data ...
PPPM initialization ...
  extracting TIP4P info from pair style
  using 12-bit tables for long-range coulomb (../kspace.cpp:340)
  G vector (1/distance) = 0.37194443
  grid = 24 24 24
  stencil order = 5
  estimated absolute RMS force accuracy = 0.0035389673
  estimated relative force accuracy = 1.0657495e-05
  using double precision FFTW3
  3d grid and FFT values/proc = 3211 432
Last active /omp style is kspace_style pppm/tip4p/omp
WARNING: Not all mixed pair coeffs generated from mixing. Use write_data with 'pair ij' option to store all pair coeffs. (../write_data.cpp:312)

write_restart   restart.lmp.${pid}
write_restart   restart.lmp.0
System init for write_restart ...
PPPM initialization ...
  extracting TIP4P info from pair style
  using 12-bit tables for long-range coulomb (../kspace.cpp:340)
  G vector (1/distance) = 0.37194443
  grid = 24 24 24
  stencil order = 5
  estimated absolute RMS force accuracy = 0.0035389673
  estimated relative force accuracy = 1.0657495e-05
  using double precision FFTW3
  3d grid and FFT values/proc = 3211 432
Last active /omp style is kspace_style pppm/tip4p/omp
Total wall time: 0:07:54
