LAMMPS (30 Jul 2021)
Processor partition = 0
  using 2 OpenMP thread(s) per MPI task
using multi-threaded neighbor list subroutines
variable        pid world 0 1
variable        phase world IceVI Liquid

shell cd ${phase}
shell cd IceVI
include Restart.lmp
echo both
log log.lammps
#include		in.partitions
include		in.temp
variable        temperature equal 284.36
variable	tempDamp equal 100.0
include		in.pressure
variable        pressure equal 11625.0
variable        pressureDamp equal 1000.0 # This is 1 ps
include		in.seed
variable        seed equal 745823

units		real
atom_style	full
read_restart	restart.lmp.${pid}
read_restart	restart.lmp.0
Reading restart file ...
  restart file = 30 Jul 2021, LAMMPS = 30 Jul 2021
  restoring atom style full from restart
  orthogonal box = (-0.051157813 -0.13665833 -0.053080265) to (24.781159 24.866659 22.863080)
  4 by 4 by 2 MPI processor grid
  restoring pair style lj/cut/tip4p/long/omp from restart
  restoring bond style harmonic/omp from restart
  restoring angle style harmonic/omp from restart
  1920 atoms
  1280 bonds
  640 angles
Finding 1-2 1-3 1-4 neighbors ...
  special bond factors lj:    0        0        0       
  special bond factors coul:  0        0        0       
     2 = max # of 1-2 neighbors
     1 = max # of 1-3 neighbors
     1 = max # of 1-4 neighbors
     2 = max # of special neighbors
  special bonds CPU = 0.002 seconds
  read_restart CPU = 0.009 seconds
include 	in.setup
variable	out_freq equal 1000
variable	out_freq2 equal 10000
variable	out_freq3 equal 1000

timestep	2.0

neigh_modify    delay 7 every 1

include		in.tip4p
# This is TIP4P/Ice

# create groups ###
group ox type 2
640 atoms in group ox
group hy type 1
1280 atoms in group hy

# set charges - beside manually ###
set group ox charge -1.1794
Setting atom values ...
  640 settings made for charge
set group hy charge 0.5897
Setting atom values ...
  1280 settings made for charge

# ### TIP3P Potential Parameters ###
pair_style lj/cut/tip4p/long/omp 2 1 1 1 0.1577 8.5
pair_coeff 1 1*2 0.000 0.000
pair_coeff 2 2 0.21084 3.1668
bond_style  harmonic
bond_coeff  1 450 0.9572
angle_style harmonic
angle_coeff 1 55 104.52
kspace_style pppm/tip4p/omp 1.0e-5
pair_modify tail yes

thermo          ${out_freq}
thermo          1000
thermo_style    custom step temp pe etotal epair emol press lx ly lz vol pxx pyy pzz pxy pxz pyz enthalpy

restart 	${out_freq3} restart.lmp.${pid} restart2.lmp.${pid}
restart 	1000 restart.lmp.${pid} restart2.lmp.${pid}
restart 	1000 restart.lmp.0 restart2.lmp.${pid}
restart 	1000 restart.lmp.0 restart2.lmp.0


include         in.dump
dump            myDump all atom ${out_freq2} dump.water.${pid}
dump            myDump all atom 10000 dump.water.${pid}
dump            myDump all atom 10000 dump.water.0
dump            myDump2 all dcd ${out_freq2} dump.dcd
dump            myDump2 all dcd 10000 dump.dcd
dump_modify     myDump append yes
dump_modify     myDump2 append yes


variable natoms 	equal  "count(all)"                        # NUMBER ATOMS
variable H      	equal  "enthalpy/v_natoms"                 # ENTHALPY-per-atom
variable Vol      	equal  "vol/v_natoms"                 # volume-per-atom
fix AVG all 		ave/time ${out_freq} 1 ${out_freq} v_Vol v_H file vol_enthalpy.dat
fix AVG all 		ave/time 1000 1 ${out_freq} v_Vol v_H file vol_enthalpy.dat
fix AVG all 		ave/time 1000 1 1000 v_Vol v_H file vol_enthalpy.dat




fix 		1 all shake 1e-6 200 0 b 1 a 1
Finding SHAKE clusters ...
       0 = # of size 2 clusters
       0 = # of size 3 clusters
       0 = # of size 4 clusters
     640 = # of frozen angles
  find clusters CPU = 0.000 seconds
fix             2 all nph aniso ${pressure} ${pressure} ${pressureDamp}
fix             2 all nph aniso 11625 ${pressure} ${pressureDamp}
fix             2 all nph aniso 11625 11625 ${pressureDamp}
fix             2 all nph aniso 11625 11625 1000
fix             3 all temp/csvr ${temperature} ${temperature} ${tempDamp} ${seed}
fix             3 all temp/csvr 284.36 ${temperature} ${tempDamp} ${seed}
fix             3 all temp/csvr 284.36 284.36 ${tempDamp} ${seed}
fix             3 all temp/csvr 284.36 284.36 100 ${seed}
fix             3 all temp/csvr 284.36 284.36 100 745823


run             250000
PPPM initialization ...
  extracting TIP4P info from pair style
  using 12-bit tables for long-range coulomb (../kspace.cpp:340)
  G vector (1/distance) = 0.37454779
  grid = 30 30 30
  stencil order = 5
  estimated absolute RMS force accuracy = 0.0032615869
  estimated relative force accuracy = 9.8221721e-06
  using double precision FFTW3
  3d grid and FFT values/proc = 5400 960
Last active /omp style is kspace_style pppm/tip4p/omp
Neighbor list info ...
  update every 1 steps, delay 7 steps, check yes
  max neighbors/atom: 2000, page size: 100000
  master list distance cutoff = 10.8154
  ghost atom cutoff = 10.8154
  binsize = 5.4077, bins = 5 5 5
  1 neighbor lists, perpetual/occasional/extra = 1 0 0
  (1) pair lj/cut/tip4p/long/omp, perpetual
      attributes: half, newton on, omp
      pair build: half/bin/newton/omp
      stencil: half/bin/3d
      bin: standard
Setting up Verlet run ...
  Unit style    : real
  Current step  : 6750000
  Time step     : 2
Per MPI rank memory allocation (min/avg/max) = 10.54 | 10.55 | 10.56 Mbytes
Step Temp PotEng TotEng E_pair E_mol Press Lx Ly Lz Volume Pxx Pyy Pzz Pxy Pxz Pyz Enthalpy 
 6750000    285.30341   -8985.3625   -7897.6558   -8985.3625            0    11624.232    24.832317    25.003318    22.916161    14228.422    12507.187    10270.829    12094.679   -794.15924    290.76286   -35.205908   -5485.5471 
 6751000    283.57839   -9021.7761    -7940.646   -9021.7761            0     10652.72    24.764294    24.986391     23.05656    14266.716    12666.259    9413.4886    9878.4128    24.343328    213.74933    723.67697   -5724.1833 
 6752000    281.27744   -8995.1086   -7922.7508   -8995.1086            0    11781.745    24.852515    24.942462    22.936235     14217.78    12967.487    12105.085    10272.662    360.83814   -792.87648    795.47057   -5479.7856 
 6753000    290.26492   -9019.9845   -7913.3622   -9019.9845            0    12037.273    24.972313    24.793489    22.913627     14186.99    11039.255    12950.732    12121.833   -173.86992    635.10172    1782.9431    -5422.818 
 6754000    280.37359   -9036.9435   -7968.0315   -9036.9435            0    11747.878     24.97751    24.902702    22.903242    14245.988    11170.592    11463.714    12609.328    423.06612   -758.00459   -467.75872   -5527.2556 
 6755000    280.94454   -8980.2927   -7909.2041   -8980.2927            0    10106.362     25.10603    24.797965    22.973085    14302.548    9522.7794    10219.423    10576.882    1229.2293   -997.11056    830.40199   -5801.1383 
 6756000    286.06526   -8980.2671   -7889.6559   -8980.2671            0    11751.625    25.017302    24.895138    22.890065    14256.142    12069.161    10796.787    12388.928    109.13141    10.925659   -237.19726   -5446.3613 
 6757000    279.29735   -9022.5468   -7957.7379   -9022.5468            0    11866.462    25.002109    24.902621    22.867502     14237.72    10792.994    12264.258    12542.133    916.81362    364.12552    274.07666   -5493.7557 
 6758000    278.54448   -9014.7433   -7952.8048   -9014.7433            0    11394.252    24.872345    24.859535    23.026088    14237.374    12662.661    11783.592     9736.505    137.91293    173.50629   -313.71253   -5586.9307 
 6759000    288.19982   -8983.1674   -7884.4183   -8983.1674            0    11972.957    25.004019    24.936097    22.871608    14260.508     10768.75    12920.595    12229.526    429.65836   -186.89985   -87.147595    -5394.344 
 6760000    286.94486   -8996.2216   -7902.2569   -8996.2216            0    11655.196    24.922675    24.910928    22.954218    14251.057    12375.993    11351.438    11238.159   -666.01914    150.80857    1566.6113   -5479.8754 
 6761000    279.99506   -8995.8347   -7928.3658   -8995.8347            0    11726.331    24.772259    24.956104    23.038084    14242.583    13442.755     10676.64    11059.599   -1051.9462   -2.8383641    821.03332   -5492.6489 
 6762000    284.68564   -8970.4793   -7885.1278   -8970.4793            0    11854.915    24.864745    25.085812    22.853659    14255.023    11206.224    11127.389    13231.133     24.99025   -195.27307    61.393225   -5420.5515 
 6763000    290.89428   -9012.8763   -7903.8547   -9012.8763            0    10230.853    24.915183    25.013113    22.942985    14298.212    10513.101    11367.396    8812.0623   -640.67215   -1015.7256   -734.04849   -5770.4685 
 6764000    267.82477   -9007.0851   -7986.0149   -9007.0851            0    11769.404    24.810084    24.888717     23.03209    14222.112    13662.833    12060.869    9584.5095    263.29178    447.33865   -863.17896   -5544.8651 
 6765000    284.68203   -9025.7026   -7940.3649   -9025.7026            0    12020.572    24.912651    25.038147    22.779559    14209.129    11847.202    10539.215      13675.3   -326.18217   -987.23039   -153.03453    -5449.395 
 6766000     290.3254   -9023.0982   -7916.2454   -9023.0982            0    11815.603    24.896467    24.881011    22.947686    14214.927    11946.621    12209.192    11290.997   -559.03353   -1512.5053     794.1478    -5466.751 
 6767000    286.22349   -8999.9585    -7908.744   -8999.9585            0     11767.04     24.86679    24.856017    22.992539    14211.443    13074.126    11664.433     10562.56   -50.605106    685.99661    91.854653   -5469.9153 
 6768000    282.18458   -9039.9735   -7964.1572   -9039.9735            0     11845.32    24.975312    25.072489    22.656186     14187.15    11012.081     10959.69    13564.189   -405.93135    851.97197    376.88857   -5513.3009 
 6769000    281.77577   -9015.5533   -7941.2956   -9015.5533            0    12276.645    24.917979    24.830685    22.962346    14207.504    12048.926    12142.635    12638.374    -666.5451   -59.500969    911.49389   -5397.5518 
 6770000    287.17198   -9052.6501   -7957.8195   -9052.6501            0    11057.277    24.845763    24.895021    23.008288     14231.45    11429.578    11308.553    10433.701   -1027.1343   -33.924192   -4.7759256   -5662.8695 
 6771000    288.42706   -9047.8592   -7948.2437   -9047.8592            0    10534.675    25.000783    24.995612    22.806544    14252.035     10398.63    10140.283    11065.113   -76.316035   -709.89079   -1130.3752   -5758.5977 
 6772000    287.74835   -8998.8296   -7901.8016   -8998.8296            0    11055.003    24.892403     24.95876    23.006645    14293.649    12777.774    10353.076    10034.159    200.48738   -301.08112    533.85554   -5597.2955 
 6773000     273.0695   -9009.8079   -7968.7424   -9009.8079            0    11896.569    24.920073    25.042618    22.774483    14212.732    12342.368    10466.168     12881.17   -3.8857999    1048.0947    252.62882    -5502.844 
 6774000    290.26423    -8963.653   -7857.0334    -8963.653            0    10600.583    24.913586    24.962395    23.037995    14327.393    10329.089    11022.194    10450.467   -979.15852   -1066.6989   -1741.0249   -5642.0379 
 6775000    290.89827   -9050.6002   -7941.5633   -9050.6002            0    9100.3854    24.890854    25.103085    23.003395    14373.378    8892.0435    8241.3258    10167.787   -576.10331   -97.725609   -386.02008   -6033.9317 
 6776000     293.8043   -9019.3565   -7899.2405   -9019.3565            0    10150.852    24.931955    24.998394    22.920578    14285.453    11865.404    8139.8083    10447.343    96.078744    372.57487    261.71947   -5784.4255 
 6777000    284.07442   -9010.6581   -7927.6368   -9010.6581            0    10095.812    24.749248     24.97173      23.1822    14327.331    11822.033    9394.6565    9070.7465   -1128.8743     435.1686    240.91657   -5818.1227 
 6778000    278.80598   -8999.7264   -7936.7908   -8999.7264            0    11697.382    24.889887    25.097922     22.76756    14222.541    12310.064    9501.5678    13280.514    99.541979    816.54121    166.80371   -5510.5061 
 6779000    286.79221   -9056.8052   -7963.4225   -9056.8052            0    9761.4016     24.86303    24.975702    23.003358    14284.433    10321.704    10125.225    8837.2754    -306.4114    386.15041   -97.427431   -5929.8903 
 6780000    288.29657   -8988.7274   -7889.6094   -8988.7274            0    11495.988    24.917769    25.019062    22.892188     14271.43    10658.538    11231.002    12598.424   -4.2981352   -253.28426   -377.17822   -5496.9015 
 6781000    289.83652   -8982.2063   -7877.2173   -8982.2063            0     11349.99     24.93669    25.040544    22.894618    14296.047    11977.538    10893.905    11178.526    499.73925   -1194.9917    298.35681   -5510.8218 
 6782000    293.16013   -9018.5886   -7900.9285   -9018.5886            0    11075.768    24.923408    24.900575    22.976883    14259.618    11086.585    11664.613    10476.105   -252.24975    1417.0616    865.83958   -5597.5908 
 6783000     291.3494   -9030.2376   -7919.4808   -9030.2376            0    10437.444    25.001539    25.009296     22.82225    14270.089    10017.626    11169.817    10124.889   -326.79216   -1301.6799    791.72209   -5747.2961 
 6784000    284.34051   -9064.0029   -7979.9672   -9064.0029            0    10136.317    24.838563    24.872809    23.092218    14266.484    10026.542    11101.298    9281.1117    -220.1363   -432.07434    168.60071   -5870.9843 
 6785000    274.59557    -9032.625   -7985.7414    -9032.625            0    10924.913    25.040096    24.924368    22.826956    14246.499    10682.432    10584.901    11507.405    16.335622    1290.2686    -467.2904    -5715.866 
 6786000      285.516   -9033.4268   -7944.9096   -9033.4268            0    10185.793    24.985967    24.857085    22.997185    14283.053    9927.9931    11384.483    9244.9011    78.009776    534.67748   -1055.6576   -5823.1716 
 6787000    281.38711   -9001.1066   -7928.3306   -9001.1066            0    10716.387     24.89616    24.881404    23.039727    14271.991     10823.48    11421.757    9903.9219   -1113.2407   -1115.0645    707.78851   -5697.7967 
 6788000    289.90773   -9003.2598   -7897.9993   -9003.2598            0    12035.691    24.974007    25.006289    22.773536    14222.238     12395.99    10904.578    12806.506   -567.32939   -1138.5196   -926.04112   -5401.5953 
 6789000    283.00491    -9046.119   -7967.1752    -9046.119            0    10081.831    24.853372    24.950804    23.001307    14263.378    10387.689    9552.6785    10305.124    981.78103   -1738.5285   -606.56784   -5869.9857 
 6790000    275.48333    -8993.949   -7943.6809    -8993.949            0    12712.799    24.719158    24.980006    22.996726    14200.127    14660.077    11774.505    11703.815   -630.56057   -608.51624    435.36073   -5310.9328 
 6791000    268.95597     -9004.87   -7979.4871     -9004.87            0    12430.547    24.778817    25.027857    22.883074    14191.183    11843.686    12583.244    12864.711    1105.3925    626.54249    50.715043   -5406.8132 
 6792000    280.49239   -9007.6147   -7938.2498   -9007.6147            0    11504.789    24.875814    25.041128    22.843827    14229.842    11075.315    10434.909    13004.145   -258.81822   -1030.5155     1244.994    -5550.688 
 6793000    282.40802   -8981.3137   -7904.6455   -8981.3137            0    11819.106    24.864153    24.943314    22.973601    14248.098    12336.472    11274.635    11846.211    408.22655    121.34515    672.61015   -5448.7073 
 6794000    285.17345   -9010.6373    -7923.426   -9010.6373            0    12320.654    24.768174    25.011418    22.941909    14212.218    13224.343    11031.353    12706.267   -662.47268    660.70971    926.03266   -5369.7164 
 6795000    281.18138   -9062.7328   -7990.7411   -9062.7328            0    11444.852    24.892418    24.915025    22.909522    14208.376    11985.662     11307.43    11041.464   -268.98949    -589.0774   -154.62559   -5619.2009 
 6796000    285.73956   -8949.6133   -7860.2438   -8949.6133            0    12513.197    25.082331    24.726273    22.979475    14251.699    10651.764     14110.15    12777.677   -653.05998   -307.28011   -1333.5856   -5259.4207 
 6797000    280.89555   -9009.0725   -7938.1705   -9009.0725            0    12446.487    24.948217    24.901445     22.84123    14190.038    11830.182    12816.189    12693.089    1023.7289   -1280.4774    381.38361   -5362.4055 
 6798000    276.39157   -8996.4439   -7942.7132   -8996.4439            0    12481.629    24.798819    24.809111    23.079576    14199.401    12784.553    12848.061    11812.273    608.34905   -947.36674    673.59242   -5357.9714 
 6799000    282.20101   -8976.0363   -7900.1573   -8976.0363            0     11370.93    24.898122    24.947342    22.965118    14264.598    10495.521    12300.583    11316.687     233.6141   -1661.6926   -611.81281   -5534.6112 
 6800000    289.85974   -8997.8728   -7892.7953   -8997.8728            0    11460.166    24.828984    25.036443     22.89754    14233.785    10626.614    11550.178    12203.706   -313.10485    81.120787   -288.48542   -5513.8349 
 6801000    281.72236    -9001.748   -7927.6939    -9001.748            0    10331.516    24.884696    25.038125    22.985364    14321.402    11172.203    9195.0304    10627.315   -401.09651    1295.2675   -812.01478   -5769.8229 
 6802000    265.59631   -8946.8722    -7934.298   -8946.8722            0    11520.736    24.786536    25.111978    22.936916     14276.83     12592.43    9745.6322    12224.146   -314.32447     123.0526    147.66597   -5535.5319 
 6803000    277.36406   -8985.3356   -7927.8973   -8985.3356            0    11861.929    24.849437    24.989961    22.883227    14210.174    12441.692    11804.661    11339.434    120.53189   -1046.7886   -556.32366   -5469.6215 
 6804000    284.62231   -8993.7243   -7908.6143   -8993.7243            0    10093.477    24.840228    24.863597    23.168765    14309.433    10435.796    9671.7953    10172.841   -354.69932    -400.5149    20.937654   -5802.2226 
 6805000    289.58197   -8997.3107   -7893.2922   -8997.3107            0     11318.03    24.864592     25.07746     22.85535    14251.243    12360.317    10247.962    11345.811    308.54925    255.54022    1136.7423   -5540.9555 
 6806000     292.1211   -8999.6272   -7885.9283   -8999.6272            0    11285.336    24.842972    24.820919    23.123866    14258.763    11662.334    11962.196    10231.478   -280.86173    -796.5976   -391.95963   -5539.1491 
 6807000    273.14108   -8971.8909   -7930.5526   -8971.8909            0    11487.497    24.973889     24.93363    22.898191    14258.468    11701.531    10257.199    12503.763     381.7036    486.28493    625.19034   -5541.7834 
 6808000    281.88962    -9026.743   -7952.0512    -9026.743            0    11211.502    24.939338    24.865591    22.948364    14231.001    10299.188    12029.065    11306.253    -734.1737   -785.46086    527.57807    -5625.165 
 6809000    276.99814   -8988.9792    -7932.936   -8988.9792            0    12018.076     24.95914    24.846059    22.923196    14215.506    11340.959    12310.619     12402.65    83.732888      826.691    644.39773   -5441.3657 
 6810000    277.38798   -9040.9655   -7983.4361   -9040.9655            0    11859.024    24.997852    24.873274    22.882693    14227.965    10801.733    11951.238      12824.1    320.08543    533.48602    329.15313   -5522.6855 
 6811000     271.4245   -8986.2856   -7951.4916   -8986.2856            0    10565.486     24.85838    24.814164    23.196012    14308.226    10097.841    12067.455    9531.1626   -245.21636   -1393.3364   -1162.4881   -5746.7831 
 6812000    288.99002   -9023.3911   -7921.6294   -9023.3911            0    11189.373    24.951532    24.947383    22.897899     14253.38    10774.955    10952.013     11841.15   -994.22953   -768.11173    402.00477   -5595.6841 
 6813000    293.37735   -8986.2595   -7867.7713   -8986.2595            0     11884.78    24.873169    24.850608    23.029048    14234.563    13069.847    11684.001    10900.491     145.3743    4.1563069    650.25509   -5400.5327 
 6814000    293.83078   -9029.4931   -7909.2761   -9029.4931            0    12542.446    24.794658    24.911349    22.984273    14196.659    13842.974    11913.904    11870.459   -210.62987   -85.651104    1206.4216   -5312.4416 
 6815000    289.37304   -9081.1283   -7977.9064   -9081.1283            0    10891.873    25.018266    24.967499    22.799259     14241.41    10133.834    10803.573    11738.214     138.9864    68.908604    221.49281   -5715.7038 
 6816000    294.43695   -8980.5978   -7858.0699   -8980.5978            0     10673.54    24.980061    24.899495    23.027949    14323.175    10981.151    9975.6771    11063.791    9.0320577    220.46004   -358.37539   -5628.4867 
 6817000    281.54455    -9045.141   -7971.7648    -9045.141            0    11909.225     24.92235    24.963785    22.836615    14207.941    11593.199    12000.572    12133.906   -39.706137   -573.33761   -178.05231   -5504.0751 
 6818000     271.3519   -9002.9446   -7968.4274   -9002.9446            0    12148.023    24.876467    24.846583    23.003809    14218.544    12369.298    11623.994    12450.776   -93.243262   -415.86989    -168.1214   -5449.3784 
 6819000    281.97423   -9050.4295   -7975.4151   -9050.4295            0    11636.356    24.962021    24.881183    22.906299     14226.75    9603.7064    11978.678    13326.682   -953.82033   -772.28996    904.13853   -5561.0743 
 6820000    275.36924   -9008.1521   -7958.3189   -9008.1521            0    10439.251    24.965959    24.946374    22.913699    14270.885     10188.59    10309.379    10819.784   -406.82762     570.7975    363.44802   -5785.6372 
 6821000    269.78696   -8949.4804   -7920.9294   -8949.4804            0    11528.971     24.87827    24.855294    23.054814    14256.099    12858.834    12059.243    9668.8354   -860.72772   -292.75926    892.91245   -5523.9345 
 6822000    295.18314   -9002.5845   -7877.2117   -9002.5845            0      12409.9    24.986694    24.946457    22.749628    14180.514    13160.748    11012.081    13056.872   -320.69853   -94.640441    567.43021    -5310.742 
 6823000    277.57145   -9052.4221   -7994.1931   -9052.4221            0    12348.711    24.859865    24.831245    22.953244     14169.07    11795.098    12907.085    12343.949    477.52571   -870.05267     213.8405   -5442.4389 
 6824000    284.27041   -8983.3652   -7899.5967   -8983.3652            0    13242.681    24.745791    24.828417    23.101369    14193.453    13584.612    13841.115    12302.315   -570.64191    125.96489    702.48477   -5158.4021 
 6825000    286.78289   -8962.3174   -7868.9702   -8962.3174            0    12742.556    24.942263    24.967347    22.784827    14189.072    11905.077    13244.956    13077.634   -654.89374    248.75753    858.93757   -5232.1141 
 6826000    297.43687   -9051.8364   -7917.8714   -9051.8364            0    12807.345    24.798945    24.822882    23.011527    14165.466    11644.102    13419.916    13358.018    133.80102   -353.57286    381.69439   -5272.0174 
 6827000    280.63908   -9027.2199   -7957.2957   -9027.2199            0    13174.532    24.910577    24.878581    22.794753    14126.816    11396.161    14363.245    13764.189   -555.07686   -73.912857    1753.8203   -5243.0112 
 6828000    290.21736   -8983.2546   -7876.8137   -8983.2546            0    12663.453    24.869059    25.006117    22.869496     14222.05    11731.816    11418.808    14839.734    149.02649    296.10992   -401.07489   -5250.2361 
 6829000    284.00791   -9025.5356   -7942.7679   -9025.5356            0    12685.832    24.792716    24.826628     23.03113     14176.11    13834.766    12483.549    11739.181   -285.73866   -856.92307    653.66545    -5320.048 
 6830000    285.03889   -9018.3492   -7931.6509   -9018.3492            0    10597.809    24.926041    24.928582    22.982186     14280.46    10345.516    10625.102    10822.808     -551.859    376.16175   -614.57265   -5724.4891 
 6831000    288.84099   -8995.4532   -7894.2596   -8995.4532            0    10835.703    24.971014    24.899663    22.989268    14294.034    10887.518    11303.347    10316.244     336.0511   -174.93671    631.51829   -5635.4076 
 6832000    278.01558   -8994.0563   -7934.1341   -8994.0563            0    12606.807    24.850167    24.914194    22.939026    14202.053    13723.766    12108.998    11987.658    571.70607   -955.64846    907.79408   -5322.9822 
 6833000    277.57719   -9034.8651   -7976.6143   -9034.8651            0    12494.521    24.773186    24.980332    22.882901     14160.91    12372.709    12357.579    12753.275   -404.61914   -768.38958    1039.1357   -5396.2165 
 6834000    285.97491   -8957.2255   -7866.9587   -8957.2255            0    12368.999    24.807498    24.995593    22.920378    14212.425    13262.448    11224.145    12620.403   -331.90155    483.97482    954.04924   -5303.1913 
 6835000    280.11075   -9013.2909    -7945.381   -9013.2909            0    12043.317    24.846117    25.074415     22.80343    14206.578    12000.016    10531.593    13598.341   -238.28637   -1425.8456    294.07925   -5450.1458 
 6836000    284.13299   -9003.1225    -7919.878   -9003.1225            0    11512.518    24.779895    24.958511    23.012909    14232.777    12927.785    10992.542    10617.226   -1231.8763   -1139.0025   -85.803429   -5530.2195 
 6837000    277.26384    -8980.237   -7923.1808    -8980.237            0    12846.983    24.775262    24.870577    23.017832    14183.014    13298.487    13209.202    12033.258   -51.746404    719.46432    430.66291   -5265.8504 
 6838000     295.5184   -9002.9118   -7876.2609   -9002.9118            0    12030.369    24.909243    24.903201    22.898332     14204.29    12569.695    10974.429    12546.984    208.10471   -165.88049    -622.0705   -5384.1098 
 6839000    277.18108   -9037.3508   -7980.6102   -9037.3508            0    13646.483     25.01487    24.735954     22.81172    14115.132    12209.513    14072.569    14657.369     505.6196    116.05993    235.01464   -5171.4171 
 6840000    286.32188   -9000.3639   -7908.7743   -9000.3639            0    11854.872     24.98382    24.900268    22.896534    14244.021    12860.508    10880.497    11823.612    548.25278   -184.71917    620.90802   -5446.1091 
 6841000    292.12361   -9073.4506   -7959.7422   -9073.4506            0    12896.609    24.829389    24.781931    22.980418    14140.316    14530.069    13023.341    11136.418   -171.99672    400.25174    526.71983   -5300.1776 
 6842000    290.66179   -9032.9427   -7924.8074   -9032.9427            0    11894.532    24.780166    24.893962    23.037909    14211.545    13915.791    10545.856    11221.949   -68.897954   -1046.9855    925.81499   -5459.5371 
 6843000    282.57746   -8990.4544   -7913.1403   -8990.4544            0    11618.963    24.999081    25.060404    22.776475    14269.167    11195.674    10432.005    13229.211   -666.05776   -665.69371   -1136.6174   -5495.2204 
 6844000    280.58594   -8999.3794   -7929.6578   -8999.3794            0    11821.916    24.865264    24.935894    22.935778    14221.045    11240.866    11635.986    12588.897    159.37664    99.899707   -274.38297   -5477.8001 
 6845000    280.94496   -9067.7285   -7996.6382   -9067.7285            0    12246.944    24.697703    24.897127    23.023989    14157.493    12779.216    12594.931    11366.686   -2193.0177    442.93133   -52.094054   -5467.9808 
 6846000    281.85849   -9004.3955   -7929.8223   -9004.3955            0    11811.884    24.950071    25.069437    22.737918    14222.209    12257.197    10068.523    13109.934   -265.52878    243.82797   -639.67525   -5479.8446 
 6847000    283.33755   -8989.2502   -7909.0382   -8989.2502            0    10743.043    24.846376    24.953066    23.033914    14280.871    12233.476    10003.285    9992.3677    1276.3202   -410.50179   -1302.9311   -5671.5647 
 6848000    271.49993   -9030.7131   -7995.6315   -9030.7131            0    11023.965    24.911855    25.018979    22.862282    14249.356    11027.551    11071.956    10972.388    351.53585   -135.72561    185.07099   -5704.7166 
 6849000    279.87239   -8970.4903   -7903.4891   -8970.4903            0    10469.967    24.999357     25.04114    22.906043    14339.467    10447.051    9374.4749    11588.374   -1356.8805    -307.2285    476.77833   -5713.9425 
 6850000    282.25809   -9026.7172   -7950.6207   -9026.7172            0    11054.572    24.895521    24.809066    23.046287    14234.185    11938.249    11435.827    9789.6401    212.52338   -888.30412    103.61839   -5655.7912 
 6851000    282.28692   -9001.1638   -7924.9573   -9001.1638            0    13388.412    24.990428    24.850836    22.750052    14128.533    12598.315    13930.399    13636.523    194.23191    60.129182    1408.6795   -5166.2727 
 6852000    286.13939   -8985.9741   -7895.0803   -8985.9741            0    11720.658    24.956869    24.858695     22.95205    14239.342    12276.995     10789.49     12095.49    108.61021   -288.73102    291.64112   -5461.0959 
 6853000    287.20011   -9014.9034   -7919.9656   -9014.9034            0    10460.233    25.096942    24.875879    22.884287    14286.854    9495.1479    10485.471     11400.08    -92.49245   -249.28048   -241.80537   -5740.4808 
 6854000     285.4291    -9022.595   -7934.4091    -9022.595            0    11288.898    24.934358    24.875247     22.95948    14240.579    10789.537    11585.859    11491.298    426.82744   -1121.1311    499.09592    -5589.883 
 6855000    289.61435   -9018.2913   -7914.1493   -9018.2913            0    10529.533    24.832456    25.011696    22.983752    14275.251    10268.612    10380.117    10939.868   -80.937643   -1000.4076    1959.9771   -5722.0071 
 6856000    275.13359   -9006.3109   -7957.3762   -9006.3109            0    12221.393    24.838318    24.989033    22.885976    14204.995    12121.305    12353.602    12189.273    308.76757    741.69919    1512.0349   -5425.5278 
 6857000    285.52741   -9027.0805   -7938.5198   -9027.0805            0    11338.448    24.746307    24.973961    23.099267    14275.654    12604.405      10346.2    11064.739     29.26568    116.27452   -467.36051   -5577.9028 
 6858000    288.29614   -9026.9385   -7927.8221   -9026.9385            0    12198.961     24.79601    25.035838    22.886531    14207.704    12216.892    12292.248    12087.743    423.13077   -213.32291     344.3784    -5400.139 
 6859000    272.64962   -8997.1666   -7957.7019   -8997.1666            0    10504.391    24.836871    25.041848    22.977906    14291.365    12552.679    8256.6017    10703.893    552.69575    27.081713   -360.68875   -5768.3252 
 6860000    278.70672   -9018.9192    -7956.362   -9018.9192            0    11219.881    24.908171    24.955379    22.901871     14235.64    10957.733    10940.192    11761.717   -659.68212     574.0173   -112.90925   -5626.9779 
 6861000    281.37095   -9006.7584    -7934.044   -9006.7584            0    10841.596    24.821445    24.967142    23.016689    14263.915    11856.487    10394.564    10273.738    612.47705    682.49704    815.38938   -5678.7255 
 6862000    280.20466   -8987.8132   -7919.5452   -8987.8132            0    11841.259    24.798678    24.945947     23.02232    14242.217    12509.524     11849.08    11165.174    138.34187    244.42168   -547.22539   -5460.0194 
 6863000    282.48374    -9017.558   -7940.6011    -9017.558            0    10478.995    24.853234    25.018624    22.924671    14254.416    10596.235    11118.522    9722.2271    293.83828   -733.48263    1323.7189   -5762.1644 
 6864000    294.45311   -8981.6516   -7859.0621   -8981.6516            0     11925.39     24.77111    25.009265    22.963002    14225.746    12295.046    10944.471    12536.654    474.62779   -577.88425    528.42355   -5384.9262 
 6865000     294.7828   -8992.2232   -7868.3768   -8992.2232            0    12007.616    24.725955     25.03669    22.981134    14226.611     13499.82    10741.449    11781.578    279.90222    499.53285    1865.9168   -5377.0304 
 6866000    282.15021   -9033.3148   -7957.6296   -9033.3148            0    12655.491    24.872653    24.980004    22.837709    14189.502    12532.715    12601.203    12832.555   -1297.1451    479.27276    201.75086   -5338.7108 
 6867000    271.20019   -9024.6798    -7990.741   -9024.6798            0    11925.671    24.807294    24.942888    22.938464    14193.532    12595.928    11916.809    11264.276   -194.40796   -497.94176    486.16919   -5522.1498 
 6868000    276.21972   -9039.7212   -7986.6456   -9039.7212            0    11658.486    24.677784    24.941743    23.108307    14223.324     12892.82    12026.474    10056.164     104.9268    435.54981     1540.879   -5568.2957 
 6869000    291.26057   -9040.4092   -7929.9911   -9040.4092            0    11615.727    24.749423    25.013584    22.971764    14221.171    11814.692    11647.658    11384.829   -196.99968    1156.6849     83.55295   -5520.8755 
 6870000    278.06965   -9006.5987   -7946.4703   -9006.5987            0    11536.964    24.831193    24.990981    22.898749    14209.953    11710.585    10397.655    12502.651   -117.18032    -865.4719    -167.3937   -5555.5777 
 6871000    279.71358   -9003.0663   -7936.6705   -9003.0663            0    11754.852    24.742809    25.017073    23.001137    14237.535    12941.311    10557.946    11765.299    104.58545    702.75228   -140.62171   -5495.8949 
 6872000    279.15704   -8957.1339   -7892.8599   -8957.1339            0    12586.473    24.794898    24.894147    23.055005    14230.652    13000.594    12974.483    11784.343    609.11794    793.42032    1024.7292   -5280.6699 
 6873000    280.28044   -9043.0661   -7974.5093   -9043.0661            0    10156.475    24.962858    24.963545    22.905289    14273.693    9152.0855    10023.003    11294.337    372.07601   -495.34675    717.97833   -5860.2646 
 6874000    296.71845   -9019.8835   -7888.6575   -9019.8835            0    9763.2345    25.016587     24.93704    22.919672      14298.2    9720.9775     9896.154    9672.5719   -353.93697    420.81057    22.055229   -5852.7831 
 6875000     290.9196    -8986.139   -7877.0208    -8986.139            0    10960.592    24.923893    24.779878    23.115275    14276.249    11025.836    12066.916    9789.0239   -429.88608   -818.89594   -489.68935   -5594.9768 
 6876000    289.87266   -9033.4702   -7928.3434   -9033.4702            0    10743.374    24.984939    24.916308    22.895319    14253.079    10355.343    10405.782    11468.995   -650.49891    469.46386    174.10334   -5695.1556 
 6877000    289.48482   -9009.3648   -7905.7166   -9009.3648            0    12438.976    24.895116    24.853404    22.926327    14185.169    11172.791    12860.272    13283.863   -92.893871    -1958.089   -1323.1064   -5332.3893 
 6878000    285.07337   -9031.9236   -7945.0939   -9031.9236            0    11967.766     24.98391    24.793552     22.93628    14207.646    10826.087    12666.589     12410.62    694.91884   -754.88177    738.37514   -5465.3257 
 6879000    284.93148   -8992.3312   -7906.0424   -8992.3312            0    12143.606    25.040678    24.842676    22.874751    14229.867    10949.624    14173.386    11307.807    90.469667    -191.7519     862.3024    -5385.904 
 6880000    288.87721   -9085.8994   -7984.5677   -9085.8994            0    10727.585    24.918326    24.785534    23.057487    14240.627    9222.5406    13578.865    9381.3487    196.07311    174.36632   -812.19269   -5756.6099 
 6881000    286.23539   -9064.2404   -7972.9806   -9064.2404            0    11771.064    25.014564    24.968794    22.716099    14188.101    10295.515    12508.125    12509.551   -997.36953    182.90063    673.05054   -5537.3251 
 6882000    284.45882   -9033.5779   -7949.0912   -9033.5779            0    9768.3721    24.841497    24.954517    23.097516    14318.324    11009.899    9893.1795    8402.0377    593.85185    407.24876    894.90772   -5909.2785 
 6883000    280.62025   -9026.8257   -7956.9734   -9026.8257            0    9974.1297    24.913542    25.019289    22.952549    14306.762    10764.818    9582.2502    9575.3208   -1198.7448    763.97072    1424.9922   -5875.8767 
 6884000    280.63671   -9049.2197   -7979.3046   -9049.2197            0    10549.593    24.847606    25.048202    22.957183    14288.272    10634.197    9001.9441     12012.64   -398.93171    -436.3258    1408.4137   -5780.9825 
 6885000    284.35287   -9077.2694   -7993.1866   -9077.2694            0    10678.185    24.882788    24.965804    22.921265    14239.121    10212.044    11359.162    10463.348    610.43021   -518.30019    996.75308   -5775.7229 
 6886000    283.97904    -8996.397   -7913.7394    -8996.397            0    11394.559    24.903011    24.824006    23.039273    14242.706    11152.057    12119.019      10912.6   -3.7068715   -1576.1301   -1025.9129   -5546.9157 
 6887000    283.16944   -9028.3073   -7948.7363   -9028.3073            0    12575.098    24.855439    24.998387    22.814611    14175.765    13266.071    12335.379    12123.843    674.00432   -19.592584   -688.14115   -5348.9733 
 6888000    292.47563   -9036.1195    -7921.069   -9036.1195            0    12533.788    24.839735    24.850232     22.96492    14175.629    12319.497    13301.168      11980.7    1388.0945   -242.86196    42.721642    -5329.871 
 6889000    275.51871   -9025.8473   -7975.4443   -9025.8473            0    11954.225    24.775811    24.870202    23.061468    14210.002    11362.333    12528.958    11971.384   -634.53831    1369.1657    949.26902    -5498.071 
 6890000    295.96794   -9049.7749   -7921.4101   -9049.7749            0    11109.882    24.989436    24.967912    22.788286    14218.387    10370.477    10921.629    12037.541   -80.433188   -523.81126   -715.45693   -5617.6583 
 6891000    282.30909   -9060.6947   -7984.4037   -9060.6947            0    10667.216    25.002537    24.849448    22.993917    14286.103    9284.4017    11155.706    11561.542   -1074.8931   -191.39489   -1370.0107   -5761.9088 
 6892000     277.7118   -9028.4079   -7969.6438   -9028.4079            0    11815.471    24.918556    24.845783    22.973653    14223.472    11058.907    12682.006      11705.5   -592.81177     189.0786   -240.12833   -5518.7046 
 6893000     284.8566   -8999.2454   -7913.2421   -8999.2454            0      12582.5     25.06729    24.800127     22.82919    14192.268    11176.711    13705.022    12865.768    39.544473   -283.00754     1535.421   -5308.9204 
 6894000    285.83136   -9025.4841   -7935.7646   -9025.4841            0    11792.738    24.914257    24.806463    23.034815    14236.312     11853.91    13152.325     10371.98    701.74917    177.20727   -1602.9988   -5487.3326 
 6895000    294.37121   -8977.5604   -7855.2831   -8977.5604            0    12144.034    24.922113    24.947731    22.885697    14229.186    12155.552    11753.459     12523.09    64.658417   -920.81282   -764.13411   -5335.1765 
 6896000    283.05002   -9034.2192   -7955.1035   -9034.2192            0    10776.651    24.967157    25.009615     22.87107     14281.13    10217.735    11481.747    10630.472    259.20223    572.49914     -16.4266   -5710.5896 
 6897000    276.97289   -9002.4908   -7946.5438   -9002.4908            0    11400.888    24.864879    24.908768    23.000615    14245.511    11027.833        10304    12870.832    262.07975   -1283.2422    -199.0452   -5577.9389 
 6898000    293.45862   -9089.9686   -7971.1705   -9089.9686            0    10924.833    24.830038    24.923645    22.969978    14215.087     10760.16    11178.413    10835.927   -30.437199    184.10162    100.56816   -5706.3164 
 6899000    287.00633   -9019.5311   -7925.3321   -9019.5311            0    12018.438    24.770753    24.997421    22.968532    14222.228    12106.939    11682.855     12265.52   -76.957586    -884.4938   -966.89123   -5432.5084 
 6900000    277.82286    -9020.942   -7961.7545    -9020.942            0    10733.239    24.765187    25.112341     23.00616    14307.803    11401.373    9097.4219    11700.923    946.59638    861.91542    458.88633   -5722.1071 
 6901000    288.36033   -9013.5072   -7914.1461   -9013.5072            0    12423.657    24.795631    24.968819     22.96065    14215.343    12025.511    12600.908    12644.551   -70.164906   -335.99798    -123.3311   -5338.5209 
 6902000    283.87278   -9066.1089   -7983.8563   -9066.1089            0    9756.6122    24.839371    24.944845    23.110955    14319.877    9853.5221    10274.664    9141.6501   -248.39225    1040.4762    327.25962   -5946.2784 
 6903000    285.45151   -9010.1689   -7921.8976   -9010.1689            0    10318.824     25.00747    25.003972    22.878031    14305.314     9627.531     10688.82    10640.121     516.2387   -38.843685    537.20452   -5769.0985 
 6904000    279.95663   -9043.7555   -7976.4332   -9043.7555            0    9847.5141    24.758219    24.915855    23.172227    14294.303    10745.321      10342.1    8455.1211   -566.74943   -557.78608   -684.36833   -5923.5441 
 6905000    288.87314   -9046.5627   -7945.2465   -9046.5627            0     10950.57    24.895197    24.996563    22.876317    14235.804    10760.891    11506.001    10584.819   -628.97412     1165.211    -989.5969   -5671.7483 
 6906000    281.33949   -9099.3691   -8026.7746   -9099.3691            0    11655.181    24.808267    24.937723    22.870854    14149.321    11920.107    11091.213    11954.224   -22.653092    609.54191    932.39575   -5621.6891 
 6907000    277.43549   -8990.3696    -7932.659   -8990.3696            0    13344.427      24.8266    24.714241    23.075477    14158.434    12603.455    15052.761    12377.064   -469.39239   -652.77255    951.91268   -5177.2185 
 6908000    283.19665   -9008.2045   -7928.5297   -9008.2045            0    11955.893    25.060921    24.868826    22.812214    14217.385    10089.418    13502.566    12275.694   -1599.8825    284.81116     213.6516   -5449.5234 
 6909000    288.44542   -8997.3254   -7897.6399   -8997.3254            0    11740.503     24.98393    24.739856     23.03074    14235.273     11576.96    13172.484    10472.066    -783.7365   -799.68241   -481.73589    -5460.231 
 6910000     290.4455   -9041.1588   -7933.8481   -9041.1588            0    12478.302    24.949815    24.799801    22.883432    14159.133    11316.186    14133.697    11985.024   -867.72072    -768.5333    762.53408   -5357.1232 
 6911000    288.65241   -9077.1293   -7976.6547   -9077.1293            0    12021.429    24.910574    24.859414    22.875922    14166.195    12121.319     12946.76    10996.207    396.60713    -243.3286    1801.4034   -5493.0344 
 6912000    286.15955   -9026.6631   -7935.6924   -9026.6631            0    11988.069     24.78096    24.929242    22.966242    14187.867    13227.759    11231.779    11504.668   -1552.2525    116.02879    51.467018   -5455.1752 
 6913000    286.05974   -9007.9482   -7917.3581   -9007.9482            0    11689.668    24.849438    24.929702    22.950273    14217.444    11891.163    11349.983    11827.859    367.90608    478.83807    575.19998   -5493.5423 
 6914000    281.55897   -9050.7005   -7977.2693   -9050.7005            0    10067.678    24.866034    25.046303    22.918724    14273.832    9741.0495    9511.4512    10950.532   -417.85271   -1170.2849   -368.84582   -5881.4889 
 6915000    278.64337   -9002.5484   -7940.2328   -9002.5484            0    12013.072    24.837235    25.077212    22.837281    14224.168    13062.402    10099.901    12876.912   -172.66226     182.3119   -360.22159   -5448.1823 
 6916000    283.15767   -8985.1506   -7905.6244   -8985.1506            0    11247.884    24.863462    24.957363    23.018912    14283.844    12043.815    10038.814    11661.025   -664.54523    1168.4527    947.02386    -5562.519 
 6917000    275.40175   -9069.5212   -8019.5642   -9069.5212            0    9592.7117    24.966324    24.949008    22.940326    14289.186    9322.5971    9925.6767    9529.8612    -28.14713   -723.68694    333.42837   -6020.5091 
 6918000    286.39575    -8982.213   -7890.3418    -8982.213            0    9394.6813    24.983907    24.969997    23.052806    14381.449    9345.7957    9130.3595    9707.8889    1142.3099    729.42715    481.32036   -5919.9137 
 6919000    278.48117   -9000.8674   -7939.1702   -9000.8674            0    10902.177    24.955882    24.949218    22.984255    14310.681    11233.458    10594.799    10878.273    663.03042    -900.4643    159.46792    -5663.814 
 6920000    285.23918     -9024.46   -7936.9982     -9024.46            0    11644.637    25.035018    24.873958    22.858416    14234.392    10220.796    12350.989    12362.126    953.23695    1163.7095    1412.9734   -5519.6414 
 6921000    281.45771   -9021.1426   -7948.0975   -9021.1426            0    11734.003     24.94351      24.7885    22.958696    14195.642    12129.768    11196.149    11876.093    714.18922     215.9066   -12.759411   -5518.8199 
 6922000     292.0687   -9057.8109   -7944.3118   -9057.8109            0    11882.299     24.92615    24.845366    22.958347    14218.089    13013.199    11726.129     10907.57    862.12366   -345.09561     1114.433   -5480.4429 
 6923000    285.78084   -9014.4942   -7924.9673   -9014.4942            0     13056.42     24.86747    24.847552    22.918493    14161.239    12909.445    13077.954    13181.861   -164.84206   -254.41009   -608.51742    -5228.462 
 6924000     281.8242    -9031.997   -7957.5546    -9031.997            0    11911.771    24.814887    24.884297    22.986197        14194    12401.922    12361.172     10972.22   -522.00055   -407.31415    962.30774   -5491.7592 
 6925000    275.43411   -8989.8965    -7939.816   -8989.8965            0    11834.207    24.849995    25.137089    22.766023    14220.945     12243.63    10569.291    12689.699   -574.34912    746.03373   -632.25225   -5485.4264 
 6926000    282.11919   -9037.1867   -7961.6197   -9037.1867            0    12135.239    24.800383    24.874284    23.002413    14189.999    13271.176     12661.95     10472.59    688.34565    1409.3305   -329.49387   -5450.2735 
 6927000    291.49305   -9038.6808   -7927.3764   -9038.6808            0    11671.082    24.785364     25.02352    22.913653    14211.438    11971.114    11101.523     11940.61    26.764132   -17.878652   -826.95735   -5508.4367 
 6928000    280.05525   -9005.4544   -7937.7561   -9005.4544            0    10717.616    24.817155    24.983801    23.003421    14262.739     10097.53     11233.78    10821.537   -409.31094    64.112781    484.37235   -5708.4124 
 6929000    288.59254   -9039.3881   -7939.1417   -9039.3881            0    9940.7986    24.854801    25.114969    22.898544    14293.902    10930.309    9097.5366    9794.5506   -885.69327    794.11473    476.47057   -5866.8639 
 6930000    284.43992   -9054.2927    -7969.878   -9054.2927            0    11033.928    24.874868    25.026347    22.891831    14250.785    11540.708    9792.0944    11768.983   -241.77587   -1533.4691     276.3741   -5676.6627 
 6931000    283.81627   -9015.3335   -7933.2964   -9015.3335            0    12851.976    24.740916     24.87287    23.020679     14166.41    14106.593    12795.821    11653.513   -745.57402   -641.22095    945.20549   -5278.0455 
 6932000     288.0778   -8968.7029    -7870.419   -8968.7029            0    13967.997    24.970371    24.893445    22.740401    14135.401     12074.95    14950.412     14878.63   -462.02258    1191.9954    274.27527   -4990.9119 
 6933000    283.29826   -9014.5112   -7934.4491   -9014.5112            0    12042.147    24.890283    24.782828    23.033664    14208.352    11468.331    13872.921    10785.189   -115.33606    -361.7897   -26.810867   -5439.1447 
 6934000    289.13844   -9006.6338   -7904.3063   -9006.6338            0    12896.274    25.007531    24.842278    22.791385    14159.012    12179.161     12982.78    13526.883    886.55833    39.029649   -166.61222   -5241.2944 
 6935000    288.44405   -8963.7383    -7864.058   -8963.7383            0    13986.499    24.794318    24.854917    22.942092     14138.31    14505.706    14452.026    13001.766    291.63656    363.86962   -429.03309   -4980.1433 
 6936000    286.80824   -8966.4203   -7872.9765   -8966.4203            0     13877.96     24.96877    24.937097    22.700924      14134.7    13762.646    12899.122    14972.111    508.49499   -132.92646    373.26522   -5012.1726 
 6937000    277.11282   -9057.2899   -8000.8095   -9057.2899            0    10828.651    24.911396    24.870877    22.990588    14244.239    10034.393    11006.168    11445.392    806.42049   -1329.3274    825.52687   -5751.2913 
 6938000    293.37095   -9028.2575   -7909.7936   -9028.2575            0    11175.661    24.941118    24.899419    22.968491    14263.877    11994.717    10623.865      10908.4    35.988946    436.71668   -241.39242   -5584.9878 
 6939000    279.66216   -9060.2842   -7994.0845   -9060.2842            0    11907.773    24.876662    24.846369    22.963305    14193.497     12241.86    12114.267    11367.191    674.54041   -55.489565   -1144.8591   -5529.2041 
 6940000    280.16715   -8945.6436   -7877.5187   -8945.6436            0    12616.188     25.00235    24.834013    22.890356    14212.821    12520.789    13319.059    12008.716     429.0519   -1296.7021   -406.69113   -5262.4426 
 6941000    287.49623   -9020.5829   -7924.5162   -9020.5829            0    11416.323    24.947589    24.875235    22.938401    14235.048    11103.963     11472.86    11672.144    1014.3203    357.53339   -154.31695   -5554.4469 
 6942000    290.17756   -9005.4034   -7899.1142   -9005.4034            0    11864.974    24.842397    24.956104    22.956027    14232.035    11499.609    12156.089    11939.224   -414.42622   -560.30445    357.36965   -5436.4245 
 6943000    281.78416   -9017.9704   -7943.6807   -9017.9704            0    10805.344    24.832677    24.928638    23.065104    14278.332    11580.565    10891.392    9944.0737   -529.07053    1709.4862    766.44459   -5693.6318 
 6944000    280.51375   -9027.9897   -7958.5434   -9027.9897            0    10328.047    24.892242    25.104137     22.89488     14306.97      10360.7    8666.1949    11957.245   -74.490896   -361.35013   -460.53739   -5803.5707 
 6945000    279.22152   -8999.9881   -7935.4683   -8999.9881            0    12501.674    24.891121    24.987203    22.846528    14209.615    11392.498     12896.19    13216.332   -670.90992    367.60242   -104.69569   -5344.7132 
 6946000    285.21365   -8988.7214   -7901.3569   -8988.7214            0    12891.139    24.857163    24.745757    23.092471    14204.394    13129.701    13855.279    11688.438   -476.15216   -292.96175    676.31987   -5230.8733 
 6947000    283.18413   -9016.2724   -7936.6453   -9016.2724            0    10388.091    25.002661    24.959058    22.878347    14277.069    10173.313    10442.949    10548.013   -1523.2333   -155.48382   -549.50995   -5773.6742 
 6948000    287.93642    -9008.594    -7910.849    -9008.594            0    11278.024    24.857461    24.869762    23.087715    14272.805    9649.6887    12214.334     11970.05   -638.88164   -601.86185    705.05089   -5563.2806 
 6949000    282.74544   -8973.2024   -7895.2479   -8973.2024            0    11678.295    24.877909     24.97504    22.947794    14258.079    12009.466     11372.86     11652.56     518.2627    -671.2586   -526.93897   -5466.8695 
 6950000    286.22326   -9009.2866    -7918.073   -9009.2866            0    12593.748    25.011446     24.91057    22.799902    14205.465    11285.597      13156.7    13338.947     115.3501   -444.45032   -698.80883   -5308.9993 
 6951000    292.30824   -8997.2151   -7882.8028   -8997.2151            0    11993.634     24.86756    24.759747     23.11642    14233.115      12003.8    12121.233     11855.87   -1857.5328    -133.3109   -1398.9742   -5393.2196 
 6952000    287.78589   -9035.4661    -7938.295   -9035.4661            0    12476.934    24.904196    24.885648    22.889454    14185.901     13009.72    11207.835    13213.248   -165.10249   -487.21088   -1158.7138   -5356.9819 
 6953000    283.29845   -9053.9918   -7973.9289   -9053.9918            0    12686.909    24.906855    24.722338    22.981294    14150.863    12326.355     13088.44    12645.933    -717.8095    685.62784    2.0766093   -5355.6576 
 6954000    291.92122   -9029.5686   -7916.6317   -9029.5686            0    11249.194    24.980805    24.825691    22.977551     14249.89    9890.5112    12569.831    11287.241   -861.72433   -591.68001   -277.08714   -5578.8239 
 6955000    278.20053   -9039.2469   -7978.6196   -9039.2469            0    11501.229    24.920247    24.994357    22.846871    14230.529    10942.653    11554.835      12006.2    353.04185   -219.83529    1717.0521   -5591.6812 
 6956000    268.50918   -9048.0644    -8024.385   -9048.0644            0    11945.671    24.790814    24.870219    23.012296    14188.299    13904.294    11447.122    10485.597   -132.48851   -418.33623   -203.68732   -5552.5653 
 6957000    283.37248   -9000.3388   -7919.9937   -9000.3388            0    13645.687    24.961934    24.814218    22.833083     14143.06    12655.662    14987.086    13294.312    177.57475    371.15659   -68.620123   -5105.4067 
 6958000    283.18549   -9005.3935   -7925.7612   -9005.3935            0    11509.585     24.94196    24.861357    22.916419    14210.265    11659.356    11650.261    11219.139   -182.33141    779.13097   -681.31995   -5540.4901 
 6959000    289.46075   -9003.3517   -7899.7953   -9003.3517            0    12048.288    24.913606    24.948345    22.897976    14232.311      12235.3    11574.622    12334.944    924.93961    -110.3808    1744.3765   -5399.0085 
 6960000    285.19497   -8998.1545   -7910.8612   -8998.1545            0    11603.462     24.80584    25.153654    22.808836    14231.745    12786.671     10017.83    12005.885   -288.91746    151.21389    727.08247      -5502.5 
 6961000     303.6297   -9065.7382   -7908.1634   -9065.7382            0    11081.833    24.844486    24.826583    23.089951    14241.967    11287.871    11455.614    10502.016     713.7677   -655.92282   -200.23284    -5606.417 
 6962000    284.42459   -9034.7428   -7950.3866   -9034.7428            0    10774.182    24.958939    24.982938    22.863591    14256.538    11256.568    9371.3975    11694.581    12.817235   -401.40045   -1135.1692   -5710.2511 
 6963000    282.78802   -9026.2814   -7948.1645   -9026.2814            0    11884.059    24.869053    24.943068     22.90104    14205.755    12136.267    10445.805    13070.105    70.349732   -867.29431   -668.43693   -5486.0682 
 6964000    289.34912   -9014.8778    -7911.747   -9014.8778            0    11401.635    24.811599    24.801964    23.153913    14248.371    11906.422    12775.827    9522.6572    164.98013   -710.16073    386.54201   -5542.5114 
 6965000    281.07507   -9029.5327   -7957.9464   -9029.5327            0    11172.593    24.953601    24.964344    22.794089    14199.584    11097.921    11048.219    11371.637    288.94844     460.4835    486.31411   -5644.2548 
 6966000    278.49114   -9029.4963    -7967.761   -9029.4963            0    12194.651    24.709736      24.8718    23.117937    14207.721    13116.173    11785.198    11682.581   -35.104522    176.92409    1032.0002    -5440.968 
 6967000    289.46194    -9013.327    -7909.766    -9013.327            0    11903.693    24.880562    24.927913    22.925641    14218.952    12679.517    10495.861    12535.701   -418.12891    94.468551    129.62117   -5441.3112 
 6968000    281.11807   -8991.9919   -7920.2417   -8991.9919            0    12908.509    24.791141    24.965939    22.862692      14150.5    13738.294    11251.576    13735.656    1214.3805    148.25217     335.2553   -5256.3058 
 6969000    284.93578   -9055.6475   -7969.3423   -9055.6475            0    12047.366    24.863774    24.832671    22.929012     14157.15     11568.16    12202.649    12371.288    137.46061    10.185028    993.81116   -5481.9528 
 6970000     276.5571   -9000.5585   -7946.1967   -9000.5585            0    11776.722    25.121425     24.81786    22.812436    14222.642      10430.5    12346.748    12552.917     -460.831   -232.32839   -583.88161    -5503.438 
 6971000    284.26345   -9020.6676   -7936.9257   -9020.6676            0    11864.047    24.904992    24.830691    23.002653    14225.028    12178.131    11878.053    11535.956   -603.05936    87.604071   -511.40328   -5475.6408 
 6972000    282.34262   -9027.1682   -7950.7493   -9027.1682            0    13395.706    24.925462    24.837805    22.837091      14138.3    13093.169    13538.567    13555.383   -72.957369    79.932631    296.19642   -5188.6538 
 6973000    287.81719   -9036.0654    -7938.775   -9036.0654            0    11336.226    24.862319    24.888311    22.970541    14213.738    10940.691    11776.903    11291.084    960.17356    33.356927    55.224217   -5588.8571 
 6974000     298.3484   -8990.7716   -7853.3315   -8990.7716            0    12730.048    24.726968    24.945979    22.977692    14173.523    14064.135    12220.297    11905.713    -539.0155   -139.36099   -736.78174   -5221.9503 
 6975000    278.70861   -9007.8153    -7945.251   -9007.8153            0    12290.773    24.967946    24.937251    22.782854    14185.332    11246.355    13048.141    12577.824   -796.46606    -786.8693   -190.79297    -5402.554 
 6976000    285.16533   -9016.9081   -7929.7278   -9016.9081            0    12994.688    24.823448    24.844206    22.945251    14150.769    12967.857    13256.012    12760.194   -463.78373   -547.63638     878.1545   -5247.9563 
 6977000     296.8516   -9049.8782   -7918.1445   -9049.8782            0    10503.095    24.903001    24.950774    23.013478    14299.406    11103.601    11138.781    9266.9027    175.55381    93.900648   -1017.3424   -5727.8064 
 6978000    285.88721   -8994.4452   -7904.5128   -8994.4452            0    10869.293    25.021946    24.956987    22.826804    14254.709    9337.1293    11207.845    12062.905   -1177.7888    312.62057    98.041423   -5644.8921 
 6979000    272.11043   -9007.3851    -7969.976   -9007.3851            0    10058.943    25.013893    24.863536    23.030854    14323.668     9649.036    9810.3833    10717.409   -829.13733   -1208.4925   -13.749014   -5868.7031 
 6980000    281.45098   -8995.2647   -7922.2452   -8995.2647            0    10161.719    24.971139    24.961592    22.973217    14319.651     10745.16    9730.4399    10009.557    1038.6916    882.57739   -495.22392    -5800.098 
 6981000    282.73302   -8978.1356   -7900.2284   -8978.1356            0    10235.549     25.07621    24.771084    23.071482    14331.195    9306.3316    12345.104    9055.2109    1.6560143   -288.52761   -992.56065   -5760.9395 
 6982000    283.48313   -8995.8275   -7915.0606   -8995.8275            0    12012.381    24.930433     24.80733    23.021924    14238.081    11046.462     13544.25     11446.43     558.5775   -898.35501   -103.48819   -5420.7161 
 6983000    297.96532   -9042.5936   -7906.6139   -9042.5936            0    11186.701    25.018254    24.909065    22.822647    14222.648    9032.9638     12465.33     12061.81    289.42698    319.95442    64.532762   -5586.2378 
 6984000    285.02991   -8997.7825   -7911.1185   -8997.7825            0    11440.605    25.004801    24.942439    22.814225    14228.793    11640.987    11294.874    11385.955   -412.36195   -675.76312    -803.8071   -5537.0515 
 6985000    269.71407   -9001.2341   -7972.9611   -9001.2341            0    11114.282    24.939884    24.836326    23.026128    14262.731    9712.6957    13317.698    10312.453   -484.19215   -184.83559    16.522171   -5661.1092 
 6986000     282.6377   -8986.5573   -7909.0135   -8986.5573            0    11846.597    24.915656    24.979681    22.838168    14214.136    10678.898    11714.558    13146.336   -401.56185   -1136.0247   -258.81528   -5453.2305 
 6987000    286.68557   -9032.3022   -7939.3261   -9032.3022            0    11845.073    24.798466    24.877592    22.990793     14183.62    13828.814    11219.087    10487.319   -565.58739   -192.97501   -577.49459   -5489.1306 
 6988000    300.55975   -9005.7013   -7859.8304   -9005.7013            0     10345.74    24.770952    25.143392    22.962821    14301.836    11538.513    9368.7074    10129.999   -1451.9175   -752.46107    -1420.388   -5701.9408 
 6989000    286.68954   -9020.9023   -7927.9111   -9020.9023            0    10608.447    24.799599    25.114009    22.921264    14275.761    10892.722    9491.6781    11440.942     -650.376    313.67132   -139.58178   -5719.2607 
 6990000    293.97203   -9019.2487   -7898.4932   -9019.2487            0     10440.49    24.744555    25.025163    23.070417    14286.045    12185.364     9809.224    9326.8815     282.6595   -298.79031   -147.45927   -5723.2453 
 6991000    283.73665   -8997.4226   -7915.6891   -8997.4226            0    11600.701    24.868367     24.98189    22.945487    14255.086    11489.984    10622.484    12689.634   -32.943215   -206.19901    1188.7283   -5503.9521 
 6992000     290.0668   -8997.2484   -7891.3815   -8997.2484            0    12550.753    24.761092    25.016272    22.914516    14193.943     13953.73     10867.49    12831.041    470.31388    74.334751   -373.40659    -5293.324 
 6993000    290.03307   -9043.6316   -7937.8932   -9043.6316            0    11598.621    24.778976    24.879275    23.013685    14187.544     11336.75    11539.837    11919.276    566.64375     -995.788    326.63657   -5538.0135 
 6994000     278.6998   -9024.1894   -7961.6587   -9024.1894            0    11359.433    24.990426    24.989097    22.791812    14233.217    11289.146    10121.282    12667.871    695.68473    77.815432   -365.95222   -5603.7031 
 6995000    287.93782   -9012.6272    -7914.877   -9012.6272            0    11541.992    24.926476    24.852771    22.966692    14227.682    10950.124    12297.213    11378.641   -1009.8745   -510.02219    50.016698    -5519.958 
 6996000    292.84702   -9051.1428   -7934.6764   -9051.1428            0    12236.462    24.925629    24.760426    22.941836    14158.994    10849.326    14181.782    11678.279    413.39949    428.01773   -376.62868   -5407.9154 
 6997000    290.55295   -8987.0839   -7879.3636   -8987.0839            0        11804    24.976198    24.875036     22.92605    14243.584    11303.398    12885.798    11222.803    209.82435    7.2577742   -1571.7912   -5427.3416 
 6998000     271.3056   -9016.7991   -7982.4584   -9016.7991            0    10963.343    25.034364    24.714876    23.064774    14270.665    9958.7647    12888.777    10042.486   -378.74193     18.45096    1027.0737   -5700.7345 
 6999000    273.57115   -9045.1257   -8002.1477   -9045.1257            0    11937.841    24.931744    24.904429     22.86102    14194.655    10673.352    12287.532    12852.638   -618.67698    432.37157   -618.85236   -5530.8417 
 7000000    293.86302   -9018.3352   -7897.9954   -9018.3352            0    10891.182    24.910802       24.943    22.967615    14270.931    10215.641      11264.3    11193.603   -55.098772   -428.71656   -272.01899   -5631.2476 
Loop time of 585.151 on 64 procs for 250000 steps with 1920 atoms

Performance: 73.827 ns/day, 0.325 hours/ns, 427.240 timesteps/s
194.5% CPU use with 32 MPI tasks x 2 OpenMP threads

MPI task timing breakdown:
Section |  min time  |  avg time  |  max time  |%varavg| %total
---------------------------------------------------------------
Pair    | 70.445     | 75.761     | 80.227     |  26.9 | 12.95
Bond    | 0.83957    | 1.2201     | 1.5784     |  17.1 |  0.21
Kspace  | 266.03     | 278        | 293.46     |  41.6 | 47.51
Neigh   | 6.0243     | 7.3529     | 8.8131     |  29.8 |  1.26
Comm    | 90.685     | 104.16     | 116.55     |  72.5 | 17.80
Output  | 0.56788    | 0.56816    | 0.56965    |   0.0 |  0.10
Modify  | 97.401     | 102.32     | 107.28     |  23.4 | 17.49
Other   |            | 15.77      |            |       |  2.69

Nlocal:        60.0000 ave          65 max          56 min
Histogram: 1 4 3 4 7 6 4 1 1 1
Nghost:        3381.59 ave        3430 max        3357 min
Histogram: 2 8 6 5 4 5 0 1 0 1
Neighs:        21289.6 ave       22881 max       19830 min
Histogram: 1 6 1 4 5 4 7 1 1 2

Total # of neighbors = 681268
Ave neighs/atom = 354.82708
Ave special neighs/atom = 2.0000000
Neighbor list builds = 13762
Dangerous builds = 1

unfix		3
unfix		2
unfix		1

write_data	data.final.${pid}
write_data	data.final.0
System init for write_data ...
PPPM initialization ...
  extracting TIP4P info from pair style
  using 12-bit tables for long-range coulomb (../kspace.cpp:340)
  G vector (1/distance) = 0.37448477
  grid = 30 30 30
  stencil order = 5
  estimated absolute RMS force accuracy = 0.0032678773
  estimated relative force accuracy = 9.8411155e-06
  using double precision FFTW3
  3d grid and FFT values/proc = 5400 960
Last active /omp style is kspace_style pppm/tip4p/omp
WARNING: Not all mixed pair coeffs generated from mixing. Use write_data with 'pair ij' option to store all pair coeffs. (../write_data.cpp:312)

write_restart   restart.lmp.${pid}
write_restart   restart.lmp.0
System init for write_restart ...
PPPM initialization ...
  extracting TIP4P info from pair style
  using 12-bit tables for long-range coulomb (../kspace.cpp:340)
  G vector (1/distance) = 0.37448477
  grid = 30 30 30
  stencil order = 5
  estimated absolute RMS force accuracy = 0.0032678773
  estimated relative force accuracy = 9.8411155e-06
  using double precision FFTW3
  3d grid and FFT values/proc = 5400 960
Last active /omp style is kspace_style pppm/tip4p/omp
Total wall time: 0:09:45
