LAMMPS (30 Jul 2021)
Processor partition = 0
  using 2 OpenMP thread(s) per MPI task
using multi-threaded neighbor list subroutines
variable        pid world 0 1
variable        phase world IceII IceIh

shell cd ${phase}
shell cd IceII
include Restart.lmp
echo both
log log.lammps
#include		in.partitions
include		in.temp
variable        temperature equal 132.60
variable	tempDamp equal 100.0
include		in.pressure
variable        pressure equal 2056.9
variable        pressureDamp equal 1000.0 # This is 1 ps
include		in.seed
variable        seed equal 745823

units		real
atom_style	full
box tilt large
read_restart	restart.lmp.${pid}
read_restart	restart.lmp.0
Reading restart file ...
  restart file = 30 Jul 2021, LAMMPS = 30 Jul 2021
  restoring atom style full from restart
  triclinic box = (-10.652657 -9.2430498 0.092098062) to (12.632657 12.233048 21.767901) with tilt (-9.1777055 1.8077627 2.8823408)
  2 by 4 by 4 MPI processor grid
  restoring pair style lj/cut/tip4p/long/omp from restart
  restoring bond style harmonic/omp from restart
  restoring angle style harmonic/omp from restart
  1296 atoms
  864 bonds
  432 angles
Finding 1-2 1-3 1-4 neighbors ...
  special bond factors lj:    0        0        0       
  special bond factors coul:  0        0        0       
     2 = max # of 1-2 neighbors
     1 = max # of 1-3 neighbors
     1 = max # of 1-4 neighbors
     2 = max # of special neighbors
  special bonds CPU = 0.003 seconds
  read_restart CPU = 0.008 seconds
include 	in.setup
variable	out_freq equal 1000
variable	out_freq2 equal 10000
variable	out_freq3 equal 1000

timestep	2.0

neigh_modify    delay 7 every 1

include		in.tip4p
# This is TIP4P/Ice

# create groups ###
group ox type 2
432 atoms in group ox
group hy type 1
864 atoms in group hy

# set charges - beside manually ###
set group ox charge -1.1794
Setting atom values ...
  432 settings made for charge
set group hy charge 0.5897
Setting atom values ...
  864 settings made for charge

# ### TIP3P Potential Parameters ###
pair_style lj/cut/tip4p/long/omp 2 1 1 1 0.1577 8.5
pair_coeff 1 1*2 0.000 0.000
pair_coeff 2 2 0.21084 3.1668
bond_style  harmonic
bond_coeff  1 450 0.9572
angle_style harmonic
angle_coeff 1 55 104.52
kspace_style pppm/tip4p/omp 1.0e-5
pair_modify tail yes

thermo          ${out_freq}
thermo          1000
thermo_style    custom step temp pe etotal epair emol press lx ly lz vol pxx pyy pzz pxy pxz pyz enthalpy

restart 	${out_freq3} restart.lmp.${pid} restart2.lmp.${pid}
restart 	1000 restart.lmp.${pid} restart2.lmp.${pid}
restart 	1000 restart.lmp.0 restart2.lmp.${pid}
restart 	1000 restart.lmp.0 restart2.lmp.0


include         in.dump
dump            myDump all atom ${out_freq2} dump.water.${pid}
dump            myDump all atom 10000 dump.water.${pid}
dump            myDump all atom 10000 dump.water.0
dump            myDump2 all dcd ${out_freq2} dump.dcd
dump            myDump2 all dcd 10000 dump.dcd
dump_modify     myDump append yes
dump_modify     myDump2 append yes


variable natoms 	equal  "count(all)"                        # NUMBER ATOMS
variable H      	equal  "enthalpy/v_natoms"                 # ENTHALPY-per-atom
variable Vol      	equal  "vol/v_natoms"                 # volume-per-atom
fix AVG all 		ave/time ${out_freq} 1 ${out_freq} v_Vol v_H file vol_enthalpy.dat
fix AVG all 		ave/time 1000 1 ${out_freq} v_Vol v_H file vol_enthalpy.dat
fix AVG all 		ave/time 1000 1 1000 v_Vol v_H file vol_enthalpy.dat


timer           timeout 10:00:00 every 1000
New timer settings: style=normal  mode=nosync  timeout=10:00:00

fix 		1 all shake 1e-6 200 0 b 1 a 1
Finding SHAKE clusters ...
       0 = # of size 2 clusters
       0 = # of size 3 clusters
       0 = # of size 4 clusters
     432 = # of frozen angles
  find clusters CPU = 0.001 seconds
fix             2 all nph tri ${pressure} ${pressure} ${pressureDamp}
fix             2 all nph tri 2056.9 ${pressure} ${pressureDamp}
fix             2 all nph tri 2056.9 2056.9 ${pressureDamp}
fix             2 all nph tri 2056.9 2056.9 1000
fix             3 all temp/csvr ${temperature} ${temperature} ${tempDamp} ${seed}
fix             3 all temp/csvr 132.6 ${temperature} ${tempDamp} ${seed}
fix             3 all temp/csvr 132.6 132.6 ${tempDamp} ${seed}
fix             3 all temp/csvr 132.6 132.6 100 ${seed}
fix             3 all temp/csvr 132.6 132.6 100 745823


run             250000
PPPM initialization ...
  extracting TIP4P info from pair style
  using 12-bit tables for long-range coulomb (../kspace.cpp:340)
  G vector (1/distance) = 0.36786143
  grid = 27 40 32
  stencil order = 5
  estimated absolute RMS force accuracy = 0.004391816
  estimated relative force accuracy = 1.3225823e-05
  using double precision FFTW3
  3d grid and FFT values/proc = 6783 1120
Last active /omp style is kspace_style pppm/tip4p/omp
Neighbor list info ...
  update every 1 steps, delay 7 steps, check yes
  max neighbors/atom: 2000, page size: 100000
  master list distance cutoff = 10.8154
  ghost atom cutoff = 10.8154
  binsize = 5.4077, bins = 7 5 5
  1 neighbor lists, perpetual/occasional/extra = 1 0 0
  (1) pair lj/cut/tip4p/long/omp, perpetual
      attributes: half, newton on, omp
      pair build: half/bin/newton/tri/omp
      stencil: half/bin/3d/tri
      bin: standard
Setting up Verlet run ...
  Unit style    : real
  Current step  : 21500000
  Time step     : 2
  Walltime left : 9:59:59.94
Per MPI rank memory allocation (min/avg/max) = 10.59 | 10.59 | 10.60 Mbytes
Step Temp PotEng TotEng E_pair E_mol Press Lx Ly Lz Volume Pxx Pyy Pzz Pxy Pxz Pyz Enthalpy 
21500000    136.51252    -6637.655   -6286.4848    -6637.655            0    2136.6947    23.285314    21.476098    21.675803    10839.585    2295.4747    1705.1823     2409.427    171.83316    258.86411    321.74931   -5948.7071 
21501000    138.72483   -6681.4977   -6324.6365   -6681.4977            0    1547.6602    23.191618    21.527067      21.7099    10838.613    1945.1586    1409.9494    1287.8728   -54.690013    -1.110104    -110.8049   -6079.9978 
21502000    139.39327   -6683.6815   -6325.1008   -6683.6815            0    3042.2365    23.139569    21.455808    21.732787    10789.854     3258.608    2464.5099    3403.5916   -62.596263    1210.3391   -787.32445   -5846.3776 
21503000      131.764   -6666.3928    -6327.438   -6666.3928            0    1323.6968     23.28864    21.485669    21.698326    10857.235    1398.7302    1187.3715    1384.9887    351.36708     656.4508    597.86457   -6117.8417 
21504000    128.79892   -6672.4987   -6341.1713   -6672.4987            0     2160.132    23.174251    21.440029    21.795318    10829.148    3049.8268    1997.8536    1432.7154   -1001.5938    201.64174   -620.63089   -6000.0173 
21505000    131.34617   -6666.5235   -6328.6435   -6666.5235            0    2160.9976    23.307062      21.4436    21.604729     10797.77     2004.151    1047.5739    3431.2678   -837.44616    1610.6906    -684.1803   -5988.3417 
21506000    136.36752   -6665.5398   -6314.7427   -6665.5398            0    1850.6481    23.145086    21.470342    21.783314    10824.846    3742.4152    1197.9272    611.60193   -863.82955   -948.47407    433.45976   -6022.5822 
21507000    130.35382   -6669.9646   -6334.6373   -6669.9646            0    1812.5407    23.249929     21.52964    21.671834    10848.109    2058.9267    1266.4848    2112.2107   -81.417635    1256.3267    25.820914   -6047.8779 
21508000    138.12501   -6676.1765   -6320.8583   -6676.1765            0    3157.9835    23.193202      21.4281    21.687193    10778.237    3405.6636    3470.2035    2598.0835    32.297911   -937.98298   -391.37853   -5824.4564 
21509000    133.10053   -6646.2779   -6303.8848   -6646.2779            0    1766.7604    23.187145    21.466298    21.757978    10829.863    1925.4616    1374.2728    2000.5469   -275.78564    853.97728    250.11952   -6024.8384 
21510000    131.48787   -6659.7643   -6321.5198   -6659.7643            0    1924.5781    23.284753    21.550302    21.604516    10841.004    2295.1598     2152.546    1326.0284    810.80847   -632.54672   -756.12332   -6017.2345 
21511000    138.29606   -6686.3641    -6330.606   -6686.3641            0    1195.3321    23.235732    21.478415    21.768221    10863.794    1658.9483     729.7834    1197.2645   -297.08546    179.93776     257.8012   -6141.2208 
21512000    134.45559   -6647.6086   -6301.7298   -6647.6086            0    2248.0291    23.203507    21.427417    21.791944    10834.763    1918.6167    2169.6949    2655.7757    1407.4459    108.49989    1027.5615   -5946.5099 
21513000    138.75292    -6671.316   -6314.3825    -6671.316            0    1813.9421    23.267591    21.477947    21.750316    10869.505     2194.237    1459.4602     1788.129   -393.74545    264.79811    587.76746   -6026.8354 
21514000    129.09539    -6670.029    -6337.939    -6670.029            0    1685.3924    23.300335    21.457636    21.705003    10851.853    2592.3529    1384.4989    1079.3253   -63.688265   -256.05726     -410.882   -6071.2035 
21515000    133.12296   -6668.3082   -6325.8575   -6668.3082            0    1872.3978    23.316374    21.424271    21.703067     10841.47       928.64     2683.772    2004.7813    810.21195   -317.44729    528.60349   -6029.8095 
21516000    127.90886   -6656.8239   -6327.7861   -6656.8239            0    1337.4394    23.340548    21.458497    21.728003    10882.537    1905.1613    1150.7139    956.44306    623.83538   -477.66816    316.46161   -6115.5203 
21517000    137.07161   -6677.1484     -6324.54   -6677.1484            0    2240.5679    23.298175    21.405107    21.728797    10836.149    2021.7917    2507.9797    2191.9324   -142.32209    309.03995   -318.28493   -5970.4538 
21518000    133.13679   -6685.8784   -6343.3921   -6685.8784            0    1550.9101     23.30995    21.362228    21.768595    10839.726    635.82478    2583.7319    1433.1736    66.587366   -122.89515    251.56775   -6098.2145 
21519000    135.72151    -6677.194   -6328.0587    -6677.194            0    3069.0928    23.266205    21.310779    21.728531    10773.461    2736.8641    3949.4964    2520.9181    689.66846     344.6578   -280.50768   -5845.8432 
21520000    133.98516   -6680.0126    -6335.344   -6680.0126            0    1608.6188    23.264782    21.393085     21.79671    10848.342     2251.479    1937.8861    636.49122      -1091.8    329.42664    183.53003   -6080.8413 
21521000    128.36774   -6675.2165   -6344.9983   -6675.2165            0    1826.6264    23.300783    21.393792    21.737293    10835.869    2297.4132    1908.0091     1274.457    1163.3838    72.593784    314.04878   -6056.3365 
21522000    131.74509   -6661.7561   -6322.8499   -6661.7561            0    2523.9774    23.240585    21.462882    21.673077    10810.746     3113.233    2269.7209    2188.9784   -112.16474   -1085.3267   -314.83566   -5924.9104 
21523000    130.54053   -6673.8349   -6338.0273   -6673.8349            0     1184.979    23.173895    21.451364    21.866295     10869.99    1804.7742    848.09596    902.06674   -361.31768   -317.84416    717.78136   -6150.1754 
21524000    136.74401    -6641.764   -6289.9983    -6641.764            0    2356.4548    23.283543    21.501155    21.673091    10850.049    1455.0459    2071.3108    3543.0077    557.47948    444.74303   -213.54491   -5917.1204 
21525000    138.67483    -6661.709   -6304.9764    -6661.709            0    1021.1484     23.29115    21.565751    21.667942    10883.615    645.26558    1020.0013    1398.1782    72.629433   -387.66451   -183.85463   -6142.8932 
21526000    134.22514   -6649.3551   -6304.0691   -6649.3551            0    2769.4236    23.107894    21.431233    21.857199    10824.355    3187.0426     4007.483    1113.7454    1085.6561    426.60749   -814.54289    -5866.882 
21527000    133.47991   -6658.3065   -6314.9375   -6658.3065            0    2013.6651    23.266843    21.568143    21.583024    10830.849    2239.8457    921.20236    2879.9473   -747.76171    362.82325    3.4354737   -5996.8654 
21528000      131.178   -6683.4004    -6345.953   -6683.4004            0    1157.5764    23.233746     21.48513    21.748876    10856.605    1413.1366     714.9607    1344.6318   -626.48598    224.49281    116.36638   -6162.6711 
21529000     132.4449   -6674.5739   -6333.8674   -6674.5739            0     3019.759    23.066593     21.49526    21.746545    10782.424    3732.9458     2444.887    2881.4441    756.26378   -356.82984   -116.00482   -5859.0085 
21530000    140.98396   -6664.3278   -6301.6552   -6664.3278            0    2348.3093    23.162092    21.582611    21.602393    10799.002    2176.0424    1584.7347    3284.1507    539.35346    246.82765    350.06143   -5931.8144 
21531000    131.86655   -6652.2272   -6313.0085   -6652.2272            0    2444.4026    23.108459    21.532162    21.778103    10836.241    3632.3938    1401.0531     2299.761    59.764859    476.08454    467.76472   -5926.7062 
21532000    130.97044    -6651.903   -6314.9896    -6651.903            0    2909.4288    23.173723    21.573091     21.61498    10805.952    2267.2467    1713.6662    4747.3734    13.382496   -323.73968    920.09148   -5856.4819 
21533000    133.49972   -6670.1059    -6326.686   -6670.1059            0    1904.7906    23.034399    21.613685    21.746262    10826.556    2512.0068    2619.9918    582.37331    221.96243    350.29152   -581.03464   -6025.9306 
21534000    130.00728   -6668.2987   -6333.8629   -6668.2987            0    2191.6802    23.179256    21.556407    21.659736    10822.536    3386.9991    620.80721    2567.2343   -143.89935   -688.53734    5.9263354   -5987.9378 
21535000    130.40699   -6676.6357   -6341.1717   -6676.6357            0    1872.0224    23.121012    21.576633    21.715498    10833.289     2246.821    1437.9118    1931.3345   -218.86389    815.29384   -82.822666   -6045.4064 
21536000    132.71319    -6679.426   -6338.0294    -6679.426            0    1380.3206    23.205922    21.608772    21.657293    10860.082    1661.5634    608.88765    1870.5107   -418.98568   -185.21556    577.80764   -6119.4098 
21537000    136.25378   -6669.7917   -6319.2872   -6669.7917            0    2717.6847    23.004168    21.632937    21.696649    10797.287    3864.0065    2028.7676      2260.28    -383.2907   -570.77596   -472.90364   -5891.3406 
21538000    131.16231   -6662.3683   -6324.9613   -6662.3683            0    2576.7975    23.133517    21.571419    21.663077    10810.369    3248.7971    1904.0555    2577.5399   -6.9519662   -923.94751   -176.58644   -5918.7081 
21539000    128.10339    -6651.053   -6321.5148    -6651.053            0    2338.5208     23.22229    21.530791    21.628497    10814.125    2408.4366    2042.8725    2564.2532   -339.58495    491.96728   -445.90763   -5952.6999 
21540000    132.43369   -6676.5539   -6335.8763   -6676.5539            0    1985.7681    23.065071     21.47678    21.876906     10837.02    3180.8765    968.56935    1807.8585    889.98234    74.447594    108.01683   -6022.0319 
21541000    131.37128   -6673.6623   -6335.7176   -6673.6623            0    2783.8619    23.226096    21.434944    21.686347    10796.549    3266.9409    2054.0491    3030.5957   -396.97039     457.4805    572.70078   -5897.3802 
21542000     132.3356   -6669.3253      -6328.9   -6669.3253            0    2616.1671    23.280854    21.481627     21.63385    10819.318    2408.4306     2893.789    2546.2819    464.37972    -133.4054   -780.59269   -5916.0985 
21543000    137.25225   -6670.0418   -6316.9688   -6670.0418            0    2268.4199    23.177301    21.449339    21.786309    10830.797    2493.8702    2696.0783    1615.3112    253.82062    460.40502   -124.80904   -5958.6581 
21544000    132.77535   -6663.3695   -6321.8131   -6663.3695            0    2009.3332    23.317413    21.439613    21.655351    10825.863    2482.1254     1173.734    2372.1403    252.55519    1004.4271    531.36127   -6004.5713 
21545000    122.20937   -6677.6091    -6363.233   -6677.6091            0    2305.7097    23.208751    21.475275    21.717543    10824.334    3320.3126    1361.8507    2234.9658   -198.01754   -984.56218   -393.31378   -5999.2495 
21546000     135.0396   -6669.9583   -6322.5771   -6669.9583            0    1012.8453     23.24675    21.502915     21.76207    10878.269    1501.2387    689.89243    847.40475   -5.1282688    -364.1937   -183.19489   -6161.8908 
21547000    128.71007   -6668.4489   -6337.3501   -6668.4489            0    2150.1902    23.226721    21.484089    21.659935    10808.414    1862.3271    1281.4218    3306.8217   -229.62657     791.8482    1177.3165   -5998.4164 
21548000    133.66548    -6658.706   -6314.8597    -6658.706            0    2009.3666    23.231769    21.516146    21.690866    10842.356    2978.4466    808.14763    2241.5055   -838.24477    626.81958    435.50651   -5997.1293 
21549000    133.17249   -6657.1954   -6314.6173   -6657.1954            0     950.1245    23.259438    21.498023    21.768955    10885.173    1332.7914    1583.5293   -65.947163    36.828176    94.338063   -662.95626   -6163.7859 
21550000    135.00743    -6666.744   -6319.4456    -6666.744            0    3218.4929    23.250688    21.426366    21.628516    10774.845    4106.8633    2430.9711    3117.6442    269.16798   -629.94532    646.45741   -5813.6914 
21551000    136.02534   -6663.8401   -6313.9232   -6663.8401            0    1528.9382    23.246893    21.422632    21.778841    10846.073    1211.6422     1932.069    1443.1035   -20.737582    -63.91568   -433.02141   -6072.0775 
21552000    132.06293   -6676.4381   -6336.7142   -6676.4381            0    2421.0984    23.441317    21.335461    21.563805    10784.734    2135.5401    2637.1725    2490.5826   -95.985554    120.32976    -107.0283   -5955.9135 
21553000    132.06437   -6673.5184   -6333.7909   -6673.5184            0    2598.3245    23.346399    21.258305    21.759372    10799.282    1929.2713    2739.6836    3126.0187    596.00559    159.56908    661.97278    -5924.564 
21554000    134.28184   -6661.1757   -6315.7438   -6661.1757            0    1660.6063    23.366722    21.348127    21.772674    10860.989    627.84535    2093.7838    2260.1898    54.682005    416.42745    605.57077   -6052.7098 
21555000    133.94805    -6663.611   -6319.0378    -6663.611            0    2616.7029    23.401586    21.346436    21.610646    10795.392    2063.6979    2929.5846    2856.8264   -1373.6823   -395.91776   -530.90893   -5907.0648 
21556000    130.90776   -6641.8815   -6305.1293   -6641.8815            0    1530.8277     23.34328     21.23291    21.895878    10852.599    1917.7303    1467.7146    1207.0382    305.53462    623.66316    921.44588    -6062.839 
21557000    134.31625   -6670.4684   -6324.9481   -6670.4684            0    2955.4657    23.332212    21.310567    21.702828    10791.138    2504.8047    3647.0097    2714.5828   -681.74777    79.707574   -159.16381   -5859.8237 
21558000    130.12001   -6665.8996   -6331.1738   -6665.8996            0    2259.3247     23.39123    21.390854    21.621206    10818.352    1543.4405    2099.4215    3135.1121   -36.538943   -583.79144   -253.06131   -5974.7098 
21559000    135.07816   -6673.7902   -6326.3099   -6673.7902            0    1309.0892    23.236065    21.279697    21.948459    10852.557     1929.205    1542.2466    455.81609   -488.77572   -225.02701    2.0501442   -6119.1159 
21560000    125.07709    -6669.402   -6347.6488    -6669.402            0    2128.9786    23.430169    21.351423    21.667513    10839.552    1499.5983    2406.3255    2481.0118   -361.49338    150.95036    -67.66946   -6011.0919 
21561000    131.54809   -6666.2352   -6327.8357   -6666.2352            0     2328.567    23.370283    21.323956    21.702062    10815.155    1462.9101    3204.0154    2318.7756    161.25402    28.936144   -63.217525   -5960.5556 
21562000    134.02316   -6663.2005   -6318.4341   -6663.2005            0    777.88185    23.346812    21.325223    21.883941    10895.489    1183.1544       793.03    357.46119    56.277826    -669.8377   -234.54749    -6194.829 
21563000    138.02051     -6653.59   -6298.5407     -6653.59            0    2892.4103    23.432706    21.345246      21.5756    10791.616    1779.5586    3366.0726    3531.5995    1033.4106   -324.87905   -266.58542   -5843.3197 
21564000    134.19988   -6679.0496   -6333.8286   -6679.0496            0    2920.8656    23.309509    21.319424    21.708486     10787.93    2863.7154    2861.8637    3037.0177   -1524.2159     774.2609    279.05578   -5874.2862 
21565000    127.66874   -6680.5075   -6352.0875   -6680.5075            0     2140.193    23.334683    21.326801    21.748687    10823.324    2131.4448     2342.787    1946.3472    611.51392   -230.38851    484.21206   -6014.2642 
21566000    131.15418   -6646.4674   -6309.0812   -6646.4674            0    2958.7128    23.307794     21.33248    21.733641     10806.25     2642.516    3730.8851    2502.7373   -805.20098    64.703936   -898.22997   -5842.7938 
21567000    129.67967   -6682.4756   -6348.8825   -6682.4756            0    2955.9654    23.295891    21.348932    21.689191    10786.954    3109.8337    2388.0822    3369.9804   -307.10428   -47.734783   -66.790758   -5883.8599 
21568000    128.44588    -6674.157   -6343.7378    -6674.157            0    2385.5917    23.378316    21.314928    21.688522    10807.545     2083.972    3037.9106    2034.8924   -286.86274    586.77828   -694.71204   -5967.7281 
21569000    125.48616   -6675.9612   -6353.1557   -6675.9612            0    3031.8418    23.327386    21.329579    21.675811    10785.089    3150.9176    3618.6547    2325.9532   -865.45291   -1034.1149     -239.998    -5876.279 
21570000      128.782   -6657.9873   -6326.7034   -6657.9873            0    2124.6099    23.307045    21.363984    21.735007    10822.541     2644.145    2459.5563    1270.1285   -168.40162   -189.13625   -2.2551674   -5991.3642 
21571000     134.1704   -6669.3508   -6324.2056   -6669.3508            0    2137.6124    23.364378    21.404843    21.667981    10836.393     1382.477    2445.7053    2584.6549   -215.26241   -378.96154   -178.38743   -5986.3824 
21572000    140.75706   -6661.5856   -6299.4967   -6661.5856            0    1612.2213    23.305237    21.412583    21.767776    10862.672     2504.053    1193.7376    1138.8733    392.47674   -1007.3952   -342.06522   -6044.0871 
21573000    128.94506   -6672.5833     -6340.88   -6672.5833            0    1916.6129    23.301264    21.377185    21.712364    10815.264     2031.795     1820.907    1897.1366   -330.50455   -115.24479    250.14677   -6038.5735 
21574000    134.76958   -6678.7598   -6332.0733   -6678.7598            0    1367.3714     23.32329    21.426705    21.705222    10846.995     958.3247    1502.3312    1641.4584   -129.86778    97.793601     300.2214   -6115.7657 
21575000    132.27013    -6670.139   -6329.8822    -6670.139            0    1806.0682    23.357579    21.336737    21.714441    10821.924    1294.6393    1416.7079    2706.8575   -1125.7953    1437.3022    193.81028   -6044.8365 
21576000    135.84369    -6675.451   -6326.0014    -6675.451            0    2555.1113    23.351896    21.336598    21.677334    10800.732    1666.3141    3247.5225    2751.4971      787.416   -399.28572    544.50406   -5923.5264 
21577000    127.42274   -6665.4076   -6337.6203   -6665.4076            0    2244.4981    23.280596    21.431014    21.696124    10824.777     1729.817    2757.0815    2246.5959   -641.17983    1109.3289   -870.57849   -5983.2853 
21578000    132.23398   -6644.2263   -6304.0625   -6644.2263            0    1832.7925    23.319111    21.413448    21.712723    10842.087    711.63187    3005.3002    1781.4455    732.54294    -427.7992   -140.37394     -6014.26 
21579000    129.46461   -6675.0511   -6342.0113   -6675.0511            0    2339.3166    23.298097    21.405816    21.682348    10813.308    1814.3845    1830.9377    3372.6276    553.92837    -194.2081    39.655535   -5973.0987 
21580000    133.55154   -6649.8832   -6306.3299   -6649.8832            0     2333.411     23.29251    21.502959    21.658237    10847.699    2337.8419    1490.6777    3171.7135   -205.24105    375.48894    229.31754   -5937.1784 
21581000    131.18905   -6673.9897   -6336.5138   -6673.9897            0    1738.2663    23.263319    21.445973    21.728976    10840.684    2331.4766     1221.737    1661.5852   -303.18073     367.3659    351.99066   -6061.6935 
21582000    130.92934   -6671.7457   -6334.9379   -6671.7457            0    2480.0552    23.207815     21.43969    21.690661    10792.587    2537.8435    2023.1546    2879.1673    328.58412    -239.1384    523.56812   -5944.5802 
21583000    129.04608   -6657.6047   -6325.6415   -6657.6047            0    1777.3523    23.197702    21.550661    21.716845    10856.812    1874.4137    1634.3545    1823.2885    986.19279   -368.13719   -718.84823   -6044.2236 
21584000    142.68354   -6666.5278   -6299.4831   -6666.5278            0    1641.2803    23.180397    21.515399    21.765421    10855.188    893.77027    2476.9478    1553.1227    264.64493    771.92596   -402.87677   -6039.6491 
21585000    130.73684   -6668.0544   -6331.7418   -6668.0544            0    2469.0565    23.210876    21.481313    21.678195     10808.75    3193.0637    1755.3123    2458.7933   -1296.3402   -565.41362   -241.37264   -5942.5333 
21586000    131.64494   -6673.3618   -6334.7132   -6673.3618            0    1992.5805    23.140211    21.533382    21.750842    10838.162    1943.6812    2556.8478    1477.2126   -20.256969    484.95165   -707.59112    -6019.759 
21587000    129.40627   -6675.8779   -6342.9881   -6675.8779            0     2307.253     23.08534    21.517616    21.754509    10806.367    2967.4171    2323.3967    1630.9451   -320.60514    492.94932    760.14883   -5979.3656 
21588000    136.29311   -6675.5265   -6324.9208   -6675.5265            0    2597.0025    23.183691    21.518408    21.654468    10802.897    2664.4205    2175.1635    2951.4235   -512.28061    456.66434   -54.304984   -5915.7652 
21589000    123.83153   -6670.0409   -6351.4919   -6670.0409            0    2160.9134    23.094672    21.591555    21.690966    10816.197     3094.919    937.78933    2450.0317    469.23769   -620.49037    126.26303   -6010.6226 
21590000    128.17681   -6662.2899   -6332.5629   -6662.2899            0    2665.0449    23.067454    21.596635    21.731864    10826.367     3006.085    1729.4002    3259.6496   -550.88753    977.72769    439.65509   -5911.7751 
21591000     131.5523   -6682.3139   -6343.9036   -6682.3139            0     2514.668    23.208393    21.537369    21.581739    10787.583    3402.2563     1308.539    2833.2086    271.75708   -1210.7439    585.38271   -5948.2814 
21592000    132.26218   -6665.5892   -6325.3527   -6665.5892            0    2169.5233    23.124649    21.509751    21.773423    10830.219    2551.0076    2337.8624    1619.7001    910.80204   -360.80188    435.57162   -5982.6817 
21593000    130.49908   -6662.5468   -6326.8459   -6662.5468            0    1990.0449    23.208715    21.571214    21.661997    10844.866    2317.0113    1390.1478    2262.9755    870.37702    666.14022    160.86763   -6012.0979 
21594000     135.4288   -6667.4136   -6319.0313   -6667.4136            0    4006.6843    23.136763    21.538616    21.588886    10758.473    5169.7828    2835.8208    4014.4493    413.64943     713.8838    183.35502   -5690.3773 
21595000    134.42478   -6698.3566    -6352.557   -6698.3566            0    1156.2547    23.102612    21.630299    21.703235    10845.463    2315.0331   -187.43076    1341.1616   -125.67917    407.01284   -90.354862   -6169.6723 
21596000    138.89652   -6665.6807   -6308.3779   -6665.6807            0    2586.8963    23.057946    21.598054    21.711386    10812.417    3310.5479     1979.134    2471.0072   -42.930178    957.30458    630.68887   -5900.4553 
21597000    133.32385   -6675.3765    -6332.409   -6675.3765            0    1805.5705    23.194212    21.521279    21.670105    10817.047    2458.0824    1495.4712     1463.158   -323.98012    44.728697   -259.38486   -6047.5703 
21598000     131.8542   -6689.8645   -6350.6776   -6689.8645            0    1487.8923    23.141138    21.606843    21.693848    10847.075    2751.9999    154.39192    1557.2849    223.25566   -655.44176    212.54443   -6115.3028 
21599000      128.731   -6653.3337    -6322.181   -6653.3337            0    2542.0853    23.076698    21.599329    21.695135    10813.749     4445.982    1284.3052    1895.9688   -54.547589   -59.311261   -621.26233   -5921.2752 
21600000     128.0666   -6670.1327   -6340.6892   -6670.1327            0     1619.053    23.262544    21.469732    21.716986    10846.344    1802.7027    1405.5856    1648.8706   -105.10858    134.10789    815.69823   -6084.5829 
21601000    131.35423   -6682.7071   -6344.8064   -6682.7071            0    2219.4248    23.186866    21.447524    21.745148    10813.881    3349.2596    1541.1244    1767.8904   -778.45535   -155.53947    -281.3467   -5994.7823 
21602000    131.33458   -6670.7939   -6332.9437   -6670.7939            0    1355.3879    23.180966    21.534896    21.745463    10855.328    2612.4926    807.71761    645.95359    337.66746   -451.30048   -557.07524   -6118.3671 
21603000    133.56947   -6656.1757   -6312.5764   -6656.1757            0    1491.0173     23.24935    21.493344     21.72901    10858.123    1885.0229    1176.1806    1411.8483    266.53928   -564.52261    440.22788    -6076.467 
21604000     140.6117   -6682.0695   -6320.3545   -6682.0695            0    3232.3638     23.17779    21.414597    21.725055     10783.08    4212.7735    2526.4885    2957.8295   -27.366583   -988.73509   -421.06924   -5812.0324 
21605000    133.68936   -6664.3362   -6320.4285   -6664.3362            0    1556.3197    23.276819    21.587055    21.630432    10868.815    2436.2867    597.26494    1635.4075   -320.41307   -406.11631   -1012.9589   -6073.7354 
21606000    132.03566   -6678.6883   -6339.0346   -6678.6883            0    2858.9103    23.220069    21.401583    21.728961    10798.125    3124.6064    3275.4201    2176.7045    477.23015    310.39914   -179.26852   -5888.8146 
21607000    129.33634   -6665.4492   -6332.7393   -6665.4492            0     1996.692    23.197958     21.51613    21.723715    10842.964    2082.1668     2493.821    1414.0883    276.19726   -883.44494   -492.82107   -6016.9954 
21608000    131.11261   -6670.2631   -6332.9838   -6670.2631            0    1801.4017    23.287786    21.548201    21.619281    10848.769    2010.7569    1252.2266    2141.2216    1351.9115   -39.847139   -415.55914   -6047.9694 
21609000    129.45862   -6669.3718   -6336.3474   -6669.3718            0    1969.3723    23.174865     21.44316    21.799337    10833.014    1916.6341    2446.3486    1545.1342    579.14192   -423.54358   -212.75376   -6025.2094 
21610000    131.42053   -6673.9467   -6335.8754   -6673.9467            0     2812.565    23.206546    21.445873    21.667752    10783.707    3292.3859    1707.2844    3438.0247    660.90164   -186.81875    446.03999   -5893.5452 
21611000    132.82666   -6667.3039   -6325.6154   -6667.3039            0    2948.4954    23.193812    21.491085    21.646515    10789.926    3432.7142    2338.4569    3074.3152    491.71853   -239.65165   -25.572773   -5861.6402 
21612000    133.69315   -6668.2889   -6324.3714   -6668.2889            0    2168.5937    23.176621    21.438649    21.802007    10832.882    2840.6875    1093.8463    2571.2471    -116.6613    478.98667     256.7264   -5981.7629 
21613000    129.30318   -6656.9868   -6324.3622   -6656.9868            0    3804.4633    23.310659     21.46188    21.505781    10759.139    2551.8969     4014.455    4847.0379    512.84462   -149.87531   -237.27765      -5727.4 
21614000    132.37231   -6662.4466   -6321.9269   -6662.4466            0    1740.4399    23.291351    21.408392    21.760817    10850.604    1856.6443    1758.4622    1606.2132     203.6517   -210.02367    326.68867   -6046.5111 
21615000    131.99516   -6661.3822   -6321.8327   -6661.3822            0    1380.5159    23.291963    21.420566    21.790202    10871.721    1379.5407    1400.8129    1361.1942    1170.6331    -622.7598    -183.6349   -6102.9479 
21616000    128.04679    -6680.792   -6351.3994    -6680.792            0    1994.3566    23.305377    21.470067    21.627102     10821.51    2198.5871    1696.9257    2087.5569   -638.34623   -137.47689   -67.434602   -6036.6488 
21617000    125.59027    -6687.588   -6364.5146    -6687.588            0     1257.083    23.296186    21.403732    21.780504    10860.311    1400.1023    1245.6548    1125.4919   -173.50714   -237.53079   -13.123186   -6165.4097 
21618000    130.97643   -6677.6153   -6340.6864   -6677.6153            0    2219.3114    23.327526    21.381828    21.710987    10829.118    2460.3065    1802.4277    2395.2001   -985.07836   -599.41028    219.62224   -5990.1871 
21619000    132.75015   -6672.1254   -6330.6337   -6672.1254            0    2611.6302    23.361998    21.396843    21.629344    10811.925    2355.2033    1568.1341    3911.5534   -100.49559   -358.64898    145.19654   -5918.8297 
21620000     135.8171   -6681.7488   -6332.3676   -6681.7488            0      2031.12    23.290982     21.37002    21.726806    10814.056    2454.9767    1646.1436    1992.2397   -10.666031    45.606266    370.91526   -6012.0357 
21621000    128.62219   -6664.0488   -6333.1761   -6664.0488            0     2508.675     23.30951    21.311044    21.757548    10808.062    2268.5899     3089.326    2168.1092    483.00547   -1181.9566    103.15102   -5937.7474 
21622000    134.48439   -6649.6802   -6303.7273   -6649.6802            0    2528.8894    23.468727    21.273068      21.6501    10808.852    2246.4209    2645.2634    2694.9839   -253.05995     107.3293   -1345.6939   -5905.0832 
21623000    129.80837   -6667.3517   -6333.4275   -6667.3517            0    1849.3866    23.321804    21.299578    21.813647    10835.811    2368.4294    1877.3932    1302.3372    770.80271   -667.98022    45.408514   -6041.1705 
21624000    130.69008   -6659.5849   -6323.3926   -6659.5849            0    2629.8043    23.373697    21.314132    21.678565    10800.046    2811.7486    1869.6864    3207.9779   -325.77865   -151.51767    511.25737   -5909.1785 
21625000    139.32174   -6675.7521   -6317.3554   -6675.7521            0     1448.341    23.432248    21.279527    21.814619    10877.361    580.70779    2564.5144    1199.8007    87.754629   -165.07816   -643.19779   -6087.5976 
21626000     130.4468   -6665.8573   -6330.2908   -6665.8573            0    2475.7591    23.366929    21.248366    21.774165     10811.07    1340.4496    3520.5356    2566.2921    322.71488     462.1381    35.730254   -5939.9419 
21627000    128.52433    -6668.987    -6338.366    -6668.987            0    1585.3113    23.409475    21.362822    21.662869    10833.438     1744.864    1348.6469    1662.4231   -805.24946    96.201095     557.3886   -6087.8954 
21628000    129.64449   -6662.4784   -6328.9758   -6662.4784            0    1816.4882    23.367151    21.331301    21.774464    10853.519    1383.6413    1862.5939    2203.2293   -89.259394   -723.21134   -627.32262   -6041.4486 
21629000    134.49789   -6650.6233   -6304.6357   -6650.6233            0    3509.8066    23.406805    21.186903     21.72641    10774.512    2793.2735    3998.6391    3737.5072    238.92015   -1109.7464   -351.80799   -5753.1215 
21630000     128.8706   -6689.8436   -6358.3319   -6689.8436            0     1221.384    23.404459    21.350402    21.701875     10844.31    1684.8067    1037.2085    942.13673   -458.77828   -283.75233    444.20197   -6165.1662 
21631000    126.97972   -6676.8043   -6350.1567   -6676.8043            0    2492.6076    23.327297    21.235145    21.832816    10815.072    2474.9175    3745.0669    1257.8385   -432.93058   -172.62181   -923.08767   -5957.0058 
21632000    138.83318    -6669.924   -6312.7841    -6669.924            0    1832.0053     23.53548    21.238328     21.69684    10845.257    1088.8176    2562.6367    1844.5616   -1155.8915   -580.47008   -15.968232   -6023.0214 
21633000    134.06531    -6666.118   -6321.2431    -6666.118            0    2259.5683    23.445358    21.204708     21.80556    10840.677    519.23912    3721.6639     2537.802    -194.3633    395.48779    314.69674    -5964.005 
21634000     124.8455   -6668.5565    -6347.399   -6668.5565            0    1349.0055    23.425277    21.307261    21.725231    10843.682    529.66106    1555.5236    1961.8318     157.5024     421.9293    235.28085   -6134.0619 
21635000    127.72465   -6676.2374   -6347.6735   -6676.2374            0    2082.6312    23.411469    21.310152    21.716371     10834.34    1816.9136    2224.5481     2206.432    105.22798   -1118.2007   -28.179104   -6018.6017 
21636000    132.61098   -6654.2756    -6313.142   -6654.2756            0    2321.3904    23.419379    21.200493    21.811723    10829.572    1594.6035    3746.9484    1622.6192   -163.94076   -671.98086   -616.12082   -5946.5058 
21637000    132.50316   -6675.5652   -6334.7089   -6675.5652            0    1597.6289    23.407403    21.383537    21.640807     10831.94    1576.1291    1404.9936    1811.7641   -10.837939   -74.254437    87.542358   -6082.3271 
21638000      131.356   -6679.2152   -6341.3099   -6679.2152            0     2409.875    23.327651    21.332434    21.725698     10811.48    2137.3183    2569.5436     2522.763    510.61778    653.35431   -65.474937   -5961.3344 
21639000    129.26664   -6668.9701   -6336.4396   -6668.9701            0    2889.5668    23.233538    21.329391    21.747822     10777.29    3978.1344    2078.2141    2612.3517    -1148.591    704.36056    98.227944   -5882.2698 
21640000    130.06219   -6665.4492   -6330.8722   -6665.4492            0    1453.7751    23.316852     21.43339    21.718375    10853.957    1439.2634     1580.351    1341.7108    68.797153    -528.5102    310.79294   -6100.7485 
21641000    129.76777   -6674.5719   -6340.7522   -6674.5719            0    1616.4989    23.310745    21.395654    21.757852    10851.699    1303.8964    2781.4376    764.16279    216.08757     487.2857    -1119.324   -6084.9236 
21642000    133.87591   -6672.1332   -6327.7456   -6672.1332            0     1772.187    23.293609    21.370722    21.737109     10820.76    2452.7339    1659.0584    1204.7685    105.84753   -306.42041    607.76086   -6048.0774 
21643000    131.62925   -6667.2974   -6328.6892   -6667.2974            0    1667.6901     23.31943    21.388568    21.773007    10859.706    981.80134    2770.9752    1250.2937   -234.13245    12.159538   -505.63363   -6064.5643 
21644000    128.82326   -6669.3892   -6337.9992   -6669.3892            0    712.18408    23.363917    21.453345    21.699349    10876.455    149.13461    1360.9864    626.43122    324.53324     378.4314    26.921868   -6225.0311 
21645000    136.02729   -6661.0044   -6311.0825   -6661.0044            0    1583.5293    23.271688    21.422931    21.785644    10861.184    1631.8021    2460.7398    658.04597   -118.00097   -64.427278   -126.87163   -6060.2527 
21646000    131.44478   -6676.2427    -6338.109   -6676.2427            0    1273.2769    23.299655    21.436787    21.796988    10886.936    1111.9247    1609.6941    1098.2119    182.44299    -429.9731   -1132.3954   -6135.9448 
21647000    130.33841   -6677.4039   -6342.1163   -6677.4039            0    2318.5831    23.348289     21.42049    21.634798     10820.25    2521.2599    2288.6342    2145.8554    651.36531   -1102.9159    69.457233   -5976.2387 
21648000    127.50909   -6672.6961   -6344.6868   -6672.6961            0    1512.7457    23.219587    21.375706    21.852511    10846.167    1856.8125    1387.5058    1293.9188    1184.2152     458.6125    505.68187   -6105.4003 
21649000    135.10034   -6659.6111   -6312.0737   -6659.6111            0    2288.8897    23.307503    21.450783    21.674171    10836.309    1254.4266    2899.5293    2712.7132     129.3443    410.70365    820.35052   -5950.3457 
21650000    128.51426   -6669.9818   -6339.3867   -6669.9818            0    1433.4355    23.387392    21.439779    21.647666    10854.584    539.87172    1956.5617     1803.873   -109.40569   -157.77283   -553.61113   -6112.4696 
21651000    133.57569   -6656.4245   -6312.8092   -6656.4245            0    1569.6813    23.245117    21.378624    21.858623    10862.612    2654.1324    1583.9551    470.95644   -883.99546     56.09747   -208.24491   -6064.1402 
21652000    127.58522   -6673.2744   -6345.0692   -6673.2744            0    1989.9915    23.330749    21.393392    21.690661    10826.326     2248.743    1663.3622    2057.8693   -691.08053    17.442135   -286.01966   -6030.8678 
21653000    135.42635   -6658.4944   -6310.1184   -6658.4944            0    1837.3174    23.332487    21.439364    21.673826    10841.977    1206.9842    2393.9492    1911.0189    429.20488    513.48805   -31.559879   -6019.6034 
21654000    130.13773   -6659.4811   -6324.7097   -6659.4811            0    2055.3395    23.210457    21.354023    21.855172    10832.224    1789.7847    2003.9014    2372.3325    41.818734    26.439327    429.53042   -6000.0136 
21655000     129.3852    -6675.555   -6342.7195    -6675.555            0     1985.336    23.353953    21.405806     21.63216    10814.137     1142.853    1549.6557    3263.4993    673.22497   -34.491591    537.92177    -6029.606 
21656000    128.16049   -6690.3153   -6360.6302   -6690.3153            0    1164.5518    23.354629    21.486148    21.652176    10865.084    1076.6094    1935.7975    481.24848   -309.66881   -566.10509    -1069.534   -6176.0999 
21657000    133.03498   -6680.2358   -6338.0114   -6680.2358            0    2835.5458    23.197357    21.357415    21.784723    10792.927    3651.4106    2482.6605    2372.5664    12.630354    728.14383    227.38373   -5891.6858 
21658000    127.60186   -6669.7248   -6341.4768   -6669.7248            0    2313.4018    23.319729    21.365487    21.655123    10789.391    1973.8217    2466.5931    2499.7907    566.37025    311.99034    645.80025   -5977.4579 
21659000    137.89025   -6682.0591   -6327.3448   -6682.0591            0    2108.4722    23.326393     21.41864    21.669746    10826.631    2485.1821    1597.0857    2243.1488     557.0439   -311.62001   -705.60397    -5994.427 
21660000    130.02374   -6668.0945   -6333.6163   -6668.0945            0    2681.5292    23.234104    21.359162    21.763652    10800.451    2724.9511    3300.1885    2019.4478     247.3332   -7.8981211    -271.1956   -5911.2393 
21661000    128.46845   -6678.1531   -6347.6759   -6678.1531            0    1812.0171    23.300809    21.408981    21.679813    10814.901    1183.8928    1953.0601    2299.0985    943.29292   -324.32213    273.79575   -6061.8769 
21662000    131.10361   -6667.4823   -6330.2263   -6667.4823            0    1631.3286    23.268594    21.496478    21.681823    10845.092    2136.5968      1016.76    1740.6291   -1071.8543   -34.282772   -565.54536   -6072.2079 
21663000    133.29838   -6672.7785   -6329.8765   -6672.7785            0     2837.234    23.186761    21.414705    21.752716    10801.043    3415.0811    3467.9354    1628.6855    1062.3684   -1043.1901   -446.51035   -5882.9494 
21664000    129.84574   -6675.0023    -6340.982   -6675.0023            0    2804.9298    23.230634    21.443234    21.627799     10773.67    3413.2713    3247.6303    1753.8877   -61.061038   -432.47439   -493.32605   -5900.2632 
21665000    129.98495   -6663.3266   -6328.9482   -6663.3266            0    1684.6152    23.217266    21.472265    21.736118    10836.047    1599.3399    1606.6204    1847.8851    434.02374   -9.0019456    163.95752   -6062.7241 
21666000    135.37889   -6660.8632   -6312.6092   -6660.8632            0    3403.5103    23.190185    21.439797    21.674324    10776.319    4372.8274    2766.9595     3070.744    986.10002    668.31283   -615.23832   -5777.7083 
21667000    131.45811   -6676.6197   -6338.4517   -6676.6197            0    1988.0977    23.263771    21.425522    21.723326     10827.74    2172.0564    1592.7247    2199.5119    417.42085    455.42596    385.55139   -6024.5082 
21668000    137.23513    -6670.328    -6317.299    -6670.328            0    2475.5483     23.26027    21.443777    21.706778    10827.081    2324.4269    1766.8388    3335.3792   -321.67689   -158.00765   -77.233197   -5926.4053 
21669000    136.21794   -6652.9355   -6302.5231   -6652.9355            0    2212.0476    23.275776    21.390179    21.760961    10834.195    1898.6257    2199.9658    2537.5514    410.54766    735.67958    16.084386   -5953.0072 
21670000    132.76417   -6677.3615   -6335.8338   -6677.3615            0     2065.185    23.301706    21.447255    21.685942    10837.715    2179.0406     2498.491    1518.0233    340.46823    -361.2164    263.68961   -6009.4169 
21671000    129.38521   -6669.4145    -6336.579   -6669.4145            0    1526.1489    23.334638    21.397552    21.761238    10865.476    1848.1931     1024.099    1706.1545   -1012.8347    121.69613   -398.06254   -6094.7426 
21672000    137.96514   -6684.1642   -6329.2573   -6684.1642            0     911.8433    23.310703    21.427537    21.799435    10888.621    738.73403    1595.6876    401.10823   -281.88917     407.5962   -704.45221   -6184.4572 
21673000     128.7546   -6673.2489   -6342.0356   -6673.2489            0     1452.742    23.354481    21.476889    21.671548    10870.049     952.0393    886.52006    2519.6666    344.27391    1067.5003    307.74721   -6111.7345 
21674000    132.01149   -6682.5972   -6343.0057   -6682.5972            0    188.14724    23.311833    21.488914     21.78747    10914.345    68.485667   -150.97414    646.93019    588.53686   -181.87432    438.41319   -6313.0575 
21675000    135.40512   -6670.8102   -6322.4888   -6670.8102            0     2734.752    23.248048    21.439726    21.688338    10810.157    3471.2935    1861.8146    2871.1479   -247.81576    18.322179    371.92092   -5891.3413 
21676000     133.7308   -6687.3163    -6343.302   -6687.3163            0    2552.6815    23.283053    21.388958    21.680962    10797.125    2932.5872    2049.0556    2676.4017    887.51973   -557.29244   -81.510074    -5941.344 
21677000    136.34078   -6657.8079   -6307.0796   -6657.8079            0     1827.777    23.188293    21.426746    21.835339    10848.881    2276.7322    1915.7538     1290.845   -665.12466   -586.18593    25.397505   -6017.8891 
21678000     134.3904   -6664.7354   -6319.0242   -6664.7354            0    2372.1217    23.387408    21.382851    21.648908    10826.391    1980.2505    2584.7727    2551.3418   -368.80329     425.3908   -761.99403   -5944.4857 
21679000    131.90061   -6666.2575   -6326.9512   -6666.2575            0    2478.3484    23.257088    21.381522    21.707658    10794.609     2916.342    2183.6952    2335.0081    -491.9553    246.26439   -140.77926    -5936.789 
21680000    134.62884   -6671.0084   -6324.6839   -6671.0084            0    2496.2323    23.203267    21.396857    21.774429    10810.503      3444.72    1836.8858     2207.091    169.71271    -510.5692   -564.75054   -5931.1277 
21681000    132.85118   -6677.4697   -6335.7181   -6677.4697            0    2001.6905    23.343584    21.448842    21.606705    10818.323    1395.6967    2000.9294    2608.4456    569.71766    195.29055   -838.97117   -6019.9031 
21682000    134.29137   -6666.3113    -6320.855   -6666.3113            0    1007.0856    23.279733    21.501137    21.718524    10871.006    1060.0647    1111.5036    849.68848    342.77766    316.64447   -14.412715   -6161.1891 
21683000    131.18263   -6681.5894   -6344.1301   -6681.5894            0    1833.8739     23.26348    21.398064    21.757131    10830.557    1880.5636    1365.1341    2255.9239    715.49212    316.44293     644.2045    -6054.465 
21684000    128.54965   -6671.3132    -6340.627   -6671.3132            0    3018.5855     23.27192    21.443484    21.632303     10795.19    3090.8966    2926.1073    3038.7528   -646.84577    263.51215    185.69416   -5865.3906 
21685000     134.9669   -6667.0173   -6319.8232   -6667.0173            0    1568.7659     23.33041    21.390967    21.757867    10858.482    633.02954    2901.8447    1171.4233    69.056817    1005.9463   -701.56136   -6071.3937 
21686000    132.20994   -6657.0799   -6316.9779   -6657.0799            0    2038.6568    23.283546    21.349142    21.795495    10834.186    1476.6816     2328.353    2310.9358   -630.35576    -205.5456    109.08683   -5994.8589 
21687000     126.6228   -6672.7431   -6347.0136   -6672.7431            0    3438.4272    23.387166    21.328057    21.614553    10781.399    3066.0578    3796.8381    3452.3856   -395.36495   -367.73908   -84.908046   -5806.3703 
21688000      134.146   -6657.3802   -6312.2978   -6657.3802            0    2263.0367    23.292748    21.298072    21.828708    10829.017    2274.5838    3233.7383    1280.7881   -72.579612   -30.349284    282.79794   -5954.8961 
21689000    129.12566   -6684.6115   -6352.4436   -6684.6115            0    1273.7468    23.398598    21.376211    21.694895    10851.209    552.19897    1782.5402    1486.5012   -121.80598    59.876429    635.52484   -6150.8684 
21690000    142.60838   -6665.1131   -6298.2617   -6665.1131            0    1673.0617    23.406016    21.363823    21.720103    10860.963    1840.2348    1981.7949    1197.1555   -240.70571   -9.4736095    -785.3336   -6033.2554 
21691000    134.58201   -6659.0783   -6312.8742   -6659.0783            0    2475.4468    23.281397    21.251976    21.882897    10827.125      3064.24    2832.4345    1529.6661   -374.15785   -515.87617    236.57473   -5921.9949 
21692000    133.33128   -6666.6292   -6323.6427   -6666.6292            0    1538.4624    23.378046    21.408427    21.680224    10850.674    2556.2161      226.692    1832.4792    90.381673    -185.8318    1005.8604   -6080.1872 
21693000    133.27732   -6678.5808    -6335.733   -6678.5808            0    1567.2723    23.329782    21.436292    21.699211    10851.863    1670.5508    1331.7861    1699.4798   -569.53493   -799.27682    57.760113   -6087.6913 
21694000    131.84846   -6664.2578   -6325.0857   -6664.2578            0    1987.6736    23.309234    21.321788    21.850682     10859.67    2438.5658    2683.0838     841.3711    600.56434   -293.96176   -283.85196   -6010.2836 
21695000    136.55054   -6666.4059    -6315.138   -6666.4059            0    2493.5353    23.367603    21.324522    21.688485    10807.437    1809.7051    2961.5134    2709.3873   -407.06006   -18.202996    722.55738   -5922.1185 
21696000    131.78914     -6673.68   -6334.6605     -6673.68            0    2085.8441    23.360795    21.352356    21.703131    10825.695    1645.4101    2528.6799    2083.4422    99.623153   -405.71548   -716.75316    -6005.344 
21697000     133.2724   -6670.5048   -6327.6697   -6670.5048            0    1867.2024    23.351835    21.260502    21.858589    10852.171    1671.5882    2716.7521    1213.2669   -357.27983   -348.56682   -11.500293   -6032.1517 
21698000    136.15336   -6665.7422    -6315.496   -6665.7422            0    2486.4856    23.402706      21.3145    21.667104    10807.919    1528.2934    3010.4908    2920.6725   -354.78796    380.53732   -335.52782   -5923.5701 
21699000    134.34771   -6663.2852   -6317.6839   -6663.2852            0    1856.3965    23.465437     21.31519    21.663692    10835.534    569.72728    2217.0452     2782.417     214.3661   -266.13348   -532.70377   -6024.3266 
21700000    130.91791   -6674.1828   -6337.4044   -6674.1828            0    2386.6861    23.368537    21.162242    21.859451    10810.168    1987.9017    3377.4063    1794.7503    275.25783    552.76612    466.74842   -5961.1309 
21701000    135.55698   -6674.0836   -6325.3716   -6674.0836            0    1811.1716    23.442208    21.315907    21.691572    10839.104     1500.963    1921.0829     2011.469    526.08535    -223.7175    265.84921   -6039.0666 
21702000    133.53763   -6672.7267   -6329.2093   -6672.7267            0    2068.1307    23.371707    21.360857    21.664872    10815.964    1210.8463    2600.2985    2393.2473    -248.2298    100.28407   -233.33173   -6002.9829 
21703000    125.51801   -6676.9576   -6354.0702   -6676.9576            0    2258.8818    23.273458    21.324774    21.742828    10790.993    2808.9873    2478.1984    1489.4597   -152.36132   -31.131542    58.355741   -5998.5774 
21704000    129.21571   -6671.5221   -6339.1225   -6671.5221            0    2152.4024    23.347401    21.390937    21.661573    10818.284    1964.0162    1817.9709      2675.22   -837.35284    672.48621   -572.55465   -5999.5303 
21705000    127.25385   -6667.3035   -6339.9508   -6667.3035            0    1929.8962    23.364096    21.437802    21.652272    10845.079     1952.534    1349.3494    2487.8052    384.03258    379.50532   -819.30863     -6034.71 
21706000    130.02548   -6682.4718   -6347.9891   -6682.4718            0    2352.4721     23.30922    21.324316    21.753893    10812.842    1521.3385    4130.7116    1405.3663    601.98499    313.61603   -16.559978   -5977.0179 
21707000    129.07249   -6677.2778   -6345.2467   -6677.2778            0    2033.6642    23.319595    21.353464    21.734235    10822.652    1473.4715     2579.445    2048.0761    558.44634    330.81846    44.685837   -6024.2587 
21708000    132.45631   -6669.4325   -6328.6967   -6669.4325            0    2332.3605    23.343871    21.412252    21.631689    10812.488     1780.706    3224.3286    1992.0469   -217.52014   -309.04289   -1163.2628    -5960.909 
21709000     134.2171   -6665.3398   -6320.0745   -6665.3398            0    2059.1193    23.200097    21.409069    21.803671     10829.72    2389.9941    1872.8781    1914.4857   -437.90203    220.02698    1063.2987   -5994.8565 
21710000    134.19074   -6675.1995    -6330.002   -6675.1995            0     2130.998    23.307738     21.42459    21.703031    10837.598    2097.0221     1430.507     2865.465    368.74229   -958.34886     225.4371   -5993.1865 
21711000    134.25475   -6664.4225   -6319.0604   -6664.4225            0    3275.0057      23.2525    21.409022    21.667123    10786.181    2794.9611    3984.7006    3045.3553   -1167.2459    455.26434   -74.922746   -5803.8843 
21712000     129.0291   -6671.3585    -6339.439   -6671.3585            0    1765.8297    23.299692    21.382588    21.740759    10831.414    1818.6941    1177.3501    2301.4449   -340.80733    -93.15702    664.99562   -6060.4996 
21713000     132.4414    -6673.842   -6333.1446    -6673.842            0    2701.7854    23.271172    21.345996    21.750103    10804.284    3329.5953    3075.9665    1699.7944   -261.07389    364.09632   -352.09497   -5907.4259 
21714000    137.39711   -6682.3579   -6328.9122   -6682.3579            0    1862.3834    23.397499    21.444073    21.611045    10843.075    1354.3819    1994.4277    2238.3406    339.89233   -22.692737   -512.15244   -6034.4039 
21715000    131.17795    -6691.119   -6353.6717    -6691.119            0    1943.5719     23.25991    21.391265    21.749964    10821.888    1587.3319     2008.109    2235.2747   -260.52438    623.06467    651.18379   -6046.9253 
21716000    133.86137   -6677.8332    -6333.483   -6677.8332            0    1818.2725    23.272762    21.382258    21.775787    10836.159    1621.1147    2177.5429    1656.1598    806.14379   -273.90676     175.5926   -6046.1337 
21717000    134.89495   -6679.2098   -6332.2007   -6679.2098            0     2079.396    23.373011    21.421394    21.611954    10820.726    1269.1935     1532.328    3436.6663   -471.50368    1281.0868    1140.7251   -6004.0529 
21718000    127.63105   -6646.5442   -6318.2211   -6646.5442            0    2844.8604    23.261191    21.386577    21.733365    10811.855      3017.05    3560.0456    1957.4858    299.55586    121.19753   -825.03379   -5869.6441 
21719000    130.35814   -6670.7143   -6335.3759   -6670.7143            0    391.75158    23.323605    21.416741    21.813653    10896.261    1376.7498    373.72297   -575.21804   -936.00063   -246.92372   -765.80043   -6273.1223 
21720000    125.52137    -6675.678   -6352.7819    -6675.678            0    1984.0863    23.383547    21.383589    21.693447    10847.248     1800.777     2507.554     1643.928   -637.46914   -884.12223   -252.61989   -6038.9074 
21721000    127.10945   -6663.4934   -6336.5121   -6663.4934            0    2398.3684    23.405866    21.357864    21.633718     10814.68    1072.9889    2876.2288    3245.8874    350.99638   -218.12769    431.25523    -5958.239 
21722000    134.77134   -6689.3121   -6342.6211   -6689.3121            0    2256.1863    23.223838    21.338039    21.829074    10817.423    2019.7491    2416.9596    2331.8501   -573.13997    1311.7752    391.61892   -5986.6828 
21723000    130.75673   -6678.4166   -6342.0529   -6678.4166            0     2297.576    23.394247    21.434772     21.57694    10819.764    1840.5052    1779.1259    3273.0969    581.90994   -258.14124   -464.20036   -5979.5065 
21724000    136.96942   -6665.7995    -6313.454   -6665.7995            0    2290.1166    23.237235    21.365152    21.793726    10819.867    2847.2429    2403.4827    1619.6243    495.61181   -1102.1326   -384.69333   -5952.0812 
21725000    130.32521   -6672.3291   -6337.0754   -6672.3291            0    1961.8585    23.240887    21.347928    21.810512    10821.172    2652.1911    1947.4309    1285.9537    91.694475   -1226.1268   -542.14201   -6027.4633 
21726000     128.2011   -6665.4593   -6335.6698   -6665.4593            0    2363.6775    23.340464    21.450317    21.574906      10801.7    1625.4314    2637.2469    2828.3543   -820.82881     523.2539   -778.82365   -5963.3156 
21727000    138.75901   -6658.1266   -6301.1775   -6658.1266            0     2253.462    23.259224    21.463473    21.703877    10835.091    2691.7181    1870.9777    2197.6902    28.128038   -403.60449    60.319766   -5945.0884 
21728000        133.3   -6650.1137   -6307.2076   -6650.1137            0    2446.8378    23.201052    21.508074    21.699676    10828.354    3294.7467    1766.8396    2278.9272   -1423.3431    175.21818    148.45972   -5920.8019 
21729000    130.51136   -6659.9971   -6324.2646   -6659.9971            0    1871.0853     23.22773      21.5721    21.645789    10846.075    1942.1812    1010.5819    2660.4928   -56.918255      -945.86   -304.88471   -6028.2984 
21730000    131.45136   -6645.6568   -6307.5062   -6645.6568            0    3135.1175    23.217118    21.502375    21.641246    10803.812     2794.837    2560.5262    4049.9895    19.340892    931.36564    1184.4658   -5813.5292 
21731000    138.29353   -6669.2788   -6313.5271   -6669.2788            0    2187.9888    23.243126    21.438798    21.721444    10823.897    1631.3036     2775.957    2156.7057    242.70781    876.41309    -55.98735   -5968.1412 
21732000    137.31724    -6678.456   -6325.2158    -6678.456            0    1489.1444    23.314201    21.472697    21.673157    10849.989    1631.4391    981.32847    1854.6657   -38.755312   -450.64408   -288.69948   -6089.5796 
21733000    133.13594   -6681.4914   -6339.0073   -6681.4914            0    1574.2644     23.31695     21.38472    21.792381    10866.257    1657.0166     2319.263    746.51348   -234.40893   -29.076618   -433.35431   -6089.5286 
21734000    130.82978   -6665.2066   -6328.6549   -6665.2066            0    2967.6155     23.27438    21.316913    21.763109    10797.504    3221.8979    2288.6577    3392.2909    736.88264   -510.50805    1096.8671   -5861.3429 
21735000    134.21781   -6674.1634   -6328.8963   -6674.1634            0    2914.9208    23.302067    21.397196    21.627531    10783.463    3067.1884    3266.3695    2411.2044   -891.37004   -546.62338   -500.25446   -5870.4791 
21736000    134.74494   -6681.0591    -6334.436   -6681.0591            0    2863.5751    23.328119    21.300849    21.685454    10775.692     3141.735    3009.3238    2439.6664   -240.42169   -274.35563    446.77502   -5884.4182 
21737000    128.38961   -6670.6616   -6340.3872   -6670.6616            0    2870.2401    23.248022    21.297808    21.784802    10786.351    3359.0616    3487.5662    1764.0925     203.1684    -788.8991    -395.9355   -5888.8758 
21738000    136.84753   -6662.2519   -6310.2199   -6662.2519            0    2959.5318    23.431967    21.353485    21.599548    10807.423    2131.7666    3213.1554    3533.6735   -94.375487   -354.62742   -348.12852   -5843.7528 
21739000     127.4882   -6661.7505   -6333.7948   -6661.7505            0    1784.5229    23.351384    21.342844    21.770725    10850.201    1402.3378     2040.204    1911.0268   -256.87224    792.78589    63.562805   -6051.4136 
21740000    133.93233   -6667.7169   -6323.1841   -6667.7169            0    1993.8681    23.338314    21.408839    21.695016    10839.833    1264.6325     1819.517    2897.4547   -137.61685    -172.8295    375.68619   -6007.9778 
21741000    128.95812   -6669.3925   -6337.6556   -6669.3925            0     2733.436    23.300013    21.359663    21.724038    10811.628    2378.8881    2115.5848    3705.8352    896.86687    525.04162   -78.012541    -5906.657 
21742000    132.91201   -6678.9287   -6337.0207   -6678.9287            0    2518.9785     23.26446    21.384333    21.696075    10793.688    2629.6959     2374.587    2552.6527    -449.6071    -393.9951    718.96688    -5940.496 
21743000     132.1694   -6663.1457    -6323.148   -6663.1457            0    1455.3941    23.365554    21.400578    21.681724     10841.65    582.09202    2276.6648    1507.4256    439.91031   -251.07015    288.49572   -6093.0293 
21744000     135.1631   -6676.6994   -6329.0005   -6676.6994            0    2503.5086    23.326207    21.342746    21.709575     10808.01    2389.6514    2583.4153     2537.459    478.61283    92.568871   -369.41073   -5934.3882 
21745000    139.89369   -6665.0066   -6305.1386   -6665.0066            0    2290.7969    23.265557    21.410675    21.705708    10812.292    4076.1624    1122.7422    1673.4861   -410.69355   -320.65348    126.77655   -5943.9116 
21746000    129.10175   -6670.3393   -6338.2329   -6670.3393            0    1813.9181    23.303223    21.357793    21.794805    10847.392    1770.9398      2344.43    1326.3844   -393.95903    87.816228   -1355.6757   -6051.2745 
21747000    131.72171   -6669.6242   -6330.7781   -6669.6242            0    1522.7629    23.313479    21.411262    21.716795    10840.394    1830.1201    1722.6008    1015.5679    236.21423   -280.26813   -2.5892021   -6090.0353 
21748000    136.51961   -6672.2683   -6321.0799   -6672.2683            0    1649.9072    23.397858    21.259645    21.818268    10853.065    1420.1553    2268.2889    1261.2776    495.60316    805.85651    409.13345   -6059.9313 
21749000    133.17548   -6678.4756   -6335.8898   -6678.4756            0    1929.2947    23.382143    21.365177    21.695694    10838.379    2533.8797     1540.583    1713.4212   -409.86825   -577.88779   -657.35989   -6030.9327 
21750000    139.77406   -6659.2642   -6299.7039   -6659.2642            0    1048.0924    23.393317    21.341224    21.772634    10869.814     875.6168    1713.2006     555.4597     146.9028   -112.84805   -224.63107    -6133.555 
Loop time of 519.436 on 64 procs for 250000 steps with 1296 atoms

Performance: 83.167 ns/day, 0.289 hours/ns, 481.291 timesteps/s
194.3% CPU use with 32 MPI tasks x 2 OpenMP threads

MPI task timing breakdown:
Section |  min time  |  avg time  |  max time  |%varavg| %total
---------------------------------------------------------------
Pair    | 37.696     | 47.527     | 57.172     |  76.3 |  9.15
Bond    | 0.67631    | 0.9408     | 1.2483     |  15.8 |  0.18
Kspace  | 259.67     | 269.39     | 280.61     |  33.9 | 51.86
Neigh   | 1.6065     | 1.6853     | 1.751      |   3.1 |  0.32
Comm    | 75.058     | 78.347     | 82.533     |  21.6 | 15.08
Output  | 0.54209    | 0.5425     | 0.54413    |   0.1 |  0.10
Modify  | 100.45     | 103.57     | 106.11     |  13.1 | 19.94
Other   |            | 17.44      |            |       |  3.36

Nlocal:        40.5000 ave          50 max          27 min
Histogram: 1 0 2 5 2 6 7 2 5 2
Nghost:        3058.59 ave        3085 max        3018 min
Histogram: 1 1 2 2 4 6 4 4 2 6
Neighs:        12847.2 ave       15792 max        8548 min
Histogram: 1 0 2 4 3 6 6 2 6 2

Total # of neighbors = 411112
Ave neighs/atom = 317.21605
Ave special neighs/atom = 2.0000000
Neighbor list builds = 3646
Dangerous builds = 0

unfix		3
unfix		2
unfix		1

write_data	data.final.${pid}
write_data	data.final.0
System init for write_data ...
PPPM initialization ...
  extracting TIP4P info from pair style
  using 12-bit tables for long-range coulomb (../kspace.cpp:340)
  G vector (1/distance) = 0.36604485
  grid = 30 40 32
  stencil order = 5
  estimated absolute RMS force accuracy = 0.0048329861
  estimated relative force accuracy = 1.4554394e-05
  using double precision FFTW3
  3d grid and FFT values/proc = 7752 1200
Last active /omp style is kspace_style pppm/tip4p/omp
WARNING: Not all mixed pair coeffs generated from mixing. Use write_data with 'pair ij' option to store all pair coeffs. (../write_data.cpp:312)

write_restart   restart.lmp.${pid}
write_restart   restart.lmp.0
System init for write_restart ...
PPPM initialization ...
  extracting TIP4P info from pair style
  using 12-bit tables for long-range coulomb (../kspace.cpp:340)
  G vector (1/distance) = 0.36604485
  grid = 30 40 32
  stencil order = 5
  estimated absolute RMS force accuracy = 0.0048329861
  estimated relative force accuracy = 1.4554394e-05
  using double precision FFTW3
  3d grid and FFT values/proc = 7752 1200
Last active /omp style is kspace_style pppm/tip4p/omp
Total wall time: 0:08:39
