LAMMPS (30 Jul 2021)
  using 1 OpenMP thread(s) per MPI task
package omp 0
using multi-threaded neighbor list subroutines
echo both

include		in.partitions
variable        pid world 0
include		in.temp
variable        temperature equal 289.06
variable	tempDamp equal 100.0
include		in.pressure
variable        pressure equal 12625.0
variable        pressureDamp equal 1000.0 # This is 1 ps
include		in.seed
variable        seed world 745823

units		real
atom_style	full
read_restart	restart.lmp.${pid}
read_restart	restart.lmp.0
Reading restart file ...
  restart file = 30 Jul 2021, LAMMPS = 30 Jul 2021
  restoring atom style full from restart
  orthogonal box = (0.69691114 1.9124005 0.85022997) to (17.510661 21.716777 21.362966)
  4 by 4 by 4 MPI processor grid
  restoring pair style lj/cut/tip4p/long/omp from restart
  restoring bond style harmonic/omp from restart
  restoring angle style harmonic/omp from restart
  864 atoms
  576 bonds
  288 angles
Finding 1-2 1-3 1-4 neighbors ...
  special bond factors lj:    0        0        0       
  special bond factors coul:  0        0        0       
     2 = max # of 1-2 neighbors
     1 = max # of 1-3 neighbors
     1 = max # of 1-4 neighbors
     2 = max # of special neighbors
  special bonds CPU = 0.508 seconds
  read_restart CPU = 0.826 seconds
include 	in.setup
variable	out_freq equal 1000
variable	out_freq2 equal 10000
variable	out_freq3 equal 1000

timestep	2.0

neigh_modify    delay 7 every 1

include		in.tip4p
# This is TIP4P/Ice

# create groups ###
group ox type 2
288 atoms in group ox
group hy type 1
576 atoms in group hy

# set charges - beside manually ###
set group ox charge -1.1794
Setting atom values ...
  288 settings made for charge
set group hy charge 0.5897
Setting atom values ...
  576 settings made for charge

# ### TIP3P Potential Parameters ###
pair_style lj/cut/tip4p/long/omp 2 1 1 1 0.1577 8.5
pair_coeff 1 1*2 0.000 0.000
pair_coeff 2 2 0.21084 3.1668
bond_style  harmonic
bond_coeff  1 450 0.9572
angle_style harmonic
angle_coeff 1 55 104.52
kspace_style pppm/tip4p/omp 1.0e-5
pair_modify tail yes

thermo          ${out_freq}
thermo          1000
thermo_style    custom step temp pe etotal epair emol press lx ly lz vol pxx pyy pzz pxy pxz pyz enthalpy

restart 	${out_freq3} restart.lmp.${pid} restart2.lmp.${pid}
restart 	1000 restart.lmp.${pid} restart2.lmp.${pid}
restart 	1000 restart.lmp.0 restart2.lmp.${pid}
restart 	1000 restart.lmp.0 restart2.lmp.0


include         in.dump
dump            myDump all atom ${out_freq2} dump.water.${pid}
dump            myDump all atom 10000 dump.water.${pid}
dump            myDump all atom 10000 dump.water.0
dump            myDump2 all dcd ${out_freq2} dump.dcd
dump            myDump2 all dcd 10000 dump.dcd
dump_modify     myDump append yes
dump_modify     myDump2 append yes


variable natoms 	equal  "count(all)"                        # NUMBER ATOMS
variable H      	equal  "enthalpy/v_natoms"                 # ENTHALPY-per-atom
variable Vol      	equal  "vol/v_natoms"                 # volume-per-atom
fix AVG all 		ave/time ${out_freq} 1 ${out_freq} v_Vol v_H file vol_enthalpy.dat
fix AVG all 		ave/time 1000 1 ${out_freq} v_Vol v_H file vol_enthalpy.dat
fix AVG all 		ave/time 1000 1 1000 v_Vol v_H file vol_enthalpy.dat


timer           timeout 23:50:00 every 1000
New timer settings: style=normal  mode=nosync  timeout=23:50:00

fix 		1 all shake 1e-6 200 0 b 1 a 1
       0 = # of size 2 clusters
       0 = # of size 3 clusters
       0 = # of size 4 clusters
     288 = # of frozen angles
  find clusters CPU = 0.313 seconds
fix             2 all nph iso ${pressure} ${pressure} ${pressureDamp}
fix             2 all nph iso 12625 ${pressure} ${pressureDamp}
fix             2 all nph iso 12625 12625 ${pressureDamp}
fix             2 all nph iso 12625 12625 1000
fix             3 all temp/csvr ${temperature} ${temperature} ${tempDamp} ${seed}
fix             3 all temp/csvr 289.06 ${temperature} ${tempDamp} ${seed}
fix             3 all temp/csvr 289.06 289.06 ${tempDamp} ${seed}
fix             3 all temp/csvr 289.06 289.06 100 ${seed}
fix             3 all temp/csvr 289.06 289.06 100 745823

run             250000
PPPM initialization ...
  extracting TIP4P info from pair style
  using 12-bit tables for long-range coulomb (../kspace.cpp:340)
  G vector (1/distance) = 0.37504719
  grid = 24 24 24
  stencil order = 5
  estimated absolute RMS force accuracy = 0.0030725183
  estimated relative force accuracy = 9.2527977e-06
  using double precision FFTW3
  3d grid and FFT values/proc = 2535 216
Last active /omp style is kspace_style pppm/tip4p/omp
Neighbor list info ...
  update every 1 steps, delay 7 steps, check yes
  max neighbors/atom: 2000, page size: 100000
  master list distance cutoff = 10.8154
  ghost atom cutoff = 10.8154
  binsize = 5.4077, bins = 4 4 4
  1 neighbor lists, perpetual/occasional/extra = 1 0 0
  (1) pair lj/cut/tip4p/long/omp, perpetual
      attributes: half, newton on, omp
      pair build: half/bin/newton/omp
      stencil: half/bin/3d
      bin: standard
Per MPI rank memory allocation (min/avg/max) = 9.239 | 9.241 | 9.245 Mbytes
Step Temp PotEng TotEng E_pair E_mol Press Lx Ly Lz Volume Pxx Pyy Pzz Pxy Pxz Pyz Enthalpy 
10750000    292.52755   -3737.6383   -3236.2561   -3737.6383            0    13458.485     16.81375    19.804377    20.512736    6830.4506    15111.031    13331.255    11933.169    351.40245   -845.70447    854.62827   -1895.5876 
10751000    294.07823    -3774.436    -3270.396    -3774.436            0    10833.933    16.829049    19.822397      20.5314    6849.1126    11414.733    10070.757    11016.309    -679.2692   -1144.6304    723.99345   -2188.2239 
10752000     287.2859   -3756.7566   -3264.3584   -3756.7566            0    11077.151     16.83762    19.832493    20.541857     6859.583    12381.272    9293.3765    11556.806    616.32174    1100.3191    582.55404   -2156.2004 
10753000    285.36741   -3768.3166   -3279.2066   -3768.3166            0    13867.948    16.834044     19.82828    20.537494    6855.2131     13775.14    14894.808    12933.897    267.02353   -768.84905    456.77084   -1892.7411 
10754000    275.23334   -3783.1386    -3311.398   -3783.1386            0    13176.177    16.777139    19.761254     20.46807    6785.9287    14818.181    12541.928    12168.423   -660.96665    208.38607   -33.078924    -2007.407 
10755000    284.49482   -3757.8142   -3270.1998   -3757.8142            0    12248.202    16.758615    19.739435    20.445472    6763.4767    12273.531    12610.777      11860.3   -2504.9581   -1564.2553   -506.09295    -2062.057 
10756000    293.03026    -3775.075   -3272.8311    -3775.075            0    13858.757    16.769625    19.752403    20.458903    6776.8152    13394.463    11947.569    16234.241      2121.85   -601.86559   -1739.4551     -1903.13 
10757000     311.7054   -3791.1908   -3256.9384   -3791.1908            0    11773.378    16.719151    19.692951    20.397325    6715.8074     13722.92    10438.611    11158.604   -514.87004   -862.83565    1037.6021   -2103.8165 
10758000    301.49319   -3757.0763   -3240.3272   -3757.0763            0    10853.082     16.81996    19.811692    20.520312     6838.022    9876.2086    10919.119    11763.918    616.83662    238.36542   -850.62961   -2157.9978 
10759000    320.71946   -3767.6224   -3217.9202   -3767.6224            0    16396.934    16.717558    19.691076    20.395382    6713.8886    16320.269    16362.064    16508.468   -1384.4713    2366.9325   -2512.6656   -1612.4115 
10760000    284.87502   -3736.4623   -3248.1962   -3736.4623            0    11263.431     16.82716    19.820172    20.529096    6846.8071    12355.294    12353.995    9081.0048   -1139.5204    203.35389    1441.5515   -2123.5014 
10761000    291.81103   -3747.0292   -3246.8751   -3747.0292            0    14244.646    16.763585    19.745289    20.451535    6769.4956    14669.869    13108.407    14955.661   -313.22418    801.92264    910.92587   -1840.5561 
10762000    307.68305   -3760.6827   -3233.3245   -3760.6827            0    12932.393    16.747149     19.72593    20.431483    6749.6035    11820.475     13081.22    13895.483    186.55658    789.69315   -925.44952   -1960.3109 
10763000     305.9823   -3767.4204   -3242.9772   -3767.4204            0    11899.873    16.746502    19.725167    20.430693    6748.8208    12540.774    10859.607    12299.238    1244.7658   -1829.0591    1681.2591   -2071.7366 
10764000    286.74479   -3780.9397   -3289.4689   -3780.9397            0    13764.013    16.713284    19.686041    20.390167      6708.74     13387.83    13318.251    14585.959   -242.82592   -2.6834427    95.915828   -1942.7966 
10765000    294.37055   -3774.7687   -3270.2276   -3774.7687            0    13970.404    16.755928     19.73627    20.442194     6760.224    14314.587    13488.473    14108.152   -354.95413    375.92148    84.930911   -1892.8725 
10766000    296.17547   -3798.0986    -3290.464   -3798.0986            0    10867.154     16.81958    19.811244    20.519848    6837.5583    9874.9775    10148.283      12578.2    1494.9287    805.58341   -166.98849   -2206.8047 
10767000    281.78594   -3768.4492   -3285.4777   -3768.4492            0    12696.757    16.790409    19.776884     20.48426    6802.0441    13028.033    12762.199    12300.038   -382.00216    545.90446     1842.815   -2025.9488 
10768000    284.19854   -3794.9931   -3307.8865   -3794.9931            0    13972.771    16.716757    19.690132    20.394405    6712.9233    14177.915    14543.696    13196.703   -2561.5089   -347.17736    968.63689   -1939.9368 
10769000    299.00495   -3789.5204   -3277.0362   -3789.5204            0    13831.146    16.771008    19.754032    20.460591    6778.4921    14905.156    12772.926    13815.356   -1019.1626    2021.6317    2170.0706   -1909.7257 
10770000    270.78976   -3748.2933   -3284.1689   -3748.2933            0    13430.116    16.777703    19.761918    20.468758    6786.6129    14252.663    13295.128    12742.555    379.84389    2070.8844   -1137.7288   -1954.9126 
10771000    283.15165   -3780.3155   -3295.0033   -3780.3155            0    11060.087    16.826316    19.819178    20.528066    6845.7767    11967.748    10579.467    10633.047   -1468.1862   -1107.8023    1408.2142   -2190.7794 
10772000    294.13538   -3733.3692   -3229.2312   -3733.3692            0    14627.451    16.752847    19.732641    20.438434     6756.495    13708.212    15106.537    15067.605   -1650.5959    873.18229    565.25595   -1787.8927 
10773000    274.85322   -3796.5473   -3325.4583   -3796.5473            0     11619.11    16.786815     19.77265    20.479875    6797.6763    10212.332    12851.712    11793.286    890.52556    1279.9421    2084.4303    -2173.573 
10774000    298.59116   -3750.2712   -3238.4962   -3750.2712            0    13236.134    16.830904    19.824582    20.533663    6851.3777    9609.5002    14113.436    15985.465    637.70018   -879.09079    64.400014   -1915.9375 
10775000    285.91908   -3768.7996   -3278.7441   -3768.7996            0    11147.668    16.812669    19.803104    20.511417    6829.1337    12412.515    9769.6059    11260.882    273.72314   -2714.2324    720.05938    -2168.482 
10776000    309.75113   -3762.5634   -3231.6606   -3762.5634            0     11206.95    16.817265    19.808517    20.517024    6834.7353    10380.868    10859.786    12380.196   -107.48196    -566.4728    869.67758   -2114.5787 
10777000    298.12226   -3734.1381   -3223.1668   -3734.1381            0    12902.262    16.807725     19.79728    20.505386    6823.1108    12643.675    12269.739    13793.374   -888.95259   -843.35991   -1124.3343   -1939.2875 
10778000    294.67205   -3784.8588   -3279.8009   -3784.8588            0     12981.57    16.789158     19.77541    20.482733    6800.5231    12845.871    12237.816    13861.024   -1637.0008   -57.982879    35.759876   -1992.3063 
10779000    281.13468   -3791.3701   -3309.5149   -3791.3701            0    12726.286     16.79126    19.777886    20.485298    6803.0779    11588.551    11539.585    15050.721     928.0648    499.76578   -46.825621   -2046.8648 
10780000    295.38908   -3723.5021   -3217.2153   -3723.5021            0    12777.017     16.78278    19.767898    20.474953    6792.7763    11841.261    12596.109    13893.682    260.75231    1586.0943   -122.69624   -1951.4515 
10781000    306.61694   -3759.3087   -3233.7778   -3759.3087            0    13473.914    16.805936    19.795173    20.503203    6820.9317     11455.73    15222.175    13743.835    710.32975   -2.7167243   -336.93248   -1893.4428 
10782000    292.02214   -3762.8242   -3262.3083   -3762.8242            0    11293.119    16.841194    19.836702    20.546218    6863.9523    12357.322    10429.322    11092.714    1132.7425    807.33059    -1490.069   -2131.8252 
10783000     290.8588    -3755.612     -3257.09    -3755.612            0    12692.331    16.774702    19.758384    20.465098    6782.9727    12191.643    13629.126    12256.223    -943.9344   -666.61448     1454.808   -2001.5304 
10784000    266.43245   -3752.5842   -3295.9281   -3752.5842            0    12203.337    16.743544    19.721683    20.427084    6745.2451    12207.843    11719.557     12682.61   -694.88442   -2253.7151    402.75401   -2095.4556 
10785000    277.01325   -3788.9121   -3314.1209   -3788.9121            0    11727.046    16.755395    19.735642    20.441542    6759.5778    11942.156    11352.481    11886.503   -1229.7478      234.141   -878.56513    -2158.051 
10786000    286.14138   -3808.1583   -3317.7217   -3808.1583            0    13098.688    16.762638    19.744173    20.450379    6768.3476    12326.544    13477.651     13491.87    549.15768   -5.0059319    979.04036   -2024.7579 
10787000    300.11377    -3771.128   -3256.7433    -3771.128            0    11805.072    16.801627    19.790098    20.497946     6815.687    12595.057    12208.656    10611.502   -1141.2962   -796.40961    372.63527   -2083.3214 
10788000    281.96794   -3758.4782   -3275.1948   -3758.4782            0    14935.254    16.799127    19.787153    20.494896    6812.6446    17339.097    15603.032    11863.634   -179.26574    177.61065    1727.6503   -1791.2961 
10789000    291.63076   -3768.9107   -3269.0655   -3768.9107            0    12087.011    16.814889    19.805718    20.514126    6831.8389    11562.847    13183.586      11514.6   -1319.1828    2168.3248     -644.138   -2064.7718 
10790000    298.99812    -3790.524   -3278.0515    -3790.524            0    12551.258    16.804764    19.793792    20.501772    6819.5044    9539.2186    14465.289    13649.268   -967.69245   -191.31122    113.05283   -2029.7601 
10791000    276.64162   -3717.1357   -3242.9814   -3717.1357            0    10536.364    16.840063     19.83537    20.544838    6862.5694    10794.251    9715.6675    11099.174   -700.55113    617.67697   -569.67451   -2188.4648 
10792000    291.52719   -3786.0481   -3286.3805   -3786.0481            0    12801.066    16.792172     19.77896     20.48641    6804.1862    15657.007    12122.288    10623.904   -120.29246    -919.2618    1029.5665   -2016.1041 
10793000    296.37553   -3762.9608   -3254.9833   -3762.9608            0    11973.685    16.799383    19.787454    20.495208     6812.956    12605.798    13335.306     9979.953   -1312.6923     1536.591    273.58603   -2065.2782 
10794000    279.27823   -3741.0182   -3262.3449   -3741.0182            0    12192.283    16.826547     19.81945    20.528348    6846.0584    11808.001    11391.072    13377.776   -226.19516    249.15728    285.18139    -2045.034 
10795000     279.3412   -3790.7271   -3311.9459   -3790.7271            0    12424.857    16.766618    19.748861    20.455234    6773.1699    13490.771    12696.284    11087.514    1391.6809    235.63681     -1576.43   -2084.6218 
10796000    292.68576   -3765.7523   -3264.0989   -3765.7523            0    11894.536    16.780902    19.765686    20.472661    6790.4958    13090.974    11899.942    10692.692   -487.54683    1309.7824    117.12723   -2086.1543 
10797000    278.20042   -3764.0796   -3287.2536   -3764.0796            0    14806.777    16.754388    19.734456    20.440314    6758.3592    16817.275    15215.111    12387.946    1984.8399   -1493.2127    1772.4811   -1827.8423 
10798000    287.15412   -3762.2228   -3270.0505   -3762.2228            0     13265.48    16.812929     19.80341    20.511734    6829.4499    12827.018    15805.794     11163.63   -1023.9721   -367.47469    2436.6298   -1948.8017 
10799000    302.36103   -3770.5127   -3252.2763   -3770.5127            0    12982.974    16.807213    19.796677     20.50476    6822.4865    14430.263    11869.548    12649.112   -296.63759    833.58762   -607.34853   -1960.4837 
10800000    280.64852   -3806.4643   -3325.4424   -3806.4643            0    11523.849    16.824877    19.817483    20.526311    6844.0203     11776.66    11360.202    11434.685    820.76609    779.41552   -210.78379   -2175.2122 
10801000    276.86338    -3756.463   -3281.9286    -3756.463            0    11748.228    16.804807    19.793843    20.501826    6819.5577    11812.263    11718.248    11714.172   -235.79885   -829.35751    692.97945   -2113.4939 
10802000    289.94408   -3807.6034   -3310.6492   -3807.6034            0    11916.206     16.75165    19.731231    20.436974    6755.0472    12079.141    12952.706    10716.773   -789.60814     1581.571    847.96682   -2136.7189 
10803000    294.76905   -3804.7026   -3299.4785   -3804.7026            0    14144.727      16.7247    19.699488    20.404095    6722.4971    15286.077    13756.189    13391.916    1865.9051    546.27927    397.26004   -1912.7192 
10804000    302.39049    -3775.338   -3257.0511    -3775.338            0    12498.556    16.786182    19.771905    20.479102    6796.9072    11953.728    12188.454    13353.486   -1993.1041    749.19558    1020.2618   -2018.1202 
10805000    278.51226     -3764.21   -3286.8495     -3764.21            0    12970.833    16.792211    19.779006    20.486458    6804.2336    12256.036    13669.247    12987.216    739.78712    304.73416   -1711.5221   -1999.7179 
10806000     307.8801   -3765.9216   -3238.2256   -3765.9216            0    12257.432     16.83642    19.831079    20.540393    6858.1159     13084.27    13067.949    10620.077   -1033.5459   -315.75723    357.56295   -2012.2546 
10807000    299.15984   -3784.6069   -3271.8571   -3784.6069            0    13620.907     16.79243    19.779264    20.486725    6804.4998    13218.033    12872.055    14772.634    542.21749    1135.6765   -387.46498    -1920.164 
10808000    292.81752   -3775.2779   -3273.3987   -3775.2779            0    12901.116    16.782671     19.76777    20.474819    6792.6436    14202.523    11111.398    13389.427   -121.21609    -320.1335    396.32462   -1995.3659 
10809000    278.51812   -3785.4561   -3308.0856   -3785.4561            0    11477.544    16.899541    19.905426      20.6174      6935.54    8239.6763    12846.742    13346.215   -1834.1396    580.41001   -921.42932   -2147.1579 
10810000    281.80275   -3816.0658   -3333.0656   -3816.0658            0    11537.407    16.803612    19.792436    20.500368    6818.1026    12342.678    12374.221    9895.3235   -1523.4151   -1048.3057    509.13946   -2185.8431 
10811000    288.45801   -3747.4319   -3253.0247   -3747.4319            0    12972.236    16.745487    19.723972    20.429455    6747.5938    13147.983     14198.23    11570.496    1890.7354   -583.44992    786.71648   -1976.4693 
10812000    309.34822   -3789.8795   -3259.6672   -3789.8795            0    11011.303     16.84359    19.839524     20.54914    6866.8817    11132.964    11380.304    10520.643    -388.9707   -428.91268   -615.74056   -2156.9245 
10813000    308.14949   -3762.0865   -3233.9288   -3762.0865            0     11776.94    16.812464    19.802862    20.511167    6828.8835    12352.378     10740.75    12237.693    991.54158   -814.49704    429.79777   -2061.0367 
10814000    290.49909   -3759.7219   -3261.8164   -3759.7219            0    14135.572    16.730906    19.706798    20.411667    6729.9835    12824.521     14012.54    15569.655    1069.0928    564.55661    597.93742   -1874.4113 
10815000    277.75056   -3766.9163   -3290.8614   -3766.9163            0    14298.151    16.691986    19.660955    20.364184    6683.1256    13114.848    14935.385     14844.22    -912.4423    2047.5527    1710.3923   -1897.2702 
10816000     306.6513   -3750.8847   -3225.2949   -3750.8847            0    12639.185    16.848011    19.844732    20.554534    6872.2905    11078.083    15050.814    11788.657    2480.0092    1021.4616   -1607.1956   -1958.5287 
10817000    269.50086   -3777.7064   -3315.7911   -3777.7064            0    10335.084    16.763829    19.745576    20.451832    6769.7906    11796.648    8634.7741    10573.829    151.87707   -954.26635    1965.8173   -2295.4037 
10818000    285.19222   -3754.7167    -3265.907   -3754.7167            0    14086.056    16.676558    19.642782    20.345361    6664.6113     14720.49     14013.33    13524.349   -104.95507   -591.68662    1289.8634   -1896.7914 
10819000    264.29673   -3786.4718   -3333.4763   -3786.4718            0    12050.389    16.727944    19.703308    20.408053    6726.4092     13040.05    12042.314    11068.803    825.42522   -831.12461    290.53514   -2151.3599 
10820000    284.54408   -3774.4738    -3286.775   -3774.4738            0    10856.538    16.878534    19.880683    20.591772    6909.7088    11386.021    12248.654     8934.939    678.90513    1491.2985    -611.5178   -2192.7506 
10821000    275.99166   -3757.5621   -3284.5219   -3757.5621            0    10362.906    16.845597    19.841888    20.551589    6869.3364    9909.9272    10830.307    10348.482    736.06251    1256.8351   -48.786932   -2246.3429 
10822000    313.69452   -3753.3186   -3215.6569   -3753.3186            0    12233.432    16.856315    19.854513    20.564665    6882.4573    12695.352    11562.586     12442.36   -1221.2883    1108.6978   -222.36198   -1987.7435 
10823000    273.07335   -3753.9857   -3285.9473   -3753.9857            0    16256.788     16.69698    19.666836    20.370276    6689.1253    17733.045    16043.609    14993.709   -234.25312    1270.5554   -1198.8868   -1700.0321 
10824000    290.37769   -3776.0187   -3278.3213   -3776.0187            0    13621.743    16.773515    19.756985    20.463649     6781.532    12485.772    14734.685    13644.774    1393.3441    157.97888   -1145.1792   -1931.1079 
10825000     284.8846   -3775.8823   -3287.5998   -3775.8823            0    13978.723    16.792962    19.779891    20.487374    6805.1466    13145.124    14946.425    13844.621    49.484922   -312.23415    795.65957   -1900.2663 
10826000    282.38677   -3748.5772   -3264.5759   -3748.5772            0    14494.138    16.774394     19.75802    20.464722    6782.5985    13443.715    15389.392    14649.307    15.234895    540.27487    412.80418   -1830.8557 
10827000    283.30271   -3780.9264   -3295.3552   -3780.9264            0      12433.5    16.813447     19.80402    20.512366    6830.0812    13051.008    11601.196    12648.296     -337.461   -1198.7028    792.66485   -2056.8577 
10828000     301.2021   -3741.4571    -3225.207   -3741.4571            0    13520.363    16.809653     19.79955    20.507737     6825.458    12091.331    14373.883    14095.876    1229.0494     1504.941    1361.2758   -1879.3588 
10829000    298.03851   -3801.1533   -3290.3255   -3801.1533            0    12551.472    16.785518    19.771123    20.478293    6796.1015    10778.552    12543.591    14332.273   -298.37134    694.41395   -570.09931   -2046.2968 
10830000    309.82077   -3755.1829   -3224.1607   -3755.1829            0    12872.212    16.819258    19.810864    20.519455    6837.1653    11584.972    13299.808    13731.856   -122.87968   -1856.3754    282.02697   -1940.6332 
10831000    285.61987   -3726.2061   -3236.6634   -3726.2061            0    14716.123    16.723769    19.698391    20.402959    6721.3742     13732.83    16066.523    14349.017    3.5789512     1763.663   -256.90878    -1794.125 
10832000     276.5346   -3747.6614   -3273.6906   -3747.6614            0      11777.4    16.788466    19.774595    20.481889    6799.6821    11906.245    12402.861    11023.094    755.63442   -103.61441   -449.68893   -2105.7684 
10833000    276.46044   -3768.7215   -3294.8778   -3768.7215            0    13490.961    16.805329    19.794458    20.502463    6820.1932    14104.389      13144.9    13223.592    715.77872    249.39456   -55.772508   -1952.9924 
10834000    291.09537   -3698.8108   -3199.8833   -3698.8108            0    12953.623    16.801547    19.790004    20.497849    6815.5897    12457.354    13850.611    12552.902    441.09154   -223.65285     832.8142   -1912.3141 
10835000    275.99148   -3735.6496   -3262.6096   -3735.6496            0    11989.447    16.757006     19.73754    20.443509    6761.5286    13622.134    11455.368    10890.838   -1558.9429   -1475.4798   -541.01046   -2080.3308 
10836000    289.66813   -3754.9868   -3258.5056   -3754.9868            0    11305.319    16.804907    19.793961    20.501948    6819.6795     12270.16    11333.108    10312.689    1749.3526   -570.66876   -1775.6006   -2134.1009 
10837000    285.17485   -3762.3973   -3273.6174   -3762.3973            0    12876.913     16.77808    19.762362    20.469218    6787.0706    12761.216     12684.83    13184.694   -305.47933    1652.6008    417.83645   -1999.0288 
10838000    307.66863   -3782.3448   -3255.0113   -3782.3448            0    12288.606     16.84754    19.844176    20.553959    6871.7137    11570.536    10811.404    14483.878     701.8308    842.59092   -181.06565   -2023.4854 
10839000    273.33641     -3770.27   -3301.7808     -3770.27            0    11050.388    16.801184    19.789575    20.497405    6815.1468    10603.253    10854.444    11693.465    2599.3675    234.62567    332.20197   -2203.4615 
10840000    288.06797   -3742.8951   -3249.1565   -3742.8951            0     14534.79    16.742791    19.720797    20.426167     6744.336    17176.235    13055.889    13372.246    1068.0269   -1798.0019    495.48494   -1819.5259 
10841000    282.63123   -3771.8293    -3287.409   -3771.8293            0    11843.818    16.813336    19.803889     20.51223    6829.9457    11927.027    12667.564    10936.864    262.18964   -87.839866    101.92392   -2107.6729 
10842000    292.22816   -3739.6933   -3238.8242   -3739.6933            0    12702.544    16.750486     19.72986    20.435554    6753.6391    12685.375    11500.186    13922.071    930.23119    850.15711    1141.7376   -1987.6884 
10843000    268.44601   -3775.9632   -3315.8559   -3775.9632            0    12037.705    16.822713    19.814934    20.523671      6841.38    10479.426    12198.828    13434.862    -1975.804    -2001.077    1562.3687   -2114.7998 
10844000    288.10263   -3754.4823   -3260.6843   -3754.4823            0    13427.508    16.749138    19.728272    20.433909    6752.0079      12919.7    14775.478    12587.347    1285.0774   -515.54904    1378.7647   -1938.4627 
10845000    288.35632   -3785.8808    -3291.648   -3785.8808            0     16739.71    16.668986    19.633863    20.336124    6655.5372    15810.311    16935.541    17473.279     313.9288    1255.7978    634.51355   -1666.8216 
10846000    284.61917   -3752.7543   -3264.9268   -3752.7543            0    11705.935    16.806161    19.795438    20.503478    6821.2062    12109.865    13084.106    9923.8352   -1480.4096    286.83051    600.43584   -2100.4169 
10847000    290.92263   -3754.7601   -3256.1287   -3754.7601            0    13025.268    16.803459    19.792255    20.500181     6817.916    11775.522    12042.062    15258.221    1386.8461   -403.70606   -15.613148   -1960.9962 
10848000    280.73199   -3797.6571    -3316.492   -3797.6571            0    12450.686    16.747418    19.726246    20.431811    6749.9287    10856.519    13499.481    12996.058     1134.438   -2750.5786   -929.83971   -2090.8367 
10849000    289.54635    -3780.574   -3284.3015    -3780.574            0    12073.909    16.799757    19.787895    20.495665    6813.4112    13840.945    11616.002    10764.779     -585.493   -230.10287   -12.374261   -2084.5581 
10850000    267.13867   -3764.6932   -3306.8267   -3764.6932            0     12553.28    16.830775     19.82443    20.533506    6851.2204    12383.763     13992.79    11283.288   -2023.1165   -1809.0079    2036.0202   -2052.5277 
10851000    290.84247   -3797.3179   -3298.8238   -3797.3179            0    11539.007      16.7856     19.77122    20.478393    6796.2009    12907.161    9722.9779    11986.883    243.07095    1163.8696   -845.32394    -2155.128 
10852000    287.66202   -3756.3634   -3263.3205   -3756.3634            0    12720.667    16.846117    19.842501    20.552224    6869.9734    11526.003    13978.442    12657.557   -557.62182    1676.1948   -866.82662   -1988.8176 
10853000    289.22763   -3754.0601   -3258.3338   -3754.0601            0    13761.935    16.833532    19.827677     20.53687    6854.5878    13327.009    14210.375     13748.42    825.93549   -367.68076    1135.9795   -1882.5926 
10854000    288.10945   -3787.1462   -3293.3365   -3787.1462            0    12313.043    16.833482    19.827618    20.536808    6854.5262    12318.798    10990.309    13630.022   -1147.7682    639.15205    816.79191   -2062.4479 
10855000    293.86955    -3731.836   -3228.1537    -3731.836            0     13084.72    16.802035    19.790578    20.498443    6816.1829    14850.675    13055.504    11347.982   -1179.1581   -849.86601    480.50958   -1927.4404 
10856000    277.62837   -3782.5275    -3306.682   -3782.5275            0    12227.286    16.836767    19.831487    20.540816    6858.5401    12133.635    11838.098    12710.125    899.69697    946.38021    1087.2284   -2083.6505 
10857000    289.24523   -3809.1918   -3313.4353   -3809.1918            0    13124.179    16.848424    19.845219    20.555038    6872.7963    12633.533    13891.347    12847.658   -387.42275   -63.810478   -1275.2083   -1997.9636 
10858000    282.26205   -3720.2436   -3236.4561   -3720.2436            0    14594.901    16.745117    19.723536    20.429004    6747.1469    13984.035    14163.972    15636.696   -2031.5878    2455.4522    456.68268   -1800.3147 
10859000    291.59221   -3791.3379   -3291.5589   -3791.3379            0    11901.201    16.861777    19.860946    20.571329    6889.1499    12237.241    12290.084    11176.278   -15.960117    1163.5014    779.46329   -2095.8311 
10860000    272.28439    -3749.951   -3283.2649    -3749.951            0    12503.103    16.815478    19.806412    20.514844    6832.5564    10778.745    13833.429    12897.135   -37.709378   -378.74416   -233.77102   -2037.3829 
10861000    285.91664   -3749.3563   -3259.3049   -3749.3563            0    12167.169    16.860479    19.859417    20.569745    6887.5588    12004.677    13297.224    11199.607    966.05146   -215.31145   -1387.3575   -2037.1373 
10862000    285.57181   -3774.2198   -3284.7595   -3774.2198            0    10439.942    16.851134     19.84841    20.558344    6876.1128    10828.635    12580.496    7910.6944     522.4393   -408.06095   -444.86725   -2237.8311 
10863000    284.12727   -3756.8598   -3269.8753   -3756.8598            0    15100.264    16.704502    19.675697    20.379454    6698.1706    14053.327    16076.045    15171.421   -96.258767   -356.78136   -113.37922   -1794.7918 
10864000    309.29937   -3773.7679   -3243.6393   -3773.7679            0    10979.328     16.79743    19.785154    20.492826    6810.5804    10934.467    10687.125    11316.393    1694.0664    235.60402    1045.4121   -2153.1139 
10865000    286.91394   -3728.6153   -3236.8547   -3728.6153            0    11389.138    16.794719    19.781961    20.489518    6807.2832    9089.0471    14639.736    10438.632   -30.291209   -192.25018   -533.20482   -2106.1724 
10866000    290.58466   -3798.5029   -3300.4507   -3798.5029            0    10285.271    16.860007    19.858861    20.569169    6886.9801    9356.7379    11024.753    10474.323    344.46694    2013.7942   -562.85251   -2267.4028 
10867000    271.37149   -3764.7453   -3299.6239   -3764.7453            0     13424.67    16.763344    19.745006    20.451241     6769.204    11824.036    12695.331    15754.644   -433.36427   -496.33687   -1130.1938    -1974.315 
10868000    290.73468   -3803.5529   -3305.2436   -3803.5529            0    12281.362    16.809542    19.799421    20.507603    6825.3239    13362.983    12626.878    10854.224    645.79353     239.7112    801.71648   -2082.7526 
10869000     289.5897   -3808.5923   -3312.2455   -3808.5923            0    11415.948    16.817589    19.808898    20.517419    6835.1299    11065.076    11110.715    12072.052    -1323.378   -915.05826    893.77745   -2174.2655 
10870000     276.9249    -3757.997   -3283.3572    -3757.997            0    12313.914    16.788368     19.77448     20.48177    6799.5635    15770.969    9397.0909    11773.683    832.87164   -59.944845   -30.677965   -2062.2521 
10871000    291.65296   -3794.0733   -3294.1901   -3794.0733            0    15048.093    16.703311    19.674294       20.378    6696.7376    14667.973     16889.83    13586.477    1518.8013    162.20944    418.79405   -1824.5173 
10872000     300.6349   -3773.3534   -3258.0755   -3773.3534            0    13808.175    16.771253    19.754321     20.46089    6778.7893     14946.84    13323.127    13154.558   -117.68671   -399.32735    11.741944    -1892.976 
10873000    270.98311   -3798.5263   -3334.0705   -3798.5263            0    11618.034    16.773323    19.756759    20.463415    6781.2992    12797.056    11168.231    10888.815     149.7506   -839.30129    798.26438   -2185.0668 
10874000    302.33769   -3762.3732   -3244.1768   -3762.3732            0    12832.057     16.76435     19.74619    20.452468    6770.4223    10431.405    13572.076     14492.69   -357.75322   -813.79116    -996.4567   -1977.1438 
10875000    297.65301   -3705.0622   -3194.8951   -3705.0622            0    15015.789    16.738699    19.715976    20.421173    6739.3913    14462.228    14321.589    16263.549    -215.4586   -2587.4996   -721.59293   -1719.0366 
10876000    303.34266   -3774.7563   -3254.8373   -3774.7563            0    12248.097    16.754571    19.734672    20.440538    6758.5816    14223.518    11827.933    10692.841   -199.81351   -2136.3403   -1235.4954   -2047.5794 
10877000    293.07046     -3734.96   -3232.6473     -3734.96            0    14796.038    16.747612    19.726475    20.432048    6750.1634    14411.871    12532.852     17443.39     -1160.89    1208.7065   -130.31807    -1776.063 
10878000    276.56151   -3716.7471   -3242.7302   -3716.7471            0    12820.073    16.740253    19.717807     20.42307    6741.2692    12397.181    11774.542    14288.495   -1062.5725   -676.63153    127.32721   -1982.3312 
10879000    303.16372   -3761.9483    -3242.336   -3761.9483            0    13994.505    16.756621    19.737086    20.443038    6761.0619    15748.689    14959.998    11274.828    199.94498    285.47021    128.46489   -1862.4337 
10880000    273.77582   -3751.5564    -3282.314   -3751.5564            0    12117.771     16.76459    19.746473    20.452761    6770.7132    13019.079    11312.459    12021.776    1044.3283   -376.29174    128.63437   -2085.7579 
10881000    292.37752   -3824.3945   -3323.2695   -3824.3945            0    14355.422    16.724355    19.699081    20.403674    6722.0808     15094.14    14177.034    13795.092   -75.129157   -1049.4623    722.05416   -1915.9406 
10882000    280.92612   -3740.8627    -3259.365   -3740.8627            0    11551.008    16.853068    19.850688    20.560704    6878.4805    9407.2515    13124.841     12120.93   -337.03625    207.75458    979.22266   -2100.6189 
10883000    277.51884   -3792.5288    -3316.871   -3792.5288            0    10021.095    16.837335    19.832157    20.541509    6859.2346    10829.876    7543.0476     11690.36   -1682.9749    1130.9496   -1427.4235   -2314.4118 
10884000     276.0774   -3779.5602   -3306.3729   -3779.5602            0    14896.512    16.697702    19.667687    20.371157    6689.9934     15958.73     12573.54    16157.266   -1326.9002    1100.7042   -257.64177   -1852.9695 
10885000    276.38754   -3776.3478    -3302.629   -3776.3478            0    10826.785     16.73129     19.70725    20.412135    6730.4464    12002.174     9581.297    10896.883    561.01465    1716.8465   -461.61444    -2239.908 
10886000    283.29987   -3761.2883   -3275.7221   -3761.2883            0    13514.697    16.788125    19.774193    20.481473    6799.2676    14356.128     13179.46    13008.504   -387.75722    1579.4983   -354.04714      -1935.6 
10887000    279.83586    -3756.188    -3276.559    -3756.188            0    14490.892    16.762843    19.744415    20.450629    6768.5961    14914.028    14410.503    14148.145    1266.6407    613.07069    -32.96113   -1846.1191 
10888000    306.85327   -3808.2611   -3282.3251   -3808.2611            0    14301.308     16.75717    19.737733    20.443709    6761.7271    15255.076    13557.034    14091.815    654.22028   -262.82713   -130.79343   -1872.0323 
10889000     276.3513   -3827.7689   -3354.1123   -3827.7689            0    10906.442    16.807937    19.797529    20.505644    6823.3683    12553.348    10709.111    9456.8675    1181.6478    1577.9479   -66.421987   -2268.7923 
10890000    272.27322   -3741.2774   -3274.6104   -3741.2774            0    13953.309    16.749328    19.728496    20.434141    6752.2377     14529.28    13916.383    13414.264    987.20972    567.59428    -824.9202   -1900.5658 
10891000    281.93265   -3796.0261   -3312.8032   -3796.0261            0    13035.393    16.733947    19.710379    20.415376    6733.6529     14046.49    12295.586    12764.103   -283.22265    618.96139    2158.7249   -2032.6829 
10892000    282.31065   -3786.5677   -3302.6969   -3786.5677            0    10412.754    16.780618    19.765352    20.472315    6790.1516    10666.512    10095.348    10476.403    80.604649   -111.64563   -651.15892    -2271.549 
10893000    277.66292   -3777.6323   -3301.7275   -3777.6323            0    11057.848    16.780364    19.765052    20.472005    6789.8427    11234.451    12807.582    9131.5115    325.53775     1967.664    1296.2189   -2206.7474 
10894000    276.72857   -3777.9918   -3303.6885   -3777.9918            0    11706.387    16.748596    19.727634    20.433248    6751.3526     11648.65    12529.639    10940.871    1353.7072   -900.69949   -573.43716   -2151.0595 
10895000    301.47577   -3774.9224   -3258.2033   -3774.9224            0    12717.269    16.797744    19.785524    20.493209    6810.9623    11550.634    15097.385    11503.788    1302.4183    2249.6603    143.88463   -1994.9855 
10896000    283.93765    -3781.204   -3294.5446    -3781.204            0    11660.917    16.833487    19.827624    20.536814    6854.5321    12565.917     11997.83    10419.004    29.394777    1173.0542   -49.014638   -2128.8457 
10897000    281.06648   -3805.9088   -3324.1705   -3805.9088            0    10936.641    16.765462      19.7475    20.453825    6771.7695    11136.976    10564.373    11108.575    226.16313    -318.8314    321.23173   -2244.0753 
10898000    274.77869   -3775.4639   -3304.5026   -3775.4639            0    14088.872    16.730794    19.706666     20.41153    6729.8484    13438.498    14196.005    14632.111   -720.51941   -1076.4857   -510.27459   -1921.7089 
10899000    296.78058   -3741.4388   -3232.7671   -3741.4388            0    13194.926     16.78361    19.768876    20.475965    6793.7839    13775.846    13428.479    12380.452     875.6253    1331.9946    1040.9349   -1925.4089 
10900000    285.68302   -3760.1073   -3270.4564   -3760.1073            0    12401.829    16.770883    19.753885    20.460438    6778.3403    13330.014    12612.843    11262.631    832.44576     991.5261    38.127481   -2044.4718 
10901000    292.80031   -3747.7582   -3245.9085   -3747.7582            0    13758.961    16.744856    19.723229    20.428686    6746.8315    14822.655    11384.032    15070.197   -366.08764   -385.92326   -231.47452    -1892.087 
10902000    281.85815   -3800.4005   -3317.3053   -3800.4005            0    12793.678    16.755963    19.736311    20.442235    6760.2655    13115.007    12293.445    12972.581    871.44517    830.21214    518.81519   -2055.9569 
10903000    287.46385   -3743.0657   -3250.3625   -3743.0657            0    13709.617     16.76026    19.741373    20.447479    6765.4685    14712.268    12399.707    14016.876   -797.43685    689.89356    850.22027     -1897.67 
10904000    274.06925    -3781.364   -3311.6187    -3781.364            0    13950.232    16.732191    19.708311    20.413234    6731.5336    14304.376    13637.547    13908.775    2578.3503    71.044879   -967.11095   -1942.0893 
10905000    284.82387   -3783.4955   -3295.3171   -3783.4955            0    12512.258    16.748057    19.726999    20.432591    6750.7016    11995.758    12125.712    13415.303   -1652.9304   -451.02394    623.80745   -2063.4596 
10906000    276.98724   -3811.2748   -3336.5282   -3811.2748            0    11441.534    16.765415    19.747445    20.453767    6771.7128    8705.2778     14803.77    10815.554    1666.0172    -343.7957   -301.13593   -2206.5796 
10907000    283.31713   -3787.4574   -3301.8616   -3787.4574            0    13149.422    16.746743    19.725451    20.430987    6749.1122     13536.26    14713.545    11198.462   -1763.5163   -718.67836   -1170.6977   -2007.5787 
10908000    283.29017   -3755.7727    -3270.223   -3755.7727            0    11954.753    16.748067    19.727011    20.432603    6750.7138    12333.469    10734.571     12796.22   -115.69407    42.176133    1663.7922   -2093.2508 
10909000    280.65158   -3772.8573   -3291.8301   -3772.8573            0    10772.998    16.825102    19.817748    20.526585    6844.2947    12464.102    8569.4317    11285.459    2403.0647    1081.4206    1163.5452   -2216.5017 
10910000    307.84254   -3752.0312   -3224.3996   -3752.0312            0    13494.699    16.744606    19.722934     20.42838    6746.5286    11668.199    14226.731    14589.168   -189.60092   -1651.9402    975.75064     -1896.64 
10911000     279.0628   -3782.8323   -3304.5282   -3782.8323            0    10835.033    16.810779    19.800877    20.509111    6826.8299    9586.2951    10415.907    12502.897    727.53418    1161.9003   -30.366226   -2225.7673 
10912000    265.21358   -3746.7392   -3292.1722   -3746.7392            0    9621.9558    16.873404    19.874641    20.585513    6903.4103    8185.7364     12117.44    8562.6909   -356.62944   -1018.0253   -1208.9321   -2323.4418 
10913000    298.40125   -3751.2608   -3239.8112   -3751.2608            0    14211.334    16.713634    19.686453    20.390594    6709.1616     15849.77    12688.495    14095.737    1278.8352   -314.39128   -515.72686   -1849.2856 
10914000    279.80894   -3742.4884   -3262.9055   -3742.4884            0      13997.8    16.790947    19.777518    20.484916    6802.6978    13519.176    14326.316    14147.909    67.859927   -481.72474    394.71171   -1874.1785 
10915000    293.77714   -3787.0539   -3283.5299   -3787.0539            0    10965.029    16.820422    19.812236    20.520876    6838.5853    11226.261    11410.233    10258.592   -273.14271   -518.71857    29.528476   -2189.9464 
10916000    291.45017   -3755.8426   -3256.3069   -3755.8426            0     14371.12    16.746091    19.724684    20.430192    6748.3245    13556.617    13500.558    16056.186    322.03905    129.14443   -318.58275   -1841.9388 
10917000    278.64304   -3824.1837    -3346.599   -3824.1837            0    11233.485    16.842582    19.838336     20.54791    6865.6487    11278.232    10115.932     12306.29   -651.45999    316.12014    1154.0926   -2221.8077 
10918000    295.17472   -3737.4587   -3231.5393   -3737.4587            0    12162.955     16.77941    19.763928     20.47084    6788.6843    10923.244    13401.036    12164.586    -759.1653   -318.98651    1747.2786   -2027.3338 
10919000     289.0565   -3720.2431   -3224.8102   -3720.2431            0    12851.129    16.792142    19.778925    20.486374    6804.1501    12919.802     14396.42    11237.166   -1299.8833    423.54066    907.94386   -1949.5727 
10920000    293.89119   -3735.9648   -3232.2453   -3735.9648            0    10283.051    16.765343     19.74736    20.453679    6771.6254    13086.322    9087.0609    8675.7712    1389.2593   -1226.5153    1130.3292   -2216.7199 
10921000    284.71703   -3774.0366   -3286.0413   -3774.0366            0    10461.413    16.840335     19.83569     20.54517    6862.9018     10898.51    11332.039    9153.6892   -792.78197    1583.2418    1681.2723   -2238.9754 
10922000    290.29322   -3770.7821   -3273.2294   -3770.7821            0    15435.509    16.724283    19.698996    20.403586    6721.9936    16287.446     13138.44    16880.642    670.74706    214.44481   -303.45878   -1760.0343 
10923000    283.45517   -3762.3513   -3276.5189   -3762.3513            0    12338.335    16.748193    19.727159    20.432756    6750.8652    14169.112    12180.701    10665.191   -761.84353     449.6056   -985.84647    -2061.755 
10924000    291.95187   -3759.5794   -3259.1839   -3759.5794            0    13807.517     16.76263    19.744165     20.45037     6768.339    12773.192    14955.988     13693.37   -557.88251    2275.9488   -1125.6309   -1896.2538 
10925000     291.3645   -3732.2869   -3232.8981   -3732.2869            0    15060.652    16.719286    19.693111     20.39749    6715.9708    12946.542     17482.51    14752.903    914.96895    591.19044   -814.88459   -1757.7743 
10926000    287.74421   -3760.1157    -3266.932   -3760.1157            0    15839.872    16.704555    19.675759    20.379518     6698.234    16334.256    15259.998    15925.363    1012.3874    1299.1175    392.01682   -1719.5844 
10927000    299.20382   -3780.9687   -3268.1436   -3780.9687            0    11319.536    16.792346    19.779165    20.486623    6804.3977    11085.639    10514.826    12358.144   -705.06128   -513.05603    1225.5319   -2144.8476 
10928000    292.52318   -3790.6415   -3289.2668   -3790.6415            0    11280.787    16.817354    19.808622    20.517133    6834.8441    9680.6495    12101.348    12060.365    1621.4655   -74.698387     358.2759    -2164.807 
10929000    287.32326   -3768.8767   -3276.4145   -3768.8767            0    12502.463    16.732619    19.708815    20.413756    6732.0506    9964.6856    12635.142     14907.56   -1131.6083    63.648598   -1052.3578   -2048.9221 
10930000    287.19766    -3794.427   -3302.1801    -3794.427            0    12487.985    16.726207    19.701262    20.405933    6724.3141     10882.48    13587.237    12994.238    12.445733   -338.58834   -766.22492    -2077.518 
10931000    282.63735   -3771.4145   -3286.9838   -3771.4145            0     11905.57    16.750752    19.730173    20.435878    6753.9604    11348.057    11674.346    12694.307   -1442.8279    510.67513   -514.04899   -2114.2901 
10932000    294.85554   -3758.7245   -3253.3522   -3758.7245            0    14874.694    16.703833    19.674909    20.378637    6697.3657    16848.297    13435.837    14339.948    343.20496   -1032.4265    198.77264   -1800.4782 
10933000     285.1534   -3766.6094   -3277.8663   -3766.6094            0    13521.912    16.702286    19.673086    20.376749    6695.5044    13325.622    13868.596     13371.52    620.51753    722.11253    350.48709   -1957.4912 
10934000     293.1425   -3803.8988   -3301.4626   -3803.8988            0     11206.44    16.847311    19.843907     20.55368    6871.4334     11188.29    11073.092    11357.937    508.66179    24.012732   -41.776595   -2178.4338 
10935000     295.5087   -3758.7885   -3252.2967   -3758.7885            0    12215.314    16.819694    19.811377    20.519987    6837.6967    14519.441    12574.478    9552.0234    699.46227    1001.9827    330.34496   -2034.1759 
10936000    282.37841   -3699.5572   -3215.5703   -3699.5572            0     12766.15    16.775587    19.759425    20.466177    6784.0454    15108.099    12498.567    10691.786   -346.13817   -561.01155    579.48633   -1952.5085 
10937000    270.59143   -3742.2361   -3278.4516   -3742.2361            0    10363.724    16.792456    19.779295    20.486757    6804.5313    11009.555    11132.873    8948.7456   -237.08215   -695.23303      512.145   -2249.9856 
10938000    299.75468   -3741.4796   -3227.7103   -3741.4796            0    14330.808    16.749041    19.728158    20.433791    6751.8916    15068.628    14422.634    13501.161    9.5148267   -740.55317    654.53007   -1816.5641 
10939000      286.781   -3787.3603   -3295.8275   -3787.3603            0    12855.762    16.732352    19.708501    20.413431    6731.7285    13765.732    12942.631    11858.922    1606.0763   -1154.3296    1267.3388   -2033.7086 
10940000    307.86609    -3769.307    -3241.635    -3769.307            0    12914.751    16.712761    19.685425     20.38953    6708.1108    13441.654    14212.424    11090.174   -75.426979   -1655.4644     867.0505   -1978.1731 
10941000    296.40027   -3771.7597   -3263.7398   -3771.7597            0    11539.798     16.79365    19.780702    20.488214    6805.9839     9998.504    14116.638    10504.252    1514.7156   -930.26377   -398.82086   -2118.3191 
10942000    300.94429   -3791.6129   -3275.8047   -3791.6129            0    11939.688    16.814716    19.805514    20.513914    6831.6279    12178.412    9978.7109    13661.941   -225.99411    -455.5934    -1360.398   -2086.2262 
10943000    293.42707   -3771.4254   -3268.5014   -3771.4254            0    13902.942    16.746363    19.725004    20.430524    6748.6531    14336.203    13813.995    13558.627   -1020.4472    728.35092   -366.15317   -1900.1435 
10944000    298.49721   -3764.8862   -3253.2722   -3764.8862            0    12379.175     16.76154    19.742881     20.44904    6767.0188    12968.331    12240.136    11929.057   -1594.8079    210.36434     2652.493   -2031.5711 
10945000     274.7586   -3771.7659    -3300.839   -3771.7659            0    11599.863    16.803319     19.79209    20.500009    6817.7452    10500.225    11107.477    13191.887   -3089.7616    817.53392   -58.590723   -2147.4667 
10946000    285.51016   -3776.9851   -3287.6305   -3776.9851            0    10961.382    16.807545    19.797068    20.505166    6822.8916    8810.6556    12144.257    11929.234     1130.552    1466.1519   -298.64235   -2196.9195 
10947000    282.89061   -3743.2351   -3258.3703   -3743.2351            0    12659.011    16.784151    19.769513    20.476626    6794.4414    12362.766    14271.768    11342.499   -1234.5276   -1245.2475   -1119.0755   -2003.9894 
10948000    295.03762   -3755.1338   -3249.4494   -3755.1338            0    13307.562       16.757    19.737533    20.443501    6761.5211     13217.43    13078.219    13627.037   -2020.9459   -1910.8304   -452.27064   -1937.1927 
10949000    305.55508   -3782.4465   -3258.7356   -3782.4465            0    12459.926    16.780611    19.765343    20.472306    6790.1421    11654.806    12484.298    13240.672     263.9554    275.92417   -142.10199   -2024.8633 
10950000    285.51508   -3749.0552   -3259.6921   -3749.0552            0    11863.198    16.762737    19.744291    20.450501    6768.4686    10571.688    12662.235    12355.671   -1507.9867   -185.64898    976.40388    -2088.662 
10951000     279.4891   -3756.4435   -3277.4088   -3756.4435            0    13181.152    16.778111    19.762399    20.469257    6787.1089    13563.888     12299.89    13679.677    2044.6614    1521.0547   -2316.7278   -1972.6985 
10952000    293.60558   -3738.1185   -3234.8886   -3738.1185            0    12752.235    16.776731    19.760774    20.467573    6785.4342    14647.192    12877.272    10732.242    779.55431   -411.85145    1021.3914   -1972.9452 
10953000    278.73689   -3779.8218   -3302.0763   -3779.8218            0    12673.283    16.778262    19.762576     20.46944     6787.291    11088.402    12579.633    14351.814   -1303.0195   -1643.6488    2517.5934   -2047.6028 
10954000    275.08628   -3753.8527   -3282.3642   -3753.8527            0    13525.787    16.701523    19.672188    20.375819    6694.5876    13967.001    11713.101     14897.26   -845.65484    363.33433    140.36395   -1961.7917 
10955000    271.84686   -3772.5247   -3306.5885   -3772.5247            0    13057.617    16.748196    19.727163     20.43276    6750.8694    12408.544    14129.688    12634.617    29.754036   -498.19917    1204.5239   -2021.0073 
10956000    283.67226    -3768.562   -3282.3574    -3768.562            0     11532.27    16.761289    19.742584    20.448733    6766.7139    10985.533    11106.861    12504.416   -1402.8648   -1918.4591    991.76425   -2144.2887 
10957000    281.62003   -3781.7901    -3299.103   -3781.7901            0    9348.9208    16.834519     19.82884    20.538074    6855.7934    9550.5805    9396.8569    9099.3251   -362.02353    868.00845    209.58922   -2364.3538 
10958000    285.95905   -3722.6814   -3232.5574   -3722.6814            0    13799.215    16.718289    19.691936    20.396274    6714.7691    13266.353    13789.505    14341.788      1661.15    908.05144    589.70501   -1881.2276 
10959000    285.09564   -3790.3137   -3301.6695   -3790.3137            0    11201.527    16.783226    19.768423    20.475496    6793.3174    9799.5631    11308.037     12496.98    1103.9746   -1129.2432   -825.17219   -2191.8943 
10960000    290.55018   -3756.2228   -3258.2297   -3756.2228            0    10793.146    16.822045    19.814146    20.522855    6840.5642    11087.177    11418.077    9874.1828   -668.76919    544.68903    251.52953   -2181.4773 
10961000    290.44816   -3797.9034   -3300.0852   -3797.9034            0     13689.01    16.797611    19.785367    20.493046    6810.8003    14110.433    14930.037    12026.559    67.206842    -1010.644    817.23168   -1940.3759 
10962000    290.15938   -3776.5615   -3279.2383   -3776.5615            0    13431.161    16.757802    19.738477    20.444479    6762.4915     13485.62    14454.686    12353.176   -1590.2423   -869.57192   -436.91618   -1954.6035 
10963000    299.42236   -3788.2011   -3275.0014   -3788.2011            0    11613.102    16.804614    19.793616     20.50159    6819.3226    14221.492    9561.6733    11056.141   -1857.2725   -487.86947   -39.599335   -2120.0456 
10964000      291.174   -3781.2899   -3282.2276   -3781.2899            0    13832.846    16.730144      19.7059    20.410737    6729.0636    13690.256    13993.375    13814.907    -1332.691    920.69087    2517.2496   -1924.7207 
10965000    271.81369   -3822.8523   -3356.9729   -3822.8523            0    13939.025    16.738345     19.71556    20.420742    6738.9642    13408.418    14082.005    14326.653   -1513.6347   -790.56411    185.06568   -1987.0333 
10966000    290.64069   -3782.3485   -3284.2003   -3782.3485            0    10246.562    16.779175    19.763652    20.470554    6788.3997    9985.2664    9226.8555    11527.564   -486.69293   -854.15342   -461.01796   -2269.7717 
10967000     274.8411   -3759.1078   -3288.0396   -3759.1078            0    13865.811    16.775457    19.759272    20.466018     6783.888    12040.756    15426.985    14129.691   -682.05105    702.13462    698.89426   -1916.2111 
10968000    298.49918   -3768.3369   -3256.7196   -3768.3369            0    12424.181    16.787826    19.773841    20.481108    6798.9046    11826.593    13837.857    11608.093      161.172    200.32598   -343.08251   -2024.7993 
10969000    284.00245   -3738.0303   -3251.2599   -3738.0303            0    13633.523    16.751095    19.730577    20.436296     6754.375    12866.005    11957.106    16077.458    225.41682    115.72921   -1581.6409   -1908.2811 
10970000    283.59713   -3804.9446   -3318.8688   -3804.9446            0    11682.787    16.747199    19.725988    20.431543    6749.6633    12702.988    11200.941    11144.432    -1754.649   -183.86703   -222.56395   -2168.8513 
10971000    292.37734   -3789.8963   -3288.7716   -3789.8963            0    11997.059    16.749372    19.728548    20.434195    6752.2919    11477.974    11002.271    13510.932   -67.644319    768.85547   -144.74954   -2107.3582 
10972000    289.62011   -3803.4344   -3307.0354   -3803.4344            0    11793.988    16.795307    19.782654    20.490236    6807.9988    11111.991    10825.539    13444.433   -33.202896     1457.974   -2995.3348   -2136.0377 
10973000    290.50849   -3783.7333   -3285.8117   -3783.7333            0    11479.088    16.849328    19.846283    20.556141    6873.9021    10809.246     11891.97    11736.048    -258.4857    224.61933   -345.44375   -2135.0468 
10974000     284.7965   -3760.7224    -3272.591   -3760.7224            0    11266.969     16.80851    19.798205    20.506343    6824.0664    10501.937    10170.616    13128.352   -121.98688    1512.3257    76.192466   -2151.2796 
10975000    288.60182    -3790.066   -3295.4123    -3790.066            0    12237.982    16.809787    19.799709    20.507901    6825.6217    11398.047    11216.671    14099.227   -592.99708   -1131.0295   -729.60952   -2077.1862 
10976000    286.99921   -3739.2977   -3247.3909   -3739.2977            0    12835.672    16.822099     19.81421    20.522921    6840.6303    10841.806    13413.891    14251.318    42.083738   -920.84633    775.01058   -1966.8584 
10977000    288.62468   -3708.9438   -3214.2509   -3708.9438            0    12120.599    16.876069     19.87778    20.588765    6906.6823    11842.783    12920.888    11598.126    1371.7261    869.53425    -118.0496   -1993.3808 
10978000    300.38316   -3746.3081   -3231.4616   -3746.3081            0    11039.158    16.832111    19.826004    20.535137    6852.8525    10197.662    12073.273    10846.538   -43.578018    214.22978   -1545.2407   -2128.1881 
10979000    302.33244   -3780.0987   -3261.9112   -3780.0987            0    11909.548    16.883727      19.8868    20.598107    6916.0885    10208.538    13198.264    12321.842   -1690.5036    942.49678   -2171.6821   -2060.6659 
10980000    293.63415   -3736.9528   -3233.6739   -3736.9528            0    11510.642    16.831416    19.825184    20.534288    6852.0027     12476.99    9531.8937    12523.041    1331.4667    281.78007   -39.508962    -2083.422 
10981000    306.08486   -3761.4073   -3236.7883   -3761.4073            0    14981.732    16.754501    19.734589    20.440452    6758.4963    13969.821    14730.896     16244.48   -1349.1203   -313.47148    602.56109   -1760.1028 
10982000    290.66448   -3762.0027   -3263.8138   -3762.0027            0    12551.912    16.807386    19.796881    20.504972    6822.6973    12741.782    11272.692    13641.261   -329.15431    211.07573   -770.70369   -2014.8729 
10983000    285.62543   -3762.3214   -3272.7692   -3762.3214            0    13370.152    16.723644    19.698243    20.402806     6721.223    13365.808    12553.356    14191.291     612.6645   -1113.7161    1493.0271   -1962.1983 
10984000    292.10656   -3751.0897    -3250.429   -3751.0897            0    9535.1595    16.881877    19.884621     20.59585     6913.815     10714.53    8574.6093    9316.3393   -1331.4612   -1014.0215   -22.386704   -2288.9903 
10985000    279.58681   -3786.3922     -3307.19   -3786.3922            0    9502.6394    16.850224    19.847338    20.557234    6874.9986    7954.8912    10986.059    9566.9683    313.52422   -401.38228    954.97109   -2354.4097 
10986000     281.6068   -3764.6032   -3281.9387   -3764.6032            0    12419.278    16.768047    19.750544    20.456978    6774.9022     11931.01    13782.237    11544.589     489.2501    596.79453    89.103718   -2054.8519 
10987000    286.93823   -3774.8504   -3283.0481   -3774.8504            0    10453.979    16.854785    19.852711    20.562799    6880.5835    9539.1452    11919.287    9903.5046    438.80953    371.63636    700.15681   -2234.0305 
10988000      288.923   -3731.4784   -3236.2743   -3731.4784            0    12587.798    16.720285    19.694287    20.398709    6717.1742    13343.239    12607.833     11812.32   -784.40254   -918.93339    -118.9755   -2003.1346 
10989000    303.32979   -3745.3149    -3225.418   -3745.3149            0    13976.253    16.750872    19.730315    20.436025    6754.1062    11660.344    15914.374     14354.04    524.01054    2155.5675    2299.7587   -1848.7331 
10990000    292.57724   -3736.1648   -3234.6975   -3736.1648            0    14826.047    16.775405    19.759212    20.465955    6783.8252    15639.572    14125.191    14713.378   -408.40077    1520.5038   -1671.0445   -1767.8805 
10991000    293.58428   -3794.6388   -3291.4454   -3794.6388            0    11474.901    16.793366    19.780367    20.487867    6805.6378     12195.94    11518.354    10710.408    362.10381    1346.5753   -694.23577   -2152.5243 
10992000    284.59612    -3750.236    -3262.448    -3750.236            0     10670.81    16.772376    19.755644     20.46226    6780.1511    12225.275    9480.1295    10307.025   -223.53325    3.5771047    811.33873   -2207.3018 
10993000    295.14253   -3735.1908   -3229.3266   -3735.1908            0    14984.851    16.708726    19.680673    20.384607    6703.2532    14864.413    13142.363    16947.778   -601.99971   -1269.3021   -2691.8988   -1764.4065 
10994000     292.2888   -3745.0471   -3244.0741   -3745.0471            0    12164.909    16.794281    19.781445    20.488984    6806.7507    13992.484    10356.826    12145.416    171.82787   -619.69328    336.87921   -2036.4699 
10995000     302.9519   -3748.3061   -3229.0569   -3748.3061            0    11691.005    16.798371    19.786262    20.493973    6811.7243    11931.529    10157.739    12983.748   -1604.4362    699.04376   -1383.2174   -2067.6489 
10996000    284.49748   -3756.6847   -3269.0658   -3756.6847            0    12042.014    16.747215    19.726007    20.431563    6749.6833    13675.044    11304.846     11146.15    1025.8151   -2082.2038   -32.091241   -2083.6836 
10997000    286.87964   -3784.7835   -3293.0816   -3784.7835            0    11529.978    16.792246    19.779047      20.4865    6804.2761    11531.622    11266.492     11791.82   -1624.7006    -606.3104   -1230.0577   -2148.9228 
10998000    291.77501   -3724.5054    -3224.413   -3724.5054            0    12315.648    16.792856    19.779766    20.487245    6805.0177    13270.603    11564.589    12111.752   -54.068791   -1735.9108   -656.60763   -2002.1563 
10999000    279.14479   -3787.7211   -3309.2765   -3787.7211            0    11301.214    16.802705    19.791367    20.499261    6816.9983    11731.355    12264.804    9907.4825    855.80473    129.18093    1342.8903    -2185.722 
11000000    303.38229    -3789.653   -3269.6661    -3789.653            0    10993.445    16.842037    19.837695    20.547246    6864.9825    12533.867    11702.271    8744.1968   -361.52856    457.27432    1233.7593   -2169.0164 
Loop time of 460.843 on 64 procs for 250000 steps with 864 atoms

Performance: 93.741 ns/day, 0.256 hours/ns, 542.484 timesteps/s
99.0% CPU use with 64 MPI tasks x 1 OpenMP threads

MPI task timing breakdown:
Section |  min time  |  avg time  |  max time  |%varavg| %total
---------------------------------------------------------------
Pair    | 22.11      | 27.896     | 32.462     |  45.8 |  6.05
Bond    | 0.27255    | 0.28465    | 0.2963     |   0.9 |  0.06
Kspace  | 197.24     | 204.68     | 217.26     |  29.2 | 44.41
Neigh   | 6.3647     | 7.0849     | 8.8379     |  20.9 |  1.54
Comm    | 94.527     | 106.77     | 113.25     |  37.5 | 23.17
Output  | 1.2456     | 1.2473     | 1.26       |   0.2 |  0.27
Modify  | 105.92     | 108.21     | 110.32     |  11.6 | 23.48
Other   |            | 4.668      |            |       |  1.01

Nlocal:        13.5000 ave          20 max           8 min
Histogram: 2 4 6 8 12 22 5 3 1 1
Nghost:        2288.38 ave        2325 max        2255 min
Histogram: 2 4 7 12 11 11 3 7 6 1
Neighs:        4491.84 ave        7126 max        2624 min
Histogram: 3 6 7 18 8 13 3 4 1 1

Total # of neighbors = 287478
Ave neighs/atom = 332.72917
Ave special neighs/atom = 2.0000000
Neighbor list builds = 16510
Dangerous builds = 2

unfix		3
unfix		2
unfix		1

write_data	data.final.${pid}
write_data	data.final.0
System init for write_data ...
PPPM initialization ...
  extracting TIP4P info from pair style
  using 12-bit tables for long-range coulomb (../kspace.cpp:340)
  G vector (1/distance) = 0.37490905
  grid = 24 24 24
  stencil order = 5
  estimated absolute RMS force accuracy = 0.0030879127
  estimated relative force accuracy = 9.2991574e-06
  using double precision FFTW3
  3d grid and FFT values/proc = 2535 216
Last active /omp style is kspace_style pppm/tip4p/omp
WARNING: Not all mixed pair coeffs generated from mixing. Use write_data with 'pair ij' option to store all pair coeffs. (../write_data.cpp:312)

write_restart   restart.lmp.${pid}
write_restart   restart.lmp.0
System init for write_restart ...
PPPM initialization ...
  extracting TIP4P info from pair style
  using 12-bit tables for long-range coulomb (../kspace.cpp:340)
  G vector (1/distance) = 0.37490905
  grid = 24 24 24
  stencil order = 5
  estimated absolute RMS force accuracy = 0.0030879127
  estimated relative force accuracy = 9.2991574e-06
  using double precision FFTW3
  3d grid and FFT values/proc = 2535 216
Last active /omp style is kspace_style pppm/tip4p/omp
Total wall time: 0:07:43
