LAMMPS (30 Jul 2021)
  using 1 OpenMP thread(s) per MPI task
package omp 0
using multi-threaded neighbor list subroutines
echo both

include		in.partitions
variable        pid world 0
include		in.temp
variable        temperature equal 249.31
variable	tempDamp equal 100.0
include		in.pressure
variable        pressure equal 5000.0
variable        pressureDamp equal 1000.0 # This is 1 ps
include		in.seed
variable        seed world 745823

units		real
atom_style	full
read_restart	restart.lmp.${pid}
read_restart	restart.lmp.0
Reading restart file ...
  restart file = 30 Jul 2021, LAMMPS = 30 Jul 2021
  restoring atom style full from restart
  orthogonal box = (0.47240402 1.6479608 0.57633180) to (17.735168 21.981217 21.636864)
  4 by 4 by 4 MPI processor grid
  restoring pair style lj/cut/tip4p/long/omp from restart
  restoring bond style harmonic/omp from restart
  restoring angle style harmonic/omp from restart
  864 atoms
  576 bonds
  288 angles
Finding 1-2 1-3 1-4 neighbors ...
  special bond factors lj:    0        0        0       
  special bond factors coul:  0        0        0       
     2 = max # of 1-2 neighbors
     1 = max # of 1-3 neighbors
     1 = max # of 1-4 neighbors
     2 = max # of special neighbors
  special bonds CPU = 0.117 seconds
  read_restart CPU = 0.250 seconds
include 	in.setup
variable	out_freq equal 1000
variable	out_freq2 equal 10000
variable	out_freq3 equal 1000

timestep	2.0

neigh_modify    delay 7 every 1

include		in.tip4p
# This is TIP4P/Ice

# create groups ###
group ox type 2
288 atoms in group ox
group hy type 1
576 atoms in group hy

# set charges - beside manually ###
set group ox charge -1.1794
Setting atom values ...
  288 settings made for charge
set group hy charge 0.5897
Setting atom values ...
  576 settings made for charge

# ### TIP3P Potential Parameters ###
pair_style lj/cut/tip4p/long/omp 2 1 1 1 0.1577 8.5
pair_coeff 1 1*2 0.000 0.000
pair_coeff 2 2 0.21084 3.1668
bond_style  harmonic
bond_coeff  1 450 0.9572
angle_style harmonic
angle_coeff 1 55 104.52
kspace_style pppm/tip4p/omp 1.0e-5
pair_modify tail yes

thermo          ${out_freq}
thermo          1000
thermo_style    custom step temp pe etotal epair emol press lx ly lz vol pxx pyy pzz pxy pxz pyz enthalpy

restart 	${out_freq3} restart.lmp.${pid} restart2.lmp.${pid}
restart 	1000 restart.lmp.${pid} restart2.lmp.${pid}
restart 	1000 restart.lmp.0 restart2.lmp.${pid}
restart 	1000 restart.lmp.0 restart2.lmp.0


include         in.dump
dump            myDump all atom ${out_freq2} dump.water.${pid}
dump            myDump all atom 10000 dump.water.${pid}
dump            myDump all atom 10000 dump.water.0
dump            myDump2 all dcd ${out_freq2} dump.dcd
dump            myDump2 all dcd 10000 dump.dcd
dump_modify     myDump append yes
dump_modify     myDump2 append yes


variable natoms 	equal  "count(all)"                        # NUMBER ATOMS
variable H      	equal  "enthalpy/v_natoms"                 # ENTHALPY-per-atom
variable Vol      	equal  "vol/v_natoms"                 # volume-per-atom
fix AVG all 		ave/time ${out_freq} 1 ${out_freq} v_Vol v_H file vol_enthalpy.dat
fix AVG all 		ave/time 1000 1 ${out_freq} v_Vol v_H file vol_enthalpy.dat
fix AVG all 		ave/time 1000 1 1000 v_Vol v_H file vol_enthalpy.dat


timer           timeout 23:50:00 every 1000
New timer settings: style=normal  mode=nosync  timeout=23:50:00

fix 		1 all shake 1e-6 200 0 b 1 a 1
       0 = # of size 2 clusters
       0 = # of size 3 clusters
       0 = # of size 4 clusters
     288 = # of frozen angles
  find clusters CPU = 0.005 seconds
fix             2 all nph iso ${pressure} ${pressure} ${pressureDamp}
fix             2 all nph iso 5000 ${pressure} ${pressureDamp}
fix             2 all nph iso 5000 5000 ${pressureDamp}
fix             2 all nph iso 5000 5000 1000
fix             3 all temp/csvr ${temperature} ${temperature} ${tempDamp} ${seed}
fix             3 all temp/csvr 249.31 ${temperature} ${tempDamp} ${seed}
fix             3 all temp/csvr 249.31 249.31 ${tempDamp} ${seed}
fix             3 all temp/csvr 249.31 249.31 100 ${seed}
fix             3 all temp/csvr 249.31 249.31 100 745823

run             250000
PPPM initialization ...
  extracting TIP4P info from pair style
  using 12-bit tables for long-range coulomb (../kspace.cpp:340)
  G vector (1/distance) = 0.37443678
  grid = 24 24 25
  stencil order = 5
  estimated absolute RMS force accuracy = 0.003052513
  estimated relative force accuracy = 9.1925522e-06
  using double precision FFTW3
  3d grid and FFT values/proc = 2730 288
Last active /omp style is kspace_style pppm/tip4p/omp
Neighbor list info ...
  update every 1 steps, delay 7 steps, check yes
  max neighbors/atom: 2000, page size: 100000
  master list distance cutoff = 10.8154
  ghost atom cutoff = 10.8154
  binsize = 5.4077, bins = 4 4 4
  1 neighbor lists, perpetual/occasional/extra = 1 0 0
  (1) pair lj/cut/tip4p/long/omp, perpetual
      attributes: half, newton on, omp
      pair build: half/bin/newton/omp
      stencil: half/bin/3d
      bin: standard
Per MPI rank memory allocation (min/avg/max) = 9.239 | 9.243 | 9.250 Mbytes
Step Temp PotEng TotEng E_pair E_mol Press Lx Ly Lz Volume Pxx Pyy Pzz Pxy Pxz Pyz Enthalpy 
16250000    257.18376    -3901.663   -3460.8588    -3901.663            0    4545.7151    17.262764    20.333256    21.060532    7392.4197    7285.1986    1676.9147    4675.0319   -887.72278   -266.54898   -805.33279   -2970.7814 
16251000     244.0526   -3909.2292   -3490.9314   -3909.2292            0    5424.5997    17.308862    20.387553    21.116771    7451.7985     5287.408    6277.8745    4708.5165    560.49301    -242.7052   -875.11417   -2901.4031 
16252000    253.72405    -3937.923   -3503.0487    -3937.923            0    4437.6399    17.353017    20.439562     21.17064    7508.9736    5512.6162     3446.518    4353.7853     541.7607   -597.78861   -983.30137   -3017.0797 
16253000    255.63843   -3934.6231   -3496.4676   -3934.6231            0    3621.9237    17.303221    20.380909    21.109889    7444.5159    3042.8123    4096.9863    3725.9725    -308.8233     13.90194    316.88263   -3103.2331 
16254000    233.45366   -3927.7375   -3527.6059   -3927.7375            0    4602.0735     17.24491    20.312226    21.038749    7369.5056    5271.9568    3915.1158    4619.1479    338.57103    -987.0068    -1068.729   -3032.9903 
16255000    257.46057   -3919.6427   -3478.3641   -3919.6427            0    5063.3228    17.270389    20.342238    21.069835    7402.2199    5778.3138    5193.5764    4218.0782    468.97341   -1234.4971    865.71132   -2931.7592 
16256000    244.57179   -3899.5264   -3480.3387   -3899.5264            0    6146.8223    17.227287    20.291468    21.017249    7346.9355    6835.7022    4591.6916    7013.0731    313.42046   -1170.0043   -22.370991   -2821.7219 
16257000    255.11733   -3931.4934    -3494.231   -3931.4934            0    5361.0939    17.318666    20.399101    21.128732    7464.4687    5822.6709     6283.831    3976.7796    322.25935    683.71492   -1220.0728   -2910.6137 
16258000    258.96865   -3920.3367   -3476.4733   -3920.3367            0    5612.8818    17.281893    20.355787    21.083869    7417.0209    5431.4362    6215.6272     5191.582    90.749874    1035.0444    -795.4732   -2869.3299 
16259000    253.50891   -3915.0491   -3480.5435   -3915.0491            0    5501.6463    17.305513    20.383608    21.112685    7447.4742    7610.3461    5442.6057    3451.9873   -54.816316   -2165.5245    868.06559   -2882.9889 
16260000    262.54022   -3944.9215   -3494.9366   -3944.9215            0    4312.9005    17.293474    20.369428    21.097998    7431.9427    4869.0992    4724.1094    3345.4929    1237.4673   -824.23583   -182.22792   -3027.4731 
16261000    243.76067   -3923.0256   -3505.2282   -3923.0256            0    4570.1583    17.294246    20.370337     21.09894    7432.9375     3964.285    5184.4053    4561.7847    443.64644   -710.01461     -833.739   -3009.8149 
16262000    251.72907   -3884.8026   -3453.3476   -3884.8026            0    4119.0698    17.237762    20.303807     21.03003    7360.3465     4785.639    3411.9203    4159.6501   -714.71895    340.04677    159.78063   -3011.1939 
16263000     258.6562   -3916.0791   -3472.7512   -3916.0791            0    5773.2142     17.21025    20.271401    20.996465    7325.1604    7563.9928    5779.9061    3975.7436    725.89255    84.742031    491.87628   -2855.9991 
16264000    237.88601   -3920.8039   -3513.0754   -3920.8039            0    3888.9637    17.232085     20.29712    21.023103    7353.0761    3391.1255    4379.5307    3896.2349   -347.19532   -1534.6673   -258.74101   -3096.0343 
16265000    241.52939   -3907.6906   -3493.7175   -3907.6906            0    5889.7513    17.168566    20.222303     20.94561    7272.0631    7134.9117    4712.1429    5822.1993   -71.134664    2082.6238    650.65994   -2869.0765 
16266000    247.84228   -3916.7425   -3491.9494   -3916.7425            0    6508.1801    17.210509    20.271707    20.996781    7325.4915    6129.0359    7684.9802    5710.5242   -876.55951   -992.56696   -478.19937   -2796.6494 
16267000    249.51009    -3918.673   -3491.0213    -3918.673            0    5197.6562     17.30618    20.384394    21.113499    7448.3359    4938.3366    6256.7271     4397.905    660.65259   -1401.9684    34.537953   -2926.4189 
16268000    233.58042    -3928.218   -3527.8692    -3928.218            0    3696.0921    17.339856    20.424059    21.154583    7491.9007    3469.9462    4131.8172    3486.5127   -65.802501   -1028.8347    446.84744   -3124.0279 
16269000    250.39247   -3922.7515   -3493.5874   -3922.7515            0    3994.6923    17.259344    20.329227    21.056359    7388.0264    2318.3532    4592.1608    5073.5629   -197.83726   -532.52568     363.1392   -3063.1721 
16270000    241.08101   -3914.5704   -3501.3658   -3914.5704            0    6005.6576    17.259426    20.329324     21.05646     7388.132    5077.1631    5962.4973    6977.3123   -458.33502   -357.84155    -380.6908   -2854.2663 
16271000    239.80445   -3908.7066     -3497.69   -3908.7066            0    4388.6554    17.320136    20.400832    21.130525     7466.369     3841.925    4331.5415    4992.4997    580.86945   -776.80184   -1086.1698   -3019.8122 
16272000    252.17579   -3875.0529   -3442.8323   -3875.0529            0    4669.7351    17.318567    20.398985    21.128612    7464.3411    3402.0919     5113.195    5493.9186   -1942.9964    781.37403   -869.10176    -2934.486 
16273000    237.77948   -3905.0938   -3497.5479   -3905.0938            0    4723.2588    17.272767    20.345038    21.072736    7405.2778    4546.2048     6424.612    3198.9598     765.7434   -113.58792   -21.544041   -2987.4436 
16274000    265.32183   -3871.3366    -3416.584   -3871.3366            0    5369.0602    17.242623    20.309532    21.035959     7366.574     4678.935     6471.501    4956.7445   -337.14011   -77.282652    1275.8668   -2839.7648 
16275000     242.2029   -3872.1132   -3456.9857   -3872.1132            0    4674.2839    17.190881    20.248587    20.972834    7300.4557    4610.6195    4582.2641    4829.9682   -4.3319286    29.781988   -1728.5396   -2959.3163 
16276000    251.06416   -3876.8087   -3446.4934   -3876.8087            0    4490.9561     17.27103    20.342992    21.070616    7403.0432    4155.9078    4505.9103    4811.0502    39.209132     777.3012    36.783738   -2961.6237 
16277000    256.27695   -3901.2769    -3462.027   -3901.2769            0    6153.6623    17.269134    20.340758    21.068303    7400.6051    6883.4525    3450.7222    8126.8122    31.048438  -0.27635632    1080.1239   -2797.8608 
16278000    245.52767   -3910.2953   -3489.4693   -3910.2953            0    5969.4067    17.219522    20.282322    21.007776    7337.0057    4958.1127    6131.0133     6819.094     896.5911     2202.359    818.35236   -2850.7267 
16279000    242.28329   -3929.0198   -3513.7545   -3929.0198            0    4106.0298    17.308133    20.386694    21.115882    7450.8574     4705.451    3086.6163    4526.0219     605.0656    -2125.343    703.73313   -3067.5805 
16280000    252.94345   -3884.2157   -3450.6793   -3884.2157            0    6162.1884    17.256597    20.325992    21.053008    7384.4999    5558.7103    6355.5521    6572.3028    1266.2058    1468.2937    729.33535   -2787.0402 
16281000    257.55425   -3910.7967   -3469.3575   -3910.7967            0    3567.5064    17.323476    20.404767      21.1346    7470.6901    2954.3196    3677.3436     4070.856   -962.66221   -30.720049    692.44231   -3080.6693 
16282000    241.77912   -3906.8703   -3492.4692   -3906.8703            0    5848.2435    17.264562    20.335374    21.062726    7394.7296    5317.7169    5148.8108    7078.2028    1340.0769    110.36457    316.97052    -2861.768 
16283000    252.02886     -3931.44   -3499.4712     -3931.44            0    5367.0737    17.258185    20.327863    21.054946    7386.5385    5968.5115    5312.2823    4820.4272    66.768896   -488.21219    267.95161   -2921.3027 
16284000     234.6731   -3938.8552   -3536.6336   -3938.8552            0    6541.5562    17.200682    20.260132    20.984792    7312.9503    5887.8237    7248.7647    6488.0802   -740.45613    110.20454   -948.62909   -2838.9643 
16285000    243.29223     -3950.11   -3533.1155     -3950.11            0    4715.1338    17.243512     20.31058    21.037045    7367.7145    2370.4008    5141.6961    6633.3044    621.75939    1274.5113    -236.3817   -3026.4717 
16286000    243.21211   -3950.1085   -3533.2513   -3950.1085            0     5450.332    17.253274    20.322078    21.048954    7380.2343    4758.2301    6428.2648    5164.5012    169.27518    609.63389    532.94542   -2946.6149 
16287000    265.59168   -3959.1459   -3503.9309   -3959.1459            0    6427.1976    17.217096    20.279465    21.004817    7333.9057    7143.2867    6147.4642    5990.8418    762.80542   -628.72832    -57.32492   -2816.4939 
16288000     246.9726   -3906.0802   -3482.7776   -3906.0802            0     6428.509    17.219109    20.281836    21.007273    7336.4783    7446.2442      6258.49    5580.7929    57.771366    860.81061    321.05948   -2794.9592 
16289000    254.06825   -3908.7506   -3473.2863   -3908.7506            0    5064.2192    17.229325    20.293869    21.019736    7349.5439    4333.2156    6209.8204    4649.6214   -1226.6274     633.0745   -2594.1909   -2930.4751 
16290000    240.40505   -3892.1134   -3480.0674   -3892.1134            0    3610.0434    17.377476    20.468371     21.20048    7540.7695    3937.7492    4543.7592    2348.6219    183.17905    1186.1273   -764.52416   -3083.0551 
16291000    249.14378   -3912.9803   -3485.9564   -3912.9803            0    4156.7181    17.325454    20.407096    21.137013    7473.2485    4893.3186    2661.2512    4915.5847    598.06693    904.71646   -457.04204    -3032.917 
16292000    261.10954   -3934.3269   -3486.7941   -3934.3269            0    5671.3917    17.318333    20.398709    21.128326    7464.0386    4399.4468    6656.2441    5958.4841    2648.3701    77.035298   -734.13466   -2869.4328 
16293000    255.46947   -3895.5918   -3457.7259   -3895.5918            0    4571.5275    17.308103     20.38666    21.115846    7450.8194    3380.6026    5609.1703    4724.8094    395.25947    266.66799    729.34623    -2960.972 
16294000     251.6582   -3880.0061   -3448.6726   -3880.0061            0    6151.7759    17.194257    20.252564    20.976954    7304.7585    6175.7153    7378.1612    4901.4511    568.01282   -111.92232    272.64004    -2793.309 
16295000    237.41148   -3937.8969   -3530.9818   -3937.8969            0    3514.5295    17.290986    20.366498    21.094963    7428.7355    5438.1789    2769.3732    2336.0364    79.952335    1636.9523    -519.4407   -3150.2159 
16296000    248.01354   -3876.2675   -3451.1808   -3876.2675            0    5791.6485    17.280443    20.354079      21.0821    7415.1545    6002.6758    5821.9313    5550.3385    146.39426   -1567.4891      727.125   -2824.8579 
16297000    246.05682   -3892.7735   -3471.0405   -3892.7735            0    5133.0603    17.231351    20.296256    21.022208    7352.1372    4442.4453    6184.3126    4772.4228   -424.27747    860.18355   -278.93357   -2920.6564 
16298000    249.11948   -3861.9802   -3434.9979   -3861.9802            0     4816.382    17.237177    20.303118    21.029316    7359.5967    3383.1785    4712.9555     6353.012    1766.9199   -34.621164   -972.96533   -2918.0452 
16299000    250.32587    -3868.297   -3439.2471    -3868.297            0    5795.4753    17.237065    20.302986    21.029179    7359.4534    4638.4143    7733.7827    5014.2289    398.27257    104.65392     -677.328   -2817.2182 
16300000     242.2046   -3886.2257   -3471.0953   -3886.2257            0    5611.4386    17.147366    20.197332    20.919746    7245.1572    5527.4492     4751.532    6555.3346    1331.3082   -165.04309    69.542821   -2878.1728 
16301000    241.47294   -3861.2379   -3447.3616   -3861.2379            0    4760.6168    17.266617    20.337794    21.065232    7397.3697     4016.792    4406.5909    5858.4676     -1640.22    805.52143     640.0482   -2933.7717 
16302000    237.50049   -3911.0817    -3504.014   -3911.0817            0    4191.1758    17.269875    20.341632    21.069208    7401.5589    3989.2229      3779.04    4805.2645   -1052.8088   -335.50891    -1119.293   -3051.6011 
16303000     248.9763   -3904.5673   -3477.8304   -3904.5673            0    4495.7568    17.241138    20.307783    21.034148    7364.6712    2894.7393    3943.5352    6648.9961   -71.049109   -898.39111   -350.69302   -2994.9584 
16304000    261.14455    -3914.477   -3466.8842    -3914.477            0    2730.3911    17.246706    20.314341    21.040941    7371.8087    2384.5336    1258.7485    4547.8912   -1551.6985   -1379.2078    -674.0021   -3173.3391 
16305000    248.30122   -3923.5246   -3497.9448   -3923.5246            0    3785.5704    17.242917    20.309879    21.036319    7366.9516    4049.1453    2878.8687    4428.6973   -500.06706   -855.91437    132.66901   -3091.2253 
16306000    271.41361   -3911.7696    -3446.576   -3911.7696            0    5454.6812     17.19873    20.257832    20.982411    7310.4604    4952.2004     5635.303    5776.5402   -423.15475     362.5416    1759.4338    -2865.022 
16307000    253.54213   -3941.3875    -3506.825   -3941.3875            0    5809.5251    17.199718    20.258996    20.983616    7311.7202    6227.7997    4828.9213    6371.8543    1221.2057   -646.84872    146.87086   -2887.3325 
16308000     254.5141    -3929.418   -3493.1895    -3929.418            0    5642.6935    17.228224    20.292572    21.018393    7348.1343    5084.2281    4760.0506    7083.8017    1956.6519   -650.06296    1328.1691   -2888.4903 
16309000    251.44413   -3906.5725   -3475.6059   -3906.5725            0    6907.8282    17.223632    20.287163     21.01279    7342.2602    6254.0804    7504.8878    6964.5164    1552.5894    1190.3652   -310.84243   -2735.9202 
16310000    245.65438   -3927.2986   -3506.2554   -3927.2986            0    5478.2445    17.152822    20.203759    20.926403    7252.0761    3782.4491     6006.869    6645.4155   -541.19242   -75.741785     2647.688   -2926.8539 
16311000     243.8934   -3899.7049     -3481.68   -3899.7049            0    5701.0411    17.227803    20.292077     21.01788    7347.5964    5410.4403    6271.4533    5421.2297   -492.67077   -154.02847   -1365.6542   -2870.7726 
16312000    244.35854   -3871.4508   -3452.6286   -3871.4508            0    3547.0258    17.270143    20.341947    21.069534    7401.9032    2964.8813     4236.707    3439.4892   -1099.0016   -825.27699    1569.3368   -3069.7301 
16313000    260.02908   -3875.5013   -3429.8203   -3875.5013            0    6835.2942    17.267364    20.338674    21.066144    7398.3303    8658.3973    6168.6037    5678.8815   -986.91836   -337.25573    482.20043   -2692.3122 
16314000    251.37337   -3904.3879   -3473.5425   -3904.3879            0    6581.3802    17.326486    20.408312    21.138272    7474.5845      7273.94    6526.1698    5944.0308    15.277591    502.99513   -776.13161   -2756.1119 
16315000    249.33573   -3933.2253   -3505.8724   -3933.2253            0    4539.3594     17.20339    20.263321    20.988095    7316.4038    4770.7735     4985.907    3861.3978   -1225.7004   -1189.8616    376.66839   -3021.5125 
16316000    255.41288   -3874.5505   -3436.7816   -3874.5505            0    4787.7966    17.295279    20.371555      21.1002    7434.2701    3356.9957    6903.7565    4102.6377   -1496.3279   -1169.6399   -921.02942   -2917.6829 
16317000    240.20262   -3924.7026   -3513.0036   -3924.7026            0    6153.4331    17.244497    20.311739    21.038246    7368.9762     4222.731    8005.8628    6231.7054    104.86934    540.60693   -147.03692   -2851.7005 
16318000    249.04007   -3910.2587   -3483.4125   -3910.2587            0    5248.3858    17.224686    20.288404    21.014076    7343.6083     7388.421    5004.2017    3352.5347   -636.05651   -468.41485    636.00989   -2921.3157 
16319000    227.24398   -3902.2863   -3512.7978   -3902.2863            0     3228.308    17.305115     20.38314      21.1122    7446.9607     667.0498    5870.7115    3147.1628   -858.16377   -32.388858    761.90813   -3162.1833 
16320000    241.31096   -3861.2936   -3447.6949   -3861.2936            0     4588.356    17.301019    20.378315    21.107202    7441.6734    3590.3683    5465.1018    4709.5979     453.1083   -358.84556       1636.3   -2949.7244 
16321000     247.7827   -3890.8091   -3466.1181   -3890.8091            0    3628.0557    17.247338    20.315086    21.041712    7372.6189    5220.7544    2587.9366     3075.476   -729.41098   -1249.7647     203.3281    -3076.022 
16322000    275.34122   -3890.0471   -3418.1217   -3890.0471            0    4351.4628    17.304812    20.382783     21.11183    7446.5696    5184.6467    2455.6649    5414.0769   -570.35542    289.81287   -1930.1577   -2945.5503 
16323000    246.13334   -3927.8257   -3505.9615   -3927.8257            0    5906.0334    17.229556    20.294141    21.020018     7349.839    5545.3416    5693.5128    6479.2458    1264.7843    -336.8294    1265.8347   -2872.8946 
16324000    254.12267   -3929.0549   -3493.4973   -3929.0549            0    5770.9101    17.247673    20.315481    21.042121    7373.0493    6906.1039      6976.57    3430.0565   -257.51201   -318.23344     421.6333   -2872.9608 
16325000    240.89375   -3905.8325   -3492.9489   -3905.8325            0     4323.181    17.273297    20.345662    21.073382    7405.9588    3889.1263    3951.0666    5129.3499   -931.06732   -102.38415   -1199.9507   -3026.0094 
16326000     234.6889   -3910.9918    -3508.743   -3910.9918            0    5058.4935    17.224167    20.287794    21.013444    7342.9452    7043.2827    4627.1851    3505.0127   -568.09072    -380.8045   -203.79924   -2967.0324 
16327000    238.88023   -3926.3844   -3516.9519   -3926.3844            0    4432.1373    17.237403    20.303384    21.029592    7359.8865    5382.3109     4018.246     3895.855    -794.8432   -298.71078   -1312.0226   -3041.2222 
16328000    272.96745   -3902.8375   -3434.9806   -3902.8375            0    5842.7023    17.185926    20.242751     20.96679    7294.1458    5736.1103    6120.3708    5671.6258   -685.76507   -410.13069   -2117.0104   -2813.4478 
16329000    250.20137   -3933.8446    -3505.008   -3933.8446            0    3537.6488    17.249218      20.3173    21.044005    7375.0301    5464.4869    1389.8937    3758.5657    796.75538   -196.53297    -661.7875   -3124.5082 
16330000    259.87315   -3904.0062   -3458.5925   -3904.0062            0    4362.6926    17.273537    20.345945    21.073675    7406.2681    4273.6274    4758.0168    4056.4336   -608.40827   -471.20532     -1236.99   -2987.3658 
16331000    248.86555   -3943.0767   -3516.5297   -3943.0767            0    3928.7923    17.237999    20.304086    21.030319    7360.6501    3511.2341    4786.9389     3488.204   -517.84072    258.26497    202.17372   -3094.7835 
16332000    246.89158   -3985.1538   -3561.9901   -3985.1538            0    5193.0634    17.261951    20.332298     21.05954     7391.375    4953.7223     4949.093     5676.375   -500.76305    69.069542   -828.41274   -3002.2006 
16333000    232.22413   -3930.8537   -3532.8295   -3930.8537            0    4100.5272    17.280075    20.353645    21.081651    7414.6802     4731.685    3270.4242    4299.4724    357.31486   -714.70851   -1097.1712   -3089.4169 
16334000    260.49041   -3916.4543   -3469.9826   -3916.4543            0    5512.9414     17.31468    20.394406    21.123869    7459.3157     6177.406    7162.9244    3198.4939   -71.224432   -980.60015    1186.6862   -2870.2492 
16335000    256.93837    -3948.071   -3507.6874    -3948.071            0     4310.539    17.336656     20.42029    21.150679    7487.7538     3968.747    3990.7341    4972.1358   -1293.6298    845.65418     277.8185   -3036.9713 
16336000    251.59583   -3907.8486    -3476.622   -3907.8486            0    5692.2978    17.266265     20.33738    21.064803    7396.9181    6674.4161    4638.2526    5764.2245   -320.64869   -190.85779   -397.03476   -2862.5571 
16337000    248.74287    -3933.759   -3507.4222    -3933.759            0    6674.3296    17.184758    20.241375    20.965365    7292.6581     5028.326    7467.0718    7527.5909    329.64894   -859.81108    11.420998   -2797.5676 
16338000    259.72377   -3880.7592   -3435.6016   -3880.7592            0    5952.1603    17.254346    20.323341    21.050262    7381.6103    5746.1924    6155.0603    5955.2282   -384.08205   -1723.3644   -1385.1326   -2794.8324 
16339000    244.68408   -3939.1425   -3519.7624   -3939.1425            0    5493.4659    17.253148     20.32193    21.048801    7380.0729    6084.3063    4606.9408    5789.1505    127.07629    -595.0658   -1075.0022   -2928.4963 
16340000    249.59619   -3913.8845   -3486.0851   -3913.8845            0    5749.7701    17.210514    20.271712    20.996787     7325.497    6028.8774    5953.7551    5266.6777   -511.28015    -873.8642    633.42918   -2871.8092 
16341000    238.87086   -3922.9223   -3513.5058   -3922.9223            0      4862.44     17.26376    20.334429    21.061746    7393.6985    5248.9333    4618.5218    4719.8651   -305.69483    1592.1046      252.819   -2989.1913 
16342000    258.79098   -3922.8026   -3479.2437   -3922.8026            0     5307.372    17.251026     20.31943    21.046212    7377.3501    5856.8945    4925.9784    5139.2432   -286.21458   -434.87943   -1392.0808   -2908.2178 
16343000    249.52031   -3955.1288   -3527.4596   -3955.1288            0    4636.0895    17.204452    20.264571    20.989391    7317.7587    4396.7791    4531.7885    4979.7008    799.26831   -176.88904   -19.782462   -3032.6868 
16344000    245.88135   -3930.1474   -3508.7152   -3930.1474            0    4326.9868    17.270412    20.342264    21.069862    7402.2489    5126.3199     2567.576    5287.0646   -450.25423    524.73759    571.19876   -3041.5988 
16345000    234.74012   -3913.4521   -3511.1155   -3913.4521            0    5375.5656     17.19412    20.252403    20.976787    7304.5838    5671.6299    6553.5487    3901.5183   -619.75582   -1434.8102    1092.8825   -2938.4573 
16346000    248.20696   -3903.3286   -3477.9104   -3903.3286            0    3873.4324    17.305258    20.383309    21.112375    7447.1457    6006.3979    2870.2906    2743.6085   -425.49694   -1148.4552    -1044.595   -3057.2209 
16347000    249.00998   -3928.3936    -3501.599   -3928.3936            0     6661.264    17.233292    20.298541    21.024576    7354.6213    7061.2987    7093.8416    5828.6519   -1627.9913   -57.917129    428.65548   -2787.1144 
16348000    240.77046   -3960.4951   -3547.8228   -3960.4951            0    5596.5452     17.25797    20.327609    21.054683    7386.2626    5101.3413    4817.7918    6870.5025   -287.18224    294.29661   -200.28331    -2944.957 
16349000    247.83304    -3941.252   -3516.4746    -3941.252            0    4284.9275    17.359648    20.447373     21.17873    7517.5852    3772.8901    4760.2482    4321.6442   -264.07115   -770.77267   -986.64472   -3046.6912 
16350000    230.95336   -3901.3679   -3505.5218   -3901.3679            0    4274.9737    17.261528    20.331799    21.059023     7390.831    5167.6951    3933.4692    3723.7569   -1244.4085    -142.4506   -399.19873   -3044.7322 
16351000      243.058   -3943.2367   -3526.6436   -3943.2367            0    3639.6076     17.33473    20.418022     21.14833    7485.2586     3271.486     4402.759    3244.5778   -1083.0336     945.9346    905.67576   -3129.3265 
16352000    253.71664   -3935.6527    -3500.791   -3935.6527            0    5265.5812    17.312481    20.391816    21.121187    7456.4746    3814.3469     5908.051    6074.3455   -1095.0113    182.51135    295.13172   -2928.1852 
16353000    243.63741    -3924.699   -3507.1128    -3924.699            0     4810.819    17.341287    20.425745    21.156329    7493.7558    4832.1407     4200.902    5399.4142      880.898    525.09846    19.360322   -2981.3445 
16354000    243.69427    -3951.468   -3533.7844    -3951.468            0    6232.5745    17.288708    20.363815    21.092184    7425.7998    7224.1345    5754.9803    5718.6086   -181.77148    612.88366    1517.0264   -2858.8111 
16355000     241.0113   -3928.8271    -3515.742   -3928.8271            0    4176.0866    17.389845     20.48294     21.21557    7556.8831    3721.4891    5358.4988    3448.2719   -549.76579    1139.6119   -800.54182    -3055.498 
16356000    243.68199   -3953.9179   -3536.2553   -3953.9179            0    3639.9431    17.304565    20.382492    21.111529    7446.2511    2352.1242    4765.6637    3802.0414    354.12839    45.405276   -404.81818   -3140.9723 
16357000    247.63553   -3951.3555   -3526.9167   -3951.3555            0    5370.4211    17.215544    20.277637    21.002923    7331.9219    5522.3399    4929.0257    5659.8979   -1281.7449   -343.82896    152.56047   -2952.6653 
16358000     246.3852   -3926.8796   -3504.5838   -3926.8796            0    3488.3293    17.304139     20.38199    21.111009     7445.701    4466.0508      3439.44    2559.4969   -241.27394   -482.23964     894.0047   -3125.7934 
16359000    264.48502   -3958.3541   -3505.0358   -3958.3541            0    5372.0122    17.285236    20.359725    21.087947    7421.3261    5068.7959    6281.7793    4765.4614    -342.3956   -81.227893    604.48981   -2923.6099 
16360000    243.50797   -3930.1349   -3512.7705   -3930.1349            0    4054.4616    17.290148    20.365511     21.09394    7427.6551    2715.2973    5066.2287    4381.8589    556.42712   -797.52812   -584.27991   -3073.5721 
16361000    251.50346   -3936.6347   -3505.5664   -3936.6347            0    3860.8291    17.300551    20.377764    21.106632    7441.0704    2706.6399     3914.581    4961.2665   -522.80165    820.99478   -1060.2489   -3086.5878 
16362000    257.14295   -3956.2555   -3515.5212   -3956.2555            0    4039.7815    17.285702    20.360274    21.088516    7421.9269     4033.645    2812.5276     5273.172   -427.79453    25.757365   -682.04588   -3078.2505 
16363000     255.7154   -3942.9533   -3504.6659   -3942.9533            0    4920.2059    17.243487     20.31055    21.037014    7367.6823    5779.3161    6105.3971    2875.9044    1225.3964   -506.21991    635.15745   -2975.9893 
16364000    248.91679   -3900.5359   -3473.9011   -3900.5359            0    3040.0396    17.442072    20.544457    21.279287    7625.1746    2353.0972    4154.9942    2612.0273     611.2797   -553.89704    94.615944   -3135.8324 
16365000    251.05363   -3891.5017   -3461.2043   -3891.5017            0    4481.6242    17.272931    20.345231    21.072935    7405.4878    3464.2754    5463.3427    4517.2545   -806.77878   -1079.7433    50.926462   -2977.1824 
16366000    251.06802   -3935.8518   -3505.5298   -3935.8518            0    7282.3338    17.259669     20.32961    21.056756    7388.4435    7634.7513    9433.5312    4778.7189   -1801.7563    915.91283   -182.89788   -2720.8374 
16367000    228.25808   -3919.4792   -3528.2527   -3919.4792            0    5042.5197    17.273244    20.345599    21.073317    7405.8906    6566.3982    3152.1468    5409.0141    1599.4554   -361.32871   -1558.0623   -2983.6237 
16368000    250.26291   -3942.6438   -3513.7017   -3942.6438            0    5112.3461    17.261098    20.331293    21.058499    7390.2786    2656.2804    6306.4957    6374.2621    849.52399   -138.19384    99.097044   -2962.6949 
16369000    247.40921   -3909.0289    -3484.978   -3909.0289            0     4558.102    17.291435    20.367026     21.09551    7429.3138    4346.4195    5003.5273    4324.3593   -744.83788    69.523019   -1011.1694   -2991.1125 
16370000    238.95745   -3911.6463   -3502.0814   -3911.6463            0    4045.0696    17.278266    20.351515    21.079444     7412.352    3507.2034    4123.4733     4504.532   -347.57365   -1092.5693    958.06141   -3064.8031 
16371000    246.76151   -3916.4901   -3493.5493   -3916.4901            0     6738.939    17.203169    20.263061    20.987826    7316.1228    8428.8738    5413.7081     6374.235    217.77197    626.11917    827.53053    -2774.517 
16372000     259.6995   -3915.0323   -3469.9163   -3915.0323            0    4557.4564    17.252878    20.321611    21.048471    7379.7261    4894.8742    3118.9693    5658.5258   -9.5768757   -1588.8584    369.90032   -2979.4167 
16373000    244.90348   -3949.4513   -3529.6951   -3949.4513            0     3183.244    17.326917    20.408819    21.138798     7475.142     1733.148    5091.7319     2724.852   -139.43151   -1950.0241   -226.69802   -3182.6665 
16374000    251.63094   -3912.2595   -3480.9727   -3912.2595            0    5125.9502    17.251789    20.320329    21.047142    7378.3288    4891.2999    5121.7729    5364.7778    1801.8787   -771.40145   -1199.8214    -2929.393 
16375000    265.40747   -3905.9947   -3451.0954   -3905.9947            0    5938.1572    17.221384    20.284515    21.010048    7339.3861    5100.1642     7028.793    5685.5143    1604.6574   -702.69203     518.4553   -2815.4904 
16376000    245.42645   -3913.5642   -3492.9117   -3913.5642            0    5177.4449    17.274722     20.34734     21.07512    7407.7916    4383.6676    5149.0354    5999.6318    1776.5308     1136.371    1144.2272   -2933.5662 
16377000    254.36076   -3918.2895   -3482.3238   -3918.2895            0    4145.8835    17.260749    20.330882    21.058073    7389.8309    2644.4592    4026.1728    5767.0186    1445.6841   -381.98118    42.306269   -3035.5091 
16378000    252.64334   -3911.8719   -3478.8499   -3911.8719            0    4656.1627    17.269019    20.340624    21.068163    7400.4584    5001.4133    3438.8018    5528.2728   -477.66644   -925.72601   -1389.1609   -2976.3191 
16379000    263.59348   -3909.6672    -3457.877   -3909.6672            0    4616.6741    17.277678    20.350822    21.078726    7411.5951    5375.7235    4151.9125    4322.3862   -207.42535   -1122.8411   -1453.5498   -2958.8584 
16380000    244.68917   -3941.5019    -3522.113   -3941.5019            0    5929.3497     17.29613    20.372557    21.101239    7435.3675     4190.662    6432.4301     7164.957    -42.98944    504.33998   -513.87473   -2879.1509 
16381000    240.21285     -3950.64   -3538.9233     -3950.64            0    4497.5884    17.320957      20.4018    21.131527    7467.4317    3277.7947     5815.488    4399.4825    365.09393    929.82686   -60.908904   -3049.1142 
16382000     248.0533   -3880.5349     -3455.38   -3880.5349            0    4540.5002    17.291235    20.366791    21.095267    7429.0565    6313.8639    3715.5118     3592.125   -285.33336   -1987.9263    569.09141   -2963.4387 
16383000    254.41546   -3955.0425   -3518.9831   -3955.0425            0    3456.9483    17.344234    20.429217    21.159925    7497.5779    5386.4319    2351.5645    2632.8486   -572.50051    755.55519    149.30792   -3140.9849 
16384000    240.45335   -3912.7051   -3500.5763   -3912.7051            0    5140.2031    17.255366    20.324542    21.051506    7382.9192    4108.1015    5700.2756     5612.232    762.25025    1607.1385    576.60006   -2947.1188 
16385000    240.37963   -3925.5264   -3513.5239   -3925.5264            0    4640.9163    17.210887    20.272152    20.997242    7325.9737    4062.7493    4719.1018    5140.8977   -419.07812    863.27038   -1367.0816     -3017.68 
16386000    254.64097   -3913.6031   -3477.1572   -3913.6031            0    5420.4957    17.180214    20.236022    20.959821    7286.8742     4554.858    6065.4364    5641.1926     165.6008    779.85048   -42.735169   -2901.1126 
16387000    243.87222   -3925.8278   -3507.8392   -3925.8278            0    5317.5578    17.155139    20.206488     20.92923    7255.0151    4781.0812    5311.6652     5859.927    1748.9604   -833.60263    208.50443   -2945.2046 
16388000    252.91178    -3930.428   -3496.9459    -3930.428            0    5603.5055    17.250842    20.319213    21.045987    7377.1137    4670.1572    5961.6103     6178.749    1056.7626    216.09049    1938.9842    -2894.078 
16389000    231.73452   -3941.3099   -3544.1248   -3941.3099            0    3421.4174    17.259571    20.329495    21.056637    7388.3186    2355.5332    4306.0055    3602.7136   -1399.0663   -844.76854   -286.52362   -3175.4635 
16390000    245.90443    -3922.047   -3500.5753    -3922.047            0    6222.3041    17.175132    20.230037    20.953621    7280.4103    6160.8784    7210.0016    5296.0323    -255.3576    368.27705   -1068.9662   -2839.9077 
16391000    249.73794   -3974.4304   -3546.3882   -3974.4304            0    3550.2204    17.311349    20.390482    21.119805     7455.011    3458.6023    4159.7777     3032.281    1446.0924    199.75361   -1366.5467   -3160.3951 
16392000    248.02236   -3951.6041   -3526.5023   -3951.6041            0    5821.2632    17.212598    20.274167    20.999329    7328.1586    6060.6311    7168.5256    4234.6331    651.16605   -23.486785    663.33977   -2904.3625 
16393000    234.35722   -3923.7851   -3522.1049   -3923.7851            0    5019.7623    17.264804    20.335659    21.063021    7395.0407    5709.0162    4102.6573    5247.6134    914.69707   -1169.9142    1117.1588   -2980.7281 
16394000    249.50211   -3956.7222   -3529.0841   -3956.7222            0    4074.2411     17.22023    20.283157    21.008641    7337.9113    5254.7508    3715.7418    3252.2308   -744.04123   -812.31816   -804.65345   -3093.0755 
16395000    263.17603   -3941.1425   -3490.0678   -3941.1425            0    3662.3198    17.305452    20.383536    21.112611    7447.3952    3067.0916    3363.3131    4556.5549   -555.91004    510.29763   -258.30871   -3092.2937 
16396000    244.80337   -3935.1722   -3515.5876   -3935.1722            0    5695.9643    17.222628    20.285981    21.011566    7340.9771    4235.5732    6231.2629    6621.0567     853.3641    1065.0829    754.10776   -2905.7741 
16397000    242.06794   -3950.9134   -3536.0172   -3950.9134            0    5216.0497    17.218368    20.280963    21.006369    7335.5308    5041.3062    2925.9519    7680.8911    1386.9242    1859.0594    1193.4207    -2977.998 
16398000    245.75475   -3967.1877   -3545.9725   -3967.1877            0    4799.6951    17.224792    20.288529    21.014206    7343.7438    5237.3515    3869.2887     5292.445   -893.23626    -1852.356    1028.6487   -3031.9205 
16399000    253.26235   -3909.0753   -3474.9923   -3909.0753            0    5005.4948    17.210794    20.272042    20.997128    7325.8547    6352.1803    3024.3066    5639.9974    786.72801   -61.026345   -66.270215   -2940.2048 
16400000    244.42861   -3920.0154   -3501.0732   -3920.0154            0     4721.044    17.179303     20.23495    20.958709    7285.7153     5666.704    3252.5719    5243.8561    1128.7537    513.44455    427.71641   -2999.4401 
16401000    244.52747    -3889.529   -3470.4172    -3889.529            0    5667.4927    17.263374    20.333974    21.061276    7393.2028    5692.1189    5273.9628    6036.3963    1457.4939   -271.78779   -364.79652   -2859.3353 
16402000    241.05703   -3927.6601   -3514.4966   -3927.6601            0    4847.4603    17.299734    20.376802    21.105636    7440.0166    3069.6677    5687.8436    5784.8695   -416.01148   -400.64918   -672.70045   -2988.5229 
16403000    241.61404    -3887.867   -3473.7488    -3887.867            0    4757.5049    17.300188    20.377336    21.106188    7440.6012    4029.5625    5745.9202     4497.032    179.62311    439.97443    389.80609   -2957.4951 
16404000    246.86877    -3943.187   -3520.0624    -3943.187            0    4763.4523    17.229891    20.294536    21.020427    7350.2685    4271.4804    5102.8347    4916.0419   -653.10134   -1665.2965    2224.4985   -3009.4387 
16405000    245.96849   -3918.4758   -3496.8942   -3918.4758            0    4139.7662    17.321366    20.402281    21.132026    7467.9602    4713.2939     4623.173    3082.8316    270.77931    1373.6137   -244.39252   -3046.0218 
16406000     236.5514   -3953.7043   -3548.2633   -3953.7043            0    3886.2923    17.293581    20.369554    21.098128    7432.0799    3447.1351    3427.9126    4783.8292    1509.3716   -470.04775     915.3345   -3127.0309 
16407000    245.66027   -3933.1318   -3512.0785   -3933.1318            0    5283.9517    17.206385    20.266849     20.99175    7320.2261    4401.2542    5449.1641    6001.4369   -1158.4246   -328.43693    706.57661   -2947.9744 
16408000    255.71057   -3936.5093   -3498.2302   -3936.5093            0     5832.018    17.209916    20.271008    20.996057    7324.7339    6771.7253     5647.438    5076.8908    798.11235   -861.95602    783.93923   -2875.2323 
16409000    238.96363   -3922.1411   -3512.5656   -3922.1411            0    4019.6244     17.28119    20.354959    21.083012    7416.1164    4432.6259    4009.3733     3616.874   -572.14758    1362.5181    1210.8657   -3077.8173 
16410000    246.48714   -3899.5864   -3477.1158   -3899.5864            0    5391.6005    17.231055    20.295906    21.021846    7351.7575    4590.3432    7372.4654    4211.9928   -1172.8926    1487.3641    380.18134   -2899.0401 
16411000    235.72804   -3943.3497   -3539.3199   -3943.3497            0    4471.7438    17.268349    20.339834    21.067346    7399.5969     4466.278    5582.4789    3366.4745   -501.16071   -373.78166    896.78562   -3056.7493 
16412000    245.97922    -3949.188    -3527.588    -3949.188            0    3566.5994    17.276345    20.349252      21.0771    7409.8802    2980.8771    4967.3399    2751.5812   -477.79468    529.74933    253.96521   -3142.1617 
16413000    253.11197   -3929.5926   -3495.7674   -3929.5926            0    4195.2428    17.292398    20.368161    21.096685     7430.555    4461.0446    5876.5562    2248.1275    647.65739    1665.8638    273.99435   -3041.1414 
16414000    254.87911   -3942.1593   -3505.3052   -3942.1593            0    6528.7734    17.190166    20.247745    20.971962    7299.5453    6709.4678     6140.451    6736.4013    483.67945   -1081.0267    372.62541   -2810.2756 
16415000    244.20358   -3910.5013   -3491.9447   -3910.5013            0    6199.7662    17.189201    20.246608    20.970785    7298.3158    8051.9922    5749.2161    4798.0903   -426.65734    884.88027    2334.4216   -2832.0512 
16416000    259.64125   -3913.9424   -3468.9262   -3913.9424            0    3941.8007    17.233593    20.298896    21.024943    7355.0066    4244.3082    2926.0918    4655.0022   -680.34169    1006.0482   -1429.5328    -3046.108 
16417000     240.6768   -3943.3907   -3530.8789   -3943.3907            0    4245.0044    17.220838    20.283872    21.009382    7338.6876    5160.5682    4083.9463    3490.4988   -866.65138    84.698646    -841.6071   -3076.5478 
16418000    263.23892   -3924.6261   -3473.4436   -3924.6261            0    3960.9872    17.319764    20.400394    21.130072    7465.8887    2350.9821    5419.5725    4112.4069   -379.28532    508.73457    1533.3099   -3042.1621 
16419000    248.27679     -3900.32   -3474.7821     -3900.32            0    4826.9214    17.301657    20.379066    21.107981    7442.4969    3628.9594    5273.1477    5578.6572   -331.72637    1592.8692   -12.616059   -2950.8623 
16420000    255.13118   -3920.9825   -3483.6963   -3920.9825            0    4768.3103    17.251271    20.319718     21.04651     7377.664    6393.0059    3188.6646    4723.2605   -308.19142   -685.41926    246.25854   -2970.6468 
16421000    259.68499   -3945.6417   -3500.5506   -3945.6417            0    3650.4702    17.263681    20.334336    21.061651    7393.5978    3631.6318    3192.8892    4126.8895   -829.52918   -60.145502    738.93714   -3106.9275 
16422000     247.3714   -3937.6641    -3513.678   -3937.6641            0    5790.4768    17.192925    20.250994    20.975328    7303.0602    6047.5107    4921.3643    6402.5554   -467.99024    -1000.966    1011.8254    -2896.948 
16423000    254.58802    -3942.865   -3506.5099    -3942.865            0     5009.439    17.209654    20.270699    20.995737     7324.399     4405.244    4443.0226    6180.0503   0.29853053    323.85947   -389.92849   -2971.4074 
16424000    247.49152   -3943.0845   -3518.8925   -3943.0845            0    6116.9308    17.132096    20.179347    20.901118    7225.8197    6003.4282     5113.442    7233.9223   -476.20971   -428.67241    1083.1546   -2874.2832 
16425000    258.27107    -3917.427   -3474.7592    -3917.427            0    5320.7729    17.216769     20.27908    21.004418    7333.4876    6234.1443    3602.9141    6125.2601   -1806.5922     1237.385    669.13184   -2905.6951 
16426000    259.98806   -3944.6812   -3499.0705   -3944.6812            0    6408.1015    17.083689    20.122329    20.842061     7164.742    3700.6529    8204.6437     7319.008    534.40771    690.50435    81.596881   -2829.4853 
16427000    260.99927   -3912.1818    -3464.838   -3912.1818            0     5239.751    17.125512     20.17159    20.893084    7217.4909      4937.43    5683.4996    5098.3234    632.50725   -106.72709   -1198.7202   -2913.3033 
16428000    260.96808   -3930.1746   -3482.8842   -3930.1746            0    6097.4199    17.120868    20.166121    20.887419    7211.6211    7843.0222    4417.5415    6031.6959    29.375407     1373.983     2165.419   -2841.5936 
16429000    239.97034   -3925.1397   -3513.8388   -3925.1397            0    4466.9609    17.216656    20.278946     21.00428    7333.3424     6259.217    3304.2015    3837.4644   -686.29605    -377.6063    815.57027   -3036.1005 
16430000    242.87899   -3915.4068   -3499.1205   -3915.4068            0    5241.1469    17.090868    20.130785    20.850819     7173.778    4787.0469     6033.094       4903.3    63.896176    147.55755    1147.6357   -2950.7803 
16431000    253.79175   -3897.6534    -3462.663   -3897.6534            0    4652.1125    17.072917    20.109641    20.828919    7151.1975    5486.3796    3018.5656    5451.3922   -1275.5858    407.96376    804.13866   -2977.4808 
16432000    255.41206   -3873.0334   -3435.2658   -3873.0334            0    5544.3113    17.122141     20.16762    20.888972    7213.2298    5317.9213    2768.3155     8546.697    -1117.386   -510.82969   -127.36526   -2852.0178 
16433000    238.61125   -3906.6254   -3497.6539   -3906.6254            0    4727.8395    17.131216     20.17831    20.900043    7224.7057    4169.1455    3720.2817    6294.0914   -395.40074      833.576   -613.12322   -2999.5054 
16434000    252.27219   -3945.0255   -3512.6396   -3945.0255            0    4972.0651    17.202708    20.262518    20.987264    7315.5343    5684.0879    5712.3916    3519.7159    79.656522    32.756958    295.36934   -2982.1721 
16435000    263.54467   -3908.3562   -3456.6497   -3908.3562            0    4617.3077    17.162216    20.214824    20.937864    7263.9977     4276.142    4664.1489    4911.6322    833.32206   -965.91905   -469.84202   -2967.5015 
16436000    256.66199   -3886.2452   -3446.3353   -3886.2452            0    3645.6164    17.266161    20.337257    21.064676    7396.7838    3767.6899    4317.5338    2851.6253    -1804.387    559.73335    1047.4666   -3053.0663 
16437000    242.21531   -3905.1703   -3490.0216   -3905.1703            0    3802.4811     17.29364    20.369623      21.0982     7432.156    4315.8178     3854.543    3237.0827    327.92402    593.20368   -86.623938   -3077.8692 
16438000    265.79039   -3913.3651   -3457.8094   -3913.3651            0    4454.7773    17.286454    20.361159    21.089433    7422.8948    4248.2379     5343.326    3772.7681    426.25289   -104.78828     96.80135   -2975.5561 
16439000    248.74487   -3953.2261   -3526.8859   -3953.2261            0    4541.9817    17.294138     20.37021    21.098808    7432.7983    3866.8486    5115.7061    4643.3905   -398.63643    193.32571    106.39695   -3034.5362 
16440000    253.59522   -3863.8193   -3429.1658   -3863.8193            0    5529.1428    17.223558    20.287077    21.012701    7342.1666     4131.814    6086.5073     6369.107   -702.31198   -454.81081    899.60223   -2837.1164 
16441000    250.88199    -3920.652   -3490.6488    -3920.652            0    4500.9059    17.262189    20.332579    21.059831    7391.6811     4732.284    4224.9738    4545.4598    806.11827   -783.82445    909.17498   -3005.4508 
16442000    246.63125   -3920.3546   -3497.6371   -3920.3546            0    3272.0304    17.321241    20.402134    21.131874    7467.7987    3268.2399    3385.4871     3162.364   -715.01868   -173.15254    725.21524   -3141.2797 
16443000    262.42374   -3928.0349   -3478.2496   -3928.0349            0    4527.8709    17.222555    20.285895    21.011477    7340.8838    5259.3915     3449.241    4874.9802    857.40948    1952.4378    217.10746   -2993.4991 
16444000    260.08559   -3905.7561   -3459.9783   -3905.7561            0    5281.7688    17.275534    20.348297    21.076111    7408.8366    4878.6922    5082.2202     5884.394     16.14479    238.94456    574.72049   -2889.2817 
16445000    241.14715   -3905.4882   -3492.1702   -3905.4882            0    3386.9794    17.311835    20.391055    21.120399      7455.64    3105.1218    1292.2031    5763.6133    234.26601   -141.43383    417.72985   -3123.8943 
16446000    241.08124   -3890.5568   -3477.3518   -3890.5568            0    3739.0765    17.259375    20.329264    21.056398    7388.0666     5491.934    2647.6258    3077.6696    81.134401      274.422   -4.9927881   -3074.4761 
16447000    239.92797   -3885.7491   -3474.5207   -3885.7491            0    6136.3325     17.20254     20.26232    20.987059    7315.3203    5414.6394    5839.8842    7154.4741    -983.7499    598.67028    910.56426   -2819.8572 
16448000    254.98963   -3914.9584   -3477.9149   -3914.9584            0    6588.7101    17.269438    20.341117    21.068674     7400.997    8091.9075    6236.0633    5438.1595   -300.91218     1319.879   -371.55945   -2766.7562 
16449000    256.61936   -3898.1063   -3458.2696   -3898.1063            0    4923.3977    17.364561     20.45316    21.184724    7523.9699     3924.651      3664.72    7180.8221     446.7256    624.65786    2567.7139   -2918.0282 
16450000     261.8789   -3920.1756   -3471.3241   -3920.1756            0    3410.8272    17.329545    20.411915    21.142004    7478.5439    5616.9551    2783.2997    1832.2269   -814.77778    2.8709593    414.87613   -3099.3158 
16451000    253.87825   -3934.5847   -3499.4461   -3934.5847            0    4026.1268    17.313624    20.393162    21.122581    7457.9515    4116.5472    4863.9336    3097.8995   -986.64295    584.95217    713.53323   -3061.5381 
16452000    249.82846   -3924.6003   -3496.4029   -3924.6003            0    4568.4719    17.321851    20.402853    21.132618    7468.5879    3961.8689    3325.0503    6418.4967   -1149.6394    957.52075    281.72508   -2998.7972 
16453000    236.00416   -3928.9448   -3524.4417   -3928.9448            0    3823.6766    17.308367     20.38697    21.116167    7451.1599    4938.1194    2977.2929    3555.6176    1824.3125   -952.11225    315.31944   -3108.9323 
16454000    234.14037   -3920.7013   -3519.3927   -3920.7013            0     5168.868    17.260705     20.33083    21.058019     7389.774    4131.3696    6071.8616    5303.3728    -51.15419   -260.52964   -546.71701   -2962.3321 
16455000    230.69901   -3929.3958   -3533.9856   -3929.3958            0    6296.8961    17.324119    20.405524    21.135385    7471.5218    5556.1607    5223.3402    8111.1875   -270.15097   -2029.0246    1068.0569   -2847.8476 
16456000    239.56314   -3944.0984   -3533.4954   -3944.0984            0    5225.1681    17.229654    20.294257    21.020138    7349.9651    4740.3705    4827.1409    6107.9929   -1549.9203    319.66082   -38.392898   -2973.4007 
16457000    253.54344   -3941.8442   -3507.2795   -3941.8442            0    1924.0678    17.346748    20.432178    21.162992    7500.8383    2197.6184    1029.5625    2545.0224    411.62803      2.93306   -1006.5135   -3296.8018 
16458000     253.1451   -3918.4485   -3484.5665   -3918.4485            0    5419.8031    17.278077    20.351292    21.079214     7412.109    3548.3034    6807.5951    5903.5109   -332.48414   -654.54255    1116.6217   -2898.6966 
16459000    248.88627   -3931.5956   -3505.0131   -3931.5956            0    6227.7053     17.20891    20.269823     20.99483    7323.4492    4900.8372    5855.6478     7926.631   -245.32453   -137.12506    -526.3182   -2839.8631 
16460000    253.49451   -3905.4081   -3470.9272   -3905.4081            0    5247.6389    17.244357    20.311575    21.038075    7368.7973    6444.9909    4826.2114    4471.7143   -503.26383   -271.37969    1021.9981   -2906.9826 
16461000    251.31911   -3916.8362   -3486.0839   -3916.8362            0    5817.3408    17.281439    20.355252    21.083315    7416.4364     5237.427    5657.1401    6557.4552    48.326301    921.53901   -801.52048   -2856.8738 
16462000    241.71947   -3909.9733   -3495.6744   -3909.9733            0    3973.0622    17.346456    20.431833    21.162635     7500.459    4742.6491    3234.8685    3941.6691    1136.7666   -1294.8048   -773.94525    -3061.075 
16463000    256.71096   -3911.7149   -3471.7211   -3911.7149            0    4584.9945    17.267504    20.338839    21.066314    7398.5103    4227.6084    4445.6082    5081.7668    783.18906    33.285144    232.24067   -2977.0017 
16464000    236.74881   -3893.2903   -3487.5109   -3893.2903            0    8126.0285    17.230198    20.294897    21.020801     7350.661    9292.6411    6846.3673    8239.0771    2128.3806    1081.8033   -428.36099   -2616.3856 
16465000    243.02847   -3960.5309   -3543.9885   -3960.5309            0    4661.7621    17.241954    20.308744    21.035144    7365.7171    3091.7017    5119.4217     5774.163   -476.44262    1441.8787    249.58174   -3043.2153 
16466000    245.85577   -3909.0099   -3487.6215   -3909.0099            0    3280.7882    17.345852    20.431123    21.161899    7499.6764    3389.6714    2856.6327    3596.0606    557.34863   -920.58034    339.00316    -3128.785 
16467000    239.47836   -3933.7401   -3523.2824   -3933.7401            0    5158.0598    17.400376    20.495345    21.228418    7570.6208    4655.5362    4919.2123     5899.431    1461.3672   -1516.1569    -886.3721   -2953.7823 
16468000    256.51446   -3934.4988   -3494.8418   -3934.4988            0    4995.1608    17.380165    20.471539    21.203761    7544.2715    5553.2961     4876.307    4555.8792   -326.47506   -26.221093    1274.9638   -2945.2469 
16469000    255.55493   -3914.9279   -3476.9155   -3914.9279            0    5533.4735    17.348864     20.43467    21.165573    7503.5832    4393.1622    7940.9151    4266.3432     1335.018    517.94153   -725.21552    -2871.376 
16470000    243.73434   -3945.5857   -3527.8334   -3945.5857            0    5709.7169      17.3367    20.420342    21.150733    7487.8108    4846.7582    5095.7755    7186.6171   -508.64476    116.58075    275.91124   -2904.3207 
16471000    250.84051   -3930.5776   -3500.6455   -3930.5776            0    6091.6562    17.347911    20.433547     21.16441    7502.3465    5295.9305    5470.3402    7508.6977    -392.5399    34.381789     1866.813   -2834.1329 
16472000    244.98589   -3936.3884    -3516.491   -3936.3884            0    4039.0272    17.373356    20.463518    21.195453    7535.4071    4297.6064    3050.4919    4768.9833    802.79254   -578.81946    767.55628   -3072.6173 
16473000    241.70623   -3923.6038   -3509.3276   -3923.6038            0    5589.5608    17.360314    20.448157    21.179542    7518.4498    4009.8565    6802.0102    5956.8158   -918.56298   -870.99206   -575.90468   -2896.4385 
16474000     248.5376    -3909.339    -3483.354    -3909.339            0    3029.8892    17.340996    20.425403    21.155975    7493.3796    1030.7843    5714.9745    2343.9087   -172.40112     436.8949   -260.36834   -3152.2379 
16475000    260.31558    -3935.132     -3488.96    -3935.132            0    4813.9505    17.246616    20.314236    21.040831    7371.6937    5163.5218    5333.8248    3944.5047   -982.18875    146.76099    711.84958   -2971.4189 
16476000    250.36847   -3904.9433   -3475.8203   -3904.9433            0    4182.4138    17.330581    20.413135    21.143268    7479.8854    3251.4429    4525.6219    4770.1765    -1036.041    350.54777    84.577392   -3019.5756 
16477000    264.11973   -3897.0725   -3444.3803   -3897.0725            0    4822.6218    17.282286     20.35625    21.084348    7417.5267    4954.7884    6859.0227    2654.0544    1341.9985    779.77723   -45.807017   -2922.6835 
16478000    255.02464   -3891.3079   -3454.2043   -3891.3079            0    4055.0123    17.266742    20.337941    21.065385    7397.5309     4998.654     3929.677    3236.7061   -376.65634    2299.3988    936.74376   -3016.7277 
16479000    255.24112   -3913.1689   -3475.6944   -3913.1689            0     4775.893      17.2393    20.305619    21.031906    7362.3167    4286.0549    5814.1113    4227.5129   -37.487122    676.35161   -333.18001    -2962.898 
16480000    266.33584   -3925.9186   -3469.4281   -3925.9186            0    5291.3382    17.257935    20.327567     21.05464    7386.2168    2078.8413    7558.6895     6236.484    374.34773   -75.295535    555.70003    -2899.443 
16481000    251.71489   -3906.2835   -3474.8528   -3906.2835            0    4015.9347    17.266936     20.33817    21.065622    7397.7809     4483.978    4063.3867    3500.4395   -759.78593   -1385.1064    563.22148   -3041.5775 
16482000    246.38845   -3927.4153   -3505.1139   -3927.4153            0    4017.6384    17.246437    20.314025    21.040613    7371.4643    2269.0256     3738.551    6045.3387    692.96928    2978.0035    1133.2567   -3073.1967 
16483000    246.33425   -3945.6227   -3523.4142   -3945.6227            0    4399.1103    17.208709    20.269586    20.994585    7323.1927    3134.2634    4724.7009    5338.3666    28.263575    1301.1567   -1788.2515   -3053.5837 
16484000    248.38415    -3892.652   -3466.9301    -3892.652            0    4450.7701    17.154446    20.205671    20.928384    7254.1356    3220.2487    4035.7927    6096.2687   -1493.7849   -363.03668   -86.141724   -2996.0647 
16485000    237.63846   -3912.7566   -3505.4524   -3912.7566            0    6808.9218    17.159806    20.211984    20.934923    7260.9373     4106.139    7454.6736    8865.9529   -594.63166    417.90608    1148.8303   -2784.4331 
16486000    255.99367   -3947.0779   -3508.3135   -3947.0779            0    4715.6463    17.259302    20.329178    21.056309     7387.973    5166.6626    2372.4069    6607.8695   -1989.2753    1081.8178   -2031.5487   -3000.2215 
16487000    249.50514   -3942.6311   -3514.9879   -3942.6311            0    3345.7744    17.274441    20.347009    21.074777    7407.4304    4693.8397     2622.651    2720.8325    516.44493   -66.428069   -172.60237   -3153.5446 
16488000    249.04574   -3929.1941   -3502.3383   -3929.1941            0     5456.538    17.245232    20.312605    21.039142    7369.9186    5530.4466    5914.8206    4924.3467   -85.372199   -90.693715   -1962.7044   -2915.8548 
16489000     244.8557   -3949.7865   -3530.1122   -3949.7865            0    4225.0695    17.304076    20.381916    21.110932    7445.6192    3361.6546    4989.4449    4324.1092   -814.95618   -247.93586    156.60866   -3071.3257 
16490000     249.3906   -3938.8068   -3511.3599   -3938.8068            0    6034.8212    17.231165    20.296037    21.021982    7351.8992    5205.3744    6270.5107    6628.5784   -678.81491   -1292.3331   -1563.9834   -2864.3069 
16491000    236.54915   -3943.7754   -3538.3383   -3943.7754            0    5176.6554     17.20861     20.26947    20.994464    7323.0663    3525.9697    7078.4076    4925.5889   -327.19408    713.19007   -18.598825   -2985.4745 
16492000    247.93701   -3920.6036    -3495.648   -3920.6036            0    3962.2208    17.233617    20.298925    21.024973    7355.0382    4846.0114    3480.3842    3560.2668   -1611.0916    345.20609     -276.944   -3070.6377 
16493000    247.76271   -3894.5423   -3469.8854   -3894.5423            0    4333.2734    17.207351    20.267987    20.992929    7321.4596    4283.7011    3683.2609    5032.8584   -486.06867   -286.16917   -152.45357   -3007.1959 
16494000    251.17713   -3903.5352   -3473.0262   -3903.5352            0    5035.9591    17.238546    20.304731    21.030986    7361.3509     2877.509    5788.5196    6441.8489   -382.37157    546.41008   -38.539051   -2932.3769 
16495000    251.08975   -3877.7029   -3447.3436   -3877.7029            0    4364.1199    17.266966    20.338205    21.065658    7397.8185    4223.3079    3836.2631    5032.7887    271.68455    51.069658     147.1891   -2976.5005 
16496000     244.8507   -3920.8069   -3501.1411   -3920.8069            0    5302.7946    17.327603    20.409628    21.139635    7476.0304    5342.6023    6441.0051    4124.7764   -855.33082   -180.33127   -641.35942   -2922.9762 
16497000    236.05891   -3891.4362   -3486.8393   -3891.4362            0    5266.9349    17.300339    20.377515    21.106374    7440.7969    5986.2963    3688.8968    6125.6117   -283.10771    1062.4394   -438.53424   -2915.2905 
16498000    257.63326   -3911.6276    -3470.053   -3911.6276            0    5044.7999    17.232275    20.297344    21.023335    7353.3193     4069.994    5985.8168    5078.5889    52.151825    538.65972   -561.31652   -2929.0456 
16499000    239.57916   -3945.2885    -3534.658   -3945.2885            0    5240.6028    17.272123     20.34428     21.07195    7404.4496    4246.7343    6462.9667    5012.1075    52.964784   -108.12198   -653.83568   -2968.7447 
16500000    255.85431   -3901.1205    -3462.595   -3901.1205            0    4371.6561    17.346842    20.432289    21.163107    7500.9602    4780.4442    3496.6311    4837.8929   -254.91524    1004.3945   -35.594477   -2984.3629 
Loop time of 493.943 on 64 procs for 250000 steps with 864 atoms

Performance: 87.459 ns/day, 0.274 hours/ns, 506.131 timesteps/s
99.1% CPU use with 64 MPI tasks x 1 OpenMP threads

MPI task timing breakdown:
Section |  min time  |  avg time  |  max time  |%varavg| %total
---------------------------------------------------------------
Pair    | 20.74      | 25.538     | 30.851     |  46.8 |  5.17
Bond    | 0.26687    | 0.28067    | 0.29674    |   1.0 |  0.06
Kspace  | 217.86     | 225.63     | 235.99     |  31.1 | 45.68
Neigh   | 4.5616     | 5.3759     | 6.2156     |  18.5 |  1.09
Comm    | 106.76     | 115.74     | 126.64     |  43.9 | 23.43
Output  | 1.4338     | 1.4363     | 1.4539     |   0.3 |  0.29
Modify  | 108.87     | 113.37     | 119.48     |  22.3 | 22.95
Other   |            | 6.569      |            |       |  1.33

Nlocal:        13.5000 ave          18 max           7 min
Histogram: 1 2 4 7 10 10 5 10 7 8
Nghost:        2142.95 ave        2189 max        2084 min
Histogram: 3 2 5 4 7 15 8 9 5 6
Neighs:        4118.86 ave        5851 max        1605 min
Histogram: 1 0 1 8 10 17 6 12 6 3

Total # of neighbors = 263607
Ave neighs/atom = 305.10069
Ave special neighs/atom = 2.0000000
Neighbor list builds = 12600
Dangerous builds = 1

unfix		3
unfix		2
unfix		1

write_data	data.final.${pid}
write_data	data.final.0
System init for write_data ...
PPPM initialization ...
  extracting TIP4P info from pair style
  using 12-bit tables for long-range coulomb (../kspace.cpp:340)
  G vector (1/distance) = 0.374037
  grid = 24 24 25
  stencil order = 5
  estimated absolute RMS force accuracy = 0.0030968821
  estimated relative force accuracy = 9.3261683e-06
  using double precision FFTW3
  3d grid and FFT values/proc = 2730 288
Last active /omp style is kspace_style pppm/tip4p/omp
WARNING: Not all mixed pair coeffs generated from mixing. Use write_data with 'pair ij' option to store all pair coeffs. (../write_data.cpp:312)

write_restart   restart.lmp.${pid}
write_restart   restart.lmp.0
System init for write_restart ...
PPPM initialization ...
  extracting TIP4P info from pair style
  using 12-bit tables for long-range coulomb (../kspace.cpp:340)
  G vector (1/distance) = 0.374037
  grid = 24 24 25
  stencil order = 5
  estimated absolute RMS force accuracy = 0.0030968821
  estimated relative force accuracy = 9.3261683e-06
  using double precision FFTW3
  3d grid and FFT values/proc = 2730 288
Last active /omp style is kspace_style pppm/tip4p/omp
Total wall time: 0:08:15
