LAMMPS (30 Jul 2021)
  using 1 OpenMP thread(s) per MPI task
package omp 0
using multi-threaded neighbor list subroutines
echo both

include		in.partitions
variable        pid world 0
include		in.temp
variable        temperature equal 260.27
variable	tempDamp equal 100.0
include		in.pressure
variable        pressure equal 8375.0
variable        pressureDamp equal 1000.0 # This is 1 ps
include		in.seed
variable        seed world 745823

units		real
atom_style	full
read_restart	restart.lmp.${pid}
read_restart	restart.lmp.0
Reading restart file ...
  restart file = 30 Jul 2021, LAMMPS = 30 Jul 2021
  restoring atom style full from restart
  orthogonal box = (0.61747615 1.8188366 0.75331946) to (17.590096 21.810341 21.459876)
  4 by 4 by 4 MPI processor grid
  restoring pair style lj/cut/tip4p/long/omp from restart
  restoring bond style harmonic/omp from restart
  restoring angle style harmonic/omp from restart
  864 atoms
  576 bonds
  288 angles
Finding 1-2 1-3 1-4 neighbors ...
  special bond factors lj:    0        0        0       
  special bond factors coul:  0        0        0       
     2 = max # of 1-2 neighbors
     1 = max # of 1-3 neighbors
     1 = max # of 1-4 neighbors
     2 = max # of special neighbors
  special bonds CPU = 1.272 seconds
  read_restart CPU = 1.555 seconds
include 	in.setup
variable	out_freq equal 1000
variable	out_freq2 equal 10000
variable	out_freq3 equal 1000

timestep	2.0

neigh_modify    delay 7 every 1

include		in.tip4p
# This is TIP4P/Ice

# create groups ###
group ox type 2
288 atoms in group ox
group hy type 1
576 atoms in group hy

# set charges - beside manually ###
set group ox charge -1.1794
Setting atom values ...
  288 settings made for charge
set group hy charge 0.5897
Setting atom values ...
  576 settings made for charge

# ### TIP3P Potential Parameters ###
pair_style lj/cut/tip4p/long/omp 2 1 1 1 0.1577 8.5
pair_coeff 1 1*2 0.000 0.000
pair_coeff 2 2 0.21084 3.1668
bond_style  harmonic
bond_coeff  1 450 0.9572
angle_style harmonic
angle_coeff 1 55 104.52
kspace_style pppm/tip4p/omp 1.0e-5
pair_modify tail yes

thermo          ${out_freq}
thermo          1000
thermo_style    custom step temp pe etotal epair emol press lx ly lz vol pxx pyy pzz pxy pxz pyz enthalpy

restart 	${out_freq3} restart.lmp.${pid} restart2.lmp.${pid}
restart 	1000 restart.lmp.${pid} restart2.lmp.${pid}
restart 	1000 restart.lmp.0 restart2.lmp.${pid}
restart 	1000 restart.lmp.0 restart2.lmp.0


include         in.dump
dump            myDump all atom ${out_freq2} dump.water.${pid}
dump            myDump all atom 10000 dump.water.${pid}
dump            myDump all atom 10000 dump.water.0
dump            myDump2 all dcd ${out_freq2} dump.dcd
dump            myDump2 all dcd 10000 dump.dcd
dump_modify     myDump append yes
dump_modify     myDump2 append yes


variable natoms 	equal  "count(all)"                        # NUMBER ATOMS
variable H      	equal  "enthalpy/v_natoms"                 # ENTHALPY-per-atom
variable Vol      	equal  "vol/v_natoms"                 # volume-per-atom
fix AVG all 		ave/time ${out_freq} 1 ${out_freq} v_Vol v_H file vol_enthalpy.dat
fix AVG all 		ave/time 1000 1 ${out_freq} v_Vol v_H file vol_enthalpy.dat
fix AVG all 		ave/time 1000 1 1000 v_Vol v_H file vol_enthalpy.dat


timer           timeout 23:50:00 every 1000
New timer settings: style=normal  mode=nosync  timeout=23:50:00

fix 		1 all shake 1e-6 200 0 b 1 a 1
       0 = # of size 2 clusters
       0 = # of size 3 clusters
       0 = # of size 4 clusters
     288 = # of frozen angles
  find clusters CPU = 1.118 seconds
fix             2 all nph iso ${pressure} ${pressure} ${pressureDamp}
fix             2 all nph iso 8375 ${pressure} ${pressureDamp}
fix             2 all nph iso 8375 8375 ${pressureDamp}
fix             2 all nph iso 8375 8375 1000
fix             3 all temp/csvr ${temperature} ${temperature} ${tempDamp} ${seed}
fix             3 all temp/csvr 260.27 ${temperature} ${tempDamp} ${seed}
fix             3 all temp/csvr 260.27 260.27 ${tempDamp} ${seed}
fix             3 all temp/csvr 260.27 260.27 100 ${seed}
fix             3 all temp/csvr 260.27 260.27 100 745823

run             250000
PPPM initialization ...
  extracting TIP4P info from pair style
  using 12-bit tables for long-range coulomb (../kspace.cpp:340)
  G vector (1/distance) = 0.37427308
  grid = 24 24 24
  stencil order = 5
  estimated absolute RMS force accuracy = 0.0031596927
  estimated relative force accuracy = 9.5153207e-06
  using double precision FFTW3
  3d grid and FFT values/proc = 2535 216
Last active /omp style is kspace_style pppm/tip4p/omp
Neighbor list info ...
  update every 1 steps, delay 7 steps, check yes
  max neighbors/atom: 2000, page size: 100000
  master list distance cutoff = 10.8154
  ghost atom cutoff = 10.8154
  binsize = 5.4077, bins = 4 4 4
  1 neighbor lists, perpetual/occasional/extra = 1 0 0
  (1) pair lj/cut/tip4p/long/omp, perpetual
      attributes: half, newton on, omp
      pair build: half/bin/newton/omp
      stencil: half/bin/3d
      bin: standard
Per MPI rank memory allocation (min/avg/max) = 9.235 | 9.239 | 9.243 Mbytes
Step Temp PotEng TotEng E_pair E_mol Press Lx Ly Lz Volume Pxx Pyy Pzz Pxy Pxz Pyz Enthalpy 
17500000    262.99732   -3838.7985   -3388.0301   -3838.7985            0    10250.807     16.97262    19.991505    20.706557    7025.9048    10819.585    10403.371    9529.4632    433.16471    337.01299    1435.7231   -2337.6749 
17501000    262.55285   -3873.2883   -3423.2817   -3873.2883            0    8240.2701    17.035599    20.065686    20.783392    7104.4073    8280.0021    7139.2266    9301.5816    217.30503   -864.49461   -256.92165   -2569.5033 
17502000    268.14794   -3876.8803   -3417.2839   -3876.8803            0    9833.0226    16.972744    19.991651    20.706709    7026.0593    10751.682    10379.391    8367.9956   -429.67632   -1121.9203    306.56312    -2409.715 
17503000    263.80113   -3892.6942   -3440.5481   -3892.6942            0    8187.4273    17.083527    20.122138    20.841863     7164.538    7945.5385    9564.1282    7052.6151   -439.11464   -672.26541    1406.7773   -2585.0648 
17504000    229.39554   -3863.4885   -3470.3124   -3863.4885            0    7503.1912    17.021145     20.04866    20.765757    7086.3382    6669.2022    7310.4737    8529.8977    784.71642    -1102.736   -1392.9058   -2694.8803 
17505000    269.85306   -3879.4271   -3416.9082   -3879.4271            0    6746.2551    17.049591    20.082167    20.800462     7121.927    9629.9595    4290.3039     6318.502   -2883.2783     970.0257   -362.74763   -2716.2016 
17506000    259.75654   -3868.0466   -3422.8328   -3868.0466            0    8931.4636    17.071286     20.10772    20.826929    7149.1481    10056.205    9133.2738    7604.9118    203.30988     1322.961    433.57311   -2491.6117 
17507000    253.53389   -3840.1131   -3405.5647   -3840.1131            0    7429.2671    17.019343    20.046538    20.763559    7084.0886    7861.5787    7133.3663    7292.8562   -606.81035    504.34188    445.50321   -2638.0162 
17508000    257.58964   -3839.9429   -3398.4431   -3839.9429            0    7112.1449    17.102525    20.144515     20.86504    7188.4668    6090.5322    5372.1359    9873.7667   -45.461047   -694.42187    409.74943   -2652.8313 
17509000    270.67786   -3831.3104   -3367.3778   -3831.3104            0    10352.687    16.948506    19.963102    20.677138    6996.0014    8892.5495    10069.884    12095.629    406.75482    432.04372    855.91349   -2311.0982 
17510000    266.92162   -3874.9014   -3417.4069   -3874.9014            0    8260.6036    16.929231    19.940398    20.653622     6972.159    8759.9002    7608.7947    8413.1161    838.88768    316.80617    125.44894   -2577.4539 
17511000    264.03931   -3873.6996   -3421.1452   -3873.6996            0    8156.4771    16.941705    19.955091    20.668841    6987.5826    7440.8781    8897.9732    8130.5798   -1297.5125   -1003.2747   -642.38952   -2589.9454 
17512000    259.61439   -3841.7788   -3396.8086   -3841.7788            0    8371.1667    16.958379     19.97473    20.689183    7008.2341    8685.9965    9319.7725    7107.7312   -1201.8861   -87.975088    -49.77905   -2541.2092 
17513000    263.68885   -3837.3494   -3385.3957   -3837.3494            0    7001.2975    16.959236    19.975739    20.690228    7009.2961    8122.9187    5888.4736    6992.5002    338.09917    351.97106   -915.39412   -2669.6993 
17514000    250.27206   -3869.4692   -3440.5115   -3869.4692            0    9526.9432    16.943828    19.957592    20.671431    6990.2098    9424.9768    9314.3105    9841.5423   -1026.4346    444.77294    652.25633   -2469.2869 
17515000    270.62372   -3885.2157   -3421.3759   -3885.2157            0    8641.7149    16.971109    19.989724    20.704713     7024.028    8722.9045    8603.5538    8598.6866     122.2452    1657.0686   -368.95137   -2536.1338 
17516000    267.36596   -3868.2141    -3409.958   -3868.2141            0    9591.8841    16.933148    19.945012    20.658401    6977.0002    11093.965    8664.2926    9017.3942    695.67193    804.96808   -201.99516   -2433.9608 
17517000    265.68188   -3878.3242   -3422.9546   -3878.3242            0    7543.5604    16.969715    19.988082    20.703012    7022.2973     6665.403    8493.1809    7472.0973   -212.00855    34.092842   -451.34904   -2650.3959 
17518000    233.82152   -3873.3661    -3472.604   -3873.3661            0    7304.2181    16.987627    20.009181    20.724866    7044.5584    7293.9674    6175.1881     8443.499   -40.709903    911.30363   -543.14438   -2722.1858 
17519000    255.34377   -3874.2381   -3436.5876   -3874.2381            0    8091.6213    16.985344    20.006492     20.72208    7041.7182    7986.7854    8132.0062    8156.0724     959.9946    1167.2158   -440.86079   -2605.6085 
17520000    252.09082   -3882.6855   -3450.6105   -3882.6855            0    8647.6115     16.91948    19.928913    20.641727    6960.1189    8970.1557    9651.0052    7321.6735   -758.27727     1619.405   -1212.2225   -2572.8243 
17521000    250.23614   -3861.2884   -3432.3923   -3861.2884            0    9415.6214    16.927784    19.938694    20.651857    6970.3716    9433.3062    10439.693    8373.8647   -139.80095   -452.03542    148.36234   -2475.2405 
17522000    264.98409   -3829.1304   -3374.9567   -3829.1304            0    9056.5921    16.949457    19.964222    20.678298    6997.1786    8152.0233    10578.612    8439.1406    2912.2511       85.211     30.99797   -2450.7616 
17523000    251.06139   -3866.5654   -3436.2547   -3866.5654            0     10318.31    16.991336     20.01355     20.72939    7049.1733    9911.0427    9893.4393    11150.448      1407.08    -1199.156   -1023.9686   -2375.4813 
17524000    269.21635    -3826.437   -3365.0094    -3826.437            0    9778.1746    17.051488      20.0844    20.802775    7124.3039    9323.8402    10089.088    9921.5954    188.18631    2120.5636    1474.3806   -2349.0505 
17525000    262.99664   -3850.5196   -3399.7524   -3850.5196            0    9590.4809    17.015322    20.041802    20.758653    7079.0686    9169.3852    11166.875    8435.1823   -221.24626    -947.8965    876.66818    -2409.622 
17526000    271.94412   -3859.3396   -3393.2366   -3859.3396            0    8128.7069    17.008736    20.034044    20.750618    7070.8512    8559.9698    6965.2683    8860.8825    900.09477    257.15401    915.36206   -2554.9954 
17527000    263.61984   -3852.5034    -3400.668   -3852.5034            0    7710.2233     17.03438     20.06425    20.781904    7102.8819    5950.1576    9229.5156    7950.9967    837.25622   -1649.4471   -291.85509   -2601.9795 
17528000    251.68865   -3863.4245   -3432.0388   -3863.4245            0    7255.7405    16.991444    20.013677    20.729523     7049.308    6623.0735    7294.5783    7849.5696   -1321.8906    1371.3742    321.05379   -2686.0984 
17529000    251.73073    -3880.383   -3448.9252    -3880.383            0    8095.2266    16.968676    19.986858    20.701745    7021.0073    9208.1481    7112.2149    7965.3167   -255.16777    744.47467   -113.30238    -2620.021 
17530000    262.26327   -3841.7289   -3392.2186   -3841.7289            0    9776.0976    16.960988    19.977803    20.692365    7011.4688    8042.6679     10719.95    10565.674   -668.95882    1490.9581   -644.38797    -2392.563 
17531000    264.93401   -3834.0771   -3379.9893   -3834.0771            0    9736.7356    17.010863     20.03655    20.753214     7073.505    10124.018     9041.095    10045.094    923.73766   -694.90973    1176.7844   -2375.5495 
17532000    265.56092   -3858.2319   -3403.0695   -3858.2319            0    9985.8426    16.945242    19.959257    20.673156    6991.9598    9231.3632    8862.5671    11863.598   -1493.3795    266.25646   -417.00675   -2384.8075 
17533000    264.60727   -3873.9971   -3420.4692   -3873.9971            0    9619.2545    16.962845    19.979991    20.694632     7013.773    10753.936    9142.1172    8961.7106   -162.10697    473.04615    358.82116   -2436.5283 
17534000    252.58747    -3894.743   -3461.8167    -3894.743            0    6334.0292    16.999382    20.023026    20.739206    7059.1916    7347.9698    5497.0179    6157.0997   -62.410005    568.45885   -65.607765   -2809.7216 
17535000    253.69716   -3899.7032    -3464.875   -3899.7032            0    9613.3763    16.884474    19.887681    20.599019    6917.0072     10047.46     8835.807    9956.8616    2160.3589   -1455.7078    386.68297   -2495.1021 
17536000    259.63473    -3907.294    -3462.289    -3907.294            0    12170.756    16.878472     19.88061    20.591696    6909.6324    10898.128    15362.688    10251.453    1436.4039   -2130.6821    453.23326   -2235.8431 
17537000    270.98884   -3898.0786    -3433.613   -3898.0786            0    9205.9616    16.943781    19.957536    20.671373    6990.1512    8929.2559    10532.871    8155.7579    88.795243    657.64448   -291.26966   -2495.1187 
17538000    262.43005   -3887.1547   -3437.3586   -3887.1547            0    8363.7247     16.96336    19.980597    20.695259    7014.4109    7484.4608    11232.418     6374.295    40.980891   -643.02585   -1235.7907   -2581.7664 
17539000    270.82889   -3896.0796   -3431.8882   -3896.0796            0    7365.5529    17.006665    20.031604    20.748091    7068.2683    7708.3133    8440.0243    5948.3213   -697.46765    1004.2601    -1680.155   -2672.6216 
17540000    261.99679   -3865.4482   -3416.3946   -3865.4482            0    8063.7343    17.001512    20.025536    20.741805    7061.8461    9866.7099    9177.4992    5146.9938   -1377.3189     327.2501   -31.010128   -2585.9124 
17541000    253.21819   -3835.0509   -3401.0436   -3835.0509            0    8385.1172    17.005763    20.030542    20.746991     7067.144    8141.0921    8970.1256    8044.1339   -971.74616    704.65311   -45.341521   -2536.8143 
17542000    257.86759   -3868.4798   -3426.5036   -3868.4798            0    10411.332    16.957611    19.973826    20.688246    7007.2821    12029.596    9252.4045    9951.9972    240.28974   -149.76713   -1048.4336   -2362.5276 
17543000    269.61806   -3869.3123   -3407.1962   -3869.3123            0    11720.737    16.947541    19.961965    20.675961    6994.8062     14125.05    11034.511    10002.649   -259.40115   -2259.4268   -2147.6487   -2211.5395 
17544000    272.15249   -3873.8639   -3407.4038   -3873.8639            0    8883.4765    16.985145    20.006257    20.721837    7041.4704    9671.1566    8881.7499     8097.523   -843.44526    105.45354   -1087.8719   -2495.1363 
17545000    246.95998   -3890.5469   -3467.2659   -3890.5469            0    9233.1313    16.997618    20.020948    20.737054    7056.9942    9404.2333    8910.8769    9384.2838   -1570.3796   -900.55099    1508.7456   -2517.0011 
17546000    263.01909   -3845.4411   -3394.6354   -3845.4411            0    9387.5892    17.017907    20.044847    20.761807    7082.2958    10456.424    8404.4489    9301.8943   -1499.0095    1544.3911   -187.04606   -2425.0099 
17547000    261.79956   -3870.4385    -3421.723   -3870.4385            0    8812.0011    16.997687     20.02103    20.737139    7057.0806    8654.9028    8096.6354    9684.4652   -1809.2088      1538.45   -1985.5706   -2514.7894 
17548000    265.26348   -3833.6384   -3378.9858   -3833.6384            0    7237.3756     16.98901    20.010809    20.726552     7046.278    5317.3571    9028.6413    7366.1283   -624.05925   -721.41262    411.37251   -2635.2533 
17549000    260.39856   -3852.2813   -3405.9671   -3852.2813            0      8528.39    17.005168    20.029842    20.746265    7066.4023    8788.2005    7284.4645    9512.5049   -100.36692   -731.07166    1058.0914   -2527.0634 
17550000    263.37549   -3905.0033   -3453.5867   -3905.0033            0    8564.7598    17.017886    20.044822    20.761781    7082.2693    11236.296    7221.9722    7236.0113    562.19555   -889.76808   -130.20545    -2568.953 
17551000    256.27458   -3848.6731   -3409.4272   -3848.6731            0    6564.1216    17.031415    20.060757    20.778286    7099.1728    4621.5236    8284.2818    6786.5594    452.35104    1115.4365    1017.8191   -2729.8164 
17552000    265.00125   -3892.7643   -3438.5612   -3892.7643            0    8852.9924     16.97734    19.997064    20.712315    7031.7682     6960.658    9545.0489     10053.27    472.29571    916.11294    1117.2616   -2530.6769 
17553000    258.07883   -3890.9597   -3448.6214   -3890.9597            0    7413.5421    16.953413    19.968881    20.683125    7002.0795    6395.3916    8154.8577     7690.377   -373.83496    716.70358   -548.79566   -2691.5642 
17554000    257.67862   -3871.4921   -3429.8398   -3871.4921            0    9002.2166     16.96501    19.982541    20.697273    7016.4586    7700.5375    11182.453    8123.6595     94.58245    63.782566   -671.50911   -2508.6623 
17555000     263.1845   -3901.8321   -3450.7429   -3901.8321            0    9015.6907    16.983785    20.004656    20.720178    7039.7795    8529.7992    9645.9326    8871.3404    54.303517   -1074.6043     415.8011   -2525.1203 
17556000    260.78025   -3851.1077   -3404.1392   -3851.1077            0    8688.6724    16.982645    20.003313    20.718788    7038.3621    10561.203    9201.8792    6302.9349   -377.54294   -1660.3622    348.14616   -2512.2705 
17557000    257.63815   -3885.7188   -3444.1359   -3885.7188            0    9763.0902    16.941563    19.954924    20.668668    6987.4069    9806.6871    8912.9533     10569.63   -173.49257      219.135    24.455236   -2449.2363 
17558000    266.60074   -3897.5838   -3440.6392   -3897.5838            0    8360.2712    16.999014    20.022594    20.738758    7058.7341    7022.3569    8546.8963    9511.5604   -89.314594    1238.8809   -1189.2033   -2579.9961 
17559000    266.77219   -3870.8483   -3413.6099   -3870.8483            0    7252.5141    16.947604    19.962039    20.676037     6994.884    7156.2315    7782.7691    6818.5418   -530.76604    737.71693   -266.77207   -2673.7576 
17560000    249.10546   -3877.4819   -3450.5237   -3877.4819            0    9235.0037    16.922505    19.932475    20.645416    6963.8519    10749.203    8567.5404    8388.2674    1396.8494    -1649.715    776.58452   -2512.6108 
17561000    252.52045   -3872.8551   -3440.0437   -3872.8551            0    9627.7741    17.015807    20.042373    20.759245     7079.674    8426.0001    10431.501    10025.821   -440.20778   -162.80405    653.70026   -2445.9781 
17562000    254.29689   -3862.7451   -3426.8889   -3862.7451            0    9142.5491    17.019361    20.046559    20.763581    7084.1108    9307.7313    9000.7895    9119.1265    522.48176    -245.3557   -2106.1259   -2482.3311 
17563000    276.93839   -3883.9527   -3409.2898   -3883.9527            0    8930.7147    16.963282    19.980505    20.695164    7014.3144    8206.0947    9601.8001    8984.2494    133.25335   -1303.0007    3157.8831   -2495.7082 
17564000    266.58005   -3916.1353   -3459.2262   -3916.1353            0    7191.9013    17.017634    20.044524    20.761473    7081.9538    5399.1668    8399.7045    7776.8325   -1758.3635   -215.49222    1283.4454   -2716.4249 
17565000    240.06056   -3907.2416    -3495.786   -3907.2416            0     6421.702    17.043143    20.074572    20.792595    7113.8495    6755.5251    6924.5827    5584.9983    1087.3259    1215.6912    -393.6867    -2829.546 
17566000    265.15827   -3887.4182    -3432.946   -3887.4182            0    7770.8231    17.043061    20.074475    20.792494    7113.7464    4645.3415    8282.1779     10384.95    -1312.605    2344.3889     143.3944   -2626.7488 
17567000    254.55611    -3907.485   -3471.1846    -3907.485            0    9078.9429    16.973103    19.992074    20.707146    7026.5049    8223.4975    9613.1162    9400.2148   -648.43149   -1083.9987    951.96757   -2540.8257 
17568000    260.16611   -3902.1658     -3456.25   -3902.1658            0    7101.9819    17.040255     20.07117    20.789072    7110.2338    7804.4554    6455.3866    7046.1037    954.45674    65.329389   -814.06966   -2719.8066 
17569000    243.79237   -3904.7188    -3486.867   -3904.7188            0     8450.852    16.927981    19.938926    20.652097    6970.6147    6432.6194    9961.1855    8958.7512   -238.24231   -1256.4402     180.6184   -2627.7596 
17570000     244.0022   -3855.5619   -3437.3505   -3855.5619            0    8654.0247    16.986491    20.007843     20.72348    7043.1449    8047.1685    8947.5871    8967.3184    169.17172   -142.47107   -227.55205   -2548.4347 
17571000    256.99403   -3896.0541   -3455.5752   -3896.0541            0    5650.0753    17.033976    20.063774    20.781411    7102.3766    5161.3894    5115.4999    6673.3365    925.12415    253.76977    1768.8874   -2870.3354 
17572000    272.34215   -3827.2697   -3360.4845   -3827.2697            0    9231.9011    16.978195    19.998071    20.713358    7032.8303    10371.644    9419.9625    7904.0969   -830.46046     1759.924    742.43342   -2413.5997 
17573000    257.42153   -3911.4289   -3470.2172   -3911.4289            0    9042.8257    16.894463    19.899446    20.611206    6929.2908    9839.4595    7844.3986     9444.619    -321.3221    1766.7197    1084.4836     -2556.38 
17574000    267.72625   -3887.1284   -3428.2547   -3887.1284            0    9815.1966     16.84794    19.844648    20.554448     6872.204    9598.6394    9189.9031    10657.047    1237.5555   -1137.6472   -1860.1303    -2444.536 
17575000    262.90317    -3878.728    -3428.121    -3878.728            0    9115.0563     16.90032    19.906344     20.61835    6936.4992    9976.3268    10048.243    7320.5988    843.84123    1038.0002    1569.4194   -2506.0261 
17576000    257.61245   -3882.0401   -3440.5012   -3882.0401            0    7848.0446     17.00326    20.027595    20.743938    7064.0246    7396.2627     10433.28    5714.5912    492.03087   -1065.7406   -8.1004647   -2631.9834 
17577000    249.87289   -3856.1699   -3427.8963   -3856.1699            0    9035.0109    16.948392    19.962967    20.676999    6995.8598    8398.7302     8328.487    10377.816   -962.00205    393.67107   -612.03221   -2506.0773 
17578000    270.91374   -3839.1897   -3374.8528   -3839.1897            0    9113.7094    17.006558    20.031479    20.747961    7068.1358    9622.9827    9507.8864    8210.2589   -1454.4431   -482.49145    317.88497   -2435.3979 
17579000    263.94783   -3858.3977   -3406.0002   -3858.3977            0    9071.1259    16.975789    19.995238    20.710423    7029.8413    11385.524    7961.5569    7866.2971   -315.51796    486.22714    -150.7975   -2476.0009 
17580000    276.55525   -3852.3373   -3378.3311   -3852.3373            0    7460.9165     17.02977     20.05882     20.77628     7097.117    7221.6709    8483.6126    6677.4661   -374.05087   -890.07081    674.60688   -2606.0951 
17581000     262.6054   -3867.7168   -3417.6202   -3867.7168            0    5106.2124     17.01073    20.036393    20.753051    7073.3387    5350.2601    4072.1602    5896.2169    626.86799    28.411679   -777.48414   -2890.8766 
17582000    257.22658   -3867.6122   -3426.7347   -3867.6122            0    9914.4538    16.918882    19.928208    20.640996    6959.3799     8247.098    10493.063      11003.2   -1908.7961   -211.41941   -836.53392    -2420.463 
17583000    253.70949   -3842.3665   -3407.5171   -3842.3665            0    7024.0645    16.951706     19.96687    20.681042    6999.9641    6506.3905    7080.3773    7485.4256   -1126.1325   -1481.5117    1264.7523   -2690.4494 
17584000    277.66834   -3839.9911    -3364.077   -3839.9911            0    8980.2708    16.968427    19.986566    20.701442    7020.6992     9473.247    8529.2202    8938.3452    586.84361    48.407264    2330.7884   -2444.5898 
17585000    258.24845   -3862.8047   -3420.1757   -3862.8047            0    7054.1087    17.014261    20.040552    20.757359    7077.7443    7008.3237    6015.3623    8138.6402   -1226.7454   -793.99765    1510.9659    -2692.039 
17586000    272.18468   -3884.2025   -3417.6873   -3884.2025            0    5899.9586    16.941747     19.95514    20.668892    6987.6344    6843.3062    4474.7516     6381.818   -1154.2869    446.95282   -947.76745   -2816.4374 
17587000    263.71196   -3893.0171   -3441.0238   -3893.0171            0    8734.3232    16.902675    19.909118    20.621223    6939.3992    8679.0691    9559.5959    7964.3044   -1097.3402   -516.65633    228.45589   -2557.0752 
17588000    268.98737   -3846.8334   -3385.7982   -3846.8334            0    9672.7132    16.909973    19.917714    20.630127    6948.3922    8875.9096    8962.7291    11179.501   -115.54478    522.20311    1426.7335   -2405.6122 
17589000    245.53781   -3886.8437   -3466.0003   -3886.8437            0    6823.7034    16.990306    20.012336    20.728134    7047.8912    8386.2134     6385.066    5699.8307    -649.4058    741.77713   -966.69211   -2764.6174 
17590000    259.50314   -3871.8196   -3427.0401   -3871.8196            0    9332.1868    16.991505    20.013749    20.729597    7049.3837    11002.661    7723.2181    9270.6809   -899.22372    497.02318   -724.99707   -2467.6164 
17591000    256.59736   -3899.0271    -3459.228   -3899.0271            0    11015.561    16.931379    19.942928    20.656243    6974.8129    12494.267    10814.646    9737.7691   -332.40564   -324.39868    1887.2393   -2338.7197 
17592000    268.48867   -3888.3462   -3428.1658   -3888.3462            0    8949.1086    16.962713    19.979836    20.694471    7013.6091    10401.659    7628.5023    8817.1649   -990.67682   -2454.5041    175.19898   -2512.7947 
17593000    260.08095   -3908.6943   -3462.9244   -3908.6943            0    7647.9779    16.936701    19.949197    20.662736    6981.3925    8167.8075    6030.7061    8745.4201     1127.083   -580.68131    777.27601   -2684.2345 
17594000    256.55346    -3878.402   -3438.6781    -3878.402            0    8385.3206    16.926869    19.937615     20.65074    6969.2405    9127.9467    8298.5628    7729.4522    323.77958   -2072.2909   -728.82537   -2586.4006 
17595000    261.37461   -3902.6782    -3454.691   -3902.6782            0    6772.1167    16.989188    20.011019     20.72677    7046.5001    6811.5731    4465.2612    9039.5157    912.33545    1261.5534    68.278719   -2758.7478 
17596000    263.10434   -3883.4108    -3432.459   -3883.4108            0    8682.0148    16.969809    19.988193    20.703127    7022.4142    6258.8174    10707.632    9079.5949   -881.36207    554.81847    565.96211    -2543.293 
17597000    266.90006   -3901.6704   -3444.2128   -3901.6704            0    8550.3559    16.991628    20.013894    20.729747    7049.5367    8680.8962    7623.9556    9346.2157    1457.0359    1992.0101   -1367.0886   -2565.1485 
17598000     251.7083   -3913.0639   -3481.6444   -3913.0639            0    6809.8647     17.00678     20.03174    20.748232    7068.4121    7033.0879    8427.1651    4969.3411   -847.65842    1461.5578     248.7847   -2779.6459 
17599000    258.69796   -3873.8167   -3430.4172   -3873.8167            0    8316.1318    17.006562    20.031483    20.747965    7068.1398    9367.4786    8301.1423    7279.7744   -1381.6359   -726.08596    176.28257   -2573.1773 
17600000    253.96539   -3869.8908   -3434.6029   -3869.8908            0    9905.0721    16.917338     19.92639    20.639113    6957.4758    8927.8941    11157.653     9629.669   -1139.7522    -1195.584   -268.84156   -2429.5585 
17601000    258.21354   -3894.4654   -3451.8962   -3894.4654            0    6531.3558    16.996079    20.019136    20.735177    7055.0778    8082.0084    6496.5375    5015.5214    2068.2999   -1176.8957   -478.28495    -2779.878 
17602000    261.49948   -3842.7117   -3394.5106   -3842.7117            0    7684.8023     17.04249    20.073802    20.791798    7113.0319    7369.8334    8262.8339    7421.7397   -63.766988    1043.6566   -1529.8619   -2597.3178 
17603000    260.42466   -3857.2876   -3410.9286   -3857.2876            0    4647.2047     17.10142    20.143214    20.863693    7187.0745    4889.7413    4429.5519     4622.321    668.59272    1349.6899    539.79159   -2923.8267 
17604000    269.36554   -3860.3092   -3398.6259   -3860.3092            0    7068.9732    17.016614    20.043324     20.76023    7080.6816    6947.0266    5520.9373    8738.9558   -1089.8149    384.98399    830.23153   -2668.6521 
17605000    267.79705   -3858.3091   -3399.3142   -3858.3091            0    8477.3403    17.046419     20.07843    20.796591    7117.9522    9201.1222    6663.9214    9566.9773    1330.0672    2050.8435   -679.88078   -2519.2982 
17606000    239.24542   -3855.8214    -3445.763   -3855.8214            0    9144.7885    16.951766    19.966942    20.681115    7000.0389    7045.4857    10111.456    10277.423    1837.3144     1252.145    1340.7453   -2512.1863 
17607000    256.26669   -3886.4431   -3447.2108   -3886.4431            0    6208.4778    17.028287    20.057073     20.77447    7095.2625    6486.1793     5867.277    6271.9771    920.05567   -428.00596    378.52004   -2804.7753 
17608000    248.14774   -3822.1958   -3396.8791   -3822.1958            0    8061.0059    17.051411     20.08431    20.802682    7124.2079    8690.6541    8660.9313    6831.4324     -138.745   -1745.4978   -1005.2539   -2559.3465 
17609000    256.98738    -3866.632   -3426.1644    -3866.632            0    7152.5162     17.01697    20.043743    20.760664     7081.126    7110.7719     7055.904    7290.8727   -969.52276    13.743438    -1000.357   -2687.5172 
17610000     258.3172   -3869.6861   -3426.9393   -3869.6861            0    7385.8563    16.994674    20.017481    20.733463    7053.3284    7906.6573     6952.021    7298.8907    1127.8789    446.45253    1010.7504    -2667.189 
17611000    265.01086    -3867.517   -3413.2974    -3867.517            0    8930.4054    17.028093    20.056844    20.774233    7095.0197     8433.495    10671.785    7685.9364   -375.11274    1200.2121   -2182.1688   -2489.2364 
17612000    259.76846   -3870.5701   -3425.3358   -3870.5701            0    8521.6805    17.003394    20.027752    20.744101    7064.1915    8542.4001    8554.6231    8468.0184    1148.4775    455.05949   -250.80624   -2547.3983 
17613000    263.67862     -3902.58   -3450.6439     -3902.58            0    6891.3206    17.012201    20.038126    20.754846    7075.1741    7702.5303    6147.4813    6823.9502    1104.3069    -1653.778   -117.75659   -2739.5688 
17614000    269.37155   -3867.8251   -3406.1315   -3867.8251            0    8125.7269    16.987225    20.008708    20.724375    7044.0582    8519.3099    8598.1034    7259.7673   -1332.3909    1307.2643     1842.316   -2571.3726 
17615000    267.30264   -3854.0274   -3395.8798   -3854.0274            0    9021.2632    16.936479    19.948935    20.662465    6981.1179    9158.6885    10303.977    7601.1246    1686.1288   -426.87086     833.9033    -2477.403 
17616000     262.6168   -3904.8551   -3454.7389   -3904.8551            0    8469.7117    16.968266    19.986376    20.701245    7020.4988    7995.0638    8766.2781    8647.7931   -520.14394    966.38395    851.50896   -2587.5524 
17617000    255.87662   -3919.9895   -3481.4257   -3919.9895            0    8512.2716    16.945882     19.96001    20.673936    6992.7517    7718.3139    9028.2299    8790.2709   -18.144535   -230.03131   -1250.0051   -2613.3263 
17618000    252.16924   -3904.1289   -3471.9195   -3904.1289            0    8105.8534     16.92348    19.933624    20.646606    6965.0559    6046.5035    9652.3889    8618.6679   -636.87273    1217.1831    -1192.866   -2648.5415 
17619000    257.45228   -3862.3386   -3421.0742   -3862.3386            0    9431.5735    16.926264    19.936903    20.650002    6968.4933    10014.548    8936.7534    9343.4191    2339.6975   -1124.8997    -77.47659   -2462.5591 
17620000    266.96853   -3900.0343   -3442.4594   -3900.0343            0    7790.5692    16.985676    20.006883    20.722485     7042.131    7560.4345    7546.2581     8265.015   -346.23599    97.156519    -198.9327   -2642.3503 
17621000    263.65231   -3882.7881    -3430.897   -3882.7881            0    8018.8782    16.993501    20.016099    20.732031    7051.8675    6785.4122    9385.6935    7885.5289  -0.76120541    699.54527    169.70218   -2606.2015 
17622000     276.6408   -3873.8475   -3399.6946   -3873.8475            0    7829.3583    17.078956    20.116754    20.836286    7158.7885    7420.3367    7428.4572     8639.281    -1567.451    1151.5382   -167.74053   -2582.2815 
17623000    255.47285   -3883.5224   -3445.6506   -3883.5224            0     7490.284    17.001983     20.02609    20.742379    7062.4322    7072.7366    6817.9765    8580.1388   -1237.4131    275.98146   -1938.2989   -2674.1639 
17624000    271.93963   -3873.7066   -3407.6114   -3873.7066            0    8200.4331    17.020219     20.04757    20.764628    7085.1828    8880.4477    7572.1279    8148.7237    48.362556   -550.11381    774.29082   -2560.2596 
17625000     267.7587   -3833.6806   -3374.7513   -3833.6806            0    9257.0823    16.977926    19.997754     20.71303    7032.4958    9779.4298    8628.2353    9363.5817    875.02784   -962.34163   -339.68161   -2425.3289 
17626000    269.44001   -3861.5308   -3399.7199   -3861.5308            0     9265.155    17.017222     20.04404    20.760971    7081.4403    9358.2566    11554.693    6882.5155    1452.7984   -205.44822   -1062.5977    -2442.856 
17627000    262.07839    -3862.963   -3413.7696    -3862.963            0    8367.6172    16.985131    20.006241     20.72182    7041.4533    8088.6867    7490.0674    9524.0977    568.47422    806.54788   -266.96541   -2554.4791 
17628000    269.58697   -3899.4148    -3437.352   -3899.4148            0    7654.3425    16.970396    19.988885    20.703844    7023.1435    8182.4021    7097.0309    7683.5945   -1544.6888   -1168.2394    891.02212   -2653.3533 
17629000    253.23186   -3826.6942   -3392.6635   -3826.6942            0    10125.392    16.960632    19.977384    20.691932     7011.028    10583.203    10268.982    9523.9931   -1541.5668   -723.20063    439.20383   -2357.3557 
17630000    249.71366   -3868.0915   -3440.0908   -3868.0915            0     8157.768    16.976315    19.995857    20.711064    7030.4942    6686.4952    9089.9786    8696.8302    266.56756     69.60407   -72.504512   -2603.6541 
17631000    264.37043   -3894.4869    -3441.365   -3894.4869            0    8614.7467    16.915381    19.924084    20.636725    6955.0605    6932.2288    10267.369    8644.6423    551.90787   -287.15076     501.7826   -2567.5504 
17632000    256.54982    -3817.498   -3377.7804    -3817.498            0    8992.2378    16.971055    19.989661    20.704647     7023.961    7387.4185    9259.8313    10329.464   -210.77067    671.73529    855.77455   -2456.6401 
17633000    259.93298   -3860.1301   -3414.6139   -3860.1301            0    8157.9624    16.926928    19.937685    20.650812    6969.3134    7675.2992    6422.0509    10376.537   -229.35915    1866.9613    68.771372   -2585.4362 
17634000    249.02389   -3859.5098   -3432.6914   -3859.5098            0    9132.0718    16.906559    19.913693    20.625962    6944.1842    8181.8745    8208.8041    11005.537   -266.23264    309.89532   -744.88987   -2507.8518 
17635000    247.32734   -3899.1765   -3475.2659   -3899.1765            0    8682.5307    16.943381    19.957065    20.670885    6989.6561    7531.7681    8607.9653    9907.8587   -419.65687    669.28023   -1104.4183   -2590.1951 
17636000    255.68289   -3869.3214   -3431.0897   -3869.3214            0    8986.4061    16.907826    19.915186    20.627509    6945.7466    9272.2962    8858.4171    8828.5049   -805.93413   -1094.7499    1143.0076   -2520.7974 
17637000    258.50452   -3914.5752   -3471.5073   -3914.5752            0     7015.198    16.980793    20.001131    20.716528    7036.0592    6679.6876     6361.465    8004.4414   -229.79836    431.31329   -124.24871   -2751.6519 
17638000    272.10956   -3895.5783   -3429.1918   -3895.5783            0    9134.5022    16.943112    19.956748    20.670557    6989.3236    8665.6355    8573.9834    10163.888    451.71166    1144.3146   -517.16685   -2498.0927 
17639000    248.22122   -3909.8648   -3484.4221   -3909.8648            0    9504.4194    16.910046    19.917801    20.630217    6948.4825    7782.9728    9698.1785    11032.107    773.68871   -723.14628   -909.05577   -2521.2776 
17640000    254.71703   -3893.9117   -3457.3354   -3893.9117            0    7701.4055      16.9929    20.015391    20.731298    7051.1196    9115.8001    7553.2074     6435.209    39.637071    927.96795    760.26028   -2665.3741 
17641000    260.54989   -3926.3651   -3479.7916   -3926.3651            0    8000.7577    16.979953    20.000142    20.715503     7035.015     7807.959     7561.285    8633.0293    263.02172    2321.8386     680.4509    -2658.926 
17642000    250.50964   -3880.8783   -3451.5134   -3880.8783            0    9141.3631    16.994168    20.016885    20.732846    7052.6987    8987.0495    9695.4561    8741.5836   -2056.0964    924.57114    84.718601   -2511.2659 
17643000    259.25318   -3888.1836   -3443.8325   -3888.1836            0    8998.3486    16.930889    19.942351    20.655646    6974.2083    9763.4345    9165.3133     8066.298   -88.388292    453.99881    1232.6142   -2528.5954 
17644000    248.08509   -3856.2242   -3431.0148   -3856.2242            0    9193.8539    16.949534    19.964312    20.678392    6997.2736    8121.9138    9402.9929    10056.655   -704.19129    358.43238    503.83831   -2492.7999 
17645000    273.02294   -3846.2644   -3378.3124   -3846.2644            0    8924.9172    16.912434    19.920613     20.63313    6951.4263    10426.525    8452.2581    7895.9687   -530.31961    1304.5589   -1606.3795   -2473.5095 
17646000    254.17792   -3912.5578   -3476.9055   -3912.5578            0     7497.062    16.971304    19.989955    20.704952     7024.271    7195.0616    6817.5537    8478.5707    1761.2793    1193.5781   -1874.4008   -2708.8931 
17647000    254.13366    -3918.894   -3483.3176    -3918.894            0    8908.4767    16.938268    19.951042    20.664647      6983.33    9228.3341    9877.1915    7619.9044   -244.90827    -595.2893   -639.13854   -2576.0364 
17648000    261.00351   -3932.9123   -3485.5612   -3932.9123            0    8780.9138     16.91557    19.924308    20.636956    6955.2947    10221.664    8381.4579    7739.6199    533.77881    -83.26436   -1665.6754   -2594.8618 
17649000    261.51931   -3855.7723   -3407.5372   -3855.7723            0    6376.4334    17.045496    20.077342    20.795465    7116.7956    7380.2153    4578.7951    7170.2898    829.15731     735.4947   -330.70747   -2745.7197 
17650000    250.37914   -3899.9368   -3470.7955   -3899.9368            0    9496.3634    16.935509    19.947792    20.661281    6979.9179     7776.097    10304.228    10408.765    3001.8349   -539.83072   -425.11135   -2504.1137 
17651000    259.42854   -3853.3409   -3408.6893   -3853.3409            0    7721.2684    16.953672    19.969187    20.683441    7002.4004    8479.3828    6550.0776    8134.3448    657.49602    234.49967   -2192.5033   -2620.1715 
17652000    236.72481   -3878.8736   -3473.1354   -3878.8736            0    8041.3069    16.946116    19.960286    20.674221    6993.0411    8886.6885    7054.1708    8183.0614    -774.1272   -1443.7583    931.23845    -2653.032 
17653000    256.52451   -3881.9988   -3442.3245   -3881.9988            0    8050.9384    16.935373    19.947632    20.661115    6979.7497    7642.7707    8833.8119    7676.2326   -412.21763   -716.42201    574.10663   -2622.7995 
17654000    249.96644   -3880.5637   -3452.1298   -3880.5637            0    8613.9278    16.929584    19.940814    20.654053    6972.5956    7841.7582    9381.2288    8618.7964   -1978.2465   -997.18418    809.14453   -2576.1954 
17655000    271.01802   -3858.3244   -3393.8088   -3858.3244            0    10116.982    16.865641    19.865497    20.576042    6893.8864    10046.658    10543.206    9761.0814    1510.3317    943.66811     1605.819   -2376.6448 
17656000    241.95815    -3858.346    -3443.638    -3858.346            0    9129.8698     16.95906    19.975533    20.690014    7009.0785    10735.157    8013.5783    8640.8743    -14.61741    367.68782   -888.94924   -2510.3807 
17657000    253.52522   -3870.5764   -3436.0428   -3870.5764            0    7545.5113    16.996905    20.020109    20.736185    7056.1067     7163.884    8925.3709    6547.2791    74.618189    190.58528    1412.6738   -2659.5638 
17658000    258.12537   -3865.4336   -3423.0155   -3865.4336            0    10528.837    16.903681    19.910303    20.622451    6940.6388    9353.3359     11208.11    11025.066    135.20435    532.92623   -352.06077   -2357.2645 
17659000    244.47266   -3862.6923   -3443.6745   -3862.6923            0    8134.4161    17.017546    20.044421    20.761366     7081.844    8199.6803    8886.3047    7317.2633    339.72082    1489.8603   -978.24777   -2603.5404 
17660000    269.20611   -3864.5377   -3403.1276   -3864.5377            0    8827.2673     17.03494    20.064909    20.782587     7103.582    8354.1399    9169.9179    8957.7439    1550.3611    1551.8146   -703.48282   -2488.6363 
17661000    254.39257   -3900.5528   -3464.5327   -3900.5528            0     7692.698    16.938992    19.951895    20.665531    6984.2259     9328.655    6442.5393    7306.8996    -712.1954   -917.27336    246.39255   -2680.9716 
17662000    253.99226   -3895.0277   -3459.6936   -3895.0277            0      7233.59    16.981773    20.002285    20.717723    7037.2774    9428.4737    5932.8367    6339.4597    863.54544     2352.729    669.16693   -2717.2996 
17663000    263.44371   -3861.8937   -3410.3602   -3861.8937            0    8536.4446    16.908992    19.916559     20.62893    6947.1826    7695.2447    9788.9602     8125.129    83.622456   -32.230236    720.17274   -2545.4687 
17664000    265.00755   -3899.1505   -3444.9366   -3899.1505            0    7520.9694    16.905865    19.912876    20.625116    6943.3295    8609.7188    8021.1028    5932.0867    412.88958    497.02352    459.68176   -2683.3532 
17665000    243.32718   -3852.4975    -3435.443   -3852.4975            0     9517.872    16.895269    19.900395    20.612188    6930.2819    12171.893    8984.9515    7396.7715    106.22626    182.96455    354.43201   -2473.4617 
17666000    266.10495    -3864.787   -3408.6922    -3864.787            0    6421.7448    16.948841    19.963495    20.677546    6996.4152    7742.1023    5705.0073    5818.1248   -832.66394    291.30737   -717.00083    -2753.446 
17667000    244.21008   -3885.3349   -3466.7672   -3885.3349            0    7102.9841    16.955423    19.971249    20.685577    7004.5702    6985.7238    10093.499    4229.7292    208.94115   -809.17431    396.63086   -2741.1656 
17668000    273.56468   -3895.9981   -3427.1176   -3895.9981            0    8167.7411    16.997621    20.020952    20.737058    7056.9981    6391.4653    8201.4365    9910.3215    1208.0449    702.34602    116.74487   -2586.5012 
17669000    268.86829   -3865.2548   -3404.4237   -3865.2548            0    9218.5949    16.952375    19.967659    20.681858    7000.7933    8957.1778     8221.752    10476.855    1573.8579    806.57017    99.387765   -2463.2108 
17670000    257.50981   -3846.5269   -3405.1639   -3846.5269            0    8596.3489    17.035832     20.06596    20.783676    7104.6986    8403.6583     8080.279    9305.1095    1773.6507    -379.1052   -661.22032   -2514.4554 
17671000    256.26094   -3873.6401   -3434.4176   -3873.6401            0    6699.3392    17.022804    20.050614    20.767781    7088.4106     7555.566    8076.1411    4466.3103    1272.1873    886.71582    1390.3479   -2741.8587 
17672000    256.33177   -3873.5503   -3434.2065   -3873.5503            0    7156.5036    17.021127    20.048639    20.765735    7086.3162    7739.7015    8013.1252    5716.6842   -312.63683    277.74674    970.79287   -2694.6058 
17673000    262.19133   -3877.9702   -3428.5832   -3877.9702            0    9645.0573    16.929615     19.94085    20.654091    6972.6333    10938.564    9169.4186    8827.1893    1661.3614    1188.7535   -120.20863   -2447.7898 
17674000    251.39675   -3889.5937   -3458.7082   -3889.5937            0    6434.6984    17.040575    20.071546    20.789461    7110.6336     5467.399     7300.598    6536.0983     635.7265    325.75766   -1480.0384   -2791.4217 
17675000    260.10306   -3852.7773   -3406.9696   -3852.7773            0    7290.3074    16.990536    20.012607    20.728414    7048.1771    8645.5479    7587.8596    5637.5146   -768.95893   -453.32493    140.76088   -2657.5957 
17676000    247.40219   -3850.7137   -3426.6748   -3850.7137            0    8813.2997    16.969684    19.988047    20.702975    7022.2596    9458.4174    8813.4177    8168.0641    258.56522     31.68137   -1070.1531   -2524.0831 
17677000    266.09757   -3851.1508   -3395.0687   -3851.1508            0    8829.3893    17.004117    20.028604    20.744983    7065.0923    6539.5056    9117.0214    10831.641   -1861.1147   -2009.7666   -980.13502   -2485.3138 
17678000     262.1473   -3862.4348   -3413.1232   -3862.4348            0    8439.0462    17.043961    20.075535    20.793593    7114.8741    10591.098    6433.9849    8292.0557    584.69142   -9.8954125   -2137.6014   -2537.4613 
17679000    246.22448   -3864.6171   -3442.5968   -3864.6171            0    6836.3842    17.019069    20.046216    20.763225    7083.7466    6484.8117    7269.9819     6754.359    527.16141    54.072743    929.62151   -2736.3355 
17680000    262.30381   -3901.5643   -3451.9846   -3901.5643            0    8594.4487    16.967141    19.985051    20.699873    7019.1029    6936.6713    8143.3986    10703.276    1134.8754    562.22523   -160.08182   -2572.2017 
17681000    269.38712   -3886.1931   -3424.4728   -3886.1931            0    9870.0519    16.928966    19.940086    20.653299    6971.8317    11370.641    11609.622    6629.8935    86.518769   -91.015816    780.23438   -2420.9154 
17682000    277.97914   -3875.3372   -3398.8905   -3875.3372            0    8290.1431    16.969241    19.987524    20.702434    7021.7087    9523.7941    6336.5617    9010.0735    906.49694   -2121.5299   -411.74685   -2549.9432 
17683000    256.29002   -3869.2178   -3429.9455   -3869.2178            0     8169.042    16.917291    19.926335    20.639056    6957.4178    9302.4244     8060.796    7143.9055    1176.4151   -1691.1142    -760.6365   -2601.0589 
17684000    264.35849    -3905.908   -3452.8066    -3905.908            0    6331.0334    16.997609    20.020938    20.737043    7056.9831    5293.9254    7433.8313    6265.3434   -1415.7252    25.276576    -1421.646   -2801.2239 
17685000    276.91359   -3874.1264    -3399.506   -3874.1264            0    8468.3045    16.977827    19.997638    20.712909     7032.373    9173.6426    7943.8851    8287.3859   -411.37862    1572.7249   -718.13328   -2530.9971 
17686000    252.72363   -3853.6479   -3420.4882   -3853.6479            0    8511.7846    17.012529    20.038512    20.755245    7075.5825     10549.59    9094.9674     5890.796   -1771.1518    -369.3707    2034.8609   -2542.1562 
17687000    250.96656   -3872.9505   -3442.8025   -3872.9505            0     8677.711    16.964329    19.981738    20.696441    7015.6129    8812.0123    8591.9588    8629.1617   -730.34281    179.26907    1761.9952    -2554.938 
17688000    266.06464   -3862.0106    -3405.985   -3862.0106            0    9770.2105    16.977529    19.997287    20.712546    7032.0032    9834.5289    8432.0941    11044.009   -209.95598   -392.70273   -585.58746   -2404.0054 
17689000    261.30369   -3910.2039   -3462.3383   -3910.2039            0    8884.9223      16.9453    19.959325    20.673226    6992.0314    9399.8062    9196.5939    8058.3668    1252.0997    1605.9112    947.88207   -2556.3285 
17690000    272.06114   -3859.5656   -3393.2621   -3859.5656            0    8466.1195    17.031878    20.061302    20.778851    7099.7523    9540.0845    7532.2731     8326.001    1862.6268   -1008.1717   -204.26693    -2516.658 
17691000    263.25197   -3888.9411   -3437.7363   -3888.9411            0    6714.6341    17.062678    20.097581    20.816428    7138.3395    7025.6518    5597.5986     7520.652   -291.20246   -399.14995   -427.06833   -2738.7069 
17692000    256.53737   -3862.8349   -3423.1386   -3862.8349            0    9522.5111    17.032652    20.062214    20.779795    7100.7198    9165.7241    10787.912    8613.8971    1067.8063    129.95196     1282.222   -2437.0187 
17693000      262.232   -3878.0124   -3428.5557   -3878.0124            0    8083.0151    17.008796    20.034115    20.750692    7070.9264    8885.1262    6562.2716    8801.6474    707.05137   -1064.7532   -900.99509   -2595.0174 
17694000    251.05225   -3823.4595   -3393.1646   -3823.4595            0    9508.3797     16.97518     19.99452     20.70968    7029.0849     9853.717    8666.0327    10005.389    277.82887   -1.1962173   -941.14177   -2418.4416 
17695000    255.03965   -3842.6284   -3405.4992   -3842.6284            0    8674.8383    17.016431    20.043108    20.760006    7080.4523    8582.1917     8319.136    9123.1873    614.37029   -2197.9327   -404.14106   -2509.7255 
17696000    262.23597   -3846.5461   -3397.0826   -3846.5461            0    8545.1384    17.032744    20.062322    20.779908    7100.8351    9239.8592    6976.8846    9418.6712   -216.79865    723.43675   -1728.6832   -2512.1618 
17697000    259.46342   -3859.2369   -3414.5255   -3859.2369            0    9575.9998    16.919925    19.929436    20.642268     6960.667    9536.2546    9934.0315    9257.7135    50.735422    1210.7537    151.85953   -2442.4256 
17698000    257.02837   -3860.1872   -3419.6494   -3860.1872            0    8401.2335    17.002345    20.026517    20.742821    7062.8839    7619.4102    11639.906    5944.3838    1387.7803    141.12077    962.46935    -2554.281 
17699000    274.41972    -3884.019    -3413.673    -3884.019            0    9665.9883    16.923309    19.933423    20.646398    6964.8453     9556.265    8945.4682    10496.232     419.8521   -588.24913    699.72516    -2431.849 
17700000    259.10439   -3870.0211    -3425.925   -3870.0211            0    10740.409    16.884151      19.8873    20.598625    6916.6101    10013.408    12369.601    9838.2166   -531.53439   -1627.2441   -312.94663   -2342.5221 
17701000    257.90654   -3881.3356   -3439.2926   -3881.3356            0    9171.5546    17.025778    20.054118     20.77141    7092.1273    10329.886    9184.0358    8000.7418   -438.79132    283.57592    142.95727   -2490.6658 
17702000     264.3969   -3869.0245   -3415.8573   -3869.0245            0    9433.0961    16.929958    19.941254    20.654509    6973.0572    9244.9316     9746.368    9307.9888     1085.873    -672.3287   -58.490982   -2456.5597 
17703000    261.90408   -3908.1302   -3459.2356   -3908.1302            0    8832.2296    16.958915    19.975361    20.689836    7008.8982    9944.8659    8601.6205    7950.2022    358.51384   -5.3657933    1594.0428   -2556.4264 
17704000    251.83019   -3881.9921   -3450.3637   -3881.9921            0    7176.2812    17.055596    20.089239    20.807787    7129.4541    6456.3334    7629.0981    7443.4121   -2616.8599   -583.74783    1233.9154   -2704.2043 
17705000    255.69453   -3908.5499   -3470.2982   -3908.5499            0    7914.3768    17.028239    20.057016    20.774412    7095.2026    8006.1478    8658.8446     7078.138   -129.83664   -775.76534    224.00098   -2651.3482 
17706000    238.88266   -3852.2404   -3442.8037   -3852.2404            0    8046.4597    17.023152    20.051025    20.768206    7088.8458    7629.5091    9533.7419    6976.1281    1743.9266   -44.311275    2013.8194   -2610.9321 
17707000    246.17813   -3848.5038   -3426.5629   -3848.5038            0    9423.4442    16.952918    19.968298     20.68252    7001.4655     10555.12    7517.6957    10197.517   -767.84772    549.61054   -483.81112   -2464.3427 
17708000      261.418   -3865.4479   -3417.3863   -3865.4479            0     8629.501    16.956923    19.973015    20.687406    7006.4291    9730.4345    7822.8017    8335.2669   -60.743369   -1204.2351   -1126.6205   -2535.6103 
17709000    256.45649   -3883.6966    -3444.139   -3883.6966            0    7872.9055     17.02755    20.056205    20.773571    7094.3415    7252.3453    8015.6873    8350.6839    717.38642   -864.15862    1014.9701   -2629.5791 
17710000    261.98875   -3836.2424   -3387.2026   -3836.2424            0    10675.933    16.930804    19.942251    20.655541    6974.1026    10467.236    10855.595    10704.968    1987.0009    -594.3455   -2888.1048    -2301.352 
17711000     264.6313   -3898.0031   -3444.4341   -3898.0031            0     8828.741     17.01701     20.04379    20.760713    7081.1754    8687.9633    9538.5496    8259.7101    545.55506   -736.68191    782.02662   -2532.6752 
17712000    261.81868   -3870.5325   -3421.7842   -3870.5325            0    7753.0966    17.037476    20.067896    20.785681     7106.755    8208.1168    7067.5055    7983.6677   -195.54954    552.32982    902.21303   -2618.2166 
17713000    259.84696   -3816.9278    -3371.559   -3816.9278            0    10439.412    16.959903    19.976526    20.691043    7010.1242     9357.738    11281.351    10679.148    -1293.334    24.351879    708.50186   -2304.2808 
17714000    266.77785     -3886.33   -3429.0819     -3886.33            0    6942.8396    17.004312    20.028833    20.745221    7065.3351    7935.6431    7972.3611    4920.5144    703.93404   -1011.2326    1208.3977   -2713.6871 
17715000    250.15386   -3912.1238   -3483.3687   -3912.1238            0    8435.2889    16.959777    19.976377    20.690888    7009.9671    8893.4539    7096.3501    9316.0626    258.33914    1878.6838     688.9912   -2621.0023 
17716000    246.24324   -3855.4462   -3433.3937   -3855.4462            0    7728.2377    17.001375    20.025374    20.741638    7061.6755     6827.329     9468.439     6888.945   -1304.6466   -554.14268   -174.73425   -2637.4834 
17717000    248.21192   -3862.7253   -3437.2985   -3862.7253            0    9107.1395    16.966249       19.984    20.698784    7017.9953    9807.6636    6700.7424    10813.012    769.14371    1708.3148   -463.07894   -2505.1804 
17718000    258.29974   -3866.4862   -3423.7693   -3866.4862            0    7407.9136    17.075877    20.113127     20.83253    7154.9175    5799.2647    7385.4298    9039.0462   -1462.1424   -1388.5044    42.956953   -2650.7747 
17719000    260.57057   -3863.5902   -3416.9812   -3863.5902            0    6571.8005    17.029183    20.058128    20.775564    7096.3828    6198.2678    6425.0499    7092.0837    1199.4424    2004.8811   -391.26772   -2736.8428 
17720000     251.6472   -3896.6527    -3465.338   -3896.6527            0    8076.5067    16.950447    19.965388    20.679506     6998.405    9093.6407    8749.5368    6386.3425    50.256773     466.1551     -863.554   -2641.0129 
17721000    232.67118   -3798.2563   -3399.4658   -3798.2563            0    9048.9868    16.982074     20.00264    20.718091    7037.6518    9426.0046    8752.7999    8968.1559    837.07757    726.99164    28.467754   -2470.7056 
17722000    263.66801   -3881.3128   -3429.3948   -3881.3128            0    8139.6476    16.928689    19.939759    20.652961    6971.4892    8180.4678    7468.0629    8770.4122   -154.68862     976.3902    156.43616   -2601.8204 
17723000    257.71787   -3886.3142   -3444.5946   -3886.3142            0    7997.7865    17.030493    20.059672    20.777162    7098.0209    7532.8894    8359.4523    8101.0177   -823.30629    993.62296   -611.78857   -2616.6849 
17724000       258.16   -3853.5175   -3411.0401   -3853.5175            0    7506.3957    17.012282    20.038221    20.754944    7075.2746    8332.3076    7188.5001    6998.3793   -1290.9023   -550.91989   -1531.9766   -2636.4879 
17725000     253.0101   -3872.5626    -3438.912   -3872.5626            0    8028.1269     16.93154    19.943118     20.65644    6975.0128    6434.9234    8440.0719    9209.3853    730.84869   -1065.3441    723.17694   -2622.2636 
17726000    271.82727   -3899.8796    -3433.977   -3899.8796            0    9052.4523    16.990679    20.012776    20.728589    7048.3558    7307.1916     9224.175     10625.99   -643.39067   -853.24253    1908.4142   -2503.4479 
17727000    282.16748   -3847.6071   -3363.9817   -3847.6071            0    8998.3454    17.002877    20.027143     20.74347    7063.5469    9744.2818    8282.5674     8968.187    123.80495     80.48922     1549.774   -2437.0208 
17728000    257.20892   -3870.4376   -3429.5903   -3870.4376            0     6701.647    17.067767    20.103575    20.822635    7144.7277    5014.4326     7461.279    7629.2294    -1042.152    -1776.343   -586.11803   -2731.2886 
17729000    258.72523   -3882.4586   -3439.0124   -3882.4586            0    8177.6078    17.005955    20.030769    20.747225    7067.3837    8081.5218    7839.1966    8612.1052   -1216.1593   -722.03272    1260.5686   -2596.1419 
17730000    267.95211   -3884.5725   -3425.3117   -3884.5725            0    4900.7313     17.10603    20.148643    20.869316    7192.8871     4336.081    5075.8648     5290.248   -655.52242   -269.97678   -561.78069   -2911.2207 
17731000    270.81292   -3901.3802   -3437.2162   -3901.3802            0    9324.7716    16.997577      20.0209    20.737004     7056.943    9785.5584    9369.0477    8819.7087   -1814.3371    893.67768    -775.0157   -2477.5268 
17732000    256.45088   -3872.4988   -3432.9508   -3872.4988            0     7545.538     16.98467    20.005698    20.721258    7040.8797    9381.1081     5299.972     7955.534    702.04413     891.0994    33.227307   -2658.1447 
17733000    252.40305   -3881.6932    -3449.083   -3881.6932            0    7203.0903    17.014379    20.040691    20.757502    7077.8913    8029.3867    6759.5748    6820.3094   -471.10614    347.31225     1898.221   -2705.5527 
17734000    261.70205   -3875.3736   -3426.8253   -3875.3736            0    7185.1048    17.055098    20.088652    20.807179    7128.8292    5455.0012    7710.1948    8390.1183    259.15008    611.06083    1425.2697   -2679.8139 
17735000    259.03036   -3918.4281   -3474.4589   -3918.4281            0    7575.6317     17.04409    20.075687     20.79375    7115.0356    8139.8444    7514.0973    7072.9535   -138.92573   -1519.5794    1022.4338   -2688.3698 
17736000     254.4827   -3880.9585   -3444.7839   -3880.9585            0    7102.1313    17.052733    20.085868    20.804295    7125.8652    6351.2386    7228.2385    7726.9166    -184.5478   -616.66331    214.67415    -2706.706 
17737000    260.98361   -3887.3558   -3440.0388   -3887.3558            0    8494.6377    17.028592    20.057432    20.774842    7095.6435    9456.7516    7384.8686    8642.2929   -238.98979   -1049.5963    760.05594   -2560.9909 
17738000    267.36443   -3865.9701   -3407.7167   -3865.9701            0    9103.4833    17.068776    20.104763    20.823866    7145.9948    8506.2263     8528.727    10275.497    2216.4065   -937.36699     106.7818   -2458.9789 
17739000    261.21538   -3885.7608   -3438.0466   -3885.7608            0    8908.5865    17.013002     20.03907    20.755823    7076.1735     8784.637    9362.6093    8578.5131    1834.8447   -1173.0505   -461.72433   -2518.6918 
17740000    259.40576   -3860.3029   -3415.6903   -3860.3029            0    9795.8917     16.91779    19.926922    20.639665    6958.0334    10226.764    10280.096    8880.8152    923.41772     494.1401     430.2997   -2421.6446 
17741000    245.58845   -3872.7356   -3451.8054   -3872.7356            0    7676.8996    16.986138    20.007427    20.723049    7042.7056    8528.4024    6311.2662    8191.0303   -441.15143   -1637.1996     235.2682   -2663.3062 
17742000    251.62641   -3869.3255   -3438.0465   -3869.3255            0    6512.9855    17.071529    20.108006    20.827225    7149.4531    8626.6877    6529.8649    4382.4038     901.9922   -600.03407    1158.1684   -2758.9541 
17743000    259.94862   -3850.6834   -3405.1403   -3850.6834            0    8948.2225    16.967187    19.985105    20.699928    7019.1595    10315.541    8348.4398    8180.6868   -1331.4786   -76.957697   -956.57293   -2489.1355 
17744000    268.00068    -3883.214     -3423.87    -3883.214            0    8159.0042    16.977069    19.996745    20.711984     7031.431     9619.354    7027.2306    7830.4281   -1240.2424    964.78712   -201.06725    -2587.195 
17745000    265.96604   -3853.4553   -3397.5986   -3853.4553            0    7186.7476    16.991736     20.01402    20.729878    7049.6703    8293.1122    7549.9934    5717.1373   -1039.3244   -351.02644     277.1506   -2658.7132 
17746000    253.05148   -3859.3794   -3425.6579   -3859.3794            0    6884.5296    16.963931     19.98127    20.695956    7015.1195    6764.0905    8824.0683    5065.4299    993.03003    628.28677   -26.049975   -2721.3132 
17747000    254.84345   -3864.2535   -3427.4606   -3864.2535            0    10172.076    16.888838     19.89282    20.604342    6922.3709    12336.934    9306.2198     8873.074   -1837.7226   -403.50125    2051.3979   -2400.5318 
17748000     262.2618   -3852.8621   -3403.3544   -3852.8621            0      7833.66    17.044407     20.07606    20.794137     7115.432    6860.5765    9176.1085    7464.2951   -107.10909    431.31358   -407.65354   -2590.4455 
17749000    256.38465   -3901.7992   -3462.3647   -3901.7992            0    8299.4041    17.037161    20.067525    20.785297    7106.3611    7653.2026    9760.5527    7484.4571   -1446.9488    1179.2369    407.96034   -2602.2228 
17750000    260.93625   -3850.7572   -3403.5214   -3850.7572            0    8813.1635    17.010542    20.036171    20.752821    7073.1038    9228.1572    7760.2664    9451.0669   -1479.9289   -950.04858    1490.2644   -2494.4086 
Loop time of 499.722 on 64 procs for 250000 steps with 864 atoms

Performance: 86.448 ns/day, 0.278 hours/ns, 500.278 timesteps/s
98.9% CPU use with 64 MPI tasks x 1 OpenMP threads

MPI task timing breakdown:
Section |  min time  |  avg time  |  max time  |%varavg| %total
---------------------------------------------------------------
Pair    | 21.528     | 26.776     | 31.488     |  47.7 |  5.36
Bond    | 0.26784    | 0.27973    | 0.29723    |   0.9 |  0.06
Kspace  | 218.34     | 225.76     | 233.13     |  24.7 | 45.18
Neigh   | 6.157      | 6.8114     | 7.6999     |  14.3 |  1.36
Comm    | 107.3      | 113.45     | 120.46     |  30.3 | 22.70
Output  | 0.98862    | 0.99137    | 0.99257    |   0.1 |  0.20
Modify  | 118.3      | 120.11     | 122.25     |   9.1 | 24.04
Other   |            | 5.543      |            |       |  1.11

Nlocal:        13.5000 ave          18 max           9 min
Histogram: 2 3 4 14 9 11 10 7 1 3
Nghost:        2244.02 ave        2276 max        2210 min
Histogram: 2 2 4 8 11 16 10 9 0 2
Neighs:        4363.14 ave        6241 max        2680 min
Histogram: 4 1 4 14 16 8 8 5 2 2

Total # of neighbors = 279241
Ave neighs/atom = 323.19560
Ave special neighs/atom = 2.0000000
Neighbor list builds = 13858
Dangerous builds = 1

unfix		3
unfix		2
unfix		1

write_data	data.final.${pid}
write_data	data.final.0
System init for write_data ...
PPPM initialization ...
  extracting TIP4P info from pair style
  using 12-bit tables for long-range coulomb (../kspace.cpp:340)
  G vector (1/distance) = 0.37408895
  grid = 24 24 24
  stencil order = 5
  estimated absolute RMS force accuracy = 0.0031807582
  estimated relative force accuracy = 9.5787589e-06
  using double precision FFTW3
  3d grid and FFT values/proc = 2535 216
Last active /omp style is kspace_style pppm/tip4p/omp
WARNING: Not all mixed pair coeffs generated from mixing. Use write_data with 'pair ij' option to store all pair coeffs. (../write_data.cpp:312)

write_restart   restart.lmp.${pid}
write_restart   restart.lmp.0
System init for write_restart ...
PPPM initialization ...
  extracting TIP4P info from pair style
  using 12-bit tables for long-range coulomb (../kspace.cpp:340)
  G vector (1/distance) = 0.37408895
  grid = 24 24 24
  stencil order = 5
  estimated absolute RMS force accuracy = 0.0031807582
  estimated relative force accuracy = 9.5787589e-06
  using double precision FFTW3
  3d grid and FFT values/proc = 2535 216
Last active /omp style is kspace_style pppm/tip4p/omp
Total wall time: 0:08:24
