#include		in.partitions
include		in.temp
variable        temperature equal 285.71
variable	tempDamp equal 100.0
include		in.pressure
variable        pressure equal 11875.0
variable        pressureDamp equal 1000.0 # This is 1 ps
include		in.seed
variable        seed equal 745823

units		real
atom_style	full
read_restart	restart.lmp.${pid}
read_restart	restart.lmp.0
Reading restart file ...
  restart file = 30 Jul 2021, LAMMPS = 30 Jul 2021
  restoring atom style full from restart
  orthogonal box = (-0.13457860 -0.031393776 -0.10230064) to (24.864580 24.761395 22.912301)
  4 by 4 by 2 MPI processor grid
  restoring pair style lj/cut/tip4p/long/omp from restart
  restoring bond style harmonic/omp from restart
  restoring angle style harmonic/omp from restart
  1920 atoms
  1280 bonds
  640 angles
Finding 1-2 1-3 1-4 neighbors ...
  special bond factors lj:    0        0        0       
  special bond factors coul:  0        0        0       
     2 = max # of 1-2 neighbors
     1 = max # of 1-3 neighbors
     1 = max # of 1-4 neighbors
     2 = max # of special neighbors
  special bonds CPU = 0.002 seconds
  read_restart CPU = 0.009 seconds
include 	in.setup
variable	out_freq equal 1000
variable	out_freq2 equal 10000
variable	out_freq3 equal 1000

timestep	2.0

neigh_modify    delay 7 every 1

include		in.tip4p
# This is TIP4P/Ice

# create groups ###
group ox type 2
640 atoms in group ox
group hy type 1
1280 atoms in group hy

# set charges - beside manually ###
set group ox charge -1.1794
Setting atom values ...
  640 settings made for charge
set group hy charge 0.5897
Setting atom values ...
  1280 settings made for charge

# ### TIP3P Potential Parameters ###
pair_style lj/cut/tip4p/long/omp 2 1 1 1 0.1577 8.5
pair_coeff 1 1*2 0.000 0.000
pair_coeff 2 2 0.21084 3.1668
bond_style  harmonic
bond_coeff  1 450 0.9572
angle_style harmonic
angle_coeff 1 55 104.52
kspace_style pppm/tip4p/omp 1.0e-5
pair_modify tail yes

thermo          ${out_freq}
thermo          1000
thermo_style    custom step temp pe etotal epair emol press lx ly lz vol pxx pyy pzz pxy pxz pyz enthalpy

restart 	${out_freq3} restart.lmp.${pid} restart2.lmp.${pid}
restart 	1000 restart.lmp.${pid} restart2.lmp.${pid}
restart 	1000 restart.lmp.0 restart2.lmp.${pid}
restart 	1000 restart.lmp.0 restart2.lmp.0


include         in.dump
dump            myDump all atom ${out_freq2} dump.water.${pid}
dump            myDump all atom 10000 dump.water.${pid}
dump            myDump all atom 10000 dump.water.0
dump            myDump2 all dcd ${out_freq2} dump.dcd
dump            myDump2 all dcd 10000 dump.dcd
dump_modify     myDump append yes
dump_modify     myDump2 append yes


variable natoms 	equal  "count(all)"                        # NUMBER ATOMS
variable H      	equal  "enthalpy/v_natoms"                 # ENTHALPY-per-atom
variable Vol      	equal  "vol/v_natoms"                 # volume-per-atom
fix AVG all 		ave/time ${out_freq} 1 ${out_freq} v_Vol v_H file vol_enthalpy.dat
fix AVG all 		ave/time 1000 1 ${out_freq} v_Vol v_H file vol_enthalpy.dat
fix AVG all 		ave/time 1000 1 1000 v_Vol v_H file vol_enthalpy.dat




fix 		1 all shake 1e-6 200 0 b 1 a 1
       0 = # of size 2 clusters
       0 = # of size 3 clusters
       0 = # of size 4 clusters
     640 = # of frozen angles
  find clusters CPU = 0.005 seconds
fix             2 all nph aniso ${pressure} ${pressure} ${pressureDamp}
fix             2 all nph aniso 11875 ${pressure} ${pressureDamp}
fix             2 all nph aniso 11875 11875 ${pressureDamp}
fix             2 all nph aniso 11875 11875 1000
fix             3 all temp/csvr ${temperature} ${temperature} ${tempDamp} ${seed}
fix             3 all temp/csvr 285.71 ${temperature} ${tempDamp} ${seed}
fix             3 all temp/csvr 285.71 285.71 ${tempDamp} ${seed}
fix             3 all temp/csvr 285.71 285.71 100 ${seed}
fix             3 all temp/csvr 285.71 285.71 100 745823


run             250000
PPPM initialization ...
  extracting TIP4P info from pair style
  using 12-bit tables for long-range coulomb (../kspace.cpp:340)
  G vector (1/distance) = 0.37452125
  grid = 30 30 30
  stencil order = 5
  estimated absolute RMS force accuracy = 0.0032621519
  estimated relative force accuracy = 9.8238736e-06
  using double precision FFTW3
  3d grid and FFT values/proc = 5400 960
Last active /omp style is kspace_style pppm/tip4p/omp
Neighbor list info ...
  update every 1 steps, delay 7 steps, check yes
  max neighbors/atom: 2000, page size: 100000
  master list distance cutoff = 10.8154
  ghost atom cutoff = 10.8154
  binsize = 5.4077, bins = 5 5 5
  1 neighbor lists, perpetual/occasional/extra = 1 0 0
  (1) pair lj/cut/tip4p/long/omp, perpetual
      attributes: half, newton on, omp
      pair build: half/bin/newton/omp
      stencil: half/bin/3d
      bin: standard
Per MPI rank memory allocation (min/avg/max) = 10.54 | 10.55 | 10.56 Mbytes
Step Temp PotEng TotEng E_pair E_mol Press Lx Ly Lz Volume Pxx Pyy Pzz Pxy Pxz Pyz Enthalpy 
 7750000    293.44721    -9003.172   -7884.4174    -9003.172            0    11055.229    24.999158    24.792789    23.014601    14264.423     11095.46    11541.259    10528.967    421.11055   -804.93097    428.19814   -5584.5763 
 7751000    277.11286   -8986.9394   -7930.4588   -8986.9394            0    12442.571      25.1182     24.84294    22.772281    14210.129     12311.22    11790.166    13226.326   -161.40644   -307.83525    1106.0849   -5351.8584 
 7752000    291.88743   -9028.5033   -7915.6953   -9028.5033            0    11668.222    24.886339    24.783218     23.06401    14225.041    10736.543    13115.663    11152.459    309.34604    -1768.762   -418.07237   -5495.0337 
 7753000    290.49334   -9020.8006   -7913.3075   -9020.8006            0    11802.917    25.014766    24.881465    22.850475    14222.228    10722.195    12246.662    12439.895   -450.62198    114.85997   -86.314662   -5465.1864 
 7754000    281.23379   -9028.3158   -7956.1244   -9028.3158            0    11309.793    24.848628    24.884108     23.04962    14252.408    12714.933    10543.349    10671.099    359.92345     274.1365   -67.566427   -5605.3074 
 7755000    289.10263   -9006.3411     -7904.15   -9006.3411            0     10602.83    24.929214    24.983501    22.969871    14306.073    11287.919    10036.815    10483.756    241.18682   -1312.9138    675.02592   -5691.9818 
 7756000    284.04588   -8970.8268   -7887.9144   -8970.8268            0    9541.6911    24.910575    25.044353    23.023017    14363.351    9373.9933     9624.544     9626.536   -118.49171    411.56228    1188.3457   -5889.1711 
 7757000    287.36012   -9051.0504   -7955.5026   -9051.0504            0    9633.7775    24.932623    24.993639    22.942458    14296.753    10188.591    8843.5294    9869.2123   -341.63899   -1512.6328   -15.518002   -5946.8264 
 7758000    273.30366   -8993.0261   -7951.0679   -8993.0261            0    11454.776    24.932354    25.001102    22.875685    14259.246    10595.629    10875.711    12892.989    387.23558    150.97216    62.401076    -5568.973 
 7759000    295.04094   -8987.9413   -7863.1107   -8987.9413            0    11246.075    24.862706    24.879972    23.055862    14261.974    12038.672    11381.725    10317.827    388.67412    426.97826   -934.40348   -5523.9692 
 7760000    294.39693   -9017.2496   -7894.8743   -9017.2496            0    11330.537    24.925917    25.031511    22.827931    14243.108    10533.962    11661.266    11796.384    52.763868   -825.53082   -55.568546   -5541.2824 
 7761000    281.72113   -9010.6911   -7936.6417   -9010.6911            0     10118.93    24.813068    24.978297    23.093817    14313.275    9582.4545    10092.079    10682.258    614.92115    32.157338   -290.42935   -5824.3714 
 7762000    284.90559   -8953.8109   -7867.6209   -8953.8109            0    11304.695    24.975035    25.055163    22.812109    14274.758    10451.338    10484.638    12978.109    450.71563   -1167.5139   -548.52173   -5514.1789 
 7763000    290.33231   -9000.3801   -7893.5009   -9000.3801            0    10943.452     24.77515    24.867933    23.158511    14268.116    11339.608    10887.542    10603.205    445.26352    289.28365    954.25038   -5616.3236 
 7764000    275.56214   -9005.4024   -7954.8338   -9005.4024            0    12915.138       24.978    24.932089    22.762329    14175.326    11784.896    12469.879    14490.639   -1119.1282    1043.1503    638.12594    -5284.854 
 7765000    272.04149   -8952.5496   -7915.4034   -8952.5496            0    12837.937    24.898609     24.83568    22.997656     14221.15    11934.878    13466.638    13112.296     721.1967    239.86429     60.95912   -5252.8038 
 7766000    291.94832   -9011.6363   -7898.5962   -9011.6363            0    11614.504    24.948891    24.832181     22.92884    14205.227    9798.8629    12668.115    12376.533    539.95939    598.57423     1203.545   -5492.4349 
 7767000     283.7953   -8988.0684   -7906.1112   -8988.0684            0    11874.925    24.986101    24.897775    22.876017    14231.132    11373.391    12033.019    12218.365   -583.09108    124.83732    471.05481   -5441.5126 
 7768000    287.47989   -9048.0003   -7951.9959   -9048.0003            0     11787.12    24.825291    24.884011    22.988114    14200.973     13232.29    11983.359    10145.713    916.04396   -1499.0567   -314.85761   -5510.8052 
 7769000    287.69071   -9017.4674   -7920.6592   -9017.4674            0    11930.649     24.91108    25.087738    22.755356    14221.248    11433.752    11604.485    12753.711    253.55554   -368.56943    1397.6138   -5446.2149 
 7770000    283.42133   -9030.5758   -7950.0445   -9030.5758            0    11414.483    24.842237    24.900791    22.976416    14213.012    11410.189    11020.423    11812.836   -29.634848   -688.74794    440.79992   -5584.0254 
 7771000    288.52573   -9031.6253   -7931.6337   -9031.6253            0    11818.756    24.814333    24.836668     23.03068    14193.931    12065.431    12525.678    10865.157   -1128.7136   -955.28422   -218.86752   -5485.1048 
 7772000     293.7554   -8991.5976    -7871.668   -8991.5976            0    11820.445    25.012495    24.967054    22.766966    14217.704    11494.114    11555.338    12411.882   -362.92903   -481.92942   -404.32973   -5420.6915 
 7773000    278.91124   -9022.8587   -7959.5219   -9022.8587            0    12252.675     24.85643    24.819603    23.006575    14193.372    12214.646    12519.466    12023.914   -1326.6533   -881.64708    112.10889   -5423.2699 
 7774000    299.87566   -8992.4191   -7849.1563   -8992.4191            0    11120.459    24.945499    25.003615    22.863966    14260.888    10461.837     11704.02    11195.518   -698.70168   -1512.7447   -21.914339   -5536.3185 
 7775000    282.48487   -8990.1294   -7913.1682   -8990.1294            0    10837.051    24.944635    25.036876    22.881953    14290.597    9723.7883    10911.952    11875.414    959.13855   -1337.1955   -783.58141   -5654.5783 
 7776000     294.2532    -9002.149   -7880.3217    -9002.149            0    11025.719    24.826665    24.839105    23.139376    14269.408    10787.115    11795.599    10494.442   -289.11497   -242.81532    -31.85565    -5585.818 
 7777000    290.53291   -9014.1198   -7906.4758   -9014.1198            0    11106.446    24.921269    24.995103    22.876242    14249.833    10574.863     11168.14    11576.335    1067.5644   -1886.5829    52.831935   -5598.3431 
 7778000    286.61319   -9029.0136   -7936.3135   -9029.0136            0    10577.529    24.791801    24.929275    23.079344    14263.995    10852.998    11508.355    9371.2347    866.65355    663.13219    1285.4658   -5735.9151 
 7779000    288.26324   -9030.5716   -7931.5806   -9030.5716            0    10615.939    24.838196    24.986027    22.963336    14251.226    11072.335    10033.855    10741.627   -454.87718   -202.22913    1044.7407   -5725.1689 
 7780000    290.58242    -8984.582   -7876.7493    -8984.582            0    10049.906    24.907254    24.988302    23.068272    14357.461     10824.25    9588.5419    9736.9263   -115.92698   -369.77726   -122.55894   -5772.4111 
 7781000    292.09811   -8980.9468   -7867.3356   -8980.9468            0    10553.049    24.857381    24.933035     23.08077    14304.767    10263.695    11082.448    10313.006    194.41378    947.53431    89.727296   -5665.7546 
 7782000     287.1873   -8976.3058   -7881.4168   -8976.3058            0    11289.927    24.920976    25.124944    22.775249    14260.451    11521.879    11223.623    11124.279   -611.91539    -216.1189    110.83073   -5533.4049 
 7783000    289.96575   -9008.4274   -7902.9457   -9008.4274            0    11387.751    24.865063    24.954294    23.012854    14279.248    11386.105    11201.965    11575.182   -329.99202   -733.76641    15.793639   -5531.4673 
 7784000     280.6698   -9049.5756   -7979.5344   -9049.5756            0    10306.641    24.937006    24.963854    22.956725    14291.107    10884.144    9961.9909    10073.789    473.01955   -878.70948   -882.47334   -5831.4125 
 7785000    285.42086   -9068.6222   -7980.4678   -9068.6222            0    10969.908    24.975466    24.878187    22.895287    14225.856    10258.187    11831.177    10820.361    965.72538    -340.2943    820.72035   -5704.5462 
 7786000    279.50004    -9007.767   -7942.1854    -9007.767            0    11359.598    24.862509    24.734723    23.164255    14245.259    10955.272    12832.783     10290.74     525.9675   -1042.3984    966.42088   -5582.2006 
 7787000    287.45004   -9003.1872   -7907.2965   -9003.1872            0    12567.547    24.948399    24.876197    22.885495    14203.226    11166.486    12459.697    14076.458   -101.60555    56.473114   -284.11011   -5304.0614 
 7788000    295.27595   -8999.5172   -7873.7906   -8999.5172            0    14058.654    24.886592    24.777869    22.968656    14163.317    10743.341      16374.7    15057.919   -309.19905    575.25322    922.54455   -4969.8709 
 7789000    280.28626   -9021.6364   -7953.0573   -9021.6364            0    11303.447    25.044144    24.792998    22.947177    14248.348    11392.312    11074.807    11443.222    1263.9142   -425.27934    1640.3938   -5604.2289 
 7790000    278.68292   -8985.2345   -7922.7681   -8985.2345            0    13005.353    24.873985    24.891809    22.880268    14166.512    13015.223    12427.981    13572.855   -82.945114    100.00755    195.38715   -5235.8096 
 7791000    281.03675   -9046.4523   -7975.0121   -9046.4523            0    12154.769    24.725068    24.922033    23.015135    14181.902    13177.294    11840.693     11446.32    306.32231    1646.7199    649.21485   -5461.0595 
 7792000    286.11629   -9023.7418    -7932.936   -9023.7418            0    10966.975    24.867376    25.070035    22.886766    14268.204    12516.162    9195.3116    11189.453    177.43029     628.8591     -623.338   -5650.8497 
 7793000    291.05993   -9003.6463   -7893.9931   -9003.6463            0    11354.853    24.804851    24.984591    23.007514    14258.655    11377.605    11439.625    11247.328   -131.83808   -728.76989   -529.16704   -5532.7757 
 7794000    285.83032   -9006.9414   -7917.2258   -9006.9414            0    11055.874    24.868565    25.073987    22.855734    14251.786    12597.622    9405.2595    11164.742    256.06612    773.77808   -396.70775    -5619.288 
 7795000    276.83397   -9044.7874   -7989.3701   -9044.7874            0    11573.274    24.826778    24.890754    22.989841    14206.739    11465.463    12396.779    10857.578    56.028773   -1321.2543    118.56904   -5591.4953 
 7796000    295.21277   -8989.7468   -7864.2611   -8989.7468            0    12166.897    24.960216    24.799729    22.993315    14233.013    11517.846    13933.848    11048.996    1001.1894   -49.060932    -661.4413   -5338.7309 
 7797000    289.42125   -9033.4027   -7929.9969   -9033.4027            0    13314.889    25.007753    24.826592    22.785019    14146.245      11261.2    14374.716    14308.751   -12.622548    536.83125   -640.02606   -5183.0225 
 7798000    285.40936   -9025.3188   -7937.2082   -9025.3188            0    11529.124    24.935831    24.850496    22.955415    14224.731    10036.708    13167.402     11383.26   -305.86102   -519.86505   -1405.5261   -5545.4557 
 7799000    296.04003   -9011.3151   -7882.6755   -9011.3151            0    10188.989    24.826187    25.052207    22.931895     14262.51    11574.748    8508.0358    10484.183   -48.614044   -8.8272337   -317.96327   -5763.3243 
 7800000    296.25638   -8999.3331   -7869.8687   -8999.3331            0    13386.021    24.709379    25.003644    22.911582    14155.337    14530.868    12283.091    13344.103    294.80725    341.61828   -117.81664   -5106.4442 
 7801000    281.01501   -8974.2171   -7902.8597   -8974.2171            0    12366.414    24.816941    25.025115    22.914131    14230.748    11061.666    12858.163    13179.413   -276.93316   -1121.7584   -60.272742   -5336.3235 
 7802000    282.97488   -9005.2259   -7926.3966   -9005.2259            0    11717.125    24.756614    25.038521    22.957356    14230.553    12335.224    12411.932    10404.218   -932.43942    134.98969     372.2729   -5494.6478 
 7803000    287.19592   -9018.9791   -7924.0573   -9018.9791            0    11601.403    24.793681    24.980558    22.982124    14234.207    12257.385    11804.442    10742.383   -33.380839   -116.30958    532.34112   -5515.7068 
 7804000    294.42914   -9010.4782   -7887.9801   -9010.4782            0    11993.779    24.899461    24.932995     22.88399    14206.796    12523.091    10541.812    12916.433    353.88713   -750.97425   -677.99239   -5402.9705 
 7805000     293.3526   -8999.8943   -7881.5004   -8999.8943            0     11909.04    24.900449    24.778299    23.058955    14227.163    12158.998    12585.841    10982.282    307.07263    300.06553    22.685865   -5410.5106 
 7806000    283.14014   -8952.6849   -7873.2255   -8952.6849            0    11731.579    25.005285    24.915975    22.895682    14264.721    11351.358    11795.614    12047.764     367.5608    440.71929    67.698072    -5432.631 
 7807000     278.5862   -8981.1815   -7919.0838   -8981.1815            0    10744.158    24.922327    24.898281    23.013287    14280.276    10824.955    10853.329     10554.19   -89.195171    -736.2654    669.60102   -5681.4713 
 7808000    279.47664   -9005.8876   -7940.3952   -9005.8876            0    11363.919    24.955125    24.904912    22.895365    14229.588    11036.788    11417.086    11637.884    569.14781    758.84095    403.17416   -5582.1098 
 7809000    287.08368   -9013.0866   -7918.5927   -9013.0866            0    12976.765    24.987885    24.844576     22.81756    14165.447    12640.511    12838.227    13451.556    119.38495    943.94959    197.94225    -5237.742 
 7810000    281.25699   -9024.6742   -7952.3943   -9024.6742            0    13165.974    24.931898    24.765779    22.921083    14152.803     11307.53     13903.31    14287.083   -748.41046    650.96493   -102.17042    -5234.883 
 7811000    288.15629    -9029.691   -7931.1078    -9029.691            0    12060.246    24.791986    24.906233    23.051152    14233.509    12829.096    12148.851     11202.79   -796.06456    1391.5082   -383.77117   -5427.6283 
 7812000    286.84593   -9009.4844   -7915.8969   -9009.4844            0    11197.736    24.868249     24.99218    22.927869     14249.94    11458.992    10272.868    11861.348    405.45054     301.1155    431.22551    -5588.775 
 7813000    287.82234   -8956.1176   -7858.8076   -8956.1176            0    12384.192    24.888617    24.980842    22.900212    14237.946    13201.188    12446.666    11504.723   -755.54299   -208.30666   -160.59238   -5287.2815 
 7814000    301.72872   -9047.5237   -7897.1962   -9047.5237            0    12278.963     24.80788    24.864269    22.996632    14185.008    13574.767    12436.783    10825.341    209.41172   -161.56592     -2087.41   -5357.0005 
 7815000    281.32041   -9037.3113   -7964.7896   -9037.3113            0     10868.45    24.950145    25.005055    22.813309    14232.761    10009.149    10810.061    11786.139    360.71683    -42.48032   -454.75546   -5708.8231 
 7816000    295.70139   -8967.0486      -7839.7   -8967.0486            0    11843.475    24.862825    24.895679      23.0146    14245.506    13134.717    11169.483    11226.224   -382.21452   -141.81929    448.38823   -5379.1459 
 7817000    269.62541   -8979.6575   -7951.7225   -8979.6575            0    11594.502    25.008989    24.927672    22.809992    14220.111     10386.86    11409.672    12986.973    5.8865132     174.5598    1316.6646   -5547.1882 
 7818000    280.54025    -9023.293   -7953.7456    -9023.293            0    10607.201    24.991681    24.897197    22.914434    14257.883    9242.5597    11570.025    11009.018    76.050718    69.709261    526.49457   -5748.1203 
 7819000    282.28462   -9030.0436   -7953.8459   -9030.0436            0    12145.088    24.819282    24.829531    23.018096    14184.928    11968.585     11474.93    12991.749   -454.49566    203.93802    110.44151   -5441.3596 
 7820000    280.93042   -9011.6993   -7940.6645   -9011.6993            0    12634.652    24.889675    25.055496    22.744416    14183.945    13066.343    11224.392    13613.221    610.14346    1092.1544   -297.65935   -5327.0821 
 7821000    283.87159   -9006.2755   -7924.0276   -9006.2755            0    10880.333    24.887551    25.020758    22.947685    14289.647    10292.382    9939.3466    12409.269   -928.46793    438.78299   -137.17989   -5656.5679 
 7822000    294.27322   -8993.9773   -7872.0736   -8993.9773            0    11585.637    24.779611    25.140264    22.907755    14270.751    13579.805     10389.22    10787.887   -644.74859   -880.88678    77.974465   -5460.8212 
 7823000    270.18631   -9029.3534   -7999.2799   -9029.3534            0    12114.246    24.735475    24.967839    22.990363     14198.65    12498.144    11299.581    12545.011   -604.86563    -1290.938   -66.416767   -5490.7498 
 7824000    290.66879   -8996.8187   -7888.6567   -8996.8187            0    12710.573    24.713161    25.006724    22.948646    14182.154    13433.963    11126.963    13570.792    659.46092    1653.5991    121.92918   -5259.7015 
 7825000    290.67469   -8983.9472   -7875.7627   -8983.9472            0    12354.289    24.859458     25.12285    22.752035    14209.565    14077.811    10022.486     12962.57    170.78164   -348.22695    542.27479   -5315.5595 
 7826000    291.19664   -9023.2857   -7913.1113   -9023.2857            0    13004.394    24.765935    24.909352    22.947338    14156.291    13198.832    12527.796    13286.553    -7.473533    1036.5087   -420.75857   -5228.2894 
 7827000    285.06092   -9030.3014   -7943.5192   -9030.3014            0    13530.617    24.738682    24.888204    22.922884    14113.651    13482.353    13070.912    14038.587    456.98431    -508.1119    599.18873     -5158.47 
 7828000    292.70734   -8993.4097   -7877.4758   -8993.4097            0    11304.039    24.970636    24.876529    22.942454    14251.456    9989.6151    12152.842    11769.661   -117.08673    166.07641    232.99885   -5528.0118 
 7829000    281.76588   -9009.9937   -7935.7736   -9009.9937            0    12130.829    24.922927     24.75506      23.0839     14242.04     12372.96    13098.969    10920.558     85.57829   -463.80456    1091.6256   -5416.1331 
 7830000    275.53625   -8970.5166   -7920.0467   -8970.5166            0    11280.744    25.026339     24.95752     22.87034    14284.708    10166.404    11673.073    12002.756    437.93949   -830.50465    -1388.451   -5569.9539 
 7831000    289.22183   -8976.6618   -7874.0163   -8976.6618            0    11853.873    24.882262    24.870215    22.957907    14206.978    11547.437     12796.25    11217.932   -632.78705   -809.31534   -675.37662   -5417.9625 
 7832000    281.81075   -9002.8457   -7928.4546   -9002.8457            0    11010.707    24.848295    25.001335     22.95398    14259.943    11495.885    10586.041    10950.196    44.576415   -334.79492    1354.0509   -5638.5947 
 7833000    275.25444   -9025.5382   -7976.1428   -9025.5382            0    11419.035    24.759185    24.988336    22.971937    14212.527    12925.316    9799.4245    11532.366   -166.11054   -95.847608     35.28383   -5609.2608 
 7834000    297.42759   -9001.8101   -7867.8805   -9001.8101            0    10894.655    24.778708    25.071458    22.985185    14279.278    12079.987    10634.538    9969.4402   -322.11633   -472.60762   -916.87608   -5599.0835 
 7835000    284.00374   -9028.2072   -7945.4555   -9028.2072            0    11237.513    24.868877     24.94315    22.946877    14234.134    10021.334    11352.384     12338.82   -591.52062   -1668.2325   -797.41568   -5612.6575 
 7836000    291.16007   -9031.4977   -7921.4628   -9031.4977            0    10961.033    24.997453    24.939552    22.870148    14257.828     10151.01    10714.454    12017.633   -213.78909   -400.96301    600.69625   -5642.2716 
 7837000    286.64729   -9010.8059   -7917.9757   -9010.8059            0     12397.82    24.895865    24.751093     23.06482    14212.539    11972.679    13118.446    12102.333   -1366.5157    -1389.142    416.22043   -5348.2138 
 7838000    302.49966   -9020.3415   -7867.0749   -9020.3415            0    11566.104    24.984311    24.865311    22.921147    14239.594    11896.787    10540.461    12261.065    325.00217   -485.55319    455.78263   -5465.1435 
 7839000    283.78425   -9070.0812   -7988.1662   -9070.0812            0    11503.821    24.889849    24.925076    22.854274    14178.366    12078.561    10092.928    12339.973   -563.67191   -1060.9498    905.30965   -5609.4416 
 7840000    286.23705    -8997.852   -7906.5858    -8997.852            0    12151.913    24.885316    24.755691    23.092683    14226.321    11710.593    13953.965    10791.181   -1114.4487    10.038565    1112.8873    -5385.352 
 7841000    278.81573   -9014.0639   -7951.0911   -9014.0639            0    12871.336    24.956936    24.925856    22.803452    14185.412    13226.719    12759.895    12627.393    860.55169    599.18018    1523.6218   -5288.2733 
 7842000    292.11853   -9019.2142   -7905.5252   -9019.2142            0     12912.38    24.955262    24.732173    22.960269    14171.029    12254.778    14362.501     12119.86   -295.71089    104.02105   -359.18049   -5236.9247 
 7843000     285.3518   -8984.6034   -7896.7122   -8984.6034            0    12251.232    24.873278    24.918689    22.940996    14219.047    11772.416    12981.245    12000.036    -217.3914   -1188.8493    509.34361   -5356.1715 
 7844000    272.64714   -8967.5274   -7928.0722   -8967.5274            0    10283.235    24.798233    24.995768    23.116357    14328.694      11272.5    9251.3189    10325.886   -222.37788     160.4687   -237.09768   -5779.1918 
 7845000    270.22314   -9015.6534   -7985.4396   -9015.6534            0    12566.838    24.908345    24.968357    22.810861    14186.541    11562.454    13350.077    12787.982   -359.42573   -396.83433    27.150698   -5385.4093 
 7846000    283.23239   -8999.9427   -7920.1316   -8999.9427            0    10641.222    24.828222    24.960287    23.050075    14284.582    11844.149    10441.848    9637.6694    606.83242   -708.43396    1220.2591   -5703.2886 
 7847000    285.91852   -8979.7472   -7889.6954   -8979.7472            0    11841.712    24.869927    24.985592    22.880747    14217.864     11548.27    12612.818    11364.049    -663.1329    379.12135   -781.37975   -5434.2813 
 7848000    284.80434   -9065.7592   -7979.9552   -9065.7592            0    11809.797    24.856484    24.926826    22.879043    14175.701    12310.552    10909.602    12209.237   -56.722442    872.34652    189.32818   -5538.4207 
 7849000    291.80667   -9018.6584   -7906.1583   -9018.6584            0    10060.046    24.941935    24.932521    22.988809    14295.943    9768.7592    10739.785    9671.5942   -1041.0237      660.125    27.380265   -5808.7225 
 7850000    283.15181   -9054.6154   -7975.1116   -9054.6154            0    9126.4197    24.974951     24.94157    22.978403     14313.58    9793.7559    8124.5656    9460.9376   -244.04262    -572.3262    597.95309   -6069.9816 
 7851000     276.5058   -8989.5927   -7935.4265   -8989.5927            0      12215.1    24.924545    24.812419    22.963929    14201.772    12103.038    12881.172     11661.09   -945.05045    1448.1013    112.59366    -5405.456 
 7852000     282.9589   -8972.3822   -7893.6138   -8972.3822            0    10767.887    24.892547     24.91155    23.042318    14288.816    10742.801    11733.514     9827.345    333.37226    228.48054      1488.41   -5649.7183 
 7853000    278.32079   -8964.0526   -7902.9668   -8964.0526            0     11907.76    24.834514    25.012817    22.920809    14237.975    12935.454    10175.127    12612.699   -446.38042    825.87379   -346.39919    -5430.365 
 7854000     290.6262   -9042.9519   -7934.9523   -9042.9519            0    10619.336    24.825115     24.99579    22.951195    14241.753    11447.051    9921.8213    10489.135    334.02567    -587.1547   -539.94258   -5729.3019 
 7855000    289.31975   -9006.3637   -7903.3448   -9006.3637            0    10587.558    24.869825    25.025104    22.927611    14269.456    10816.056    9852.0681     11094.55    13.426507   -1085.6552   -385.17361    -5700.017 
 7856000    286.95626   -9038.3567   -7944.3486   -9038.3567            0    12464.955    24.766092    24.851254    23.037831    14179.058    12791.986    12890.419    11712.458   -1164.9701   -513.15486    676.39212   -5366.7579 
 7857000    286.54008   -9014.1861   -7921.7647   -9014.1861            0     12340.57    24.962752    24.877748    22.845896    14187.691     11724.28    13296.684    12000.745    202.00516    1328.8278    116.10069   -5368.3414 
 7858000     290.5422   -9004.3914    -7896.712   -9004.3914            0    13343.762    24.986217    24.776565    22.831616    14134.429    11367.884    14176.537    14486.866    -759.2343    245.12109   -344.32493   -5146.0803 
 7859000    285.72759   -9012.3087   -7922.9848   -9012.3087            0    12457.049     24.97706    24.815644    22.901491    14194.844    12374.126    12920.797    12076.223   -664.10237    159.20708   -450.15915    -5344.161 
 7860000    290.79667   -9055.9209   -7947.2714   -9055.9209            0    11952.065    24.955619    24.719103     23.04119    14213.662    11319.104    13728.052    10809.038   -906.97562    673.60652    -824.7339   -5469.7079 
 7861000    282.90401   -9002.3867   -7923.8276   -9002.3867            0    10642.614    24.985516    24.934875    22.938587    14290.986    10171.281     10744.28    11012.282   -596.81929    229.67109     1303.243   -5705.7006 
 7862000    290.32657    -9015.236   -7908.3787    -9015.236            0    10234.615    25.073573    24.887622    22.956971    14325.646    9097.0137    11192.213    10414.618   -193.99507   -589.51551   -1300.2933   -5770.1132 
 7863000    283.82005   -9009.7417   -7927.6902   -9009.7417            0    11455.385    24.908791    24.857357    23.005938    14244.511    11263.476     12646.87    10455.809    988.81614    676.55355    -503.7748   -5547.9304 
 7864000    293.40495   -8972.5454    -7853.952   -8972.5454            0     12950.72    24.905381    24.933003    22.878487    14206.761    12623.118    12301.265    13927.778    277.22783    170.45255    1344.3554   -5170.6788 
 7865000    294.72048   -8983.2131   -7859.6043   -8983.2131            0    12009.976    24.738778     25.00768    22.955608    14201.704    12516.267    12097.203    11416.457    398.31398    1770.2492     968.0675   -5372.1308 
 7866000    287.74978   -9026.0501   -7929.0167   -9026.0501            0    12776.292    24.777555     25.00368    22.857068     14160.64    14773.613    11243.603     12311.66    24.325392   -213.83854    315.45193   -5290.4771 
 7867000    276.12076   -9034.3913   -7981.6931   -9034.3913            0    11919.008    24.709397    24.993543    22.966926    14183.808    11935.862     11826.33    11994.832    494.32438   -475.37385    64.576768   -5516.1713 
 7868000    280.35608   -9051.9421   -7983.0969   -9051.9421            0    11667.597    24.805939    25.066291    22.820361    14189.538    12299.698    10621.271    12081.821    221.98136    301.64967   -162.00505    -5568.606 
 7869000    290.83097   -9023.6689   -7914.8886   -9023.6689            0    12023.081    24.824532    24.873433    22.993303    14197.706    12161.223    13016.984    10891.038   -480.61272   -505.86055   -549.10987   -5425.4017 
 7870000    283.62806   -9019.5385    -7938.219   -9019.5385            0    10490.402    24.927477    24.862996    23.002917    14256.558    10767.245    10716.048     9987.913    295.34558    190.20134    464.34952   -5757.0832 
 7871000    280.08674   -9005.0111   -7937.1927   -9005.0111            0    11270.624    25.022092    24.794776    22.933933    14228.606      10590.5    12096.495    11124.877    642.18376    -486.1894    1019.2124   -5598.4298 
 7872000    291.07526   -9009.4966    -7899.785   -9009.4966            0    11893.836    24.932777    24.867457    22.979574    14247.675    12426.466    11965.861     11289.18     297.4307   -1265.5711    340.63068   -5428.3919 
 7873000    284.25156   -9044.4143   -7960.7178   -9044.4143            0    10838.545    25.039508    24.882232    22.876333    14252.844    9531.3662    11837.618    11146.651   -29.214089    554.65761    1014.7725    -5707.784 
 7874000      292.971   -8991.0932   -7874.1542   -8991.0932            0    13141.937    24.947173    24.774822    22.939113    14177.788    12409.327    13146.392    13870.093    78.337558   -297.40522    680.91639   -5156.8155 
 7875000    295.26288   -8969.3924   -7843.7157   -8969.3924            0    12856.329    24.816766    24.964956    22.883519    14177.472    11556.588    13495.297    13517.103    292.32429    634.07561    826.76211    -5185.491 
 7876000    286.89152   -8998.2783   -7904.5169   -8998.2783            0    13800.121    24.718149    24.914302    22.912201    14110.146    15111.013    13259.904    13029.446   -601.98977   -196.09687    453.72148   -5064.7004 
 7877000    286.17774   -8987.7529   -7896.7128   -8987.7529            0    12445.992    24.863401    24.940663    22.906301    14204.419    11028.627    14431.082    11878.269   -786.90515    468.68817   -345.57542   -5318.4398 
 7878000    288.44648   -9032.7992   -7933.1096   -9032.7992            0    12898.276    24.845384    24.815641    22.972944    14164.063    12730.146    13251.057    12713.625    -440.4015 -0.042143232    1886.3643   -5268.7342 
 7879000    291.44829   -9020.3964   -7909.2626   -9020.3964            0    10354.754    24.985564    24.799975    22.998071    14250.556    10483.995    11780.809    8799.4592   -657.94233    482.45547    754.92371   -5757.2366 
 7880000    275.25604   -9014.2653   -7964.8637   -9014.2653            0    11377.603    25.064976     24.80348    22.885715    14228.018    10930.839    12710.146    10491.825    246.94628    773.73325    1146.6223   -5603.9992 
 7881000    282.91459   -9044.6791   -7966.0797   -9044.6791            0    12522.555     24.88336    24.785845    22.971281    14167.655    11985.259    13379.526     12202.88    105.15311   -295.64462   -499.31049   -5378.6604 
 7882000    291.84641   -9050.9244   -7938.2728   -9050.9244            0    10857.011    25.052162     24.95887    22.802289    14257.671    8779.2733    11374.973    12416.787    634.41041   -1015.4827    589.66138   -5680.7364 
 7883000    285.43993   -9024.2296   -7936.0025   -9024.2296            0    10858.009    24.876523    24.887036    23.010979    14246.164    9999.7302    12285.323    10288.973    1078.1925   -635.37194    1339.8983   -5680.0807 
 7884000    277.24829     -9036.67   -7979.6731     -9036.67            0    11235.762    24.852937    24.986274     22.93359    14241.353    10817.145    11295.231    11594.909    -160.0446   -396.47099    1176.4351   -5646.0556 
 7885000    285.50642   -9071.5979   -7983.1173   -9071.5979            0    13370.181     24.80922    24.914479    22.832121    14112.735    13730.399    12329.921    14050.224   -35.674442    455.68562    1107.2848   -5231.2698 
 7886000    283.20552   -8992.0862   -7912.3777   -8992.0862            0     12429.13    24.746249    25.012188    22.941198    14199.634    13887.864    11899.754    11499.771     -294.592    657.86345   -527.31613   -5338.4652 
 7887000    293.19566   -9065.9145    -7948.119   -9065.9145            0    11242.451    24.804872    25.005941    22.890052    14197.994    11285.009    10341.283    12101.062    1729.5338    861.19522    32.960054   -5620.2213 
 7888000    287.83472   -9011.3644   -7914.0071   -9011.3644            0     12042.85    24.979662    24.832088    22.916915    14215.298    11037.738    12847.094    12243.717   -534.70424    531.57132    1282.6403   -5417.3372 
 7889000    278.29475   -9025.2557   -7964.2692   -9025.2557            0    12286.468    24.938323    24.767923    22.948694    14174.731    12161.654    11751.595    12946.154   -185.14644    1455.4468    535.82476   -5424.3626 
 7890000    293.05002   -9034.1023    -7916.862   -9034.1023            0     10773.86    25.035042    24.922042    22.828585     14243.31    9721.1072    10294.547    12305.924   -554.70729   -725.58649   -154.76065    -5678.872 
 7891000    276.52626   -9008.1339   -7953.8897   -9008.1339            0    11406.247    24.873585    24.923596    22.945712    14224.946    11393.586     11703.64    11121.515   -899.66098   -238.64427    445.34456   -5587.5925 
 7892000    284.19315   -9051.0825   -7967.6086   -9051.0825            0    11213.989    24.915989    24.996101    22.826588    14216.458      11283.6    11245.725    11112.643   -654.18837   -96.968008     1950.426   -5642.5847 
 7893000    288.06099   -9021.6161   -7923.3963   -9021.6161            0     10843.95    24.944224    24.966663    22.908275    14266.678    10246.488    10869.965    11415.395    -728.9182    573.53148   -211.97669   -5667.1513 
 7894000    280.86059   -9009.8622   -7939.0936   -9009.8622            0     11129.74     24.81441      25.0131    22.981743    14264.431    12749.796    10196.125    10443.299    13.404397    -469.9853    1381.3709   -5623.7505 
 7895000    296.42154   -8986.2028   -7856.1087   -8986.2028            0     11997.49    24.795832    25.059108    22.901696    14230.231     14251.27    10177.592    11563.609   -583.07463     150.4731    221.00499   -5366.2297 
 7896000    291.98555   -9058.1706   -7944.9886   -9058.1706            0    11460.995    24.781924    24.976116    22.984702    14226.524     11966.61    11522.167    10894.208   -382.31444   -252.09792    979.51109   -5567.0697 
 7897000    274.02426   -8980.7889   -7936.0834   -8980.7889            0    12892.239    24.748923    24.988296    22.913802     14170.66    13110.237     12149.19    13417.291   -325.23231    -445.2668   -654.44729   -5271.7146 
 7898000    273.82623    -9010.509   -7966.5586    -9010.509            0    12683.541    24.872047    24.916977    22.923712    14206.655    12673.395    12815.731    12561.498   -174.22765   -435.08393   -103.10472   -5338.6621 
 7899000    284.05695   -8990.0207    -7907.066   -8990.0207            0    12896.585    24.949971    24.826977    22.879525    14172.318    12139.214    12661.162     13889.38    461.99553   -892.36059    605.26782   -5241.4873 
 7900000    279.18702   -9001.8076   -7937.4194   -9001.8076            0     12782.46    24.931001    24.790291    22.911191    14160.188    12068.582    14256.929    12021.868    512.59032   -926.75991   -265.19586   -5297.6904 
 7901000    283.00802   -8969.1851   -7890.2295   -8969.1851            0    13478.876    24.959542     24.74071    22.941623    14166.837    12800.998    14611.733    13023.896    372.28382    288.62308    355.04519   -5105.3753 
 7902000    283.04585   -9035.9145   -7956.8146   -9035.9145            0    11757.449    25.006588    24.845645    22.842107    14191.911    10848.406    12771.382    11652.559   -367.02326   -130.85483   -161.34567   -5523.3229 
 7903000    301.49767   -9055.6882   -7906.2416   -9055.6882            0    10340.487    24.900761    24.825104    23.107061    14283.953    11038.398    10786.849    9196.2143   -644.39597   -487.15816   -57.358208   -5752.1444 
 7904000    276.17515   -9021.6876    -7968.782   -9021.6876            0    10246.165    24.929197     25.04633     22.84681    14265.203    10419.239    10021.642    10297.615   -459.82848   -73.770858    433.77936   -5837.1355 
 7905000    287.14255   -9032.6749   -7937.9566   -9032.6749            0    11686.946    24.846261    24.872024    23.031509    14232.938     11052.59    12601.781    11406.467    417.53324    473.59733    315.95888   -5512.0645 
 7906000     274.0409    -9067.267   -8022.4981    -9067.267            0    11823.195    24.871717    24.921643    22.917234    14205.112    11761.647    11117.913    12590.024   -387.01643    1923.6642   -1119.9623   -5573.1225 
 7907000    288.30807   -9038.6066   -7939.4447   -9038.6066            0    10613.474    24.833839    25.023991    23.004099    14295.708    11776.093    8678.4967    11385.832    380.69307   -415.20651    90.698253   -5726.6603 
 7908000    285.44513   -9021.5885   -7933.3414   -9021.5885            0     10828.06    24.945445     24.94769    22.932773    14271.781    10531.931    11392.841    10559.409   -667.88071    53.335287    272.85958   -5679.5967 
 7909000     286.1081   -8988.4655    -7897.691   -8988.4655            0    11493.981    24.979154    24.951309    22.873808    14256.389    9345.5727    12550.174    12586.196    305.21475   -592.36568   -476.60437   -5507.9222 
 7910000    280.92122   -9007.4127   -7936.4129   -9007.4127            0    11321.181    24.882626    24.932143    22.957053    14242.032     11231.04    10775.271    11957.231   -171.25374    56.036702     134.8112   -5584.9423 
 7911000    287.15909   -9067.7743   -7972.9929   -9067.7743            0    12559.709    24.790436    24.987299    22.819548    14135.479    12517.539    11315.017    13846.571    303.18973   -16.837194   -923.05129   -5383.7906 
 7912000    284.29536   -9016.7326   -7932.8691   -9016.7326            0    11198.388    24.841161    24.982958    22.926872    14228.547    11432.934    9998.0621    12164.167    193.23055   -998.00686   -847.87317   -5609.1054 
 7913000    297.42342   -9045.3354   -7911.4216   -9045.3354            0    11468.768    24.776439    25.034628    22.932469    14224.298     12447.37    10452.059    11506.875    77.484974   -212.86829   -662.09389   -5532.2625 
 7914000    284.29821   -9038.9504    -7955.076   -9038.9504            0    11946.446    24.858408    24.917856     22.90108    14185.346    11639.741    12099.323    12100.275     318.5332   -982.52156   -247.67986   -5483.6104 
 7915000    283.48829    -9000.079   -7919.2924    -9000.079            0    11298.733    24.897792     24.76199    23.066221     14220.76    11403.774    11824.935    10667.489   -670.91491   -536.35204   -617.39777   -5575.9894 
 7916000    288.01616   -8993.6676   -7895.6187   -8993.6676            0    11576.379    24.961118    24.886736    22.963842    14265.156    12282.649    10725.878     11720.61   -811.51483   -671.29931   -109.63243   -5487.2378 
 7917000     268.0806   -9022.8079   -8000.7624   -9022.8079            0    11326.713    24.975829    24.889091    22.930203    14254.003    11343.212    11873.706    10763.221   -717.34012     -1257.23     811.6158   -5646.1651 
 7918000    290.34697   -8982.8893   -7875.9542   -8982.8893            0    10530.822    24.976704    24.830436    23.069444    14307.264    9625.2086    11575.107    10392.149    18.265134   -67.843234   -38.356712    -5678.627 
 7919000    275.88195     -8984.11   -7932.3221     -8984.11            0    10461.596    25.006251    24.906926    22.947671    14292.472    8788.6876    11769.537    10826.565    585.25254   -78.437306    172.57928   -5751.6961 
 7920000    289.76311   -9030.4062   -7925.6971   -9030.4062            0    11562.123    24.844675    24.920605    22.942867    14204.946    11576.564    11833.285     11276.52   -882.26618    -167.1391   -519.44271   -5530.4349 
 7921000    282.16647   -9005.9873     -7930.24   -9005.9873            0    13089.095    24.787308    24.896518    22.956134    14166.636    15158.385    11697.895    12411.004    173.62217   -235.38543    382.27171   -5225.9564 
 7922000    281.72746   -9005.7466    -7931.673   -9005.7466            0    12148.745    24.906165    24.939444    22.831885    14181.931    12397.225    11155.503    12893.507   -285.23308    1442.1357    480.67315   -5418.9612 
 7923000    286.70958   -9013.6942   -7920.6266   -9013.6942            0    13139.598    24.729678    24.931732    22.991672      14175.6     12541.13    13828.655     13049.01   -1443.9243   -1352.1208   -982.04335   -5204.1908 
 7924000    283.19109   -9028.1411   -7948.4876   -9028.1411            0    11928.598    24.917457    24.973207      22.8281    14205.215    11699.795    11111.415    12974.583   -231.08632    96.589424   -30.332426   -5477.2581 
 7925000    278.31421    -8995.698   -7934.6373    -8995.698            0    12831.304    24.944488    24.747871    23.014161    14207.171     12958.09    13684.789    11851.032   -28.230246    1066.0365    357.67562   -5276.0295 
 7926000    277.87946   -9010.0199   -7950.6166   -9010.0199            0     12805.74    24.883656    24.853948    22.910881    14169.397    11442.369    13813.384    13161.466   -947.25436   -231.26995   -285.12703   -5304.3602 
 7927000    277.56078   -8971.8514   -7913.6632   -8971.8514            0    10654.498    24.893644     25.02172    22.952742    14296.844    11416.953    9587.4758    10959.064   -503.74758    856.08947    1201.4056   -5692.1492 
 7928000    277.39213   -9002.0763    -7944.531   -9002.0763            0    9859.7446    25.048165    24.913052     22.93157    14309.902    8618.7547     10913.98      10046.5   -762.95839    832.88176    136.58128   -5886.8492 
 7929000    283.14418   -9026.1509   -7946.6762   -9026.1509            0    10682.468    24.851533    24.828253    23.154782    14286.967    11180.794    11345.458    9521.1526   -5.1172527   -40.246819    566.69564   -5720.8689 
 7930000    284.30817   -9052.9596   -7969.0471   -9052.9596            0      10544.4    24.924856    24.986853    22.917921    14273.137    10919.993    8874.8889    11838.319   -267.94283   -1141.8026   -243.14136   -5774.1346 
 7931000    294.80523   -9057.2972   -7933.3652   -9057.2972            0    11538.935    24.910208    25.021285    22.770599    14192.582    12155.328    9686.7948    12774.683    -507.7084   -335.31278    496.86949   -5544.9872 
 7932000     286.6771   -8960.7137   -7867.7698   -8960.7137            0    13243.247     24.73025     24.93533    22.998685    14182.299    12991.992    14388.583    12349.165    11.639206     954.6797    2038.8832   -5128.6124 
 7933000    285.43688   -8996.8829   -7908.6673   -8996.8829            0    13021.029    24.798534    24.972207    22.866013     14160.33    14444.354    12119.859    12498.874    400.62448    1277.8797   -1027.1415   -5219.6438 
 7934000    292.64617   -9014.5984   -7898.8977   -9014.5984            0    11857.506    24.809766    24.933696    22.928251    14183.397    12267.431    11375.279    11929.807    -15.98482    71.420993    20.428023   -5446.1691 
 7935000    304.27864   -9009.0688   -7849.0198   -9009.0688            0    11903.561     24.95491    24.762355    22.980349    14200.531    12275.547    12696.565     10738.57    959.52312   -357.41546    73.765765   -5383.7904 
 7936000    290.77939   -8984.1397    -7875.556   -8984.1397            0    11783.125    25.021014      24.8485    22.899435    14237.372    11635.516    12465.297    11248.562   -284.05203   -1421.7494   -532.81295   -5428.9378 
 7937000    280.91777   -9070.2505   -7999.2639   -9070.2505            0     9528.393    25.055425    24.813457    23.027845    14316.682    8237.8035    11314.915    9032.4602   -43.701191   -56.701928   -461.72593   -6009.7915 
 7938000    289.72221   -8978.2556   -7873.7024   -8978.2556            0    12642.989    24.836514    24.945575    22.901615    14188.951    12274.928    13197.022    12457.018    209.53219    1006.7436     -53.0475   -5257.4722 
 7939000    277.82458   -9038.5973   -7979.4033   -9038.5973            0    12626.686    24.741789    24.979676    22.901869    14154.314    14026.114    11465.091    12388.851   -469.33853    146.06253   -109.26215   -5372.9252 
 7940000    290.60887   -8982.1133   -7874.1797   -8982.1133            0    12269.732     24.91415    24.910849     22.89226    14207.684     12520.82    11756.323    12532.054    432.04719   -966.10498    533.76732   -5331.8361 
 7941000     292.1789   -9011.5182    -7897.599   -9011.5182            0    13227.082    25.052929    24.708894    22.855236    14148.081    12941.252    14569.141    12170.852    207.68298   -231.26415   -394.84701   -5168.3859 
 7942000    295.74289    -9022.703   -7895.1963    -9022.703            0    11864.773    25.003234    24.791972    22.952163    14227.575    11169.038    13372.115    11053.167   -904.25876   -412.08256     1308.336   -5433.3201 
 7943000    284.69172   -9019.7734   -7934.3987   -9019.7734            0    11836.438    24.930365    24.911076    22.906286    14225.771    10549.184    11585.956    13374.175   -1074.5163   -742.54548    458.40443   -5478.7132 
 7944000    277.68964   -8997.9672   -7939.2876   -8997.9672            0    10133.131    24.956394    25.016624     22.91315    14305.247    9802.0389    10504.504    10092.849   -366.57079    338.78303    584.76425   -5825.2394 
 7945000    278.40133   -8989.6749   -7928.2821   -8989.6749            0    11034.671     24.82401    25.007687    22.980595    14266.148    11791.835    9901.6486    11410.529    880.60723    78.036024    764.55346     -5632.44 
 7946000    296.65615   -9024.6891   -7893.7006   -9024.6891            0    11349.236    24.793247    24.993139    22.954908    14224.263    12953.458    10657.828     10436.42   -506.33525   -47.999664   -690.41359   -5539.3438 
 7947000    292.94635    -9047.462   -7930.6169    -9047.462            0    10442.366    24.825781    24.983724    23.003331    14267.597    10958.356     10203.23    10165.511    519.61517     453.4225     803.6959   -5757.7876 
 7948000    287.13432   -8992.0895   -7897.4025   -8992.0895            0    11789.778    24.848605    24.977882    22.935747    14235.427    12480.748    10435.765    12452.821   -14.991821    -731.5114    782.22334   -5449.7373 
 7949000    289.73072   -8994.8253   -7890.2397   -8994.8253            0    11650.544    24.970174    24.938385    22.883446    14249.884    12687.782    11254.959     11008.89    256.85395   -216.56598    170.60433   -5469.0244 
 7950000     286.9662   -9001.7516   -7907.7056   -9001.7516            0    14191.342    24.799906    24.708337    23.024457    14108.568    14229.652    15193.158    13151.215   -19.432115   -660.12359    564.39935   -4987.7094 
 7951000    291.47044   -8976.0158   -7864.7976   -8976.0158            0    13543.129    24.929076    24.724228    22.947768    14143.906    13019.554    14626.823    12983.009   -853.52525    415.59566      11.1942   -5071.1973 
 7952000    287.37773   -9022.0222   -7926.4072   -9022.0222            0    13359.067     24.92876    24.815027    22.846603    14133.088    12697.399    14625.025    12754.777    624.22589    418.74538    693.49567   -5172.8819 
 7953000    281.24901    -9050.705   -7978.4555    -9050.705            0    12121.352    24.861304    24.863676    22.938789    14179.461    12817.449    10849.531    12697.076    131.74078    1177.8118    305.61889   -5471.8461 
 7954000    293.42269   -9033.7379   -7915.0768   -9033.7379            0    10209.064    24.930378    25.042214    22.868487    14277.067     10814.27    10518.743    9294.1788   -920.45008     661.3945     501.4183   -5789.3824 
 7955000    273.79365   -9011.5195   -7967.6933   -9011.5195            0    11861.968    24.823696    24.990493    22.952879    14238.965    12140.943    10906.127    12538.835   -224.19448   -36.546071    723.67219   -5504.4286 
 7956000    268.81925   -9049.3219   -8024.4603   -9049.3219            0    10006.122    24.855957     25.05688    22.922418    14276.373    11311.012    8337.4229     10369.93    579.92427   -625.42783   -243.56146    -5941.123 
 7957000     284.2298   -9003.6404   -7920.0267   -9003.6404            0    12521.113    24.866561    24.901422    22.924271    14195.001    13052.638    12005.346    12505.356     449.4131    818.88878    1355.7269   -5327.9119 
 7958000    285.90413   -9012.8082   -7922.8113   -9012.8082            0    11873.337    24.766536    24.898897    23.042033    14209.087    11275.625    13056.513    11287.874   -660.24369    620.72256   -246.20662   -5462.3594 
 7959000    287.26746   -8973.8414   -7878.6468   -8973.8414            0    12482.684    24.928796    24.934737    22.850788    14203.889    11993.123    12104.667    13350.263    452.56684    344.22747   -138.09816   -5292.8694 
 7960000    288.76045   -9007.5708   -7906.6843   -9007.5708            0    11639.562    24.857278    24.799643    23.101948    14241.233    10727.819    13030.097     11160.77   -105.70578   -581.59533   -1118.9435   -5489.2197 
 7961000     292.2803   -9010.5731   -7896.2673   -9010.5731            0     11946.52    24.986965    24.982143     22.72279      14184.2    11262.024    11928.537    12648.999     285.4004    724.03145    1097.4127   -5424.9862 
 7962000    285.98706   -9029.3195   -7939.0065   -9029.3195            0    11696.623    24.844079    24.817424    23.083769    14232.668    12562.049    12081.066    10446.752   -381.27811    515.28851   -128.84567   -5511.1518 
 7963000    281.74412   -9016.1354   -7941.9984   -9016.1354            0    11448.337    24.814848    24.858692    23.070295     14231.25    11908.771    11725.714    10710.525    1328.8396    314.97387   -96.264126   -5565.9169 
 7964000    275.59758   -8953.9254   -7903.2217   -8953.9254            0    12815.628    24.920764    24.979448    22.786876    14184.989    13785.024    10730.298    13931.563    373.67661    2029.5955   -859.34074   -5252.0078 
 7965000    284.35135   -9024.3425   -7940.2655   -9024.3425            0    12429.623    24.757835    24.956046    22.943893    14176.061    11741.737    13122.444    12424.689   -170.34309   -316.24417    270.59162   -5370.5241 
 7966000    275.94097   -9013.9033   -7961.8904   -9013.9033            0      12356.9    24.851928    24.924334    22.919244    14196.587    11742.347    13057.289    12271.064   -197.86328     649.3197   -715.37628    -5403.485 
 7967000    282.49303   -8980.6883   -7903.6961   -8980.6883            0    11394.051    24.985531    24.894116    22.927026    14260.443     12645.58    10984.015    10552.558    552.62221   -566.92596    6.6135876   -5534.0305 
 7968000     285.6993   -9003.1925   -7913.9765   -9003.1925            0    11629.356     24.85322    24.844016    23.050569    14232.662    11507.969     12283.47    11096.628   -274.99022   -191.53695    -1051.996   -5500.0854 
 7969000    282.52824   -9040.9506   -7963.8241   -9040.9506            0    11137.973    25.050887    24.968452    22.680783    14186.418    10415.395     10915.08    12083.445    1149.5808    40.450437    -476.1588   -5659.4403 
 7970000    280.36495   -9008.7647   -7939.8856   -9008.7647            0    10668.543    24.865915    24.853732    23.069256    14257.049    11477.658    10714.509     9813.462    479.21626   -1130.6341    885.54935   -5721.6348 
 7971000    285.85102   -9021.9708   -7932.1763   -9021.9708            0    11505.367    24.842114    25.066792    22.816545    14208.139     12656.06    9719.2154    12140.827    1275.0414   -724.72778     691.5807   -5548.1362 
 7972000    280.76278   -9012.8814   -7942.4856   -9012.8814            0    13412.714    24.736552    24.965335    22.909289    14147.776    14445.821    12551.236    13241.085   -364.10505   -886.00727    1047.1849   -5175.0296 
 7973000    279.00806   -8986.9306   -7923.2247   -8986.9306            0    11568.781    24.742424    24.910525    23.029103    14193.913    12920.183    11898.931    9887.2273   -372.97116    261.38553    1527.4324   -5528.4446 
 7974000    288.85911   -8941.5204   -7840.2577   -8941.5204            0    13167.511    24.920952    25.005133    22.781637    14196.416    12118.802    13301.383    14082.348   -61.540271    584.79035    -320.0981    -5114.054 
 7975000    276.32966   -8998.2086   -7944.7139   -8998.2086            0    11425.003    24.762357    24.932643    23.078341     14248.36    12182.184    11381.429    10711.395   -520.52616   -923.14196   -724.40408   -5570.6245 
 7976000    286.48886   -9018.2593   -7926.0332   -9018.2593            0    11898.823    24.861096    24.945071    22.933853      14222.7    11669.809    12425.553    11601.106     1010.658   -846.13164    818.94249   -5457.9379 
 7977000    281.67707   -8982.7288   -7908.8474   -8982.7288            0     10354.04    24.932377    25.064194    22.905128    14313.642    10986.611    9117.7221    10957.785   -1103.1812    131.77803    119.65514   -5747.4438 
 7978000    283.39003    -8982.258    -7901.846    -8982.258            0    11264.446    24.903812    24.959446    22.983074    14285.942    11252.361    11393.113    11147.863   -903.62011   -22.809558    2390.6445   -5554.9459 
 7979000    280.89447   -9012.4474   -7941.5496   -9012.4474            0    10857.771    24.907295    24.916504    22.956188    14246.673    11054.444    10964.019    10554.849    395.64464   -64.034023   -108.25969   -5685.5968 
 7980000    288.41143   -9015.6474   -7916.0915   -9015.6474            0    11217.119     24.90245    24.923013    23.008504    14280.092    11288.621    10313.579    12049.158   -181.74295   -366.71162    1359.2266   -5580.0086 
 7981000    286.75932   -8970.7991   -7877.5418   -8970.7991            0    11218.324    24.987446    24.842374    22.980231    14264.921    11550.549    12341.749    9762.6737    610.33493    409.38591   -1075.5049   -5543.6902 
 7982000    281.96761   -8980.9608   -7905.9717   -8980.9608            0    12492.581    24.861228    24.978218    22.855716    14193.152     11491.08    13685.308    12301.355    720.01558    1287.9403   -94.783218   -5320.1004 
 7983000    287.09256   -8988.6162   -7894.0884   -8988.6162            0    12979.476    24.666323    25.015129    22.998768    14190.959    15194.611    11082.401    12661.415   -788.58935   -331.35328    1665.4025   -5207.8486 
 7984000    289.18524     -9001.52    -7899.014     -9001.52            0    12184.245    24.903022    24.880414    22.910962    14195.575    11470.428    13206.962    11875.347   -162.40915   -1015.9558    596.55889   -5376.5353 
 7985000    286.75962   -9062.6744    -7969.416   -9062.6744            0    11560.665    24.898634    24.816334    22.958506    14185.897    11802.963    11567.558    11311.474    24.476632   -310.80256    290.91998   -5577.6675 
 7986000    292.25724   -9016.0794   -7901.8615   -9016.0794            0    12310.671    24.849229      24.9692    22.848949    14176.982    12604.523    10995.364    13332.126   -193.61702   -1171.6717   -581.66865   -5356.5473 
 7987000     278.6159   -8989.6945   -7927.4836   -8989.6945            0    13622.389    24.697563    24.853083     23.05568     14151.82    14722.701    13976.788    12167.677   -1118.5056    462.79476   -455.77285   -5115.9618 
 7988000    289.12341   -8957.6955   -7855.4252   -8957.6955            0    12117.578    24.892061     25.04043    22.801479    14212.342    11584.814    12279.114    12488.805   -6.3768073    347.32983     468.3233   -5343.7854 
 7989000    284.45429   -9016.2302   -7931.7607   -9016.2302            0    10367.607    24.817712    24.979939    23.080189    14308.446    10970.827    10139.366    9992.6259   -385.80932   -395.84729   -934.49263   -5768.3107 
 7990000    293.08276   -9000.1172   -7882.7521   -9000.1172            0    11565.383    24.914262    24.936494    22.922588    14241.216    11169.175    12019.162    11507.811    556.65635     -836.894    649.12347   -5480.6969 
 7991000    291.74195   -9016.1902   -7903.9368   -9016.1902            0    12713.708    24.895836    24.860906    22.917289    14184.267    12197.314    12270.566    13673.243    187.36875     -1258.25    1395.8534   -5273.9412 
 7992000    288.26705   -8990.7617   -7891.7563   -8990.7617            0    11521.676    24.808263    24.868507    23.048517    14219.655    12314.003    11538.099    10712.926    -34.06534   -101.70908   -379.79455   -5502.4018 
 7993000    285.50362   -9022.0239   -7933.5539   -9022.0239            0    12135.847    24.926687    25.022391    22.767746    14200.819    11939.242    11311.855    13156.445    183.89886   -712.88645   -719.11241   -5420.1667 
 7994000    277.58737   -9016.5627    -7958.273   -9016.5627            0    10458.157     24.81237    24.853353    23.153635    14278.165    10658.675    11121.829    9593.9677    736.91638   -921.89993     505.4633    -5780.546 
 7995000     290.4678     -9016.72   -7909.3243     -9016.72            0    11655.192    24.875074    24.904591    22.984518    14238.991    11899.358    11377.756    11688.463   -154.75579     517.1932   -140.37114   -5488.9945 
 7996000    287.30191   -9038.1227   -7942.7968   -9038.1227            0    10432.831     24.92089    24.961274    22.959277    14281.983     10614.03    10441.743    10242.718    335.29566   -103.50023    661.79749   -5769.7627 
 7997000    290.10861   -8963.5647   -7857.5383   -8963.5647            0    12551.976    24.871114     24.98328    22.890735    14223.433    13238.069    12379.892    12037.967   -295.45174    221.77989   -1043.8491   -5253.8296 
 7998000    283.36294    -9055.227   -7974.9182    -9055.227            0    9945.0677    24.889132     24.77042    23.191883    14298.126    10262.438    10941.877    8630.8882    394.20167   -333.34351   -83.777466   -5901.1379 
 7999000    275.18675   -9041.3737   -7992.2364   -9041.3737            0    11658.612    24.981367    24.844234    22.873883    14196.514    11811.429    12939.643    10224.763   -841.91521   -775.26923    976.26672   -5578.4189 
 8000000    298.06348   -9027.5642   -7891.2103   -9027.5642            0    11382.861    24.934033    24.893875    22.926108    14230.343     10205.11    12069.914    11873.559    39.907183   -371.29343   -1072.9596   -5528.8687 
Loop time of 515.433 on 64 procs for 250000 steps with 1920 atoms

Performance: 83.813 ns/day, 0.286 hours/ns, 485.029 timesteps/s
194.2% CPU use with 32 MPI tasks x 2 OpenMP threads

MPI task timing breakdown:
Section |  min time  |  avg time  |  max time  |%varavg| %total
---------------------------------------------------------------
Pair    | 70.308     | 74.704     | 81.761     |  29.4 | 14.49
Bond    | 0.86703    | 1.1543     | 1.7046     |  18.4 |  0.22
Kspace  | 229.17     | 237.8      | 246.97     |  29.2 | 46.14
Neigh   | 5.8948     | 6.7446     | 7.507      |  19.1 |  1.31
Comm    | 82.668     | 90.431     | 99.264     |  46.5 | 17.54
Output  | 0.54269    | 0.54301    | 0.54474    |   0.0 |  0.11
Modify  | 85.836     | 91.369     | 95.117     |  24.9 | 17.73
Other   |            | 12.69      |            |       |  2.46

Nlocal:        60.0000 ave          64 max          55 min
Histogram: 1 0 3 5 4 3 9 3 3 1
Nghost:        3414.31 ave        3452 max        3378 min
Histogram: 2 4 4 2 3 5 4 4 2 2
Neighs:        21353.2 ave       22942 max       19621 min
Histogram: 1 1 5 3 7 4 4 2 3 2

Total # of neighbors = 683304
Ave neighs/atom = 355.88750
Ave special neighs/atom = 2.0000000
Neighbor list builds = 13958
Dangerous builds = 1

unfix		3
unfix		2
unfix		1

write_data	data.final.${pid}
write_data	data.final.0
System init for write_data ...
PPPM initialization ...
  extracting TIP4P info from pair style
  using 12-bit tables for long-range coulomb (../kspace.cpp:340)
  G vector (1/distance) = 0.37455166
  grid = 30 30 30
  stencil order = 5
  estimated absolute RMS force accuracy = 0.0032606785
  estimated relative force accuracy = 9.8194365e-06
  using double precision FFTW3
  3d grid and FFT values/proc = 5400 960
Last active /omp style is kspace_style pppm/tip4p/omp
WARNING: Not all mixed pair coeffs generated from mixing. Use write_data with 'pair ij' option to store all pair coeffs. (../write_data.cpp:312)

write_restart   restart.lmp.${pid}
write_restart   restart.lmp.0
System init for write_restart ...
PPPM initialization ...
  extracting TIP4P info from pair style
  using 12-bit tables for long-range coulomb (../kspace.cpp:340)
  G vector (1/distance) = 0.37455166
  grid = 30 30 30
  stencil order = 5
  estimated absolute RMS force accuracy = 0.0032606785
  estimated relative force accuracy = 9.8194365e-06
  using double precision FFTW3
  3d grid and FFT values/proc = 5400 960
Last active /omp style is kspace_style pppm/tip4p/omp
Total wall time: 0:08:35
