#include		in.partitions
include		in.temp
variable        temperature equal 165.77
variable	tempDamp equal 100.0
include		in.pressure
variable        pressure equal 8308.7
variable        pressureDamp equal 1000.0 # This is 1 ps
include		in.seed
variable        seed equal 745823

units		real
atom_style	full
read_restart	restart.lmp.${pid}
read_restart	restart.lmp.0
Reading restart file ...
  restart file = 30 Jul 2021, LAMMPS = 30 Jul 2021
  restoring atom style full from restart
  orthogonal box = (-0.036587074 -0.050227736 -0.030757126) to (24.766588 24.780229 22.840757)
  2 by 4 by 2 MPI processor grid
  restoring pair style lj/cut/tip4p/long/omp from restart
  restoring bond style harmonic/omp from restart
  restoring angle style harmonic/omp from restart
  1920 atoms
  1280 bonds
  640 angles
Finding 1-2 1-3 1-4 neighbors ...
  special bond factors lj:    0        0        0       
  special bond factors coul:  0        0        0       
     2 = max # of 1-2 neighbors
     1 = max # of 1-3 neighbors
     1 = max # of 1-4 neighbors
     2 = max # of special neighbors
  special bonds CPU = 0.001 seconds
  read_restart CPU = 0.005 seconds
include 	in.setup
variable	out_freq equal 1000
variable	out_freq2 equal 10000
variable	out_freq3 equal 1000

timestep	2.0

neigh_modify    delay 7 every 1

include		in.tip4p
# This is TIP4P/Ice

# create groups ###
group ox type 2
640 atoms in group ox
group hy type 1
1280 atoms in group hy

# set charges - beside manually ###
set group ox charge -1.1794
Setting atom values ...
  640 settings made for charge
set group hy charge 0.5897
Setting atom values ...
  1280 settings made for charge

# ### TIP3P Potential Parameters ###
pair_style lj/cut/tip4p/long/omp 2 1 1 1 0.1577 8.5
pair_coeff 1 1*2 0.000 0.000
pair_coeff 2 2 0.21084 3.1668
bond_style  harmonic
bond_coeff  1 450 0.9572
angle_style harmonic
angle_coeff 1 55 104.52
kspace_style pppm/tip4p/omp 1.0e-5
pair_modify tail yes

thermo          ${out_freq}
thermo          1000
thermo_style    custom step temp pe etotal epair emol press lx ly lz vol pxx pyy pzz pxy pxz pyz enthalpy

restart 	${out_freq3} restart.lmp.${pid} restart2.lmp.${pid}
restart 	1000 restart.lmp.${pid} restart2.lmp.${pid}
restart 	1000 restart.lmp.0 restart2.lmp.${pid}
restart 	1000 restart.lmp.0 restart2.lmp.0


include         in.dump
dump            myDump all atom ${out_freq2} dump.water.${pid}
dump            myDump all atom 10000 dump.water.${pid}
dump            myDump all atom 10000 dump.water.0
dump            myDump2 all dcd ${out_freq2} dump.dcd
dump            myDump2 all dcd 10000 dump.dcd
dump_modify     myDump append yes
dump_modify     myDump2 append yes


variable natoms 	equal  "count(all)"                        # NUMBER ATOMS
variable H      	equal  "enthalpy/v_natoms"                 # ENTHALPY-per-atom
variable Vol      	equal  "vol/v_natoms"                 # volume-per-atom
fix AVG all 		ave/time ${out_freq} 1 ${out_freq} v_Vol v_H file vol_enthalpy.dat
fix AVG all 		ave/time 1000 1 ${out_freq} v_Vol v_H file vol_enthalpy.dat
fix AVG all 		ave/time 1000 1 1000 v_Vol v_H file vol_enthalpy.dat




fix 		1 all shake 1e-6 200 0 b 1 a 1
       0 = # of size 2 clusters
       0 = # of size 3 clusters
       0 = # of size 4 clusters
     640 = # of frozen angles
  find clusters CPU = 0.000 seconds
fix             2 all nph aniso ${pressure} ${pressure} ${pressureDamp}
fix             2 all nph aniso 8308.7 ${pressure} ${pressureDamp}
fix             2 all nph aniso 8308.7 8308.7 ${pressureDamp}
fix             2 all nph aniso 8308.7 8308.7 1000
fix             3 all temp/csvr ${temperature} ${temperature} ${tempDamp} ${seed}
fix             3 all temp/csvr 165.77 ${temperature} ${tempDamp} ${seed}
fix             3 all temp/csvr 165.77 165.77 ${tempDamp} ${seed}
fix             3 all temp/csvr 165.77 165.77 100 ${seed}
fix             3 all temp/csvr 165.77 165.77 100 745823


run             250000
PPPM initialization ...
  extracting TIP4P info from pair style
  using 12-bit tables for long-range coulomb (../kspace.cpp:340)
  G vector (1/distance) = 0.374844
  grid = 30 30 30
  stencil order = 5
  estimated absolute RMS force accuracy = 0.0032257215
  estimated relative force accuracy = 9.7141645e-06
  using double precision FFTW3
  3d grid and FFT values/proc = 7920 1800
Last active /omp style is kspace_style pppm/tip4p/omp
Neighbor list info ...
  update every 1 steps, delay 7 steps, check yes
  max neighbors/atom: 2000, page size: 100000
  master list distance cutoff = 10.8154
  ghost atom cutoff = 10.8154
  binsize = 5.4077, bins = 5 5 5
  1 neighbor lists, perpetual/occasional/extra = 1 0 0
  (1) pair lj/cut/tip4p/long/omp, perpetual
      attributes: half, newton on, omp
      pair build: half/bin/newton/omp
      stencil: half/bin/3d
      bin: standard
Per MPI rank memory allocation (min/avg/max) = 12.55 | 12.56 | 12.56 Mbytes
Step Temp PotEng TotEng E_pair E_mol Press Lx Ly Lz Volume Pxx Pyy Pzz Pxy Pxz Pyz Enthalpy 
19750000    169.13366   -9517.1563   -8872.3417   -9517.1563            0    8244.9274    24.803175    24.830456    22.871514    14085.975    8611.0188    7921.6389    8202.1243     -294.101   -748.97719    139.14983   -7178.5905 
19751000      168.928   -9532.5278   -8888.4972   -9532.5278            0    7913.9617    24.923171    24.809137    22.760822    14073.525    6728.2231    8923.0527    8090.6093     266.1114    491.80567   -331.83779   -7264.1729 
19752000    163.92078   -9512.5116   -8887.5709   -9512.5116            0     7521.132    24.739666    24.879065    22.926046    14110.976    8069.0704    6940.5821    7553.7435    379.81736    343.07726    592.89238   -7339.7662 
19753000    171.06463   -9528.7346   -8876.5582   -9528.7346            0    9016.9948    24.786198    24.756548    22.876986    14037.792    8915.1447    8875.4835    9260.3563   -358.35464   -436.19345    713.15635   -7030.5377 
19754000    165.68479   -9536.1382   -8904.4722   -9536.1382            0     8175.289    24.844936    24.776709    22.837806      14058.4    7971.3947    7986.7719    8567.7005   -332.06477    706.41003    1395.7152   -7228.3144 
19755000    167.61713   -9503.7516   -8864.7187   -9503.7516            0     8911.436    24.743289    24.993285    22.695939    14035.533    9778.7548    8536.5507    8419.0024   -259.86668   -407.31278   -197.50718   -7040.6024 
19756000    171.44225   -9511.8867   -8858.2707   -9511.8867            0    8059.2604    24.868839    24.784102    22.871676        14097    7420.2835    8621.6928    8135.8049    67.255552   -532.97587   -88.234502   -7201.3651 
19757000    158.43781   -9496.3678   -8892.3306   -9496.3678            0    8497.2369    24.723592    24.775214    22.982002    14077.218    9258.1409    8447.2888     7786.281   -579.49449  -0.73551081     104.8708   -7147.8327 
19758000    162.78771   -9507.8147   -8887.1938   -9507.8147            0    9832.9035    24.739823    24.794676    22.832134    14005.594    11179.674    9152.5725    9166.4638   -16.892965   -252.64216    301.51833   -6878.7522 
19759000    169.59485   -9503.7154   -8857.1425   -9503.7154            0    7567.2743      24.8382    24.857939    22.830398    14096.092    7045.8733     8149.251    7506.6986   -68.509413   -478.68681   -712.15632   -7301.4847 
19760000    169.10201   -9508.8236   -8864.1297   -9508.8236            0    8914.2078    24.832639    24.719136     22.86447    14035.158    8914.8341    8849.5744    8978.2149   -353.65458   -290.70252     -310.802   -7039.4949 
19761000    160.37767   -9501.9629   -8890.5301   -9501.9629            0    8078.1457    24.702191    24.939459    22.861854    14084.258    9659.7633     6870.871    7703.8029    376.16159   -462.71058   -502.49438    -7231.243 
19762000    171.20069   -9505.5073   -8852.8122   -9505.5073            0    7828.4114    24.879095    24.756632    22.875072    14089.273    6285.5155    9430.3945    7769.3242    597.16861    603.66022    978.24285    -7244.249 
19763000    165.20441    -9492.318   -8862.4834    -9492.318            0    8004.2888    24.652748    24.925335    22.940207    14096.252    8843.1478    7548.7188    7620.9998   -711.81903    133.24261   -261.97291   -7216.9667 
19764000    160.97363   -9530.5002   -8916.7953   -9530.5002            0    8495.5034    24.791513    24.802741    22.858761    14055.794    8619.2832    9208.2314    7658.9957    -325.0535   -42.213065    268.05539   -7175.3077 
19765000    166.33366   -9514.5797   -8880.4399   -9514.5797            0    8063.8658     24.87048    24.817469    22.776254    14058.013    7112.7617    8709.7813    8369.0546    24.651603    -251.5578    623.36294   -7227.1725 
19766000     166.7237   -9506.8043   -8871.1775   -9506.8043            0    9683.9667    24.719919    24.775955    22.852131    13996.008    10129.034    9292.4471    9630.4191    473.40563    393.19154    152.36864   -6894.5113 
19767000    166.03787    -9502.295   -8869.2829    -9502.295            0    8492.8159    24.692893    24.788744    22.955666    14051.297    9657.0837    8686.5214    7134.8426    274.35048    278.73714    161.54274   -7128.9033 
19768000    168.34208   -9541.0791   -8899.2823   -9541.0791            0    8275.3937    24.817762    24.795005    22.810981    14036.887     8395.327    8480.8265    7950.0275   -496.33714   -408.31031    454.77996   -7205.1967 
19769000    167.85293   -9531.0485   -8891.1166   -9531.0485            0     8300.527    24.867378    24.834751    22.758546    14055.112    7640.6015    8117.7093    9143.2702   -54.765335   -782.61087   -784.16093   -7189.6797 
19770000    162.66218   -9521.2829   -8901.1405   -9521.2829            0    7672.1369    24.840104    24.859819    22.832267    14099.393    7367.4284    7482.5267    8166.4556   -58.429559   -594.79637   -610.37034    -7323.556 
19771000    164.77938   -9515.8964   -8887.6823   -9515.8964            0    8940.2389    24.711195    24.765518    22.960613    14051.563    9612.0746    9151.0248    8057.6175    260.41129   -426.57139    69.754909   -7055.5803 
19772000    172.61066   -9525.2212   -8867.1507   -9525.2212            0      8585.62    24.744553    24.784273    22.918074    14055.099    8581.4476    8271.6898    8903.7226    -231.5063   -1129.1033   -807.26173   -7107.2772 
19773000    164.11328   -9538.9396    -8913.265   -9538.9396            0    7966.1822    24.806593    24.821826    22.851709    14070.824    8921.5352    7418.6641    7558.3472   -472.23141    19.119741    393.36141   -7278.5364 
19774000    169.27315   -9479.7569   -8834.4104   -9479.7569            0     9670.286    24.836924    24.853159     22.72632    14028.412    8968.8272    9231.5661    10810.465    8.0343352   -952.58597   -696.38608   -6855.9666 
19775000    164.28172   -9508.5068     -8882.19   -9508.5068            0    7393.7071    24.876374    24.894576    22.797014     14117.89    7018.2335    6779.7235    8383.1642   -207.61691   -451.35894    -353.6213   -7359.8631 
19776000    169.54442   -9496.5365   -8850.1558   -9496.5365            0    10217.918    24.732023    24.800188     22.79488     13981.44      10151.9    10129.266    10372.587   -364.96696    456.17401    173.38412   -6766.6716 
19777000    162.04495   -9499.2468   -8881.4575   -9499.2468            0    8061.8121    24.777472    24.805189    22.917829    14085.524    7883.5882    8283.0091     8018.839   -247.63168    78.882261   -349.90612   -7225.3765 
19778000    163.42591   -9525.8133   -8902.7592   -9525.8133            0    7513.9674    24.654438    24.859437    23.009468    14102.398    8946.3195    6434.5692    7161.0135   -532.39081    -42.62323    344.90962    -7357.369 
19779000     170.0958   -9551.8968    -8903.414   -9551.8968            0    7763.4893    24.918618    24.735725    22.863101     14092.36    6592.3771    8580.5209    8117.5698   -460.66833    69.236083    396.67338   -7307.8414 
19780000    177.71157   -9540.9771   -8863.4596   -9540.9771            0     7866.295    24.736954    24.903325    22.840519      14070.5    8368.0891    7377.7349    7853.0612   -147.19905   -49.050851    479.27942   -7249.2659 
19781000     172.7532   -9510.1918   -8851.5778   -9510.1918            0    8186.2408    24.832218    24.684297    22.929723    14055.137    7794.2851    9142.7685    7621.6686    199.55856   -65.251882   -440.02715   -7173.5642 
19782000     172.3643    -9518.167   -8861.0357    -9518.167            0    8207.2057    24.764909    24.811333    22.875734    14056.004    8121.3875     8369.871    8130.3587    36.657205    545.79883    377.84959   -7178.6208 
19783000    166.83068   -9508.4516   -8872.4169   -9508.4516            0     7404.321    24.929387    24.854228    22.774659    14111.194    6790.7395    7971.0019    7451.2217   -158.53971   -80.413793    624.75613   -7348.6277 
19784000    166.66006   -9538.6863   -8903.3021   -9538.6863            0    8766.7499    24.798288    24.787833     22.81279    14022.927    9074.4788    9695.9494    7529.8214   -566.47989    218.98859   -292.31784   -7110.4141 
19785000     163.9447   -9542.9085   -8917.8765   -9542.9085            0    8832.0481    24.761982    24.814532    22.816564    14019.798    8625.3931    8480.2568    9390.4945    87.073825   -648.68233   -500.72135   -7112.0374 
19786000     167.8674   -9523.8649   -8883.8778   -9523.8649            0    7675.3687    24.846048    24.785387    22.902787    14103.969    7907.4698    7395.1667    7723.4696    -112.1359    78.707856    473.00494   -7305.1164 
19787000    167.78351   -9515.6018   -8875.9345   -9515.6018            0    9530.6087    24.729574    24.853665    22.801945    14014.544    9293.9756    8573.8819    10723.969   -20.044946    578.30156   -207.20153   -6927.9948 
19788000    169.58648   -9511.5022   -8864.9612   -9511.5022            0     9748.679    24.766879    24.691284    22.903178     14005.89    9711.6066    10657.245     8877.185   -18.936588    25.872452    1079.1894    -6873.681 
19789000    163.08624   -9517.4021    -8895.643   -9517.4021            0    8265.6326    24.769756    24.849511    22.848844    14063.837    7966.6448    8627.9593    8202.2938   -316.78238    631.41043   -75.488898    -7200.307 
19790000    165.34289   -9521.0952   -8890.7328   -9521.0952            0    8470.0423    24.868333    24.843851    22.752035    14056.779    7734.2058    8431.0065    9244.9146    375.30272   -872.49976    -11.75708   -7154.3427 
19791000    162.81437   -9534.2809   -8913.5583   -9534.2809            0    9419.0093    24.806145     24.81137    22.759351    14007.799    8508.3897    9983.3844    9765.2538   -640.18712   -941.11217    498.52883   -6989.3548 
19792000    168.57739   -9532.9041   -8890.2102   -9532.9041            0    8100.6619    24.763581    24.804605    22.894098    14062.719    9014.6976    7500.1245    7787.1636    100.82937   -339.09618    111.42592   -7228.8427 
19793000    167.21401    -9509.458   -8871.9619    -9509.458            0    8647.4301    24.754757    24.790428    22.915258    14062.659    9082.6525    8381.4131    8478.2247   -25.109982    461.50862   -249.66144   -7098.4652 
19794000    167.46735   -9523.8837   -8885.4218   -9523.8837            0    8282.2268    24.801068    24.787641    22.865404    14056.735    8939.6973    8233.1974    7673.7857    -710.5438   -887.39206    1180.0296     -7187.54 
19795000    156.78751   -9523.9271   -8926.1817   -9523.9271            0    8139.4488    24.880653    24.872455    22.752176    14080.023     8003.098    7628.9602    8786.2882   -613.94664    319.29044    771.94272   -7254.8053 
19796000    168.08048   -9482.8728   -8842.0733   -9482.8728            0    9522.8939    24.765869    24.854162    22.764813    14012.537    10252.792     9142.686    9173.2034    116.07386   -801.59648    -184.3212   -6895.9892 
19797000    165.70109   -9530.7866   -8899.0585   -9530.7866            0     8263.578    24.768515    24.804474    22.880322    14056.983     7969.202    8722.8779    8098.6539   -545.68031   -1143.9106    -63.90257   -7204.9699 
19798000    162.13864   -9518.8794   -8900.7329   -9518.8794            0    7377.9298    24.787897    24.832037    22.962609    14134.265    8397.3007    6583.1848    7153.3041   -612.97027    -559.5401   -741.00855   -7379.8925 
19799000     162.4402   -9495.8052    -8876.509   -9495.8052            0    7806.2526    24.821686    24.881993    22.848204    14111.348    7066.2576    8085.2502    8267.2502   -556.58595    343.57902     460.5668   -7269.9859 
19800000    168.43688   -9502.7459   -8860.5877   -9502.7459            0    7619.8078    24.828288    24.801763    22.896566    14099.369    7657.0648    7522.4486      7679.91   -496.11362    199.85883    397.55809   -7293.7659 
19801000    167.83718   -9507.5768   -8867.7049   -9507.5768            0    9774.6484    24.779181    24.836436     22.75271    14002.622    9057.4909    8809.7966    11456.658    401.27309   -304.74057    421.11679    -6871.586 
19802000    165.87344   -9514.0561   -8881.6709   -9514.0561            0    8728.0494    24.795842    24.803124    22.825714    14038.142    8946.8884    8722.5475    8514.7124    -676.7286    18.244078   -1176.6409   -7094.7607 
19803000    162.25509   -9508.8873   -8890.2969   -9508.8873            0    8424.0546    24.824865    24.780362    22.866348    14066.672    8228.3728    8931.2827    8112.5082   -395.36058   -362.75543    430.73293   -7162.1191 
19804000    165.44841    -9496.515   -8865.7502    -9496.515            0    8462.7704    24.755543    24.911887    22.803353    14062.994     9864.893    7203.5504    8319.8679   -35.141169    654.89499    411.43691   -7130.0839 
19805000    170.35175   -9513.3303   -8863.8718   -9513.3303            0    8544.6562    24.840597    24.756583    22.858742    14057.402    8300.5023    8917.5126    8415.9537    11.163428    363.56973    583.61088   -7112.1079 
19806000     173.6115   -9532.8909   -8871.0047   -9532.8909            0    6657.2557    24.804188    24.825117    22.945352    14128.987    6833.4733    7140.4817    5997.8121   -511.08214    319.57539   -491.01732    -7499.232 
19807000    165.88687   -9524.7643   -8892.3279   -9524.7643            0    7239.7719    24.765924    24.863686    22.933446    14121.777    7928.7744    6971.4016    6819.1397   -683.21876   -15.099361   -606.92533   -7401.2851 
19808000    164.83444   -9523.8077   -8895.3837   -9523.8077            0    7641.6881    24.892629    24.810136    22.820993    14094.006    6252.9877    8799.8221    7872.2546   -687.90056    348.49886   -798.67407   -7324.6605 
19809000    163.81196   -9506.3596   -8881.8337   -9506.3596            0    7529.4356    24.723042    24.985648    22.853594     14117.15    8142.8422    6119.3727     8326.092    265.88502   -1044.6526    413.46086   -7331.6423 
19810000    158.12363   -9509.6147   -8906.7753   -9509.6147            0    8997.1272    24.806958     24.73917    22.871522    14036.335    8714.2607     9742.651      8534.47   -383.40778   -514.05209    453.89567   -7065.0135 
19811000    162.82508   -9512.6892   -8891.9257   -9512.6892            0    9238.6877    24.707227    24.799843     22.90396    14034.066    10089.913    8922.5404    8703.6093    674.56784   -641.35066   -302.77741   -7001.0208 
19812000    164.22078   -9515.3395    -8889.255   -9515.3395            0    7504.6598    24.835423    24.887164    22.803633    14094.543    8409.2093     6956.838    7147.9322    448.66964    20.738409   -903.85463   -7346.6387 
19813000    174.43702   -9520.6775   -8855.6441   -9520.6775            0    8074.6999     24.91882    24.811919    22.769091    14077.759    7324.0273    8186.4474    8713.6251   -106.93024   -308.43139    162.00761   -7197.8301 
19814000    168.92512   -9524.6359   -8880.6164   -9524.6359            0    8149.2464    24.741829    24.846515    22.884509    14068.212     8629.097    7170.9423    8647.6998   -259.40963    -347.2758   -356.79942   -7208.6319 
19815000    165.66047   -9540.8759   -8909.3026   -9540.8759            0    9387.5702    24.693434    24.779857    22.882157    14001.586    9936.0715    8862.3111    9364.3278   -47.301872    3.1394204    1032.8526   -6992.3722 
19816000    172.66624   -9501.0726   -8842.7901   -9501.0726            0    8314.6049    24.819034    24.801984    22.882349    14085.488    7966.8467    8759.6703    8217.2975   -190.44858    48.646706     153.3129    -7134.784 
19817000    162.31306   -9535.7619   -8916.9505   -9535.7619            0    7683.5869    24.887846    24.975306    22.676349    14095.201    7208.7649    6698.0847     9143.911   -213.61021    751.97602    219.33952   -7337.4813 
19818000    158.17625   -9506.8165   -8903.7765   -9506.8165            0    8381.2754    24.837163    24.773303    22.836368    14051.184    8143.8268    9231.3467    7768.6528   -741.19806   -717.09577    195.57134   -7186.2678 
19819000    165.22845   -9528.9636   -8899.0374   -9528.9636            0     9404.609    24.673431    24.839105    22.861045    14010.756    9347.0381    9063.2832    9803.5059   -434.30731   -517.33104   -309.22152   -6977.3702 
19820000    159.90168   -9508.5923   -8898.9742   -9508.5923            0    8871.5598    24.815154    24.751689    22.867021    14045.313    9222.5377    9353.8564    8038.2852   -546.52004    67.886085    191.89862   -7081.7551 
19821000    169.43441   -9524.9546   -8878.9934   -9524.9546            0    8779.2181     24.77615    24.832821    22.821067    14040.929    8160.5904    8946.1139    9230.9501   -190.32167    477.11118    -934.4566   -7081.2505 
19822000     167.9791    -9507.505   -8867.0921    -9507.505            0    8278.7134    24.704461    24.944622    22.842683    14076.654    9788.5519    7226.0484      7821.54    397.73922   -5.6201495    283.76194   -7167.5255 
19823000    164.07704    -9560.702   -8935.1655    -9560.702            0    7700.7719     24.90016    24.758074    22.853957    14089.007    6690.9744    7342.2134    9069.1279   -662.34447    506.55376   -42.383314   -7352.8593 
19824000    172.07376   -9521.0351   -8865.0115   -9521.0351            0    9267.2226    24.656077    24.888252    22.864333    14030.621    9376.7318     9662.562    8762.3739   -152.72669    976.49468   -598.96426   -6968.7318 
19825000    170.50925   -9507.6301   -8857.5711   -9507.6301            0    8000.0395     24.83041    24.795803    22.911946    14106.655    8186.3962    7758.0789    8055.6432   -519.42385    569.99766   -68.666475   -7211.7143 
19826000    162.60395   -9506.5087   -8886.5882   -9506.5087            0    7922.3115    24.803119    24.826384    22.899026    14100.573    8502.4713    6974.2772    8290.1861   -525.41217    -411.6551   -27.430351   -7257.4251 
19827000    162.15274   -9523.4568   -8905.2566   -9523.4568            0    8298.4232    24.885958    24.834526    22.761098    14067.064    7882.7145     8131.389     8881.166   -90.821765    953.43796    855.38087   -7202.8044 
19828000    165.52252   -9487.7741   -8856.7267   -9487.7741            0    9747.0047    24.702723    24.857051    22.831109    14019.142    9939.0038    9519.0788    9782.9316    371.49761    192.00554   -98.487049   -6863.9047 
19829000    163.41123   -9514.7949   -8891.7968   -9514.7949            0    7828.4143     24.86077    24.782039    22.898085    14107.523    7408.4423    8757.8867     7318.914   -839.80298   -1095.0634    143.35293   -7281.1495 
19830000    164.87738   -9519.4935   -8890.9057   -9519.4935            0    7832.1141    24.761222    24.921431    22.849476    14100.071    7713.3676    7517.8298     8265.145    183.74299   -209.32834   -155.60726   -7280.3484 
19831000    165.17965   -9486.3631   -8856.6229   -9486.3631            0     8700.469    24.855683    24.851833    22.782204    14072.779    8477.9109    8886.8995    8736.5966    521.26818   -12.958882    1218.2748   -7070.9644 
19832000    163.74819   -9506.7309   -8882.4481   -9506.7309            0     10102.88    24.781653    24.799886     22.76591    13991.522    10151.324    10412.039    9745.2758    429.26548    223.54208    548.19487   -6820.9353 
19833000     161.1208   -9531.9168   -8917.6508   -9531.9168            0     8778.144    24.736401    24.852094    22.825112    14031.769    10406.917    7842.0271    8085.4876   -248.51994   -510.54147    519.24502   -7121.3006 
19834000    169.65938   -9507.1022   -8860.2833   -9507.1022            0    8404.2575    24.770083    24.788365    22.941122    14086.075    9689.7185    8380.1276    7142.9265    281.57087   -193.72291   -57.751088   -7133.7886 
19835000    164.69715   -9526.9103   -8899.0096   -9526.9103            0    7570.3504    24.860063     24.80824     22.88386    14113.264    6233.8052    8703.2263    7774.0196    -90.28675      484.917    819.88287   -7340.8236 
19836000    167.76076   -9514.2329   -8874.6524   -9514.2329            0    8970.1751    24.822511    24.845033    22.777141     14047.03    8586.4871    9149.9182      9174.12    -778.4588   -168.48435    510.82057   -7037.0087 
19837000    169.02878   -9534.8382   -8890.4234   -9534.8382            0    8329.6315    24.805523    24.936147    22.738639     14065.08    8272.1595    7207.9453    9508.7896   -31.762696   -1542.8375    436.93097   -7181.8097 
19838000    167.01493   -9497.5981    -8860.861   -9497.5981            0     8371.615    24.878893    24.786817    22.822101    14073.672    7531.2911     9240.233     8343.321   -47.061648    -1165.491   -137.53671   -7142.5864 
19839000    159.50274   -9534.9896   -8926.8924   -9534.9896            0    7646.9127     24.76251    24.809598    22.948931    14098.628    8339.9091    7800.8872    6799.9419   -336.59059   -593.45838    985.71324   -7354.5799 
19840000    170.95731    -9523.903   -8872.1358    -9523.903            0    7849.1516    24.785219    24.837066    22.878786        14084    8563.0338    7717.4293    7266.9916    -185.0109   -176.69859   -581.86179   -7259.9146 
19841000    161.38865   -9522.2614   -8906.9743   -9522.2614            0    8369.1224     24.84583    24.755859     22.84727    14052.896    8803.4851    8752.2519    7551.6302   -104.01163    -477.5173   -441.10934   -7191.7472 
19842000    165.65236   -9512.8883   -8881.3459   -9512.8883            0    8322.3944    24.782651    24.943742    22.748515    14062.496    9131.3687    6932.0107    8903.8037   -882.59305   -1185.5826    327.39819   -7174.5304 
19843000    166.83487   -9514.6107   -8878.5601   -9514.6107            0    7261.4632    24.879162    24.774685    22.919831    14127.174    7366.4987    7225.5437    7192.3473   -202.91756   -920.78961    517.29234   -7382.4783 
19844000    165.01619   -9510.6726   -8881.5556   -9510.6726            0    8991.4138    24.745677    24.830879    22.838187    14033.082    9227.9447    9596.5249    8149.7717   -1033.8945   -756.30534   -397.64601   -7041.3898 
19845000     159.4206   -9533.5367   -8925.7526   -9533.5367            0    8055.5074    24.854971    24.855008    22.774885    14069.653    7504.3595    7953.2872    8708.8755     -142.588    18.779315    80.126882   -7272.8313 
19846000    165.55312   -9512.8276   -8881.6636   -9512.8276            0     8681.201    24.874658    24.808112    22.811055    14076.549    7332.8766    8633.5401    10077.186    375.65302   -992.68283   -222.95576   -7099.4823 
19847000    165.44662   -9503.7334   -8872.9754   -9503.7334            0    7627.3554    24.685178    24.870286    22.964832     14098.74    7978.0074    8012.1708     6891.888   -553.12296    -438.3631    70.877117   -7304.6717 
19848000    165.65444   -9551.7706   -8920.2203   -9551.7706            0    8144.2829    24.888725    24.730302    22.843216    14060.129    6985.9052    9089.0885     8357.855    450.78641    224.38104    1247.8274   -7250.2143 
19849000    170.15019   -9523.3213   -8874.6311   -9523.3213            0    7842.5383    24.753636    24.930624    22.818456    14081.808    7859.6795    7647.7984    8020.1371     205.4261   -968.67005     64.53397    -7264.019 
19850000     162.9417   -9528.5587   -8907.3506   -9528.5587            0    8664.2405    24.802984    24.765084    22.851363    14036.403    9064.2554    8013.4951     8914.971    135.24949   -33.436011   -35.855137   -7133.7238 
19851000    162.89271   -9523.0601   -8902.0388   -9523.0601            0    8068.0214    24.766937    24.799651    22.901207    14066.183      9042.65    7574.2666    7587.1476   -337.55585    179.49348    129.95899   -7246.9581 
19852000    171.72791   -9520.4934   -8865.7883   -9520.4934            0    7982.8503     24.76977    24.817515    22.880453    14065.167    9017.2233    7178.4014    7752.9261    162.08107   -89.376084    292.23531   -7228.2979 
19853000    167.27915   -9523.1101   -8885.3657   -9523.1101            0     6555.062    24.832188    24.817393    22.933099    14132.985    6926.1377    6757.8075    5981.2408    275.04926   -124.29609   -156.62342   -7534.2685 
19854000    163.72837   -9509.7655   -8885.5583   -9509.7655            0    8438.1699      24.7848    24.831364     22.86411    14071.496    8465.3041    8231.7941    8617.4115   -290.02932    928.13304   -223.32524   -7153.8911 
19855000    170.39348   -9519.9005   -8870.2828   -9519.9005            0    8588.6846    24.858743    24.830536    22.792113    14068.566    8531.1536    9041.2383    8193.6618    73.837298    -697.4271    105.52509   -7108.0943 
19856000    170.11034   -9546.4729   -8897.9347   -9546.4729            0    8736.4499    24.696715    24.876062    22.840125    14031.991    9238.3939    8083.5615    8887.3945   -933.72501   -528.65104    141.07788   -7110.0885 
19857000    172.28654   -9537.5824   -8880.7475   -9537.5824            0    8585.5709    24.762439    24.764573    22.897624    14041.538    8785.1055    9028.0812     7943.526    549.96423    22.224652   -392.54363    -7122.582 
19858000    164.59837   -9518.3376   -8890.8136   -9518.3376            0    7844.6595    24.775336    24.797539    22.945673    14097.072    7480.0268    7939.8309    8114.1209    328.38994   -602.28862    982.23485   -7278.0196 
19859000    163.39282   -9514.1905   -8891.2626   -9514.1905            0    8161.9301    24.766381    24.894579    22.812869    14065.243     8679.326    7086.3184    8720.1458   -176.26348    427.12027   -1018.3509   -7217.0292 
19860000    163.99353   -9521.5043   -8896.2862   -9521.5043            0    8232.5421    24.829707    24.859283     22.77359    14056.969    7779.5044    8245.3672    8672.7546     522.2724   -315.78676      617.642   -7208.5618 
19861000     167.5879   -9527.1088   -8888.1873   -9527.1088            0     8520.278    24.793442    24.838077    22.834397    14061.911    8451.7344    8497.4631    8611.6364    421.51548    562.48147    356.02352   -7140.8611 
19862000    165.81565   -9508.3712   -8876.2063   -9508.3712            0    8569.3987    24.789621    24.726586      22.9515    14068.413    8878.0613    9201.6911    7628.4435   -15.230798    935.31964   -1094.6467   -7117.9938 
19863000    171.05378   -9535.3741    -8883.239   -9535.3741            0    8370.6409    24.694751    24.861541    22.901169    14060.163    8935.7296    8204.4753    7971.7177   -603.59224   -256.89042    128.69863   -7166.8136 
19864000    170.56741   -9489.5524   -8839.2717   -9489.5524            0    9190.8623     24.90909    24.820721    22.746955    14063.569     8043.274    9054.3535    10474.959   -995.93341     256.0304    33.883502   -6954.2008 
19865000    167.46472   -9487.1195   -8848.6676   -9487.1195            0    9090.7095    24.762305    24.912955    22.756661    14038.634    9330.4026    8845.7423    9095.9837    42.486508     40.18311   -804.95644   -6987.4442 
19866000    159.13465   -9506.3198    -8899.626   -9506.3198            0    8251.3976    24.793835    24.784299    22.916869    14082.366    7779.1951    9584.1559    7390.8417   -234.07295    -226.6988   -726.41132   -7204.9798 
19867000    163.46929   -9540.7087   -8917.4892   -9540.7087            0    9066.4541    24.759276    24.728101    22.913123    14028.557    9117.5782    9711.3986    8370.3855    679.01345    142.16644    1068.7662   -7062.5643 
19868000    160.42236   -9525.2837   -8913.6805   -9525.2837            0    8751.9504    24.724005    24.876683    22.787413    14015.426    9468.3129    7871.6317    8915.9067    39.168779   -873.53403    795.04383   -7124.7764 
19869000    167.57137   -9524.1127   -8885.2542   -9524.1127            0     8716.688    24.823117    24.830801    22.787123    14045.479    8777.2809    8035.5615    9337.2216    100.10446   -1050.3937    598.04963   -7099.7374 
19870000    162.14042   -9511.6212    -8893.468   -9511.6212            0    7672.3319    24.893112    24.869644    22.763349    14092.398    7216.1141     6877.613    8923.2687   -756.09169   -683.53412   -575.92365   -7316.6259 
19871000    163.51058   -9513.0682   -8889.6913   -9513.0682            0    8532.4373    24.722947    24.845187    22.879709    14053.776    9253.7188    9037.4262     7306.167   -476.32882    971.44488    -368.9166   -7140.8837 
19872000    166.43342   -9498.1673   -8863.6472   -9498.1673            0    9495.0865    24.781649    24.744696    22.862861    14019.835    9960.5522    8980.1507    9544.5565    254.00405   -19.414917    1156.7416   -6922.2352 
19873000    170.01806   -9547.9656   -8899.7792   -9547.9656            0    9162.6499    24.698299      24.7724    22.910815    14017.665     10111.61    9290.6849    8085.6543   -701.56609    345.09447    141.01175   -7026.6288 
19874000    169.52822   -9501.4381   -8855.1192   -9501.4381            0    9420.4893    24.806011    24.767407    22.836604    14030.365    9503.1554    9768.5565    8989.7561   -292.08865    418.53527   -359.01495   -6927.5129 
19875000    168.73805   -9503.7724    -8860.466   -9503.7724            0    8399.0529    24.792005    24.916421    22.797762    14082.816    8983.3338     7593.263    8620.5621   -83.957586   -153.19501    364.65467   -7135.4397 
19876000    167.06665   -9536.5979   -8899.6636   -9536.5979            0    7086.4897    24.838144    24.826723    22.899583    14121.021    6364.7331    7311.4343    7583.3018   -291.82396    803.36422   -593.46615   -7440.2676 
19877000    168.62884   -9523.0709   -8880.1809   -9523.0709            0    7487.5519    24.738157    24.892499     22.89875    14100.925    9137.3894    6446.5794    6878.6868   -140.33601   -483.33216   -219.39598   -7340.3844 
19878000    162.74885    -9511.008   -8890.5351    -9511.008            0    8535.1178    24.779768    24.685453    22.985949      14060.5    8767.7069    9663.4471    7174.1993   -874.74156    191.25697    138.07388   -7140.3412 
19879000    167.31047   -9514.8568    -8876.993   -9514.8568            0    7688.5727    24.780822    24.902339     22.83553    14091.815    7778.7359    7467.6205    7819.3615    498.13678    120.96119     1314.328   -7296.8786 
19880000    164.85984   -9539.8433   -8911.3224   -9539.8433            0    8000.9688    24.865371    24.879584    22.739697    14067.688    7671.8925    7097.2434    9233.7705     122.9359   -204.08222    15.866923   -7269.8213 
19881000    161.38031   -9526.5648   -8911.3095   -9526.5648            0    8307.8438    24.870385    24.753984    22.862881     14075.33    6673.9037    9674.6409    8574.9869   -231.20829    557.42488   -75.904509   -7205.9231 
19882000    161.35012    -9502.228   -8887.0877    -9502.228            0    8259.7661     24.73908    24.854512    22.876873    14066.481    8883.7303    8262.7469    7632.8211    -123.6557   -129.62103   -385.21892   -7192.6364 
19883000    164.41778   -9512.9053   -8886.0697   -9512.9053            0    9001.2211    24.794667    24.751335    22.861245    14029.972    9102.3609    9426.4555    8474.8467   -593.73358   -1147.6887    211.59477   -7044.3052 
19884000    165.03432    -9544.326   -8915.1399    -9544.326            0    8275.0986    24.741422    24.847927    22.850957    14048.153    8260.6077    7963.7904    8600.8978    70.559401    405.85213    368.10757    -7219.755 
19885000    162.97009   -9549.6584   -8928.3421   -9549.6584            0    7352.8087    24.908685    24.796919    22.838409     14106.34    5862.7953    7438.4368    8757.1941    846.75723    77.464337    52.173647   -7415.6744 
19886000    170.98719   -9534.1658   -8882.2846   -9534.1658            0    8665.0809    24.851412    24.815426    22.799928    14060.679      6934.38    9101.7247     9959.138    271.74016    33.456476   -638.02321   -7105.4181 
19887000    163.96583   -9524.6773   -8899.5648   -9524.6773            0    9086.3623    24.751075    24.843086    22.838705    14043.361    8980.0667    8171.9928    10107.027     118.3879   -192.87141     -1274.82   -7038.6049 
19888000    167.50647   -9524.0247   -8885.4136   -9524.0247            0    8072.0549    24.827753    24.814858    22.861501    14084.906     8128.577    8762.4566    7325.1311   -25.311453    337.02452    471.39665   -7227.3013 
19889000    160.67555   -9521.8968   -8909.3283   -9521.8968            0    7322.3328    24.732106    24.815996     23.00246    14117.802    7750.9596     8149.311    6066.7277   -20.475075   -543.86571   -750.03266   -7401.7064 
19890000    168.77906    -9525.638   -8882.1752    -9525.638            0    8533.2832    24.823497    24.762516    22.881177    14064.882    7236.3051    9793.6649    8569.8795    -294.7876    584.24503    285.31007   -7131.8121 
19891000    161.39938   -9523.7565   -8908.4284   -9523.7565            0    9148.8894    24.741373    24.875605    22.812928    14040.368    9600.9731    8943.8913    8901.8037   -207.24414   -744.34194   -38.871927   -7035.0619 
19892000    161.45199   -9521.6574   -8906.1288   -9521.6574            0    8322.2038     24.82715    24.867369    22.772189    14059.228     7724.541    8102.6273    9139.4432     309.3257    463.09691   -136.62557   -7199.7489 
19893000    162.83156   -9503.2893   -8882.5012   -9503.2893            0    8815.9486     24.77265    24.725714    22.933976    14047.553    7872.0361    10130.293    8445.5166   -23.842882   -211.12191    36.307131   -7076.3853 
19894000    167.50456   -9528.8386   -8890.2348   -9528.8386            0    8036.4947    24.738873    24.766246    22.967362     14071.85    7753.7076    8564.4335    7791.3432   -24.541245   -859.99506   -900.43147   -7240.9572 
19895000    175.95025   -9513.4067   -8842.6041   -9513.4067            0    8599.6986    24.803313    24.805689    22.835494    14049.841    8386.8273    8990.4372    8421.8314   -711.39198   -103.82965    44.876799   -7080.5042 
19896000    162.37105   -9511.3719   -8892.3394   -9511.3719            0    8151.5615    24.893305    24.872006    22.712686    14062.478    7614.9073    8192.6733    8647.1038     265.8259     149.7677    742.39861   -7220.5615 
19897000    160.68196   -9503.0582   -8890.4653   -9503.0582            0    9188.0307     24.74824    24.801434    22.864518    14034.055    9243.6309    9055.9498    9264.5115   -119.03654   -202.05312    600.96027     -7009.93 
19898000    158.40872    -9521.641   -8917.7147    -9521.641            0    8579.5984    24.698361    24.764199    22.993249    14063.479    7919.7331    9212.0557    8607.0064   -422.86858    1183.7478   -943.31073   -7158.0269 
19899000    163.74255    -9505.955   -8881.6937    -9505.955            0    8703.5114    24.794048    24.810049    22.861291     14062.93    8839.8588    8394.2645     8876.411   -125.83674    114.70944   -102.67697   -7096.6609 
19900000    163.32263   -9514.3111   -8891.6508   -9514.3111            0    9613.4066    24.836739      24.8459     22.68615    13999.422    8647.9651    9362.2422    10830.012     50.45078    818.94159    39.213976   -6928.9084 
19901000    158.92187   -9487.8422   -8881.9595   -9487.8422            0    8289.3173    24.848057     24.90166    22.785686    14098.823    7641.2042    8543.3902    8683.3577   -1261.7084   -130.67268   -67.239666    -7177.536 
19902000    162.46369   -9521.7135   -8902.3278   -9521.7135            0    7937.7476    24.733469    24.848612    22.920229    14086.598    8163.5181    7750.6048      7899.12    314.77532   -391.86557   -350.09534   -7271.6082 
19903000    166.91427   -9513.3606   -8877.0073   -9513.3606            0    7926.9969     24.76023    24.774586     22.97081    14090.856    8130.8423    8399.7512    7250.3972   -593.34446   -49.513373    335.03478    -7248.004 
19904000    166.05352   -9539.3482   -8906.2765   -9539.3482            0    7966.7985    24.805608    24.797498    22.884095    14076.397    7807.8113    8400.3439    7692.2405    -776.1152   -312.95368   -359.14967    -7270.774 
19905000    167.92747   -9531.2921    -8891.076   -9531.2921            0    7891.6946    24.846193    24.929194    22.740258    14085.215    7922.3718     7648.239    8104.4728   -131.49615    654.58489    -279.6805   -7269.9766 
19906000    158.64594   -9553.1844   -8948.3537   -9553.1844            0    8080.5659    24.818513    24.840465    22.805561    14059.706    7899.6845    7745.1026    8596.9107    69.127359   -934.06099    808.25569   -7291.4628 
19907000    164.25919    -9511.638    -8885.407    -9511.638            0    9108.7918    24.739169    24.839638    22.797767    14009.501    9193.8091    8888.4589    9244.1073   -500.67173    98.478586    757.59432   -7024.3515 
19908000    169.69159   -9532.0908   -8885.1491   -9532.0908            0    8757.0386     24.74579    24.765574    22.890759    14028.457    9267.2896    9019.6875    7984.1386   -467.97113    437.24832    127.05529   -7093.5408 
19909000    167.17459   -9502.3292   -8864.9834   -9502.3292            0    9065.5905    24.794593     24.75292    22.894824    14051.437    8525.0901     9655.831    9015.8504   -256.24012   -11.929254     64.66257   -7007.2101 
19910000    164.36641    -9521.546   -8894.9063    -9521.546            0    8640.9912    24.745294    24.924972    22.788451    14055.364    9711.7161    8173.7441    8037.5134   -41.155966   -394.85321    1322.3121   -7123.6494 
19911000    162.97853   -9545.1383   -8923.7898   -9545.1383            0    7489.5831    24.880463    24.801307    22.816185    14079.137    6682.3275    8521.9264    7264.4955    538.51708   -87.337274      147.036   -7385.9554 
19912000    166.27403   -9529.1132   -8895.2008   -9529.1132            0    7563.3452    24.725675    24.864976    22.912843    14086.892    8906.0778    6915.7973    6868.1604     130.5753   -621.48677   -217.22072   -7341.3654 
19913000    169.07969   -9523.3403   -8878.7314   -9523.3403            0    8372.5882    24.772222    24.752125    22.916666      14051.7    9148.5003    8225.9258    7743.3384   -392.90674   -108.51282   -650.23151     -7162.94 
19914000    157.78518   -9515.9981    -8914.449   -9515.9981            0    8376.4418    24.761811    24.793045    22.956532     14093.49    8534.3256    8534.5278     8060.472     406.1868   -663.79133     16.12681   -7192.7628 
19915000    167.46485   -9530.6068   -8892.1545   -9530.6068            0    8039.5429    24.834676    24.878934    22.793817    14083.394    8348.1257    7807.0468    7963.4562   -218.40536   -365.23721   -83.383404   -7240.8978 
19916000    169.93847   -9518.8257   -8870.9427   -9518.8257            0    8179.5088    24.868348    24.932614    22.697425     14073.15    7844.3469    7369.0774    9325.1022    -575.5415   -1184.7748    20.719529   -7192.1602 
19917000    158.48976   -9533.2129   -8928.9776   -9533.2129            0    8152.8531    24.807396    24.805388    22.861783     14068.16    8045.9654    8435.5139    7977.0801    384.65051    339.31579   -65.169351   -7256.2594 
19918000    164.64963    -9480.313   -8852.5935    -9480.313            0     8875.363    24.670606    24.787583    22.985337    14056.101     8838.765    9324.6028    8462.7213   -123.10679   -59.886254    438.08201    -7033.199 
19919000    163.08851   -9511.8942   -8890.1264   -9511.8942            0    7839.1189    24.805625    24.822833    22.873184    14084.069     7882.672    7609.0987    8025.5859    -374.5545   -1164.2441    798.29086   -7279.9581 
19920000    165.77868   -9527.3497   -8895.3258   -9527.3497            0    8813.5725    24.829903    24.859964    22.753736     14045.21    8721.7332     8231.523    9487.4613    277.78547   -1255.5448    152.43361   -7089.9978 
19921000    165.86131    -9530.183   -8897.8441    -9530.183            0    7572.7682    24.817313    24.943993    22.774657    14098.489    7914.6747    6679.4541    8124.1757   -523.95738   -1112.2843     719.0739    -7340.792 
19922000    164.78382   -9518.0783   -8889.8473   -9518.0783            0    9221.9125    24.825239    24.785234    22.813334     14037.03    8647.2645    10270.394    8748.0789    11.352249   -742.42265   -751.11777   -7001.9771 
19923000    162.35572   -9509.7593   -8890.7853   -9509.7593            0    8062.1644    24.712291    24.859411    22.906956    14072.499    9437.4267     7346.413    7402.6536   -374.88255   -286.12357    606.34835   -7236.1634 
19924000    164.81018   -9525.7468   -8897.4152   -9525.7468            0    8544.7287    24.851872    24.714781    22.837394    14026.923     8543.684    8784.3035    8306.1987    -181.9098    204.98295   -291.06921   -7149.4347 
19925000    166.64145   -9517.6573   -8882.3441   -9517.6573            0     9224.536    24.765939    24.862982    22.739193    14001.774      8851.98    9253.9218    9567.7061   -428.60947   -610.07073   -536.62256   -6998.6799 
19926000    161.53954   -9520.9932   -8905.1308   -9520.9932            0    7690.2745     24.86526    24.813179    22.858587    14103.432    7548.3111    7639.3948    7883.1176   -364.24809   -121.75529    272.11421   -7323.3637 
19927000    167.25838   -9519.8395   -8882.1743   -9519.8395            0    8044.1441    24.834954    24.774418    22.901226    14090.472    8259.0545    7709.1238    8164.2539   -784.37313   -33.443602    323.29292   -7229.1423 
19928000    166.02741   -9522.5439   -8889.5717   -9522.5439            0    8618.6987    24.690313     24.85445    22.899768    14052.766    9231.3975    7670.6773    8954.0212   -683.60687   -973.62657    100.34632   -7123.2109 
19929000    163.39221   -9520.2387   -8897.3131   -9520.2387            0    8349.6527    24.873569    24.744144    22.860576    14070.117    7612.8782    9151.1779     8284.902    343.08564    460.75548    406.44182   -7183.9792 
19930000     165.0983   -9539.5835   -8910.1535   -9539.5835            0    7775.5642     24.67455    24.893998    22.897639    14064.834    9480.5082    6914.6879    6931.4965    114.02288   -482.73527   -166.13937   -7315.2206 
19931000    168.70113   -9535.7018   -8892.5361   -9535.7018            0    8019.1742    24.831744    24.787248     22.86716    14074.979    7477.9012    8214.4292    8365.1923    498.37991   -351.56672    567.53856   -7246.4472 
19932000    166.24288   -9493.9694   -8860.1757   -9493.9694            0    9158.4515     24.77428    24.818466    22.830447     14037.52    10104.881    8101.2955    9269.1774    682.34821    319.95494    178.08048   -6985.2316 
19933000    162.14266   -9503.7814   -8885.6197   -9503.7814            0    9877.6353    24.733141    24.805267    22.835486    14009.848     10552.05    9156.5559    9924.2996    123.25659    225.68026    217.60164   -6867.4285 
19934000    165.68325   -9515.0933   -8883.4333   -9515.0933            0     8201.019    24.833428    24.826581    22.831286    14076.153    7870.1426    8382.5068    8350.4076   -27.652223   -510.00816   -943.12425   -7199.8768 
19935000    170.05149   -9498.4962   -8850.1824   -9498.4962            0    8456.6004    24.723603    24.896569     22.88217    14084.729    8279.1854     8426.428    8664.1878    197.49092    853.72384    675.48888   -7113.1009 
19936000     164.7179    -9486.451   -8858.4712    -9486.451            0    8987.2245    24.881566    24.708477    22.884722    14069.197    8628.0803    9543.9909    8789.6023   -1436.8341   -379.87652   -24.456735   -7014.4293 
19937000     161.4588   -9534.3937   -8918.8391   -9534.3937            0    8265.8922    24.650503    24.950237    22.868779    14065.119    8516.6882    6834.6244    9446.3639   -1149.6825   -332.59428   -208.01334   -7223.2952 
19938000    170.07434   -9515.5856   -8867.1846   -9515.5856            0    7372.0102    24.850403    24.859404    22.819772    14097.284    7095.1062    7363.1715     7657.753    55.525976   -231.68208   -659.95237   -7351.5404 
19939000    159.24238    -9529.265   -8922.1604    -9529.265            0    7855.1312    24.856451    24.780835    22.897909    14104.279    8417.7677    6866.4955    8281.1304   -163.77702   -436.25224    1339.6593   -7306.3879 
19940000     169.3936   -9501.4498   -8855.6441   -9501.4498            0    8283.1052    24.654265    24.895799    22.919564    14067.745    9160.7346    8174.8283    7513.7526    411.89169    334.63692   -884.97636   -7156.2522 
19941000    166.82116   -9524.2214   -8888.2231   -9524.2214            0    6967.9299    24.876509    24.767129     22.96737    14150.649    6909.5198    7772.3261    6221.9438   -597.72192       524.17    4.2890692   -7450.2326 
19942000     167.9942   -9513.8522   -8873.3817   -9513.8522            0    8322.1669    24.759355    24.887274    22.854283    14082.646    8042.0507    7787.5814    9136.8685    340.70285    -1332.768    2.1438545   -7164.1672 
19943000    166.75232   -9523.4326   -8887.6967   -9523.4326            0    8720.6975    24.896458     24.75079    22.814887    14058.693    7411.7948    9720.3221    9029.9757    497.62331    473.39363    307.27252   -7099.6779 
19944000    166.23143   -9531.3447   -8897.5947   -9531.3447            0    7663.1784    24.813875    24.839818    22.868496    14095.504    7176.1539    8016.8227    7796.5585    168.35345   -282.90854    522.34899   -7322.2869 
19945000    163.83168   -9500.9919   -8876.3908   -9500.9919            0    9333.0771    24.709095     24.75794    22.936616     14031.39    9445.4741    10109.057    8444.7005    305.62928    915.26898   -563.27667   -6966.5313 
19946000    168.67715   -9517.5934   -8874.5192   -9517.5934            0    8392.0545    24.778764    24.770719    22.890562    14049.947    9099.4868    8871.2619    7205.4148    762.83253   -311.28521    265.91147    -7154.953 
19947000    170.07054   -9540.3957   -8892.0092   -9540.3957            0    7682.5897    24.793714    24.917181    22.832122    14105.444    8428.5826    6488.9286    8130.2578   -388.77752   -180.50758    532.71872   -7311.5973 
19948000    169.40886   -9517.6202   -8871.7564   -9517.6202            0    9363.3005     24.78755    24.783004    22.821208    14019.295     9322.641    9430.0292    9337.2311   -932.94166    975.07071   -603.50753   -6957.3636 
19949000    166.56828   -9501.2237   -8866.1895   -9501.2237            0    9275.8845    24.771044    24.760838     22.88755     14038.12    9460.6891    9551.5672    8815.3973    534.12035   -826.72215   -224.81146    -6967.123 
19950000    165.68695   -9524.2467   -8892.5725   -9524.2467            0    8295.7929    24.785347    24.897648    22.832327    14089.757    8185.7465    7810.0069    8891.6253    6.4133931   -239.57787   -130.53561   -7187.9143 
19951000    169.94605   -9516.5505   -8868.6386   -9516.5505            0    7476.3059     24.98683    24.771697     22.82936    14130.601    6308.0913    8279.3883     7841.438   -470.19346   -424.68993    330.17849   -7327.9191 
19952000    162.25731   -9516.9693   -8898.3705   -9516.9693            0    8364.5208    24.757573    24.857626    22.866395    14072.311    9262.3289    7607.9185     8223.315   -839.54528     -32.2393   -473.22987    -7181.718 
19953000    164.09378   -9533.3101   -8907.7098   -9533.3101            0    9535.9676    24.746287    24.657876    22.924401    13988.261      8717.79    11741.094    8149.0189   -1103.6189   -1298.0399    29.199446   -6962.3301 
19954000    164.41971   -9498.0898   -8871.2469   -9498.0898            0    8826.7955    24.790072    24.799371    22.863508    14055.986    8946.9742    8510.1359    9023.2763   -418.40494   -92.780603    305.12811   -7061.8231 
19955000    161.73074   -9529.6376   -8913.0462   -9529.6376            0    7426.6769    24.742335    24.935527    22.833951    14087.707    7433.7684    7355.0935    7491.1687   -32.381093    498.83411   -160.59818   -7387.2002 
19956000     161.1221   -9556.3657   -8942.0947   -9556.3657            0    8516.2591    24.875284    24.792905    22.756116    14034.391    8576.9863    8305.7328    8666.0581   -208.52652   -437.76887    464.81605   -7199.0106 
19957000    168.41628   -9531.1624   -8889.0828   -9531.1624            0    8073.4544     24.77286    24.908772      22.8012    14069.744    8536.8568    7437.9268    8245.5797    293.04006    -407.7622    490.23444   -7232.4682 
19958000     163.4686   -9513.6837   -8890.4669   -9513.6837            0    7603.0241    24.818713    24.836835    22.881846    14104.788    6939.8882    7810.1896    8058.9945    315.57407     235.0585   -525.42825   -7326.4954 
19959000    166.25707   -9499.9208    -8866.073   -9499.9208            0    8360.5466    24.851221    24.793258    22.888367    14102.501     7896.251    8308.1082    8877.2805   -372.57327     207.8102    34.261694   -7146.5552 
19960000    168.08383   -9519.1849   -8878.3727   -9519.1849            0    9429.7171    24.765028    24.848612    22.787299     14022.77    9423.8149      9309.24    9556.0962    333.77154    416.26015    932.67626   -6949.9227 
19961000    172.29884   -9520.4958   -8863.6141   -9520.4958            0    9189.2846    24.889294     24.80251    22.744969    14040.855    8640.4377    9500.3285    9427.0876    478.81495    637.33195    617.87616   -6981.9108 
19962000     163.1537   -9519.0881   -8897.0717   -9519.0881            0    8159.0524    24.701732    24.903372    22.875105    14071.768    9479.8703    7243.7496    7753.5373   -282.29964   -111.99805    1038.1061   -7222.6522 
19963000      163.119   -9520.7124   -8898.8283   -9520.7124            0    8523.7007    24.900756    24.638868    22.940885    14074.839    6358.8836    10352.642    8859.5764   -236.98317   -302.45287    188.40586   -7149.1931 
19964000    167.53837   -9518.1093   -8879.3766   -9518.1093            0    7667.0643    24.805626    24.818767    22.913581    14106.633    6565.4227    9010.6296    7425.1405   -518.38064     -228.271   -390.38828   -7302.0256 
19965000    165.65754   -9528.7442   -8897.1822   -9528.7442            0    7921.8229     24.84395    24.887449    22.770356    14078.969    6825.6681     8495.773    8444.0274    504.48269   -626.74766   -603.27814   -7270.6155 
19966000    167.68803   -9539.5449   -8900.2416   -9539.5449            0     9260.586    24.785608    24.797316     22.80058    14013.614    9059.5799    9395.5461    9326.6321    106.05188    468.05297   -297.75097    -7007.617 
19967000    163.07635   -9486.7199   -8864.9985   -9486.7199            0    9912.1677    24.802915    24.780625    22.781948    14002.508    9237.8317    10220.945    10277.726    100.12919   -249.70665    414.96369   -6840.8127 
19968000    167.06772   -9529.9309   -8892.9925   -9529.9309            0    7660.1362    24.832359    24.847399    22.819182    14079.881     7690.961    7360.5257    7928.9218   -314.35992    143.22486   -143.61935   -7320.0555 
19969000    162.31268   -9537.4082   -8918.5982   -9537.4082            0    6494.7513    24.847706    24.934035    22.836364    14148.351     6481.786    5703.3714    7299.0966   -349.93762    218.56007      194.884   -7578.4765 
19970000    162.29055    -9513.009   -8894.2834    -9513.009            0     7985.447    24.791864    24.774514    22.931964    14084.959    7991.7444    8337.5684    7627.0283   -495.71354     134.1051    816.22505   -7253.9554 
19971000    167.86618   -9531.6192   -8891.6367   -9531.6192            0    8098.9369    24.769068    24.850495    22.879659     14082.97    8511.9515    7732.4662     8052.393    -722.5262   -444.52109    245.78293   -7228.2311 
19972000    163.77199   -9529.4464   -8905.0729   -9529.4464            0    8306.8632    24.780442    24.889391    22.785458     14053.39    8256.1872    7590.9309    9073.4716   -395.73416    -548.7987   -221.12691   -7202.5457 
19973000    166.03477   -9522.4965   -8889.4962   -9522.4965            0    8559.0191    24.904829    24.782682    22.753249    14043.498    7131.0957    9510.5177    9035.4439   -437.96196    -6.548977    -25.75996   -7136.5234 
19974000     169.8078   -9494.6236   -8847.2388   -9494.6236            0    8297.4766    24.751304    24.933664    22.787486    14063.085    8760.8142    7417.1741    8714.4414   -318.80569    438.37894    478.16431   -7145.4623 
19975000    165.19121   -9531.9249   -8902.1407   -9531.9249            0    8002.2283    24.888109    24.698022    22.904303    14078.979    7412.3644    9071.7829    7522.5377    -450.0295    316.22432    213.59549   -7259.0635 
19976000    167.41659    -9529.953   -8891.6846    -9529.953            0    8133.9597    24.742081    24.805079     22.93798     14077.71    8688.2294      8718.73    6994.9197   -89.055426   -14.377518   -925.36904   -7221.7098 
19977000    166.51501   -9509.5325   -8874.7014   -9509.5325            0    8343.8576    24.790704    24.833784    22.881124    14086.695    7597.6909    8714.0882    8719.7937   -404.72795   -178.66248    1185.2483   -7160.5393 
19978000    169.64534   -9520.6453   -8873.8799   -9520.6453            0    8008.5797    24.864966    24.874186     22.75031    14070.971    7295.4935    8419.6452    8310.6003    28.640201    669.63371   -551.86585   -7230.4338 
19979000    164.46588    -9523.065   -8896.0461    -9523.065            0    7811.7643    24.793376    24.910808    22.765325    14060.389    7245.4038    7807.4892    8382.3999   -259.04865   -430.42496    51.366984   -7294.1942 
19980000    164.35534   -9507.7688   -8881.1713   -9507.7688            0    8423.0633      24.7775    24.730813     22.95427    14065.635     8637.388    8487.4984    8144.3036   -648.01654   -398.28446    742.51045   -7153.3241 
19981000    171.77783   -9518.9308   -8864.0354   -9518.9308            0    8488.6704    24.750433    24.847321    22.870009    14064.643    8391.5742    8600.3842    8474.0526    85.200318   -159.51179     549.2048    -7122.853 
19982000    165.21914   -9506.6577    -8876.767   -9506.6577            0    7891.4537    24.788147    24.864413    22.842267    14078.665    7933.8322    7513.4069    8227.1219    -162.2113   -523.82817    675.94606    -7256.471 
19983000    170.49685   -9508.0366   -8858.0248   -9508.0366            0    9228.7423    24.856352    24.753753    22.801965    14029.776    8956.5213    9163.0634    9566.6421    -37.03418   -448.77155   -401.97288   -6969.7329 
19984000    170.82224   -9525.6793    -8874.427   -9525.6793            0    8243.4615    24.809813    24.815151    22.836255    14059.352    8326.8721    9004.8234    7398.6892   -554.37074     95.58434   -114.73088   -7184.1775 
19985000    159.48237   -9522.3878   -8914.3683   -9522.3878            0    7403.8189    24.843589     24.76585    22.929568    14107.935    7727.5383    7812.4392    6671.4791   -312.51697    106.51129    159.04308   -7391.0343 
19986000    168.45015   -9519.3324   -8877.1236   -9519.3324            0    8195.5617    24.772313    24.826169    22.888372    14076.386    8974.6907    8037.4576    7574.5369   -3.3758619   -487.45917    432.85101   -7194.6597 
19987000    168.79316   -9541.6255   -8898.1089   -9541.6255            0    7744.4351    24.763207    24.800816     22.94555    14091.958    9179.6335      7193.53    6860.1419   -280.70008    235.74764    669.14333   -7306.4978 
19988000    167.87073   -9484.2692   -8844.2694   -9484.2692            0    8547.0783    24.869675    24.803317    22.811956    14071.565    8334.9127    9114.9777    8191.3446   -228.29295   -579.02847   -872.80129   -7090.2436 
19989000    167.56735   -9515.4226   -8876.5794   -9515.4226            0    9389.5456    24.764731    24.829089    22.825155    14034.861    9296.3272    9427.1634    9445.1463    868.50751   -12.254681    115.71355   -6954.6891 
19990000    167.24051    -9503.382   -8865.7849    -9503.382            0     8196.318     24.84368    24.889362    22.777456    14084.289    8701.1172    7536.0379    8351.7991    20.959456    -481.6543   -21.633056   -7182.2209 
19991000    165.40125   -9508.3887   -8877.8037   -9508.3887            0    7111.2229    24.759596    24.850205     22.93897    14113.913    7764.1836    7410.3889    6159.0962    49.348002    -188.7981   -270.47279   -7414.0512 
19992000    170.01337   -9519.0038   -8870.8353   -9519.0038            0    8201.9135      24.7998    24.771624    22.916111    14078.085    7793.6584     8748.744     8063.338   -239.86814    -256.9168   -541.12788   -7186.8641 
19993000    160.83852   -9515.0691   -8901.8793   -9515.0691            0    7473.2311    24.740213    24.877562    22.963398    14133.424    7608.9548    8357.4635    6453.2752   -524.76446   -609.39143      1287.72   -7361.4857 
19994000    160.92533   -9512.8162   -8899.2955   -9512.8162            0    8633.9562    24.829195    24.860153    22.754776    14045.558    7898.2848    7979.3683    10024.216    397.65009   -761.57259   -391.45594   -7130.7153 
19995000    169.11085   -9522.4851   -8877.7574   -9522.4851            0    8972.2265    24.771762    24.850697    22.786392    14027.202    9149.3394    8869.1449    8898.1951   -570.01246   -478.45442    28.607667    -7042.288 
19996000    164.27336   -9520.0173   -8893.7323   -9520.0173            0    8985.9091    24.770626    24.763542     22.87504    14031.742    9405.8979    9632.8294         7919   -698.91379    209.61383    902.29317   -7054.8688 
19997000    168.61834   -9494.8637   -8852.0137   -9494.8637            0    8711.6234    24.760967    24.820314    22.881338    14062.298    9513.4409    8826.6468    7794.7824    -544.0093    242.97825    79.846174   -7065.3975 
19998000    154.35319   -9505.4167   -8916.9519   -9505.4167            0    8203.4575    24.761937    24.835246     22.89152    14077.571    8935.9806     7658.903     8015.489   -662.26599   -65.947246    120.49492   -7232.7253 
19999000    156.00691   -9530.6667   -8935.8972   -9530.6667            0    6757.4144    24.869772    24.838411    22.892151    14141.068    5713.7253    7645.9019     6912.616   -1151.6125   -114.04449   -42.971404   -7542.2956 
20000000    169.99803     -9512.56     -8864.45     -9512.56            0    8777.9044    24.762229    24.863577    22.800072    14037.493    9093.5739    8424.1559    8815.9834    150.08645       839.87    725.45037    -7067.416 
Loop time of 568.928 on 64 procs for 250000 steps with 1920 atoms

Performance: 75.932 ns/day, 0.316 hours/ns, 439.423 timesteps/s
375.3% CPU use with 16 MPI tasks x 4 OpenMP threads

MPI task timing breakdown:
Section |  min time  |  avg time  |  max time  |%varavg| %total
---------------------------------------------------------------
Pair    | 74.675     | 77.275     | 79.294     |  14.3 | 13.58
Bond    | 1.5452     | 1.7681     | 2.1378     |  13.5 |  0.31
Kspace  | 270.78     | 278.63     | 287.72     |  25.5 | 48.97
Neigh   | 1.8573     | 1.9232     | 1.9999     |   3.7 |  0.34
Comm    | 71.836     | 81.322     | 87.242     |  43.6 | 14.29
Output  | 0.68052    | 0.68086    | 0.68252    |   0.1 |  0.12
Modify  | 90.12      | 99.439     | 106.11     |  39.4 | 17.48
Other   |            | 27.89      |            |       |  4.90

Nlocal:        120.000 ave         124 max         115 min
Histogram: 1 1 0 2 2 4 1 2 2 1
Nghost:        4204.00 ave        4234 max        4158 min
Histogram: 2 1 0 1 1 2 2 1 3 3
Neighs:        43297.8 ave       44904 max       41801 min
Histogram: 2 0 3 2 1 1 3 1 1 2

Total # of neighbors = 692765
Ave neighs/atom = 360.81510
Ave special neighs/atom = 2.0000000
Neighbor list builds = 3675
Dangerous builds = 0

unfix		3
unfix		2
unfix		1

write_data	data.final.${pid}
write_data	data.final.0
System init for write_data ...
PPPM initialization ...
  extracting TIP4P info from pair style
  using 12-bit tables for long-range coulomb (../kspace.cpp:340)
  G vector (1/distance) = 0.37491181
  grid = 30 30 30
  stencil order = 5
  estimated absolute RMS force accuracy = 0.0032194095
  estimated relative force accuracy = 9.695156e-06
  using double precision FFTW3
  3d grid and FFT values/proc = 7920 1800
Last active /omp style is kspace_style pppm/tip4p/omp
WARNING: Not all mixed pair coeffs generated from mixing. Use write_data with 'pair ij' option to store all pair coeffs. (../write_data.cpp:312)

write_restart   restart.lmp.${pid}
write_restart   restart.lmp.0
System init for write_restart ...
PPPM initialization ...
  extracting TIP4P info from pair style
  using 12-bit tables for long-range coulomb (../kspace.cpp:340)
  G vector (1/distance) = 0.37491181
  grid = 30 30 30
  stencil order = 5
  estimated absolute RMS force accuracy = 0.0032194095
  estimated relative force accuracy = 9.695156e-06
  using double precision FFTW3
  3d grid and FFT values/proc = 7920 1800
Last active /omp style is kspace_style pppm/tip4p/omp
Total wall time: 0:09:28
