LAMMPS (30 Jul 2021)
Processor partition = 0
  using 1 OpenMP thread(s) per MPI task
using multi-threaded neighbor list subroutines
variable        pid world 0 1
variable        phase world IceII IceIII

shell cd ${phase}
shell cd IceII
include Restart.lmp
echo both
log log.lammps
#include		in.partitions
include		in.temp
variable        temperature equal 32.11
variable	tempDamp equal 100.0
include		in.pressure
variable        pressure equal -831.2
variable        pressureDamp equal 1000.0 # This is 1 ps
include		in.seed
variable        seed equal 745823

units		real
atom_style	full
box tilt large
read_restart	restart.lmp.${pid}
read_restart	restart.lmp.0
Reading restart file ...
  restart file = 30 Jul 2021, LAMMPS = 30 Jul 2021
  restoring atom style full from restart
  triclinic box = (-10.609478 -9.2001371 0.064766447) to (12.589478 12.190135 21.795233) with tilt (-9.0868734 1.9252039 2.8649208)
  4 by 4 by 4 MPI processor grid
  restoring pair style lj/cut/tip4p/long/omp from restart
  restoring bond style harmonic/omp from restart
  restoring angle style harmonic/omp from restart
  1296 atoms
  864 bonds
  432 angles
Finding 1-2 1-3 1-4 neighbors ...
  special bond factors lj:    0        0        0       
  special bond factors coul:  0        0        0       
     2 = max # of 1-2 neighbors
     1 = max # of 1-3 neighbors
     1 = max # of 1-4 neighbors
     2 = max # of special neighbors
  special bonds CPU = 0.005 seconds
  read_restart CPU = 0.011 seconds
include 	in.setup
variable	out_freq equal 1000
variable	out_freq2 equal 10000
variable	out_freq3 equal 1000

timestep	2.0

neigh_modify    delay 7 every 1

include		in.tip4p
# This is TIP4P/Ice

# create groups ###
group ox type 2
432 atoms in group ox
group hy type 1
864 atoms in group hy

# set charges - beside manually ###
set group ox charge -1.1794
Setting atom values ...
  432 settings made for charge
set group hy charge 0.5897
Setting atom values ...
  864 settings made for charge

# ### TIP3P Potential Parameters ###
pair_style lj/cut/tip4p/long/omp 2 1 1 1 0.1577 8.5
pair_coeff 1 1*2 0.000 0.000
pair_coeff 2 2 0.21084 3.1668
bond_style  harmonic
bond_coeff  1 450 0.9572
angle_style harmonic
angle_coeff 1 55 104.52
kspace_style pppm/tip4p/omp 1.0e-5
pair_modify tail yes

thermo          ${out_freq}
thermo          1000
thermo_style    custom step temp pe etotal epair emol press lx ly lz vol pxx pyy pzz pxy pxz pyz enthalpy

restart 	${out_freq3} restart.lmp.${pid} restart2.lmp.${pid}
restart 	1000 restart.lmp.${pid} restart2.lmp.${pid}
restart 	1000 restart.lmp.0 restart2.lmp.${pid}
restart 	1000 restart.lmp.0 restart2.lmp.0


include         in.dump
dump            myDump all atom ${out_freq2} dump.water.${pid}
dump            myDump all atom 10000 dump.water.${pid}
dump            myDump all atom 10000 dump.water.0
dump            myDump2 all dcd ${out_freq2} dump.dcd
dump            myDump2 all dcd 10000 dump.dcd
dump_modify     myDump append yes
dump_modify     myDump2 append yes


variable natoms 	equal  "count(all)"                        # NUMBER ATOMS
variable H      	equal  "enthalpy/v_natoms"                 # ENTHALPY-per-atom
variable Vol      	equal  "vol/v_natoms"                 # volume-per-atom
fix AVG all 		ave/time ${out_freq} 1 ${out_freq} v_Vol v_H file vol_enthalpy.dat
fix AVG all 		ave/time 1000 1 ${out_freq} v_Vol v_H file vol_enthalpy.dat
fix AVG all 		ave/time 1000 1 1000 v_Vol v_H file vol_enthalpy.dat


timer           timeout 10:00:00 every 1000
New timer settings: style=normal  mode=nosync  timeout=10:00:00

fix 		1 all shake 1e-6 200 0 b 1 a 1
Finding SHAKE clusters ...
       0 = # of size 2 clusters
       0 = # of size 3 clusters
       0 = # of size 4 clusters
     432 = # of frozen angles
  find clusters CPU = 0.001 seconds
fix             2 all nph tri ${pressure} ${pressure} ${pressureDamp}
fix             2 all nph tri -831.2 ${pressure} ${pressureDamp}
fix             2 all nph tri -831.2 -831.2 ${pressureDamp}
fix             2 all nph tri -831.2 -831.2 1000
fix             3 all temp/csvr ${temperature} ${temperature} ${tempDamp} ${seed}
fix             3 all temp/csvr 32.11 ${temperature} ${tempDamp} ${seed}
fix             3 all temp/csvr 32.11 32.11 ${tempDamp} ${seed}
fix             3 all temp/csvr 32.11 32.11 100 ${seed}
fix             3 all temp/csvr 32.11 32.11 100 745823


run             250000
PPPM initialization ...
  extracting TIP4P info from pair style
  using 12-bit tables for long-range coulomb (../kspace.cpp:340)
  G vector (1/distance) = 0.36718012
  grid = 30 40 32
  stencil order = 5
  estimated absolute RMS force accuracy = 0.0045691828
  estimated relative force accuracy = 1.3759958e-05
  using double precision FFTW3
  3d grid and FFT values/proc = 5168 640
Last active /omp style is kspace_style pppm/tip4p/omp
Neighbor list info ...
  update every 1 steps, delay 7 steps, check yes
  max neighbors/atom: 2000, page size: 100000
  master list distance cutoff = 10.8154
  ghost atom cutoff = 10.8154
  binsize = 5.4077, bins = 7 5 5
  1 neighbor lists, perpetual/occasional/extra = 1 0 0
  (1) pair lj/cut/tip4p/long/omp, perpetual
      attributes: half, newton on, omp
      pair build: half/bin/newton/tri/omp
      stencil: half/bin/3d/tri
      bin: standard
Setting up Verlet run ...
  Unit style    : real
  Current step  : 11750000
  Time step     : 2
  Walltime left : 9:59:59.91
Per MPI rank memory allocation (min/avg/max) = 9.436 | 9.441 | 9.446 Mbytes
Step Temp PotEng TotEng E_pair E_mol Press Lx Ly Lz Volume Pxx Pyy Pzz Pxy Pxz Pyz Enthalpy 
11750000    33.440991   -6941.3884   -6855.3635   -6941.3884            0   -987.04213    23.198957    21.390272    21.730466    10783.353   -992.88762   -875.58959   -1092.6492    -210.1765    278.06001    171.17371   -7010.5898 
11751000    32.671123   -6941.7668   -6857.7224   -6941.7668            0   -448.55991    23.142198    21.404854    21.716721    10757.494   -405.45209   -257.38682   -682.84082   -100.81895    145.41213    158.70868   -6928.0956 
11752000    31.972401   -6940.7297   -6858.4827   -6940.7297            0   -917.13361    23.257198    21.353068    21.711209    10782.058   -913.81123   -1042.7891   -794.80047     34.10684   -140.45332   -162.14068   -7002.6976 
11753000    31.833463   -6940.2975   -6858.4079   -6940.2975            0   -778.94339    23.333147    21.266224     21.72063    10777.949   -1120.5694   -460.90202   -755.35875   -101.94815    69.478703   -32.158355   -6980.8463 
11754000    31.626797   -6944.5124   -6863.1544   -6944.5124            0   -833.99554    23.266839    21.315286    21.740763      10782.1   -925.02735   -537.66905   -1039.2902    12.148082   -347.64111   -56.312313   -6994.2968 
11755000    32.639525   -6943.4511   -6859.4879   -6943.4511            0   -782.69677    23.198201    21.417206    21.689828    10776.388   -807.67096   -798.51246   -741.90688    242.27309    212.51935    299.15877   -6982.4985 
11756000    33.892163   -6943.3879   -6856.2024   -6943.3879            0   -771.50687    23.133894    21.464062    21.683202    10766.736   -656.75986   -1141.0575   -516.70325    47.163781    206.13068    213.77088   -6977.3458 
11757000    30.897107   -6940.1511   -6860.6702   -6940.1511            0   -1114.8318    23.223508    21.373851    21.747803    10795.083   -1074.4704    -870.6138    -1399.411    6.3862427    220.14371   -415.57254    -7036.184 
11758000    32.595703   -6940.3821   -6856.5316   -6940.3821            0   -741.44037    23.304543    21.280041    21.743444    10783.044   -733.59227   -463.66639   -1027.0625    281.67318   -454.12479   -92.755459   -6973.1303 
11759000    32.799153   -6936.7353   -6852.3615   -6936.7353            0   -674.73538    23.294452    21.291826    21.725246    10775.319   -871.92696   -700.14569   -452.13349   -321.14345    233.44888   -22.084021   -6958.3941 
11760000    33.394303   -6943.3401   -6857.4353   -6943.3401            0   -1053.8178    23.202551      21.3886    21.709103    10773.578   -977.01164   -765.30052   -1419.1411    226.00002    74.812333   -77.900494   -7023.0128 
11761000     32.09748   -6941.4864   -6858.9176   -6941.4864            0   -741.58356    23.172035    21.440405    21.667278     10764.69    -357.8237   -1188.6543   -678.27266    248.34432     377.1063    297.77274   -6975.3402 
11762000    31.869808   -6935.0779   -6853.0948   -6935.0779            0   -1090.6918    23.285145    21.364707    21.690208    10790.451   -1580.0355   -955.42412   -736.61576    102.93145   -130.31735    47.980219   -7024.7344 
11763000    33.451297   -6940.7802   -6854.7287   -6940.7802            0   -870.06643     23.32717    21.282263     21.73121    10788.567   -896.47076   -924.59144   -789.13708   -784.19386    332.10637   -526.53392   -6991.6252 
11764000    30.658317   -6941.1941   -6862.3275   -6941.1941            0   -767.95062     23.27474    21.344532    21.701358    10780.984    -832.3255   -763.88752   -707.63883    105.45896   -390.59969    305.94396    -6983.072 
11765000    32.892514   -6942.0432   -6857.4292   -6942.0432            0   -939.35873     23.15339    21.439848    21.713608    10778.747   -545.33725   -1426.7149   -846.02404   -19.342136    391.73972    110.65814   -7005.0936 
11766000    33.519868   -6944.8726   -6858.6448   -6944.8726            0   -863.91139    23.154133    21.416974    21.724079    10772.785   -605.04156   -1040.4976   -946.19504   -191.91892   -46.945337    434.29421   -6994.3739 
11767000    32.386677   -6941.4702   -6858.1574   -6941.4702            0   -819.06745    23.240077    21.341218    21.723423      10774.2   -702.44484   -734.62978   -1020.1277      146.514   -12.571799   -214.14973    -6986.858 
11768000    30.666323   -6941.5838   -6862.6965   -6941.5838            0   -746.96875    23.318022    21.267811    21.722217    10772.553   -1040.8891   -414.98095   -785.03616    92.041644    -443.0963    -299.5121   -6980.0503 
11769000    32.240046   -6943.4529   -6860.5174   -6943.4529            0   -737.81287    23.260307    21.316015    21.724254    10771.256    -622.9378   -753.64638   -836.85443    97.206512    191.79882   -204.00803   -6976.4187 
11770000    32.021368   -6943.2066   -6860.8336   -6943.2066            0   -770.88478    23.210845      21.3921    21.698931    10774.142    -750.9057   -1012.3431   -549.40551     28.66191    86.784472    449.45589   -6981.9626 
11771000    31.542061   -6944.2209   -6863.0809   -6944.2209            0   -877.95206    23.188678    21.445152    21.666796    10774.567   -959.95373   -1406.5473   -267.35514     34.17919    461.15904    198.35557   -7001.0388 
11772000    32.541497   -6941.2035   -6857.4925   -6941.2035            0    -974.6766    23.245488    21.386082    21.702923    10789.172   -1064.9263    -910.7909   -948.31263    96.145802   -193.58266    171.13722   -7010.8569 
11773000    32.336037   -6942.5905    -6859.408   -6942.5905            0   -674.80446    23.310273    21.293454     21.69988     10770.87   -777.99275    -288.1988   -958.22184   -244.74012   -381.69741   -499.52719   -6965.4077 
11774000    33.875396   -6936.3061   -6849.1637   -6936.3061            0    -796.7177    23.269607    21.334505    21.703234    10774.474   -766.01956   -656.18188   -967.95166    -249.6563   -292.27296   -575.16893   -6974.3557 
11775000    33.026071   -6938.2032   -6853.2456   -6938.2032            0   -1023.6465    23.169386    21.433976    21.703449    10778.194   -1183.2469   -1105.8489   -781.84369   -119.93097     193.0082   -184.48744   -7014.1515 
11776000    33.105696   -6939.4182   -6854.2558   -6939.4182            0   -688.01072    23.180609    21.419028    21.691771    10770.097   -801.94236   -583.99348   -678.09633   -2.2289331    367.40831    363.36611   -6962.3222 
11777000    32.398031   -6939.4504   -6856.1084   -6939.4504            0   -791.99236    23.265179    21.359712    21.694498     10780.81   -1183.4403   -914.25771   -278.27904    326.01739    225.07363     205.0668    -6980.631 
11778000    31.087547   -6941.4906   -6861.5197   -6941.4906            0    -850.5523    23.323904    21.290302    21.718823     10784.98    -1178.818    -514.0066   -858.83233   -208.66647    42.450051   -211.95196   -6995.3013 
11779000     31.77706   -6944.3045   -6862.5599   -6944.3045            0   -944.89313    23.277421    21.316895    21.728174    10781.571   -1016.3271   -658.05955   -1160.2928   -202.54102    302.32648   -189.85552   -7011.1332 
11780000    34.153838   -6941.6383   -6853.7797   -6941.6383            0    -880.0072    23.156884     21.42626    21.729158    10781.257   -816.88234   -1153.3862   -669.75305    421.67178   -212.38177    321.45057   -6992.1463 
11781000    34.076015   -6942.2262   -6854.5677   -6942.2262            0   -958.24895    23.157862    21.410905     21.74083    10779.773   -547.74194   -1501.6623   -825.34257    37.864196    130.14825    291.43206   -7005.2159 
11782000    31.575731   -6936.6534   -6855.4267   -6936.6534            0   -591.42012    23.244428    21.302329    21.749629    10769.556   -480.06497   -162.54169   -1131.6537    191.11037   -142.59786    -199.9306   -6948.3169 
11783000    32.006416   -6940.2179   -6857.8834   -6940.2179            0   -674.11041    23.315426    21.278972    21.706711    10769.314   -924.45131   -207.80775   -890.07216   -5.6938833   -409.81885    -399.6101   -6963.7587 
11784000    32.231045   -6943.4604    -6860.548   -6943.4604            0   -796.89038    23.268793    21.337714    21.702588    10775.397   -684.09508   -389.75974   -1316.8163   -100.25129   -243.45587   -247.28126   -6985.7779 
11785000    32.095472   -6944.6099   -6862.0462   -6944.6099            0   -1096.2603    23.180532    21.445249    21.706345     10790.49   -1064.8981   -1237.9832   -985.89967    134.98768    300.23292   -28.707047   -7034.5628 
11786000    31.259516   -6940.4699   -6860.0567   -6940.4699            0   -1038.0264    23.152526    21.429559      21.7479    10790.186   -757.31061   -1396.0581   -960.71054   -278.41401    328.44299    334.60879   -7023.4045 
11787000    33.386265   -6943.5109   -6857.6268   -6943.5109            0   -772.10225    23.232344    21.336266    21.733116     10772.92   -875.40932   -810.87874   -630.01868   -172.26584   -13.286438    368.36857   -6978.9333 
11788000    32.148741   -6941.7414   -6859.0407   -6941.7414            0   -721.65427    23.320519    21.302628    21.697087     10778.86   -1047.8631    -508.3465   -608.75316    135.83924    48.493835   -64.508388   -6972.4838 
11789000    31.849504   -6939.9072   -6857.9762   -6939.9072            0   -804.18056    23.278479     21.37009    21.660707    10775.405   -924.32012   -831.21196    -657.0096    86.407828   -146.23409   -175.16285   -6984.3518 
11790000    31.242013   -6940.9852    -6860.617   -6940.9852            0    -712.4825    23.214433    21.428361    21.646967    10768.224    -966.9138   -913.03829    -257.4954    361.01657    207.86715    306.87149   -6972.5078 
11791000    31.916031    -6943.561    -6861.459    -6943.561            0   -883.74629    23.213931    21.371202    21.712941    10771.999   -565.22241   -1136.2978   -949.71861    323.20911   -358.75259   -150.75779   -7000.2942 
11792000    31.295001   -6939.2734   -6858.7689   -6939.2734            0   -982.94749    23.242329    21.322099    21.766129    10786.754   -964.00011   -399.37648   -1585.4659   -474.29424   -159.28147   -312.47884   -7013.4001 
11793000     32.32371   -6940.1928   -6857.0421   -6940.1928            0   -524.67401    23.247385    21.294111    21.761405    10772.601    -741.1843    121.53247    -954.3702   -312.36363    97.374325   -389.26545   -6939.4722 
11794000    32.862125   -6941.5106   -6856.9748   -6941.5106            0   -977.36619    23.202574    21.392972    21.743697    10792.963   -1007.5139   -870.27494   -1054.3098    530.35362   -377.67454   -108.85283   -7010.8164 
11795000    30.507519   -6946.5905   -6868.1117   -6946.5905            0   -673.37212    23.174393    21.411143    21.704331    10769.477   -297.48234   -1253.2842   -469.34983   -54.062272    -60.58597    43.471533   -6973.8727 
11796000    32.520715   -6940.1522   -6856.4946   -6940.1522            0   -1087.1149    23.245222    21.399635    21.679901    10784.434   -1502.8521   -1057.1991   -701.29349     -207.741    562.85293    150.91615   -7027.4759 
11797000    30.494681   -6940.0363   -6861.5906   -6940.0363            0   -894.22101    23.314738    21.311353    21.691088     10777.62   -1229.5973   -606.48998    -846.5758    139.41141   -63.472936    633.62391   -7002.1448 
11798000    32.374891     -6939.82   -6856.5375     -6939.82            0   -752.25265     23.28192    21.314394    21.723467    10780.054   -1190.6468   -550.64736   -515.46382    97.537402    232.23966    211.19189   -6974.8037 
11799000    32.370327   -6938.5286   -6855.2579   -6938.5286            0   -1037.7227    23.176332    21.413046    21.769015    10803.437   -603.18573   -1400.9462   -1109.0363   -278.88209   -134.83029   -34.284613   -7018.7584 
11800000    32.618293    -6941.795   -6857.8864    -6941.795            0   -1122.1091    23.149307    21.451339     21.73244    10791.974   -709.85599   -1149.6344   -1506.8368    461.49334    53.823554    -418.7091    -7034.495 
11801000     32.10046    -6936.931   -6854.3545    -6936.931            0   -827.81081    23.210795    21.374956    21.734752    10783.257   -1161.8976   -727.99665   -593.53816    460.34807    40.531504    331.72269   -6984.5383 
11802000    32.308891   -6943.8527     -6860.74   -6943.8527            0   -519.58662    23.294886    21.259927    21.723733    10758.626   -487.46281   -84.391912   -986.90513   -594.31306    139.53685     20.96387    -6942.265 
11803000     32.28344    -6944.459   -6861.4118    -6944.459            0   -974.13343    23.270965    21.325162    21.722658    10780.023   -720.30098   -747.82647   -1454.2728    74.358773   -399.38124   -256.56696   -7014.5608 
11804000    33.524274   -6941.7493   -6855.5101   -6941.7493            0   -1083.7264    23.195283      21.4311    21.709092    10791.599   -808.49638   -1101.8663   -1340.8165    330.65789    150.13971   -345.85286   -7026.0718 
11805000     32.50068   -6940.4317   -6856.8257   -6940.4317            0   -945.98569    23.165957    21.436066    21.708066    10779.943    -744.6467   -1370.2748   -723.03556    -209.6751    305.50668    306.79435   -7005.5483 
11806000    33.678772   -6941.3289   -6854.6923   -6941.3289            0   -854.69991    23.191938    21.392868    21.731549    10781.936    -597.6537   -1173.8171   -792.62895   -397.44408    540.82606    482.59516   -6989.0883 
11807000    32.602783   -6942.9787     -6859.11   -6942.9787            0   -908.87054    23.283256    21.353128    21.705549    10791.355   -1615.7767   -332.44339   -778.39157    548.76572   -49.982599   -47.290642   -7002.1488 
11808000    31.909713   -6940.4813   -6858.3955   -6940.4813            0   -865.18582    23.276568    21.354039     21.70478    10788.334   -776.79548   -1157.4479   -661.31407   -179.12871   -420.32884   -28.210607   -6994.5211 
11809000      33.3826   -6942.9898   -6857.1151   -6942.9898            0   -529.65886    23.164535    21.398583    21.719883     10766.29   -76.927083   -705.15855   -806.89095   -157.86616     275.3295   -183.56179   -6940.2796 
11810000    31.780737    -6945.283    -6863.529    -6945.283            0    -723.9363     23.17185    21.377892    21.726358    10762.484   -504.20999   -986.43113   -681.16777    561.81077   -483.14587    291.92068   -6977.1579 
11811000    32.387907   -6942.2815   -6858.9656   -6942.2815            0   -1084.8612    23.233621    21.337154    21.750816    10782.735   -1541.0122   -490.34968   -1223.2216   -96.000452    620.43722    302.03402   -7029.5655 
11812000    30.841469   -6936.0189   -6856.6811   -6936.0189            0   -855.88597    23.286616    21.314453    21.719438    10780.258   -1342.2348   -279.16317   -946.25998   -277.06374    124.03654   -154.07171   -6991.2426 
11813000    33.192824   -6937.6938   -6852.3072   -6937.6938            0   -874.33001    23.264098    21.367951    21.707726    10791.043   -594.00906    -1149.527   -879.45396    316.65901   -302.03139   -473.12708   -6989.9061 
11814000    31.230259   -6940.7131   -6860.3752   -6940.7131            0   -854.69301    23.199581    21.369199    21.752556     10783.97   -272.09516   -906.94351   -1385.0404    26.865266     -202.734    61.246915   -6994.7955 
11815000    31.233445   -6944.3477   -6864.0016   -6944.3477            0   -1071.4194    23.202014    21.380211    21.743592    10786.213   -922.23087   -1147.0282    -1144.999    40.929575   -16.466869    299.07456   -7032.5421 
11816000    33.253133   -6940.3172   -6854.7756   -6940.3172            0   -779.78414     23.17575     21.35257     21.77614     10776.18   -706.99964   -378.41887   -1253.9339     155.0329    138.96786    88.453278   -6977.3261 
11817000    30.948949   -6943.5076   -6863.8933   -6943.5076            0   -907.82304    23.218409    21.370097    21.739976    10786.934   -378.31396    -1214.808   -1130.3471    -318.4897   -365.72042   -433.39083   -7006.7087 
11818000    32.814936   -6945.2882   -6860.8738   -6945.2882            0   -1100.6466     23.26834    21.343793    21.726081    10789.925   -1393.7312   -792.44511   -1115.7636   -285.30062   -547.63266    8.6341664   -7034.0715 
11819000    31.338306   -6945.1389    -6864.523   -6945.1389            0   -972.81039    23.228338    21.358173    21.720963    10776.092   -1128.4014     -838.867   -951.16278   -104.04652    -96.40564    22.961671   -7017.4082 
11820000    33.158654   -6945.7501   -6860.4515   -6945.7501            0   -532.70577    23.194764    21.373372    21.692912    10754.268   -536.39591   -641.08694   -420.63446     327.0694   -33.536177    109.54355   -6944.0011 
11821000    31.463769    -6938.437   -6857.4983    -6938.437            0   -1059.6538    23.256597    21.418106    21.643179    10780.733   -1269.1595   -1393.2475   -516.55432    71.555535    402.36155    70.437407   -7024.1034 
11822000    33.915111   -6940.0647   -6852.8201   -6940.0647            0    -899.3597     23.30089    21.390759    21.632216     10782.01   -1329.9882   -954.72929   -413.36163   -496.74112    193.50847    29.175849   -6994.2396 
11823000     31.83079   -6943.3382   -6861.4555   -6943.3382            0   -1228.3264    23.333671     21.39084    21.627368      10794.8   -1629.3798   -1412.4462    -643.1532   -123.40575   -416.59916   -79.586857   -7054.8322 
11824000    32.864247   -6943.5255   -6858.9843   -6943.5255            0   -801.14218    23.230443    21.388858    21.696501    10780.398   -634.07828   -1101.8221   -667.52619   -34.781573    -61.44892   -164.77228   -6984.9407 
11825000    32.348485   -6942.8794   -6859.6649   -6942.8794            0   -745.74483    23.207223     21.38671     21.70037    10770.461   -716.01903    -661.8119   -859.40356    65.086109    19.473142     507.2105   -6976.8036 
11826000    31.206136    -6940.067   -6859.7911    -6940.067            0    -858.1468    23.173099    21.389247    21.741686    10776.379   -727.06085   -1024.5404   -822.83909    410.57771    272.39462      141.484   -6994.6595 
11827000    31.344441   -6942.2947   -6861.6631   -6942.2947            0   -951.63019    23.240626     21.29363    21.804255    10790.431   -1040.9077   -391.99486    -1421.988    52.244711   -87.938498   -320.41145   -7011.4186 
11828000    32.587082   -6937.3483     -6853.52   -6937.3483            0   -947.91894    23.261548    21.313484    21.762656    10789.591   -977.85933   -533.63721   -1332.2603   -594.69005    418.44707   -520.84915   -7002.6799 
11829000    31.974223   -6945.0814   -6862.8296   -6945.0814            0   -596.94511    23.234596    21.356335    21.698432    10766.888   -836.58858   -451.68859   -502.55815   -10.616574    248.43196    305.49285   -6956.5643 
11830000    34.180914   -6941.7511   -6853.8228   -6941.7511            0   -685.51729    23.238094    21.383302    21.690169    10778.001   -609.33524   -970.35224    -476.8644    477.48781   -311.90454    420.56071   -6961.5765 
11831000    31.010336   -6940.9653   -6861.1931   -6940.9653            0    -888.4405    23.267357    21.349415    21.712883    10785.754   -1367.4212   -589.06553   -708.83483    80.022159    313.20985   -56.352193   -7000.9441 
11832000    31.014744   -6941.2908   -6861.5072   -6941.2908            0   -826.48533    23.263514    21.332406    21.730748    10784.247   -1056.8829   -680.91506   -741.65808   -183.58174    63.522631     -12.3324   -6991.4945 
11833000    32.254909    -6941.136   -6858.1622    -6941.136            0   -533.42911    23.177585    21.354131    21.751999    10765.873    30.571014    -425.8919   -1204.9664   -366.56425    76.014187   -268.09732   -6941.9155 
11834000    32.137993   -6935.4858   -6852.8127   -6935.4858            0   -883.44113    23.179026    21.430683     21.68854    10773.616   -351.39476   -1268.7377    -1030.191    417.34207   -442.88675    6.3317596   -6991.6209 
11835000    32.183453    -6942.913    -6860.123    -6942.913            0   -734.68713    23.215067     21.40741    21.665595    10767.247   -712.70903   -1195.7003   -295.65204    205.20765    126.23076    98.995674   -6975.4904 
11836000    32.154235      -6944.1   -6861.3852      -6944.1            0   -1065.2347    23.307828    21.347072    21.682561    10788.242   -1465.2781   -1018.7172   -711.70867   -576.78203     36.00627    438.41158   -7028.9844 
11837000    30.824301     -6942.26   -6862.9663     -6942.26            0   -648.37861    23.259518    21.350099    21.691658    10771.926   -551.49607   -923.77229   -469.86747    -397.0987   -99.032199   -20.797106    -6964.825 
11838000    33.232452   -6943.7401   -6858.2516   -6943.7401            0   -1024.9501    23.235251    21.366747    21.728186    10787.212   -1198.4181   -1164.8584    -711.5737    212.33838    130.68994    21.870158   -7019.4972 
11839000    30.357601   -6942.7525   -6864.6594   -6942.7525            0   -729.70888    23.199729    21.387079     21.71041     10772.15   -701.42862   -595.84307   -891.85494   -195.75756    84.093039   -161.96411   -6979.2972 
11840000    31.201997   -6941.7699   -6861.5047   -6941.7699            0   -606.97892    23.174526    21.364265    21.734659    10760.976    80.116947   -1079.1223   -821.93142    10.086705    69.897815   -28.157626   -6956.7626 
11841000    31.551828   -6944.0034   -6862.8382   -6944.0034            0   -874.95174    23.246524    21.299101    21.770623     10779.29   -986.55008   -549.93333   -1088.3718    158.47773   -177.53217    200.02847   -7000.3849 
11842000    31.749137   -6939.9477    -6858.275   -6939.9477            0   -334.41319    23.237563    21.267995    21.771429    10759.797   -435.77749    181.33136   -748.79345   -111.84453    -101.4284   -143.22665   -6910.7513 
11843000     31.65663    -6942.306   -6860.8712    -6942.306            0   -1043.8525    23.228129    21.373514    21.731953    10789.192   -925.83537   -1107.2425   -1098.4796   -465.51454     331.4877      133.861   -7025.1207 
11844000    31.586047    -6939.698   -6858.4449    -6939.698            0   -1189.3261    23.195529     21.41602    21.729411    10794.214   -1122.7143   -1472.0736   -973.19037    338.96073   -257.59102    155.51708   -7045.6716 
11845000    30.588063   -6941.9396   -6863.2536   -6941.9396            0   -1088.7352    23.211395    21.385274    21.738054    10790.379   -1317.3091   -934.42468   -1014.4718    326.85775    202.60395    505.57974   -7034.5842 
11846000    33.093999   -6939.9733    -6854.841   -6939.9733            0   -489.79033     23.25971    21.310031    21.700059    10755.963   -534.52277   -467.73176   -467.11645   -249.98434    352.44067    240.34852   -6931.6718 
11847000    31.614847   -6941.2346   -6859.9073   -6941.2346            0   -536.46842    23.247162    21.325422    21.712263    10763.975    -592.3411   -412.70883   -604.35532   -45.879485   -271.30197   -201.54858    -6944.123 
11848000    30.876727   -6944.4589   -6865.0304   -6944.4589            0   -1273.9453    23.230667    21.416662    21.699795    10796.155   -1107.6411   -1359.8386   -1354.3563    215.49162   -54.525075   -19.943641   -7065.6142 
11849000    31.541891   -6939.8968   -6858.7572   -6939.8968            0   -669.00924    23.150396    21.466894     21.66017    10764.392   -303.00147   -1202.2837   -501.74252   -322.03723    -58.52037    194.70267   -6963.7834 
11850000    31.511243   -6943.6981   -6862.6374   -6943.6981            0   -699.21931    23.196476    21.413047      21.6819    10769.556   -512.88874   -1170.2396   -414.52955   -335.67508    43.899647    138.59645   -6972.4588 
11851000    30.921507    -6942.981   -6863.4373    -6942.981            0   -1124.0798    23.301105    21.335443    21.707202    10791.505   -1226.8129   -1114.6154    -1030.811    282.30673   -433.43845    260.19035   -7040.3484 
11852000    32.044928   -6941.5959   -6859.1623   -6941.5959            0   -1121.9057    23.268965    21.352825    21.719106    10791.314   -865.54568   -1152.8852   -1347.2862    13.183106   -486.82037    134.34598   -7035.7281 
11853000     33.11234   -6939.9843   -6854.8048   -6939.9843            0   -799.59454    23.163293    21.415592     21.72824    10778.416    -501.2348     -1043.41   -854.13885     142.7867   -329.95356    192.45972   -6980.4948 
11854000    31.725516   -6939.3287   -6857.7168   -6939.3287            0   -801.24708    23.152706    21.399633    21.759341     10780.87   -383.77224   -858.18885   -1161.7802   -76.677309    267.15938    244.75046   -6983.6952 
11855000    32.321669   -6940.3645    -6857.219   -6940.3645            0   -572.51795    23.206269    21.302705    21.767266    10760.785   -337.05674    -358.9922   -1021.5049   -67.120296   -36.374398   -214.64933   -6947.0671 
11856000    31.215696   -6941.9221   -6861.6217   -6941.9221            0   -1049.5965    23.315423    21.259357    21.770515    10791.011   -1659.9212   -9.4314179    -1479.437    157.19293    87.828913   -180.43141   -7026.8028 
11857000    31.731173   -6942.4968   -6860.8702   -6942.4968            0   -933.26787     23.25659    21.322884    21.750024    10785.784   -962.44854   -715.12016   -1122.2349    67.194121   -80.624064     192.2672   -7007.6729 
11858000     32.53447   -6943.1184   -6859.4254   -6943.1184            0   -738.65444    23.174558     21.44156    21.681079      10773.3   -222.05666   -1067.9966   -925.91008    388.49296   -369.28136   -294.78414    -6975.481 
11859000    31.705398   -6943.4084   -6861.8482   -6943.4084            0   -687.74221    23.154526    21.428671    21.707974    10770.861    -291.6814   -962.31804   -809.22719   -86.433394   -77.596226   -76.521744   -6969.8801 
11860000    30.919823   -6940.1851   -6860.6457   -6940.1851            0   -1105.8324    23.234427    21.369058     21.73867    10793.202   -895.84245    -1157.937   -1263.7178    129.92769   -296.09623    188.14588   -7034.7123 
11861000    32.244299   -6941.1188   -6858.1723   -6941.1188            0   -948.57348     23.27757    21.316409    21.732692    10783.636   -1311.9117   -1087.6629   -446.14586   -121.81316    207.70977    181.80704   -7007.3528 
11862000    32.936736   -6943.2725   -6858.5447   -6943.2725            0   -905.29538    23.274417    21.333104     21.70591    10777.322   -927.06804   -1024.8657    -763.9524    41.197777    -88.21817    -94.10406   -7000.8356 
11863000    32.473704   -6941.1691   -6857.6325   -6941.1691            0   -650.37982    23.230457    21.418846    21.631332    10763.093   -929.05118   -479.41281   -542.67547   -107.61098    185.91327   -314.50118   -6959.7218 
11864000    33.884548   -6944.0085   -6856.8426   -6944.0085            0   -751.76877    23.217276    21.424887    21.637879    10763.276   -617.12027   -1279.1297   -359.05629   -490.28069    14.314682    103.04135   -6974.8488 
11865000    32.127263    -6941.192   -6858.5466    -6941.192            0   -1030.4155    23.256167    21.345419    21.728436     10786.27    -557.1628   -995.02232   -1539.0613   -87.627469   -312.12765   -24.663557   -7020.6379 
11866000    30.880813   -6944.4583   -6865.0193   -6944.4583            0   -725.31795    23.265944    21.281708    21.766258    10777.324   -973.44579   -162.95869   -1039.5494    -84.95497   -157.84738    164.08343    -6979.022 
11867000    29.621703   -6945.0263   -6868.8263   -6945.0263            0   -909.04077    23.220151    21.307625    21.804321    10788.043   -1359.5159   -352.71573   -1014.8907   -106.22481    624.12724   -148.08223    -7011.848 
11868000    31.572174   -6944.4355    -6863.218   -6944.4355            0   -967.36683    23.180976    21.406235    21.737762    10786.656   -566.24981   -1293.6036   -1042.2471   -81.768248    24.872682   -104.48568   -7015.3967 
11869000    30.662145   -6938.7627   -6859.8862   -6938.7627            0   -768.19073     23.17938    21.419394    21.709444    10778.484    -506.4918   -1101.7074   -696.37301    473.40472   -45.248567    195.00849   -6980.6405 
11870000    32.126197   -6942.7437    -6860.101   -6942.7437            0   -575.55882    23.295068    21.319524    21.674793    10764.564   -1167.4924   -306.09258   -253.09151   -180.83174   -118.97403    98.412055    -6950.458 
11871000     32.59148   -6944.0052   -6860.1656   -6944.0052            0   -881.85643    23.296679    21.330189    21.693172    10779.827   -1060.1442   -1073.9265   -511.49851   -368.06484    87.784451    228.60741   -6998.8047 
11872000    32.987978    -6938.822   -6853.9625    -6938.822            0   -269.87343    23.248313    21.341188    21.668702    10750.853   -428.08518   -645.56414    264.02903   -49.869055    54.961814     344.0542    -6896.276 
11873000    32.450515   -6943.9227   -6860.4457   -6943.9227            0     -818.932    23.190595    21.442335    21.669344    10775.309   -1068.4263   -1047.0555   -341.31415    431.30341    180.66147    174.30784   -6989.1383 
11874000    32.364311   -6940.5935   -6857.3382   -6940.5935            0   -389.84524    23.170323    21.429014    21.671004    10760.026   -587.59017   -378.01942   -203.92614    257.23415    -103.1409   -376.80734   -6918.5143 
11875000    33.021749   -6941.0551   -6856.1087   -6941.0551            0   -785.72147    23.254396    21.341573    21.719643    10779.141   -775.55942   -553.42732   -1028.1777    17.959509   -113.06635   -84.786105   -6979.6262 
11876000    32.997991   -6945.0351   -6860.1498   -6945.0351            0   -1028.1548    23.315852    21.275485    21.755958    10792.175   -1415.6519   -382.94306   -1285.8695    159.20107   -436.32536    85.062315    -7021.974 
11877000    32.368381   -6943.0721   -6859.8064   -6943.0721            0   -724.51251    23.203589    21.323184    21.773774    10773.106   -740.69876   -515.66256    -917.1762   -120.25623       581.81    271.87841    -6973.638 
11878000    31.528573   -6940.2546   -6859.1493   -6940.2546            0   -727.50302     23.17355    21.376116    21.743974    10771.105   -304.71477   -783.46814   -1094.3261    306.11225   -392.07513     274.5914   -6973.4295 
11879000    32.026136   -6936.2282   -6853.8429   -6936.2282            0   -640.52262    23.216104    21.358494    21.726013    10773.082   -402.81197   -809.78999    -708.9659    249.41643    241.54165   -268.04413   -6954.4782 
11880000    30.289669   -6943.3627   -6865.4444   -6943.3627            0   -840.46367    23.262103    21.320666     21.73836    10781.434   -793.46259   -606.56479   -1121.3636     125.0039   -193.36292    283.75517   -6997.5956 
11881000     30.25709   -6942.0113   -6864.1768   -6942.0113            0   -622.97661    23.261575    21.310583    21.733498     10773.68   -722.94007   -248.47521   -897.51455    300.72645   -283.79479   -237.86379   -6962.0608 
11882000     32.69447   -6939.1072   -6855.0027   -6939.1072            0   -735.69091    23.185227    21.372535    21.738773    10772.151   -408.17933   -686.16305   -1112.7303   -274.75525     212.0513    19.475427   -6970.5803 
11883000    31.995611   -6940.4541   -6858.1473   -6940.4541            0   -762.45216    23.191434    21.404461    21.691257    10767.543   -904.92861   -887.17194   -495.25593    229.17137   -256.16195    138.27564   -6977.8779 
11884000    31.352741   -6943.8544   -6863.2014   -6943.8544            0   -853.75956    23.234054    21.394108     21.68414    10778.576   -1125.9586   -861.41899   -573.90111   -31.139554   -2.1103567   -213.67217   -6997.4077 
11885000    31.735934   -6945.4379   -6863.7992   -6945.4379            0   -605.00663    23.257498    21.370709    21.673612    10772.419   -523.54319   -932.30545   -359.17126   -144.73889   -65.560143   -841.89355   -6958.8485 
11886000    33.179185   -6941.0151   -6855.6637   -6941.0151            0   -1056.0846    23.249902    21.363822    21.718208    10787.581   -1091.8528   -921.80584   -1154.5951    157.14792   -238.32515   -43.998425    -7021.813 
11887000    32.539696   -6944.3248   -6860.6185   -6944.3248            0   -919.68548    23.220195    21.333333    21.748091    10773.224   -872.23994   -599.43449    -1287.382   -40.015985    449.15316    454.79089   -7005.1161 
11888000     30.57809   -6941.1709   -6862.5106   -6941.1709            0   -840.24121    23.236619    21.332436     21.73566    10774.229   -1063.4462   -693.86076   -763.41663    104.30569   -285.77848    291.22935   -6994.5387 
11889000    32.447815   -6945.7461   -6862.2761   -6945.7461            0   -384.97952    23.210001    21.351818    21.713032    10760.451   -414.02535   -214.00191   -526.91131     383.0468     50.22213   -60.067152    -6922.691 
11890000    31.254088   -6939.8631   -6859.4639   -6939.8631            0   -954.81195     23.22972    21.342407    21.764518    10790.372   -916.54136   -469.45889   -1478.4356    379.36863   -29.825606   -125.70438   -7009.7193 
11891000    31.076956   -6941.3568   -6861.4132   -6941.3568            0   -1255.9059    23.218205    21.331747    21.806419    10800.389   -978.71148   -1545.8671   -1243.1391    240.87048    251.31321    406.50583   -7059.2343 
11892000     31.74945   -6941.3962   -6859.7227   -6941.3962            0   -648.77519    23.222034    21.346166    21.725062    10769.143   -438.21775   -502.41731   -1005.6905    -379.7293    76.213785      88.9403   -6961.6173 
11893000    31.959327   -6940.2388   -6858.0254   -6940.2388            0   -815.37438    23.218916    21.417203     21.66659    10774.453   -778.39157   -1031.4002   -636.33141   -44.293003   -184.58329   -547.44181   -6986.1487 
11894000    32.214193   -6943.4112   -6860.5422   -6943.4112            0   -1075.5979    23.269603     21.39505    21.647207    10777.156   -1406.6639   -1256.0654   -564.06453   -26.571054   -40.703187   -174.97809   -7029.5979 
11895000    32.475502   -6938.7768   -6855.2356   -6938.7768            0   -685.46471    23.262908    21.366625    21.664824    10768.497    -946.8039   -828.71183   -280.87838    -451.0917    482.83922    -76.49743   -6962.8861 
11896000    31.679869   -6941.8381   -6860.3436   -6941.8381            0   -782.40563    23.239574    21.355706     21.70138    10770.341   -704.95976   -910.32333   -731.93381   -323.83657     33.35167    -18.65896   -6983.2394 
11897000    30.631082   -6942.2395   -6863.4429   -6942.2395            0    -640.3823    23.205626    21.390916      21.6931    10768.229   -693.20805    -711.7026   -516.23626    85.535017    253.36722   -22.330985   -6964.0109 
11898000    30.437747   -6941.8141   -6863.5149   -6941.8141            0   -683.07251    23.232104    21.349326    21.728485    10777.106   -779.70762   -489.91461    -779.5953    439.54119    36.774558   -17.008144   -6970.8755 
11899000       31.339   -6936.3371   -6855.7194   -6936.3371            0   -820.43861    23.236347    21.338265    21.749568    10783.943    -495.2773   -793.03971   -1172.9988    339.19019   -64.320095   -349.32794   -6984.7521 
11900000    31.309355   -6941.6323   -6861.0909   -6941.6323            0   -897.75781    23.250656    21.297412    21.766209    10778.165   -1079.1103   -437.16083   -1177.0023   -18.494716   -116.08356    507.17334   -7002.2081 
11901000    33.517528   -6943.0592   -6856.8374   -6943.0592            0   -940.18321    23.217844    21.340974    21.770276    10786.984   -828.67372   -1007.6373   -984.23864    349.31805    192.22976    57.209882   -7004.7443 
11902000     31.46789   -6944.2576   -6863.3084   -6944.2576            0   -893.65172    23.190722    21.359031    21.778437    10787.543    -871.9013   -557.51749   -1251.5364    80.924897   -246.50897    196.30752   -7003.9023 
11903000    32.632912   -6938.6525   -6854.7064   -6938.6525            0     -660.649    23.179119    21.387413    21.734948    10774.913   -195.03477   -771.37177   -1015.5405   -132.47225      481.623   -533.44065   -6958.5214 
11904000    31.764639    -6941.562   -6859.8494    -6941.562            0   -810.78014    23.257496    21.358548    21.681577    10770.245   -786.54871   -635.21644   -1010.5753     231.1298   -517.61674   -215.02058    -6987.201 
11905000    29.827095   -6939.7573   -6863.0289   -6939.7573            0   -1046.2767    23.292044    21.362258    21.670261    10782.486   -1234.5081   -1363.4255   -540.89639   -427.99574    261.32695    139.28121   -7027.5575 
11906000    31.243978   -6946.6718   -6866.2985   -6946.6718            0   -577.12528    23.195291    21.393999    21.682101    10759.526   -612.75099    -845.6044   -273.02044    24.458747    5.3252226    161.39569   -6956.8591 
11907000    30.651306   -6941.3748   -6862.5262   -6941.3748            0   -995.81515    23.204567    21.430091    21.688205    10785.024   -441.81121   -1578.6543   -966.97988     34.28455   -182.77195    166.70247   -7019.1565 
11908000    30.653947   -6940.6828   -6861.8273   -6940.6828            0   -547.74232    23.217785    21.388016    21.673197    10762.527   -256.67123   -902.79369   -483.76205    530.77769   -139.80822   -495.08657   -6947.8012 
11909000    32.397749    -6942.113   -6858.7718    -6942.113            0   -872.41644    23.259358    21.321721    21.730544    10776.819   -1313.6227   -328.14668   -975.47995   -57.321113    348.92015    96.197902   -6995.8885 
11910000    32.827441   -6946.4026    -6861.956   -6946.4026            0   -887.76114    23.236455     21.31183    21.762725    10777.149   -1212.7115    -540.2881   -910.28387   -194.76975    373.67825    244.69029   -7001.4886 
11911000    31.384754   -6944.5145   -6863.7792   -6944.5145            0   -723.49494    23.206058    21.348082    21.744145    10772.155   -628.53584   -770.08089   -771.86811   -94.406672   -222.75688    194.11746   -6977.4408 
11912000    31.826315   -6941.8785   -6860.0072   -6941.8785            0   -873.30374    23.212764    21.415665     21.68737    10781.156   -360.11891    -1678.103   -581.68934    156.19761    102.62166    348.26771   -6997.3186 
11913000     31.20621   -6940.2384   -6859.9623   -6940.2384            0   -1177.4362    23.264203    21.419811    21.668711     10797.84   -1634.4963   -1082.7543   -815.05797   -92.579959    11.908132   -411.67001   -7045.3796 
11914000    30.449923   -6940.4268   -6862.0962   -6940.4268            0   -879.02819    23.251305    21.365915    21.708983    10784.706   -1113.2738   -781.79641   -742.01439   -126.47763    182.39967    57.491125   -7000.3532 
11915000    32.369238   -6943.2476   -6859.9797   -6943.2476            0   -839.62305    23.246509    21.288595    21.769227    10773.275   -784.67735   -819.54368   -914.64813    295.47471   -424.89233    472.48543   -6991.8989 
11916000    32.625684   -6939.7242   -6855.7966   -6939.7242            0   -831.50645     23.19234    21.344346     21.76345    10773.459    -583.2774   -1028.0946   -883.14736   -359.06759     142.9115    214.92387   -6986.4428 
11917000    31.395379   -6941.5288   -6860.7661   -6941.5288            0   -832.60375    23.212775    21.366503    21.716096    10770.659   -923.76825   -747.44429   -826.59871   -358.60001    399.59495   -145.21999   -6991.5507 
11918000    31.967905   -6937.8095    -6855.574   -6937.8095            0   -737.03398    23.228655    21.410294    21.659132    10771.786   -991.31318   -752.02377   -467.76497   -136.85632    30.056653   -438.10334   -6971.3587 
11919000    32.998024   -6938.0959   -6853.2105   -6938.0959            0   -547.74655    23.274983    21.355925     21.67256    10772.537   -914.85691   -424.11681   -304.26594    11.614917   -153.26323     -57.3449   -6939.2649 
11920000    32.104514   -6943.3136   -6860.7267   -6943.3136            0   -1181.9736    23.295574    21.317704    21.733312     10792.94   -1107.7631   -1371.9496   -1066.2081    221.97522    313.31907    224.10459    -7046.774 
11921000    31.277225   -6940.7428    -6860.284   -6940.7428            0   -935.23863    23.275022    21.349821    21.703616    10784.908     -1098.46   -992.54039   -714.71544    11.351223   -450.57496    158.84744   -7007.3847 
11922000    32.949747   -6942.4226   -6857.6613   -6942.4226            0   -893.53259    23.224181    21.384226     21.71831    10785.989   -950.06723   -923.86406   -806.66649   -323.54192    286.61911   -301.99151   -6998.2163 
11923000    32.365337   -6944.4791   -6861.2212   -6944.4791            0   -921.78602    23.217678    21.403449    21.690968    10779.074   -1072.5227   -899.24742   -793.58791   -116.94872    130.24374   -433.45649   -7006.1276 
11924000     31.93056   -6944.6127   -6862.4733   -6944.6127            0   -568.24196    23.212808    21.424026    21.631411    10757.556   -932.04446   -1135.4075    362.72609    47.096332    350.21106    254.24682   -6951.6236 
11925000    31.966922   -6942.1709   -6859.9379   -6942.1709            0   -977.38607    23.295834    21.340361    21.675638     10775.86   -1696.8502   -918.07688   -317.23108    92.041842    352.05467    299.00803   -7013.5389 
11926000    30.544358   -6940.3888   -6861.8153   -6940.3888            0   -1086.4102    23.290995    21.298149    21.751483    10789.933   -1469.4143   -425.58588   -1364.2303   -30.210458    46.684184    125.48563    -7032.773 
11927000     32.99333   -6938.4277   -6853.5544   -6938.4277            0   -727.39446    23.258318    21.294533    21.770154    10782.214   -522.95253   -515.63216   -1143.5987    1.0503503    335.09559   -266.90593   -6967.9353 
11928000    33.354435   -6944.0479   -6858.2456   -6944.0479            0   -696.51704    23.172797    21.373665    21.771828    10783.316   -478.47399   -895.25436   -715.82278     193.1746   -283.42799     351.9252   -6967.7824 
11929000     31.69486   -6940.1601    -6858.627   -6940.1601            0   -938.89266    23.172879    21.416314    21.729059    10783.646   -657.80055   -1273.2557   -885.62175    240.07337    168.88021    73.802551   -7006.2852 
11930000    31.033879   -6938.7517   -6858.9189   -6938.7517            0   -432.26421    23.170195    21.420152    21.682076    10761.012    -218.6552   -858.63895   -219.49849   -487.36657   -263.79376      267.993   -6926.7577 
11931000    32.190027   -6942.9518   -6860.1449   -6942.9518            0   -933.67699    23.271882    21.364223    21.674603    10776.302   -1195.7284   -1002.6988   -602.60379    117.34106    448.17481     21.01716   -7006.8828 
11932000    33.123651   -6941.7493   -6856.5408   -6941.7493            0   -919.15745     23.33678    21.320257    21.663317      10778.5   -1571.5987   -679.11128   -506.76236    221.61209   -217.25307    382.21949   -7001.0262 
11933000    32.014538   -6944.1085   -6861.7531   -6944.1085            0   -779.38131    23.245295    21.390563    21.663423    10771.703   -752.35243   -1084.3333   -501.45818   -222.64288    211.46394    -504.1942   -6984.1894 
11934000    30.848349   -6941.6923   -6862.3368   -6941.6923            0   -857.89266    23.191946    21.430873    21.687419     10779.16   -735.52303   -1209.2095   -628.94545   -334.21422    86.816007    336.56563   -6997.2001 
11935000    32.918666   -6942.1266   -6857.4453   -6942.1266            0   -928.45325    23.175107    21.391266    21.746904    10780.916   -719.65778   -1032.1499   -1033.5521     339.7983    259.50593   -493.36135   -7003.4247 
11936000    32.085887   -6938.6411   -6856.1021   -6938.6411            0   -1132.8785    23.197186    21.334927    21.810105    10794.045   -764.11205   -876.83612   -1757.6874   -309.68319    -165.5628     -57.8213   -7034.4399 
11937000    31.194272   -6943.9471   -6863.7018   -6943.9471            0   -959.26772    23.248206    21.306227    21.775147    10785.918   -788.37594   -711.71495   -1377.7123   -63.287435   -312.32449    304.95374   -7014.5961 
11938000    31.675571   -6937.6377   -6856.1542   -6937.6377            0   -657.80428    23.241519    21.355315    21.693783    10767.274   -592.34229    -899.5219   -481.54866    179.73459   -289.14846    363.85668    -6959.449 
11939000    30.480413   -6943.2076   -6864.7986   -6943.2076            0   -1015.0363    23.234889    21.413226    21.673846    10783.474   -804.72657   -1144.5542   -1095.8281    237.65722   -364.80519   -177.25996   -7024.4292 
11940000    32.936033   -6936.4996   -6851.7737   -6936.4996            0   -1041.4105    23.258077    21.372985    21.716894    10795.349   -955.29357   -707.66129   -1461.2766    26.656945    328.54067   -521.15188   -7015.7324 
11941000    34.355025   -6944.3231   -6855.9469   -6944.3231            0   -578.41007    23.272528    21.306351    21.710255    10765.087   -842.43912   -307.87578    -584.9153    33.746894   -218.73409    129.16667    -6946.756 
11942000    31.388924   -6938.4619   -6857.7159   -6938.4619            0   -808.97762    23.202823    21.335408    21.771232    10777.668   -928.02912   -449.95538   -1048.9483    185.44958     520.9614    89.282278   -6984.8719 
11943000    31.943073   -6943.5038   -6861.3322   -6943.5038            0   -874.04405    23.190543    21.382425    21.733832    10777.156   -792.17235   -989.14054   -840.81927    254.25215    -94.82323    273.84418    -6998.709 
11944000    31.664305    -6939.979   -6858.5246    -6939.979            0    -1309.128    23.218254    21.397781    21.730165    10795.962    -1315.002   -1299.4616   -1312.9205    153.01171    101.48959   -337.06539   -7064.6442 
11945000    31.289185   -6937.2589   -6856.7694   -6937.2589            0   -544.02692    23.241083    21.358419    21.684047    10763.804   -631.58797   -327.57095   -672.92184   -180.10749   -485.47479    -450.5638   -6942.1702 
11946000    32.237023   -6946.0853   -6863.1575   -6946.0853            0   -963.41588    23.253437     21.38332    21.681088    10780.611   -1278.6275   -956.16973   -655.45042   -64.678848    334.85762     -158.186   -7014.6297 
11947000    31.478847   -6939.5409   -6858.5634   -6939.5409            0   -941.18443    23.224016    21.382297    21.702092    10776.886   -405.76095   -1345.3415   -1072.4508   -139.80448   -409.43257    487.01535   -7006.4892 
11948000    31.506892   -6937.4909   -6856.4414   -6937.4909            0    -821.0971     23.22152    21.381816    21.721711    10785.227   -567.89367   -1269.0209   -626.37676    86.117452    339.72174    10.549983   -6985.5929 
11949000    32.736617   -6941.7473   -6857.5344   -6941.7473            0   -996.73461    23.239129    21.376199    21.731487    10795.426   -1241.2758   -821.53835   -927.38964    174.83269   -370.71762   -58.811681   -7014.4605 
11950000    31.578157   -6942.5945   -6861.3616   -6942.5945            0    -861.8983    23.218051    21.367602    21.722926    10777.049   -873.00031   -344.52568   -1368.1689    304.68402   -194.74456   -500.35037   -6996.8281 
11951000    32.236554   -6941.7974   -6858.8709   -6941.7974            0   -908.00556     23.18024    21.341401    21.781931    10775.495   -341.78269   -1057.1509   -1325.0831   -137.37962   -16.727152      375.861   -7001.5635 
11952000    32.473989   -6943.8684   -6860.3311   -6943.8684            0   -885.62272     23.20126    21.365139     21.74373    10778.326   -763.35159    -1272.579   -620.93752   -107.77082    82.765335    481.07351   -6999.5429 
11953000     31.00762    -6945.798   -6866.0328    -6945.798            0   -675.80213    23.207664    21.355473    21.734799    10771.998   -439.10606   -878.93608   -709.36423   -306.80455   -208.65907    28.860871   -6972.2003 
11954000    32.028587   -6942.9922   -6860.6006   -6942.9922            0   -650.55786    23.235179    21.358641    21.715773    10776.927   -533.24922    -410.8819   -1007.5424   -377.25198   -466.65062   -465.13593    -6962.849 
11955000    32.281322   -6945.4881   -6862.4464   -6945.4881            0   -898.49014    23.233894    21.397143    21.695176    10785.517   -851.96941   -1109.9853   -733.51567    43.442079   -170.17695   -295.19901   -7003.7751 
11956000    32.008018   -6945.1012   -6862.7625   -6945.1012            0   -678.69918    23.231249    21.429808    21.608585    10757.644   -804.28448   -1354.1952    122.38215    227.23648    -122.0326    421.76272   -6969.2431 
11957000    31.053307   -6943.5226   -6863.6398   -6943.5226            0   -889.26694    23.260448    21.398317    21.627732    10764.867   -1397.3604   -940.78546   -329.65493    90.932306    299.74278    16.236759   -7003.2499 
11958000    32.299449   -6941.4761   -6858.3877   -6941.4761            0   -937.65215    23.332358    21.336547     21.62251    10764.377   -1531.3419   -484.90076    -796.7138   -478.62535    13.088033    81.007108   -7005.5873 
11959000    32.540774   -6941.2478   -6857.5386   -6941.2478            0   -931.77347     23.27543    21.344033    21.703007     10781.87   -713.76236   -1037.2052   -1044.3529    158.93473    98.505755   -5.0839537    -7004.053 
11960000    30.918533   -6939.8374   -6860.3013   -6939.8374            0   -459.89134    23.184542    21.371357    21.724582    10764.207   -279.79902   -207.14536   -892.72965    427.01784    128.28933   -546.42436   -6932.4973 
11961000    31.873354   -6939.4438   -6857.4515   -6939.4438            0   -726.14049    23.204928    21.360627    21.750299     10781.01   -642.93893   -473.52384   -1061.9587    433.55855    95.630397    46.509695   -6971.6226 
11962000    30.733494   -6939.5172   -6860.4572   -6939.5172            0   -836.19643     23.24217    21.278126     21.81147    10786.859    -965.2558   -330.68455   -1212.6489    581.01419   -26.812337    432.45296   -6992.0037 
11963000    31.892085   -6942.4971   -6860.4567   -6942.4971            0   -940.18713    23.241573     21.28257    21.818393    10792.259    -1054.427   -310.76043    -1455.374   -37.188179    180.36734    121.37036   -7008.4365 
11964000    32.950952   -6943.9044   -6859.1401   -6943.9044            0   -526.68651    23.222859    21.287566     21.79377    10773.928    -521.3379   -89.046036   -969.67561    381.18261    -38.17482    211.88399   -6941.8966 
11965000    29.577455   -6940.1743   -6864.0881   -6940.1743            0   -521.39923    23.177226    21.378983    21.724993    10764.854    24.950319   -759.89894   -829.24908    405.46383   -206.45374   -163.44083   -6945.9448 
11966000    32.575353   -6944.1807   -6860.3826   -6944.1807            0   -988.82555    23.207744    21.382057    21.731053    10783.585   -844.06833    -758.8513    -1363.557   -390.12914     200.6824   -114.23418   -7015.8927 
11967000    32.405066   -6943.3765   -6860.0164   -6943.3765            0   -777.63098    23.261803    21.347126    21.687171    10769.256   -582.64069   -1166.5908   -583.66148   -303.90992    -161.9858    38.953107     -6982.15 
11968000    32.364391   -6940.2438   -6856.9884   -6940.2438            0   -851.93076    23.266051    21.354492    21.692007    10777.341   -1113.4162   -1039.8903   -402.48578   -366.22736   -31.789752   -85.691828   -6990.8919 
11969000    31.656194   -6941.9596   -6860.5259   -6941.9596            0   -696.95965    23.206813    21.433982     21.65187    10769.952   -662.88966   -832.41996   -595.56934     36.82044    38.733522    1.7702591   -6969.9965 
11970000    31.281743   -6944.6627   -6864.1924   -6944.6627            0   -850.08307    23.191674    21.464086    21.632308    10768.305   -767.46066   -1361.1885   -421.60001   -128.14637    240.46229    1.5832148   -6997.6934 
11971000    30.956929   -6940.9513   -6861.3165   -6940.9513            0     -750.084     23.26774    21.377076    21.640779    10764.043   -767.34002   -1406.4286   -76.483373    237.94257   -127.90252    128.78372   -6979.0666 
11972000     32.65727   -6946.3477   -6862.3389   -6946.3477            0   -862.97812    23.288422    21.306842    21.709803    10772.464   -817.42223   -542.20811    -1229.304   -584.90913   -4.2091961   -87.174557   -6997.9174 
11973000    31.960919   -6944.7763   -6862.5588   -6944.7763            0   -946.57232    23.254026    21.311381    21.754101    10780.798    -1036.867   -613.29523   -1189.5547   -158.95137   -246.89119    -203.6227   -7011.3854 
11974000    32.694994   -6939.6726   -6855.5667   -6939.6726            0   -628.99733    23.181394    21.363997    21.734768    10764.083   -506.95655   -551.86864    -828.1668    146.86916    434.58202    153.06207   -6954.3087 
11975000    31.580657   -6942.3922   -6861.1529   -6942.3922            0   -993.53612    23.192157    21.362466    21.774017    10787.755   -1122.0111   -668.02822    -1190.569    477.05917     314.8442    283.80994   -7017.4642 
11976000    30.434975    -6939.754   -6861.4619    -6939.754            0   -544.28485    23.226853    21.319546    21.756488    10773.507   -965.20942   -449.90237   -217.74277    385.72664    250.28696   -17.880505   -6946.9803 
11977000    34.294879   -6941.1308   -6852.9093   -6941.1308            0   -1035.3879     23.26584    21.323765    21.764521    10797.712   -1151.3577   -599.27552   -1355.5303   -370.51269   -97.556653   -423.18591   -7015.9555 
11978000    31.360324   -6933.2595   -6852.5869   -6933.2595            0   -1023.8811    23.257838    21.364266    21.725829    10795.274   -982.08292   -661.02026   -1428.5402    449.41212   -332.95117   -480.46828   -7013.7847 
11979000    33.013179   -6942.6081   -6857.6837   -6942.6081            0   -667.91825    23.246923    21.383258     21.65314    10763.666   -899.74024   -698.48412    -405.5304    17.289486   -145.92443    -12.42367   -6962.5315 
11980000    34.203949   -6943.3653   -6855.3777   -6943.3653            0   -683.47338    23.243546    21.378336    21.655823    10760.959   -1086.2596   -796.63053   -167.52996   -85.789826    299.88932    288.36547   -6962.6403 
11981000    32.483088   -6938.1826   -6854.6218   -6938.1826            0   -1008.6973    23.274626    21.367528    21.682743    10783.288   -1222.5526   -1275.0645   -528.47484    275.55023    59.852236    531.99181   -7013.2528 
11982000    31.305898   -6938.8927   -6858.3602   -6938.8927            0   -503.53613    23.246425    21.366582    21.668939     10762.89   -597.47234    -847.1608   -65.975245   -322.51897   -109.72135    -292.9723   -6937.3981 
11983000     31.25125   -6941.8267   -6861.4348   -6941.8267            0   -911.94907    23.235924    21.410591    21.681368    10786.369   -1047.7808   -773.28047   -914.78595    58.825065    115.39615   -414.79209   -7004.8918 
11984000    32.111886   -6942.1545   -6859.5486   -6942.1545            0   -743.41914    23.170235     21.37889     21.75757    10777.697    -363.0225   -757.51657   -1109.7183   -228.15311   -2.1964638    91.589387   -6976.4005 
11985000    32.387462   -6943.5844   -6860.2697   -6943.5844            0   -881.77081    23.191244    21.340786    21.785099    10781.867   -680.03223   -590.56529   -1374.7149   -199.67207    271.50939   -14.974266   -6998.9215 
11986000    31.602083   -6941.8823   -6860.5879   -6941.8823            0   -1109.2753    23.246366     21.33503    21.763186    10793.711   -1157.7165   -942.65147   -1227.4578   -88.792974    132.66075   -8.8904546   -7035.2047 
11987000    31.628157   -6944.0648   -6862.7033   -6944.0648            0   -671.27297    23.247311    21.347784    21.709169    10773.796   -683.19638   -671.67804   -658.94447     229.1918   -5.9155506   -57.047619   -6968.1769 
11988000    32.825301   -6939.6367   -6855.1957   -6939.6367            0   -857.45794    23.242776    21.370322    21.696607    10776.827   -919.76856   -687.16195    -965.4433    842.62411   -163.38871   -143.29722   -6989.9614 
11989000    32.113434   -6942.4215   -6859.8117   -6942.4215            0   -800.48632    23.192568    21.356093    21.753217    10774.425   -469.20076   -825.23292   -1107.0253   -104.21469   -148.49614    51.069393   -6985.5953 
11990000    32.163639   -6941.5681    -6858.829   -6941.5681            0   -437.59113    23.214755    21.321337     21.73271    10757.031   -490.92705    29.269833   -851.11617   -428.73646    454.37908   -18.831128   -6927.4785 
11991000    31.324536     -6941.31   -6860.7296     -6941.31            0   -1185.7787    23.285141    21.342667       21.719    10793.626   -1485.4679   -727.98226   -1343.8858   -114.07417   -365.40651   -383.08894   -7047.3877 
11992000    32.039739   -6944.0747   -6861.6544   -6944.0747            0    -800.1704    23.266127    21.398138    21.648896    10777.942   -979.50872   -1214.3788   -206.62368    11.201122   -324.40997   -185.89158   -6987.4293 
11993000    32.702948   -6940.9237   -6856.7974   -6940.9237            0   -1247.8679    23.266645    21.435756    21.646881    10796.125   -1577.9735   -942.05052   -1223.5796   -87.401968    455.17641   -398.02719   -7053.2747 
11994000     31.66859   -6941.4137   -6859.9482   -6941.4137            0   -445.18521    23.198741    21.378653    21.681802     10753.26   -376.52841   -821.44812   -137.57911     151.2905   -32.984542    32.422227   -6929.7645 
11995000    34.243075   -6942.7299   -6854.6417   -6942.7299            0   -916.65253    23.227998    21.386963    21.690955    10775.553   -601.70263   -1835.9622   -312.29272   -446.89104   -225.47371    684.95047    -6998.694 
11996000    32.368128   -6944.6579   -6861.3929   -6944.6579            0    -840.8799    23.245852    21.362368    21.700873    10776.359   -761.65311   -792.25421   -968.73239    -305.4593   -23.971508    228.80878   -6993.5474 
11997000    31.879043   -6942.1297   -6860.1228   -6942.1297            0   -1069.8846    23.218166    21.407814     21.70421    10788.081   -953.27806   -902.99333   -1353.3823    283.46178   -142.02799   -156.80028   -7028.4511 
11998000    32.779793   -6941.8251   -6857.5011   -6941.8251            0   -764.98381    23.205881    21.344309      21.7659    10780.944   -380.10102   -430.24247   -1484.6079    346.55011   -158.23664   -340.82225   -6977.7787 
11999000    32.333934   -6944.0275   -6860.8504   -6944.0275            0   -635.06878    23.232262    21.275099    21.803878    10776.974   -496.15309   -288.10747   -1120.9458   -117.70584    109.98289    290.11369   -6960.6649 
12000000    33.274745   -6938.9978   -6853.4006   -6938.9978            0   -637.15453    23.223532    21.290834     21.79551    10776.754    -582.6155   -450.35045   -878.49764    204.33352    77.830358   -29.453327   -6953.5408 
Loop time of 520.392 on 64 procs for 250000 steps with 1296 atoms

Performance: 83.014 ns/day, 0.289 hours/ns, 480.407 timesteps/s
99.1% CPU use with 64 MPI tasks x 1 OpenMP threads

MPI task timing breakdown:
Section |  min time  |  avg time  |  max time  |%varavg| %total
---------------------------------------------------------------
Pair    | 27.876     | 39.636     | 52.226     | 124.9 |  7.62
Bond    | 0.28075    | 0.28767    | 0.29679    |   0.8 |  0.06
Kspace  | 261.55     | 274.45     | 286.18     |  47.7 | 52.74
Neigh   | 0.13567    | 0.13892    | 0.14197    |   0.4 |  0.03
Comm    | 88.928     | 90.241     | 91.795     |   7.5 | 17.34
Output  | 0.5945     | 0.59526    | 0.59681    |   0.0 |  0.11
Modify  | 102.77     | 103.98     | 106.52     |   7.7 | 19.98
Other   |            | 11.07      |            |       |  2.13

Nlocal:        20.2500 ave          26 max          14 min
Histogram: 8 5 4 8 4 5 6 9 7 8
Nghost:        2594.52 ave        2618 max        2573 min
Histogram: 3 4 11 6 11 9 10 3 4 3
Neighs:        6482.38 ave        8383 max        4419 min
Histogram: 7 6 4 8 4 5 6 9 7 8

Total # of neighbors = 414872
Ave neighs/atom = 320.11728
Ave special neighs/atom = 2.0000000
Neighbor list builds = 254
Dangerous builds = 0

unfix		3
unfix		2
unfix		1

write_data	data.final.${pid}
write_data	data.final.0
System init for write_data ...
PPPM initialization ...
  extracting TIP4P info from pair style
  using 12-bit tables for long-range coulomb (../kspace.cpp:340)
  G vector (1/distance) = 0.36729699
  grid = 27 40 32
  stencil order = 5
  estimated absolute RMS force accuracy = 0.0045419699
  estimated relative force accuracy = 1.3678007e-05
  using double precision FFTW3
  3d grid and FFT values/proc = 4845 560
Last active /omp style is kspace_style pppm/tip4p/omp
WARNING: Not all mixed pair coeffs generated from mixing. Use write_data with 'pair ij' option to store all pair coeffs. (../write_data.cpp:312)

write_restart   restart.lmp.${pid}
write_restart   restart.lmp.0
System init for write_restart ...
PPPM initialization ...
  extracting TIP4P info from pair style
  using 12-bit tables for long-range coulomb (../kspace.cpp:340)
  G vector (1/distance) = 0.36729699
  grid = 27 40 32
  stencil order = 5
  estimated absolute RMS force accuracy = 0.0045419699
  estimated relative force accuracy = 1.3678007e-05
  using double precision FFTW3
  3d grid and FFT values/proc = 4845 560
Last active /omp style is kspace_style pppm/tip4p/omp
Total wall time: 0:08:40
