LAMMPS (30 Jul 2021)
Processor partition = 0
  using 2 OpenMP thread(s) per MPI task
using multi-threaded neighbor list subroutines
variable        pid world 0 1
variable        phase world IceVI Liquid

shell cd ${phase}
shell cd IceVI
include Restart.lmp
echo both
log log.lammps
#include		in.partitions
include		in.temp
variable        temperature equal 283.04
variable	tempDamp equal 100.0
include		in.pressure
variable        pressure equal 11375.0
variable        pressureDamp equal 1000.0 # This is 1 ps
include		in.seed
variable        seed equal 745823

units		real
atom_style	full
read_restart	restart.lmp.${pid}
read_restart	restart.lmp.0
Reading restart file ...
  restart file = 30 Jul 2021, LAMMPS = 30 Jul 2021
  restoring atom style full from restart
  orthogonal box = (-0.11098969 -0.077481957 -0.082269275) to (24.840991 24.807483 22.892269)
  4 by 4 by 2 MPI processor grid
  restoring pair style lj/cut/tip4p/long/omp from restart
  restoring bond style harmonic/omp from restart
  restoring angle style harmonic/omp from restart
  1920 atoms
  1280 bonds
  640 angles
Finding 1-2 1-3 1-4 neighbors ...
  special bond factors lj:    0        0        0       
  special bond factors coul:  0        0        0       
     2 = max # of 1-2 neighbors
     1 = max # of 1-3 neighbors
     1 = max # of 1-4 neighbors
     2 = max # of special neighbors
  special bonds CPU = 0.005 seconds
  read_restart CPU = 0.011 seconds
include 	in.setup
variable	out_freq equal 1000
variable	out_freq2 equal 10000
variable	out_freq3 equal 1000

timestep	2.0

neigh_modify    delay 7 every 1

include		in.tip4p
# This is TIP4P/Ice

# create groups ###
group ox type 2
640 atoms in group ox
group hy type 1
1280 atoms in group hy

# set charges - beside manually ###
set group ox charge -1.1794
Setting atom values ...
  640 settings made for charge
set group hy charge 0.5897
Setting atom values ...
  1280 settings made for charge

# ### TIP3P Potential Parameters ###
pair_style lj/cut/tip4p/long/omp 2 1 1 1 0.1577 8.5
pair_coeff 1 1*2 0.000 0.000
pair_coeff 2 2 0.21084 3.1668
bond_style  harmonic
bond_coeff  1 450 0.9572
angle_style harmonic
angle_coeff 1 55 104.52
kspace_style pppm/tip4p/omp 1.0e-5
pair_modify tail yes

thermo          ${out_freq}
thermo          1000
thermo_style    custom step temp pe etotal epair emol press lx ly lz vol pxx pyy pzz pxy pxz pyz enthalpy

restart 	${out_freq3} restart.lmp.${pid} restart2.lmp.${pid}
restart 	1000 restart.lmp.${pid} restart2.lmp.${pid}
restart 	1000 restart.lmp.0 restart2.lmp.${pid}
restart 	1000 restart.lmp.0 restart2.lmp.0


include         in.dump
dump            myDump all atom ${out_freq2} dump.water.${pid}
dump            myDump all atom 10000 dump.water.${pid}
dump            myDump all atom 10000 dump.water.0
dump            myDump2 all dcd ${out_freq2} dump.dcd
dump            myDump2 all dcd 10000 dump.dcd
dump_modify     myDump append yes
dump_modify     myDump2 append yes


variable natoms 	equal  "count(all)"                        # NUMBER ATOMS
variable H      	equal  "enthalpy/v_natoms"                 # ENTHALPY-per-atom
variable Vol      	equal  "vol/v_natoms"                 # volume-per-atom
fix AVG all 		ave/time ${out_freq} 1 ${out_freq} v_Vol v_H file vol_enthalpy.dat
fix AVG all 		ave/time 1000 1 ${out_freq} v_Vol v_H file vol_enthalpy.dat
fix AVG all 		ave/time 1000 1 1000 v_Vol v_H file vol_enthalpy.dat




fix 		1 all shake 1e-6 200 0 b 1 a 1
Finding SHAKE clusters ...
       0 = # of size 2 clusters
       0 = # of size 3 clusters
       0 = # of size 4 clusters
     640 = # of frozen angles
  find clusters CPU = 0.001 seconds
fix             2 all nph aniso ${pressure} ${pressure} ${pressureDamp}
fix             2 all nph aniso 11375 ${pressure} ${pressureDamp}
fix             2 all nph aniso 11375 11375 ${pressureDamp}
fix             2 all nph aniso 11375 11375 1000
fix             3 all temp/csvr ${temperature} ${temperature} ${tempDamp} ${seed}
fix             3 all temp/csvr 283.04 ${temperature} ${tempDamp} ${seed}
fix             3 all temp/csvr 283.04 283.04 ${tempDamp} ${seed}
fix             3 all temp/csvr 283.04 283.04 100 ${seed}
fix             3 all temp/csvr 283.04 283.04 100 745823


run             250000
PPPM initialization ...
  extracting TIP4P info from pair style
  using 12-bit tables for long-range coulomb (../kspace.cpp:340)
  G vector (1/distance) = 0.37450024
  grid = 30 30 30
  stencil order = 5
  estimated absolute RMS force accuracy = 0.0032657491
  estimated relative force accuracy = 9.8347063e-06
  using double precision FFTW3
  3d grid and FFT values/proc = 5400 960
Last active /omp style is kspace_style pppm/tip4p/omp
Neighbor list info ...
  update every 1 steps, delay 7 steps, check yes
  max neighbors/atom: 2000, page size: 100000
  master list distance cutoff = 10.8154
  ghost atom cutoff = 10.8154
  binsize = 5.4077, bins = 5 5 5
  1 neighbor lists, perpetual/occasional/extra = 1 0 0
  (1) pair lj/cut/tip4p/long/omp, perpetual
      attributes: half, newton on, omp
      pair build: half/bin/newton/omp
      stencil: half/bin/3d
      bin: standard
Setting up Verlet run ...
  Unit style    : real
  Current step  : 5500000
  Time step     : 2
Per MPI rank memory allocation (min/avg/max) = 10.54 | 10.55 | 10.55 Mbytes
Step Temp PotEng TotEng E_pair E_mol Press Lx Ly Lz Volume Pxx Pyy Pzz Pxy Pxz Pyz Enthalpy 
 5500000    288.97643   -9008.8194   -7907.1095   -9008.8194            0    11051.052     24.95198    24.884965    22.974539    14265.561    11418.896    10899.488    10834.772    946.35362    248.06519    66.082901   -5607.9539 
 5501000      284.321   -9014.4617   -7930.5004   -9014.4617            0    11453.497    25.089286    24.845754    22.807179    14217.134    10990.382    11700.385    11669.724   -1186.9671     1302.525   -503.84767   -5555.7059 
 5502000    278.88223   -8997.4162   -7934.1899   -8997.4162            0     10773.62    24.944127    24.817462    23.067736     14280.08    10111.956    12064.044     10144.86   -88.251125   -317.22815    282.83448   -5690.4724 
 5503000    284.32399   -9011.8455   -7927.8728   -9011.8455            0    11625.334    25.019526    24.906331    22.852067    14240.142    10650.022    11781.182    12444.798    201.05201   -1849.4294   -76.624366   -5513.5483 
 5504000    277.75533   -9045.6958   -7986.7658   -9045.6958            0    10537.619    24.958448     24.99311    22.890896    14279.095    10446.083     10850.31    10316.464   -631.57064   -533.05809    412.81262   -5792.3494 
 5505000    275.70938   -8981.9653   -7930.8354   -8981.9653            0    10322.266    24.874353    24.870645    23.131179    14309.901    11222.108    10596.077    9148.6133    102.76078   -549.09791    82.324185   -5776.6278 
 5506000    294.30624   -9015.0042   -7892.9746   -9015.0042            0    10180.012    24.992792    24.976256    22.922092    14308.574     9355.233    10501.171    10683.632    836.02046    1023.3518    954.33188   -5768.6517 
 5507000    273.89695   -9010.3925   -7966.1724   -9010.3925            0    10745.389    24.876729     25.05699    22.903137    14276.349    10827.871    9844.8052     11563.49   -1290.2572    945.61834   -104.57326   -5728.9191 
 5508000    279.42564   -9031.2601   -7965.9621   -9031.2601            0    9958.4206    24.870295    25.032021    22.991116    14313.205    11091.805    8726.5819    10056.875   -71.406429   -969.53337    694.08191   -5887.2074 
 5509000    283.92674   -8972.3369   -7889.8786   -8972.3369            0    10305.877    24.842617    24.974748    23.030242     14288.84     11892.61    9163.1653    9861.8547    -473.0081    312.00827   -450.49594   -5742.2569 
 5510000    282.13496   -8997.3776   -7921.7505   -8997.3776            0    11076.298    24.925076    25.024486    22.861693    14259.689    10902.662    11331.765    10994.466    619.58442    479.18575   -369.02822    -5618.291 
 5511000     288.7655   -9051.2463   -7950.3406   -9051.2463            0    10929.078    24.844559    24.980688    22.944026    14239.846    12637.951    8359.2973    11789.984    -318.3369   -1447.3987   -943.98617   -5680.6602 
 5512000    290.94476   -9005.2146   -7896.0005   -9005.2146            0    11015.002    24.906438    24.969936    22.942926    14268.485    11195.432    10388.998    11460.577   -286.08592    785.08399    1108.5289   -5603.8752 
 5513000    284.44311   -8997.7372   -7913.3103   -8997.7372            0    9817.8146    24.903126    24.856935    23.125786    14315.217    9804.3007    10259.764    9389.3791    361.47849     70.38368   -278.83507    -5863.618 
 5514000    276.41903   -9040.9419   -7987.1065   -9040.9419            0     10867.81    24.933244    24.939964    22.937802     14263.51    10956.329    11042.368    10604.732   -243.68178    1029.5723   -276.93655   -5726.3993 
 5515000    285.27244   -9033.2022   -7945.6135   -9033.2022            0    10119.316    24.873934    25.044446    22.965519     14306.46    10924.025    8976.7289    10457.193   -719.78446    530.54701   -1071.9853   -5834.2685 
 5516000    291.58087   -9024.6623    -7913.023   -9024.6623            0    12259.426     24.69888    25.044795     22.97022    14208.881    14778.946    11550.859    10448.475   -701.26608   -826.47396     490.6738   -5372.6006 
 5517000    283.74434   -9002.4351   -7920.6723   -9002.4351            0    12176.822    24.841678    24.954004    22.949929    14226.646    11732.866    12168.485    12629.117     368.6193   -269.72963    258.92731   -5394.2126 
 5518000    277.41057   -9035.1507   -7977.5352   -9035.1507            0    10534.847     24.90977    24.974071    22.940146    14271.027    10292.465    9741.0531    11571.023    362.81995   -109.76626    425.64529   -5784.9355 
 5519000     278.8142   -9003.2476   -7940.2808   -9003.2476            0    12150.839    24.882337    24.864908    22.968024    14210.248    10484.041    13078.227     12890.25   -300.69816    411.64352    1806.2305   -5422.1179 
 5520000     280.2379   -9034.4011   -7966.0064   -9034.4011            0    11240.899     24.85585    24.913954    22.964241    14220.778    11357.478    11770.322    10594.896   -785.91353    425.52229     533.8387    -5634.695 
 5521000     280.3621   -9021.4815   -7952.6133   -9021.4815            0     12022.34    24.939785    25.057604    22.728412    14203.694    11812.378    10865.787    13388.856    831.46979   -1122.0816    886.30888   -5462.2298 
 5522000    284.92305   -8987.8912   -7901.6346   -8987.8912            0    12338.196    24.852969     24.89835    23.014479    14241.312    11862.336    13170.281     11981.97    580.50643    194.74318   -560.08565   -5339.0539 
 5523000    284.11294   -9066.0974   -7982.9293   -9066.0974            0    12399.191    24.896956    24.882772     22.88309    14176.195    12948.139    11016.461    13232.973   -527.05068    863.45382   -155.70987   -5419.4554 
 5524000    285.65955   -8943.6352   -7854.5707   -8943.6352            0    11816.333    24.997483    24.909818    22.937755    14282.944     10922.52      12156.2    12370.281   -712.97537   -731.93327    429.56082   -5393.2038 
 5525000     281.8471    -8996.229   -7921.6993    -8996.229            0    9936.6869    24.841751    24.907058    23.128627    14310.489    10245.273    10993.478    8571.3093    34.311308   -914.31574    1284.1589   -5847.8749 
 5526000     283.8976   -8981.7966   -7899.4495   -8981.7966            0    11018.957     24.99876    25.006848    22.821016    14266.334     10000.91    10529.494    12526.466   -96.088259    130.31846   -1942.7189    -5606.847 
 5527000    286.26041   -9012.5358   -7921.1806   -9012.5358            0    10492.126    25.072354     24.81667    22.978824    14297.707    8082.6127    12891.636    10502.129    1148.3973    740.28686    289.51174   -5733.3898 
 5528000     288.0459   -9058.2753   -7960.1129   -9058.2753            0    10035.211    24.916598    24.882756    23.039068    14284.075    10200.131    10208.375    9697.1274    591.76055    788.14557   -41.508863   -5869.5919 
 5529000    285.89838   -9059.6195   -7969.6445   -9059.6195            0    9355.3992     24.96862    24.973009    22.949504     14309.97    8485.4189    10054.532    9526.2463    580.87904   -763.46372   -713.63199   -6017.2079 
 5530000    286.73499   -9001.0943   -7907.9297   -9001.0943            0     8654.031    25.050384    25.014583    22.979746    14399.681    8503.5389    8544.7415    8913.8127   -75.847477    113.93943   -92.351861   -6090.5436 
 5531000    291.34162   -9005.0536   -7894.3265   -9005.0536            0    9819.9606    25.038071    24.937376    22.984063    14350.876    8753.5117    10825.818    9880.5519    676.23985    279.64577    87.138392   -5839.0793 
 5532000    289.39832    -9006.651   -7903.3326    -9006.651            0    10399.618    24.981474    24.967146    22.949397    14313.909    10312.831    10398.371    10487.652    102.22196   -633.83203   -532.57924    -5732.374 
 5533000    290.16511   -9030.6018   -7924.3601   -9030.6018            0    9541.7935    24.883298    25.073675    22.933628    14308.651    10294.635    8654.5447    9676.2008    -370.7428   -88.126541   -490.60399   -5933.2072 
 5534000    279.73948   -9048.6852   -7982.1907   -9048.6852            0    10839.764    24.844405    24.978764    22.983425    14263.112     11014.78    9556.7913     11947.72     163.7664   -193.81462   -579.07844   -5727.3803 
 5535000    279.58045    -9062.445   -7996.5568    -9062.445            0    12065.023    24.895608    24.980765    22.813482    14187.962    12645.985    11056.504    12492.578    703.53224   -1522.7953    792.00588      -5500.1 
 5536000    286.85971   -9034.1406   -7940.5006   -9034.1406            0    11808.235     24.81777     24.94389    22.927631    14193.389    11754.974    11830.977    11838.754    558.47639   -410.03494   -877.95257   -5496.2429 
 5537000    287.26799   -9018.9588   -7923.7622   -9018.9588            0    12739.115    24.881117    24.739185    23.035461    14179.214    13779.427    13042.119    11395.798    507.77249   -992.08456    486.22487   -5289.4496 
 5538000    291.22758   -9007.4495   -7897.1571   -9007.4495            0    11369.388    25.010413    24.925756    22.831922    14233.499    11271.336     11037.38    11799.448    -100.5858   -1908.4821    550.59415   -5537.0884 
 5539000    283.03998   -9045.2912   -7966.2138   -9045.2912            0    10491.864    25.012626    24.723542     23.07837     14271.68    10080.899    11508.238    9886.4564   -118.52976    664.07725   -620.77925     -5782.46 
 5540000    279.90783   -9020.2836   -7953.1473   -9020.2836            0    11549.449    24.947693    24.853951    22.914559    14208.144    11376.468    11986.739     11285.14   -965.94889   -517.96989    317.86782    -5559.972 
 5541000    282.89607   -9058.3685   -7979.8397   -9058.3685            0    12937.089    24.802247    24.812191    22.989017    14147.397    12265.787    13674.566    12870.913    140.65195    545.49927   -125.68184   -5310.5912 
 5542000     280.6455   -9009.6909   -7939.7423   -9009.6909            0    12382.561    24.851796    24.970283    22.846928    14177.807    12289.734    12328.708    12529.241    689.81987    1567.0475    481.08571   -5379.4153 
 5543000    286.20827   -9003.9461   -7912.7896   -9003.9461            0     11577.05    24.866594    24.927952    22.951271    14226.879     12356.74     10890.84    11483.571   -769.11274    870.05204    555.01547   -5510.7318 
 5544000    288.72535   -9044.8884   -7944.1357   -9044.8884            0    11326.338    24.848292    24.863621    22.990333    14203.853    11350.942    11340.313    11287.758    71.675233    632.29426    384.80935   -5597.9004 
 5545000    277.54474   -9073.2232   -8015.0961   -9073.2232            0    11370.563    24.969268    24.893985     22.89919    14233.783    11224.398    11276.273    11611.017    2.3002495    606.74909    1315.9005   -5654.7364 
 5546000    294.84095   -9000.2144   -7876.1462   -9000.2144            0    12685.729    24.937639    24.733289    22.999519    14185.869    11734.722     13216.38    13106.083    623.20852   -78.144871     283.8299   -5251.6421 
 5547000    284.86146   -9030.6902   -7944.6684   -9030.6902            0    11850.452     24.98249    24.808298    22.847061    14159.993    10196.124    13446.729    11908.503    207.89002   -176.40165    197.46596   -5497.4437 
 5548000    277.62734   -9029.1399   -7970.6979   -9029.1399            0    9442.9244    24.991582    24.962718    22.985142    14339.461    8716.1214    9681.6697    9930.9821    951.50336    1553.6382    996.31432   -5995.9338 
 5549000    296.35463   -9044.0153   -7914.1763   -9044.0153            0     9487.896    24.962981    24.952989      22.9807    14314.701    10309.282     9212.803    8941.6036   -1147.7555   -1553.8365   -412.74799   -5933.4334 
 5550000    287.26568   -8998.7926   -7903.6048   -8998.7926            0    9635.8651    24.922187    25.031754    22.976382    14333.725    11398.353     7299.884    10209.358   -295.52971    1234.0687   -500.89737   -5889.2977 
 5551000    288.70821    -9029.407   -7928.7197    -9029.407            0    10008.434    24.909123     25.01602    22.966083    14310.789    10207.156    9927.0605    9891.0863    918.26637   -229.25172   -47.883507   -5839.8776 
 5552000    273.38927   -8997.5023   -7955.2178   -8997.5023            0    9777.8807    24.923378    24.964249    23.075411    14357.369    9030.1452    10469.542     9833.955   -398.77805   -631.28695    307.87343   -5907.8518 
 5553000    279.68094   -9011.6942   -7945.4229   -9011.6942            0    11061.851    24.923123    24.923767    23.026545    14303.585     10685.68    11223.489    11276.383   -7.5375031   -1068.8944    1356.3843   -5637.8863 
 5554000    286.01304   -9017.0702   -7926.6581   -9017.0702            0    10951.152    24.969501    24.987695    22.902455    14289.535    11061.461    10798.836     10993.16    119.71395    274.91117   -1264.6384   -5644.4575 
 5555000    282.71941   -8992.8486   -7914.9933   -8992.8486            0    10259.151    24.985745    25.067377    22.797451    14278.661    10505.807    9722.9321    10548.714   -112.44458    829.17854     296.1223   -5778.6315 
 5556000    282.39525   -8970.1208   -7893.5013   -8970.1208            0    11546.923    24.855874    24.874377    23.074311    14266.255    12321.358     12064.64    10254.771   -107.50961   -813.39701   -443.53892   -5491.0635 
 5557000    284.78459   -9019.3261   -7933.5974   -9019.3261            0    12304.888    24.928295     24.82528    22.958632    14207.993    11277.171     12846.94    12790.552   -856.53072   -414.64751    810.62628   -5383.9138 
 5558000    280.50722   -9023.5211   -7954.0997   -9023.5211            0    12122.065    24.852325    24.984705    22.890981    14213.651    12932.893    11901.565    11531.738   -588.61888   -1278.2975    18.736812   -5441.2983 
 5559000    279.58761    -8991.056   -7925.1406    -8991.056            0    12442.259    24.788866    24.905266    22.984198     14189.83    12724.864    12896.984    11704.928    182.87513    43.473579   -775.14954   -5350.2884 
 5560000     278.2058   -9043.6593    -7983.012   -9043.6593            0     11694.24    24.906007    25.051083    22.757937    14199.187    11672.068    10421.335    12989.319   -707.70443    587.29599    674.54975   -5561.3619 
 5561000    276.82425   -9005.1555   -7949.7752   -9005.1555            0    11922.462    24.823691    24.845988    23.086522    14239.054    12155.084    12765.698    10846.604   -573.92024    186.96941    166.56487    -5473.933 
 5562000    288.69808   -9030.2929   -7929.6442   -9030.2929            0    11206.227    24.959259     24.95812    22.856895    14238.387    10996.712    10182.251    12439.718    762.00975    682.93676    1080.5594   -5602.6456 
 5563000    300.36768   -9021.2333   -7876.0948   -9021.2333            0    11382.112    24.951749    24.895066    22.932677    14245.216    10741.883    11892.277    11512.175    772.58926    945.36504    906.29408   -5511.4399 
 5564000    290.68407   -9028.4022   -7920.1819   -9028.4022            0    11950.943    24.890116     24.80396    23.015766    14209.322    11918.467    13145.305    10789.058   -802.93135   -1222.4321   -340.26822   -5443.6072 
 5565000    275.34365   -9047.4121   -7997.6765   -9047.4121            0    9939.1372     25.00792    24.942609    22.956302    14319.286    9344.8022    10042.885    10429.724   -258.17415   -82.068867     34.21996   -5922.0656 
 5566000    293.74694   -8986.6906   -7866.7933   -8986.6906            0    10754.812    24.908094    24.952051    23.005074    14297.838    11614.831     9898.652    10750.954   -543.02563   -1068.3204   -810.34657   -5624.2073 
 5567000    286.63733   -9074.5658   -7981.7735   -9074.5658            0    9848.8098    24.873152    24.928914    23.043707    14288.496    10376.889     10205.96    8963.5805    987.14635    -43.46969    1103.2793   -5929.4484 
 5568000     278.5502   -9032.6542   -7970.6938   -9032.6542            0    11041.913    24.874431    24.947691    22.947002    14239.983    11675.126    11010.732    10439.882    535.92963    228.25412     788.2134   -5677.5585 
 5569000    275.19414   -9017.3676   -7968.2021   -9017.3676            0    11645.538    24.901445    25.032429    22.812014    14219.725    12280.055    10096.974    12559.585    158.90403   -731.11051     540.3506   -5553.1493 
 5570000    276.55432    -9025.964   -7971.6128    -9025.964            0    10849.474    24.883066    24.932147    22.972395    14251.804     11021.39    10852.944    10674.089   -591.77623    70.250117   -1034.3637   -5716.5719 
 5571000    285.80017   -9024.7173   -7935.1167   -9024.7173            0    9772.6463    24.953321     24.97416      22.9663    14312.328    10273.168    8776.3475    10268.424    244.61372   -14.777946    334.34431   -5895.2663 
 5572000    291.80247   -8998.7608   -7886.2767   -8998.7608            0    11971.301    24.942432    24.893834    22.857615    14192.585    11948.182    12530.839    11434.882   -608.86388     481.0372   -721.90531   -5408.4055 
 5573000    274.67606   -9071.9987   -8024.8083   -9071.9987            0    10751.602    24.861434    24.850745    23.051323    14241.687    11577.793    10673.895    10003.118    186.73528    340.34655   -401.18139   -5791.6963 
 5574000    297.68764   -9035.3761   -7900.4551   -9035.3761            0    13735.133    24.968238      24.8328    22.790712    14130.954    13659.884    12361.693    15183.821    499.58212    615.24055    269.56016   -5069.8439 
 5575000     294.5812   -8999.5974   -7876.5196   -8999.5974            0    13175.441    24.887616    24.843896    22.941551    14184.883    12772.174    13419.162    13334.986    597.04895    332.17708    35.880419   -5150.8901 
 5576000    290.90564    -9035.454    -7926.389    -9035.454            0    12348.424     24.85201    24.859131    22.957584    14183.181    13721.556    11549.717    11773.999   -1044.7799     472.4143    1703.6018   -5372.1528 
 5577000    275.82146   -9025.9856   -7974.4284   -9025.9856            0     13474.22    24.794687    24.941477    22.831954    14119.649    15253.899    12063.685    13105.075    447.74011   -131.21411    275.22955   -5199.8091 
 5578000    278.71307   -8946.3688   -7883.7874   -8946.3688            0    11950.872    24.796852    24.918526    23.045713    14239.969    13559.296     11200.85    11092.471    604.85948   -438.85756    104.73579    -5401.886 
 5579000    274.56447    -8994.474    -7947.709    -8994.474            0    13324.077    24.831305    25.084319     22.75045    14170.718    12270.728    12946.008    14755.495    32.748544   -1337.0803    449.78426   -5194.0836 
 5580000    281.29173   -9010.0379   -7937.6256   -9010.0379            0     10787.47    24.858029    25.006399    22.964392    14274.891    9487.3583    10594.507    12280.546   -86.372031    878.99468    531.73833   -5691.8399 
 5581000    292.02756   -9010.8847   -7897.5424   -9010.8847            0    11923.846    24.922074    24.860804    22.942382    14214.705    11845.626    12587.043    11338.869    -241.0036   -1402.1907     139.4879    -5425.647 
 5582000    278.62736   -8993.6235   -7931.3689   -8993.6235            0    12897.319    24.914232    24.917088    22.816965    14164.546    12576.106    13364.125    12751.728   -1164.9513   -97.319376   -883.19334   -5267.1003 
 5583000    278.67635   -9047.8831   -7985.4418   -9047.8831            0    11804.945    24.726312    24.865971    23.057763    14176.921    13066.533    11807.415    10540.886   -22.580169    727.43172   -725.00351   -5544.7004 
 5584000     300.0628   -9025.1366   -7881.1603   -9025.1366            0     10775.16    24.947533    24.880798    22.970795    14258.306    11113.243    10845.462    10366.774    599.96957   -36.939202    2037.5272   -5640.5437 
 5585000    284.79369    -9031.252   -7945.4885    -9031.252            0    10953.171    25.061717    24.991685    22.764323    14258.082     9143.257    10611.366    13104.891    -11.00059    1469.8665   -166.95284   -5667.8916 
 5586000    288.28873   -9026.8651   -7927.7769   -9026.8651            0    10021.054    24.923454    24.900676    22.970029    14255.449    9790.0271    10335.003    9938.1317   -532.00135   -788.67634   -494.70651   -5844.3888 
 5587000    280.55305    -9003.665   -7934.0688    -9003.665            0    13245.216    24.861403    24.830854    22.970105    14180.132    13439.904    14182.629    12113.113    92.867304    883.15822   -466.98257   -5194.9228 
 5588000      287.166   -8972.6332   -7877.8254   -8972.6332            0    12962.217    24.871354    24.964026    22.851261      14188.1    12911.329    12557.239    13418.082    291.62799   -1437.1893    2.6885086    -5195.698 
 5589000    274.85333   -9025.2166   -7977.3503   -9025.2166            0    14142.659    24.812276    24.772306    22.931962    14095.298    14721.093    15420.232    12286.651    44.713503    729.32514   -1230.1327   -5070.1082 
 5590000    287.74968   -9003.7664   -7906.7334   -9003.7664            0    11747.797    24.916298    24.854297    22.924594    14196.675    11435.986     12326.92    11480.484    -488.8324    354.09717   -81.230131   -5474.4232 
 5591000    269.55157   -8997.0221   -7969.3686   -8997.0221            0    12012.279    24.926182    24.860801    22.917673    14201.734    10760.077    13275.708    12001.051   -849.07051   -191.63698    367.61154   -5481.4126 
 5592000    286.27092   -9005.3749   -7913.9796   -9005.3749            0    12567.489    24.858543    24.984094    22.880133    14210.122    12554.032    10717.071    14431.363    864.50226     5.151269    173.50289   -5309.4926 
 5593000    285.42223   -9000.8419   -7912.6821   -9000.8419            0    11708.605    24.819549    24.996449    23.006461    14273.222    11701.619    11439.874    11984.323   -131.88548   -137.66532    126.44558   -5475.4153 
 5594000     277.3051   -9008.0302   -7950.8167   -9008.0302            0    11243.078    24.829341     25.04756    22.899897    14241.775    11310.991     10866.01    11552.231   -218.73117   -814.84677   -377.35146   -5615.6105 
 5595000    276.93458   -9069.4505   -8013.6495   -9069.4505            0    12118.397    24.740005    24.903352    22.973324    14154.073    13675.163    11422.306    11257.721    -118.6818   -634.82175   -813.79181   -5512.1381 
 5596000    286.87945   -9035.2511   -7941.5359   -9035.2511            0    11528.329    24.900478    24.996382    22.891121    14247.934    11221.036    11927.829    11436.123   -333.34232   -922.02853    62.239878   -5546.0471 
 5597000    288.25044   -9023.7177   -7924.7755   -9023.7177            0    10863.602    25.007649    24.855347    22.947157    14263.351    9888.3173    11874.067    10828.421   -195.21252   -644.79473   -998.92622   -5664.9687 
 5598000    275.96742   -9054.6573   -8002.5436   -9054.6573            0    10468.834    25.006904    24.844034    22.924022    14242.061    9269.2349    11373.707    10763.561   -138.06529   -344.96529    318.88509   -5828.1055 
 5599000      282.537   -8998.9278   -7921.7679   -8998.9278            0    10654.286    25.088173     24.82366    22.954489    14295.603    10308.249    11054.778     10599.83    29.023056    902.51658    990.01801   -5700.4911 
 5600000     278.0819   -9037.6658   -7977.4908   -9037.6658            0    11086.653    25.026196    24.852261     22.86533    14221.264    9822.6877    12303.951    11133.319   -1185.6958   -465.65297    311.05763   -5678.0907 
 5601000    283.92177   -9038.9608   -7956.5215   -9038.9608            0    11656.741    24.923753    24.896251    22.892443    14204.944    12478.559    10302.976    12188.686    -340.7613   -449.84855    428.95567   -5541.6582 
 5602000    292.99237   -9013.7877   -7896.7671   -9013.7877            0    11085.458    24.831708    24.934254    23.058634    14276.987     12073.99    10700.431    10481.953   -617.67182   -361.37236   -421.61856   -5588.6062 
 5603000    279.37886   -8986.1823   -7921.0626   -8986.1823            0    11257.742    24.906806    24.947704    22.965348    14269.923    11085.368    10908.188    11779.672   -1488.9016   -1071.7864   -752.28858   -5578.1891 
 5604000    274.71051   -8991.1915   -7943.8698   -8991.1915            0    10488.656    24.961752    25.026126    22.884364    14295.769    11521.684     8725.876    11218.408   -295.00718   -946.15267   -814.17171    -5757.099 
 5605000    282.47021   -9008.6448   -7931.7396   -9008.6448            0    10320.318    24.794226    24.944545    23.109181    14292.582    11007.824     10007.68    9945.4511    151.11032   -899.89438   -234.20581    -5780.545 
 5606000    281.96648   -9040.1221   -7965.1373   -9040.1221            0    11872.246    24.805604    25.125989    22.800105    14210.516    12110.627    10109.512      13396.6    174.15993    630.32783   -561.82708   -5504.6642 
 5607000    282.07514   -9011.4482   -7936.0492   -9011.4482            0    11058.988     24.87101    24.971137    22.983201    14273.887    11408.574    9856.7961    11911.594   -270.82853    569.13914   -412.38674   -5633.8996 
 5608000    288.04403   -9028.9206   -7930.7654   -9028.9206            0    11227.813    24.983072    25.019073    22.768961    14231.815    11157.264    9382.8949    13143.279   -171.19177   -1323.4283    749.40513   -5600.3608 
 5609000    276.00586   -9016.5752    -7964.315   -9016.5752            0     10691.04    24.947396    24.977793    22.938862    14293.913    10260.842    10889.418    10922.859    1082.0271   -290.91334    1083.4316   -5735.6388 
 5610000    281.57212   -9038.0966   -7964.6153   -9038.0966            0    10042.272    24.916679    24.892212    23.052551    14297.913    11447.265    9818.8038    8860.7474    743.60052    -239.6342   -1184.4353   -5870.5968 
 5611000    284.04329   -9020.9432   -7938.0406   -9020.9432            0    10860.258    24.996648    24.883394    22.908437    14249.081    9088.8345    12516.915    10975.023     -179.888    582.55997   -1099.6279   -5681.1897 
 5612000    278.20658   -8992.7957   -7932.1454   -8992.7957            0    10672.034    24.964127    24.968276    22.894825    14270.602     11251.57    10450.854    10313.678   -738.93427   -92.485976   -295.27062   -5711.0594 
 5613000    280.46347   -9014.9005   -7945.6458   -9014.9005            0    10850.301     24.81349    24.947737    23.040323    14262.891      13025.3    9921.5557    9604.0474    607.62093    721.83524    1052.7175   -5688.6786 
 5614000    287.53749   -8968.3203   -7872.0963   -8968.3203            0    11098.036    24.971748    24.968571    22.876451     14263.67    10789.469    10663.776    11840.864   -6.3702575    490.81905    715.14067   -5563.4716 
 5615000    290.17655    -8984.356   -7878.0707    -8984.356            0     11951.53    24.700506    24.968984    23.057539    14220.657     13842.91    10164.633    11847.049   -816.59527   -201.09528    -1302.221   -5399.3985 
 5616000    278.18015    -9009.944   -7949.3945    -9009.944            0     13117.87     24.76484    25.051748    22.828728        14163    14478.513    11339.781    13535.315    550.58512   -1864.6158   -421.99749   -5239.8613 
 5617000    275.72246    -9063.955   -8012.7753    -9063.955            0    10821.009    24.827693    25.043189    22.907105    14242.827    11382.308    10692.785    10387.934   -1182.8017   -58.799715   -458.58683   -5765.0674 
 5618000    279.98642   -9068.6972   -8001.2612   -9068.6972            0    12029.554    24.674387    25.025053    22.999781    14201.855    13940.531     10759.21     11388.92     896.4583    917.12618   -808.88266   -5509.7062 
 5619000    276.83274   -8986.8093   -7931.3966   -8986.8093            0    11585.223    24.956414    25.034743    22.799374    14244.534    10788.319    12685.697    11281.654    691.95133    129.86862    800.32753   -5524.6602 
 5620000    284.08748   -9027.6958   -7944.6248   -9027.6958            0    10652.318    24.890186    24.939455    22.979358    14264.383    10584.723    10665.128    10707.101   -639.23667   -350.76074    594.90992   -5728.6083 
 5621000    283.41257   -9049.1009    -7968.603   -9049.1009            0     9788.352    24.990079    24.846327    23.045076    14308.956    9111.0472    10383.613    9870.3953    772.52283   -1012.9883   -802.18929   -5925.9554 
 5622000    285.69632   -9012.5212   -7923.3165   -9012.5212            0    9823.9418    25.052754    24.970519    22.852556    14296.108    10254.309    8968.5012    10249.015   -329.32218    572.36547     787.4573   -5875.0829 
 5623000    282.33256   -9056.2996   -7979.9191   -9056.2996            0    9991.0542    24.905468    24.903127    23.044145    14292.533    10075.805    10367.893    9529.4642    1276.2022   -161.97335    1768.7229   -5897.3645 
 5624000    289.15767   -9004.2873   -7901.8864   -9004.2873            0    10505.764    25.042558    24.902576    22.906168    14284.841    9363.5584    11130.076    11023.659    -222.0137    149.34824   -780.22874   -5713.2231 
 5625000    295.34436   -9006.6238   -7880.6365   -9006.6238            0    12227.484    24.895392    24.854753    22.955631    14204.229    11985.342    12385.712    12311.398   -895.89505   -456.79855    663.22391    -5347.663 
 5626000    289.86377   -9035.6804   -7930.5875   -9035.6804            0    13142.782      24.7823    24.859055    22.936043    14130.083    13883.232    13887.754    11657.359    421.95877   -412.59328   -382.82402   -5222.2181 
 5627000     279.1761   -8973.8004   -7909.4538   -8973.8004            0    12964.998    24.829553    24.964223    22.838974    14156.749    13396.747    12258.644    13239.604    476.80186    -119.4706   -230.88572   -5232.6787 
 5628000      279.765    -9024.138   -7957.5462    -9024.138            0    12090.127    24.707568    24.941643    23.057097    14208.875    13890.721    11802.973    10576.688   -27.315089   -2080.4321    678.30369   -5452.2075 
 5629000    287.38542   -9005.0071   -7909.3628   -9005.0071            0    12157.053    24.879701    25.035797    22.816568    14212.055    12267.592    10763.507    13440.061   -119.41181   -859.58163     478.0235   -5389.5917 
 5630000    275.11624   -9031.2122   -7982.3436   -9031.2122            0    12095.219    24.920313    24.867674    22.923226    14205.757    12585.155    12659.024    11041.478    1016.9001    123.51392    188.08585   -5476.4997 
 5631000    279.55416   -9045.3914   -7979.6035   -9045.3914            0    12609.099    24.876658    24.812424    22.945173    14162.913    11481.226    13711.429    12634.641    281.86375    1158.6323      7.83947   -5375.1746 
 5632000    280.31773   -9021.7831   -7953.0841   -9021.7831            0    9236.9934    24.963359    25.135394    22.880538    14356.711    9883.3576    7919.1629    9908.4595   -734.18107   -1248.4753   -292.93918   -6019.0617 
 5633000    278.64546   -9022.3766    -7960.053   -9022.3766            0    10375.957    24.927753    24.945236    22.977093    14287.816    10262.867     10485.94    10379.065   -392.52937   -496.29952    1554.4715   -5797.9823 
 5634000    286.31721    -9089.097   -7997.5252    -9089.097            0    8546.9154    24.984254     24.98442    22.981998    14345.756    7830.8721    8684.1308    9125.7433   -854.68079   -455.98641    506.71059   -6209.3555 
 5635000    271.02998    -9031.563   -7998.2731    -9031.563            0    11922.257    24.887792    24.968999    22.822265    14182.286    12112.307    11610.871    12043.594    13.946104    91.065731    617.97828   -5532.3439 
 5636000    274.80686   -8982.4293   -7934.7402   -8982.4293            0    12302.382    24.676111    24.926312    23.111513    14215.532    14115.341    11867.646     10924.16    84.458418   -1318.6982   -189.91624   -5384.2232 
 5637000    278.62698   -9037.4994   -7975.2463   -9037.4994            0    11597.306    24.898489    24.937541    22.911339    14225.813    10671.408    11982.786    12137.724   -599.33211    623.60193   -3.4432886   -5569.1661 
 5638000     288.9335   -9030.2893    -7928.743   -9030.2893            0    12670.891    24.764775    24.895833    22.990776    14174.726    13132.345     13082.92    11797.408   -159.75286    -256.7346   -145.37712   -5309.3677 
 5639000    274.76455   -9025.9157   -7978.3879   -9025.9157            0    12439.641     24.84201    24.971586    22.835828    14166.078    12000.765    12836.136     12482.02    474.74618    595.08588    163.68902   -5408.3865 
 5640000     280.0304   -8994.4204   -7926.8168   -8994.4204            0    11770.831    24.803238     24.95209    22.966451    14213.767    13015.289    10735.146    11562.059    5.3744294      769.571    -1142.069   -5486.8034 
 5641000    282.58691   -9061.7016   -7984.3514   -9061.7016            0    10655.831     24.85079    24.997066    22.957208    14260.945    10242.853    10856.438    10868.203    -671.0229   -622.93713     512.0025   -5768.1383 
 5642000    271.77501   -9021.6555   -7985.5252   -9021.6555            0    10988.784     24.91362    25.018474    22.872798    14256.633    11485.824    11228.357     10252.17   -409.05451     19.37059    300.43605   -5700.7552 
 5643000    282.15714    -9011.432   -7935.7202    -9011.432            0    11145.846    24.832241     24.88253    23.087026    14265.219    11443.487    12030.628     9963.421   -655.87358    17.596505    1634.1053   -5616.8986 
 5644000    284.11174   -9033.4251   -7950.2616   -9033.4251            0    11413.633    24.984041    25.012266    22.787508    14240.084    9821.9701     11033.19    13385.738    16.110192   -1153.5241    141.59679   -5579.9124 
 5645000    293.92617   -8998.1237   -7877.5431   -8998.1237            0    11049.635    24.991965     24.83985    23.006921     14282.62    11062.903    11753.819    10332.182   -785.47716    296.65969   -59.378485   -5575.9333 
 5646000    287.05194   -9057.7353   -7963.3624   -9057.7353            0    10572.367    24.956996    24.871814    22.973332    14260.139    10683.326    11076.176       9957.6   -381.21525   -90.353734    577.68905   -5764.6324 
 5647000    283.37047   -9043.0921   -7962.7547   -9043.0921            0    11082.412    24.837944    25.061787    22.917076    14265.497    11431.181    10397.774    11418.282    695.67911    100.54898   -1163.0944    -5657.085 
 5648000    280.67038   -9061.5178   -7991.4744   -9061.5178            0     11518.49    24.799685    24.981373    22.972503    14232.159    11616.298    11748.721    11190.451    434.64145   -142.28405   -207.54027   -5600.6799 
 5649000    284.24653    -9024.184   -7940.5066    -9024.184            0     10862.47    24.816284    25.045503    22.955831    14267.883     12306.63    10423.682    9857.0969   -652.10971    605.23435    934.32191   -5680.2175 
 5650000    277.61002   -9025.9686   -7967.5926   -9025.9686            0     11972.39     24.89223    25.041179    22.762218    14188.391    12624.887    10306.675    12985.608   -967.60952    8.7343645    591.57388   -5490.2282 
 5651000    288.93932   -9024.3456   -7922.7771   -9024.3456            0    11307.084    24.735857    24.997684    23.017957    14232.904    12654.183    10585.708     10681.36   -32.281302    312.15275    105.99431   -5575.7398 
 5652000    273.63126    -9000.042   -7956.8349    -9000.042            0     12081.51      24.8766    25.094586    22.748635    14201.244    12436.995    10855.203    12952.333    519.97064    1525.0458   -55.341299   -5454.6262 
 5653000    291.44788   -9047.8337   -7936.7015   -9047.8337            0     10162.68    24.864191    24.980923    22.998368    14284.987    11233.046    9420.3461    9834.6485   -386.19899   -1798.2327    49.456731   -5819.4912 
 5654000    280.74132   -9050.4694   -7980.1554   -9050.4694            0    10595.978    24.928718    24.954793    22.932648    14266.194    11903.554    10056.326    9828.0527   -646.57077   -559.21544   -1711.6315   -5775.5797 
 5655000    276.52001   -8997.2242   -7943.0038   -8997.2242            0    11459.087    24.951151     24.95086    22.873372    14239.879    11121.689    11591.866    11663.706   -177.99603   -479.55459   -811.93209   -5563.2491 
 5656000    270.71346   -9072.9005   -8040.8173   -9072.9005            0    11142.246    24.886547    24.806235    22.991292    14193.479    10185.465    11823.009    11418.264    753.66465   -374.53908    910.07524    -5734.402 
 5657000    283.76991   -9036.8114   -7954.9511   -9036.8114            0    11126.255    24.983968    24.867952    22.934555    14249.241    12172.151    10976.402    10230.211   -182.64881    154.30475   -565.27844   -5642.7978 
 5658000    281.36249   -9017.0774   -7944.3953   -9017.0774            0    10216.555    25.007136    24.797789    23.066828    14304.241    10383.212    11073.947     9192.507   -143.19586    336.46948   -678.59058   -5813.0923 
 5659000    286.21315   -9004.3914   -7913.2163   -9004.3914            0    11871.194    25.031458    24.886379    22.869218    14246.205     11016.05     12615.33    11982.202    1246.4261    213.40657   -687.95642   -5446.7825 
 5660000    276.24589   -9001.0097   -7947.8344   -9001.0097            0    11139.984    24.891897    24.898197    22.998263    14253.481    10871.403    11092.591    11455.957   -751.67063    915.44234  -0.58738864   -5632.1392 
 5661000    268.48247   -9012.3515   -7988.7739   -9012.3515            0     12735.07    24.888858     24.99291    22.796251    14180.294    13233.577    10835.343    14136.289   -925.21285    1149.8031    74.888199   -5355.0973 
 5662000     283.9818   -9028.4863   -7945.8182   -9028.4863            0    11383.258    24.833642    24.902966    23.044879    14251.675    12536.986    11466.736    10146.054   -893.18838   -389.67389    1256.1892   -5579.8527 
 5663000    280.64618    -8987.172   -7917.2207    -8987.172            0     12040.47     24.91066    24.994191    22.807587    14200.501    12660.619    10803.589    12657.202    453.50493    1213.7876    436.27399   -5423.6425 
 5664000    278.19004   -9033.1524   -7972.5651   -9033.1524            0     12089.47    24.794129    24.915729    23.008721    14213.955    12492.644    11386.743    12389.023    304.51743   -1034.1784   -222.86476    -5466.467 
 5665000     284.7895   -9025.1264   -7939.3789   -9025.1264            0      11651.2    24.781399     24.95843    22.984353    14215.933    12539.895    11697.723    10715.983   -288.92201   -770.83781    -312.0687   -5523.7961 
 5666000    291.94323   -9026.1403   -7913.1195   -9026.1403            0    10796.311    24.963795    25.072865    22.805452    14274.249    11103.737    9825.8144    11459.381   -1242.0209   -1839.0813    700.18376   -5665.5946 
 5667000    267.87195   -9048.3614   -8027.1114   -9048.3614            0    10272.507    24.886122    24.894821    23.043155    14276.054     10827.36    11156.751    8833.4107    449.30362   -319.81691    269.32643    -5888.359 
 5668000    283.44669   -8972.3734   -7891.7454   -8972.3734            0    9962.2113    24.904124    25.069181    22.947682    14326.834    11760.337    7956.7556    10169.541    249.67924    314.07768     82.32028   -5810.2192 
 5669000    275.93852    -9006.871   -7954.8675    -9006.871            0    9939.6166    24.938006    24.935947    23.036202    14325.127    10597.748    9058.2216     10162.88    447.97867    560.01701    805.49879   -5878.3098 
 5670000    285.55793   -9033.7177   -7945.0406   -9033.7177            0    12642.309    24.980298    24.741446    22.919231    14165.201    11619.499    12850.118    13457.309    105.02988   -640.26356    375.14285   -5333.3302 
 5671000    282.20307    -9029.492   -7953.6052    -9029.492            0    11721.012    24.994415    24.865975    22.877686    14218.722     11628.32    11009.527     12525.19    861.66575   -157.93681   -440.57508   -5523.0718 
 5672000    284.57245   -9038.0611   -7953.1411   -9038.0611            0    11248.899    24.973595    24.747656     23.00074    14215.329    11008.178    12284.731    10453.788    597.26322   -460.50323   -32.999701   -5621.0644 
 5673000    278.39394   -8990.1769   -7928.8122   -8990.1769            0    14042.655    24.832612    24.924197    22.837857    14135.101      14586.4    14291.759    13249.806   -706.70257    471.20616    221.42768   -5033.9757 
 5674000    289.36754   -9067.3188   -7964.1178   -9067.3188            0    12235.947    24.925209    24.894904    22.848532    14177.758     12129.05     12191.14    12387.651   -795.64717    58.756549   -352.69233   -5434.1148 
 5675000    283.44299   -9031.6075   -7950.9936   -9031.6075            0    11644.357    24.801503     24.83728    23.075825    14214.751    11636.935    12435.373    10860.763   -245.99317    1533.8712   -57.614021   -5537.0302 
 5676000    284.20896   -9051.0056   -7967.4714   -9051.0056            0    12308.368    24.826344    24.884752    22.930014    14166.103    14370.975    11711.185    10842.944   -741.47619    346.85463   -720.96561   -5424.5862 
 5677000    283.55547   -9015.7118   -7934.6691   -9015.7118            0    12125.214     24.88053    25.107073    22.800442    14242.918    12732.013    11138.331    12505.299    585.68572    731.76439  -0.34606728   -5416.0395 
 5678000    272.04064   -8994.3399   -7957.1969   -8994.3399            0    11521.993    24.878646    24.923199    23.026016    14277.407    12081.191     11321.77    11163.019    825.66168    810.14636    680.53656   -5558.0721 
 5679000     276.5021   -9019.6515   -7965.4994   -9019.6515            0    10258.704    24.754486    24.877559    23.248936    14317.421    12190.495    9206.4131     9379.205    875.80571    215.34615    973.25706   -5823.4317 
 5680000    278.27284   -9044.7705   -7983.8675   -9044.7705            0    11173.613    24.921544    25.047296    22.837664    14255.665     10637.81    10945.126    11937.902   -450.66757   -374.66403    548.29535    -5660.826 
 5681000    277.73302   -9005.0156   -7946.1706   -9005.0156            0    11418.565    24.794098    24.940884    23.035297    14244.722        11046    10943.862    12265.832    326.01364    30.283058   -1252.0578   -5574.0248 
 5682000    276.17209   -8952.9226   -7900.0287   -8952.9226            0    12839.802    24.837632    24.984178    22.855115    14182.692    12958.428    12410.824    13150.154    4.7128805   -1407.0217   -746.71033   -5244.2439 
 5683000    283.86314    -9029.257   -7947.0413    -9029.257            0    11529.494    24.974665    24.942186    22.859938    14239.975     10731.75    11815.319    12041.414   -1040.0545   -268.45227    1302.4505   -5552.6486 
 5684000    292.07722   -9055.0813   -7941.5497   -9055.0813            0    11419.398    24.845558     24.86857    23.024001     14225.92    11003.787    11790.306      11464.1    252.92213    608.48567    769.14348   -5572.3621 
 5685000    292.56682    -8973.613   -7858.2149    -8973.613            0    13166.399    24.962782    25.079228    22.608066    14153.719    13299.079    11544.656    14655.463    -1039.037   -191.01902   -260.41736     -5140.44 
 5686000    291.63664   -9008.0703   -7896.2185   -9008.0703            0    11245.715    24.850312    24.968568    23.023877    14285.779    11135.384     11972.57    10629.191    367.01961    143.38824    807.41312   -5553.2475 
 5687000    267.50892    -9032.309   -8012.4429    -9032.309            0    10391.247    24.909399    24.942549    22.984357     14280.27    11645.293    9529.8921    9998.5556     254.5066    1603.9989    341.23199   -5848.3297 
 5688000    294.47257   -9030.3736   -7907.7099   -9030.3736            0    11507.517    24.993087     24.97052     22.80177    14230.365    10797.151    11205.944    12519.456    571.70464     -127.396   -521.94847   -5519.4941 
 5689000    269.76914   -9041.0217   -8012.5388   -9041.0217            0    10678.126    24.840304    24.890062    23.052848    14253.039    9023.1238    12697.706    10313.548    -401.9919   -609.50216    228.38599   -5792.9199 
 5690000     292.9311   -9012.6249   -7895.8379   -9012.6249            0    10953.975    25.002698    24.962289    22.854476     14264.04    10057.518    11138.357    11666.049   -19.178083    37.620883   -428.25602   -5617.1221 
 5691000    287.00509   -9025.8824   -7931.6881   -9025.8824            0     10551.87    24.993853    24.924467    22.897279    14264.054    10875.938    10154.156    10625.516    709.30104   -939.39546     1683.842   -5736.6185 
 5692000    286.26384   -9005.0394   -7913.6711   -9005.0394            0    11171.067    24.838716    24.823155    23.096974    14241.024    11192.439    12176.617    10144.146    -8.819737    16.409643    333.83047   -5593.5441 
 5693000    280.21334   -9014.4493   -7946.1483   -9014.4493            0    10705.242    24.922729    25.016677    22.862256    14254.248    9446.3059    10865.957    11803.463    113.75229   -679.63513   -342.75187   -5720.7043 
 5694000    280.51726   -9026.0468   -7956.5871   -9026.0468            0    10176.497    24.963615    25.092782    22.820102    14294.661    9464.8221    9325.5527    11739.115   -138.77292    1528.4424    395.50697   -5835.0626 
 5695000    282.58338   -9016.7509   -7939.4142   -9016.7509            0    11001.783    24.849849    24.967638    22.980052     14257.79     11982.32    10427.521    10595.508   -958.67986    447.84788   -249.14476   -5651.7558 
 5696000    288.70944   -9014.0583   -7913.3663   -9014.0583            0    11477.335     24.82592    24.984128    22.912752    14211.725    12167.085    10544.745    11720.174   -424.73599   -116.52382    756.55118   -5534.5345 
 5697000    276.07129   -8997.8016   -7945.2919   -8997.8016            0    10970.197     24.99492    24.900864    22.957132    14288.406    9442.5904    12050.505    11417.496   -330.06319   -715.64246    472.41495    -5659.303 
 5698000    284.53232   -9017.6543   -7932.8873   -9017.6543            0    10270.332    25.061566    24.793108    23.027407    14308.174    9680.4994    11822.818    9307.6793    194.45845   -310.83126    857.91063   -5789.7766 
 5699000    286.52527    -8994.832    -7902.467    -8994.832            0    11943.503    25.025988    24.811466    22.921724     14232.82    11200.429    13123.199    11506.882    991.33852    -78.56433     228.1912   -5423.3412 
 5700000    284.74671   -9003.8917   -7918.3074   -9003.8917            0    12758.354    24.989647    24.737235    22.899877    14156.126    11892.328    14601.304    11781.429    509.67502    14.103255    962.22057   -5284.3123 
 5701000    295.07492   -9013.0669   -7888.1068   -9013.0669            0    13542.111    24.917156    24.847715    22.829689    14134.646    13387.913    13211.255    14027.166   -667.73097   -526.49471   -69.371966   -5096.5452 
 5702000    283.67793   -9025.5394   -7944.0298   -9025.5394            0    13247.141    24.762492    24.873574    22.954312    14138.288     14048.38    12940.344      12752.7    1559.7421   -645.20432     567.5549   -5212.5695 
 5703000    279.71786   -9061.0312   -7994.6191   -9061.0312            0    12023.309    24.825117    24.970958    22.890427    14189.935    12587.921    11002.949    12479.058    628.79867    35.067364    428.09951   -5506.4476 
 5704000    287.93776   -9005.9987   -7908.2487   -9005.9987            0    12319.321    24.910255     24.99194    22.800783    14194.756    11236.221    12192.106    13529.638   -791.89161    572.18894    1896.9641   -5357.9526 
 5705000     274.2924   -9020.0648   -7974.3371   -9020.0648            0    12129.511    24.857034    24.952748    22.916445    14213.955    12841.715    11804.939    11741.878    140.63999   -576.70583    306.87922   -5459.9386 
 5706000    270.47188   -9068.5329   -8037.3708   -9068.5329            0     10802.77    24.878136     24.87802    22.981036    14223.395     10095.95     11846.21    10466.149   -404.64376   -1157.7382   -114.11176   -5796.5131 
 5707000    280.39401   -9000.7578   -7931.7679   -9000.7578            0    12595.549    24.997979     24.91485    22.769962    14181.608    12789.011    12887.042    12110.593    191.48865    -582.1567   -433.80921   -5326.7035 
 5708000    281.09115   -9010.4257   -7938.7781   -9010.4257            0    11492.442    24.846846    24.844385    23.068263    14240.145    12417.666    12130.324    9929.3346     637.4584    313.63985    36.586393   -5552.0518 
 5709000    282.04478   -8971.3405   -7896.0572   -8971.3405            0    12272.054    24.837894    24.867793    23.026188    14222.439    12604.149    12437.904    11774.108   -749.25707    327.55239    382.48113   -5350.5917 
 5710000    292.52895   -9044.4285   -7929.1747   -9044.4285            0    11622.931    24.911885    25.026489    22.776938    14200.442    11740.277    10324.858    12803.656      252.079   -195.82099    47.020798   -5522.0789 
 5711000    292.31864   -9040.1642   -7925.7123   -9040.1642            0    10200.336    24.742468    24.957102    23.112638     14272.06    11433.162    10958.502    8209.3438    649.32903   -252.77836     147.4412   -5802.5801 
 5712000    287.48367   -9054.9822   -7958.9633   -9054.9822            0    11471.475    24.855058    24.938566    22.959055    14231.158      11970.2    10463.901    11980.322   -11.989189   -877.78669    603.56077   -5578.0949 
 5713000    274.41287   -9003.2868   -7957.0998   -9003.2868            0     11946.59    24.980364    24.926526    22.810366    14203.415    10631.131    12415.378     12793.26    193.65098   -122.59583    503.78359   -5482.4564 
 5714000    292.46548   -9026.8583   -7911.8465   -9026.8583            0    13307.676     24.71119    24.764558    23.085966    14127.727    14915.355      13684.1    11323.574    342.58816    98.513628   -2229.0195   -5169.9541 
 5715000    286.70994   -9051.3099   -7958.2409   -9051.3099            0    11881.222    24.781436    24.980114    22.933986    14197.126    13012.255    11449.664    11181.747    644.48291   -409.72773    292.71548   -5498.2277 
 5716000    280.79757    -9060.443   -7989.9146    -9060.443            0    11460.003    24.840902    24.963517    22.902927    14202.478     11627.22    10573.158    12179.631   -464.86784   -315.98002   -686.18186   -5616.2205 
 5717000    275.26113   -8958.1258   -7908.7049   -8958.1258            0    12405.614      24.8446    24.888162    22.955883    14194.459    12463.959    13427.954    11324.928   -940.18664   -768.83759    -819.7494   -5340.5987 
 5718000    279.49135   -9001.3606   -7935.8121   -9001.3606            0    12580.726    24.896541    24.918896    22.854977    14179.098    13373.519    11883.441    12485.217   -403.98869     862.3159     283.1423   -5334.2741 
 5719000    277.00538    -9023.927   -7967.8561    -9023.927            0    12804.137    24.926425    24.722358    22.957444    14147.296    11443.076    15020.189    11949.146    672.00848    -54.20586   -471.53436   -5326.0579 
 5720000    281.31043   -9029.5099   -7957.0263   -9029.5099            0     10414.58    25.028888    24.776995    23.070198    14306.767    10500.042     10551.62    10192.079   -137.65955   -751.16642    581.16931   -5784.0292 
 5721000    273.27367   -8986.3873   -7944.5434   -8986.3873            0    12691.157    24.993951    24.836871    22.882003    14204.497     11854.39    12955.043    13264.038    374.13524    577.56299    164.40588   -5315.4685 
 5722000     277.7171   -9018.6358   -7959.8516   -9018.6358            0    12849.328    24.836318    24.852553    22.934601    14156.289     12386.28    13388.482    12773.222    274.93405   -7.0536624     108.7015   -5307.0442 
 5723000    285.05978   -9034.7468   -7947.9689   -9034.7468            0    12181.015    24.850615    24.897436    22.950151    14199.639    12497.198    12901.614    11144.232   -578.70397   -1084.2611    132.33089   -5425.4371 
 5724000    299.34657    -9005.492   -7864.2463    -9005.492            0    12504.587    24.845094    25.078738    22.760237     14181.53    12387.887    11005.986    14119.888    601.93307   -1468.4681    25.881743   -5278.0093 
 5725000    275.01941   -9011.8358   -7963.3364   -9011.8358            0    11391.072    24.890327    24.947986    22.951722    14252.182    11446.062     10535.22    12191.934    111.89536    -702.3359    81.610457   -5595.6627 
 5726000    292.01911   -9053.0105   -7939.7005   -9053.0105            0    12115.642    24.831395    24.908202    22.941841    14189.653    12946.866    11609.702    11790.357    1231.0656   -139.29687    90.659417    -5432.471 
 5727000     293.6303    -9032.061   -7912.6084    -9032.061            0    10316.951    24.996338    24.917086    22.923074    14277.314    11000.971    9019.4904    10930.394   -264.25905    1196.5472   -550.97431    -5764.413 
 5728000    285.77835   -8992.3202   -7902.8028   -8992.3202            0    10470.062     25.06961    24.742545    23.038063    14290.187    9653.7947    12101.471    9654.9213   -266.28686    285.17503     866.2985   -5720.7609 
 5729000    283.42245    -9036.152   -7955.6164    -9036.152            0    11467.816    24.987686     24.82318    22.929027    14222.275    11093.739    11557.914    11751.795   -263.04942     2.758934    129.92004   -5576.9931 
 5730000    279.30089     -8983.48   -7918.6577     -8983.48            0    11645.265    24.925818    24.905885    22.921194    14229.467    11481.502    12053.838    11400.453   -455.46072   -424.94052    1235.7514   -5502.0069 
 5731000    286.72676   -8980.5185   -7887.3853   -8980.5185            0    10854.078    24.719224    24.991198    23.138117    14293.873    11877.131    10689.869     9995.233    1209.2576   -528.56105   -464.73394   -5624.7283 
 5732000    283.49045   -9011.8093   -7931.0144   -9011.8093            0    10663.444    24.860516    25.014709    22.929402    14259.304    11002.699    10383.463     10604.17    444.35111    901.02583   -204.47409   -5713.4732 
 5733000    291.81551   -9026.7977   -7914.2639   -9026.7977            0    11374.792    24.835957    25.090346     22.88782    14262.379     12928.06    8597.0761    12599.239    317.31659   -790.26767    1814.1209   -5548.2826 
 5734000    293.13483   -9034.2296    -7916.666   -9034.2296            0    11376.376    24.781686    24.954741    22.976968    14209.429      11650.1    12012.857    10466.171    1187.0298   -22.686413    52.129542   -5559.1402 
 5735000    279.61907   -9041.8655   -7975.8301   -9041.8655            0    10971.761    24.846923    25.000999    22.926903    14242.144     10734.37    11504.887    10676.026   -77.401079    963.65538    310.27327   -5696.9178 
 5736000    286.02167   -9008.9212   -7918.4762   -9008.9212            0    12549.607    24.851694    24.903347    22.895212    14169.626    13370.428     11422.14    12856.253   -415.60119   -246.17081    1115.0363   -5325.1066 
 5737000     281.5388   -9011.4425   -7938.0882   -9011.4425            0    13584.457    24.961056    24.782092    22.831186    14123.079    13432.578    13964.142     13356.65   -159.46485   -364.15118    201.93296   -5140.0892 
 5738000    284.56351   -8958.2144   -7873.3286   -8958.2144            0     11357.85    24.952382    24.903223    22.921334    14243.196    10588.575     11875.51    11609.465    645.38326    194.36551    678.79318   -5514.0486 
 5739000    286.04863   -9027.8103   -7937.2625   -9027.8103            0    10882.364    24.845837    24.843094     23.10563    14261.891    11338.037    11205.239    10103.816   -604.20262   -743.42838   -277.61419   -5673.7846 
 5740000    284.63366   -8978.3012   -7893.1479   -8978.3012            0    11215.475    24.879529     25.01593    22.896721    14250.566    11321.222    10580.494     11744.71    -957.8119   -1051.9172   -180.90731    -5562.237 
 5741000    287.71382   -9020.2867   -7923.3904   -9020.2867            0    10495.846    24.840694    24.963818    23.032772    14283.049    10791.537    10472.896    10223.104   -305.37164    333.31647    295.98568   -5737.0677 
 5742000    283.18785    -8971.396   -7891.7548    -8971.396            0    11232.829     24.94039    24.979792    22.906153    14270.665    11241.246    11505.688    10951.553   -818.85338   -217.49361    380.10967   -5553.9445 
 5743000    287.36412   -9035.7206   -7940.1575   -9035.7206            0    11966.644    24.859667    24.720946    23.120571     14208.85    11472.125    12582.341    11845.468    790.18014   -1982.7508   -394.65028   -5460.4114 
 5744000    273.00933   -9013.7045   -7972.8684   -9013.7045            0    11155.946     24.98421    24.940204    22.869295    14250.116    10726.363    10996.084    11745.391    491.61569   -121.20606   -69.062659   -5654.4027 
 5745000    288.18907   -9033.2689   -7934.5607   -9033.2689            0    11154.746    24.938014    24.954394    22.870537    14232.633    10801.665    10584.196    12078.377    1069.8836    408.40663    499.53394   -5619.1884 
 5746000    290.23166   -9053.7603   -7947.2649   -9053.7603            0    11656.698    24.805776    24.968681    22.924799    14198.875    13534.005    11102.178    10333.911     257.8523   -766.05857     639.9192   -5533.4421 
 5747000    287.61805    -8974.994   -7878.4628    -8974.994            0    12626.575    24.827828    24.894093    23.010621    14222.089    11606.793    13107.921    13165.013    524.97087   -527.87477    796.58878   -5259.5271 
 5748000    276.92886   -9051.3418   -7995.5627   -9051.3418            0    10064.494    24.909239    24.974187    22.944533    14273.518    9595.3378    10025.815    10572.329   -1332.3888    -933.8802    916.09526   -5900.4911 
 5749000    274.19346   -9046.2292   -8000.8787   -9046.2292            0    11332.992    24.931889    24.909716    22.902481      14223.5    12075.824    10489.947    11433.206    462.13488   -1085.1356    974.55186   -5650.0176 
 5750000    292.42034   -9010.3874   -7895.5477   -9010.3874            0     11246.09    24.907726    24.860694    23.040417    14267.164    11110.875    11718.294    10909.101    487.33661    -34.86548    1285.4477   -5555.5519 
Loop time of 522.341 on 64 procs for 250000 steps with 1920 atoms

Performance: 82.705 ns/day, 0.290 hours/ns, 478.615 timesteps/s
192.3% CPU use with 32 MPI tasks x 2 OpenMP threads

MPI task timing breakdown:
Section |  min time  |  avg time  |  max time  |%varavg| %total
---------------------------------------------------------------
Pair    | 69.222     | 74.538     | 85.824     |  41.2 | 14.27
Bond    | 0.71141    | 1.1607     | 2.1505     |  26.5 |  0.22
Kspace  | 229.1      | 242.04     | 250.64     |  31.8 | 46.34
Neigh   | 6.2333     | 6.8133     | 7.7154     |  17.0 |  1.30
Comm    | 81.611     | 90.207     | 98.728     |  41.1 | 17.27
Output  | 0.61712    | 0.61747    | 0.61955    |   0.1 |  0.12
Modify  | 83.114     | 90.752     | 97.411     |  32.5 | 17.37
Other   |            | 16.21      |            |       |  3.10

Nlocal:        60.0000 ave          65 max          56 min
Histogram: 2 0 5 6 7 6 2 3 0 1
Nghost:        3387.12 ave        3417 max        3359 min
Histogram: 3 3 5 2 2 2 6 5 1 3
Neighs:        21297.3 ave       23418 max       19910 min
Histogram: 3 3 6 5 5 4 3 1 1 1

Total # of neighbors = 681513
Ave neighs/atom = 354.95469
Ave special neighs/atom = 2.0000000
Neighbor list builds = 13683
Dangerous builds = 1

unfix		3
unfix		2
unfix		1

write_data	data.final.${pid}
write_data	data.final.0
System init for write_data ...
PPPM initialization ...
  extracting TIP4P info from pair style
  using 12-bit tables for long-range coulomb (../kspace.cpp:340)
  G vector (1/distance) = 0.37453262
  grid = 30 30 30
  stencil order = 5
  estimated absolute RMS force accuracy = 0.0032598204
  estimated relative force accuracy = 9.8168524e-06
  using double precision FFTW3
  3d grid and FFT values/proc = 5400 960
Last active /omp style is kspace_style pppm/tip4p/omp
WARNING: Not all mixed pair coeffs generated from mixing. Use write_data with 'pair ij' option to store all pair coeffs. (../write_data.cpp:312)

write_restart   restart.lmp.${pid}
write_restart   restart.lmp.0
System init for write_restart ...
PPPM initialization ...
  extracting TIP4P info from pair style
  using 12-bit tables for long-range coulomb (../kspace.cpp:340)
  G vector (1/distance) = 0.37453262
  grid = 30 30 30
  stencil order = 5
  estimated absolute RMS force accuracy = 0.0032598204
  estimated relative force accuracy = 9.8168524e-06
  using double precision FFTW3
  3d grid and FFT values/proc = 5400 960
Last active /omp style is kspace_style pppm/tip4p/omp
Total wall time: 0:08:42
