LAMMPS (30 Jul 2021)
  using 1 OpenMP thread(s) per MPI task
package omp 0
using multi-threaded neighbor list subroutines
echo both

include		in.partitions
variable        pid world 0
include		in.temp
variable        temperature equal 262.56
variable	tempDamp equal 100.0
include		in.pressure
variable        pressure equal 8250.0
variable        pressureDamp equal 1000.0 # This is 1 ps
include		in.seed
variable        seed world 745823

units		real
atom_style	full
read_restart	restart.lmp.${pid}
read_restart	restart.lmp.0
Reading restart file ...
  restart file = 30 Jul 2021, LAMMPS = 30 Jul 2021
  restoring atom style full from restart
  orthogonal box = (0.59484168 1.7921762 0.72570546) to (17.612731 21.837002 21.487490)
  4 by 4 by 4 MPI processor grid
  restoring pair style lj/cut/tip4p/long/omp from restart
  restoring bond style harmonic/omp from restart
  restoring angle style harmonic/omp from restart
  864 atoms
  576 bonds
  288 angles
Finding 1-2 1-3 1-4 neighbors ...
  special bond factors lj:    0        0        0       
  special bond factors coul:  0        0        0       
     2 = max # of 1-2 neighbors
     1 = max # of 1-3 neighbors
     1 = max # of 1-4 neighbors
     2 = max # of special neighbors
  special bonds CPU = 1.240 seconds
  read_restart CPU = 1.591 seconds
include 	in.setup
variable	out_freq equal 1000
variable	out_freq2 equal 10000
variable	out_freq3 equal 1000

timestep	2.0

neigh_modify    delay 7 every 1

include		in.tip4p
# This is TIP4P/Ice

# create groups ###
group ox type 2
288 atoms in group ox
group hy type 1
576 atoms in group hy

# set charges - beside manually ###
set group ox charge -1.1794
Setting atom values ...
  288 settings made for charge
set group hy charge 0.5897
Setting atom values ...
  576 settings made for charge

# ### TIP3P Potential Parameters ###
pair_style lj/cut/tip4p/long/omp 2 1 1 1 0.1577 8.5
pair_coeff 1 1*2 0.000 0.000
pair_coeff 2 2 0.21084 3.1668
bond_style  harmonic
bond_coeff  1 450 0.9572
angle_style harmonic
angle_coeff 1 55 104.52
kspace_style pppm/tip4p/omp 1.0e-5
pair_modify tail yes

thermo          ${out_freq}
thermo          1000
thermo_style    custom step temp pe etotal epair emol press lx ly lz vol pxx pyy pzz pxy pxz pyz enthalpy

restart 	${out_freq3} restart.lmp.${pid} restart2.lmp.${pid}
restart 	1000 restart.lmp.${pid} restart2.lmp.${pid}
restart 	1000 restart.lmp.0 restart2.lmp.${pid}
restart 	1000 restart.lmp.0 restart2.lmp.0


include         in.dump
dump            myDump all atom ${out_freq2} dump.water.${pid}
dump            myDump all atom 10000 dump.water.${pid}
dump            myDump all atom 10000 dump.water.0
dump            myDump2 all dcd ${out_freq2} dump.dcd
dump            myDump2 all dcd 10000 dump.dcd
dump_modify     myDump append yes
dump_modify     myDump2 append yes


variable natoms 	equal  "count(all)"                        # NUMBER ATOMS
variable H      	equal  "enthalpy/v_natoms"                 # ENTHALPY-per-atom
variable Vol      	equal  "vol/v_natoms"                 # volume-per-atom
fix AVG all 		ave/time ${out_freq} 1 ${out_freq} v_Vol v_H file vol_enthalpy.dat
fix AVG all 		ave/time 1000 1 ${out_freq} v_Vol v_H file vol_enthalpy.dat
fix AVG all 		ave/time 1000 1 1000 v_Vol v_H file vol_enthalpy.dat


timer           timeout 23:50:00 every 1000
New timer settings: style=normal  mode=nosync  timeout=23:50:00

fix 		1 all shake 1e-6 200 0 b 1 a 1
       0 = # of size 2 clusters
       0 = # of size 3 clusters
       0 = # of size 4 clusters
     288 = # of frozen angles
  find clusters CPU = 0.032 seconds
fix             2 all nph iso ${pressure} ${pressure} ${pressureDamp}
fix             2 all nph iso 8250 ${pressure} ${pressureDamp}
fix             2 all nph iso 8250 8250 ${pressureDamp}
fix             2 all nph iso 8250 8250 1000
fix             3 all temp/csvr ${temperature} ${temperature} ${tempDamp} ${seed}
fix             3 all temp/csvr 262.56 ${temperature} ${tempDamp} ${seed}
fix             3 all temp/csvr 262.56 262.56 ${tempDamp} ${seed}
fix             3 all temp/csvr 262.56 262.56 100 ${seed}
fix             3 all temp/csvr 262.56 262.56 100 745823

run             250000
PPPM initialization ...
  extracting TIP4P info from pair style
  using 12-bit tables for long-range coulomb (../kspace.cpp:340)
  G vector (1/distance) = 0.3740533
  grid = 24 24 24
  stencil order = 5
  estimated absolute RMS force accuracy = 0.0031848511
  estimated relative force accuracy = 9.5910844e-06
  using double precision FFTW3
  3d grid and FFT values/proc = 2535 216
Last active /omp style is kspace_style pppm/tip4p/omp
Neighbor list info ...
  update every 1 steps, delay 7 steps, check yes
  max neighbors/atom: 2000, page size: 100000
  master list distance cutoff = 10.8154
  ghost atom cutoff = 10.8154
  binsize = 5.4077, bins = 4 4 4
  1 neighbor lists, perpetual/occasional/extra = 1 0 0
  (1) pair lj/cut/tip4p/long/omp, perpetual
      attributes: half, newton on, omp
      pair build: half/bin/newton/omp
      stencil: half/bin/3d
      bin: standard
Per MPI rank memory allocation (min/avg/max) = 9.235 | 9.239 | 9.243 Mbytes
Step Temp PotEng TotEng E_pair E_mol Press Lx Ly Lz Volume Pxx Pyy Pzz Pxy Pxz Pyz Enthalpy 
17000000    260.15338   -3816.9308   -3371.0369   -3816.9308            0    9191.9686    17.017889    20.044825    20.761785    7082.2728    8050.3037    10719.485     8806.117    3186.1309   -143.03806    -649.7495   -2421.6197 
17001000     262.4142   -3858.5696   -3408.8006   -3858.5696            0    8276.7793    17.013235    20.039343    20.756107    7076.4638    7421.7546    9201.7117    8206.8717    511.44019    -1078.612     31.82974   -2554.6125 
17002000    257.18131   -3861.3215   -3420.5215   -3861.3215            0    9151.6582    17.017987     20.04494    20.761904    7082.3945    9655.7627    8060.3796    9738.8322   -681.65884   -3017.0742   -644.10925   -2475.2517 
17003000    254.86292   -3851.5929   -3414.7665   -3851.5929            0    8202.5807     17.02102    20.048513    20.765604    7086.1823    8576.4978    6406.9055    9624.3387   -243.31619    241.52158   -748.76657   -2567.0733 
17004000    244.90783   -3874.6562   -3454.8926   -3874.6562            0    7645.7717    16.929024    19.940154     20.65337    6971.9035    7199.8459     7712.454    8025.0151   -118.49002   -764.27674    132.40373   -2677.4853 
17005000    269.10011   -3853.3455   -3392.1172   -3853.3455            0    6488.5711    17.033055    20.062689    20.780287    7101.2244     6219.252    5709.6264     7536.835   -325.95245   -1591.6887    639.28283   -2720.1343 
17006000    270.47488   -3857.0924   -3393.5078   -3857.0924            0    6997.7164    17.014622    20.040977    20.757799    7078.1945    7450.0262    7157.4909    6385.6321     305.3768   -879.23571   -1499.5716    -2671.146 
17007000    267.13552   -3819.4708   -3361.6097   -3819.4708            0    9748.6693    16.913409    19.921762     20.63432    6952.6288    11838.639    8640.0627    8767.3062    306.06617    442.24042   -161.48015   -2373.1243 
17008000    269.99022   -3833.4215   -3370.6675   -3833.4215            0     9582.134    17.000115     20.02389      20.7401    7060.1048    11414.467    7537.1743    9794.7604   -1914.8648    -155.9571    1590.2759    -2384.049 
17009000    269.53744   -3844.2284   -3382.2505   -3844.2284            0    7796.9252    17.042837     20.07421    20.792221    7113.4657       8592.4    8190.3226     6608.053    1230.1972   -1324.8643   -604.12558   -2573.3772 
17010000    261.41223   -3853.8236   -3405.7719   -3853.8236            0    5984.8968    17.084264    20.123006    20.842762    7165.4654    4045.7729    7230.7039    6678.2136     813.6245    369.97314   -606.12763   -2780.3445 
17011000    265.17406   -3848.6827   -3394.1834   -3848.6827            0    9466.1924    16.962496    19.979579    20.694205    7013.3392    10983.177    8984.3435    8431.0563   -737.05085    366.23617   -200.24957   -2425.9589 
17012000    279.56655   -3851.4985   -3372.3311   -3851.4985            0    7393.6004    17.024441    20.052543    20.769778    7090.4559    6905.8763    6986.4728     8288.452    32.277404    1070.4211   -468.68519   -2607.7808 
17013000     277.5544   -3844.9019   -3369.1831   -3844.9019            0    9799.3153    16.952942    19.968326     20.68255    7001.4955    9457.9497    10253.465    9686.5315    713.70275   -1014.3538    369.34166   -2368.5787 
17014000    263.13396   -3895.3316    -3444.329   -3895.3316            0    9698.3839    16.939982    19.953061    20.666738    6985.4502    7800.3416    7980.1473    13314.663    1279.4471   -853.46633    2323.2896      -2456.3 
17015000    259.80696   -3868.1551   -3422.8549   -3868.1551            0    9789.5648    17.004828    20.029441     20.74585    7065.9781     11057.74    9962.9203    8348.0336   -608.11375   -611.16898   -574.82588   -2414.0398 
17016000    273.59407   -3902.6103   -3433.6795   -3902.6103            0    8831.5055    16.967231    19.985157    20.699982    7019.2145    9794.4274    9564.2006    7135.8885    -1156.373   -184.88597    2016.9936   -2529.6155 
17017000    262.52356   -3857.7141   -3407.7577   -3857.7141            0    8495.5948    16.956154     19.97211    20.686468     7005.476    8633.5814    10245.333    6607.8704   -206.29563    33.518149    1946.4194   -2539.7825 
17018000    241.51233   -3848.7183   -3434.7744   -3848.7183            0    7322.4231    17.014485    20.040816    20.757632    7078.0236    7542.7066    6373.1051    8051.4577   -24.160461    11.411257   -1123.7782   -2678.9121 
17019000    256.28782    -3840.991   -3401.7225    -3840.991            0    6820.2769    17.050496    20.083232    20.801565    7123.0604    7377.2062    6684.4653    6399.1593    932.23997    1052.2992    257.71842   -2693.2148 
17020000    255.25602   -3885.1225   -3447.6224   -3885.1225            0    6652.7697    17.057056    20.090959    20.809568    7131.2849    6422.2986    7069.4393    6466.5713    627.61013    29.289757    1061.5058   -2755.7179 
17021000    246.11682   -3863.8802   -3442.0444   -3863.8802            0    5759.3468    17.115855    20.160216    20.881303    7205.2888    5910.0234    4713.2178    6654.7993    774.24601    591.45077   -224.20007   -2836.8422 
17022000    279.23438   -3870.5641   -3391.9659   -3870.5641            0     8951.733    17.029478    20.058476    20.775923    7096.7516    8138.2275    9569.8576    9147.1137    110.54197    364.15441    688.03817   -2465.4719 
17023000    256.08647   -3875.9838   -3437.0603   -3875.9838            0    6981.3965    17.043453    20.074936    20.792973    7114.2374    6959.2557    5054.6786    8930.2553    362.54786    443.46199    871.90718   -2712.7135 
17024000    291.07085   -3868.2688   -3369.3833   -3868.2688            0    9271.6827    16.998534    20.022027    20.738171     7058.135    9212.7075    8646.1288    9956.2118    27.564831   -254.03562    1424.7522   -2414.9965 
17025000    260.71507   -3827.7415   -3380.8848   -3827.7415            0    9236.0927    16.935358    19.947615    20.661097    6979.7321    8193.7556    10123.061    9391.4617   -99.046253   -20.661546   -225.98703   -2440.7223 
17026000    266.31283   -3816.7631    -3360.312   -3816.7631            0    9535.7713    16.871314     19.87218    20.582964     6900.846    10495.244    9217.9175    8894.1524   -149.69427   -1551.8066    948.85274   -2400.6152 
17027000     262.7251   -3836.5148    -3386.213   -3836.5148            0    7566.6276    16.988574    20.010297    20.726021    7045.7366    6324.5123    7793.9102    8581.4604    926.20832    384.51187    67.048867   -2608.7054 
17028000    244.04175   -3825.2819   -3407.0027   -3825.2819            0    10109.762    16.946619    19.960879    20.674836    6993.6645    9862.1785    10414.185    10052.921   -145.67358    749.34701    453.03503   -2375.8533 
17029000    250.78161   -3862.9418   -3433.1107   -3862.9418            0    7347.1033    16.989988    20.011962    20.727746    7047.4957    8873.0984    7497.1288    5671.0827    -415.9249    -531.3773    557.91784   -2677.9718 
17030000    267.38729   -3850.7033   -3392.4106   -3850.7033            0    8126.3538    16.990048    20.012032    20.727819      7047.57    8647.6433    7792.2028    7939.2154   -874.96471    363.84562    552.65669   -2557.1712 
17031000    268.34928   -3807.9137   -3347.9722   -3807.9137            0    6963.8076    16.979284    19.999354    20.714687    7034.1839    7251.2364    4959.6779    8680.5084    415.56716    92.373407   -12.977831   -2633.5806 
17032000    265.74267   -3844.7243   -3389.2504   -3844.7243            0    7368.3139     17.06602    20.101517    20.820504    7142.5339    6895.4185    8241.4831      6968.04    314.50236   -733.47979   -966.34656   -2621.7188 
17033000    271.05077   -3862.4388   -3397.8671   -3862.4388            0    7188.1764    17.027747    20.056437    20.773812    7094.5879    6307.0146    6734.3534    8523.1612   -453.73806   -280.26534   -1088.4488    -2654.126 
17034000    261.73492   -3895.9295   -3447.3248   -3895.9295            0    8463.1725    16.994253    20.016985    20.732949    7052.8039    8844.2384     7404.872    9140.4072   -499.32831    1581.3453    781.48586   -2576.8206 
17035000    252.05431   -3887.8677   -3455.8552   -3887.8677            0    6706.7003    17.038297    20.068863    20.786682    7107.7822    5863.1202    6648.5251    7608.4555    597.97353     1137.691    129.15766   -2760.6406 
17036000    268.54239   -3875.2847   -3415.0122   -3875.2847            0    8689.3431    16.912284    19.920437    20.632947    6951.2418    7962.1112    7235.4531    10870.465    877.03583   -577.43614   -476.63269    -2534.115 
17037000    273.39499    -3875.623   -3407.0333    -3875.623            0    9274.9747    16.965764    19.983429    20.698193    7017.3941    11360.124    8282.1835     8182.617   -578.99319    186.46029    100.93659   -2457.8186 
17038000    266.61041    -3864.886   -3407.9248    -3864.886            0    7516.5013    16.989814    20.011757    20.727534    7047.2791    8267.3908    7491.2873    6790.8257   -651.88984   -733.43819   -615.47768   -2635.3988 
17039000    254.45725   -3839.6705   -3403.5395   -3839.6705            0    9994.7263    17.020266    20.047626    20.764685    7085.2415    11128.967    9458.6029    9396.6094   -1423.5746   -1531.4112    1151.7275   -2370.7746 
17040000    266.08401   -3886.2303   -3430.1715   -3886.2303            0    6366.9192    17.060293    20.094771    20.813517    7135.3458     6550.514    6543.5218    6006.7218    249.49026    1222.7971    208.40033    -2767.619 
17041000    260.84672   -3850.3572   -3403.2748   -3850.3572            0    9265.2129    16.976902    19.996548     20.71178    7031.2234    8021.0778     8036.825    11737.736    696.88302    670.99968   -6.2040259   -2453.1904 
17042000     260.2853   -3867.1093   -3420.9892   -3867.1093            0     8448.713    17.026407    20.054859    20.772177    7092.9129    7331.6069    6673.1048    11341.427   -226.27334   -911.71024   -1364.2607   -2547.0302 
17043000    255.82095   -3841.3727   -3402.9043   -3841.3727            0     8455.306    17.048436    20.080806    20.799052    7120.4794    9304.9738    8709.6634    7351.2807   -882.47557   -1474.6835    964.88275    -2524.864 
17044000    260.88052   -3854.4172   -3407.2769   -3854.4172            0    9130.6554    17.064321    20.099516    20.818432    7140.4014    8789.7917    8664.3934    9937.7811    17.311628    109.61658   -1193.2934   -2456.4521 
17045000    253.15224    -3872.259   -3438.3647    -3872.259            0    8217.9053    17.000021    20.023779    20.739986    7059.9877    8735.0858    9758.1292    6160.5008    420.90936    854.09484   -1251.8554   -2592.2272 
17046000    256.54519   -3827.0987    -3387.389   -3827.0987            0    8320.8182    16.995224    20.018128    20.734133    7054.0126    9107.8588    8502.5345    7352.0612    626.43349   -776.87041   -989.91467   -2531.3803 
17047000    248.70916   -3840.1295   -3413.8505   -3840.1295            0    11416.339    16.937294    19.949895    20.663459    6982.1259    10358.645    13107.297    10783.075   -857.77682    410.52158   -1239.9814   -2251.3573 
17048000    255.28894   -3846.7446   -3409.1881   -3846.7446            0     8014.529    17.013697    20.039888    20.756671    7077.0405    6948.2776    7769.5914    9325.7179   -115.13556    604.94635   -1093.9176   -2581.9975 
17049000    264.90665   -3849.5766   -3395.5357   -3849.5766            0    8809.9467    16.953912    19.969468    20.683732    7002.6969    9796.8164    8362.0663    8270.9574   -135.94572   -594.83146   -690.48794   -2495.8009 
17050000    262.60991   -3888.5578   -3438.4534   -3888.5578            0    7486.7911    16.979867    20.000041    20.715398    7034.9086    7872.9124     8446.536    6140.9247   -484.02446    481.07301    1247.9903   -2670.3316 
17051000    277.29464   -3867.0424   -3391.7688   -3867.0424            0    8560.7626    16.958767    19.975187    20.689656    7008.7147    7925.6215    9325.0181    8431.6483    -776.5374   -106.15978   -570.04795   -2516.7312 
17052000    270.97264    -3895.669   -3431.2311    -3895.669            0     6425.208    17.005023    20.029671    20.746088    7066.2215    6309.2651    6101.2637    6865.0951   -52.630382    776.92252    1074.3133   -2769.0904 
17053000    268.09911   -3884.5654   -3425.0527   -3884.5654            0    10543.886    16.934315    19.946386    20.659825    6978.4421    9426.4057     11213.95    10991.301   -901.66008    508.71846   -1108.0798   -2351.9654 
17054000    266.84878   -3844.8522   -3387.4825   -3844.8522            0    7956.0873    16.960609    19.977357    20.691904    7010.9995    10858.493    6531.2024    6478.5662    202.52149    577.94529    797.61848   -2573.9866 
17055000     276.2913   -3890.2234   -3416.6696   -3890.2234            0    8506.7395    16.983732    20.004592    20.720113    7039.7128    8006.1619    10810.585    6703.4716    285.34714    238.58315   -321.54004   -2543.3082 
17056000    263.72772   -3845.1079   -3393.0876   -3845.1079            0    8305.2956    17.061409    20.096086    20.814879    7136.7466     6850.954    10211.205    7853.7277    425.50988   -245.31003    328.44108   -2528.6548 
17057000    272.75659   -3862.2636   -3394.7682   -3862.2636            0    9504.1792    16.977512    19.997266    20.712525    7031.9812    9888.9167    8910.6835    9712.9376   -69.670576   -1603.7974    879.83935   -2420.0744 
17058000     271.9845   -3873.0625   -3406.8904   -3873.0625            0    6934.1341    17.052798    20.085943    20.804373    7125.9456    6248.7604    6838.9502    7714.6917   -877.74665    -877.5961    -543.3325   -2686.2633 
17059000    272.40717   -3883.1724   -3416.2758   -3883.1724            0    7373.2481     17.05018     20.08286     20.80118    7122.6649    6544.6193    7923.1474    7651.9776   -1768.5343   -1170.5443    -184.1769   -2650.3667 
17060000      261.256   -3895.2099   -3447.4261   -3895.2099            0    7309.8922    16.978689    19.998653    20.713962    7033.4448    7920.2234     7079.856    6929.5972    1469.6509    682.44299    544.35988   -2697.6096 
17061000     268.2723   -3887.0634   -3427.2539   -3887.0634            0    7107.1745    17.046027    20.077969    20.796114    7117.4617    7237.9209    7930.9044    6152.6982    1075.1408   -120.32127    534.47694    -2689.523 
17062000      266.169   -3841.5324   -3385.3279   -3841.5324            0    10206.307    16.980287    20.000535     20.71591    7035.4298    12245.046    10006.773    8367.1008    -1478.468    975.50503    1689.6615   -2338.1146 
17063000    278.07989   -3856.3806   -3379.7612   -3856.3806            0    9716.7818    16.946073    19.960235    20.674169    6992.9881    9995.1304     8785.675     10369.54    201.46462    -495.0787    -1113.499   -2388.7898 
17064000    257.66863   -3858.1773   -3416.5421   -3858.1773            0    8789.6064    16.942481    19.956005    20.669787    6988.5424    10216.936    7658.9698    8492.9134   -257.85952    50.838996    716.58601    -2520.699 
17065000    244.88279   -3878.5836   -3458.8629   -3878.5836            0    7783.1676    16.987976    20.009592    20.725291    7044.9925    8008.8689    8219.5172    7121.1165    202.72944   -2009.2779    -971.3527   -2659.1892 
17066000    273.41805   -3877.7709   -3409.1417   -3877.7709            0    8726.9622     17.02053    20.047936    20.765006      7085.57    8566.2849    8064.0084    9550.5934    722.22425    139.24177   -1267.9942   -2507.3344 
17067000    253.95386   -3912.3315   -3477.0633   -3912.3315            0    7327.6142    16.961871    19.978843    20.693443    7012.5639    8586.1807    6295.7965    7100.8652    19.602707   -748.80206    208.46918   -2727.6605 
17068000    255.25211   -3868.4896   -3430.9962   -3868.4896            0    9561.0761     16.94053    19.953706    20.667407    6986.1282    9448.2714    8926.2486    10308.708   -2018.1719    7.7064997    229.23348   -2456.8611 
17069000    251.27152   -3922.5494   -3491.8786   -3922.5494            0    9079.6328    16.954487    19.970146    20.684434    7003.4097    8549.5681    10164.638    8524.6918   -1789.1249   -1773.1456   -1018.3698   -2564.5072 
17070000    260.43285   -3890.3604   -3443.9874   -3890.3604            0    9085.3741    16.998912    20.022473    20.738633    7058.6061    9408.7732     8835.475    9011.8742   -263.14536   -1152.4403   -2680.0214    -2508.716 
17071000    264.42825   -3906.0822   -3452.8612   -3906.0822            0    8208.7259    17.005972    20.030789    20.747246     7067.405    7017.6177     7778.857     9829.703    967.94184    223.88578   -720.35437   -2606.7808 
17072000    286.20069      -3867.1   -3376.5618      -3867.1            0     7512.782    17.084322    20.123075    20.842833    7165.5388    6008.0602    8939.2766    7591.0093   -683.49113    1224.0431    223.84035   -2591.4608 
17073000    244.20821   -3889.8958   -3471.3313   -3889.8958            0    8898.1959    17.054786    20.088285    20.806799    7128.4386    7249.9701    9909.7979    9534.8197    643.35493    942.88982   -22.122059   -2546.2663 
17074000    272.20416   -3875.9708   -3409.4222   -3875.9708            0    11757.954    16.929564     19.94079    20.654029    6972.5705    10251.525    13221.782    11800.554     433.6863    279.78929    1218.2917   -2213.7819 
17075000    263.27857   -3884.1662   -3432.9157   -3884.1662            0    7947.1324    17.000102    20.023874    20.740085    7060.0887    9410.5599    6452.2908    7978.5465   -494.57869    1868.2452   -1470.2112    -2614.646 
17076000    264.23787   -3878.3133   -3425.4186   -3878.3133            0    7314.4111     17.03386    20.063637    20.781269    7102.2307    7420.6862    7509.8984    7012.6487     1006.821    203.82366   -191.44373    -2667.801 
17077000    260.01175   -3888.2921   -3442.6409   -3888.2921            0    7877.1786    16.941177    19.954469    20.668196    6986.9291    7085.2362    8308.5579    8237.7417    379.74096    618.34114    1201.2905   -2639.9785 
17078000    275.66052   -3861.7294   -3389.2567   -3861.7294            0    6345.1125    17.038696    20.069333    20.787169    7108.2816    6403.0891    7628.5885    5003.6598   -653.94966   -166.47604   -682.20893   -2731.4779 
17079000    257.40796   -3879.3939   -3438.2055   -3879.3939            0    9206.8994    16.934207     19.94626    20.659694    6978.3094    9152.8168    9655.6785     8812.203   -1507.7078   -471.98032    -1144.447   -2501.2057 
17080000    263.68345   -3838.0865   -3386.1421   -3838.0865            0      8058.76    17.022573    20.050342    20.767499    7088.1217    8479.4218    7226.1415    8470.7167   -2540.3636    618.24074    1537.7642    -2553.084 
17081000    262.47119    -3877.986   -3428.1194    -3877.986            0    9727.4093    16.975192    19.994534    20.709695    7029.0993    7644.9137    12134.514    9402.7999   -973.58532    569.33731   -426.23539   -2430.9412 
17082000    266.01437   -3914.9489   -3459.0094   -3914.9489            0    8319.9632    17.050391    20.083109    20.801437    7122.9292    7644.2186    10258.392     7057.279   -319.84034   -369.92741    2306.0191   -2594.7265 
17083000     249.6609   -3890.3604   -3462.4501   -3890.3604            0    7847.4955    17.059376    20.093692    20.812399    7134.1962    8463.0873    8080.5891      6998.81   -2355.8709   -284.61034    549.11513    -2645.958 
17084000    268.77277   -3854.3189   -3393.6515   -3854.3189            0    8127.6945    17.083909    20.122589    20.842329    7165.0192    9529.7759      8524.96    6328.3477    885.49788   -686.09229   -254.54418   -2544.3525 
17085000    268.69724   -3882.4381   -3421.9002   -3882.4381            0    7888.6877    17.020146    20.047483    20.764538    7085.0904    8919.6515    7007.6254    7738.7861    693.55151    212.39586    629.71234   -2606.7718 
17086000    268.26936   -3879.7346     -3419.93   -3879.7346            0    8729.4953    17.029331    20.058303    20.775744     7096.568    7146.6114    9172.1331    9869.7416   -876.50132    1303.5249    1052.1368   -2516.4608 
17087000    263.64162   -3901.8219   -3449.9492   -3901.8219            0    8059.5816     17.00037    20.024191    20.740412    7060.4233    7053.4719    9483.5823    7641.6907   -1498.1664    334.05116    1543.7714   -2620.0619 
17088000    269.54124   -3862.2436   -3400.2592   -3862.2436            0    6373.0099    17.064483    20.099707     20.81863    7140.6049    6198.6815    5925.8005    6994.5477    487.42487   -53.286226   -1369.9294   -2736.5841 
17089000    245.70011   -3864.5461   -3443.4245   -3864.5461            0    7416.8775    16.950729     19.96572     20.67985     6998.754    4249.2287    9442.0094    8559.3944    831.52713   -2043.2528   -967.28101   -2686.3865 
17090000    262.27195   -3857.0674   -3407.5423   -3857.0674            0    9552.9717    16.975274     19.99463    20.709794    7029.2007    8976.7947    10175.962    9506.1587    1453.7915    832.34312    1872.4167    -2428.232 
17091000    247.58851   -3847.3706   -3423.0123   -3847.3706            0    9611.3412    16.945515    19.959578    20.673489    6992.2978    7995.8441    9525.2194     11312.96    1031.4074    -318.2197    341.80795   -2442.8911 
17092000    258.48189   -3814.4679   -3371.4388   -3814.4679            0    12356.944    16.852864    19.850447    20.560454    6878.2301    10094.462    14696.142    12280.227   -450.08937    614.77905    271.53877   -2131.8899 
17093000    258.70243   -3861.7121    -3418.305   -3861.7121            0    8003.2517    16.962697    19.979817    20.694451    7013.5889    7459.5397    9231.2768    7318.9384    651.48411   -556.83089    830.87482   -2599.6844 
17094000    249.25868   -3839.5714   -3412.3505   -3839.5714            0    9602.4703      16.9134    19.921752    20.634309    6952.6182    8885.8155    10133.156    9788.4391   -2212.7209     -363.913   -519.47085   -2438.6907 
17095000    261.95971   -3878.9891   -3429.9991   -3878.9891            0    7730.1926    16.981982    20.002531    20.717978    7037.5371    6365.7879    9091.1235    7733.6664    387.58843   -1688.8256   -36.211021   -2636.6088 
17096000     270.1243    -3863.131   -3400.1472    -3863.131            0    10343.527    16.966531    19.984333    20.699129     7018.346    11287.478    8365.0772    11378.025   -1116.1258    767.72651    104.78631   -2341.4316 
17097000    275.44219   -3882.2099   -3410.1114   -3882.2099            0    6600.8895    16.975917    19.995388    20.710579    7029.9998    6575.1403    5872.4725    7355.0558    273.33947    88.718973    447.62729    -2733.353 
17098000    256.12911   -3914.9643   -3475.9677   -3914.9643            0    5546.9998    17.018799    20.045897    20.762895    7083.4089    5270.2585     5460.565    5910.1759   -1515.4315   -521.97444   -134.16134   -2902.9391 
17099000    271.82845   -3892.9841   -3427.0795   -3892.9841            0    6470.9149    17.056842    20.090707    20.809308    7131.0174    5502.9717    8332.3963    5577.3765    163.59575   -121.04246    1209.1854   -2754.1135 
17100000    258.90707   -3882.7443   -3438.9865   -3882.7443            0    8425.8015    17.019557     20.04679    20.763819    7084.3551    8141.3041    8116.2461    9019.8542   -145.75088   -850.25856    792.83282   -2568.4491 
17101000    258.70132   -3875.1909   -3431.7857   -3875.1909            0    8453.4046    16.988944    20.010732    20.726473    7046.1969     7431.193    8201.9998     9727.021   -1421.9598    154.68671    -1328.224   -2563.1007 
17102000    268.09905   -3856.2816   -3396.7689   -3856.2816            0    7291.9399    17.079319    20.117182     20.83673    7159.2458    5104.6035    7808.6876    8962.5286    95.765174    437.04025    103.45466   -2635.4156 
17103000      258.066   -3846.1775   -3403.8612   -3846.1775            0    9023.2993    17.046539    20.078571    20.796737    7118.1022    8144.4879    9779.8978    9145.5122   -618.79174    -638.2858   -1403.8726   -2467.1506 
17104000    258.06568   -3854.4168   -3412.1011   -3854.4168            0    7151.3066    17.053206    20.086424    20.804871    7126.4572    7284.6021    7250.3048    6919.0131   -1455.4059    721.29081   -947.07713    -2668.851 
17105000    274.39325   -3846.8158   -3376.5152   -3846.8158            0    7858.4184    16.974608    19.993846    20.708983    7028.3742    8169.7168    6803.8185      8601.72   -452.15253   -301.02792    -1171.691   -2571.0145 
17106000    243.88298   -3856.2768   -3438.2697   -3856.2768            0    7562.2285    16.990802     20.01292    20.728738    7048.5081    7927.7766     8315.138    6443.7708   -395.70078    1149.1435    446.04252   -2660.9085 
17107000     253.5344   -3869.8627   -3435.3134   -3869.8627            0    10169.285    16.961916    19.978896    20.693497    7012.6195    8352.3178    11414.246    10741.291   -67.124806    204.21561   -674.38682   -2395.2817 
17108000    255.93405   -3874.5706   -3435.9084   -3874.5706            0    7312.8346    17.078137     20.11579    20.835288    7157.7594    5836.5986    7901.0914    8200.8138    1085.6764   -510.55679    687.78311    -2672.532 
17109000    256.64966   -3858.3639   -3418.4751   -3858.3639            0    8587.6741    17.006579    20.031503    20.747986    7068.1614    8898.8634    8323.6589    8540.5001    183.19897   -1712.1522   -758.93672   -2533.2415 
17110000    257.12882   -3850.1912   -3409.4812   -3850.1912            0    8471.5018    16.994771    20.017596    20.733581    7053.4493    7876.2481     6960.179    10578.078   -1585.7215   -1081.7924    860.08296   -2538.0405 
17111000    259.84544   -3849.6495   -3404.2833   -3849.6495            0     6592.636    17.036991    20.067325     20.78509    7106.1489    6693.1933    5852.9693    7231.7453     162.7601   -716.38538     948.4192   -2721.0496 
17112000    271.45163   -3883.4587   -3418.1999   -3883.4587            0    8802.4146    17.065378    20.100761    20.819721     7141.728    8640.3433    8925.9124    8840.9882    1176.8339   -809.32142    342.96996   -2501.3864 
17113000    268.39948    -3879.878   -3419.8505    -3879.878            0    8592.8464    16.978834    19.998824    20.714138    7033.6251    9112.8134    8531.3057      8134.42    319.72198   -184.86517   -185.72397   -2538.4117 
17114000    272.90755   -3831.6258   -3363.8716   -3831.6258            0    9175.3326    16.945408    19.959452    20.673358    6992.1652    7631.8081    9644.3912    10249.798    1042.7012    857.11784   -1407.6024   -2428.2303 
17115000    268.57266   -3854.7661   -3394.4418   -3854.7661            0    7575.3926    16.950875    19.965892    20.680028     6998.935    8009.5776    5768.7468    8947.8534    743.38596   -1070.7534   -1962.3917   -2621.2041 
17116000    255.38598   -3866.2317   -3428.5089   -3866.2317            0    8920.2511    16.978724    19.998695    20.714004    7033.4883    7452.8942     10376.56    8931.2991   -731.03261    1027.3169    225.52973   -2513.5033 
17117000    251.67392   -3881.8243   -3450.4639   -3881.8243            0    7629.6556    17.007562    20.032662    20.749186    7069.3874    7330.0471    7506.5469    8052.3729     794.8747   -1326.2923    649.45512   -2663.8482 
17118000    266.92871   -3921.6222   -3464.1155   -3921.6222            0    6673.7045    16.960313    19.977009    20.691542    7010.6323     7136.671    5779.4976    7104.9448   -541.42681    453.63412   -834.14842   -2781.7768 
17119000    273.28405   -3878.4583   -3410.0588   -3878.4583            0    8920.4856    16.986004    20.007269    20.722885    7042.5385    8137.8826    9555.0813    9068.4929   -375.60882    664.95003    1381.0799   -2493.8518 
17120000    256.00637   -3881.3692    -3442.583   -3881.3692            0    7429.2955     17.02986    20.058926     20.77639    7097.2292    6981.3117    7584.0262    7722.5486    635.80144   -729.13919    1213.9638   -2673.6078 
17121000     254.4581   -3877.0632   -3440.9307   -3877.0632            0    7391.6944    16.975253    19.994606    20.709769    7029.1754     6892.341    7092.6133     8190.129    701.48865   -269.39272    440.64665   -2683.1836 
17122000    279.46956    -3890.684   -3411.6828    -3890.684            0    7556.5071    17.026009     20.05439    20.771691    7092.4154    7335.7852    7706.9208    7626.8154   -515.14211    158.90357    986.65049   -2630.0709 
17123000    255.36365   -3880.5864   -3442.9019   -3880.5864            0    8285.1694    16.967425    19.985385    20.700219    7019.4549     8860.444    6995.5506    8999.5135    2062.6146   -43.202159    -1089.649   -2594.7362 
17124000    260.42305   -3845.2131   -3398.8568   -3845.2131            0    8393.9811    17.019572    20.046807    20.763838    7084.3739    7614.2438    8860.2507    8707.4488   -110.35609   -909.39401   -1508.1536   -2531.6048 
17125000     268.9217   -3839.2859   -3378.3633   -3839.2859            0    12438.838     16.88837    19.892269    20.603772    6921.7958    12779.245    11587.996    12949.273   -284.19859   -194.31527    1181.8532   -2122.6963 
17126000    266.90655   -3858.2865   -3400.8178   -3858.2865            0     9139.391     16.93015    19.941481    20.654744     6973.295    9714.7343    9167.2086      8536.23    1871.0575    1543.8404    591.69182   -2471.3568 
17127000    266.74119   -3851.0825   -3393.8973   -3851.0825            0    9657.1802    16.914251    19.922754    20.635347    6953.6676    10557.295    9392.7975    9021.4479     1286.702    1717.0574   -944.79235   -2414.5423 
17128000    265.49878    -3865.594   -3410.5382    -3865.594            0     7843.465    16.975593    19.995006    20.710184    7029.5973    7355.3305    6713.8878    9461.1767    847.41602   -896.36428   -1740.0352   -2606.4303 
17129000    275.42897   -3861.9854   -3389.9095   -3861.9854            0    7910.0216    16.963927    19.981265    20.695951    7015.1143     6788.138    8992.1335    7949.7932   -845.67709    -581.8122    1067.4783   -2580.6491 
17130000    241.64773   -3875.0399   -3460.8639   -3875.0399            0    7298.6848    17.019964     20.04727    20.764317    7084.8642    7973.2236    6612.5671    7310.2636    -764.2799   -1169.2907    -1252.039   -2706.7238 
17131000    252.95752   -3886.2085   -3452.6479   -3886.2085            0    9265.2794    16.893533     19.89835     20.61007    6928.1458    10758.954    8037.7986    8999.0856    374.89779   -115.31123    838.56922    -2516.485 
17132000    264.92471   -3857.1625   -3403.0906   -3857.1625            0    7833.4572    17.001041     20.02498     20.74123    7061.2587    9516.3482     6986.698    6997.3255   -149.07984   -1735.8252    444.21574   -2596.3917 
17133000    255.50286   -3880.5699   -3442.6467   -3880.5699            0    6501.1348    17.023496     20.05143    20.768625    7089.2753    6835.1307    5690.5616     6977.712   -186.52815   -299.69631   -560.05341   -2770.4956 
17134000    263.32814    -3931.222   -3479.8866    -3931.222            0     5325.488    17.025955    20.054326    20.771625    7092.3479    5784.9357    4800.9579    5390.5703    101.78462    -666.9882    -1161.866   -2929.0468 
17135000    259.71776   -3905.3282   -3460.1809   -3905.3282            0    7107.2324    16.965047    19.982584    20.697317    7016.5038    7053.7397    7834.9471    6433.0105    1172.7315    1315.2353    459.74124   -2732.9084 
17136000    251.92102   -3850.2018   -3418.4178   -3850.2018            0     7798.734     16.98513    20.006239    20.721819    7041.4517     9341.594    7355.8324    6698.7755   -813.03367     394.3409    120.92563   -2617.5475 
17137000    252.96566    -3869.224   -3435.6495    -3869.224            0    7936.3703     17.05796    20.092024    20.810672    7132.4197    8610.2115    7512.7065    7686.1929    1147.9189   -1372.1992    522.31087    -2610.116 
17138000    263.02999   -3876.0224    -3425.198   -3876.0224            0    7551.3734    17.022975    20.050816    20.767989    7088.6242    9189.6384    6592.4289    6872.0528    370.25002    425.47939   -309.54509   -2644.5346 
17139000    238.81816   -3896.5985   -3487.2723   -3896.5985            0     7644.822    17.004509    20.029065    20.745461    7065.5807    7643.7283    6472.8428    8817.8948    206.25078    351.96411    643.28449   -2699.5174 
17140000     246.5626     -3842.38   -3419.7801     -3842.38            0    8455.0702    17.023658     20.05162    20.768823    7089.4774    7262.7039     9351.764    8750.7428    1037.9919    301.59813     433.4054   -2545.5871 
17141000    260.12732   -3878.0199   -3432.1706   -3878.0199            0    7474.7956    16.973937    19.993056    20.708164     7027.541    8633.5627    6914.0013    6876.8228    60.546706    1026.7704   -2063.1813   -2666.0827 
17142000    252.02573   -3859.0111   -3427.0476   -3859.0111            0    8072.9065    16.954002    19.969574    20.683842    7002.8084    8041.8721    8677.5086     7499.339   -360.01685    620.39628   -1286.8508   -2602.5715 
17143000    247.08778   -3851.2546   -3427.7546   -3851.2546            0    6746.0094    17.056021     20.08974    20.808306    7129.9878    5693.8758    8525.4467    6018.7057   -338.06361    604.10382    602.02609   -2726.2805 
17144000    261.34958   -3864.9612    -3417.017   -3864.9612            0    8476.3098    17.115186    20.159429    20.880487    7204.4441    8485.0458    8628.8382    8315.0455   -1982.0416    2424.2565   -375.97612   -2526.4159 
17145000    267.78605   -3836.0418   -3377.0656   -3836.0418            0    9794.7039    16.985199    20.006321    20.721903    7041.5374    8826.2347     9279.983    11277.894    333.22799   -1285.3112     -9.56637   -2371.2122 
17146000    257.47584   -3859.8571   -3418.5523   -3859.8571            0    7786.2206    17.000657    20.024528    20.740762    7060.7803    8280.7758      8882.04     6195.846    262.24866    44.387085    163.53302   -2616.7722 
17147000    255.03077   -3880.5511   -3443.4371   -3880.5511            0     7035.866    16.973128    19.992103    20.707176    7026.5352    5918.2995    7976.9257    7212.3727    819.77282   -462.30287   -1803.0307   -2722.4381 
17148000    251.33281   -3875.1169    -3444.341   -3875.1169            0    8846.1266    16.929761    19.941022    20.654269    6972.8137    8306.5378    9714.5959    8517.2462   -2283.5758    657.66648   -607.50859   -2544.7666 
17149000    260.96117   -3818.9337   -3371.6552   -3818.9337            0    7579.0079    17.010742    20.036407    20.753066    7073.3535      5973.56    7727.8667    9035.5971    766.42112   -93.020292    -955.2749   -2589.8229 
17150000    255.42847   -3859.9062   -3422.1105   -3859.9062            0    8250.9289    16.939708    19.952738    20.666404    6985.1113    7024.4717    8917.2362    8811.0787   -937.22864    1183.1008   -1685.1205   -2581.5828 
17151000    270.11855    -3853.062   -3390.0881    -3853.062            0    10997.227    16.925468    19.935965    20.649031    6967.5104    8573.0859    10893.349    13525.245    -1120.454   -366.10916    27.849981    -2272.616 
17152000    248.12976   -3870.8197   -3445.5338   -3870.8197            0    6728.7679    16.997919    20.021303    20.737421    7057.3694    7892.3772    7287.8578    5006.0687    678.87777    378.82277   -161.00693   -2752.9787 
17153000    269.29923   -3882.2909   -3420.7212   -3882.2909            0    9846.9105    16.977732    19.997526    20.712793    7032.2551    11655.438    10551.196     7334.097    614.86597   -30.148893    259.64557   -2410.8395 
17154000     255.7021   -3880.3751   -3442.1104   -3880.3751            0    8947.5329     16.94343    19.957123    20.670945    6989.7173    8755.2241    7751.9072    10335.467     50.78039    542.70807   -1005.3698   -2530.0181 
17155000     273.0089   -3894.1863   -3426.2584   -3894.1863            0    8878.2489     16.93595    19.948312    20.661819    6980.4636    10739.467    6809.7029    9085.5769   -827.42378    826.80103   -940.16253   -2522.4269 
17156000    245.02802   -3908.7511   -3488.7815   -3908.7511            0    7874.8479    17.054038    20.087404    20.805886    7127.5002    9533.6428    8914.1263    5176.7747   -832.05733    221.94613   -1156.7656   -2670.2125 
17157000    260.90335   -3903.8149   -3456.6354   -3903.8149            0    5998.9497    17.037462     20.06788    20.785664    7106.7379    5767.5918    6620.3129    5608.9443    234.13727   -1145.0179    674.89421   -2834.8774 
17158000    255.22634   -3876.7639   -3439.3147   -3876.7639            0     8597.036    16.979159    19.999206    20.714534    7034.0282      8665.45    8274.4534    8851.2047   -663.62548     1516.881   -506.25347   -2557.3956 
17159000    250.47944   -3859.9542    -3430.641   -3859.9542            0    7302.2811    16.977145    19.996835    20.712078    7031.5262    6920.2949    8099.1531    6887.3952   -667.71192    596.61834     89.89121   -2681.8096 
17160000    266.65291   -3854.1438   -3397.1099   -3854.1438            0    7704.0686    16.985823    20.007056    20.722664    7042.3139    7813.2055    8270.6866    7028.3137    2128.0891   -677.09708   -1500.4196   -2605.8641 
17161000    247.19956   -3878.2696    -3454.578   -3878.2696            0     8638.497    16.968816    19.987023    20.701915    7021.1812    8624.3802    8732.2914    8558.8194    753.18376    -750.1566     662.5054   -2570.0242 
17162000    247.61326   -3842.9144   -3418.5138   -3842.9144            0    8173.3672     16.99366    20.016287    20.732226    7052.0661    7552.5821    9046.6207    7920.8987     913.9304    16.572299    -1664.736   -2577.9062 
17163000    268.02698   -3891.0568   -3431.6678   -3891.0568            0    8712.6012    17.018993    20.046125    20.763131    7083.6507    9412.9158    9242.2519    7482.6358   -336.91082    286.19859     109.5186   -2531.5883 
17164000    258.19402   -3874.3353   -3431.7996   -3874.3353            0    9329.7072    16.969776    19.988155    20.703087    7022.3737    8896.8489    10222.831    8869.4415   -930.22964   -1113.0395    213.31971   -2476.3058 
17165000    254.96651   -3850.7241   -3413.7202   -3850.7241            0    10063.895    16.974411    19.993614    20.708742     7028.129    10340.981     10051.92    9798.7846    1467.7675    590.30074    197.77017   -2382.1906 
17166000    277.71291     -3875.48   -3399.4896     -3875.48            0    8614.0481    16.970105    19.988542    20.703488    7022.7818    8533.1838    8726.9845     8581.976    209.39165    1681.8541    976.60552   -2517.2382 
17167000    253.77743   -3913.2173   -3478.2514   -3913.2173            0     5971.138     17.04904    20.081517    20.799789    7121.2362    7051.3429    4858.8931    6003.1782    169.37788    722.79892    836.17037   -2858.1134 
17168000    266.64558   -3830.5788   -3373.5574   -3830.5788            0    7998.0214    17.076902    20.114335     20.83378     7156.206    9090.1188    7573.6246    7330.3207    1390.2374   -546.16466     403.3081   -2538.8365 
17169000    267.00669   -3831.3666   -3373.7263   -3831.3666            0    6970.0454    17.044839    20.076569    20.794663    7115.9727    6628.6149      7379.83    6901.6914   -100.65111    2134.1067    1811.3114   -2650.3808 
17170000    257.44195   -3831.9179   -3390.6712   -3831.9179            0    8497.7919    17.006193    20.031049    20.747516    7067.6803     7350.859    8941.5196    9200.9971   -314.06362   -2195.3245    243.55239   -2514.7625 
17171000    266.12818     -3873.55   -3417.4154     -3873.55            0    7791.0173    17.053402    20.086655    20.805111    7126.7036    7046.2285      7977.49    8349.3334   -930.70669   -2265.8002    856.82574   -2607.6509 
17172000    260.95519   -3848.8974   -3401.6291   -3848.8974            0    6886.6538    16.971628    19.990337    20.705347    7024.6734    6048.1754    7918.1148     6693.671    1325.9074    1068.5423   -97.390691   -2696.1076 
17173000    255.49965     -3850.82   -3412.9023     -3850.82            0    7819.3145    16.997537    20.020853    20.736955    7056.8932    5596.7373    7384.0799    10477.126   -660.09747    762.24274    198.66716   -2608.1576 
17174000    241.06872   -3846.5457   -3433.3622   -3846.5457            0    6961.1261    17.049704    20.082299    20.800599    7122.0677    6709.6116     6911.818    7261.9486   -907.40209   -264.91412    217.55992   -2710.3236 
17175000    271.75036   -3875.9465   -3410.1757   -3875.9465            0    7337.1955    17.028622    20.057467    20.774879    7095.6808    9791.3612    5488.8989    6731.3264    405.81768     635.8127    1694.8757   -2650.8991 
17176000    260.96636   -3868.1237   -3420.8363   -3868.1237            0    9215.3507    16.964466    19.981901    20.696609    7015.7839    8220.3489    8278.8727     11146.83   -1033.4838    682.17407    1721.7141   -2477.9399 
17177000     271.3447    -3853.293   -3388.2175    -3853.293            0    8428.8616    16.930989    19.942469    20.655767    6974.3312     8220.709     9149.107    7916.7688    2031.9824   -1128.7775    344.14975   -2530.8888 
17178000    258.47184   -3842.1633   -3399.1514   -3842.1633            0     6505.451     17.04185    20.073048    20.791017    7112.2301    5460.8432    7891.3418    6164.1679    281.73763     111.1649    1488.5561   -2724.3762 
17179000    256.85443   -3871.5141   -3431.2744   -3871.5141            0    8290.0741    16.991377    20.013598    20.729441    7049.2245    7824.5797     8397.199    8648.4437    199.25829    843.09164    1362.6522   -2579.0075 
17180000     252.8386   -3873.0333   -3439.6766   -3873.0333            0    7011.0174    17.021185    20.048708    20.765806    7086.3891    6082.1945    6039.7264    8911.1314   -693.80022   -543.83169    904.26006   -2715.1039 
17181000    265.84999   -3875.2086   -3419.5508   -3875.2086            0    8983.8453    16.930075    19.941393    20.654652    6973.2023    10738.268    7185.1591     9028.109   -1539.1004   -774.38773   -462.65967   -2505.9206 
17182000    275.92394   -3856.8936   -3383.9694   -3856.8936            0    7903.6951    16.948484    19.963075    20.677111    6995.9734    9800.2416    6755.8163    7155.0275   -1406.7217   -308.79542   -1656.9138   -2577.5625 
17183000    251.62428   -3866.6975   -3435.4221   -3866.6975            0    9158.7145    16.943534    19.957245    20.671072    6989.8454    9499.2632    9378.2544     8598.626   -36.025558   -1550.8327    114.12569   -2501.7852 
17184000    251.39692   -3854.4464   -3423.5607   -3854.4464            0    9304.2546    16.991655    20.013926     20.72978    7049.5707     10587.97    8752.4501    8572.3438    346.50447    -2233.617   -1616.6019   -2466.9833 
17185000    265.53451   -3837.3378   -3382.2207   -3837.3378            0    8113.0657    16.974306     19.99349    20.708614    7027.9988    8807.9564     9089.569    6441.6717     611.4208     695.6334    360.73884   -2550.6627 
17186000    267.56696   -3830.6338   -3372.0332   -3830.6338            0    6953.1451     16.99906    20.022647    20.738813    7058.7902    6201.3639    7306.3429    7351.7286   -148.95604    417.34372    964.38603   -2656.2402 
17187000    255.67383   -3862.9593   -3424.7431   -3862.9593            0    8287.3673    16.974701    19.993956    20.709096    7028.4896    8603.3202    6589.9785    9668.8032    890.49419   -878.03192    1602.0154   -2575.2605 
17188000    266.65982   -3831.4429   -3374.3971   -3831.4429            0    7764.4502    17.008815    20.034138    20.750715    7070.9502    8911.3947    9226.6614    5155.2944    286.45198    883.21134    106.94033   -2573.7072 
17189000    256.08873   -3884.4807   -3445.5534   -3884.4807            0    7895.2509    17.007527     20.03262    20.749143    7069.3431    7828.2694    7469.1312     8388.352   -19.136974   -197.68855   -405.68648     -2631.56 
17190000    276.31154   -3837.4798   -3363.8913   -3837.4798            0    6520.0612    17.012049    20.037947     20.75466    7074.9844    7226.5213     6280.603    6053.0592    1410.8658   -790.90735    1406.4464   -2691.1423 
17191000    261.61028   -3830.3706   -3381.9796   -3830.3706            0    8604.5669     16.94803    19.962541    20.676557    6995.4113    9971.0955     7407.509    8435.0963   -1342.6796     155.9182    1719.9091   -2504.1339 
17192000    265.22285   -3844.8783   -3390.2954   -3844.8783            0    8067.0665    16.983278    20.004058    20.719559    7039.1482    8701.6904    8262.5613    7236.9477    299.12815    500.59963   -436.34016   -2562.1404 
17193000    274.67202   -3881.9113   -3411.1329   -3881.9113            0    7419.0931    17.010068    20.035613    20.752243    7072.5125    8910.0388    6638.5476     6708.693   -386.52706    1742.7502   -363.20066    -2645.888 
17194000    271.25111   -3846.3121    -3381.397   -3846.3121            0    9378.8138    16.889466     19.89356    20.605109    6923.1438    9957.6867    9247.6299    8931.1248    759.79078   -38.396323   -1512.8461   -2434.4468 
17195000    256.52364   -3852.7522   -3413.0794   -3852.7522            0    7136.0731    16.940273    19.953405    20.667094    6985.8112    7665.0155    7374.6745    6368.5292    536.20403    -789.7775   -915.55969     -2686.05 
17196000    263.85479   -3870.8874   -3418.6493   -3870.8874            0    8186.6528    17.010341    20.035935    20.752577    7072.8535    8022.4378    6067.2688    10470.252    363.98157   -642.02938   -563.90782   -2574.1935 
17197000    260.49353   -3856.9701   -3410.4931   -3856.9701            0    7997.0889    16.946681    19.960952    20.674911    6993.7409    7660.3857    8637.4031    7693.4779     1907.621   -1130.3385    1457.9416   -2594.8177 
17198000    257.72322   -3848.2136   -3406.4848   -3848.2136            0    7494.8395    17.037957    20.068463    20.786268    7107.3575     7406.625    7331.6746    7746.2188   -1164.4687    513.81277    68.068757   -2629.6183 
17199000    260.27573    -3818.851   -3372.7474    -3818.851            0    9193.6619    16.919653    19.929117    20.641938    6960.3324    9136.0783     9394.281    9050.6263    52.654442    845.71569    30.050901   -2439.5051 
17200000    253.67839    -3844.142    -3409.346    -3844.142            0    8548.7149    16.976622    19.996218    20.711439    7030.8757    10132.499    8372.3532    7141.2927   -470.81082   -406.27734   -11.881428   -2532.7769 
17201000    249.43747   -3847.2473     -3419.72   -3847.2473            0    8148.2845    16.987572    20.009116    20.724798    7044.4897    8821.6661    8771.4552    6851.7322    608.80859    1635.3426    145.37196   -2582.5925 
17202000    259.80708   -3847.4509   -3402.1504   -3847.4509            0     8158.287    17.021635    20.049238    20.766355    7086.9506    8900.0845    7664.7863    7909.9901    570.24706    170.86581   -749.98609   -2558.9433 
17203000    255.38404   -3891.2239   -3453.5044   -3891.2239            0    8544.3321    17.005793    20.030578    20.747028    7067.1822    9453.2236    7186.1983    8993.5744    111.57357    141.07347   -948.28727   -2572.8606 
17204000    248.83023   -3847.1258   -3420.6393   -3847.1258            0    8122.5315    17.025286    20.053538    20.770809    7091.5114    7908.9402    7987.9815    8470.6729   -64.454265    1462.4137   -17.642956   -2580.5874 
17205000    252.09622   -3874.7261   -3442.6418   -3874.7261            0    8778.5527    17.008302    20.033533    20.750089    7070.3104    8680.1211    8702.1613    8953.3757    -990.3919    1561.0425    230.10924   -2537.4569 
17206000    264.46384   -3876.5048   -3423.2228   -3876.5048            0    7523.1761    17.017775    20.044691    20.761646    7082.1307    8169.6783    5687.0153    8712.8348    689.66955   -1540.6459   -1187.5131   -2646.1869 
17207000    264.95681   -3851.1847   -3397.0578   -3851.1847            0    8396.2557    16.988215    20.009873    20.725583    7045.2894    11955.048    5536.1762    7697.5426    210.23912   -447.52932    268.16807   -2534.3566 
17208000    265.17782   -3843.9444   -3389.4387   -3843.9444            0    8485.2151    16.979994    20.000189    20.715552    7035.0656    8305.3017    8325.1832    8825.1606    151.75504    124.22864    201.27746   -2518.8623 
17209000    262.49036   -3861.6304   -3411.7309   -3861.6304            0    8030.1363    16.989084    20.010896    20.726642    7046.3701    8390.0538    8516.3648    7183.9904   -557.87037    374.12233    557.73301   -2586.5213 
17210000    279.53212   -3852.4938   -3373.3853   -3852.4938            0    10183.057    16.956619    19.972658    20.687036    7006.0525    11080.398    11096.721     8372.053   -621.79156   -633.82867   -1270.8893   -2332.9203 
17211000    263.32596     -3866.91   -3415.5783     -3866.91            0    7345.5678    17.001667    20.025717    20.741993    7062.0383    8378.0069    5605.0609    8053.6356    980.43621   -1662.2128   -3010.4856   -2659.0393 
17212000    263.15349   -3863.9678   -3412.9317   -3863.9678            0    6114.9264    16.988645    20.010379    20.726107     7045.824     7011.874    5907.1098    5425.7953   -14.598116    821.52309     2.367193   -2784.5856 
17213000    256.23939   -3821.0742   -3381.8886   -3821.0742            0    9551.9878    16.981931    20.002472    20.717916    7037.4741     10343.97    9015.1451    9296.8486    56.046961    949.77166    1438.1431   -2401.5267 
17214000    256.01658   -3850.4755   -3411.6718   -3850.4755            0    8199.8147    16.980476    20.000757    20.716141    7035.6649    7120.5063    8699.7583    8779.1795   -776.50367    507.68946   -1296.9425   -2570.3056 
17215000    250.80016   -3894.5005   -3464.6376   -3894.5005            0    9467.8514     16.91354    19.921916    20.634479    6952.7899    8006.2772    10077.413    10319.864   -977.80316   -242.43181   -3029.1855   -2504.6041 
17216000    257.62054   -3879.1609   -3437.6081   -3879.1609            0    8051.8071    16.968312     19.98643    20.701301    7020.5557    9630.1162    7669.9461    6855.3589   -761.29738    -828.8265   -1872.1316   -2613.2029 
17217000    246.30938   -3866.5416   -3444.3758   -3866.5416            0    10068.412    16.979867     20.00004    20.715398    7034.9078    10409.579    10623.848    9171.8092   -1367.1266    650.26317   -412.06326   -2411.3878 
17218000    258.13297   -3844.6628   -3402.2318   -3844.6628            0    9919.0459     16.96787     19.98591    20.700762    7020.0077    11526.544    10026.632    8203.9616    1614.1796    -1724.912    2168.8364   -2386.7237 
17219000    270.24639   -3840.7428   -3377.5498   -3840.7428            0    8722.7991    16.972824    19.991745    20.706806    7026.1581    9826.3665    6767.9292    9574.1015    205.31327   -616.29232    -486.3992   -2483.7306 
17220000    265.58134   -3893.5333    -3438.336   -3893.5333            0      9596.03    16.984005    20.004914    20.720446    7040.0525    10544.846     10009.06    8234.1844    -698.1713   -322.11353    152.87501   -2453.0929 
17221000    256.70458   -3847.4527   -3407.4698   -3847.4527            0    8839.0099    17.011139    20.036875     20.75355    7073.8487    8285.5868    7109.8353    11121.608   -374.49348   -1337.4775    1553.5002   -2495.5949 
17222000    264.32848   -3890.8085   -3437.7585   -3890.8085            0    8242.4683    17.056179    20.089926    20.808499    7130.1854    8709.0918    6948.1762     9070.137   -5.7230034   -1443.0751   -1643.8739   -2580.6536 
17223000    266.54941   -3878.9114   -3422.0548   -3878.9114            0    6319.7442    17.047867    20.080135    20.798357    7119.7657    4947.6496    7776.3636    6235.2193    1985.0601    70.112703    380.05348   -2765.8474 
17224000    264.28829   -3868.7697   -3415.7886   -3868.7697            0     9596.148    16.958122    19.974428     20.68887    7007.9158    10531.358    8976.3745     9280.711   -2095.1413   -464.17478   -1610.3327    -2435.031 
17225000    258.17518   -3842.2092   -3399.7057   -3842.2092            0    9166.6481    16.932823    19.944629    20.658004    6976.5976    10581.131    8553.8388    8364.9741    1035.0297   -162.59425   -1291.0792   -2467.0312 
17226000    253.31815    -3831.749   -3397.5703    -3831.749            0    8949.3327    17.047198    20.079347    20.797541    7118.9277    10288.838    7820.0655    8739.0942    1485.3476   -668.73776   -1064.0215   -2468.4304 
17227000    278.33155   -3825.5615   -3348.5108   -3825.5615            0    7234.7509      17.0126    20.038596    20.755333     7075.672    7905.9225    6072.2025    7726.1278    628.50509   -309.43826    104.25284   -2601.9466 
17228000    273.07771   -3858.0136   -3389.9677   -3858.0136            0    7434.1388    16.988864    20.010638    20.726374    7046.0967    9293.9778    5624.6988    7383.7398    379.68263   -86.955613   -195.76462   -2626.0349 
17229000    263.03746    -3838.881   -3388.0438    -3838.881            0    6723.2764    16.979563    19.999683    20.715028    7034.5308    5599.1869    6514.5446    8056.0976    316.86658    -1114.843   -2139.8712   -2698.2933 
17230000    257.18346   -3799.0713   -3358.2676   -3799.0713            0    8600.4361    16.944779    19.958711     20.67259    6991.3862    10174.215    8340.3194     7286.774    662.95729    638.85861    43.969146   -2481.3483 
17231000    261.02613    -3846.369   -3398.9791    -3846.369            0    6788.8466    17.106339    20.149008    20.869694    7193.2779    5305.3432    7617.6175    7443.5791    1446.0943   -377.55153    680.92782   -2686.7844 
17232000    270.51548   -3886.3337   -3422.6794   -3886.3337            0    6227.4867    17.082538    20.120974    20.840657    7163.2943    5921.3126    6865.9458    5895.2017     431.7276    638.77694   -127.42431   -2772.0982 
17233000    269.50338   -3907.8197   -3445.9001   -3907.8197            0    7899.1444    17.015064    20.041497    20.758338    7078.7458    6898.3435    8365.4466    8433.6432    1735.6071   -1075.0985    967.20153   -2630.4221 
17234000      264.671   -3861.2134   -3407.5763   -3861.2134            0    8757.7711    17.076467    20.113823     20.83325    7155.6598    8128.9652    7905.3175    10239.031    346.56849   -116.50971   -415.49663   -2493.6332 
17235000    244.93236   -3864.3514   -3444.5458   -3864.3514            0    7814.3796    17.015789    20.042352    20.759223    7079.6515    9045.2366    6954.0505    7443.8517     521.7064    13.177719   -695.03984   -2637.7153 
17236000    263.86839   -3902.4755   -3450.2141   -3902.4755            0    7189.1309    17.073528    20.110361    20.829665    7151.9657    6308.9683    7404.9409    7853.4835    12.221437    961.04294   -192.79136   -2700.3584 
17237000    253.90762   -3870.9203   -3435.7314   -3870.9203            0    8622.7918    16.971407    19.990075    20.705076    7024.3978    9197.9053    7104.2567    9566.2136    575.29939    1539.9875   -93.804829   -2552.3812 
17238000    260.43309   -3872.9373   -3426.5639   -3872.9373            0    8891.2914    17.011898    20.037769    20.754476    7074.7958    11585.038    6517.5015    8571.3344   -649.59978     61.57824    504.55227   -2509.1725 
17239000    257.81931   -3872.1857   -3430.2923   -3872.1857            0    5871.0183    17.015685    20.042229    20.759096    7079.5213    6692.4453    5855.6966    5064.9131     862.2788   -153.66076    1123.9982    -2824.124 
17240000    264.11147   -3880.6589   -3427.9809   -3880.6589            0    10438.393    16.926944    19.937705    20.650833    6969.3342     10640.71    10765.484    9908.9847   -1786.3913    583.03983    1692.6841   -2367.0165 
17241000    258.71357   -3885.9449   -3442.5187   -3885.9449            0    9128.0353    16.991862    20.014169    20.730032    7049.8274    9138.2069     9612.879    8633.0199    335.83544   -1329.6597    394.61855   -2504.0243 
17242000    265.18986   -3872.2035   -3417.6772   -3872.2035            0    8354.0818    17.039454    20.070226    20.788094    7109.2304    9978.6738    6797.0128    8286.5589   -1345.9835    -226.3828    661.45954    -2551.519 
17243000    254.78035   -3816.9612   -3380.2764   -3816.9612            0    8122.3294    17.018785     20.04588    20.762877    7083.3909    9583.5656    7680.9459    7102.4768   -1184.3547    1234.3105   -643.17747   -2541.2073 
17244000    279.95626   -3875.9671   -3396.1317   -3875.9671            0    7756.4331    16.968354    19.986479    20.701352    7020.6077    7755.1916    5890.5605    9623.5474   -2120.9195   -51.473519    607.33621   -2601.9632 
17245000    270.79101   -3861.3799   -3397.2533   -3861.3799            0    7860.2421    17.039753    20.070579    20.788459    7109.6056    9301.5912    7128.1043    7151.0309    1850.7244   -395.92192   -1725.3095   -2582.2539 
17246000    248.36609   -3842.4169   -3416.7259   -3842.4169            0    6488.7967     17.02616    20.054568    20.771876    7092.6044     6872.217    7959.4245    4634.7486   -314.05181    452.43908    1093.9498   -2745.5354 
17247000    265.09074   -3877.5952   -3423.2387   -3877.5952            0    6413.4878    17.002459     20.02665     20.74296    7063.0255    8510.1873     4975.006    5755.2701    1391.4347   -932.45805    165.06237   -2762.6047 
17248000     270.6394   -3863.0646    -3399.198   -3863.0646            0    8627.6667    17.033739    20.063494    20.781122    7102.0797    7504.9519    10297.472     8080.576   -692.09117   -1922.7033    1964.8302    -2505.574 
17249000     257.9573   -3889.2581   -3447.1282   -3889.2581            0    7058.1658    16.986077    20.007355    20.722974    7042.6296    5242.3093    7866.2594    8065.9286    -291.2132   -1289.0458   -1348.3402   -2722.1873 
17250000    267.01727   -3853.2856   -3395.6272   -3853.2856            0    6948.2451    17.047388    20.079571    20.797773    7119.1659    5881.0822    6209.1983    8754.4546   -1428.5821   -105.58013    64.200261   -2674.2205 
Loop time of 450.47 on 64 procs for 250000 steps with 864 atoms

Performance: 95.900 ns/day, 0.250 hours/ns, 554.976 timesteps/s
99.0% CPU use with 64 MPI tasks x 1 OpenMP threads

MPI task timing breakdown:
Section |  min time  |  avg time  |  max time  |%varavg| %total
---------------------------------------------------------------
Pair    | 21.357     | 26.994     | 31.921     |  48.2 |  5.99
Bond    | 0.26954    | 0.28271    | 0.29674    |   1.1 |  0.06
Kspace  | 195.02     | 201.88     | 210.76     |  25.0 | 44.81
Neigh   | 5.6356     | 6.16       | 6.8813     |  15.1 |  1.37
Comm    | 97.206     | 104.52     | 110.56     |  31.5 | 23.20
Output  | 0.87317    | 0.87415    | 0.87538    |   0.0 |  0.19
Modify  | 103.01     | 104.75     | 106.43     |   8.7 | 23.25
Other   |            | 5.014      |            |       |  1.11

Nlocal:        13.5000 ave          19 max           7 min
Histogram: 3 2 4 4 6 21 11 7 4 2
Nghost:        2227.36 ave        2263 max        2187 min
Histogram: 1 3 6 12 7 11 8 6 7 3
Neighs:        4331.78 ave        6205 max        2219 min
Histogram: 1 4 6 9 8 12 8 11 4 1

Total # of neighbors = 277234
Ave neighs/atom = 320.87269
Ave special neighs/atom = 2.0000000
Neighbor list builds = 14200
Dangerous builds = 2

unfix		3
unfix		2
unfix		1

write_data	data.final.${pid}
write_data	data.final.0
System init for write_data ...
PPPM initialization ...
  extracting TIP4P info from pair style
  using 12-bit tables for long-range coulomb (../kspace.cpp:340)
  G vector (1/distance) = 0.37391027
  grid = 24 24 24
  stencil order = 5
  estimated absolute RMS force accuracy = 0.0032013214
  estimated relative force accuracy = 9.6406844e-06
  using double precision FFTW3
  3d grid and FFT values/proc = 2535 216
Last active /omp style is kspace_style pppm/tip4p/omp
WARNING: Not all mixed pair coeffs generated from mixing. Use write_data with 'pair ij' option to store all pair coeffs. (../write_data.cpp:312)

write_restart   restart.lmp.${pid}
write_restart   restart.lmp.0
System init for write_restart ...
PPPM initialization ...
  extracting TIP4P info from pair style
  using 12-bit tables for long-range coulomb (../kspace.cpp:340)
  G vector (1/distance) = 0.37391027
  grid = 24 24 24
  stencil order = 5
  estimated absolute RMS force accuracy = 0.0032013214
  estimated relative force accuracy = 9.6406844e-06
  using double precision FFTW3
  3d grid and FFT values/proc = 2535 216
Last active /omp style is kspace_style pppm/tip4p/omp
Total wall time: 0:07:33
