LAMMPS (30 Jul 2021)
  using 1 OpenMP thread(s) per MPI task
package omp 0
using multi-threaded neighbor list subroutines
echo both

include		in.partitions
variable        pid world 0
include		in.temp
variable        temperature equal 253.38
variable	tempDamp equal 100.0
include		in.pressure
variable        pressure equal 7250.0
variable        pressureDamp equal 1000.0 # This is 1 ps
include		in.seed
variable        seed world 745823

units		real
atom_style	full
read_restart	restart.lmp.${pid}
read_restart	restart.lmp.0
Reading restart file ...
  restart file = 30 Jul 2021, LAMMPS = 30 Jul 2021
  restoring atom style full from restart
  orthogonal box = (0.59132788 1.7880374 0.72141864) to (17.616245 21.841140 21.491777)
  4 by 4 by 4 MPI processor grid
  restoring pair style lj/cut/tip4p/long/omp from restart
  restoring bond style harmonic/omp from restart
  restoring angle style harmonic/omp from restart
  864 atoms
  576 bonds
  288 angles
Finding 1-2 1-3 1-4 neighbors ...
  special bond factors lj:    0        0        0       
  special bond factors coul:  0        0        0       
     2 = max # of 1-2 neighbors
     1 = max # of 1-3 neighbors
     1 = max # of 1-4 neighbors
     2 = max # of special neighbors
  special bonds CPU = 1.635 seconds
  read_restart CPU = 1.974 seconds
include 	in.setup
variable	out_freq equal 1000
variable	out_freq2 equal 10000
variable	out_freq3 equal 1000

timestep	2.0

neigh_modify    delay 7 every 1

include		in.tip4p
# This is TIP4P/Ice

# create groups ###
group ox type 2
288 atoms in group ox
group hy type 1
576 atoms in group hy

# set charges - beside manually ###
set group ox charge -1.1794
Setting atom values ...
  288 settings made for charge
set group hy charge 0.5897
Setting atom values ...
  576 settings made for charge

# ### TIP3P Potential Parameters ###
pair_style lj/cut/tip4p/long/omp 2 1 1 1 0.1577 8.5
pair_coeff 1 1*2 0.000 0.000
pair_coeff 2 2 0.21084 3.1668
bond_style  harmonic
bond_coeff  1 450 0.9572
angle_style harmonic
angle_coeff 1 55 104.52
kspace_style pppm/tip4p/omp 1.0e-5
pair_modify tail yes

thermo          ${out_freq}
thermo          1000
thermo_style    custom step temp pe etotal epair emol press lx ly lz vol pxx pyy pzz pxy pxz pyz enthalpy

restart 	${out_freq3} restart.lmp.${pid} restart2.lmp.${pid}
restart 	1000 restart.lmp.${pid} restart2.lmp.${pid}
restart 	1000 restart.lmp.0 restart2.lmp.${pid}
restart 	1000 restart.lmp.0 restart2.lmp.0


include         in.dump
dump            myDump all atom ${out_freq2} dump.water.${pid}
dump            myDump all atom 10000 dump.water.${pid}
dump            myDump all atom 10000 dump.water.0
dump            myDump2 all dcd ${out_freq2} dump.dcd
dump            myDump2 all dcd 10000 dump.dcd
dump_modify     myDump append yes
dump_modify     myDump2 append yes


variable natoms 	equal  "count(all)"                        # NUMBER ATOMS
variable H      	equal  "enthalpy/v_natoms"                 # ENTHALPY-per-atom
variable Vol      	equal  "vol/v_natoms"                 # volume-per-atom
fix AVG all 		ave/time ${out_freq} 1 ${out_freq} v_Vol v_H file vol_enthalpy.dat
fix AVG all 		ave/time 1000 1 ${out_freq} v_Vol v_H file vol_enthalpy.dat
fix AVG all 		ave/time 1000 1 1000 v_Vol v_H file vol_enthalpy.dat


timer           timeout 23:50:00 every 1000
New timer settings: style=normal  mode=nosync  timeout=23:50:00

fix 		1 all shake 1e-6 200 0 b 1 a 1
       0 = # of size 2 clusters
       0 = # of size 3 clusters
       0 = # of size 4 clusters
     288 = # of frozen angles
  find clusters CPU = 0.180 seconds
fix             2 all nph iso ${pressure} ${pressure} ${pressureDamp}
fix             2 all nph iso 7250 ${pressure} ${pressureDamp}
fix             2 all nph iso 7250 7250 ${pressureDamp}
fix             2 all nph iso 7250 7250 1000
fix             3 all temp/csvr ${temperature} ${temperature} ${tempDamp} ${seed}
fix             3 all temp/csvr 253.38 ${temperature} ${tempDamp} ${seed}
fix             3 all temp/csvr 253.38 253.38 ${tempDamp} ${seed}
fix             3 all temp/csvr 253.38 253.38 100 ${seed}
fix             3 all temp/csvr 253.38 253.38 100 745823

run             250000
PPPM initialization ...
  extracting TIP4P info from pair style
  using 12-bit tables for long-range coulomb (../kspace.cpp:340)
  G vector (1/distance) = 0.37401921
  grid = 24 24 24
  stencil order = 5
  estimated absolute RMS force accuracy = 0.0031887694
  estimated relative force accuracy = 9.6028843e-06
  using double precision FFTW3
  3d grid and FFT values/proc = 2535 216
Last active /omp style is kspace_style pppm/tip4p/omp
Neighbor list info ...
  update every 1 steps, delay 7 steps, check yes
  max neighbors/atom: 2000, page size: 100000
  master list distance cutoff = 10.8154
  ghost atom cutoff = 10.8154
  binsize = 5.4077, bins = 4 4 4
  1 neighbor lists, perpetual/occasional/extra = 1 0 0
  (1) pair lj/cut/tip4p/long/omp, perpetual
      attributes: half, newton on, omp
      pair build: half/bin/newton/omp
      stencil: half/bin/3d
      bin: standard
Per MPI rank memory allocation (min/avg/max) = 9.236 | 9.239 | 9.241 Mbytes
Step Temp PotEng TotEng E_pair E_mol Press Lx Ly Lz Volume Pxx Pyy Pzz Pxy Pxz Pyz Enthalpy 
11000000    262.73386   -3873.0822   -3422.7654   -3873.0822            0    5677.6823    17.024917    20.053103    20.770359    7091.0504    4007.1762    7471.3024    5554.5682     64.07376     157.9197   -1568.0657   -2835.6039 
11001000    251.41561   -3885.2728    -3454.355   -3885.2728            0    6085.3414    17.112843    20.156669    20.877629    7201.4858     6658.459    5402.5421    6195.0232   -111.16738   -1201.4004   -818.92288   -2815.2342 
11002000    252.98305   -3894.9244   -3461.3201   -3894.9244            0    5548.7695    17.058122    20.092215    20.810869    7132.6227    5272.0447    5919.4851    5454.7787   -57.289825   -1155.8183   -190.39625    -2884.126 
11003000     249.5243   -3888.8976   -3461.2215   -3888.8976            0    9210.9653    16.977045    19.996716    20.711955     7031.401    10474.982    7437.4786    9720.4349   -574.93553   -402.11684   -485.57687    -2516.676 
11004000    232.59035   -3910.1137   -3511.4618   -3910.1137            0    6857.2597    17.005343    20.030048    20.746479    7066.6209     6361.512    6456.6375    7753.6295    1567.2324    116.38885    263.21697   -2804.7566 
11005000    248.10705   -3883.0695   -3457.8225   -3883.0695            0    7317.5571    16.997913    20.021297    20.737415    7057.3626    8130.1015    5517.7253    8304.8446    233.72141   -1870.6217   -87.899184   -2704.6674 
11006000    241.57656   -3869.8803   -3455.8264   -3869.8803            0    7648.2964      17.0531    20.086299    20.804742    7126.3248    7564.9395    7826.7706    7553.1792   -1669.2323     876.7954    538.06866   -2660.9379 
11007000    254.02432   -3897.9642   -3462.5752   -3897.9642            0    6958.6141    17.027724     20.05641    20.773784    7094.5589    6374.7597    7836.3831    6664.6995   -1064.6908   -591.77301     755.4015   -2742.5892 
11008000    259.50783    -3879.488   -3434.7004    -3879.488            0    6873.3242    17.001095    20.025044    20.741296    7061.3264    5470.6047    6791.6422    8357.7258   -338.95081   -425.59119   -1021.5803   -2726.8704 
11009000    270.29747   -3887.8648   -3424.5842   -3887.8648            0    7034.0084    17.064248    20.099431    20.818343    7140.3104     6214.862    8688.6375    6198.5256   -1047.6529   -29.149477    1274.4833   -2692.1041 
11010000    248.70866   -3843.6248   -3417.3466   -3843.6248            0    9014.1097    16.988683    20.010424    20.726153    7045.8711    8169.0473    7752.0339    11121.248   -1816.1141   -708.88615    233.84271   -2491.0856 
11011000    255.62402    -3870.186   -3432.0552    -3870.186            0    7176.1134    16.987695    20.009261    20.724948    7044.6423     8190.547    7177.1898    6160.6034    1743.5404    163.14053   -175.82563   -2694.7893 
11012000    259.25796   -3843.0148   -3398.6555   -3843.0148            0    6743.8957    17.001976    20.026082    20.742371    7062.4244     7715.984    6484.2701     6031.433    813.02837   -958.60447    1052.2653   -2704.0463 
11013000    256.82484   -3856.3562   -3416.1672   -3856.3562            0    6671.8193    17.043922    20.075488    20.793545    7114.8243    7910.2101    5502.3086    6602.9394      2255.82    -2030.001    151.43651   -2723.8831 
11014000     253.6063   -3909.6694   -3474.9969   -3909.6694            0    6941.6691    16.963438    19.980689    20.695355    7014.5082     6847.253    6941.8695    7035.8846      430.367         -811   -113.72273   -2764.8682 
11015000      255.341   -3874.9589   -3437.3131   -3874.9589            0    7362.5087    16.946097    19.960264    20.674199    6993.0186    5888.1296    7905.8503    8293.5461   -623.54117     202.2806   -292.71443   -2686.4403 
11016000      262.416   -3922.2978   -3472.5257   -3922.2978            0    5470.1648    17.063499    20.098548    20.817429    7139.3693    5439.9061     5663.123    5307.4655    793.57502   -232.73985    522.42954   -2902.9701 
11017000    252.53361   -3876.9987   -3444.1648   -3876.9987            0    9400.9707    16.973782    19.992873    20.707974    7027.3473    8048.9582    10198.369    9955.5849   -1323.7863   -261.75901    1361.8456   -2480.6907 
11018000    236.78354   -3913.1499    -3507.311   -3913.1499            0    5629.5141     17.05072    20.083496    20.801839    7123.3417    6707.8726    4561.0839    5619.5858    1161.1165   -1156.1668    652.50575   -2922.4798 
11019000    253.15416   -3918.9477   -3485.0501   -3918.9477            0    7837.9573    17.073906    20.110806    20.830125    7152.4401    8860.7585    7444.0161    7209.0974    759.59993   -556.03198    -1283.629   -2667.4649 
11020000     247.5835   -3914.7557   -3490.4061   -3914.7557            0    6762.4068    17.048183    20.080508    20.798743     7120.162    6447.9413    8433.6139    5405.6652    284.87355    -2027.513    420.08715    -2788.196 
11021000    248.71058     -3890.68   -3464.3986     -3890.68            0    7895.9079    17.036798    20.067098    20.784854    7105.9069    8514.2658    8533.0722    6640.3856    91.100857    526.18673   -1276.8468    -2646.127 
11022000    257.04683   -3866.7422   -3426.1727   -3866.7422            0    8198.2557     16.98877    20.010527     20.72626    7045.9801    9646.2092    9245.6106    5702.9472    1442.5396    1193.9036   -724.71228   -2583.7331 
11023000    244.84827    -3921.689   -3502.0274    -3921.689            0    7575.6956    17.021999    20.049667    20.766799    7087.4055    9440.3476    8072.4498    5214.2895    -155.4069   -286.00212    3316.5482   -2718.9843 
11024000    265.57535   -3870.3811   -3415.1941   -3870.3811            0    8940.6117    17.058955    20.093196    20.811886    7133.6679    8639.9069    8604.5443    9577.3837    832.51085    700.30587     178.7809   -2485.0376 
11025000    244.21788   -3850.0986   -3431.5175   -3850.0986            0    6064.0435    17.033341    20.063025    20.780636    7101.5816    6632.5972    6413.6437    5145.8896   -332.26851   -248.89651   -291.07903   -2803.4688 
11026000    261.82599   -3873.8791   -3425.1184   -3873.8791            0    7868.8684    17.063185    20.098178    20.817046    7138.9751    9262.5336    7315.8784    7028.1932   -1308.6635   -1117.4299   -1297.0428   -2605.8541 
11027000    260.99477   -3872.2316   -3424.8955   -3872.2316            0    6847.2582    17.071901    20.108445     20.82768    7149.9215    6231.0895      7738.91     6571.775   -664.46966   -161.52258   -614.24519   -2710.9026 
11028000    255.44777   -3905.5788     -3467.75   -3905.5788            0    6212.0072    17.081038    20.119206    20.838826     7161.407    8724.5143    4423.8883    5487.6189   -223.97361   -1250.3664    246.73561    -2818.957 
11029000    235.52697   -3885.2997   -3481.6145   -3885.2997            0    7579.2972    17.011384    20.037164    20.753849    7074.1547    6413.1657    8990.7781    7333.9479   -18.395105   -907.23647   -2103.1061   -2699.6638 
11030000    265.22872   -3893.9198   -3439.3268   -3893.9198            0    5463.4461    17.117665    20.162349    20.883512    7207.5753    6148.7873     6076.142     4165.409    1071.4965    -1089.151    312.02875   -2865.0362 
11031000    257.25563   -3873.0684    -3432.141   -3873.0684            0    7799.8637    17.051638    20.084577    20.802958    7124.4919    7282.3671    7156.6933    8960.5307    1783.0452   -1143.1169   -1100.8007   -2621.7086 
11032000    264.60819   -3896.3206   -3442.7912   -3896.3206            0    7777.9535    17.017194    20.044006    20.760936    7081.4045    9013.4123    7803.3234    6517.1249   -16.691994   -487.93456     819.3131   -2639.5229 
11033000    262.11136   -3925.0929    -3475.843   -3925.0929            0    7279.8343    17.028568    20.057404    20.774813    7095.6139    7213.5844    7320.9438    7304.9745    654.82027     494.8431    624.89695   -2722.5093 
11034000    249.03729   -3930.1996   -3503.3582   -3930.1996            0    7874.7611    17.027132    20.055712    20.773061    7093.8187    8466.2962    8869.0773    6288.9099   -732.26999    69.374744    679.10741   -2688.6664 
11035000    233.89632   -3926.3818   -3525.4915   -3926.3818            0    8226.2772    17.036603    20.066868    20.784616    7105.6625    9005.4593    8510.7564     7162.616    230.69945   -1071.8993    366.34924   -2673.0123 
11036000    239.18926   -3908.9117   -3498.9494   -3908.9117            0    8889.8184    17.023566    20.051513    20.768711    7089.3633    9944.4226    8936.1633    7788.8692    652.49267    1101.7764    557.81652   -2579.8214 
11037000     252.7058   -3893.7622   -3460.6331   -3893.7622            0    8472.0623    16.997784    20.021145    20.737257    7057.2017    7642.1873    9175.4691    8598.5304    655.33134   -2498.4689   -1225.5428   -2588.6711 
11038000    245.97726   -3876.8157   -3455.2191   -3876.8157            0    7970.6456    17.051313    20.084195    20.802562    7124.0851    8763.8584    6803.5651    8344.5133    944.19504    2016.7582    -34.40008   -2627.0891 
11039000    253.85446   -3882.0617   -3446.9638   -3882.0617            0    5579.5987    17.113581    20.157538    20.878529    7202.4174    6493.4499    4687.9569    5557.3892    191.49622   -665.70501   -262.01465   -2860.8835 
11040000    253.42243   -3890.3471   -3455.9897   -3890.3471            0     6360.394    17.053253     20.08648    20.804929    7126.5167    4286.1532     8857.171    5937.8579   -807.05367    170.45815   -688.80619   -2794.9353 
11041000    246.86264   -3890.6791    -3467.565   -3890.6791            0    7619.1644    17.026636    20.055128    20.772456     7093.199    5801.2133    9435.3561    7620.9238   -741.25804    122.99244    1108.2272    -2679.385 
11042000     255.4018   -3887.5952   -3449.8453   -3887.5952            0    9552.2052    16.939867    19.952926    20.666598    6985.3082    9341.4806    9221.6112    10093.524   -984.82393   -313.06449    -1291.964   -2476.7282 
11043000    253.48174   -3877.7489   -3443.2899   -3877.7489            0    7203.7151    17.015418    20.041915     20.75877    7079.1879    7013.9657    8456.1202    6141.0594    552.22314    946.31952   -241.22384   -2699.5589 
11044000    265.90572   -3924.2186   -3468.4653   -3924.2186            0    8103.4941    17.020545    20.047954    20.765026    7085.5897    9421.2523    9580.6489    5308.5811   -287.61623   -852.15835   -393.29569   -2631.0822 
11045000    235.78479   -3929.4005   -3525.2734   -3929.4005            0    7333.6018    17.034847      20.0648    20.782474    7103.4659     8572.333     7426.789    6001.6835   -82.830477    975.09656   -984.95937    -2765.536 
11046000     262.2623   -3906.8257   -3457.3171   -3906.8257            0    8435.1907    17.011897    20.037768    20.754475    7074.7946    6908.9657    10159.432     8237.174    31.844485     924.3107    1888.9528   -2586.9857 
11047000    248.70419   -3910.0064   -3483.7359   -3910.0064            0    5809.3587    17.094638    20.135225    20.855418    7178.5263    5548.6871    5165.0789    6714.3103   -1120.6951    491.55653   -1085.1409   -2875.5458 
11048000    254.75866   -3890.2306   -3453.5829   -3890.2306            0    8091.1928    17.037409    20.067818      20.7856    7106.6719    9071.2101    7282.3869    7919.9814    335.80636      400.358    446.86753   -2614.9832 
11049000     262.2317   -3896.3095   -3446.8533   -3896.3095            0    7140.0024    17.108536    20.151595    20.872374    7196.0492    7409.0678    7200.5847    6810.3546    304.36434    501.88693     668.2111   -2697.5315 
11050000    261.98345   -3929.3866   -3480.3559   -3929.3866            0    7302.8579    17.027211    20.055806    20.773158    7093.9181    8502.2123    6984.9373    6421.4241    136.82682    1259.9784      123.617   -2724.8204 
11051000    246.04323   -3868.9675   -3447.2579   -3868.9675            0    6809.8195    17.028878    20.057769    20.775191    7096.0013    7239.4425    5604.8691    7585.1469    107.33255   -351.06336    2069.5837   -2742.5239 
11052000    250.11597   -3922.2616   -3493.5714   -3922.2616            0    6077.3475    17.090073    20.129849    20.849849    7172.7773    5609.8793    5939.7768    6682.3864    -1879.352   -286.21971   -41.065787   -2857.8347 
11053000     254.1845    -3940.697   -3505.0334    -3940.697            0    7843.0982    17.046967    20.079076     20.79726    7118.6388    9019.7538    7696.2428    6813.2979    1373.0499   -318.30159    -392.9672   -2690.7783 
11054000    254.50089   -3869.3052   -3433.0994   -3869.3052            0    7060.3024    17.080405    20.118461    20.838054    7160.6109      5665.37    7023.5731    8491.9641    598.20857   -934.25459   -671.58694   -2695.7908 
11055000    244.28709   -3894.0474   -3475.3477   -3894.0474            0    7448.8511    17.104365    20.146683    20.867286    7190.7878    6292.6442    8581.0005    7472.9087   -1245.0533    425.75078    -1170.038   -2694.1847 
11056000    265.72035   -3881.3949   -3425.9593   -3881.3949            0     6639.727    17.121715    20.167118    20.888452    7212.6916    6078.5309    8521.4704    5319.1797   -70.905852   -385.03674    591.30606   -2727.5284 
11057000    251.36422   -3890.3058   -3459.4761   -3890.3058            0    8717.6435    17.023957    20.051972    20.769187    7089.8507    9570.5319     8785.529    7796.8696    2055.5277   -1174.6074   -998.45783   -2558.0874 
11058000    247.30542   -3866.1559   -3442.2829   -3866.1559            0    8250.7553    16.987109    20.008571    20.724234    7043.9139    6834.5833    8630.0566    9287.6262   -982.33641    -1456.672     1323.944   -2594.6972 
11059000    252.79882   -3878.6368   -3445.3482   -3878.6368            0    7323.4953    17.009556     20.03501    20.751619    7071.8741    8438.2112    7949.1158    5583.1591   -524.51557    1760.4041    138.67635    -2690.032 
11060000    252.11617   -3907.7883   -3475.6699   -3907.7883            0    7949.0187    16.947953     19.96245    20.676463    6995.3158    10194.221    6510.7459    7142.0896   -508.98354   -263.66835     -438.377   -2664.7149 
11061000    241.18371   -3867.6042   -3454.2236   -3867.6042            0    6686.4793    17.042944    20.074337    20.792352    7113.6004    8224.9541    5452.8166    6381.6674    954.06475   -758.53147     534.2941   -2760.5377 
11062000    260.24044    -3887.967   -3441.9237    -3887.967            0    5254.6885    17.081471    20.119717    20.839355    7161.9521    2651.2015    5340.3486    7772.5152    1190.8938    1090.7687    1382.3999    -2893.073 
11063000    264.70761   -3851.9441   -3398.2443   -3851.9441            0    7759.0293    17.056158    20.089901    20.808473    7130.1591    6538.0997    7909.9208    8829.0674    1107.8495   -281.61164    711.90279   -2591.4135 
11064000    246.39517     -3859.51   -3437.1971     -3859.51            0    6843.5088     17.05252    20.085616    20.804034    7125.5975    7297.5515    4338.5649      8894.41    824.48432   -464.09693   -485.41045   -2726.0229 
11065000    237.50663   -3884.1718   -3477.0936   -3884.1718            0    6724.2222    17.022238    20.049948    20.767091    7087.7043     4995.051    7600.1008    7577.5147    612.15398    61.548868    691.62717   -2782.0316 
11066000    262.90461   -3866.2567   -3415.6472   -3866.2567            0    5698.2741     17.02075    20.048195    20.765275    7085.8452    7169.0283    7363.7586    2562.0353    485.55813   -250.83012   -1168.0314   -2826.7888 
11067000    255.71769   -3927.4818   -3489.1904   -3927.4818            0    7135.4317    16.972439    19.991292    20.706336    7025.6804    7782.4331    6692.3354    6931.5267   -104.77006   -471.67763   -1207.5271   -2758.0774 
11068000    256.53129   -3909.0773   -3469.3914   -3909.0773            0    5452.4507      17.0593    20.093603    20.812307    7134.1009    5865.4119    4855.1106    5636.8296    1078.0875   -744.55949    117.80051   -2902.0991 
11069000    225.96499   -3910.0204   -3522.7241   -3910.0204            0    8194.3814    17.027794    20.056493    20.773869    7094.6468    7170.2812    7509.0177    9903.8452     718.6593   -1844.9004     189.8086   -2674.8667 
11070000    265.96021   -3909.8228   -3453.9761   -3909.8228            0     6482.621      17.0644    20.099609    20.818528    7140.5009    7990.2854    5074.2754     6383.302    1527.3028    58.082867   -1075.6119   -2778.8962 
11071000    241.50526   -3886.1795   -3472.2478   -3886.1795            0    5949.4855    17.148629    20.198819    20.921287    7246.7583    5607.5397    4176.8874    8064.0295   -849.89835   -406.15767   -802.39483   -2843.4672 
11072000    272.03376   -3858.5478   -3392.2913   -3858.5478            0     7347.332    17.037665    20.068119    20.785912    7106.9921    7924.9464    5849.7483    8267.3014    230.52061    979.26046    415.92313   -2630.7536 
11073000    233.27871   -3873.3292   -3473.4975   -3873.3292            0    9047.5814    16.990124    20.012122    20.727911    7047.6646    10058.877    9709.5153    7374.3522    69.197447    214.99072    1130.8898   -2543.5603 
11074000    243.86977   -3896.8448   -3478.8603   -3896.8448            0    6889.6571    17.006697    20.031643    20.748131    7068.3094    5718.7167    7382.6736    7567.5809    1330.3207    203.71707   -964.92596   -2768.6466 
11075000    251.95585   -3892.4113   -3460.5676   -3892.4113            0     7172.089    16.970753    19.989306    20.704279    7023.5867    6532.8464    8458.8976    6524.5229   -1099.5403    6.9592085   -321.43048   -2725.9176 
11076000    236.23603   -3867.1325    -3462.232   -3867.1325            0    8451.1648    16.994992    20.017856    20.733851    7053.7243    8868.7525    7180.1711    9304.5707   -1895.8854   -444.63119    1193.6739   -2592.8494 
11077000    244.60851   -3902.4625   -3483.2119   -3902.4625            0    10686.162    16.912764    19.921003    20.633533    6951.8339    9573.7041    10734.019    11750.763    315.89828    1307.6548    1037.0677   -2399.7914 
11078000     256.8293   -3865.2938   -3425.0972   -3865.2938            0    6942.1603    17.076174    20.113477    20.832892    7155.2911    4594.5314    8848.2154    7383.7342   -354.56097    1713.7923    398.21892   -2700.6648 
11079000    255.43132   -3910.1028   -3472.3023   -3910.1028            0    6444.2681    17.019559    20.046793    20.763823    7084.3584    7013.7607    7017.0597     5301.984   -924.44158   -208.99639     1066.598   -2806.4928 
11080000    260.25834   -3859.2911   -3413.2172   -3859.2911            0    6841.1176    17.026903    20.055442    20.772782    7093.5325    8001.2962    7050.4623    5471.5942   -1438.5196   -791.76548   -1102.1919   -2705.4906 
11081000    253.01115   -3901.5854    -3467.933   -3901.5854            0    5148.9009    17.125169    20.171188    20.892667    7217.0584    5828.8101    3853.4152    5764.4775   -319.87158    1085.0445    214.81099   -2925.9937 
11082000    259.47306   -3916.8566   -3472.1286   -3916.8566            0    8211.1874    17.000797    20.024693    20.740932    7060.9543    9554.5421    9233.3438    5845.6763   -774.18813   -482.38436   -67.114166    -2626.567 
11083000    246.51008   -3901.4649    -3478.955   -3901.4649            0    7883.6617    16.977722    19.997514    20.712781    7032.2426    5731.6289    9435.7349    8483.6212    1794.1716    803.50941   -277.17174   -2670.4221 
11084000    264.89018   -3877.6352   -3423.6225   -3877.6352            0    5924.0747    17.045039    20.076804    20.794907    7116.2231    5619.0328    7520.7956    4632.3958    1374.6921    1853.6264   -516.09379   -2808.8054 
11085000    265.04514   -3917.2722    -3462.994   -3917.2722            0    7894.1008    17.029473     20.05847    20.775918    7096.7457    8271.2199     7633.538    7777.5444    67.111633   -45.224846    350.92466   -2645.9643 
11086000    251.11862   -3888.3352   -3457.9264   -3888.3352            0    7731.5466    17.027756    20.056447    20.773823    7094.5989     8540.861    8558.5391    6095.2396    -207.1313   -2384.3703   -208.86095    -2657.963 
11087000    237.75682   -3904.7731    -3497.266   -3904.7731            0    7387.8354    17.072187    20.108781    20.828028    7150.2797    7218.0722    6911.9998    8033.4342     358.2359   -175.47965     184.1784   -2726.8663 
11088000    272.33481   -3910.9833   -3444.2108   -3910.9833            0    6536.9454    17.071051    20.107443    20.826642    7148.8529     8199.101    3609.6206    7802.1146    818.65633    206.94533   -1099.7909   -2762.6774 
11089000    229.64492     -3901.43   -3507.8264     -3901.43            0    7182.6425    17.103164    20.145268     20.86582    7189.2729    5758.4737    7564.4345    8225.0192    619.10186    1419.1922    668.84009   -2754.7395 
11090000    254.55541   -3915.0764   -3478.7771   -3915.0764            0     7396.514    17.065934    20.101416      20.8204    7142.4268    6395.7802    8334.1652    7459.5965   -1007.8819    262.60195    360.57688   -2708.3194 
11091000    232.78215   -3899.1903   -3500.2096   -3899.1903            0    5784.2858    17.182003    20.238129    20.962003    7289.1507    6925.7402    5664.9735    4762.1435    669.34485   -1953.2831    450.93247   -2885.3124 
11092000    261.17742   -3871.0992   -3423.4501   -3871.0992            0    9026.8477    17.096286    20.137167    20.857429    7180.6032    9490.5675    12258.417    5331.5588     2830.379   -526.50237   -483.15076   -2478.1429 
11093000    255.49088   -3910.1634   -3472.2608   -3910.1634            0    9688.4551     17.04418    20.075792    20.793859    7115.1473    10235.651    10200.602    8629.1131   -2352.2924    1925.9825    1075.2373   -2466.9176 
11094000    247.40075   -3895.2501   -3471.2137   -3895.2501            0    7789.3874    17.085258    20.124178    20.843975    7166.7169    7660.3318    7781.2668    7926.5635   -307.87264   -707.47941   -47.600517    -2657.073 
11095000    245.90709   -3908.1221   -3486.6458   -3908.1221            0    7685.2518    17.059186    20.093468    20.812167    7133.9571    7090.9936    8376.9788     7587.783    179.97573   -899.33522   -685.58073    -2687.061 
11096000    247.77374   -3856.6973   -3432.0216   -3856.6973            0    7355.6153    17.107718    20.150632    20.871376    7195.0171    5511.8358    8064.8308    8490.1794    483.40913    -3.599272    441.40854   -2660.1826 
11097000    249.87111   -3881.4852   -3453.2146   -3881.4852            0    8235.9286    17.045119    20.076899    20.795006    7116.3242    8557.9303    8297.0927    7852.7627    1163.6964   -492.79434   -314.92374   -2598.4547 
11098000    253.37679   -3918.5147   -3484.2356   -3918.5147            0    8631.7597    16.998256      20.0217    20.737833    7057.7893    8645.2708    9285.5673    7964.4411    1428.0584    235.85837    940.83863   -2595.7632 
11099000    258.97473   -3894.4228    -3450.549   -3894.4228            0     6745.241    17.057075    20.090982    20.809592    7131.3096    8031.4555    7293.0985    4911.1691   -1099.3819   -376.13429   -1359.0918   -2749.0248 
11100000    255.97059   -3911.4992   -3472.7744   -3911.4992            0    8884.5301    17.022584    20.050356    20.767513    7088.1366     9682.075     8142.855    8828.6604    1194.8862    1278.9637    736.84492   -2554.3521 
11101000    253.40271   -3936.9736   -3502.6501   -3936.9736            0    6685.9028    17.117719    20.162412    20.883578    7207.6435    8602.1796     5801.829    5653.6997   -272.57569    970.28908    1977.8728   -2799.8541 
11102000    255.88657   -3900.2334   -3461.6525   -3900.2334            0    5691.3368    17.090785    20.130687    20.850718    7173.6735    7314.8781    5906.5779    3852.5545    187.22783   -44.229231    1745.1547   -2866.2211 
11103000     258.1378   -3892.6951   -3450.2557   -3892.6951            0    8076.5304    17.016004    20.042605    20.759485    7079.9192    8251.0359    8018.3809    7960.1743   -182.02155    1160.1928    -752.7526   -2616.3268 
11104000    245.03088   -3895.5772   -3475.6026   -3895.5772            0    7087.0042    17.006042    20.030871    20.747332    7067.4922    6448.9201    9257.0302    5555.0623   -784.82757   -291.25882   -464.97993     -2745.13 
11105000    258.95489   -3896.0419   -3452.2021   -3896.0419            0    6138.5668    17.066912    20.102568    20.821593    7143.6546    6513.7521    6863.4989    5038.4495   -976.86101   -1809.8925   -1270.4623   -2812.6685 
11106000    229.32755   -3903.1462   -3510.0866   -3903.1462            0    7548.9081    17.079877    20.117839     20.83741    7159.9468    6756.6033    8494.4229    7395.6979   -955.50799    330.48022   -478.83587    -2721.826 
11107000    246.75724   -3933.6526   -3510.7192   -3933.6526            0    7203.7681    16.991697    20.013974     20.72983     7049.622    7751.1469    6541.5249    7318.6324   -2373.9391    159.42465    364.89509   -2770.0889 
11108000    244.42771   -3897.4416   -3478.5009   -3897.4416            0    6088.8533    17.101011    20.142733    20.863194    7186.5588    7475.4686    4736.5858    6054.5056   -2744.9592   -504.96248   -35.977725   -2840.3368 
11109000    241.22003   -3900.8975   -3487.4546   -3900.8975            0     6042.618    17.097899    20.139066    20.859397    7182.6353    6437.4666    5378.8203    6311.5672    1358.5833   -454.51701    912.92421   -2854.4821 
11110000      237.631   -3884.8638   -3477.5724   -3884.8638            0    6966.4308    17.034139    20.063966     20.78161    7102.5807    7405.0659    5638.4654    7855.7612   -135.96847    1250.2249    1630.3492   -2755.9627 
11111000    247.40465   -3891.2283   -3467.1852   -3891.2283            0    7102.4936    17.087455    20.126765    20.846656    7169.4819    7578.8552    5244.0229    8484.6026    395.55427   -475.08408   -251.85034   -2724.5517 
11112000    245.22531   -3889.3389   -3469.0311   -3889.3389            0    5973.7133    17.109002    20.152144    20.872942    7196.6372    6317.7381    5596.5603    6006.8416    678.61401     358.8275    933.59993   -2842.0566 
11113000    252.29098   -3895.1609   -3462.7428   -3895.1609            0    8104.6753    17.007088    20.032104    20.748608    7068.7968    7559.5147    9645.2284    7109.2828   -188.13421   -832.55108   -1132.9083   -2627.2225 
11114000    259.77061   -3866.4365   -3421.1986   -3866.4365            0    6654.1926    17.074775    20.111829    20.831185     7153.532    5356.1358    7000.8606    7605.5815    1373.0344   -770.38894    -392.1668   -2726.9871 
11115000    255.41222    -3877.469   -3439.7012    -3877.469            0    5699.9133    17.080299    20.118336    20.837925    7160.4777    6270.3451    3769.8744    7059.5203   -838.54869    517.94485   -654.44599   -2844.4694 
11116000    247.50281   -3916.3593   -3492.1479   -3916.3593            0    7093.4739    17.073782     20.11066    20.829974    7152.2846    6757.7111     6178.535    8344.1756    402.00646   -975.52727    44.900853   -2752.2366 
11117000    246.38007   -3905.1772   -3482.8902   -3905.1772            0    6955.5326     17.00482    20.029432    20.745841    7065.9692    5695.4061    5705.8329    9465.3589    -1604.632    357.17717     1076.532   -2766.1232 
11118000    260.05172   -3921.4784   -3475.7586   -3921.4784            0    7024.2949    17.036715       20.067    20.784753    7105.8034    6560.7753    7511.1105    7000.9988    493.14231   -1.0831066   -1588.8413    -2747.825 
11119000    259.48694    -3886.984   -3442.2322    -3886.984            0    7469.0858    17.047525    20.079732     20.79794    7119.3375     8478.189    6495.7939    7433.2744    527.16761    852.21546    798.93242   -2666.7302 
11120000    249.82508   -3899.8854   -3471.6937   -3899.8854            0    9450.6723    16.988737    20.010489     20.72622    7045.9393    10814.897    8538.7537    8998.3664    -906.2426   -27.447663     825.3715   -2500.5634 
11121000    258.87201    -3915.253   -3471.5552    -3915.253            0    7928.8797    16.997882     20.02126    20.737376    7057.3231    8473.9317    8399.9404    6912.7671    1417.1357    904.13033    321.27611   -2655.4847 
11122000    264.76183   -3877.3626   -3423.5699   -3877.3626            0     7235.842    17.047587    20.079805    20.798016    7119.4151    7712.1287    5190.3962     8805.001   -1432.4577    1491.5514     676.7514    -2672.277 
11123000     250.0064   -3909.7669   -3481.2645   -3909.7669            0    7713.0774    17.012625    20.038625    20.755363     7075.703    8953.7434    8897.5246    5287.9641    140.70391     740.9737   -175.88037   -2685.3376 
11124000    259.50639   -3884.2705   -3439.4854   -3884.2705            0    6231.0332    17.094596    20.135176    20.855368    7178.4741    6146.1926    6572.3299    5974.5771   -74.843155   -1465.8946    185.03045   -2787.1543 
11125000    269.62185   -3864.0388   -3401.9162   -3864.0388            0    8437.5206    17.053574    20.086857     20.80532    7126.9186    6116.4971    10380.522    8815.5425   -233.13506    285.89175   -1345.6526   -2524.9305 
11126000    260.58561   -3892.7525   -3446.1177   -3892.7525            0    6769.6884    17.027653    20.056326    20.773697    7094.4703    6097.3126    7238.5727      6973.18    580.32888   -836.13086    859.81091    -2745.688 
11127000    260.49074   -3892.8249   -3446.3527   -3892.8249            0    5319.3189    17.128286    20.174858    20.896468    7220.9989    3800.9288    5555.4156    6601.6124    805.06899   -441.89242   -1505.6518   -2886.1707 
11128000    258.54627   -3916.3036   -3473.1642   -3916.3036            0    7741.6806    17.105867    20.148451    20.869117    7192.6816    8671.1186    6392.2979    8161.6253   -101.46644    942.43275    917.77981   -2661.0782 
11129000    260.31312   -3881.4704   -3435.3026   -3881.4704            0    8611.3874    17.070652    20.106974    20.826156    7148.3521    8109.7755    6701.1293    11023.257   -494.54379     291.5108   -94.973594   -2537.5536 
11130000    242.67882   -3921.6804   -3505.7372   -3921.6804            0    6782.8596    17.054518     20.08797    20.806472    7128.1026    5986.8452    6866.2284    7495.5053   -99.164922   -193.80461    2337.7109   -2800.6178 
11131000    247.06208   -3928.8701   -3505.4141   -3928.8701            0    6029.2003    17.070932    20.107303    20.826497    7148.7035    7561.6589    6259.3412    4266.6008    714.83363   -1544.2577   -713.35165   -2876.8308 
11132000    243.94543   -3836.6549   -3418.5408   -3836.6549            0    8335.4599    17.016282    20.042933    20.759825     7080.267    6897.0817    9795.8713    8313.4268   -269.78126   -558.75797    802.97779   -2557.8343 
11133000    251.58609   -3905.7912   -3474.5813   -3905.7912            0    5309.4181    17.030588    20.059783    20.777277    7098.1392    4566.5838    6046.8799    5314.7906    992.07844    1702.4104    684.37068   -2924.9552 
11134000    248.88374   -3905.4906   -3478.9124   -3905.4906            0     7742.237    17.030778    20.060007     20.77751    7098.3774    7713.6727    7882.5688    7630.4696    438.82303    317.83389   -1806.8229   -2677.4163 
11135000    245.15562   -3924.5939   -3504.4055   -3924.5939            0    5904.6798    17.032592    20.062143    20.779722    7100.6449    7442.0588    7556.8028    2715.1778   -1049.1783   -1019.3072   -567.65216   -2892.9427 
11136000    254.22712   -3871.1731   -3435.4365   -3871.1731            0    7191.7945    17.039093    20.069801    20.787654    7108.7792    7875.9632     8728.688    4970.7324    242.54921   -979.61188     1017.609   -2689.8326 
11137000     245.5999   -3887.7686   -3466.8188   -3887.7686            0    6754.8773    17.062168    20.096981    20.815806    7137.6996     7026.099    6168.4673    7070.0655    973.23171     84.59092    962.71746   -2763.6629 
11138000    247.47247   -3879.2246   -3455.0652   -3879.2246            0    9070.8685     17.07383    20.110717    20.830033    7152.3452    9628.4939     8669.512    8914.5996    522.30234    1306.7843   -480.98636   -2508.8864 
11139000    230.04496   -3909.0735   -3514.7843   -3909.0735            0    8127.4706    17.022399    20.050137    20.767287    7087.9046    7204.0066    9807.3188    7371.0865   -1284.5377     1750.453     646.6171   -2674.6492 
11140000     265.2201   -3896.6873   -3442.1091   -3896.6873            0    7134.9588    16.958637    19.975034    20.689497    7008.5534    5798.5927     8778.883    6827.4008   -809.44935    59.019775    248.03249   -2712.8267 
11141000    252.62442   -3918.8255   -3485.8359   -3918.8255            0    5995.5661    16.953101    19.968514    20.682744    7001.6924    4538.2682    6306.0962    7142.3338    617.72252    2515.0251    362.86547   -2873.6136 
11142000    242.57628   -3905.7785   -3490.0111   -3905.7785            0    5405.3118    17.028662    20.057515    20.774928     7095.732    2504.2012    8587.6301     5124.104   -1602.9057    890.93656    855.33394   -2930.6479 
11143000     245.7307    -3901.004     -3479.83    -3901.004            0     7487.718    17.038663    20.069295     20.78713    7108.2413    7716.0258    9252.1886    5494.9395   -260.89887    1188.5213    429.03521   -2703.6051 
11144000    253.89659   -3919.0785   -3483.9084   -3919.0785            0    5611.6441    17.065077    20.100406    20.819354    7141.3499    4999.1844    6134.1013    5701.6466    641.86907    138.19642     826.3358   -2899.4598 
11145000    257.86092   -3876.5063   -3434.5416   -3876.5063            0    6133.2588    17.070156    20.106389    20.825551    7147.7292    5019.5857    7183.8874    6196.3034    65.212052    88.336658    275.38016   -2795.1966 
11146000     258.3323   -3920.5307   -3477.7579   -3920.5307            0    7341.5257    17.003606    20.028002    20.744359    7064.4551    6438.2385    6253.0618    9333.2768    306.58694   -1246.4737    50.321794   -2721.3765 
11147000    245.65929   -3908.5821   -3487.5305   -3908.5821            0    5734.1258    17.064914    20.100214    20.819155    7141.1455    6581.0151    4908.4107    5712.9515    894.25067    482.20713   -472.15203   -2890.3426 
11148000    234.91529    -3911.139   -3508.5022    -3911.139            0    6746.1105    17.026105    20.054503    20.771809    7092.5356    6213.9121     7027.443    6996.9763    1359.1297    -893.9036    268.29112   -2810.7024 
11149000    259.80965   -3885.1305   -3439.8256   -3885.1305            0    6449.3445    17.111808    20.155449    20.876365    7200.1783    4710.5658    6164.2124    8473.2552   -471.65335    1665.2145    -109.6316   -2762.5979 
11150000    261.29784   -3930.1016    -3482.246   -3930.1016            0    6892.8929    17.133496    20.180995    20.902825    7227.5902    6080.8262    7765.1055    6832.7471    -415.7251   -48.982571    937.93877   -2755.6869 
11151000    244.00081   -3865.8357   -3447.6267   -3865.8357            0    9375.1006    17.110119     20.15346    20.874305    7198.0468      8379.85    9856.7437    9888.7081    -140.9261   -1306.7397    1752.5939   -2463.4649 
11152000    244.04667   -3922.4249   -3504.1373   -3922.4249            0    5598.8753    17.169329    20.223202    20.946542    7273.0334    6429.6968    3832.7819    6534.1473    141.42991   -73.245295   -1296.0187   -2910.2661 
11153000    254.67359   -3880.0952   -3443.5933   -3880.0952            0    6296.4085    17.090387    20.130218    20.850232    7173.1726    8062.3566    4079.8391    6747.0298    1216.0898   -2190.5072   -502.45993   -2784.9049 
11154000    243.07334   -3891.2616   -3474.6423   -3891.2616            0    8896.7685    17.008665    20.033961    20.750531    7070.7627    9216.6145    10308.753    7164.9379   -1040.5216   -1590.3554   -710.76687   -2557.2091 
11155000    246.99017   -3893.8236   -3470.4909   -3893.8236            0    6047.1172    17.064127    20.099287    20.818195    7140.1574    4464.5048    7202.6332    6474.2137     286.7528   -823.54296   -119.53868   -2840.7933 
11156000     235.1654    -3897.113   -3494.0476    -3897.113            0     5967.157    17.054491    20.087938     20.80644    7128.0692    4575.8652    5688.0831    7637.5227   -1145.4724   -144.66007    203.82708   -2873.7283 
11157000    236.45154   -3887.0947   -3481.8248   -3887.0947            0    6165.5059    17.080003    20.117987    20.837564    7160.1052    6189.1347    6077.4656    6229.9173   -144.17112    714.16271   -967.86425   -2838.0055 
11158000    255.02539   -3917.1931   -3480.0883   -3917.1931            0    6821.8924    17.039624    20.070426    20.788301     7109.443    5877.4916    7581.0664    7007.1192   -611.75943    141.26622   -2976.4183   -2772.7677 
11159000    248.00631   -3905.2349   -3480.1606   -3905.2349            0    8100.3682    16.918442     19.92769    20.640459    6958.8371    9140.1207    6779.4784    8381.5056   -1360.7343    502.35305   -914.44551   -2658.0745 
11160000    259.49185   -3891.3233   -3446.5632   -3891.3233            0    7789.1592    17.072574    20.109237    20.828501    7150.7668    8141.2627    6711.9858    8514.2292    302.91891    40.833728    3.8234988   -2634.2583 
11161000     242.0302   -3908.9586   -3494.1271   -3908.9586            0    6917.8723    16.998694    20.022216    20.738366    7058.3343    6360.2485    7739.6792    6653.6892   -322.65148   -1169.6533   -1380.5374   -2782.0113 
11162000    233.69583   -3882.3218   -3481.7751   -3882.3218            0    8090.8143    17.029994    20.059083    20.776552    7097.3961    7917.7402    6667.3356    9687.3672   -492.87455    711.22326   -1459.2506   -2644.3092 
11163000     260.9425   -3905.1832   -3457.9367   -3905.1832            0    7958.4798    17.040509    20.071469    20.789381    7110.5512    7860.6541     7666.754    8348.0312    342.69942    -719.6058    1284.1453   -2632.6416 
11164000    251.05907   -3890.7935   -3460.4869   -3890.7935            0    8866.1207    17.013353    20.039483    20.756251    7076.6116    9165.8858    8123.0911    9309.3853    2149.4854   -2159.2464   -654.77876   -2545.4578 
11165000    245.93072   -3890.9177   -3469.4008   -3890.9177            0    9471.1397    17.018222    20.045218    20.762191    7082.6887    9657.2004    8435.8527    10320.366    2470.1017    275.79504    187.00316   -2491.0913 
11166000    254.83941   -3915.6873   -3478.9013   -3915.6873            0    5663.3366    17.085115    20.124008      20.8438    7166.5359    6619.8035    4769.8335    5600.3728    798.75049   -876.59701    1794.2144   -2886.9887 
11167000    245.53222   -3920.4301   -3499.5963   -3920.4301            0    7934.1503    17.021231    20.048762    20.765863    7086.4465    6863.9736    7759.2296    9179.2476    679.84963    490.24093   -474.25014   -2679.6133 
11168000    272.22294   -3897.4336   -3430.8528   -3897.4336            0    7170.8685    17.050283    20.082981    20.801305    7122.7937    8816.7924    6216.7053    6479.1077   -240.83344     89.47508    996.94607   -2685.9528 
11169000    241.51206   -3864.5644    -3450.621   -3864.5644            0    6620.3696    17.117592    20.162262    20.883422    7207.4825    7361.1364    6934.3152    5565.6572     68.67703   -83.808583    719.12282   -2754.7292 
11170000    246.66968   -3885.9042   -3463.1208   -3885.9042            0    5976.5198     17.05798    20.092047    20.810696    7132.4442    6754.8596    5981.1532    5193.5466   -218.45074    331.22958   -654.19273   -2841.4469 
11171000    261.54206   -3903.5692   -3455.2951   -3903.5692            0    6585.4549    17.040044    20.070921    20.788814    7109.9697    6152.9309    7260.6223    6342.8114   -602.20049   -167.24879    647.06437   -2772.4386 
11172000    254.83304   -3891.0137   -3454.2386   -3891.0137            0    7560.8498    17.010823    20.036502    20.753164    7073.4541     7761.245    8644.2344    6277.0701   -774.22672   -330.01548    1359.8723   -2674.2683 
11173000    246.95542   -3885.9115   -3462.6384   -3885.9115            0    7029.5789    16.989516    20.011405     20.72717    7046.9078    6420.6496     6770.034     7898.053    656.65273   -823.83726   -1410.4164    -2740.195 
11174000    245.70533   -3897.0407   -3475.9102   -3897.0407            0    5037.3096    17.085779    20.124791    20.844611    7167.3721    5475.4948    4926.1941    4710.2401    531.54294    656.13277    1447.7463   -2949.3664 
11175000      244.348   -3865.7179   -3446.9138   -3865.7179            0    8486.1726    17.011285    20.037047    20.753729    7074.0315    11148.342    9255.9946    5054.1811   -81.298046    1822.6493    1084.4041   -2571.4166 
11176000    248.17515   -3878.4076   -3453.0439   -3878.4076            0    8200.4003     16.95262    19.967948    20.682157    7001.0972    9125.9942    6556.4216    8918.7852   -583.29064   -7.8251668    629.52918   -2615.7517 
11177000    252.53504   -3869.7993   -3436.9629   -3869.7993            0    5841.4877    17.037796    20.068273    20.786071    7107.1554    7409.8342    5395.7034    4718.9257   -1243.7034   -346.29357    218.84054   -2831.4893 
11178000       263.57   -3916.3431   -3464.5931   -3916.3431            0    6885.1668    17.072676    20.109357    20.828625    7150.8946    7755.2865    7810.5362    5089.6778   -16.896215    1032.0078   -436.76906   -2746.5497 
11179000    250.09133   -3894.5041   -3465.8561   -3894.5041            0     7695.146    17.030888    20.060137    20.777644    7098.5145    7051.0818    8219.8394    7814.5167    16.060442    1850.5225   -2257.6129   -2669.2196 
11180000    248.05671   -3904.5985   -3479.4378   -3904.5985            0    6379.6379     17.05545    20.089068     20.80761    7129.2718    3995.7512    8568.1036     6575.059   -294.20929    1590.1757   -797.75587   -2816.1269 
11181000    264.06436    -3910.091   -3457.4937    -3910.091            0    7948.2336    17.068055    20.103914    20.822987      7145.09    8305.9095    7714.0706    7824.7208    269.52856    -562.7628   -956.83086   -2629.2575 
11182000    263.36151    -3871.336   -3419.9434    -3871.336            0    8411.0787    17.010528    20.036155    20.752804    7073.0866    7138.5152    7845.9975    10248.723    2162.5817    226.63308   -197.61083   -2552.3094 
11183000    245.33383   -3898.3269   -3477.8331   -3898.3269            0    7242.7744    17.012429    20.038395    20.755124    7075.4588    5574.8147    8197.5409    7955.9675    932.29287    88.741763    54.420121   -2730.4635 
11184000    252.92442   -3930.2849   -3496.7811   -3930.2849            0    6739.8745    17.012729    20.038748     20.75549    7075.8326    6057.0747    7451.6926    6710.8562    35.134175     186.3173    2223.6171   -2801.2681 
11185000    257.11576   -3901.8887   -3461.2011   -3901.8887            0    7993.6791    16.981954    20.002499    20.717944    7037.5025    6843.2488    9075.9754    8061.8131   -1087.8782   -1680.0849   -670.59435   -2640.7718 
11186000     250.1651   -3901.4771   -3472.7027   -3901.4771            0    5201.2402    17.094747    20.135354    20.855552    7178.6645    4452.9298    5019.2488    6131.5421    -267.8368   -3.8376986    472.53988   -2928.1668 
11187000    235.44563   -3901.0516   -3497.5058   -3901.0516            0    7316.4394    17.011189    20.036934    20.753611    7073.9111    5721.6683    8229.2665    7998.3834   -698.13749    1011.3866    828.18653      -2742.7 
11188000    277.62548   -3906.1098   -3430.2692   -3906.1098            0    8490.3615    16.993877    20.016543    20.732491    7052.3367    9033.3125    7307.8214    9129.9505    1018.8398    1462.0203   -341.81296   -2557.0262 
11189000    238.71175   -3902.8793   -3493.7355   -3902.8793            0    7386.7057    16.961022    19.977844    20.692407    7011.5114    6854.0632    6953.2817    8352.7722   -217.17748   -998.45428    1185.4006   -2738.4027 
11190000    264.30552   -3891.7403   -3438.7297   -3891.7403            0    6134.5847    17.075884    20.113136    20.832538    7154.9263    6850.4564    6007.2847     5546.013     863.5253   -1644.6356    1182.2088   -2798.6025 
11191000    257.48187   -3898.4076   -3457.0925   -3898.4076            0    7804.7819    16.963364    19.980602    20.695264    7014.4157    7231.9188     9021.833    7160.5938   -28.447552   -66.533016    1032.1434   -2658.6785 
11192000     257.7172   -3898.0464   -3456.3279   -3898.0464            0    6542.4999    17.022508    20.050265    20.767419    7088.0406    7257.9277    5962.2342    6407.3378   -778.70902    146.98996   -800.89475   -2780.0179 
11193000     246.9971   -3882.7649   -3459.4203   -3882.7649            0    7201.5518    17.061266    20.095917    20.814704    7136.5665    7250.3957    7253.2042    7101.0557    -933.8448    640.35712   -25.562479   -2709.8863 
11194000    258.08441   -3879.4827   -3437.1348   -3879.4827            0    7402.7121    16.990624     20.01271    20.728521    7048.2864    8436.9473    5464.5117    8306.6773   -492.80623   -110.97927    1617.8136    -2676.195 
11195000    248.72904   -3878.8418   -3452.5287   -3878.8418            0    7471.3924    16.957354    19.973523    20.687932    7006.9631    6903.0175    8470.4591    7040.7005   -355.36648   -491.56464   -590.92951   -2689.0319 
11196000    257.36161   -3907.2791   -3466.1701   -3907.2791            0    6623.8575    17.027499    20.056144    20.773509    7094.2772    7380.6835    6488.5765    6002.3126     282.1681   -1005.3755   -929.62161   -2780.8476 
11197000     257.8974   -3910.8842   -3468.8569   -3910.8842            0    7456.4321    16.977167     19.99686    20.712104    7031.5529    6983.6168    8053.9429    7331.7366    832.06197    693.84549    692.04029   -2704.2148 
11198000    255.05304   -3894.5055   -3457.3533   -3894.5055            0    7640.1862    17.058952    20.093193    20.811882    7133.6642     9021.542    8175.6714    5723.3451    -53.99724    1366.2672    701.68533   -2662.4899 
11199000     258.1206   -3897.4513   -3455.0414   -3897.4513            0    6686.1576    17.084462     20.12324    20.843004    7165.7148    8625.2383    4776.8726     6656.362   -141.50446       2143.3   -139.37334   -2756.3072 
11200000     246.8477    -3912.807   -3489.7185    -3912.807            0    6358.5215    17.116217    20.160643    20.881745    7205.7463     6541.498    5941.8467    6592.2197    2395.1583    208.77259   -661.46675   -2821.5115 
11201000    244.55103   -3898.3709   -3479.2188   -3898.3709            0    6753.1669    17.054214    20.087611    20.806101    7127.7212     5916.227    6642.0439    7701.2297    374.11462    -705.9906   -205.68766   -2777.2237 
11202000    246.45288   -3896.9662   -3474.5544   -3896.9662            0    6621.3702    17.116479    20.160951    20.882064    7206.0768    7843.7387    5843.3584    6177.0133    384.06812   -750.68297    246.49652   -2778.6932 
11203000    241.00609   -3904.1043   -3491.0281   -3904.1043            0    7590.1452    17.018766    20.045859    20.762855    7083.3684    8239.5502    9074.5524    5456.3329   -793.74462    682.88541   -506.80833   -2706.9383 
11204000    245.04619   -3932.7456   -3512.7448   -3932.7456            0    5962.2297    17.044091    20.075688    20.793752    7115.0367    7133.9383    5197.8105    5554.9403     -48.1341    1567.2487    1035.9276   -2894.0709 
11205000    235.81588   -3919.2717   -3515.0914   -3919.2717            0    9626.6431    17.023582    20.051531    20.768731    7089.3834    7650.1725    10517.148    10712.609    959.20997     661.9304    1165.4323   -2519.7794 
11206000    250.59246    -3927.609   -3498.1021    -3927.609            0    7394.5907    17.007692    20.032815    20.749345      7069.55    7285.7004    6542.1888    8355.8828   -1140.9808   -494.40698    120.05055    -2735.704 
11207000    250.48471   -3898.8063    -3469.484   -3898.8063            0    5517.3006    17.059958    20.094377    20.813109    7134.9257    4037.6855      8745.16    3769.0563    448.36104    884.36866    339.32097   -2895.3782 
11208000    258.73849   -3901.0628   -3457.5938   -3901.0628            0    7385.6765    17.053571    20.086854    20.805317    7126.9156    6417.6411     9233.908    6505.4804    259.43095    326.00982    2328.3414   -2689.9358 
11209000    262.30778   -3941.7641   -3492.1776   -3941.7641            0    7461.8373     17.02347    20.051399    20.768594    7089.2429    8009.9352    7070.1921    7305.3847   -546.30466   -25.877243   -366.71164   -2720.7031 
11210000    265.91821   -3889.6981   -3433.9234   -3889.6981            0     7537.175    17.041534    20.072677    20.790632    7111.8351    8715.1689    7700.6746    6195.6814   -1450.9124     379.6897    891.25099   -2652.1765 
11211000    250.83876   -3911.7042   -3481.7752   -3911.7042            0    8135.6787    17.060835     20.09541    20.814178    7136.0258    7288.0075    7808.1658    9310.8627    350.84145    339.93706    676.60084   -2635.0819 
11212000    255.39521   -3905.5307   -3467.7921   -3905.5307            0     9677.818     17.02984    20.058902    20.776365    7097.2038    9493.3219    9023.6586    10516.474   -1967.0199   -713.55054   -848.04888   -2466.0853 
11213000    261.14865    -3894.491   -3446.8911    -3894.491            0    5669.0796    17.121856    20.167284    20.888624    7212.8695    6117.6595    4994.8625    5894.7168    108.09863   -292.04597   -340.99849   -2850.5476 
11214000    251.36609   -3897.8701   -3467.0372   -3897.8701            0     8386.646     17.07643    20.113779    20.833205    7155.6128    8770.8217    8821.8506    7567.2658    676.74513    -498.1311    335.69323   -2591.8297 
11215000    250.37159   -3942.1596   -3513.0313   -3942.1596            0    7051.7034    17.032666    20.062231    20.779813    7100.7383    8199.2328    6032.5107    6923.3666     541.9044    -131.6998     153.4587   -2782.7782 
11216000    242.32263    -3886.479   -3471.1464    -3886.479            0    7343.5388    17.038155    20.068696     20.78651    7107.6054    6093.9187    7452.2751    8484.4226     115.1376    1192.3135    2015.1634   -2709.9362 
11217000    236.92032    -3903.136   -3497.0627    -3903.136            0    7988.9191    17.023251    20.051141    20.768326    7088.9692    8837.3262    7277.7946    7851.6365   -2376.6249    1723.0567    770.61184   -2671.1256 
11218000    252.65574   -3889.0073    -3455.964   -3889.0073            0    6867.9764    17.111946    20.155612    20.876534    7200.3528    7279.8805    8001.5727     5322.476    646.46027    621.30805   -942.49196   -2734.7594 
11219000      249.526   -3861.3854   -3433.7064   -3861.3854            0    5740.1671    17.136756    20.184835    20.906803    7231.7174    5487.5401    6039.2291    5693.7321    218.95372   -1681.5102   -896.66216   -2828.3071 
11220000    243.87593   -3889.8839   -3471.8889   -3889.8839            0    9824.2491    16.960883     19.97768    20.692238    7011.3392    9805.3488    9819.0952    9848.3032     -220.109   -389.74185    1473.0173   -2467.3281 
11221000    255.39522   -3900.6459   -3462.9072   -3900.6459            0    6790.5967    17.039707    20.070525    20.788403     7109.548    5822.6865    7363.9556    7185.1479   -216.32499    941.97436    821.96456    -2758.821 
11222000     249.2658   -3921.0295   -3493.7964   -3921.0295            0    7646.3062    17.047292    20.079458    20.797656    7119.0455    8639.7751    6839.0312    7460.1125    712.41449   -690.99331   -688.31465   -2699.9265 
11223000    246.85084   -3913.2662   -3490.1723   -3913.2662            0    4734.6573    17.034385    20.064256     20.78191    7102.8881    4974.1318    3604.1094    5625.7307   -197.83628    -1917.941   -166.83572   -2999.7171 
11224000    254.72335   -3876.2628   -3439.6757   -3876.2628            0    6097.8889    16.990609    20.012693    20.728503     7048.268     6476.964    5736.6281    6080.0747   -1000.8292   -368.02756   -648.74118   -2812.8629 
11225000    242.72887   -3902.6603   -3486.6313   -3902.6603            0    7779.6516    17.036232    20.066431    20.784164     7105.199    6559.9029    8820.8229    7958.2289    -1792.406   -1612.7713    703.64136   -2680.4879 
11226000    250.55858   -3900.8711   -3471.4222   -3900.8711            0     6420.266    17.165619    20.218832    20.942015    7268.3194    5447.5456    6575.9222      7237.33    -89.27678    15.959528    1060.3319   -2790.8677 
11227000    272.09892   -3860.2944   -3393.9261   -3860.2944            0    7755.1254    17.077656    20.115223    20.834701    7157.1545    7499.3202    6210.4997    9555.5562    938.17757   -1042.1539    1498.6802    -2584.448 
11228000    261.64964   -3887.0709   -3438.6124   -3887.0709            0    8897.2077     17.05747    20.091446    20.810073    7131.8044    9298.2833     8222.499    9170.8408   -1471.9384    720.76205     488.6817   -2513.2133 
11229000    256.08068    -3909.224   -3470.3105    -3909.224            0    5921.0479     17.06829    20.104191    20.823274    7145.3853    7349.8566    4298.9865    6114.3005    170.24357   -695.64264   -827.14487   -2853.2893 
11230000    269.26791   -3912.7892   -3451.2732   -3912.7892            0    4793.9923    17.062116    20.096919    20.815741    7137.6335     4797.854    5323.5799     4260.543   -477.27833   -1388.9105    635.93554   -2952.2423 
11231000    257.39174   -3892.4796    -3451.319   -3892.4796            0    6381.8236    17.041546     20.07269    20.790646    7111.8491    7709.3644    5434.8805     6001.226   -1804.9804   -1172.1678    754.08629   -2789.4025 
11232000    252.79703   -3884.1922   -3450.9067   -3884.1922            0    7287.2939    16.991594    20.013854    20.729706    7049.4948    8305.7857    7210.7166    6345.3793   -1052.1846    -856.3938    211.71068   -2701.7026 
11233000    246.35962   -3895.8431   -3473.5911   -3895.8431            0    6939.8343    17.030018    20.059112    20.776583     7097.427    7085.9217    8005.7021    5727.8791   -308.69165    12.712309    187.60547   -2755.2579 
11234000    269.70003   -3908.1371   -3445.8805   -3908.1371            0    7029.5152    17.085126    20.124022    20.843814    7166.5508    6821.6183    7837.1604    6429.7669   -1386.3584    -28.09325    1260.1021   -2711.1781 
11235000    258.75799   -3908.2583    -3464.756   -3908.2583            0    7941.4487    17.025358    20.053623    20.770897    7091.6016    7408.9641    9057.1829    7358.1989   -526.14985    337.81891    -160.7483   -2643.4217 
11236000    255.73119   -3916.0023   -3477.6878   -3916.0023            0    7813.2824    17.082207    20.120584    20.840253    7162.8777    6075.1842    8982.8297    8381.8333    687.64664    837.12217    588.83073   -2661.4871 
11237000     253.5068   -3906.5627   -3472.0607   -3906.5627            0    6238.0229    17.077993     20.11562    20.835111    7157.5775    6218.0679    5672.7063    6823.2946    573.33895   -1186.6915   -879.45472   -2820.8989 
11238000    262.37634   -3905.8983   -3456.1942   -3905.8983            0    7035.5387    17.080505    20.118579    20.838176    7160.7366    7861.0968    6873.8251    6371.6942    89.613968   -1650.7013   -1034.3468   -2721.4589 
11239000    241.29688   -3889.5176    -3475.943   -3889.5176            0    7813.3418    17.075346    20.112503    20.831883    7154.2507    10331.847    6995.0872    6113.0915   -583.41356    668.04075   -713.01243   -2660.7192 
11240000    252.77968   -3903.5697    -3470.314   -3903.5697            0     5341.842     17.17259    20.227043     20.95052    7277.1785    5983.6132    4672.6569    5369.2557   -1442.4819    112.36832   -1763.5532   -2903.3833 
11241000    243.10157   -3905.5669   -3488.8992   -3905.5669            0    5532.1332    17.052063    20.085078    20.803477    7125.0247    6023.6998    5454.0251    5118.6748    513.08978    836.25479   -1568.7482   -2914.0487 
11242000    246.84512   -3901.3735   -3478.2894   -3901.3735            0    5936.5331    17.057999    20.092069    20.810718    7132.4677    6217.4149    5642.6199    5949.5645   -776.05989    182.46398    22.920608   -2860.7729 
11243000    267.92248   -3900.4392   -3441.2293   -3900.4392            0    7058.4519    17.006506    20.031418    20.747898    7068.0709    7137.5761    6753.0439    7284.7356   -285.28773   -1645.3506   -665.69365   -2713.6401 
11244000    262.39451    -3901.285   -3451.5498    -3901.285            0    7024.0906    17.115429    20.159714    20.880783    7204.7504    6851.7894    6333.7809    7886.7016    1335.2244      1285.94    622.97148   -2713.5013 
11245000    266.65316   -3881.1405   -3424.1061   -3881.1405            0    8522.2559    16.997078    20.020313    20.736396    7056.3225    7614.0775    7141.5703     10811.12    37.466266    1396.9751   -14.927985   -2547.0874 
11246000    252.82939   -3905.5739   -3472.2329   -3905.5739            0    8194.2598    17.058903    20.093134    20.811821    7133.6018    7919.4865    7391.4186    9271.8742   -506.59365    -789.1433   -197.65464   -2619.7328 
11247000    241.56694   -3872.0686   -3458.0312   -3872.0686            0    6406.5073    17.030546    20.059734    20.777226    7098.0867    7401.5907    4671.4855    7146.4458   -1413.0825    -674.1885    26.823321   -2794.8403 
11248000    263.55102   -3889.3301   -3437.6127   -3889.3301            0    8045.6992    17.013559    20.039725    20.756502    7076.8676    6420.1055    8659.0193    9057.9727    424.46056   -102.21282   -1726.5366   -2607.2253 
11249000    257.54536   -3926.6064   -3485.1825   -3926.6064            0     6881.779     16.99419    20.016912    20.732873    7052.7263     6780.472    7643.0758    6221.7891   -176.88279   -1350.3027    1598.7264   -2777.3449 
11250000    258.40675   -3880.9202   -3438.0198   -3880.9202            0    8604.1872    17.050592    20.083346    20.801683    7123.1815    9396.9992    9090.9376    7324.6248    296.91421    1560.8962   -190.77724   -2544.1799 
Loop time of 456.441 on 64 procs for 250000 steps with 864 atoms

Performance: 94.645 ns/day, 0.254 hours/ns, 547.716 timesteps/s
99.1% CPU use with 64 MPI tasks x 1 OpenMP threads

MPI task timing breakdown:
Section |  min time  |  avg time  |  max time  |%varavg| %total
---------------------------------------------------------------
Pair    | 21.122     | 26.407     | 31.285     |  48.5 |  5.79
Bond    | 0.26975    | 0.28375    | 0.3091     |   1.2 |  0.06
Kspace  | 194.34     | 204.64     | 215.83     |  35.9 | 44.83
Neigh   | 5.076      | 5.7256     | 6.7773     |  21.0 |  1.25
Comm    | 94.689     | 106.36     | 114.53     |  46.9 | 23.30
Output  | 1.8478     | 1.8502     | 1.8693     |   0.3 |  0.41
Modify  | 104.39     | 106.24     | 107.81     |   7.4 | 23.28
Other   |            | 4.941      |            |       |  1.08

Nlocal:        13.5000 ave          20 max           8 min
Histogram: 3 4 6 13 12 11 3 5 5 2
Nghost:        2221.22 ave        2283 max        2164 min
Histogram: 1 3 11 7 9 19 4 8 0 2
Neighs:        4327.83 ave        6601 max        2267 min
Histogram: 1 3 15 6 8 13 8 2 4 4

Total # of neighbors = 276981
Ave neighs/atom = 320.57986
Ave special neighs/atom = 2.0000000
Neighbor list builds = 13213
Dangerous builds = 0

unfix		3
unfix		2
unfix		1

write_data	data.final.${pid}
write_data	data.final.0
System init for write_data ...
PPPM initialization ...
  extracting TIP4P info from pair style
  using 12-bit tables for long-range coulomb (../kspace.cpp:340)
  G vector (1/distance) = 0.37389474
  grid = 24 24 24
  stencil order = 5
  estimated absolute RMS force accuracy = 0.0032031143
  estimated relative force accuracy = 9.6460837e-06
  using double precision FFTW3
  3d grid and FFT values/proc = 2535 216
Last active /omp style is kspace_style pppm/tip4p/omp
WARNING: Not all mixed pair coeffs generated from mixing. Use write_data with 'pair ij' option to store all pair coeffs. (../write_data.cpp:312)

write_restart   restart.lmp.${pid}
write_restart   restart.lmp.0
System init for write_restart ...
PPPM initialization ...
  extracting TIP4P info from pair style
  using 12-bit tables for long-range coulomb (../kspace.cpp:340)
  G vector (1/distance) = 0.37389474
  grid = 24 24 24
  stencil order = 5
  estimated absolute RMS force accuracy = 0.0032031143
  estimated relative force accuracy = 9.6460837e-06
  using double precision FFTW3
  3d grid and FFT values/proc = 2535 216
Last active /omp style is kspace_style pppm/tip4p/omp
Total wall time: 0:07:40
