LAMMPS (30 Jul 2021)
  using 1 OpenMP thread(s) per MPI task
package omp 0
using multi-threaded neighbor list subroutines
echo both

include		in.partitions
variable        pid world 0
include		in.temp
variable        temperature equal 265.76
variable	tempDamp equal 100.0
include		in.pressure
variable        pressure equal 9500.0
variable        pressureDamp equal 1000.0 # This is 1 ps
include		in.seed
variable        seed world 745823

units		real
atom_style	full
read_restart    restart.lmp.${pid}
read_restart    restart.lmp.0
Reading restart file ...
  restart file = 30 Jul 2021, LAMMPS = 30 Jul 2021
  restoring atom style full from restart
  triclinic box = (-3.1091623 -0.10327556 -0.15315346) to (14.719161 22.683275 19.383151) with tilt (-0.10612605 -6.0636693 0.57378120)
  4 by 4 by 4 MPI processor grid
  restoring pair style lj/cut/tip4p/long/omp from restart
  restoring bond style harmonic/omp from restart
  restoring angle style harmonic/omp from restart
  1008 atoms
  672 bonds
  336 angles
Finding 1-2 1-3 1-4 neighbors ...
  special bond factors lj:    0        0        0       
  special bond factors coul:  0        0        0       
     2 = max # of 1-2 neighbors
     1 = max # of 1-3 neighbors
     1 = max # of 1-4 neighbors
     2 = max # of special neighbors
  special bonds CPU = 0.028 seconds
  read_restart CPU = 0.066 seconds

include 	in.setup
variable	out_freq equal 1000
variable	out_freq2 equal 10000
variable	out_freq3 equal 1000

timestep	2.0

neigh_modify    delay 7 every 1

include		in.tip4p
# This is TIP4P/Ice

# create groups ###
group ox type 2
336 atoms in group ox
group hy type 1
672 atoms in group hy

# set charges - beside manually ###
set group ox charge -1.1794
Setting atom values ...
  336 settings made for charge
set group hy charge 0.5897
Setting atom values ...
  672 settings made for charge

# ### TIP3P Potential Parameters ###
pair_style lj/cut/tip4p/long/omp 2 1 1 1 0.1577 8.5
pair_coeff 1 1*2 0.000 0.000
pair_coeff 2 2 0.21084 3.1668
bond_style  harmonic
bond_coeff  1 450 0.9572
angle_style harmonic
angle_coeff 1 55 104.52
kspace_style pppm/tip4p/omp 1.0e-5
pair_modify tail yes

thermo          ${out_freq}
thermo          1000
thermo_style    custom step temp pe etotal epair emol press lx ly lz vol pxx pyy pzz pxy pxz pyz enthalpy

restart 	${out_freq3} restart.lmp.${pid} restart2.lmp.${pid}
restart 	1000 restart.lmp.${pid} restart2.lmp.${pid}
restart 	1000 restart.lmp.0 restart2.lmp.${pid}
restart 	1000 restart.lmp.0 restart2.lmp.0


include         in.dump
dump            myDump all atom ${out_freq2} dump.water.${pid}
dump            myDump all atom 10000 dump.water.${pid}
dump            myDump all atom 10000 dump.water.0
dump            myDump2 all dcd ${out_freq2} dump.dcd
dump            myDump2 all dcd 10000 dump.dcd
dump_modify     myDump append yes
dump_modify     myDump2 append yes


variable natoms 	equal  "count(all)"                        # NUMBER ATOMS
variable H      	equal  "enthalpy/v_natoms"                 # ENTHALPY-per-atom
variable Vol      	equal  "vol/v_natoms"                 # volume-per-atom
fix AVG all 		ave/time ${out_freq} 1 ${out_freq} v_Vol v_H file vol_enthalpy.dat
fix AVG all 		ave/time 1000 1 ${out_freq} v_Vol v_H file vol_enthalpy.dat
fix AVG all 		ave/time 1000 1 1000 v_Vol v_H file vol_enthalpy.dat



fix 		1 all shake 1e-6 200 0 b 1 a 1
       0 = # of size 2 clusters
       0 = # of size 3 clusters
       0 = # of size 4 clusters
     336 = # of frozen angles
  find clusters CPU = 0.022 seconds
fix             2 all nph tri ${pressure} ${pressure} ${pressureDamp}
fix             2 all nph tri 9500 ${pressure} ${pressureDamp}
fix             2 all nph tri 9500 9500 ${pressureDamp}
fix             2 all nph tri 9500 9500 1000
fix             3 all temp/csvr ${temperature} ${temperature} ${tempDamp} ${seed}
fix             3 all temp/csvr 265.76 ${temperature} ${tempDamp} ${seed}
fix             3 all temp/csvr 265.76 265.76 ${tempDamp} ${seed}
fix             3 all temp/csvr 265.76 265.76 100 ${seed}
fix             3 all temp/csvr 265.76 265.76 100 745823


run             250000
PPPM initialization ...
  extracting TIP4P info from pair style
  using 12-bit tables for long-range coulomb (../kspace.cpp:340)
  G vector (1/distance) = 0.37940746
  grid = 24 27 36
  stencil order = 5
  estimated absolute RMS force accuracy = 0.0024295099
  estimated relative force accuracy = 7.3163969e-06
  using double precision FFTW3
  3d grid and FFT values/proc = 4050 480
Last active /omp style is kspace_style pppm/tip4p/omp
Neighbor list info ...
  update every 1 steps, delay 7 steps, check yes
  max neighbors/atom: 2000, page size: 100000
  master list distance cutoff = 10.8154
  ghost atom cutoff = 10.8154
  binsize = 5.4077, bins = 5 5 4
  1 neighbor lists, perpetual/occasional/extra = 1 0 0
  (1) pair lj/cut/tip4p/long/omp, perpetual
      attributes: half, newton on, omp
      pair build: half/bin/newton/tri/omp
      stencil: half/bin/3d/tri
      bin: standard
Per MPI rank memory allocation (min/avg/max) = 9.327 | 9.339 | 9.354 Mbytes
Step Temp PotEng TotEng E_pair E_mol Press Lx Ly Lz Volume Pxx Pyy Pzz Pxy Pxz Pyz Enthalpy 
22250000    268.66742    -4787.055   -4249.6869    -4787.055            0    8388.3564    17.828324     22.78655    19.536305    7936.5456    8198.7199    8527.4336    8438.9157   -925.93123    594.39419   -1980.1146   -3278.7651 
22251000      256.057   -4809.4125   -4297.2668   -4809.4125            0    9265.3334    17.978711    22.686731    19.369609    7900.4406    10540.242    9606.3494    7649.4086    1554.5281   -651.12227    575.70364   -3229.7168 
22252000    269.16965   -4818.5391   -4280.1666   -4818.5391            0    9470.0149     17.97595    22.750696    19.381308    7926.2839    10379.928    8986.1163    9044.0002     897.3411   -423.87885    113.53276   -3185.4639 
22253000    265.57714   -4809.0087   -4277.8216   -4809.0087            0    9584.8081    18.093719    22.811843    19.101947    7884.3493    7705.7962    10078.918     10969.71    1402.4205    1029.1647   -916.73826   -3175.7111 
22254000    247.95551   -4812.5673   -4316.6257   -4812.5673            0    7495.9322    17.832862    23.108283    19.322195    7962.4216    8314.1161    7727.6917    6445.9887     80.64043    1019.8442   -216.24093   -3446.1699 
22255000    253.59527    -4795.126   -4287.9041    -4795.126            0     7948.678    17.957936    23.077046    19.208716    7960.4014    8370.6324    7970.6074    7504.7942   -65.313304   -955.63672    831.19549    -3365.108 
22256000    264.74856   -4801.2468    -4271.717   -4801.2468            0    8102.0566    17.883425     22.96759    19.291707    7923.8596    7903.3249    8916.3853    7486.4597   -863.20194    14.854308    513.44188   -3335.4322 
22257000    257.45549   -4795.7677   -4280.8249   -4795.7677            0    10235.577    17.798465    23.040996    19.178673    7865.0657    9356.1323    9932.1995      11418.4    2414.4427   -194.69441    50.631467   -3106.7641 
22258000    255.67791    -4783.207   -4271.8196    -4783.207            0    9985.3986    17.690913    23.186301     19.33072    7929.2068    10228.548    9460.6608    10266.987   -324.48142    752.06521    311.39248   -3117.1146 
22259000    264.70019   -4776.0527   -4246.6196   -4776.0527            0    9188.3119    17.844055    23.216498    19.147578     7932.391    9488.3176    8350.2224    9726.3958   -1303.0945    444.01788   -660.17048   -3183.6625 
22260000    271.08604    -4813.053   -4270.8474    -4813.053            0    9284.6911    17.863268    23.078867    19.210297    7919.7135    8661.4429    9615.9507    9576.6798    290.74797    1176.2912     1081.283   -3198.4572 
22261000     269.6392   -4816.8651   -4277.5534   -4816.8651            0    10546.847    17.814963    23.090702     19.10598    7859.4356    9853.7414    11007.148    10779.652    358.10578    1216.8192     933.8513   -3068.6547 
22262000    262.80196   -4759.1089   -4233.4725   -4759.1089            0    8898.6616    17.731913    23.330657    19.158055    7925.6333    9700.0252    8266.2357     8729.724   -828.63655   -2183.4349   -342.58364   -3204.9008 
22263000    266.20512   -4753.2812   -4220.8381   -4753.2812            0    11480.015    17.545443    23.268315    19.181884    7831.0595    11796.447    10695.812    11947.785   -377.31162   -996.41734   -1107.3045   -2909.7289 
22264000    271.54008   -4824.9786   -4281.8649   -4824.9786            0    9681.6593     17.79707    23.075844    19.270271    7913.9613    11397.372    8076.8008    9570.8049    1799.4072   -769.41154    1104.8535   -3164.4367 
22265000    259.36203   -4793.4238   -4274.6677   -4793.4238            0    8993.4707     17.87769    23.086747    19.200695    7924.8512    9433.9517    8120.3445    9426.1159   -808.92668   -1468.9412   -1561.6143   -3235.2399 
22266000    264.50974   -4787.7416   -4258.6894   -4787.7416            0    10057.709    18.006381    22.869254    19.176163    7896.5999    11066.613    9268.6626    9837.8514   -254.96261    916.93655    76.311075   -3100.4053 
22267000    277.34391   -4828.1148   -4273.3928   -4828.1148            0    10262.188    17.860207    22.793124    19.328429    7868.4085    9030.9247     10810.68    10944.961    1762.8019   -391.89787    529.64437   -3095.7793 
22268000    272.23567   -4849.1494   -4304.6444   -4849.1494            0     8066.977    18.009487       22.747    19.280943    7898.6659    7686.0332    8675.7535    7839.1442    93.671226    958.90915   -1643.8175   -3375.3775 
22269000    262.69187   -4804.1285   -4278.7123   -4804.1285            0    8993.2254    17.996243    22.692827    19.400294    7922.8013    8826.3123    9951.9707    8201.3931    329.01799    685.62591    963.26476   -3239.5818 
22270000    278.85078   -4840.3501   -4282.6141   -4840.3501            0    9628.4179    17.964871    22.829776    19.186398    7868.9939    8763.0337    10449.454    9672.7665    1001.5599    162.12129    1281.9203   -3177.6453 
22271000    266.12646   -4834.5253   -4302.2395   -4834.5253            0    10556.277     17.82474    22.825431    19.352082    7873.5372    10999.438    10679.587    9989.8067    815.41273   -656.17331    251.85604    -3090.089 
22272000    272.26592     -4823.53   -4278.9645     -4823.53            0    9413.2405    17.998396    22.687905    19.353805     7903.047    9501.0298    10229.697    8508.9947   -807.17124    319.60368   -1772.1075   -3194.0148 
22273000     259.1259   -4830.5094   -4312.2256   -4830.5094            0    8649.1079    17.938244    22.939615    19.246243      7919.76    9052.5447    9323.9627    7570.8164    706.06013    391.64832    1271.1139     -3313.24 
22274000     273.7537   -4774.2943   -4226.7531   -4774.2943            0    9536.2361    18.067916    22.840342    19.211736    7928.2493    6739.6287    10424.801    11444.278    495.71199    1572.9393   -551.36378   -3124.1222 
22275000    269.36487   -4792.7217   -4253.9587   -4792.7217            0    9181.8713    17.879749    22.853997    19.404137     7928.991    9528.6199    10556.472    7460.5221    1320.2771   -444.38603    840.32451    -3192.202 
22276000     271.8603   -4810.2442     -4266.49   -4810.2442            0    9311.3402    18.034995    22.886029    19.248471    7944.7953    7609.6639    9319.1413    11005.215   -30.400768    490.57736   -1104.4514   -3187.6159 
22277000    275.43549   -4796.4837   -4245.5787   -4796.4837            0    8545.5309    18.074099    22.885516    19.308209     7986.553    6322.1318    9009.2179    10305.243    773.95601    698.46714    655.86128   -3250.2321 
22278000    267.91888   -4830.3755   -4294.5047   -4830.3755            0    10033.924    17.924608     22.96554    19.204098    7905.3345    8281.1035     10726.96    11093.709   -305.15217    18.811057   -399.58841   -3137.6816 
22279000    264.81818   -4807.5211    -4277.852   -4807.5211            0    9397.2858    17.843472    22.931408    19.362916    7922.8393    8166.9747    10852.874    9172.0091   -833.07147    122.38263    2492.0232   -3192.0287 
22280000    281.22447   -4819.7657    -4257.282   -4819.7657            0    8316.4529    18.059721    22.876884    19.229564    7944.6973    5323.8556    8545.9537     11079.55    210.66328   -979.63972    451.85282    -3293.694 
22281000    267.44916   -4782.7254   -4247.7941   -4782.7254            0    8163.5567     18.01516    22.837914     19.43598    7996.5194    9085.0726    8619.1711    6786.4263   -59.576419   -81.389486     2285.584   -3295.7517 
22282000    262.38049   -4783.6388   -4258.8454   -4783.6388            0    8859.1297    17.897444    23.011472    19.219134    7915.3339     9462.988    8677.0001    8437.4009    1080.1616    205.72495    926.05313   -3236.1738 
22283000     272.5158   -4820.9891   -4275.9238   -4820.9891            0    8639.0806    17.878839    22.960404    19.259989    7906.3286    8181.5687    9438.7997    8296.8735   -1974.9092   -397.59083   -742.76444   -3279.7887 
22284000    258.58574   -4831.6887   -4314.4853   -4831.6887            0    7912.1155     17.73314    23.170523    19.349447    7950.4196    8661.4133    8516.1138    6558.8194     1657.989    307.49283    1289.8915   -3397.0857 
22285000    269.49152   -4848.5687   -4309.5523   -4848.5687            0     11401.43    17.826412    22.974177    19.115766    7828.8074    9826.6961    11331.001    13046.594    -2202.559   -190.09525   -2400.2106   -3007.7926 
22286000    257.86278   -4827.3058   -4311.5484   -4827.3058            0    7645.8697    17.945801    23.137624    19.089768    7926.5143    7695.1681    7089.6373    8152.8036    329.18887   -1561.2405     37.36746   -3427.6852 
22287000    269.00562   -4810.3816   -4272.3372   -4810.3816            0    8707.5164    17.909617    23.174735     19.20508    7971.0809    7606.3045    9015.8532    9500.3916   -2043.7609    462.40188   -1843.5662    -3260.088 
22288000    258.08992   -4791.4364   -4275.2246   -4791.4364            0    10405.844    17.713507    23.057555    19.272783    7871.5858     10868.79    10144.315    10204.428    925.76786    298.68402   -1142.7957   -3080.6441 
22289000    259.70684   -4808.0573   -4288.6116   -4808.0573            0    8244.0972    18.052765    22.851539    19.253129    7942.5597     6299.317    8733.4154    9699.5592   -803.84246    514.16899   -174.89462   -3333.6641 
22290000    272.66617   -4821.2615   -4275.8954   -4821.2615            0     9593.515     17.82575    22.916548    19.404129    7926.6769    10610.182    9567.5441    8602.8187   -905.09614    694.89511   -715.18169   -3166.8616 
22291000    269.66834   -4815.3875   -4276.0175   -4815.3875            0    8020.9186    17.916508    23.097565    19.183982     7938.863    7811.9739    7612.4235    8638.3583     1468.512   -554.93869    1555.9526   -3347.3541 
22292000    274.00992   -4818.4513   -4270.3976   -4818.4513            0    9660.5171    17.678341    22.951143    19.448742    7891.0964    9863.2569    10004.466    9113.8282    1333.5123   -704.97956    396.13999    -3158.631 
22293000    278.68654   -4818.4043   -4260.9968   -4818.4043            0    9551.7571    18.022254    22.775486    19.287218    7916.7391    9289.8335    9800.3778      9565.06   -505.46248    -1992.638   -342.08489   -3158.1746 
22294000    271.89303   -4852.1223   -4308.3026   -4852.1223            0     10079.19    17.873446    22.868851    19.301249    7889.2922    12360.811    9503.8275    8372.9299   -448.17025    214.77226   -383.31261   -3148.6189 
22295000    256.98083   -4825.7326   -4311.7392   -4825.7326            0    9820.5777    17.905744    23.053963    19.120422    7892.8789    10312.968    9244.1438    9904.6207    -216.9948    816.01779   -562.52559    -3181.297 
22296000    263.56625   -4825.2199   -4298.0549   -4825.2199            0    7967.4528    17.800111    23.047126    19.327406     7928.902    8238.0431    7539.0424    8125.2729    1412.3453   -635.07958    425.49109   -3376.7392 
22297000    271.13214   -4815.4278     -4273.13   -4815.4278            0    10414.792    17.899389    23.086997    19.117814    7900.3058    9938.5394    10292.352    11013.486    141.82294   -284.43957   -2939.8812   -3073.1599 
22298000    266.00994   -4837.8934   -4305.8406   -4837.8934            0    8547.7834    17.687133    23.232825    19.285834     7924.975    10543.422    7567.0498    7532.8784    1518.9561     512.9778   -1089.1009    -3317.908 
22299000     286.3247   -4818.2323   -4245.5475   -4818.2323            0    12205.295    17.809506     22.98733    19.112569    7824.5516    12374.289    10345.026    13896.569    1140.3048   -646.05948   -1714.7365    -2852.764 
22300000    259.54305   -4821.4917   -4302.3735   -4821.4917            0    10092.129    17.770522    22.936277    19.305351    7868.6606    11804.106    9747.5148    8724.7673    588.84988   -470.42327   -641.72323   -3144.2377 
22301000    286.24444   -4782.1093   -4209.5851   -4782.1093            0    8214.3766    17.927826    23.159016    19.113788    7935.8688    8691.1062    7221.5268    8730.4968    2048.0478   -2321.1869   -1130.1882   -3258.8818 
22302000    261.04445   -4824.5925   -4302.4713   -4824.5925            0     9439.783    17.799094    23.046565    19.175134     7865.793    9371.9365    9159.3599    9788.0525   -394.97575    -232.4751    -123.8782   -3219.5911 
22303000    260.64318   -4835.9636    -4314.645   -4835.9636            0    9151.0906    17.706032    23.174634    19.223321    7887.9207    9684.1546    8638.4191    9130.6982    1119.4977    762.44637   -1123.8517   -3261.9289 
22304000    282.80088   -4795.3813   -4229.7446   -4795.3813            0    9379.3201    17.879647    23.328386     18.93649    7898.4725    7427.8517    9761.9276    10948.181    504.00533    1161.5188   -546.78465   -3149.3302 
22305000    279.06457   -4810.3747   -4252.2111   -4810.3747            0     9887.873    17.693771    23.219903    19.190647    7884.4318    10798.504    9025.4886    9839.6261   -322.83565    323.77259    1960.8251   -3115.2407 
22306000    277.48041   -4786.1274   -4231.1323   -4786.1274            0    9178.5439    17.941296    23.208475    19.042531    7929.1215    8260.1658    9357.7253    9917.7406    1460.3755   -52.876841    2501.1257   -3169.7429 
22307000    262.76866   -4845.0754   -4319.5056   -4845.0754            0    8043.1547    17.844311    23.032694      19.3519    7953.6803    8525.8894    9199.1158     6404.459    781.11866    665.98228    1082.8795   -3386.5297 
22308000    260.62586   -4811.9813   -4290.6974   -4811.9813            0    8890.1164    18.045365    22.860684    19.240122    7937.1161    8184.3881    7370.2577    11115.703    297.47392   -1729.4232    1053.5703   -3261.6247 
22309000    269.11198   -4816.3936   -4278.1364   -4816.3936            0    9604.2983    17.813384    22.950196     19.18368    7842.6844    9118.7543    10640.149    9053.9921   -27.774686   -797.01126    751.64734   -3179.6207 
22310000    268.83615   -4815.1001   -4277.3946   -4815.1001            0    9734.4223    17.939621    23.023115    19.102181    7889.6968    8497.3422    9877.0527    10828.872     1557.533    429.34455   -573.63271   -3157.3214 
22311000    286.80039   -4826.3622    -4252.726   -4826.3622            0    9810.5649    17.945023    22.819948    19.224475    7872.5087    11201.941    9713.6169    8516.1371    1176.4733   -574.65972    552.10312   -3126.3509 
22312000    281.99187   -4792.6699   -4228.6513   -4792.6699            0    9326.2155    17.848005     22.88013    19.411972    7927.1632     9865.557    9445.0591    8668.0305    991.40742    36.833194    388.68045   -3150.4518 
22313000    277.70765   -4797.3676    -4241.918   -4797.3676            0    9278.8345    17.947877    22.886158    19.240335    7903.1205    11568.207    8180.2367    8088.0595   -1295.2576   -1665.1768   -1322.8883   -3172.4496 
22314000    257.41733   -4791.0409   -4276.1745   -4791.0409            0    9036.5343    17.895633    22.861516    19.378757    7928.2623    10611.508    9242.8209    7255.2741   -412.50369   -1023.8262   -666.42932     -3231.32 
22315000    254.54842   -4826.1212   -4316.9929   -4826.1212            0    8149.7605    18.042885    22.758847    19.349375    7945.5354    6257.3318      9406.25    8785.6996    287.77061    577.01989   -1040.2838   -3372.6192 
22316000    265.44885   -4773.6761   -4242.7456   -4773.6761            0    10398.362    18.014811    22.621854    19.407106    7908.9473     11051.69    11009.137    9134.2597   -334.03559    1130.1851    414.15184   -3043.3581 
22317000    260.83707   -4818.2615   -4296.5551   -4818.2615            0    8093.2475    18.025109    22.793829    19.374697    7960.3123    7251.1203    8548.3782    8480.2438    344.77827   -380.10858    -829.3757   -3356.9859 
22318000    255.63018   -4799.8072   -4288.5153   -4799.8072            0    8790.3241    17.934681    22.758055    19.477836    7950.0433    8761.3801    9275.4308    8334.1613    293.40926   -356.35971    395.53839   -3269.3367 
22319000    256.29852   -4823.0229   -4310.3942   -4823.0229            0    11686.619    18.117723    22.570005    19.205443    7853.4341    9798.5518    12983.712    12277.592   -1244.9311    409.72826     1288.483   -2971.8758 
22320000    272.06796   -4807.5759   -4263.4064   -4807.5759            0    9887.5086    17.999343    22.443845    19.508427    7880.9065    8073.7524    11503.071    10085.703   -713.98194    1076.3918    202.49251   -3126.9862 
22321000      257.603   -4789.2153   -4273.9775   -4789.2153            0    9449.3177    17.941914    22.734683    19.460057    7937.8297    10260.683     9412.368    8674.9022    1352.8143   -282.23562    968.69392   -3180.0762 
22322000    276.09278   -4774.8437    -4222.624   -4774.8437            0     8457.923    18.142007    22.689248    19.299058    7944.0423    7179.3736    9082.7066    9111.6888     1710.072   -108.26604    -120.8838   -3242.7253 
22323000    259.18079   -4832.9467   -4314.5531   -4832.9467            0    10100.433      18.0132     22.41091    19.541734    7888.8458    7816.0998    11990.866    10494.335   -764.45509     459.9643   -239.84871   -3152.4909 
22324000    254.46951   -4829.1136   -4320.1431   -4829.1136            0    8982.5693    18.099968    22.642502    19.278895    7901.0421     9355.051    9014.1921    8578.4649    629.74069   -1016.0073   -86.256112   -3285.0943 
22325000    260.93442    -4821.916   -4300.0149    -4821.916            0    9327.5254    17.985992    22.643851    19.441585    7918.0154    9679.2004    8878.4287    9424.9472    1297.4031    123.68154    695.46549   -3222.9083 
22326000    263.67889   -4793.5564    -4266.166   -4793.5564            0    9918.3065    18.230786     22.62088    19.232686    7931.4909     6649.243    11773.196     11332.48    169.65033    356.30158    939.21121   -3118.8891 
22327000    253.04576   -4825.1571   -4319.0344   -4825.1571            0    10303.824    17.972863    22.570641    19.435771    7884.2961    10288.088    10122.504    10500.881   -1256.2767    -765.2957   -1.9353285   -3134.2556 
22328000    283.48364   -4802.4341   -4235.4318   -4802.4341            0    10245.225    17.872261    22.859733     19.32033    7893.4199    10398.921    10274.445    10062.308   -767.79785    745.29763   -1578.8167   -3056.0278 
22329000    265.14325   -4824.8976   -4294.5783   -4824.8976            0    10349.606    18.061646    22.665976    19.234638    7874.3692    10946.242    10475.805    9626.7695    868.62695   -958.20748     1216.879   -3106.0338 
22330000    265.54441   -4793.1729   -4262.0513   -4793.1729            0    7560.4244    18.176621    22.876658    19.273492    8014.3102    5701.6687    9707.2373    7272.3673    507.36077      1690.16    -540.0129   -3378.3852 
22331000     267.5051    -4814.119   -4279.0758    -4814.119            0    9602.3817    17.820254    23.034818    19.239581    7897.5846    10001.129    8924.3703     9881.646    1083.6357   -1048.7798     2172.645    -3173.091 
22332000    262.38311   -4822.8716    -4298.073   -4822.8716            0    10523.895    17.855357     22.92872    19.171574    7848.8514    9213.7987    10844.673    11513.214    317.87235   -730.43466   -285.65776   -3093.4296 
22333000    277.90322   -4809.8575   -4254.0167   -4809.8575            0    9574.5945    17.996555    22.952418    19.100966    7889.9304    8878.2471     9464.421    10381.115   -223.50204   -526.36731     1693.273   -3152.3012 
22334000     280.1015   -4797.7825   -4237.5449   -4797.7825            0    9712.8566     17.89114    22.874216    19.292545    7895.3932    10042.027    10186.903    8909.6404   -903.06535   -31.085201    1250.1896   -3119.1463 
22335000    262.49556   -4824.0589   -4299.0354   -4824.0589            0    10554.609    17.954222    22.930244    19.195002    7902.4803    9021.1717    11196.378    11446.277   -69.501114    1204.4095    203.90634   -3082.6213 
22336000    256.45287   -4818.6708   -4305.7334   -4818.6708            0    8481.3778    17.968812    22.881868    19.296921     7934.122    7744.9492    8972.7914    8726.3929   -1449.5999   -1172.1253    1164.0634   -3324.3444 
22337000    259.99863   -4818.0491   -4298.0197   -4818.0491            0    7898.7752    17.826763     23.00657    19.456528    7979.7575    7294.6401    8936.2865    7465.3991   -345.19296   -210.38755   -917.49286   -3378.7873 
22338000    251.87944   -4790.5129    -4286.723   -4790.5129            0    7440.2099    18.015418    22.930992    19.333781    7987.0055    6079.3964    8041.3326    8199.9007   -688.51184    596.52287   -2180.4329   -3420.0703 
22339000    256.98076   -4844.9195   -4330.9262   -4844.9195            0    10491.323    17.821833    22.932151    19.261327     7871.969    8936.7651    11513.968    11023.238   -346.12274    517.94051   -2502.6345   -3126.4741 
22340000    260.91832   -4824.6299   -4302.7611   -4824.6299            0    8434.7469    17.904528    22.945529     19.33085     7941.671     7539.639    8800.5983    8964.0035    1158.3535   -696.40458    2336.8483   -3325.8392 
22341000    263.95134   -4824.1399   -4296.2046   -4824.1399            0    8917.8437    17.861948    22.938015     19.24127    7883.4874    9892.6348    9129.9911    7730.9053    1123.0293   -1010.2584   -749.25293   -3270.8972 
22342000    256.45245   -4795.6015   -4282.6649   -4795.6015            0     9551.173    17.876745    22.907412    19.263663     7888.662    8855.6087    10156.041    9641.8697    2169.4325   -138.62047   -992.86906   -3183.8212 
22343000    261.81943   -4788.6084   -4264.9372   -4788.6084            0     7708.058    18.048148    22.776453    19.351565    7954.9016    7859.4584    8037.6271    7227.0884   -1499.4787   -102.56616   -683.09378   -3370.6939 
22344000    261.56158    -4811.993   -4288.8376    -4811.993            0    8671.2027    17.962531    22.940075    19.325949    7963.4852    8492.6603    9951.4169     7569.531    174.94744    1875.9031     1628.683   -3281.7705 
22345000    252.13775   -4834.8197   -4330.5131   -4834.8197            0    9469.6471    17.918056    22.993991    19.183145     7903.602    8627.3854    10039.515    9742.0407   -708.99207    350.62672   -650.97993   -3238.9854 
22346000    273.40468   -4810.0314   -4263.1883   -4810.0314            0    9437.5194    17.800009    22.955534    19.289574    7881.8879    9254.8381    9517.8609    9539.8594    1043.8134   -383.59819   -3194.9818   -3178.3525 
22347000    264.00496   -4800.7899   -4272.7474   -4800.7899            0    10921.828    17.834889    22.845462    19.298497    7863.1012     10332.59    12046.718    10386.177    852.08157   -665.11757     28.61588   -3020.2839 
22348000    270.48356   -4835.7136   -4294.7131   -4835.7136            0    7661.1006    18.038969    22.759195    19.347493    7943.1599    7885.7646    8243.2865    6854.2507   -672.73446   -1464.9604   -1742.0561   -3407.2294 
22349000    262.68993   -4810.6959   -4285.2835   -4810.6959            0     9317.902    17.835628    23.026721    19.267047    7912.8993    9151.3278    8966.5969    9835.7814   -60.813263    1081.8111    687.43252   -3209.9835 
22350000    265.17215   -4817.6483   -4287.2713   -4817.6483            0    9760.8277     17.85597    23.051856     19.17786     7893.861    10252.538    9774.7137    9255.2316   -730.95582   -81.789804    -129.9893    -3163.567 
22351000     252.0542   -4825.9057   -4321.7661   -4825.9057            0    6797.5337    17.907077    23.034778    19.378008    7993.1482    5909.3906    7186.3547    7296.8558     230.0091    -516.1635    1524.0265   -3529.3649 
22352000    266.13874   -4815.0722   -4282.7618   -4815.0722            0    8768.7642    17.959893    22.715184    19.428209    7925.9764    9512.3613    8251.2313       8542.7    1865.0003   -434.36247   -514.02265   -3269.1607 
22353000    277.80626   -4820.3269     -4264.68   -4820.3269            0    12070.572    18.010084    22.789945    19.180563    7872.6391    12564.637    10979.896    12667.185   -84.377359    397.94136    1625.6907   -2878.8049 
22354000    270.76896    -4814.198   -4272.6266    -4814.198            0    9132.9295    18.126716    22.619866    19.384842    7948.2485    6622.0633    9413.1695    11363.556   -21.201019   -311.13305    1646.7433   -3213.9644 
22355000    272.91643   -4763.8087   -4217.9421   -4763.8087            0    11386.196    17.846665    22.717932    19.363958    7850.9101    9917.3522    11942.787    12298.448   -1036.2283   -54.388705   -847.69182   -2914.2515 
22356000    245.33185   -4801.7577   -4311.0637   -4801.7577            0    9369.2771    17.936698    22.963298    19.265638    7935.2412    8799.1577    9944.9335    9363.7401    238.29555    584.16662    1833.9234   -3226.7821 
22357000    271.07797     -4807.19   -4265.0006     -4807.19            0    9337.7451    17.855847    23.000115    19.221854    7894.1564    11070.323    8510.8604    8432.0521   -1921.5948   -1330.2771   -791.64627    -3189.963 
22358000    264.67723   -4799.8951    -4270.508   -4799.8951            0    7603.0431    18.011971    23.041011    19.274845    7999.3308    7987.4892    7579.6421    7241.9979    1414.0405    1890.0455    1094.2839   -3383.5215 
22359000    264.50979    -4827.718   -4298.6657    -4827.718            0    9175.8242     17.80318    23.217929    19.138588    7910.9923    8416.9648    8194.6156    10915.892    1411.5888    178.19307    2264.3902   -3240.0168 
22360000    265.00211   -4775.7855   -4245.7485   -4775.7855            0    10000.801    17.745124    23.256917    19.147864    7902.2638    13287.092    8482.5305    8232.7809    484.78466   -1505.7947    2353.1577   -3093.1921 
22361000    285.11473   -4810.7233   -4240.4587   -4810.7233            0    9368.9098     17.75614    23.244494    19.194203    7922.0712    9924.6718     8382.406    9799.6515    204.07819   -169.49877    730.64885    -3158.019 
22362000    254.82488   -4777.1782    -4267.497   -4777.1782            0    10587.068    17.733553    23.560818    18.854289     7877.643    12833.591    8913.2671    10014.346   -148.72327    1291.0419    167.33156   -3051.1768 
22363000     258.3219   -4815.7808    -4299.105   -4815.7808            0     10405.16    17.582071    23.266099    19.214074    7859.8281    11219.577     9712.325    10283.579    63.591909   -741.12721   -120.88317   -3106.3872 
22364000    276.90219   -4823.3911   -4269.5525   -4823.3911            0    8579.7982    17.864413    23.365439    19.011867    7935.7408    10727.209    6439.8551     8572.331   -747.48809    474.70102   -791.00541   -3276.5727 
22365000     256.2537   -4803.4851   -4290.9461   -4803.4851            0    8456.3025    17.794655    23.147187    19.269826    7937.1686    8193.4389    8288.9096     8886.559   -941.36838    37.699217   -315.48476   -3312.0829 
22366000    254.57675   -4825.6967   -4316.5118   -4825.6967            0    10976.242    17.773763    23.217907    19.118808    7889.7506    12640.063    9953.4483    10335.216   -279.28749   -105.72303    1348.8288   -3053.5423 
22367000    246.44908   -4817.0161   -4324.0875   -4817.0161            0    9068.5337    17.878624    23.039044    19.143415    7885.2952    8002.6701    8893.5839    10309.347    788.69779   -310.57626   -150.64998   -3281.2157 
22368000    259.94794   -4822.7679   -4302.8399   -4822.7679            0    9478.0438    17.719962    23.081204     19.28505     7887.548    10103.428    8720.7145    9609.9888    480.78128   -235.85565    478.07878   -3212.5635 
22369000    268.00475   -4835.6777   -4299.6351   -4835.6777            0    10286.737    17.801681    23.061159    19.125282    7851.4519    10009.712    10626.215    10224.283    175.69282    76.509246    1527.2791   -3121.7484 
22370000    259.92069   -4815.4198   -4295.5463   -4815.4198            0    8623.7661    17.715624    23.135952    19.344676    7928.7604    8500.3449     8037.888    9333.0655    747.09054    430.07662    1036.8041   -3298.3558 
22371000    261.13738   -4821.4094   -4299.1023   -4821.4094            0    10148.864    17.956397    22.953498    19.067137    7858.7515    9725.6987    10753.955    9966.9385    445.22565    335.33953    862.23976   -3135.9225 
22372000    273.41859   -4799.9023   -4253.0313   -4799.9023            0    8337.8152      17.8076    23.264866     19.25247    7976.1336    8652.0905    9138.8014    7222.5539   -518.73533    -469.5422    543.80247   -3283.1456 
22373000     265.2915   -4801.5545   -4270.9388   -4801.5545            0    11830.897    17.757608    23.010467    19.159963    7828.9685    12304.294      11569.1    11619.297   -681.55011    -415.1215   -206.19138   -2920.1168 
22374000    278.45619   -4818.7838    -4261.837   -4818.7838            0    9884.7748    17.971664     22.85858    19.226177    7898.2427    9698.7809    9719.1635     10236.38    476.90172   -414.22343   -825.85587   -3123.2318 
22375000    274.65225   -4814.6365   -4265.2981   -4814.6365            0    8978.9432    17.908372    22.919335    19.345165    7940.1838    8012.4569    9521.1919    9403.1809    545.51807    1058.1963   -443.67661   -3225.5415 
22376000     267.0612   -4832.2362   -4298.0808   -4832.2362            0    10408.918     18.03458    22.962429    19.090827    7905.8505    10015.639    9467.9256    11743.189    850.51427   -312.54122   -1297.5519   -3097.9459 
22377000    253.23346   -4802.0032    -4295.505   -4802.0032            0    7967.7144      17.8267    22.875994    19.437107    7926.5203    9342.6944    8316.1923    6244.2566    1443.2441   -1.2101228   -1572.5198   -3374.4359 
22378000    260.23973   -4822.1843   -4301.6726   -4822.1843            0    10225.216    17.894775    22.874249    19.244347    7877.2793    8785.7661    11117.973    10771.909   -96.508908   -282.25242   -1693.4813    -3126.979 
22379000    280.68124   -4807.5577   -4246.1605   -4807.5577            0     9768.876    17.994833     22.75989    19.407071    7948.3679    9784.1047    10065.518    9457.0053   -1102.8982    359.29518    -863.7975   -3113.7642 
22380000    250.40096    -4823.372   -4322.5391    -4823.372            0    9736.2323     18.05908    22.848906    19.135539    7895.9015    9447.5214    9460.9228    10300.253   -1532.7649    1344.1783    734.24956   -3201.3767 
22381000    246.01905   -4812.0599   -4319.9914   -4812.0599            0    9688.2284    17.640973    22.965767    19.500657    7900.4662        11563    8004.5416    9497.1432   -672.98389    374.03982   -659.83171   -3203.7118 
22382000    268.66061   -4792.0653   -4254.7109   -4792.0653            0    8258.3709    18.131945    23.096501    19.020961    7965.6831    7371.4732    8187.9219    9215.7175   -1088.2078    452.39952    258.51304   -3295.3251 
22383000    268.12764     -4796.64   -4260.3516     -4796.64            0    8759.8022    17.740902    22.973967    19.502731    7948.9016    9717.2724    9220.1114    7342.0228   -320.07859    -485.2267    733.07225   -3244.8577 
22384000     262.2563   -4828.1706   -4303.6256   -4828.1706            0    11256.022    17.841537    23.003019    19.073678    7828.0133    10898.526    11582.987    11286.551   -210.59438   -1538.0648    669.21111   -3018.5983 
22385000    264.22062   -4825.1515   -4296.6776   -4825.1515            0    10104.852    17.682567    23.139917      19.2516    7877.2373    10366.871    9998.0547    9949.6296    500.30756    301.69761   -775.96859   -3135.8178 
22386000    279.69011   -4816.8734   -4257.4586   -4816.8734            0    10109.904    17.925502    23.087933     19.06806    7891.5601    10449.687    8512.0717    11367.953   -1134.1889   -1636.9615   -1289.7742   -3093.9067 
22387000    271.54871   -4833.5197   -4290.3888   -4833.5197            0    10054.816    17.659362    23.027004    19.297823    7847.3096    10722.158     9644.281     9798.008    537.10068   -117.12133    1337.6358   -3139.6657 
22388000     277.1904   -4832.7377   -4278.3227   -4832.7377            0    9389.8176    17.860974    23.223523    19.068624    7909.5651    11035.725    7951.7774    9181.9499   -273.05888   -1176.9244   -1253.3226     -3195.18 
22389000    245.22999   -4814.9212   -4324.4309   -4814.9212            0    7677.5232    17.790855    23.130836    19.304818    7944.2672    9597.0038    6895.5356    6540.0303   -80.165432    145.51838    186.41105   -3434.9209 
22390000    266.21948   -4789.6828   -4257.2109   -4789.6828            0    10079.138    17.779108    23.247794    19.075261     7884.283    10591.228    9151.4051     10494.78    2748.9918    425.86046    2327.9231   -3098.2695 
22391000    250.27316   -4796.7113   -4296.1341   -4796.7113            0    8697.5045    17.917298    23.097713    19.176659    7936.2334    7666.1554    7688.2515    10738.106    530.74468    240.15898     871.1105   -3289.4691 
22392000    270.38432   -4823.5923   -4282.7903   -4823.5923            0    8859.8325    17.645936    23.244204    19.272582    7904.9527    10800.933    8418.5671    7359.9974    240.31776   -766.84261    267.61281   -3261.3789 
22393000    268.21089   -4813.2712   -4276.8162   -4813.2712            0    10614.804    17.703678    23.203476    19.067349    7832.6167    11263.541    8707.9222    11872.947    -1167.207   -1704.4248    1542.8095     -3064.28 
22394000    266.59791   -4822.4209   -4289.1921   -4822.4209            0    8958.0081    17.926341     23.07909    19.168767     7930.572    10096.167    7776.0475    9001.8093   -1645.4199   -1299.4829    671.56433   -3253.1155 
22395000    261.86029   -4818.0684   -4294.3155   -4818.0684            0    8615.3754    17.818966      22.9408    19.386407    7924.8015    8844.2281    9220.1479    7781.7501   -815.48939    867.35746   -927.27735   -3298.5926 
22396000    257.39206   -4809.5392   -4294.7232   -4809.5392            0    9129.2611    17.884799    23.005303      19.1419    7875.8429    9119.3409    8637.2951    9631.1472    343.32449   -1594.2072    961.13291   -3246.1264 
22397000    250.65665   -4818.1661   -4316.8219   -4818.1661            0    8794.5173    17.859058     23.08425    19.215426    7921.8084    9735.6977    7920.8634    8726.9908   -515.43643     -2280.86   -2026.4606   -3300.7785 
22398000    266.99514    -4821.724   -4287.7007    -4821.724            0    10179.539    17.829353    22.989614    19.208724    7873.4627    10073.151    9316.5464     11148.92   -762.12652     536.4818   -1416.8922   -3118.8211 
22399000    271.09105   -4796.2554   -4254.0398   -4796.2554            0    9270.1764    18.009587    22.844124    19.330705    7952.9078    8188.7177    9699.5613    9922.2502    1074.1667    88.994939   -1355.8796   -3178.8384 
22400000    258.48382   -4814.1291   -4297.1295   -4814.1291            0    11246.073    18.006978    22.722436    19.249362    7876.1154    11565.249    11982.483    10190.486     529.9057   -248.92759   -1264.2417   -3005.3486 
22401000    270.63018   -4771.4897    -4230.196   -4771.4897            0    10379.335    17.831321    22.806003    19.415733     7895.625    10128.481    11684.308    9325.2168    618.39707    214.92706   -846.72113   -3035.0198 
22402000    262.54144   -4795.0923    -4269.977   -4795.0923            0    9672.8333    17.963872    22.779514    19.312729    7902.9284    11591.627    8230.7135    9196.1597   -609.18447   -1226.1299    484.93218   -3155.1239 
22403000     256.8372   -4782.9364   -4269.2302   -4782.9364            0    10763.558    18.042298    22.522507    19.456976    7906.4938    11525.934    11256.785    9507.9546    10.731385   -199.76561     2720.865   -3028.1048 
22404000    270.82838   -4834.3117   -4292.6215   -4834.3117            0    9213.7979    18.104604    22.618453    19.304038    7904.9678    7240.5679     9390.096     11010.73   -1038.7886    1073.0842   -756.22959    -3230.401 
22405000    256.91085   -4809.2507   -4295.3973   -4809.2507            0    9274.9975    17.949533     22.63669    19.462899    7908.1269     10154.91    9137.0162    8533.0659   -911.83862    231.42639     2193.893    -3225.694 
22406000    258.12759     -4827.58    -4311.293     -4827.58            0     8708.725    18.040453    22.764124    19.245774    7903.7604     8734.593    8679.6965    8711.8856   -1933.5661   -1554.7109    369.22255   -3307.4536 
22407000    263.48099   -4823.0916   -4296.0971   -4823.0916            0    9366.8239    17.851308    22.772972    19.458111    7910.2542    12284.971    7861.3861    7954.1149   -577.07156   -921.48337    743.32269   -3215.5127 
22408000    257.93413    -4831.136   -4315.2359    -4831.136            0    9358.9474    17.984794    22.870894    19.217124    7904.5474     9687.527    9540.1541    8849.1611   -1587.6773   -483.46966   -1384.9672   -3236.3391 
22409000    266.28583   -4834.2065    -4301.602   -4834.2065            0    10006.692    17.920479    22.739815    19.340548    7881.4354    10759.757    9725.7891     9534.531   -1161.0101   -303.19562   -265.06326   -3151.4062 
22410000    273.61321   -4818.9655   -4271.7053   -4818.9655            0    8686.0204    17.978547    22.945947    19.286863    7956.5019    10328.834    8041.0587    7688.1687   -2379.2864   -658.65167    668.17181   -3263.8019 
22411000    258.41752   -4821.9454   -4305.0784   -4821.9454            0    11137.214    17.707409    23.052517    19.261196    7862.4272    11506.867    10265.827    11638.947   -1549.6822   -246.86021    29.594056   -3028.0249 
22412000    265.24446   -4817.8325   -4287.3108   -4817.8325            0    8864.6949    17.981032    23.068674    19.120256    7931.0548     9144.163    7703.5762    9746.3454   -1418.8883   -411.65436    2375.1672   -3261.9644 
22413000    255.97083   -4805.1181   -4293.1448   -4805.1181            0    8567.9305    17.924603    23.006299    19.283291    7952.0197    8875.5046    8777.8572    8050.4298   -147.64967       367.62    271.17274   -3299.5043 
22414000     256.8733   -4815.6201   -4301.8417   -4815.6201            0    7970.9635    17.823024    22.979517    19.301913    7905.3781    9338.5834    7836.3439    6737.9633    859.21745    894.03303   -73.922032   -3382.8548 
22415000    262.52777   -4811.8966   -4286.8087   -4811.8966            0    11203.839    17.791657    23.091257     19.12277    7856.2407    10666.515    11098.915    11846.087    1011.3275    669.31043    1331.9957   -3003.1264 
22416000    272.76804   -4774.4316   -4228.8618   -4774.4316            0    10473.997    17.771557    23.195326    19.120071    7881.6195    10587.964     9850.999    10983.027   -1053.7972    126.91139    220.92974   -3024.9247 
22417000     257.3028   -4812.3472   -4297.7098   -4812.3472            0    8840.8456    17.791315      23.1716    19.195469    7913.3946    9757.4318    8173.7828     8591.322   -55.138466   -1018.4505    81.199483   -3277.3989 
22418000    255.89974   -4764.2791    -4252.448   -4764.2791            0    10303.739    17.921885    22.994706     19.13854    7887.1546    11008.042    9731.0728    10172.102    929.04721    320.99098    889.96929   -3067.2495 
22419000    278.79499   -4805.2285    -4247.604   -4805.2285            0    8522.5002    17.776602    23.098985    19.356588    7948.2307    9627.6947    7721.3572    8218.4487    1219.1612    881.05718   -811.10026   -3259.7032 
22420000    269.29923   -4804.6616   -4266.0298   -4804.6616            0    10409.465    17.867503    23.020712    19.137889    7871.8469    9584.7789    10527.607    11116.009    12.020712   -153.90609   -2738.1181    -3070.994 
22421000    261.86374   -4783.7811   -4260.0212   -4783.7811            0    10582.462    17.903376    22.819956    19.240373    7860.7364    10216.865    10893.677    10636.846    923.11532   -668.44696    1076.8081   -3046.8395 
22422000     257.6004    -4818.258   -4303.0253    -4818.258            0    9621.9879    17.982804    22.781614    19.302985    7907.9949    9694.9107    9864.6056    9306.4474   -1686.1037   -101.36591   -2816.5154   -3193.3215 
22423000    255.69511   -4824.3982   -4312.9764   -4824.3982            0     9066.455    17.885499    22.832746    19.408855     7926.092    9569.1184    9162.6719    8467.5746    1636.0303    280.09316    1168.2071   -3264.9493 
22424000    273.48387   -4834.0598   -4287.0583   -4834.0598            0    10546.159    17.884011    22.777589    19.281961    7854.5967    9894.9248    9760.5959    11982.958    352.51247   -105.11524   -69.349949   -3078.9827 
22425000    249.71877    -4783.131   -4283.6626    -4783.131            0    10175.207    17.975063    22.705672     19.31415    7882.7975    9988.8912    10426.183    10110.548    238.02597   -479.53958   -1266.1459   -3113.8952 
22426000    258.01236   -4801.8594   -4285.8028   -4801.8594            0    11208.124    17.933619    22.666399    19.292553    7842.2406    10700.093    11088.248    11836.032   -36.646565   -341.36016    132.26751    -3003.918 
22427000    269.82234   -4801.6075   -4261.9295   -4801.6075            0     8510.126     18.04835    22.714406    19.331842    7925.2348    9393.8067    8576.5807    7559.9907    705.24436   -477.00769    1689.4735   -3278.3171 
22428000    269.94252   -4812.1006   -4272.1822   -4812.1006            0    8953.8214    18.077582    22.457782     19.48077    7908.8499     9067.306    9540.7551    8253.4031    547.17301   -1489.0744    1410.5054   -3239.4264 
22429000    262.68744   -4784.2773     -4258.87   -4784.2773            0     9744.964    18.042098    22.631082    19.372981    7910.2243    10270.681    9825.9602    9138.2508    1679.0881    513.25792   -190.75317   -3134.6665 
22430000    261.49528   -4800.5751   -4277.5523   -4800.5751            0    11079.152    18.011432    22.631413    19.348778    7887.0295    11237.039     10103.23    11897.188    202.58385   -350.01789    111.54768   -3003.1812 
22431000    255.44113   -4816.1019   -4305.1881   -4816.1019            0    9076.4594    18.056048    22.664161    19.322378    7907.2038    7365.3172    10109.108     9754.953    62.729589    38.656182   -732.80707   -3258.5048 
22432000    272.48692   -4818.1707   -4273.1632   -4818.1707            0    10012.753    18.006712    22.597601    19.399411    7893.7848    9234.9033    11714.775    9088.5822    1026.9179   -409.11835   -30.562198   -3120.4674 
22433000    258.11963   -4828.3175   -4312.0463   -4828.3175            0    8942.4405    17.965619    22.725887      19.3862    7915.0873     10297.15    8276.0972    8254.0744    623.69999   -810.41521    1741.5707   -3279.7897 
22434000    260.61746   -4831.8319   -4310.5648   -4831.8319            0    9132.5744    18.003493    22.804942    19.238294    7898.6396    9442.6776      9794.36    8160.6856    457.07292    189.28683    1277.9658   -3258.5511 
22435000    276.87305   -4813.1918   -4259.4114   -4813.1918            0    8990.3302    17.846946    22.657694    19.595809    7923.9698    8061.3136    10360.252    8549.4247    1359.0906    2145.4966    2015.5279   -3220.4622 
22436000    270.88487   -4805.2617   -4263.4584   -4805.2617            0    9860.9613    18.015634     23.02854    19.025464    7893.1655    9990.8287    9561.5493    10030.506   -75.116486   -128.88299   -1201.6156   -3128.3265 
22437000    261.41247   -4825.6161   -4302.7589   -4825.6161            0     7857.709    17.636079    23.244433    19.354184    7934.0665      8859.95     7159.526     7553.651   -145.06818   -381.76442   -1873.6838   -3393.5417 
22438000    267.43798   -4801.7046   -4266.7956   -4801.7046            0    9642.5499    17.745653     23.29764    19.145145    7915.2124    9783.3365     9193.891    9950.4224    462.05555   -62.322333   -449.42637   -3153.7054 
22439000    246.78165   -4808.5915   -4314.9978   -4808.5915            0    10412.392    17.851029    23.239928    19.015783    7888.8235    9953.5123    10604.468    10679.196     1072.241    989.98016    1298.9016   -3117.0479 
22440000    269.40771   -4767.8681   -4229.0194   -4767.8681            0    10793.396    17.748379    23.131364    19.248277    7902.2685     11636.28    9843.7314    10900.178    927.01096     825.2537   -1326.5774   -2985.1184 
22441000    264.24625   -4790.6125   -4262.0874   -4790.6125            0    11304.784     17.87014     22.91142    19.138398    7835.8395    11133.815    10284.575    12495.962    209.76447     206.5598    10.143423   -2970.2029 
22442000    274.86672   -4831.3332   -4281.5658   -4831.3332            0    8275.7596    18.112913     22.75767    19.320002    7963.8535    6773.8212     9251.099    8802.3585    1518.5609    1008.6467    209.44735   -3320.3807 
22443000    266.45434   -4819.9245   -4286.9829   -4819.9245            0    9429.7085    17.989278    22.717033    19.283552    7880.4746        10702    7871.3645    9715.7607    851.32653   -869.40978     -779.533   -3203.2393 
22444000    274.18979   -4825.9519   -4277.5384   -4825.9519            0    8395.1782    17.814671    22.907747    19.420851    7925.5325    10181.288    7140.6907    7863.5558   -71.884501   -2099.1816   -1262.4705   -3307.1753 
22445000    249.02139   -4772.1839   -4274.1103   -4772.1839            0    10259.532     17.92984      22.9088    19.215488    7892.7828    11585.559    8987.8151    10205.221      776.247   -660.27036    1493.3274   -3093.1547 
22446000    264.43567   -4819.8021   -4290.8981   -4819.8021            0    8486.7571    18.006072    22.742152    19.439917     7960.584    8596.2655    8969.6744    7894.3313   -1512.1311    1059.2296   -961.94978   -3305.6114 
22447000     254.5674   -4798.6185   -4289.4523   -4798.6185            0    7508.1536     17.95788    22.960772    19.335654    7972.6079    8608.1678    6715.3998    7200.8933   -322.51557     139.2154    2083.2911   -3416.4619 
22448000    259.22476    -4807.251   -4288.7695    -4807.251            0    10434.966    18.001646    22.865768    19.230071      7915.51    8590.8779     11222.61     11491.41   -288.19073   -690.51403   -1192.1574   -3084.1612 
22449000    264.93067    -4793.989    -4264.095    -4793.989            0    10234.846    17.925635    22.924433    19.211057    7894.4961    9681.9399      10700.1    10322.497    -124.5228    291.30345    3496.5865   -3085.7252 
22450000    262.25042   -4815.7204   -4291.1871   -4815.7204            0    8186.2423    17.994621    22.884701    19.189991    7902.4674    8002.2785    9256.0848    7300.3637   -737.41941    -288.1921   -881.78087   -3347.7278 
22451000    269.36078   -4825.6721   -4286.9173   -4825.6721            0    8258.7211    17.814996    22.945119    19.464508    7956.4527    9509.6788    7773.3168    7493.1677   -467.15224   -84.267336     -2203.22   -3328.6025 
22452000    274.14399   -4835.7746   -4287.4527   -4835.7746            0    7952.6134    17.981436    23.155667    19.115505     7959.164    8832.3523    7186.9103    7838.5776    968.42128    762.97442    721.03342   -3364.3432 
22453000    259.84177   -4847.3647    -4327.649   -4847.3647            0    8043.8416     17.83971    23.026216    19.346643    7947.2339     9505.817    7297.0318    7328.6761   -371.77791    -21.62313   -2489.3661   -3395.3497 
22454000    246.77355   -4812.4849   -4318.9073   -4812.4849            0    9861.1928     17.84662     23.06803    19.162112    7888.7804    9544.6316    9892.1299    10146.817     1393.924    542.63887    1047.0906   -3184.3793 
22455000    261.15979   -4825.6412   -4303.2894   -4825.6412            0     11165.95    17.716559    23.033339    19.232878    7848.3898    12853.228    9697.0627    10947.558   -594.74907   -1072.2808   -308.14585   -3025.2268 
22456000    263.68087   -4828.0768   -4300.6825   -4828.0768            0    8442.4704    18.034994     23.21444    18.937689    7928.6856    7227.0311    7888.8609    10211.519    1428.2595    139.17079   -163.53619   -3324.4649 
22457000    263.64058   -4812.2873   -4284.9736   -4812.2873            0    8387.4952    17.892363    22.990071    19.377093    7970.7032    9455.6552    7621.4144     8085.416   -344.32536    961.24541   -1110.3564   -3309.9731 
22458000    272.86945   -4809.3434   -4263.5707   -4809.3434            0     9462.686    17.815102    23.155145    19.181043    7912.3961    9263.9094    9322.9243    9801.2242   -470.67363    522.51011   -1062.5961   -3171.6318 
22459000    270.55825   -4819.7047   -4278.5548   -4819.7047            0    11138.805    17.700483    23.131857    19.145156    7838.8893    11428.844    11616.616    10370.955    337.93446     960.1135   -533.06949   -3005.1425 
22460000    273.15593   -4816.6971   -4270.3515   -4816.6971            0    7973.3569    17.843359    23.073681    19.228125    7916.4494    7751.4919    8054.9698    8113.6089   -34.414697   -1102.9732   -2016.9322   -3349.8012 
22461000    269.52319   -4826.5379   -4287.4582   -4826.5379            0    8963.8141    17.896468    22.907177    19.344114     7930.266    10191.581    8413.6813    8286.1802    703.97639   -498.83057    451.86608   -3250.7501 
22462000    278.69811   -4846.2008   -4288.7701   -4846.2008            0    9597.9585    17.923719    22.871412    19.204622    7872.7575    9933.8767    9503.6889      9356.31   -2165.1325    72.766082    -1065.355     -3186.77 
22463000    255.47243   -4789.9379   -4278.9615   -4789.9379            0    11407.858    17.957926    22.662127    19.392748    7892.1659    11957.543    12185.572     10080.46   -570.61366   -99.608359    358.06889   -2965.9268 
22464000    261.43937   -4812.0026   -4289.0916   -4812.0026            0     9278.003    17.891984    22.938117    19.291528    7917.4053    7771.8827    10216.034    9846.0929    115.96263    761.24191    1948.8913   -3217.7862 
22465000    246.16168   -4825.2895   -4332.9357   -4825.2895            0    8746.1147    17.745537     23.02436    19.370902     7914.556    11403.154    7524.1317    7311.0584   -1014.7897    81.480587   -844.97746   -3323.4095 
22466000    270.64962   -4829.3337   -4288.0011   -4829.3337            0    9778.0594    17.911823    23.058267    19.083243    7881.6769    9011.7354    8296.7603    12025.683    1397.0547    1050.1643    225.97657   -3164.0505 
22467000    256.12666   -4835.1475   -4322.8626   -4835.1475            0    8286.9638    17.986539    22.869047     19.22142     7906.443    6962.5589    8955.9804     8942.352   -72.376035   -75.441362    -1883.625   -3367.3146 
22468000     266.5349    -4792.604   -4259.5013    -4792.604            0    8797.9449    17.885833    22.807876    19.415195    7920.1933    8668.5216    10231.747     7493.566    174.78338     279.1915   -345.28748   -3243.2692 
22469000    267.29122   -4822.5576   -4287.9421   -4822.5576            0    8019.2759    18.077161    22.922723    19.186862    7950.6089    6321.0697    7533.4555    10203.302    2856.2115   -1293.2297   -487.10968   -3358.0953 
22470000    261.91116   -4845.8166    -4321.962   -4845.8166            0    8723.2011    17.823877    22.847243    19.417867     7907.469    8418.9284    8393.7891    9356.8856    79.825533   -1409.1127   -2493.7503   -3315.9822 
22471000    264.55853    -4817.075   -4287.9253    -4817.075            0    9296.4997     18.05519    22.817015    19.137382    7883.9418    8695.0874    9038.0488    10156.363    328.86573   -936.80248    573.62954   -3219.0212 
22472000    248.71506   -4821.6175   -4324.1566   -4821.6175            0    8845.4739    17.892249    22.778409    19.451461    7927.5786     9889.788    9535.9222    7110.7114   -809.08942     281.0888    -980.7295   -3301.4818 
22473000    257.71022   -4824.6751   -4309.2228   -4824.6751            0    10918.358     18.09859    22.772341    19.063083    7856.7973    8181.5864    11821.828    12751.658   -944.92313   -766.11424   -326.48105    -3058.161 
22474000    261.64849   -4809.4594   -4286.1301   -4809.4594            0    7039.7466    18.082753    22.830876     19.41452    8015.1889    5428.8257    7539.4526    8150.9616    1909.4898    872.16793     1845.367   -3463.2308 
22475000    253.73976   -4817.3262   -4309.8153   -4817.3262            0    9243.3236    17.981007    22.689814    19.380924    7907.1398    8301.1523    10818.302     8610.516   -278.86872   -406.58947    203.49409   -3243.8982 
22476000    264.39507   -4817.8082   -4288.9854   -4817.8082            0    9786.8276    17.970849    22.696051    19.379272    7904.1718    9480.9054    9486.7476     10392.83    1736.4849   -186.40424    297.95206   -3160.8163 
22477000    280.99823   -4775.2662    -4213.235   -4775.2662            0    11626.022    17.887002    22.832347    19.317235    7889.2018    11391.693    12096.207    11390.168    187.46417     1332.384   -225.19185   -2875.5923 
22478000    275.96357   -4811.4826   -4259.5213   -4811.4826            0    9565.8459    18.084471    22.712362    19.294591    7925.0804    8696.0075    9480.7846    10520.746   -261.15608    165.01848   -67.236674   -3153.9088 
22479000     271.7441   -4815.0986   -4271.5768   -4815.0986            0    8525.7219    18.140138    22.535592    19.466184    7957.7513    6440.5009    9053.6096    10083.055    2207.3255   -559.66153    568.73092   -3282.1187 
22480000    277.86497   -4794.6385   -4238.8743   -4794.6385            0    7820.2828    18.093821    22.894876    19.253888    7976.0345    7380.2948    7991.8562    8088.6974   -343.32702    200.08912   -245.83055   -3329.2011 
22481000      283.306    -4823.983    -4257.336    -4823.983            0    9436.0052    17.910676     22.78024    19.341135    7891.3668    9628.8574    10436.505    8242.6532    -80.53772    374.09772    1125.3078   -3171.3698 
22482000    266.87847   -4812.1655   -4278.3756   -4812.1655            0    9601.4084    18.001805    22.764134    19.314752    7915.0981    7931.3959    10017.734    10855.095   -324.21039   -262.52195   -1083.3002   -3170.0506 
22483000    247.82149   -4792.6673   -4296.9937   -4792.6673            0    9839.4504    18.014284    22.660984    19.375126    7909.3413    9875.3695    11315.367    8327.6144     905.3599   -213.91516   -528.39842   -3162.0167 
22484000     277.6652   -4819.3465   -4263.9818   -4819.3465            0     9234.803    18.001235    22.704345    19.358514    7911.9456    9602.1127    9686.3777    8415.9187   -1046.4283    75.832859   -1482.0779      -3198.4 
22485000    267.88014   -4845.1414    -4309.348   -4845.1414            0      9423.55    18.082076    22.686261    19.219404    7884.0819    8343.3127    10276.759    9650.5786   -1137.5376    242.24809   -2595.1223   -3225.8165 
22486000    265.53183   -4829.7382   -4298.6418   -4829.7382            0    9110.9835    17.867513     22.90293    19.341989    7915.0982    9853.9745    9585.5678    7893.4082    268.32006   -790.22751    1325.6944   -3246.9283 
22487000    261.76885   -4817.0553   -4293.4853   -4817.0553            0    10951.925     17.86179    22.946131    19.242433    7886.6834    12933.202    9176.4714    10746.103    294.77316   -1554.3412   -1278.8694   -3033.8038 
22488000     270.3579   -4804.4711   -4263.7219   -4804.4711            0    8713.6762    17.760663    23.196508    19.204776    7912.0867    9912.2326    8875.5711     7353.225    183.69315   -802.95109   -186.09766   -3258.2537 
22489000    265.93927   -4813.2248   -4281.3134   -4813.2248            0    9731.3795    17.911314     22.92497    19.152418    7864.2958    9006.9801    8839.9361    11347.222   -29.768234   -785.38087    1249.8921   -3165.1953 
22490000    276.73348   -4826.0634   -4272.5623   -4826.0634            0    9733.8586    17.779711    23.059324    19.333692    7926.5838    11689.027    9134.0515    8378.4977    11.028581    799.48116    695.94516   -3147.3176 
22491000    248.79554   -4784.0282   -4286.4064   -4784.0282            0    10333.428    17.877694    22.949855    19.135104    7850.9508    8830.4698    11196.814        10973   -213.58332   -732.44869    87.420077   -3103.2488 
22492000    272.22724   -4828.8614   -4284.3733   -4828.8614            0    9695.5668    17.777341    22.819305    19.451365    7890.7689    10261.152    10515.953    8309.5959     30.73966    662.87347     1328.947   -3168.6194 
22493000    279.42663   -4817.7613   -4258.8735   -4817.7613            0    8183.4828    18.107227    22.882741    19.263137    7981.5459    7982.8682    8828.3769    7739.2035   -708.85612     803.7775   -579.61633   -3306.2943 
22494000    270.97971   -4799.0718   -4257.0789   -4799.0718            0    10818.304    17.967398    22.679059    19.334323     7878.421    10520.467    12341.207    9593.2397   -190.67104      502.143    1094.5357   -3014.0699 
22495000    270.78224   -4788.8758   -4247.2779   -4788.8758            0    8051.4718    17.869162    22.903231    19.421477    7948.4639    7252.7984     9219.608     7682.009   -1388.8008    709.37957   -1403.5653   -3313.9497 
22496000    263.48093   -4805.5597   -4278.5653   -4805.5597            0    9392.1739    18.030278    22.743182    19.223222    7882.7877    7106.6631    10555.422    10514.437   -1789.3683   -781.14278    1080.9454   -3198.8187 
22497000    260.37548   -4811.7921    -4291.009   -4811.7921            0      8673.27    18.069417     22.63901    19.411061    7940.5547    7837.6255    8967.2333    9214.9511    231.33283   -6.3170665    2090.1338   -3286.6023 
22498000    261.54397   -4780.3469   -4257.2267   -4780.3469            0    10311.526     18.02458    22.798254    19.199534    7889.6445    10804.985    9481.3253    10648.267   -1165.7407    421.49586    516.58856    -3070.758 
22499000    257.18995   -4811.4622   -4297.0506   -4811.4622            0    10616.053    17.908827    22.929498    19.161028    7868.2923     9793.507    10896.558    11158.093   -997.17903    186.25135   -1784.5975   -3078.8482 
22500000    271.24748   -4790.6401   -4248.1117   -4790.6401            0     8795.032    17.920877    22.890356    19.339403    7933.3182     8610.556    8835.2727    8939.2671     -1048.21   -137.43666   -1785.5972   -3230.5325 
Loop time of 492.912 on 64 procs for 250000 steps with 1008 atoms

Performance: 87.642 ns/day, 0.274 hours/ns, 507.190 timesteps/s
99.1% CPU use with 64 MPI tasks x 1 OpenMP threads

MPI task timing breakdown:
Section |  min time  |  avg time  |  max time  |%varavg| %total
---------------------------------------------------------------
Pair    | 28.494     | 32.858     | 36.747     |  34.0 |  6.67
Bond    | 0.27724    | 0.28359    | 0.29576    |   0.8 |  0.06
Kspace  | 227.11     | 234.31     | 244.22     |  21.5 | 47.54
Neigh   | 4.908      | 5.169      | 5.7489     |   9.7 |  1.05
Comm    | 91.353     | 99.379     | 103.66     |  29.0 | 20.16
Output  | 0.9466     | 0.94803    | 0.96164    |   0.3 |  0.19
Modify  | 107.08     | 110.37     | 115.31     |  23.6 | 22.39
Other   |            | 9.6        |            |       |  1.95

Nlocal:        15.7500 ave          19 max          12 min
Histogram: 2 5 8 0 10 16 0 16 4 3
Nghost:        2500.50 ave        2530 max        2463 min
Histogram: 2 5 3 2 11 11 11 7 9 3
Neighs:        5264.05 ave        6472 max        3979 min
Histogram: 2 5 8 3 7 16 14 2 4 3

Total # of neighbors = 336899
Ave neighs/atom = 334.22520
Ave special neighs/atom = 2.0000000
Neighbor list builds = 9825
Dangerous builds = 0

unfix		3
unfix		2
unfix		1

write_data	data.final.${pid}
write_data	data.final.0
System init for write_data ...
PPPM initialization ...
  extracting TIP4P info from pair style
  using 12-bit tables for long-range coulomb (../kspace.cpp:340)
  G vector (1/distance) = 0.37863674
  grid = 24 27 32
  stencil order = 5
  estimated absolute RMS force accuracy = 0.0025347417
  estimated relative force accuracy = 7.6332993e-06
  using double precision FFTW3
  3d grid and FFT values/proc = 3825 384
Last active /omp style is kspace_style pppm/tip4p/omp
WARNING: Not all mixed pair coeffs generated from mixing. Use write_data with 'pair ij' option to store all pair coeffs. (../write_data.cpp:312)

write_restart   restart.lmp.${pid}
write_restart   restart.lmp.0
System init for write_restart ...
PPPM initialization ...
  extracting TIP4P info from pair style
  using 12-bit tables for long-range coulomb (../kspace.cpp:340)
  G vector (1/distance) = 0.37863674
  grid = 24 27 32
  stencil order = 5
  estimated absolute RMS force accuracy = 0.0025347417
  estimated relative force accuracy = 7.6332993e-06
  using double precision FFTW3
  3d grid and FFT values/proc = 3825 384
Last active /omp style is kspace_style pppm/tip4p/omp
Total wall time: 0:08:13
