LAMMPS (30 Jul 2021)
Processor partition = 0
  using 1 OpenMP thread(s) per MPI task
using multi-threaded neighbor list subroutines
variable        pid world 0 1
variable        phase world IceII IceIII

shell cd ${phase}
shell cd IceII
include Restart.lmp
echo both
log log.lammps
#include		in.partitions
include		in.temp
variable        temperature equal 64.10
variable	tempDamp equal 100.0
include		in.pressure
variable        pressure equal 43.8
variable        pressureDamp equal 1000.0 # This is 1 ps
include		in.seed
variable        seed equal 745823

units		real
atom_style	full
box tilt large
read_restart	restart.lmp.${pid}
read_restart	restart.lmp.0
Reading restart file ...
  restart file = 30 Jul 2021, LAMMPS = 30 Jul 2021
  restoring atom style full from restart
  triclinic box = (-10.598601 -9.2641870 0.091480745) to (12.578601 12.254185 21.768518) with tilt (-9.1459749 1.9566719 2.8919301)
  4 by 4 by 4 MPI processor grid
  restoring pair style lj/cut/tip4p/long/omp from restart
  restoring bond style harmonic/omp from restart
  restoring angle style harmonic/omp from restart
  1296 atoms
  864 bonds
  432 angles
Finding 1-2 1-3 1-4 neighbors ...
  special bond factors lj:    0        0        0       
  special bond factors coul:  0        0        0       
     2 = max # of 1-2 neighbors
     1 = max # of 1-3 neighbors
     1 = max # of 1-4 neighbors
     2 = max # of special neighbors
  special bonds CPU = 0.012 seconds
  read_restart CPU = 0.020 seconds
include 	in.setup
variable	out_freq equal 1000
variable	out_freq2 equal 10000
variable	out_freq3 equal 1000

timestep	2.0

neigh_modify    delay 7 every 1

include		in.tip4p
# This is TIP4P/Ice

# create groups ###
group ox type 2
432 atoms in group ox
group hy type 1
864 atoms in group hy

# set charges - beside manually ###
set group ox charge -1.1794
Setting atom values ...
  432 settings made for charge
set group hy charge 0.5897
Setting atom values ...
  864 settings made for charge

# ### TIP3P Potential Parameters ###
pair_style lj/cut/tip4p/long/omp 2 1 1 1 0.1577 8.5
pair_coeff 1 1*2 0.000 0.000
pair_coeff 2 2 0.21084 3.1668
bond_style  harmonic
bond_coeff  1 450 0.9572
angle_style harmonic
angle_coeff 1 55 104.52
kspace_style pppm/tip4p/omp 1.0e-5
pair_modify tail yes

thermo          ${out_freq}
thermo          1000
thermo_style    custom step temp pe etotal epair emol press lx ly lz vol pxx pyy pzz pxy pxz pyz enthalpy

restart 	${out_freq3} restart.lmp.${pid} restart2.lmp.${pid}
restart 	1000 restart.lmp.${pid} restart2.lmp.${pid}
restart 	1000 restart.lmp.0 restart2.lmp.${pid}
restart 	1000 restart.lmp.0 restart2.lmp.0


include         in.dump
dump            myDump all atom ${out_freq2} dump.water.${pid}
dump            myDump all atom 10000 dump.water.${pid}
dump            myDump all atom 10000 dump.water.0
dump            myDump2 all dcd ${out_freq2} dump.dcd
dump            myDump2 all dcd 10000 dump.dcd
dump_modify     myDump append yes
dump_modify     myDump2 append yes


variable natoms 	equal  "count(all)"                        # NUMBER ATOMS
variable H      	equal  "enthalpy/v_natoms"                 # ENTHALPY-per-atom
variable Vol      	equal  "vol/v_natoms"                 # volume-per-atom
fix AVG all 		ave/time ${out_freq} 1 ${out_freq} v_Vol v_H file vol_enthalpy.dat
fix AVG all 		ave/time 1000 1 ${out_freq} v_Vol v_H file vol_enthalpy.dat
fix AVG all 		ave/time 1000 1 1000 v_Vol v_H file vol_enthalpy.dat


timer           timeout 10:00:00 every 1000
New timer settings: style=normal  mode=nosync  timeout=10:00:00

fix 		1 all shake 1e-6 200 0 b 1 a 1
Finding SHAKE clusters ...
       0 = # of size 2 clusters
       0 = # of size 3 clusters
       0 = # of size 4 clusters
     432 = # of frozen angles
  find clusters CPU = 0.002 seconds
fix             2 all nph tri ${pressure} ${pressure} ${pressureDamp}
fix             2 all nph tri 43.8 ${pressure} ${pressureDamp}
fix             2 all nph tri 43.8 43.8 ${pressureDamp}
fix             2 all nph tri 43.8 43.8 1000
fix             3 all temp/csvr ${temperature} ${temperature} ${tempDamp} ${seed}
fix             3 all temp/csvr 64.1 ${temperature} ${tempDamp} ${seed}
fix             3 all temp/csvr 64.1 64.1 ${tempDamp} ${seed}
fix             3 all temp/csvr 64.1 64.1 100 ${seed}
fix             3 all temp/csvr 64.1 64.1 100 745823


run             250000
PPPM initialization ...
  extracting TIP4P info from pair style
  using 12-bit tables for long-range coulomb (../kspace.cpp:340)
  G vector (1/distance) = 0.36703528
  grid = 30 40 32
  stencil order = 5
  estimated absolute RMS force accuracy = 0.0045988131
  estimated relative force accuracy = 1.3849189e-05
  using double precision FFTW3
  3d grid and FFT values/proc = 5168 640
Last active /omp style is kspace_style pppm/tip4p/omp
Neighbor list info ...
  update every 1 steps, delay 7 steps, check yes
  max neighbors/atom: 2000, page size: 100000
  master list distance cutoff = 10.8154
  ghost atom cutoff = 10.8154
  binsize = 5.4077, bins = 7 5 5
  1 neighbor lists, perpetual/occasional/extra = 1 0 0
  (1) pair lj/cut/tip4p/long/omp, perpetual
      attributes: half, newton on, omp
      pair build: half/bin/newton/tri/omp
      stencil: half/bin/3d/tri
      bin: standard
Setting up Verlet run ...
  Unit style    : real
  Current step  : 8000000
  Time step     : 2
  Walltime left : 9:59:59.94
Per MPI rank memory allocation (min/avg/max) = 9.436 | 9.441 | 9.446 Mbytes
Step Temp PotEng TotEng E_pair E_mol Press Lx Ly Lz Volume Pxx Pyy Pzz Pxy Pxz Pyz Enthalpy 
 8000000    66.327585   -6830.5425   -6659.9188   -6830.5425            0   -310.76917    23.177202    21.518372    21.677038    10811.112   -241.60086   -436.41937   -254.28729    259.99739   -209.33669   -23.606985   -6708.9175 
 8001000    63.435517   -6853.1263   -6689.9423   -6853.1263            0    342.23385    23.211696    21.422335    21.675318    10778.024    118.29385    375.76108    532.64662    36.758244     591.9769    215.41735   -6636.1478 
 8002000    66.973781   -6861.4124   -6689.1264   -6861.4124            0     615.5436    23.208378    21.373031    21.696433    10762.155    974.14515    178.16581    694.31985    -444.0376   -440.12533   -206.63336   -6592.5138 
 8003000    64.318141   -6856.6549   -6691.2004   -6856.6549            0    50.600378    23.272874    21.285515     21.79879    10798.578   -338.66822    1073.4607   -582.99137    340.39061   -199.72357   -323.38708   -6683.2315 
 8004000    62.455731   -6859.7348   -6699.0713   -6859.7348            0   -81.635449    23.356436    21.288258    21.709623    10794.411    -268.3605    441.95355    -418.4994    214.93468   -426.68826     60.18098   -6711.9228 
 8005000    64.906624   -6859.6233    -6692.655   -6859.6233            0     -102.084    23.367304    21.311081    21.695596    10804.028   -467.33163   -154.85988     315.9395    -143.9295     334.5375    110.67712   -6708.7399 
 8006000    65.329795   -6853.1151   -6685.0582   -6853.1151            0   -415.48935     23.21238    21.358491    21.846877    10831.276   -145.74291   -83.285305   -1017.4398   -731.43402   -100.99556    369.26562   -6750.6901 
 8007000    62.583804   -6857.5513   -6696.5583   -6857.5513            0    -166.9313    23.234441    21.416861    21.708653    10802.417    389.94633    -677.7184   -213.02183   -591.02619    259.24383    287.72243    -6722.857 
 8008000    66.675155   -6859.6895   -6688.1717   -6859.6895            0    324.09161    23.239127      21.4193    21.640004    10771.654    152.29207   -18.690029    838.67279   -155.51842    193.29757    375.03822    -6637.259 
 8009000    69.574966   -6860.3569   -6681.3796   -6860.3569            0   -347.96494    23.127548    21.456321    21.786349    10811.086    623.30835    -887.7078   -779.49536   -131.36694     246.8692   -150.32734   -6736.2427 
 8010000    64.535264   -6854.0104   -6687.9974   -6854.0104            0   -430.79929    23.229543    21.436657    21.720186    10815.865   -132.11395   -941.07521   -219.20871    439.84256   -405.27739    0.2940439   -6755.9509 
 8011000    63.454395   -6854.2417   -6691.0092   -6854.2417            0   -639.21631    23.344001    21.394219    21.675319    10825.233   -1207.7715   -489.80749   -220.06997   -299.90955   -184.23452   -232.92683   -6791.9254 
 8012000    63.987841   -6842.2252   -6677.6204   -6842.2252            0   -271.61519    23.311287    21.282276    21.814478    10822.538   -179.09354   -32.482524   -603.26949   -548.07662   -266.03866   -156.10807   -6720.4909 
 8013000    66.453351   -6854.5969   -6683.6497   -6854.5969            0   -192.71026    23.340774    21.330584    21.716089     10811.84   -703.02902   -235.68836    360.58662    206.65062   -223.41502    235.25901   -6714.0362 
 8014000    63.648274   -6862.9537   -6699.2223   -6862.9537            0      -74.956    23.284269    21.358061    21.707064    10795.071   -162.75749   -227.27895    165.16844    421.38271    69.890706    200.80285   -6711.0231 
 8015000    62.613177   -6853.2956    -6692.227   -6853.2956            0   -489.52819    23.201758    21.450616    21.751478    10825.537   -358.75873   -477.73146   -632.09438    50.275951    34.341866   -52.839302   -6769.5134 
 8016000    64.724239   -6857.7788   -6691.2796   -6857.7788            0    597.99217    23.142244    21.503865    21.638595    10768.397    805.59649    237.13753    751.24249    153.53396   -140.67976    211.38627   -6597.3673 
 8017000    63.660382   -6854.1491   -6690.3866   -6854.1491            0    552.31966    23.185463    21.395142    21.690544    10759.731    315.00314    650.13741    691.81844   -14.941076    103.24216   -220.53174   -6603.7168 
 8018000    62.593705   -6860.0544   -6699.0359   -6860.0544            0   -133.86844    23.229357    21.407638    21.728183    10805.114    91.775599    145.32851   -638.70943    359.81435   -916.24887   -176.17549   -6720.1311 
 8019000    64.238287   -6858.3616   -6693.1126   -6858.3616            0   -56.874962    23.314844    21.329374    21.706201    10794.299   -263.28357     92.77824  -0.11955329   -275.52302    199.94216   -172.82864    -6702.066 
 8020000    63.220508   -6856.5598   -6693.9289   -6856.5598            0     319.0884    23.320657    21.264561    21.726289    10774.143   -333.18513    791.99056    498.45978    287.86102    9.6398771    208.91555   -6643.7905 
 8021000     62.76036   -6859.8468   -6698.3996   -6859.8468            0    216.79897     23.31257    21.318015    21.720771    10794.739    103.60645    787.72915   -240.93869   -325.04954   -380.90106    -735.7603   -6664.2689 
 8022000    64.376083   -6853.8108   -6688.2073   -6853.8108            0   -114.92324    23.202625    21.417176    21.741169    10803.941    608.01851   -342.42827   -610.35995   -9.1383384   -314.88972    136.52852   -6706.3151 
 8023000    64.180771   -6860.2758   -6695.1747   -6860.2758            0    47.064822    23.178846    21.452321    21.690711     10785.49    259.22038   -236.41972     118.3938    102.62482     17.03499    289.64212   -6687.7716 
 8024000    66.959339   -6842.2119   -6669.9631   -6842.2119            0    256.10022    23.189894    21.498563    21.661432    10799.294    285.12456   -110.84457    594.02066    350.79744    214.94957   -343.08693   -6629.6282 
 8025000    66.652712   -6852.2955   -6680.8355   -6852.2955            0   -386.24804    23.211659    21.426645    21.770865    10827.696   -356.79369   -721.64949   -80.300924    586.13957    429.75853    419.22187   -6741.8283 
 8026000    64.146094   -6845.5612   -6680.5493   -6845.5612            0   -388.40444    23.359579    21.372377    21.681316    10824.392   -569.67669    -430.0188   -165.51783   -66.129719   -720.36486    187.87799   -6741.8638 
 8027000    62.027149   -6844.5839   -6685.0229   -6844.5839            0   -240.84492    23.312674    21.318989    21.784095    10826.753   -871.29212    424.09752   -275.34016    73.726582    94.810562   -32.948331   -6723.0516 
 8028000    60.578887   -6854.3712   -6698.5357   -6854.3712            0    150.99106    23.283747     21.30626    21.784583    10807.104   -166.14049    409.51289    209.60079   -165.82189    350.57566    282.62769    -6674.738 
 8029000    64.539832   -6863.7291   -6697.7043   -6863.7291            0   -492.75509    23.385941    21.388864    21.610035    10809.312   -996.44868   -856.51323    374.69662 -0.038330328    385.19081      6.55441   -6775.3836 
 8030000    68.287374     -6857.73   -6682.0649     -6857.73            0   -457.50258    23.178338    21.441078    21.755061    10811.581    335.83161   -411.14384   -1297.1955    65.690066   -74.911603   -345.18038    -6754.202 
 8031000    66.626531   -6854.7612   -6683.3685   -6854.7612            0    442.63786    23.165513    21.434058    21.700406    10774.923    1261.3471    34.479823    32.086712    494.36029   -438.42359   -253.33559   -6613.8119 
 8032000    64.274404   -6850.6579   -6685.3159   -6850.6579            0    383.44487    23.175789    21.479998    21.647785    10776.612    820.55018   -816.16873    1145.9532    81.363372    269.98173    511.52026   -6625.0515 
 8033000    63.337879   -6854.4198    -6691.487   -6854.4198            0    638.19727    23.257553    21.362609    21.680192     10771.63    852.81693    287.96697    773.80792    177.60586   -483.43556   -13.473156   -6591.2305 
 8034000    66.542831   -6865.6361   -6694.4587   -6865.6361            0   -416.23986    23.330578      21.3024    21.770874    10820.065   -446.88041   -631.74089   -170.09828   -109.95329   -145.67789    318.44679   -6760.1412 
 8035000    64.802082   -6862.0564    -6695.357   -6862.0564            0     2.787688    23.361105    21.217656    21.787641    10799.434   -946.22903    1161.8164   -207.22433     356.8688    236.30152   -289.11577   -6694.9179 
 8036000    61.824434   -6853.8505   -6694.8109   -6853.8505            0    496.58312    23.292034    21.318396    21.718025    10784.059    296.86136    623.48973    569.39826   -589.75409   -231.41809   -3.3495268   -6616.7111 
 8037000    64.727829   -6855.1724    -6688.664   -6855.1724            0   -420.89557    23.218084    21.448267    21.713967    10813.288     -122.715   -825.72685   -314.24486   -1.5009201    651.12682     471.5193   -6755.0395 
 8038000    64.461772   -6855.3345   -6689.5106   -6855.3345            0    450.64761    23.118199     21.45413    21.716659    10771.047    1354.1506   -441.46685    439.25905    449.24971   -243.26163   -235.19231   -6618.7207 
 8039000    64.365222   -6855.2505   -6689.6749   -6855.2505            0   -119.78977    23.157364    21.492089    21.702402    10801.288    369.46446   -689.05446     -39.7793   -483.89718    498.97206   -84.457729   -6708.5449 
 8040000    66.597319   -6866.2224   -6694.9049   -6866.2224            0   -177.99154    23.219573    21.424813    21.696387     10793.41   -560.88024    2.3297584    24.575877    383.37505    2.0963188    177.87093   -6722.9227 
 8041000    64.323248   -6862.2782   -6696.8105   -6862.2782            0    120.66547    23.257889    21.289967    21.795502    10792.254    355.29439    394.59627   -387.89426   -104.61468   -67.607817    366.10058   -6677.8185 
 8042000    62.437216   -6851.7882   -6691.1722   -6851.7882            0    99.154002    23.327251    21.266425    21.757701    10793.718    400.16021    167.57906   -270.27726   -667.91516   -99.923549   -124.73831   -6675.5639 
 8043000    64.516685   -6853.0933    -6687.128   -6853.0933            0    313.09207    23.338168    21.347692    21.636347    10779.575    380.38688    317.78263    241.10671    207.25122   -692.15736   -625.78806   -6637.9071 
 8044000     63.93215    -6852.668   -6688.2064    -6852.668            0    623.31479    23.241985    21.347234    21.715322    10774.103    304.14894    834.30226    731.49316   -237.38531    213.97069    154.36986   -6590.2654 
 8045000    62.042592   -6865.9598    -6706.359   -6865.9598            0   -549.07215     23.18445    21.429889    21.762063    10812.267   -428.08416    -161.6281   -1057.5042    443.36998   -19.777586    189.31636   -6792.9399 
 8046000    63.799445   -6850.8781   -6686.7579   -6850.8781            0     791.0076     23.13254    21.489955     21.65714    10766.138    1068.6639    334.08008    970.27878   -663.45548    284.73061    -320.9704   -6562.5594 
 8047000    65.545498   -6865.0076   -6696.3958   -6865.0076            0   -414.34801    23.218724    21.478059    21.671602    10807.479   -302.18832   -563.17186   -377.68384    95.259783    626.94498    115.87279   -6761.7036 
 8048000    66.545007   -6856.7111   -6685.5281   -6856.7111            0   -394.49485    23.250643    21.387279    21.762925    10822.006    286.31142   -883.13402   -586.66196   -444.23958    155.18942    118.19365   -6747.7904 
 8049000    65.491479   -6853.9377   -6685.4648   -6853.9377            0   -800.70622     23.34193    21.308809    21.800968    10843.556   -1214.9891   -327.88266   -859.24689   -141.96861    405.25789    240.31846   -6812.0902 
 8050000    63.996579   -6852.6009   -6687.9736   -6852.6009            0   -494.45272    23.358719      21.2951      21.7803    10834.093   -688.44809    158.41259   -953.32268   -354.14788    135.40062   -72.393222   -6766.0992 
 8051000    65.121277    -6851.905   -6684.3845    -6851.905            0   -174.79857      23.3253    21.376373    21.685593    10812.661   -928.89047    76.020256     328.4745   -207.20596    186.65373    181.08634   -6711.9487 
 8052000    65.764101   -6866.5944   -6697.4202   -6866.5944            0    176.79574    23.213487    21.384173    21.711777    10777.753   -232.94838    95.623219    667.71238    327.84175   -46.891555    436.70883    -6669.631 
 8053000    62.268557   -6855.1544   -6694.9723   -6855.1544            0    286.70208    23.158616    21.446583    21.725513     10790.48    233.49471   -28.570743    655.18226    525.04477   -128.62677    45.150556   -6649.8546 
 8054000    64.843496   -6853.3358   -6686.5299   -6853.3358            0    106.20808    23.121187    21.492624    21.723353    10795.094    634.99172   -32.805864   -283.56161     1294.502   -686.91875    47.524334    -6669.809 
 8055000     64.02886   -6852.2354   -6687.5251   -6852.2354            0   -215.11922    23.181517    21.446806     21.72193    10799.481   -102.38533   -642.34275    99.370407    228.26207    661.22721    122.35917   -6721.4062 
 8056000    64.532628   -6847.8472   -6681.8409   -6847.8472            0   -164.08366    23.246875    21.419419    21.707746    10809.037   -261.48055   -642.44759    411.67715   -154.72611    156.80234    98.172084   -6707.7068 
 8057000    64.418804   -6854.9412   -6689.2278   -6854.9412            0   -133.03604    23.384449     21.28786     21.70805    10806.373    -1496.835    1109.8981   -12.171184    386.26648    123.80811   -104.33234   -6710.1943 
 8058000    63.193933   -6854.0337   -6691.4712   -6854.0337            0    296.22035    23.376122    21.209489    21.754632    10785.851   -153.62907    927.75083     114.5393   -303.83421    219.92298    621.12144   -6644.8755 
 8059000    62.428056   -6850.7606   -6690.1682   -6850.7606            0   -53.236674     23.31112    21.334789     21.71293    10798.661    -215.0693     145.7786   -90.419324   -812.32318    533.03894    -384.4686   -6698.5523 
 8060000    61.937948   -6861.7464   -6702.4148   -6861.7464            0    284.09874    23.225518    21.359187    21.708053    10768.892    858.20654    51.410875   -57.321186      1131.89    -236.3964   -65.302733   -6657.7962 
 8061000    64.840922   -6858.4328   -6691.6335   -6858.4328            0   -176.73812    23.222422    21.445082    21.695915    10804.712   -471.26656   -569.57964    510.63183    25.476939    205.57449    -147.5628   -6719.4831 
 8062000    64.554805   -6852.7894   -6686.7261   -6852.7894            0   -152.22878    23.120313    21.520081    21.713402    10803.525    597.25202   -401.53213   -652.40623    428.84319   -266.07715    -286.6398    -6710.711 
 8063000    64.501019   -6842.6258   -6676.7008   -6842.6258            0   -339.26785    23.150361    21.523943    21.708882    10817.255    13.797675   -1003.2563   -28.344908    24.760461    78.051162      106.706   -6730.2232 
 8064000    61.514643   -6850.8907   -6692.6481   -6850.8907            0   -24.072919    23.291588    21.386722    21.693935    10806.415   -183.37699    77.625307    33.532922   -184.86856    297.34158    -403.8635    -6696.442 
 8065000    60.193763   -6857.9715   -6703.1267   -6857.9715            0     97.85753    23.346925    21.303113    21.697534    10791.533   -161.84443    420.36364    35.053381    199.70594   -87.192358    84.817533   -6687.7255 
 8066000    65.063846   -6850.9598    -6683.587   -6850.9598            0    55.568164    23.364101    21.213315      21.8108    10810.088   -233.39282    357.91863    42.178679   -954.80739    191.58912    167.35966   -6674.8265 
 8067000    61.102988    -6858.695   -6701.5113    -6858.695            0    35.402046    23.328412    21.317347    21.711037    10796.896   -423.72868    561.33303    -31.39821    52.994318    49.291339   -491.99662   -6695.9368 
 8068000    62.251084   -6858.7345   -6698.5973   -6858.7345            0    8.8780425    23.233997    21.364037    21.766777    10804.418    718.63714    -220.2769   -471.72612   -354.23851    230.51579    119.07866   -6697.1984 
 8069000    60.056789   -6858.6286   -6704.1361   -6858.6286            0   -150.26793    23.201771    21.411899    21.756257    10808.378   -200.02168    91.799945   -342.58205    28.429582     501.7185   -1.5478489   -6727.8227 
 8070000    63.045563   -6856.1913   -6694.0105   -6856.1913            0    281.90581     23.19947    21.469245    21.661862    10789.235    646.69361   -633.27658    832.30041   -71.137529   -54.099655    192.33591   -6649.6526 
 8071000    63.630299   -6852.3262   -6688.6411   -6852.3262            0   -545.77743    23.234312    21.395689    21.754235    10814.338   -773.21171   -233.60221   -630.51837    254.76972    368.78081    468.13605   -6774.7189 
 8072000    65.164107   -6844.2921   -6676.6614   -6844.2921            0    475.09751    23.269076    21.405229    21.670586    10793.683     106.8397    608.05342     710.3994    137.12478   -384.73334   -84.216285    -6601.874 
 8073000    63.804152   -6862.1054   -6697.9731   -6862.1054            0    107.93694    23.321725    21.356257    21.657853    10787.013   -184.50752   -74.911549    583.22989   -66.774085   -411.09752   -33.676378   -6680.9927 
 8074000    66.525259   -6864.3606   -6693.2284   -6864.3606            0    157.12563    23.252785    21.284734    21.788245    10783.642    65.306432    774.14076    -368.0703    510.99572   -182.76567    491.03205   -6668.5175 
 8075000    66.042118   -6860.9962   -6691.1068   -6860.9962            0   -216.23728    23.213189    21.472122     21.69185    10812.008   -4.9355971   -610.33225   -33.443997    275.56961   -675.69313   -257.46331   -6725.2036 
 8076000    65.253442   -6860.2634   -6692.4029   -6860.2634            0    254.19858    23.191428    21.432636    21.671716    10772.001    359.62733   -191.85129    594.81969     217.8947    105.53442    315.26021   -6652.4687 
 8077000      64.2347    -6861.833   -6696.5932    -6861.833            0    76.540293    23.196191    21.414247    21.707698    10782.843    385.24672    -316.7389    161.11305   -239.66727    21.547521    447.50802   -6684.5567 
 8078000    66.456629   -6852.1434   -6681.1878   -6852.1434            0    96.189157    23.251956     21.36635    21.734346    10797.828    112.75133    687.05064    -511.2345   -560.39748    435.07882   -930.79993   -6666.0404 
 8079000    62.287287   -6857.0235   -6696.7933   -6857.0235            0     34.40919    23.255894    21.329632    21.752058    10789.884    204.87309    144.69709    -246.3426   -519.28225    679.75924    269.71328   -6691.3787 
 8080000    66.991229   -6853.2827   -6680.9518   -6853.2827            0    232.36232    23.359454    21.316454    21.671959    10791.351    441.84422    -54.39927    309.64202   -235.60886    253.35869   -119.08642   -6644.3824 
 8081000    63.354851   -6860.3916   -6697.4151   -6860.3916            0   -192.83937    23.288376     21.33723    21.745024    10805.308    17.674054    119.52659   -715.71875   -344.83158   -9.1577379   -16.602627   -6727.8035 
 8082000    63.543439   -6857.8304   -6694.3688   -6857.8304            0   -376.12815    23.202502    21.385142    21.787697    10810.811   -177.14649    -552.4068   -398.83117    52.213446   -349.46558     111.4751   -6753.6709 
 8083000    62.364154     -6851.13   -6690.7021     -6851.13            0     193.3775    23.202339    21.443363    21.680116    10786.642    369.41292    86.981934    123.73765    692.16141   -262.80398   -341.59467   -6660.2814 
 8084000    67.545309   -6849.6479   -6675.8917   -6849.6479            0    789.78123    23.152954    21.492848    21.608637    10752.953    1073.8373   -233.30157     1528.808    415.98479    311.50775    472.24489   -6552.0376 
 8085000    64.845804   -6860.6291   -6693.8172   -6860.6291            0    422.71614    23.159828    21.421304    21.722909    10777.033     941.2863    243.28007    83.582045    46.331209   -159.42546   -113.76982   -6627.3781 
 8086000    64.967026   -6862.1446   -6695.0209   -6862.1446            0    70.634202    23.241802    21.369979     21.75427    10804.842    667.30645   -102.45461   -352.94923    31.767169   -88.343148     370.2439   -6683.8905 
 8087000     64.22173    -6864.923   -6699.7165    -6864.923            0    437.66967    23.361526    21.242474    21.707535    10772.508   -467.53917    1685.4133    95.134894   -630.94994    295.19273   -48.420706    -6630.956 
 8088000    67.191644   -6862.4971   -6689.6507   -6862.4971            0    201.81566    23.330439    21.276839    21.726832    10785.156   -136.33633    534.15896    207.62436   -516.92769    519.33085     254.4488   -6657.9071 
 8089000    60.938877   -6860.7409   -6703.9793   -6860.7409            0   -54.238127    23.276901    21.363666    21.722978    10802.401   -310.31634    91.518673     56.08329    -622.3332    840.10754   -153.14753   -6712.5241 
 8090000    65.582684   -6864.4628   -6695.7554   -6864.4628            0   -476.17741    23.203595    21.435625    21.736236    10811.247   -32.614243   -655.49703   -740.42097   -190.94256    991.73933    160.40892   -6770.8347 
 8091000    63.602195   -6863.3725   -6699.7597   -6863.3725            0    -130.2529     23.10452    21.512239     21.76411    10817.415    501.53272   -264.56201   -627.72942   -177.36796    843.63236    -83.47865   -6720.3085 
 8092000    61.891586   -6850.8865   -6691.6742   -6850.8865            0    193.46047    23.195549    21.458007    21.693132    10797.328    90.750063    291.52592    198.10542   -94.087865    414.23393    163.61741   -6661.2104 
 8093000    65.277982   -6861.0512   -6693.1276   -6861.0512            0   -239.71832    23.254265    21.412444    21.699908    10805.049   -255.70801   -138.69015   -324.75679   -433.67865    243.95921    -179.6878   -6730.9026 
 8094000    64.401079   -6853.4441   -6687.7763   -6853.4441            0   -278.19859    23.311832    21.370202    21.686449    10803.724   -190.81718   -502.24079   -141.53779    146.14033   -72.995514    83.399453   -6731.6096 
 8095000    62.774787   -6863.0449   -6701.5606   -6863.0449            0    856.76284    23.272551    21.260358    21.717493    10745.441    507.59868    1162.4572    900.23265   -608.80492    34.588885    100.60126   -6567.2962 
 8096000    61.540554   -6842.4163    -6684.107   -6842.4163            0    146.26763    23.293504     21.32425    21.726685    10792.003   -354.25221     528.1587    264.89639   -247.87785   -310.91715   -70.889955   -6661.0859 
 8097000    63.260963   -6854.8363   -6692.1013   -6854.8363            0    50.289791    23.261509    21.362967     21.71379    10790.339   -454.57823    726.61701    -121.1694    442.79783    16.482467   -297.63119   -6684.1874 
 8098000    62.745237   -6861.8639   -6700.4556   -6861.8639            0    -378.3643    23.161691    21.480067    21.701233    10796.682   -160.10518   -930.54237   -44.445332    342.70988   -279.53651    1.4736306   -6760.0323 
 8099000    64.589987   -6854.2914   -6688.1376   -6854.2914            0    196.75575    23.152831    21.471291    21.717268    10796.114    1041.5453   -442.20487   -9.0731852   -1.9243796    377.30553   -334.29292   -6657.1583 
 8100000    61.389516   -6854.4452   -6696.5244   -6854.4452            0    -54.28496    23.231865    21.393996    21.732517    10801.548    387.44247   -60.229825   -490.06753    310.52815    368.68468    104.66569   -6705.0759 
 8101000    63.297571   -6864.5665   -6701.7374   -6864.5665            0   -325.81196    23.298802    21.369275    21.712123    10809.999   -419.61194   -451.33672   -106.48722    -388.6444    137.96166     438.4116   -6753.1025 
 8102000    64.865619   -6858.9284   -6692.0655   -6858.9284            0   -336.26445    23.348537    21.374715    21.664969      10812.3   -507.70537   -792.98835    291.90035   -650.00105    198.88169    -292.1753   -6745.0898 
 8103000    64.567022   -6850.7442   -6684.6495   -6850.7442            0   -423.16314    23.299251    21.319794    21.793425    10825.562   -453.17995   -621.63305   -194.67642    798.94937    161.46418    1040.4166   -6751.4583 
 8104000    65.574388   -6858.4259   -6689.7398   -6858.4259            0    254.34673    23.244247     21.33888    21.764414    10795.284    -414.6711    1259.8367   -82.125422    194.10427    239.95855   -591.15915   -6649.6959 
 8105000    63.800986   -6853.0027   -6688.8786   -6853.0027            0   -504.49218     23.23764    21.467233    21.684573    10817.302    151.07069   -704.30617   -960.24108   -50.305048   -282.05097    54.987275   -6768.4669 
 8106000    62.638319   -6858.0053    -6696.872   -6858.0053            0    -119.1544    23.145563    21.477633    21.736841    10805.642    -23.61083   -808.92967    475.07729   -321.44466    295.28158    181.31269   -6715.6495 
 8107000    64.546541   -6860.5951    -6694.553   -6860.5951            0    306.16725    23.198189    21.424512    21.705408    10787.802    804.57552   -184.28965     298.2159   -5.8829766   -312.59854    623.49022    -6646.384 
 8108000     64.15901   -6859.0386   -6693.9935   -6859.0386            0    285.28227    23.263136     21.38192    21.688581    10788.129    25.904546     7.195243    822.74703   -63.453673    216.22859    479.07102   -6649.1089 
 8109000     60.83365   -6853.1344   -6696.6436   -6853.1344            0   -373.36068     23.28915    21.346003    21.742302    10808.757   -228.51243   -314.50373   -577.06588   -17.865522   -483.69592   -482.05271   -6755.4981 
 8110000    62.436892   -6856.3602   -6695.7451   -6856.3602            0    131.50136    23.262933    21.355375    21.716587    10788.554    91.882535    172.25584    130.36571    214.98668    295.26993   -20.967837   -6675.0547 
 8111000    62.896585   -6852.8984   -6691.1007   -6852.8984            0    446.39779    23.311915    21.302348    21.680262    10766.386     57.74086    638.23797    643.21454    362.36589   -159.53045    301.14229   -6621.0088 
 8112000     65.10208   -6858.5867   -6691.1156   -6858.5867            0   -332.00334    23.220594    21.406886     21.73162    10802.367   -60.361753   -589.72013   -345.92813    325.64706   -797.43936   -313.54741   -6743.4198 
 8113000    64.536264   -6853.6092   -6687.5936   -6853.6092            0    808.09125    23.158387    21.395155    21.726331    10764.903    782.71443     512.9776    1128.5817   -285.11998    461.36169   -213.95644   -6560.7273 
 8114000    64.832932   -6853.9382   -6687.1594   -6853.9382            0    294.73011    23.207251    21.410014    21.689665    10776.891    332.56307    376.19426    175.43298   -128.78324    355.57114    377.04581   -6640.8367 
 8115000    62.860196   -6849.8514   -6688.1474   -6849.8514            0    -306.0832    23.222138    21.412789     21.75741    10818.888   -367.02556    108.62584   -659.84988    433.06275     228.8759   -143.96381    -6736.442 
 8116000    62.295502   -6861.2173   -6700.9659   -6861.2173            0    24.010261    23.181167    21.430031    21.734261    10796.997    790.36066   -404.39352   -313.93635    234.84383   -295.13333   -308.19422   -6697.1852 
 8117000    59.952503   -6863.2689   -6709.0448   -6863.2689            0   -158.75084    23.331239    21.378818    21.652506    10800.147   -755.56987   -412.31705    691.63441     160.6479    263.94207    683.66047   -6734.0495 
 8118000    60.897861    -6853.506     -6696.85    -6853.506            0   -440.57077    23.364475    21.321762    21.758453    10839.447   -407.42375   -269.43347   -644.85509    394.63932   -989.78868   -76.093871   -6766.4964 
 8119000     62.23665   -6853.5596   -6693.4597   -6853.5596            0    63.737615     23.27951      21.3093    21.769947    10799.419    132.91554    363.58817   -305.29087    37.712691   -513.45389    158.38881   -6683.4211 
 8120000    65.882778    -6863.299   -6693.8196    -6863.299            0    224.71777    23.312356    21.368237     21.65939    10789.494   -170.92695    329.68766     515.3926    -180.4459     2.990162   -73.317981   -6658.4594 
 8121000    63.713706   -6858.0808   -6694.1811   -6858.0808            0    39.220557    23.212251    21.432917    21.707228    10799.482    686.57217    10.184609   -579.09511   -42.267799      315.081    61.007313   -6688.0039 
 8122000    66.257992   -6851.8473   -6681.4026   -6851.8473            0   -220.82871    23.188799    21.427132    21.761449    10812.599   -205.30594    41.570643   -498.75083    303.10278    851.83592   -332.97006   -6716.2252 
 8123000    61.676789    -6851.894   -6693.2342    -6851.894            0    34.592386    23.150524    21.504269    21.679162    10792.648    877.17584   -678.46334   -94.935342   -182.23925   -261.19011   -202.27843   -6687.7894 
 8124000    63.550628   -6853.8801      -6690.4   -6853.8801            0    224.23918    23.248095    21.380655    21.706392    10789.368   -667.88406    960.52133    380.08026   -519.30412    538.14006   -151.32831   -6655.1156 
 8125000    64.332829   -6850.4475   -6684.9552   -6850.4475            0    144.60433    23.278089    21.281229    21.789199    10794.071    98.330971    974.56621    -639.0842    587.88084   -518.52467   -67.059596   -6662.1915 
 8126000    66.075217   -6863.1725    -6693.198   -6863.1725            0    234.20981    23.343505    21.267252    21.730601    10788.205   -148.89854    423.18774    428.34024   -232.55544   -154.89899   -400.77445   -6656.3486 
 8127000    62.067492   -6851.6259   -6691.9611   -6851.6259            0    714.13299     23.37395    21.220091     21.67984    10753.144    365.07601    823.40109    953.92186    55.702649    116.41557    372.01539   -6579.9682 
 8128000    64.050281   -6856.9715    -6692.206   -6856.9715            0     119.7068    23.298378    21.357631    21.689662    10792.736   -384.16161    259.31712     483.9649    82.796977    15.575311   -379.64943    -6673.364 
 8129000    67.327672   -6853.4447   -6680.2484   -6853.4447            0   -51.654397    23.164996    21.445513    21.754841    10807.483    325.12876   -226.53117   -253.56078   -77.650481   -187.70154     72.45932     -6688.39 
 8130000    59.295752   -6855.8305   -6703.2958   -6855.8305            0   -119.71328    23.099408    21.559589    21.682196    10798.032    400.96309   -407.72186   -352.38106    599.17496   -26.360034   -30.727698    -6722.148 
 8131000    61.652643   -6860.0613   -6701.4637   -6860.0613            0    291.48364    23.197663    21.484113    21.621008    10775.504    364.93785   -587.20331    1096.7164    227.32039   -389.24907    321.16442   -6655.6571 
 8132000    64.917807   -6851.7129   -6684.7158   -6851.7129            0    209.42046    23.221209    21.350183    21.764932    10790.554   -51.257872    862.92653   -183.40728    711.52554    70.424454   -207.10153   -6651.7595 
 8133000    63.448091   -6850.5146   -6687.2983   -6850.5146            0   -411.05242    23.320373    21.323736    21.748103    10814.842    -786.3743    497.01327   -943.79623    149.69557   -174.97836   -366.10041   -6752.1309 
 8134000    62.759204   -6860.9809   -6699.5366   -6860.9809            0   -100.87375    23.392968    21.278325    21.663304    10783.195   -673.91482    158.77127     212.5223   -281.32584   -497.90461    108.08835   -6715.4002 
 8135000     62.89478   -6861.1283   -6699.3353   -6861.1283            0   -157.10989    23.274624    21.311566    21.785351    10805.941   -65.264319    248.04314   -654.10849    -197.5661    38.176671    141.59318   -6724.0948 
 8136000    66.354149   -6853.2306   -6682.5385   -6853.2306            0    620.92604    23.203373    21.374214    21.751856    10787.917    363.57272    551.36903    947.83637    260.47998   -178.85691    186.35496   -6584.8478 
 8137000    64.613556   -6860.6313   -6694.4169   -6860.6313            0    232.96178    23.245948    21.424066    21.647237    10780.816    480.19262     70.35757    148.33516   -265.90453    266.61417    -428.3779    -6657.789 
 8138000    62.571151   -6860.6849   -6699.7244   -6860.6849            0   -289.92003    23.201311    21.458469    21.694047    10800.698    146.36177   -775.35162   -240.77025   -318.10647    375.63163    135.19638   -6745.3918 
 8139000    63.569331   -6859.0829   -6695.5547   -6859.0829            0   -310.94306    23.192916    21.425822    21.796142    10831.098   -318.15973   -195.91079   -418.75865    305.45311   -42.145767   -292.92608   -6744.6714 
 8140000    63.647675   -6856.5986   -6692.8689   -6856.5986            0   -316.40028    23.369508    21.339773    21.683728    10813.675   -540.85143   -788.69707    380.34766   -129.93041   -695.46892    591.87078   -6742.7672 
 8141000    64.543669   -6863.7185   -6697.6839   -6863.7185            0    310.03447    23.351602    21.299769    21.668083    10777.352   -423.30564    547.09083    806.31822    169.22068    222.21181    354.40161   -6648.9537 
 8142000    62.750926   -6854.7033   -6693.2803   -6854.7033            0   -242.19914    23.265515    21.362945    21.778496    10824.346   -317.77297   -307.77945     -101.045    7.0231669    277.03155   -379.32292   -6731.5144 
 8143000    64.547801   -6856.1515   -6690.1062   -6856.1515            0    -374.4373    23.209412    21.426291    21.723822    10803.075   -163.99828   -156.30848   -803.00515   -165.94843   -361.74197    91.469165   -6749.0995 
 8144000    63.671399   -6857.5796   -6693.7888   -6857.5796            0    456.60692    23.247516    21.464485    21.557136    10756.924   -211.49881    433.70291    1147.6166   -204.09138    162.18921    537.72378   -6622.1569 
 8145000     64.06185    -6848.399   -6683.6038    -6848.399            0    206.72324    23.205258     21.39789    21.740444    10795.077    399.77277    279.90133   -59.504375   -39.612026   -200.63763    197.35079   -6651.0583 
 8146000    62.741926   -6856.0735   -6694.6737   -6856.0735            0   -230.41539    23.268296    21.327207    21.779648    10808.102   -190.29438    105.77115   -606.72293    471.63413    72.186344    94.903615    -6730.993 
 8147000     60.37599   -6852.5956    -6697.282   -6852.5956            0    345.70249    23.381135    21.291305    21.642108    10773.763   -300.04107    997.15319    339.99534   -265.02571    378.20886    59.624132   -6642.9638 
 8148000    63.603711   -6862.8756    -6699.259   -6862.8756            0    430.72497    23.273384    21.294776    21.750111    10779.388   -127.72891    1759.1165   -339.21263   -510.84194   -97.899238   -571.52967   -6631.5463 
 8149000    65.308902   -6851.8167   -6683.8135   -6851.8167            0    316.51836    23.204205    21.347329    21.786794     10792.04    328.22153    447.81895    173.51461   -20.629422    362.42169    53.151344   -6633.9965 
 8150000     63.83096   -6859.7606   -6695.5593   -6859.7606            0   -101.17298    23.307744    21.457013    21.565461    10785.201   -332.28519   -809.56889    838.33514    199.22681   -164.30223   -191.49363   -6711.4729 
 8151000    64.970166   -6852.3681   -6685.2363   -6852.3681            0   -213.93889    23.186907    21.466943    21.701002    10801.717   -470.90347   -493.95707    323.04388    914.94018    568.93183   -310.60443   -6718.9385 
 8152000    61.502093   -6855.9311   -6697.7208   -6855.9311            0   -7.3860714    23.135199     21.47269    21.740075    10799.925    321.42513   -541.67515     198.0918    649.95586    -547.5977    155.99811   -6698.8841 
 8153000    63.824242   -6846.5072   -6682.3233   -6846.5072            0    306.65799    23.263226    21.429447    21.635929    10785.901   -129.32344   -74.229646    1123.5271   -378.36775   -698.95033    16.629931   -6634.0856 
 8154000     64.38713   -6859.7381   -6694.1061   -6859.7381            0    129.55231    23.287464    21.263769    21.785634    10787.795   -541.84954    1137.8081   -207.30161    465.85827   -312.19902    691.96978   -6673.7238 
 8155000    62.883791   -6860.3727    -6698.608   -6860.3727            0   -547.27826    23.404625    21.252101    21.748819    10817.807   -873.76373   -415.75805   -352.31299    68.487109    203.90271   -135.84547   -6784.9502 
 8156000    62.625091   -6867.8923   -6706.7931   -6867.8923            0   -169.13585    23.351239    21.270695    21.734037    10795.233   -18.505571    220.06441   -708.96638     10.68986   -74.024263   -377.64585   -6733.4214 
 8157000    62.323083   -6856.4221   -6696.0998   -6856.4221            0   -5.7525979    23.260135    21.354654    21.738709    10797.881   -59.458665    128.14814   -85.947273    241.96649    316.32004    131.59105   -6697.0057 
 8158000    62.775476   -6858.1816   -6696.6955   -6858.1816            0   -175.47324    23.189846    21.505717    21.663975    10804.133   -207.28308   -534.10298    214.96633   -168.96995    81.631851   -248.53783   -6724.3443 
 8159000    66.035649   -6860.9288   -6691.0561   -6860.9288            0    62.124905    23.129472    21.491806    21.729512    10801.612    346.03544   -715.86766    556.20694    467.17274   -64.526569    701.07537   -6681.2695 
 8160000    63.959753   -6859.9833   -6695.4507   -6859.9833            0    172.45034    23.193507    21.442992    21.694129    10789.319    270.59852    127.34011     119.4124   -96.863788    374.72348   -37.716488   -6668.3155 
 8161000    60.491613   -6856.4387   -6700.8278   -6856.4387            0   -411.90326     23.29677    21.419651    21.672817    10814.924   -720.12775   -956.30617    440.72413     330.7632   -262.11654    62.749799    -6765.795 
 8162000    64.591078   -6857.8108   -6691.6542   -6857.8108            0    191.86662    23.333941     21.25487    21.770476    10797.283   -541.56456    985.30729    131.85713    131.23683    210.32481    39.614367   -6661.4414 
 8163000    63.717945   -6857.1985    -6693.288   -6857.1985            0   -116.76964    23.272276    21.304063    21.796003    10806.328    1071.0258   -615.88753   -805.44721    -241.9656   -1141.3144   -176.69984   -6711.6908 
 8164000    64.413577   -6863.9157   -6698.2157   -6863.9157            0   -64.269827    23.360483    21.313748    21.688053     10798.47   -937.90193   -222.02919    967.12164     343.2034      34.1035    75.225062   -6708.3372 
 8165000    63.277295   -6855.4815   -6692.7045   -6855.4815            0    228.90347    23.227672    21.397373    21.694056    10782.188    425.03746   -654.71494    916.38788    146.07904     112.2879    257.35115   -6656.7101 
 8166000    62.563685   -6844.9929   -6684.0516   -6844.9929            0    -212.0111    23.183698     21.47085     21.71378    10808.548   -364.98694    109.18216   -380.22852    507.93541    284.53798   -490.72228   -6717.4713 
 8167000    64.119124   -6859.9393   -6694.9967   -6859.9393            0    246.12296    23.137246    21.495748    21.686871    10786.017    856.53531   -217.47824    99.311808   -383.14544    96.853883   -179.59519   -6656.2808 
 8168000    66.206394   -6855.1144   -6684.8025   -6855.1144            0   -153.55008    23.198708    21.517363    21.646455     10805.37   -257.09049   -1125.7018    922.14202   -334.33336    390.35764     302.4922   -6708.9997 
 8169000    65.681982   -6847.8654   -6678.9025   -6847.8654            0    544.40503    23.289456    21.364485    21.662039    10778.321    792.07274    39.045361    802.09701   -27.254805   -41.775893     106.6269    -6593.327 
 8170000    63.694194   -6858.8311   -6694.9817   -6858.8311            0    80.445667    23.304901    21.248141    21.764651    10777.547    141.44057    493.65935   -393.76292    32.459486    70.651127     361.5149   -6682.3372 
 8171000    62.996476   -6855.2869   -6693.2323   -6855.2869            0    55.003509    23.364845    21.242605    21.732818    10786.653   -934.47862    855.89349    243.59566   -31.569071    50.127919   -311.15802   -6684.5796 
 8172000    64.240859   -6856.2414   -6690.9857   -6856.2414            0    242.02499    23.279377    21.315542    21.715593    10775.549    586.98013   -168.84703    307.94186   -260.39183   -263.91441   -25.362377   -6652.9514 
 8173000    62.457745   -6856.0013   -6695.3326   -6856.0013            0    154.29488    23.196911     21.39738    21.729177    10785.345    1020.3192    203.40446   -760.83902   -109.73952   -279.11826     277.9309   -6671.0631 
 8174000    64.939287   -6864.4029   -6697.3506   -6864.4029            0    17.143477     23.18714    21.486273    21.668147    10795.184    295.27027    -379.3143    135.47446   -194.47335   -13.817131   -319.09895   -6694.6516 
 8175000    63.428089   -6853.1842   -6690.0193   -6853.1842            0   -160.55981    23.120946    21.533792    21.693938    10801.014    570.81803   -859.44239   -193.05506   -372.13635    433.07164   -169.57616    -6715.311 
 8176000    62.588362    -6859.892   -6698.8873    -6859.892            0   -226.36354    23.179304     21.41001    21.766478    10802.031    393.10994   -324.65952   -747.54103    -221.6061    89.597234    110.36866   -6734.5478 
 8177000    66.449191   -6851.2275    -6680.291   -6851.2275            0   -38.023128    23.292541    21.368814    21.711632    10806.617   -166.04244    372.05338   -320.08033    665.60549    -645.7183   -140.04208   -6686.2836 
 8178000    64.659584   -6853.8852   -6687.5524   -6853.8852            0    132.06253    23.357197    21.236389    21.750231    10788.604   -914.03044    1618.7124   -308.49437   -94.462515    116.20983   -174.54615   -6666.7736 
 8179000    62.518182   -6852.3806   -6691.5564   -6852.3806            0    352.03952     23.37971     21.22693    21.757623    10797.862   -53.188671    992.72034    116.58689   -308.18915     -465.183    3.4808273   -6636.1187 
 8180000    64.740458   -6856.4015   -6689.8606   -6856.4015            0    173.61984     23.29578    21.349888    21.687188     10786.39    -615.2382    862.22779    273.86995    32.616204   -229.66148   -232.59339   -6662.5488 
 8181000    63.314838    -6856.958   -6694.0844    -6856.958            0    428.75986    23.224101    21.387745    21.705929    10781.577     13.94228    508.93099     763.4063    479.03257   -31.106395    71.154615    -6626.667 
 8182000    65.228492   -6854.8976   -6687.1013   -6854.8976            0     332.4093    23.130167    21.501525     21.69751    10790.906    552.69611   -388.96938    833.50116    332.27691    612.97274    119.21771   -6634.7886 
 8183000    58.812722   -6848.5658   -6697.2737   -6848.5658            0   -172.77605    23.134766    21.459509    21.758837    10802.408    82.330565    104.01862   -704.67733   -326.04903    738.54183   -576.17815   -6724.4932 
 8184000    61.276465   -6854.8033   -6697.1733   -6854.8033            0    220.40997    23.216764    21.421526    21.701316      10792.9    252.02199    24.390854    384.81707    238.17308   -104.54397     96.78097     -6662.48 
 8185000    65.692932   -6855.4101   -6686.4191   -6855.4101            0    202.82283    23.301773    21.355951    21.679744    10788.524   -482.98705    365.47278    725.98276    330.97684   -275.18404    70.600885    -6654.507 
 8186000    65.824069   -6855.5871   -6686.2587   -6855.5871            0     478.9391    23.294381    21.219798    21.805813    10778.658    611.02527    1371.9485   -546.15645    339.65666   -1091.8674     74.58577   -6610.9716 
 8187000    59.088613   -6852.2474   -6700.2456   -6852.2474            0    90.125035    23.377761    21.269696    21.715777    10797.907   -381.38946    -313.8135    965.57807    5.5615775    270.96214    301.60221    -6686.053 
 8188000    64.482735   -6849.9669    -6684.089   -6849.9669            0    113.78758     23.29462    21.370682    21.688201    10796.862    629.91787   -65.236769   -223.31837   -111.22314   -62.914314   -326.34071   -6666.1718 
 8189000    61.104529   -6861.1481   -6703.9605   -6861.1481            0   -654.60456     23.17403    21.456119    21.746131    10812.715   -218.66447    -935.5537   -809.59552    405.36986    117.77272    420.24872   -6807.1866 
 8190000    66.657921   -6847.5069   -6676.0335   -6847.5069            0    245.45742    23.170875    21.544611    21.639615    10802.658    483.28661   -272.65259    525.73825    152.82154   -341.41535   -588.30049   -6637.3627 
 8191000    65.085984   -6851.6827   -6684.2529   -6851.6827            0    383.01523    23.191412    21.426504    21.696212    10781.084    759.85054   -351.47637    740.67152    312.76282    183.14957    555.23203    -6624.031 
 8192000     64.16708   -6855.5339    -6690.468   -6855.5339            0   -197.75125     23.25287    21.395493    21.733915    10812.766    98.708333   -228.35362   -463.60847   -552.20672    101.93987   -163.73345    -6721.652 
 8193000    62.299442   -6855.2858   -6695.0242   -6855.2858            0    249.79474    23.279275    21.345803     21.71793    10791.961     367.6638   -227.42298     609.1434   -241.56673    217.10712    -266.6303   -6655.7091 
 8194000    63.455495   -6855.6358   -6692.4004   -6855.6358            0    385.49416    23.314136    21.277239    21.714162    10771.537     969.2089    188.84553   -1.5719417   -253.86925   -657.41951    504.15609   -6631.8424 
 8195000    64.142043   -6851.4569   -6686.4554   -6851.4569            0    -77.82795     23.34603    21.324465    21.716895    10811.574   -711.42004    252.39635    225.53985   -53.534157   -136.68514   -111.40859    -6698.727 
 8196000    62.676678   -6856.4853   -6695.2534   -6856.4853            0    120.19431    23.240984    21.383986    21.714492    10791.774    458.78176   -190.01949    91.820654      194.005   -496.51014    113.86793   -6676.3364 
 8197000    64.577818   -6856.7662   -6690.6437   -6856.7662            0   -198.84592    23.186317    21.453922     21.71117    10799.949   -379.16066   -264.35904     46.98194    439.51474     154.6195    250.63588   -6721.9632 
 8198000    64.871518   -6853.1455   -6686.2675   -6853.1455            0   -137.35577    23.203629    21.455708    21.708279    10807.473   -41.721924    3.6900456   -374.03542     663.1938   -424.31494   -74.495743   -6707.9169 
 8199000    65.754778   -6856.0658   -6686.9156   -6856.0658            0    73.922488    23.209545    21.434669    21.703866    10797.432   -548.85125   -106.66219    877.28091    183.40925    122.97107    632.35946   -6675.2751 
 8200000    62.323086   -6857.9593   -6697.6369   -6857.9593            0    -494.3404    23.251859    21.426869    21.690594    10806.569   -574.65754   -349.66352   -558.70013   -315.32423    131.02215    51.966966   -6775.5463 
 8201000    67.507237   -6863.2383   -6689.5801   -6863.2383            0    99.632256    23.261243    21.341437    21.757735    10801.157    403.14121    215.35389   -319.59833    23.667731   -323.43215   -20.192751   -6673.8856 
 8202000    64.844078   -6859.6032   -6692.7958   -6859.6032            0   -4.7830057    23.285049     21.28586    21.786114    10798.119   -474.16783    272.05183    187.76698    395.34769    100.87584    654.03369    -6693.549 
 8203000     62.18221   -6866.2353   -6706.2754   -6866.2353            0   -140.36356    23.393452    21.324242     21.64988    10799.991   -554.56016   -98.299711    231.76917   -58.219662    70.806786    -621.0616   -6728.3836 
 8204000    61.855108   -6853.4494   -6694.3309   -6853.4494            0   -204.67785    23.235547    21.426645    21.727015    10817.008    28.484446   -594.98182   -47.536186    114.09895   -158.36107    134.35494   -6726.6199 
 8205000    65.578886   -6866.4035   -6697.7058   -6866.4035            0    445.90326    23.179645    21.424709    21.680585    10766.951    597.93811    142.97355    596.79813    105.68281   -534.65928    372.62508   -6627.6879 
 8206000    62.163846   -6861.7461   -6701.8334   -6861.7461            0   -345.33212    23.183682    21.500543    21.672326    10802.825    -157.5683   -880.23319    1.8051357    521.03669    286.97263   -438.02119   -6756.2398 
 8207000    60.641416   -6855.6006   -6699.6042   -6855.6006            0   -344.47359    23.155172    21.488184    21.745002      10819.5   -92.913158   -603.47602   -337.03161    861.59998    83.492477   -91.195956   -6753.9592 
 8208000    64.031454   -6854.3347   -6689.6177   -6854.3347            0   -38.277061    23.268847     21.42833    21.668814    10804.342    55.016489   -542.98711    373.13944    231.67468    48.956087    76.619293    -6695.649 
 8209000    67.597849   -6860.9652   -6687.0738   -6860.9652            0    548.33153    23.319103    21.298359     21.70664    10780.789    139.32737    894.93277    610.73445   -346.56108   -394.93336     2.093988   -6600.8614 
 8210000    64.168902   -6859.8926    -6694.822   -6859.8926            0   -278.11759    23.388212    21.191621    21.802215    10805.922   -448.88872    992.93092    -1378.395   -252.20741   -333.61532    20.043555   -6738.6515 
 8211000     63.90014   -6851.8987   -6687.5195   -6851.8987            0    -107.9336    23.352864    21.294869    21.742082    10812.254   -339.61516    19.952866   -4.1385015    140.86778    121.81462   -103.56567   -6704.5391 
 8212000    62.278294   -6857.6509   -6697.4437   -6857.6509            0   -265.50574    23.325605    21.394783    21.681069    10819.856   -234.79867   -801.92958    240.21104    79.869357   -85.486382   -183.33974   -6739.3396 
 8213000    65.834974   -6864.3309   -6694.9744   -6864.3309            0    81.100629     23.14784    21.448143    21.741946    10794.402     423.4905   -21.152776   -159.03583   -11.036879    278.62868     115.6606   -6682.2071 
 8214000    63.992317   -6858.0677   -6693.4513   -6858.0677            0    78.475617    23.142793    21.451767    21.762969    10804.309    603.05677   -293.09224   -74.537681    695.11159   -434.37436    120.39808   -6681.0859 
 8215000    62.370325   -6864.5702   -6704.1263   -6864.5702            0   -372.40138    23.222885    21.494336    21.658043    10810.839   -581.28982   -786.54675    250.63242   -520.18333   -379.82523    112.37465    -6762.841 
 8216000    63.666508   -6859.0185   -6695.2402   -6859.0185            0    -116.6805    23.260495    21.387466    21.714538    10802.615   -128.13313   -172.36617   -49.542196    292.45738   -357.38634    289.29893   -6713.6227 
 8217000    64.973079   -6861.4874   -6694.3482   -6861.4874            0   -131.46953    23.302354    21.254785    21.820975    10807.634   -431.46905    840.49775   -803.43731    657.66876   -324.78819   -688.14923   -6715.0702 
 8218000    63.514573   -6851.5383    -6688.151   -6851.5383            0    45.704844    23.352552    21.325606    21.690072    10801.815   -344.08064   -181.47264    662.66781   -225.65869    326.57839    206.51904   -6680.9509 
 8219000     63.76466   -6857.1829   -6693.1522   -6857.1829            0    14.298857    23.293886    21.314571    21.717143    10782.544    -471.1691    203.08764    310.97803    23.652557    188.40881     229.7302   -6690.9037 
 8220000    63.458219   -6867.6161   -6704.3737   -6867.6161            0    15.364986    23.193402    21.402134    21.726912    10784.985    165.83728     120.4212   -240.16352    115.50997   -200.51275   -390.22697   -6701.9569 
 8221000    62.498759   -6856.5013   -6695.7271   -6856.5013            0     44.64122    23.185977    21.446393    21.687318     10784.14   -76.174583    92.232253    117.86599   -8.6539635    165.13533   -155.04153   -6688.7061 
 8222000    64.857786   -6864.5524   -6697.7097   -6864.5524            0   -465.29773    23.124849    21.521098    21.716402    10807.648     381.3801   -1073.8569   -703.41636    258.67526    281.30119    173.31696   -6771.0492 
 8223000    62.600868   -6859.3314   -6698.2945   -6859.3314            0    218.43781    23.169141    21.455463     21.70347    10788.896    553.68657   -305.81936    407.44623   -89.586474     648.2683   -199.50849   -6663.9244 
 8224000    62.761041   -6847.3951   -6685.9462   -6847.3951            0    488.80482    23.242092    21.355316    21.725814    10783.439    226.66341    537.77488    701.97618    -430.0726    450.70926    264.03691   -6609.0741 
 8225000    62.554802   -6857.8141   -6696.8957   -6857.8141            0    180.31851    23.338249    21.236988    21.762934    10786.452   -255.65569    1469.6939   -673.08265   -496.69393   -10.586489   -490.29692   -6668.5299 
 8226000    64.467405   -6859.8945   -6694.0561   -6859.8945            0   -759.64122    23.372129    21.290175    21.759461    10827.436   -651.11738   -763.81509    -863.9912   -284.01921    233.95101   -266.07371   -6814.0088 
 8227000    67.824641   -6851.9654   -6677.4906   -6851.9654            0    474.31833    23.315934    21.301305    21.697659    10776.356    281.82454    793.01736     348.1131   -234.78498   -298.12121   -335.67016   -6602.9457 
 8228000    66.432872    -6850.325   -6679.4305    -6850.325            0   -286.03938    23.269608    21.406466    21.705036    10811.715    -552.1708   -4.2182343    -301.7291     536.9078   -447.73396    169.23744   -6724.5325 
 8229000    63.773913   -6853.8326   -6689.7781   -6853.8326            0    753.26504    23.166665    21.405222    21.716276    10768.832    892.28909    512.89262    854.61341    621.96846    199.64543    265.72299    -6571.476 
 8230000    63.748574   -6846.3065   -6682.3172   -6846.3065            0    -562.8422    23.172012    21.542944     21.69433    10829.666    -641.8521   -824.71453   -221.95997   -67.733116     428.4935    267.87199   -6771.2123 
 8231000    65.782135   -6853.1825    -6683.962   -6853.1825            0    -142.0248    23.235013    21.434543    21.694483    10804.544   -135.71229    42.871241   -333.23336    266.50175    -49.36014   -603.04139   -6706.3413 
 8232000    64.765806   -6856.1749   -6689.5688   -6856.1749            0    98.430624    23.271176    21.319971    21.742525    10787.353   -129.95443   -149.69088    574.93718   -356.16203     442.4223    531.53769   -6674.0835 
 8233000    62.955206   -6858.7111   -6696.7627   -6858.7111            0   -384.12521     23.34393    21.268929      21.7797    10813.629   -799.41401    367.20169    -720.1633     76.32648   -257.09735   -192.21926   -6757.3414 
 8234000    62.768842   -6853.0556   -6691.5865   -6853.0556            0    329.65979    23.337222    21.261338    21.721202    10777.639    281.51134    501.40818    206.05985    62.263761   -32.014643   -69.618056   -6639.7704 
 8235000    63.515987    -6856.367    -6692.976    -6856.367            0    684.09014    23.277794    21.275669    21.718736    10756.218    662.16338    1252.0649    138.04211   -728.91928    508.04795   -485.27461   -6585.6638 
 8236000    65.085615   -6861.8597    -6694.431   -6861.8597            0     -38.8984    23.230732    21.380414    21.732203    10794.008    77.342738   -118.86447   -75.173466    -270.5433   -142.82867    221.17887   -6700.5543 
 8237000    62.901224     -6860.78   -6698.9705     -6860.78            0     -159.915     23.19705    21.474246    21.663458    10791.417    19.432099   -386.99067   -112.18642    27.207801   -226.25123    300.05763   -6724.1382 
 8238000     67.00439   -6855.8857   -6683.5209   -6855.8857            0    119.02782    23.137025     21.52965    21.646373    10782.752    678.74923   -920.88974    599.22396   -101.47695    142.11973      558.294   -6664.8032 
 8239000    63.373555   -6857.5191   -6694.4945   -6857.5191            0   -259.22804    23.273902    21.395617    21.717974    10814.671   -824.23149    82.655252   -36.107868    321.04102    759.75734   -461.36921   -6735.3802 
 8240000    65.507961   -6856.0473   -6687.5321   -6856.0473            0   -295.07874     23.29655    21.312951    21.783964    10816.135   -95.170679    184.70994   -974.77547    227.26937   -353.80107      132.056   -6734.0785 
 8241000    63.065102   -6858.1582    -6695.927   -6858.1582            0    105.34828    23.331041     21.25181    21.760887    10789.632   -676.38596    992.21449   0.21631814    378.73957   -114.67678   -95.008475   -6679.3499 
 8242000    61.880025    -6854.766   -6695.5834    -6854.766            0    358.93044    23.298456    21.331273    21.718731    10793.899    394.48516    160.45302    521.85313   -207.60825   -1006.0611    369.96022   -6639.0813 
 8243000    63.373974   -6852.5962   -6689.5705   -6852.5962            0    25.993896    23.270416    21.386342    21.721515    10810.126   -464.58587    215.17988    327.38768    166.54288   -118.67556   -112.33354   -6685.4724 
 8244000    64.291924   -6857.3146   -6691.9276   -6857.3146            0   -897.92414    23.204623    21.479219    21.728249    10829.733   -418.29867   -1100.2001   -1175.2737    128.64161    286.97088    603.77436   -6833.7462 
 8245000    67.937399    -6853.306   -6678.5412    -6853.306            0   -128.95427    23.198045    21.496893    21.689843    10816.419    34.559589   -357.95408    -63.46832   -294.80622    284.53899    -374.8431   -6698.8833 
 8246000    63.977536   -6862.3121   -6697.7338   -6862.3121            0    435.87949    23.196708    21.383558    21.736985    10782.156    610.08986    359.41618    338.13243    227.70346   -124.46364      -73.218   -6629.1932 
 8247000    62.479958   -6853.9389    -6693.213   -6853.9389            0    323.82651    23.363817    21.259072    21.716588    10786.479   -358.61962    757.59638    572.50277    70.568085   -75.484208    537.95532    -6642.272 
 8248000    63.891198    -6854.316   -6689.9597    -6854.316            0   -218.27753    23.365048    21.325388     21.69387    10809.377   -289.94121    59.542611     -424.434   -549.11932   -275.80066   -476.69521   -6724.3698 
 8249000    63.864411   -6860.2871   -6695.9998   -6860.2871            0   -65.276564    23.259107    21.351202    21.743957    10798.264    115.60133   -32.227109   -279.20392   -216.05752   -109.19646    377.06034   -6706.2797 
 8250000     67.25969   -6852.0182   -6678.9967   -6852.0182            0    238.08768    23.192693    21.406352    21.743295    10794.914    419.06047    184.10114    111.10144    636.72486   -364.63792     490.0442   -6641.5139 
Loop time of 524.903 on 64 procs for 250000 steps with 1296 atoms

Performance: 82.301 ns/day, 0.292 hours/ns, 476.279 timesteps/s
99.1% CPU use with 64 MPI tasks x 1 OpenMP threads

MPI task timing breakdown:
Section |  min time  |  avg time  |  max time  |%varavg| %total
---------------------------------------------------------------
Pair    | 28.299     | 40.065     | 51.611     | 120.5 |  7.63
Bond    | 0.27961    | 0.28905    | 0.30007    |   0.8 |  0.06
Kspace  | 266.59     | 278.54     | 290.48     |  46.1 | 53.06
Neigh   | 0.36532    | 0.37168    | 0.37637    |   0.4 |  0.07
Comm    | 88.988     | 90.076     | 92.442     |  10.5 | 17.16
Output  | 0.55696    | 0.55847    | 0.56113    |   0.1 |  0.11
Modify  | 102.15     | 103.98     | 106.63     |   8.9 | 19.81
Other   |            | 11.03      |            |       |  2.10

Nlocal:        20.2500 ave          28 max          13 min
Histogram: 4 5 14 4 4 4 11 5 12 1
Nghost:        2592.80 ave        2613 max        2568 min
Histogram: 2 1 4 10 9 9 12 7 6 4
Neighs:        6468.61 ave        8926 max        4137 min
Histogram: 4 7 12 5 3 6 9 9 8 1

Total # of neighbors = 413991
Ave neighs/atom = 319.43750
Ave special neighs/atom = 2.0000000
Neighbor list builds = 675
Dangerous builds = 0

unfix		3
unfix		2
unfix		1

write_data	data.final.${pid}
write_data	data.final.0
System init for write_data ...
PPPM initialization ...
  extracting TIP4P info from pair style
  using 12-bit tables for long-range coulomb (../kspace.cpp:340)
  G vector (1/distance) = 0.36713772
  grid = 30 40 32
  stencil order = 5
  estimated absolute RMS force accuracy = 0.0045771086
  estimated relative force accuracy = 1.3783827e-05
  using double precision FFTW3
  3d grid and FFT values/proc = 5168 640
Last active /omp style is kspace_style pppm/tip4p/omp
WARNING: Not all mixed pair coeffs generated from mixing. Use write_data with 'pair ij' option to store all pair coeffs. (../write_data.cpp:312)

write_restart   restart.lmp.${pid}
write_restart   restart.lmp.0
System init for write_restart ...
PPPM initialization ...
  extracting TIP4P info from pair style
  using 12-bit tables for long-range coulomb (../kspace.cpp:340)
  G vector (1/distance) = 0.36713772
  grid = 30 40 32
  stencil order = 5
  estimated absolute RMS force accuracy = 0.0045771086
  estimated relative force accuracy = 1.3783827e-05
  using double precision FFTW3
  3d grid and FFT values/proc = 5168 640
Last active /omp style is kspace_style pppm/tip4p/omp
Total wall time: 0:08:45
