LAMMPS (30 Jul 2021)
  using 1 OpenMP thread(s) per MPI task
package omp 0
using multi-threaded neighbor list subroutines
echo both

include		in.partitions
variable        pid world 0
include		in.temp
variable        temperature equal 297.05
variable	tempDamp equal 100.0
include		in.pressure
variable        pressure equal 14500.0
variable        pressureDamp equal 1000.0 # This is 1 ps
include		in.seed
variable        seed world 745823

units		real
atom_style	full
read_restart	restart.lmp.${pid}
read_restart	restart.lmp.0
Reading restart file ...
  restart file = 30 Jul 2021, LAMMPS = 30 Jul 2021
  restoring atom style full from restart
  orthogonal box = (-0.031345879 -0.017629581 -0.080689469) to (24.761347 24.747631 22.890689)
  4 by 4 by 4 MPI processor grid
  restoring pair style lj/cut/tip4p/long/omp from restart
  restoring bond style harmonic/omp from restart
  restoring angle style harmonic/omp from restart
  1920 atoms
  1280 bonds
  640 angles
Finding 1-2 1-3 1-4 neighbors ...
  special bond factors lj:    0        0        0       
  special bond factors coul:  0        0        0       
     2 = max # of 1-2 neighbors
     1 = max # of 1-3 neighbors
     1 = max # of 1-4 neighbors
     2 = max # of special neighbors
  special bonds CPU = 0.625 seconds
  read_restart CPU = 0.848 seconds
include 	in.setup
variable	out_freq equal 1000
variable	out_freq2 equal 10000
variable	out_freq3 equal 1000

timestep	2.0

neigh_modify    delay 7 every 1

include		in.tip4p
# This is TIP4P/Ice

# create groups ###
group ox type 2
640 atoms in group ox
group hy type 1
1280 atoms in group hy

# set charges - beside manually ###
set group ox charge -1.1794
Setting atom values ...
  640 settings made for charge
set group hy charge 0.5897
Setting atom values ...
  1280 settings made for charge

# ### TIP3P Potential Parameters ###
pair_style lj/cut/tip4p/long/omp 2 1 1 1 0.1577 8.5
pair_coeff 1 1*2 0.000 0.000
pair_coeff 2 2 0.21084 3.1668
bond_style  harmonic
bond_coeff  1 450 0.9572
angle_style harmonic
angle_coeff 1 55 104.52
kspace_style pppm/tip4p/omp 1.0e-5
pair_modify tail yes

thermo          ${out_freq}
thermo          1000
thermo_style    custom step temp pe etotal epair emol press lx ly lz vol pxx pyy pzz pxy pxz pyz enthalpy

restart 	${out_freq3} restart.lmp.${pid} restart2.lmp.${pid}
restart 	1000 restart.lmp.${pid} restart2.lmp.${pid}
restart 	1000 restart.lmp.0 restart2.lmp.${pid}
restart 	1000 restart.lmp.0 restart2.lmp.0


include         in.dump
dump            myDump all atom ${out_freq2} dump.water.${pid}
dump            myDump all atom 10000 dump.water.${pid}
dump            myDump all atom 10000 dump.water.0
dump            myDump2 all dcd ${out_freq2} dump.dcd
dump            myDump2 all dcd 10000 dump.dcd
dump_modify     myDump append yes
dump_modify     myDump2 append yes


variable natoms 	equal  "count(all)"                        # NUMBER ATOMS
variable H      	equal  "enthalpy/v_natoms"                 # ENTHALPY-per-atom
variable Vol      	equal  "vol/v_natoms"                 # volume-per-atom
fix AVG all 		ave/time ${out_freq} 1 ${out_freq} v_Vol v_H file vol_enthalpy.dat
fix AVG all 		ave/time 1000 1 ${out_freq} v_Vol v_H file vol_enthalpy.dat
fix AVG all 		ave/time 1000 1 1000 v_Vol v_H file vol_enthalpy.dat




fix 		1 all shake 1e-6 200 0 b 1 a 1
       0 = # of size 2 clusters
       0 = # of size 3 clusters
       0 = # of size 4 clusters
     640 = # of frozen angles
  find clusters CPU = 0.266 seconds
fix             2 all nph aniso ${pressure} ${pressure} ${pressureDamp}
fix             2 all nph aniso 14500 ${pressure} ${pressureDamp}
fix             2 all nph aniso 14500 14500 ${pressureDamp}
fix             2 all nph aniso 14500 14500 1000
fix             3 all temp/csvr ${temperature} ${temperature} ${tempDamp} ${seed}
fix             3 all temp/csvr 297.05 ${temperature} ${tempDamp} ${seed}
fix             3 all temp/csvr 297.05 297.05 ${tempDamp} ${seed}
fix             3 all temp/csvr 297.05 297.05 100 ${seed}
fix             3 all temp/csvr 297.05 297.05 100 745823


run             250000
PPPM initialization ...
  extracting TIP4P info from pair style
  using 12-bit tables for long-range coulomb (../kspace.cpp:340)
  G vector (1/distance) = 0.37485688
  grid = 30 30 30
  stencil order = 5
  estimated absolute RMS force accuracy = 0.0032213474
  estimated relative force accuracy = 9.700992e-06
  using double precision FFTW3
  3d grid and FFT values/proc = 3600 512
Last active /omp style is kspace_style pppm/tip4p/omp
Neighbor list info ...
  update every 1 steps, delay 7 steps, check yes
  max neighbors/atom: 2000, page size: 100000
  master list distance cutoff = 10.8154
  ghost atom cutoff = 10.8154
  binsize = 5.4077, bins = 5 5 5
  1 neighbor lists, perpetual/occasional/extra = 1 0 0
  (1) pair lj/cut/tip4p/long/omp, perpetual
      attributes: half, newton on, omp
      pair build: half/bin/newton/omp
      stencil: half/bin/3d
      bin: standard
Per MPI rank memory allocation (min/avg/max) = 9.336 | 9.343 | 9.349 Mbytes
Step Temp PotEng TotEng E_pair E_mol Press Lx Ly Lz Volume Pxx Pyy Pzz Pxy Pxz Pyz Enthalpy 
18000000    310.17403   -8961.3978   -7778.8729   -8961.3978            0    14188.106    24.792693     24.76526    22.971379    14104.369    13969.951    14462.946    14131.422   -416.43245    864.48904   -47.938841   -4860.4114 
18001000     291.7868   -8946.3616   -7833.9373   -8946.3616            0    15228.514    24.852554      25.0868    22.607573    14095.168    16660.096    12208.225     16817.22   -487.72938    21.775585   -392.65569   -4703.5098 
18002000    293.97558   -8942.2281   -7821.4591   -8942.2281            0    15062.979    24.881683    24.669751    22.957654     14091.98    14114.042    16768.469    14306.427     1194.872   -1843.4399    -173.6045   -4725.7596 
18003000    296.13874   -8946.2904   -7817.2744   -8946.2904            0    15435.843    24.944902    24.840692    22.711671    14073.256    13936.999     15470.07     16900.46   -301.07046    706.56725   -387.04841   -4649.1602 
18004000    299.83052     -9022.01   -7878.9193     -9022.01            0    13922.547     24.77227    24.879339     22.90306    14115.561    14039.511    13931.338    13796.791    1568.7948   -912.25741   -503.37805   -5012.8102 
18005000    300.13442   -8965.6146   -7821.3653   -8965.6146            0    12892.247    24.886086    25.038201    22.750855    14176.122    13148.882    12224.038     13303.82    215.75842   -215.83629   -1190.7337    -5155.968 
18006000     301.3958   -8929.7778   -7780.7195   -8929.7778            0    14490.487    24.844852    24.903502    22.817911    14117.985    15304.946    14333.319    13833.194    307.11575    622.59489    7.1737067   -4797.1815 
18007000    293.93123   -8971.6631   -7851.0632   -8971.6631            0    13199.674    25.026829    24.797228    22.809028    14155.191    11882.163    14528.257    13188.602   -507.48045    126.04434   -687.77827   -5126.1364 
18008000    293.97561   -8973.4819   -7852.7128   -8973.4819            0    14607.579    24.943936    24.860312    22.740563    14101.742    12656.982    15604.351    15561.403   -627.46311   -491.18505   -44.719646   -4848.5262 
18009000    305.09915   -8944.9514   -7781.7743   -8944.9514            0    14920.704    24.709099    24.856624    22.981449    14114.856    16995.144    14664.807     13102.16   -1392.2063   -62.236318    188.70987    -4710.337 
18010000    294.76336    -8921.828   -7798.0556    -8921.828            0    15119.555    24.769322     24.97432    22.732064    14061.986    17437.527    12860.785    15060.353    591.66745    779.35642   -144.12346   -4697.3427 
18011000    302.41557   -9000.1547   -7847.2087   -9000.1547            0    13337.645    24.768591    24.911043    22.932663    14149.715    13555.828    14689.776    11767.329    873.61757    1028.8292    658.44905   -5094.8645 
18012000    301.68278   -8938.4398   -7788.2874   -8938.4398            0    12275.776    25.029359    24.909238    22.814092    14223.725    11853.706     12672.42    12301.202    1183.3584    535.67635    3.7060061   -5241.8196 
18013000    297.02178   -8946.5047   -7814.1223   -8946.5047            0    12477.491     24.97969    24.838339    22.932844    14228.775    11541.196    13502.382    12388.894    246.72407    564.00051    599.17118   -5224.8921 
18014000    287.00937   -8979.7313   -7885.5207   -8979.7313            0    14518.118    24.865851    24.887608     22.73691    14070.772    14251.604     14927.44    14375.309    1150.9138    137.65658    991.70791   -4906.2901 
18015000    299.51889   -8983.3687   -7841.4661   -8983.3687            0    13318.636    24.735044    24.986864    22.933715    14174.209    13961.347    11981.382    14013.178     99.05097    51.147874   -23.484192   -5088.2869 
18016000    297.32675   -8954.0598   -7820.5146   -8954.0598            0    13887.412    24.738991    25.057339    22.799691    14133.375    14131.943    13373.884     14156.41   -257.46747    1248.7697    982.46644   -4958.0303 
18017000    297.75522   -8963.3001   -7828.1214   -8963.3001            0    14488.358    24.852939    24.867321    22.819876    14103.277    13558.644    14172.767    15733.664   -659.25211     450.1879   -576.75721   -4848.1293 
18018000    298.98776   -9004.9268   -7865.0491   -9004.9268            0    13659.019    24.975605    24.830325    22.732592    14097.671    11791.665    14665.052    14520.338    325.21968    229.92144     521.0154   -5056.7538 
18019000    301.05963   -8988.4117   -7840.6351   -8988.4117            0    14486.573    24.913835    24.741603    22.892826    14111.326    13574.101    15286.846    14598.773    847.66904   -470.68515   -381.09399   -4859.3096 
18020000    293.62975   -8985.1655    -7865.715   -8985.1655            0    14270.367    24.935198    24.918497    22.709485    14110.486     12702.83    13710.748    16397.524   -2.7208442    629.87819   -410.65815   -4929.0595 
18021000    294.68581   -8969.7583   -7846.2816   -8969.7583            0    15075.065    24.736506    24.917076    22.871226    14096.941    16210.654    14324.082     14690.46    318.97786   -41.767739   -208.32963   -4747.0077 
18022000    297.38405   -8925.5838   -7791.8202   -8925.5838            0    15389.104    24.776002    25.052778    22.677291    14075.969     16045.61    13650.296    16471.407     264.7955   -428.10411    1395.6493   -4632.6899 
18023000    298.00068   -9023.9609   -7887.8464   -9023.9609            0    14329.159    24.774916    24.830415    22.917511    14098.199    14589.775    14683.461    13714.242   -213.88531     596.2927    1039.7209   -4941.6599 
18024000    305.16822   -8923.6318   -7760.1913   -8923.6318            0    13814.914    24.988573    25.057132    22.625941    14167.051    13368.158    13169.359    14907.226    518.79357    149.72273   -340.70444   -4905.8656 
18025000     298.9481   -8971.6257   -7831.8992   -8971.6257            0    13860.874    24.809851    24.857414    22.993112    14180.053    13633.235    14050.487    13898.899   -337.07876   -207.70881   -342.49754   -4965.4493 
18026000    299.80408    -8950.122   -7807.1322    -8950.122            0    13149.689    24.942281    24.948467    22.770468    14169.417    12531.689    13069.199     13848.18   -304.94952    384.59335   -237.33329   -5089.7959 
18027000     293.4411   -8951.7026   -7832.9713   -8951.7026            0    12762.536     24.95297    24.944051    22.827498    14208.477    11663.676    13944.868    12679.062    196.34327    102.66748    798.19248   -5188.3689 
18028000    286.74831   -8960.7625   -7867.5472   -8960.7625            0    13777.822    24.816639    24.933288    22.863649     14147.12    15339.675    12590.791    13403.001    276.34643    361.68859    -686.2709   -5024.8898 
18029000    300.42892   -9012.0517   -7866.6797   -9012.0517            0    12124.554    24.837635    24.934264    22.919518    14194.245    12836.695    11893.491    11643.475   -999.66893   -578.81394    461.58549   -5356.7941 
18030000    299.85467   -8942.0742   -7798.8915   -8942.0742            0    12952.302    24.854346    24.950838     22.89863    14200.282    13715.516    13157.224    11984.167   -10.436898   -165.86479      251.221   -5116.5144 
18031000    302.59069    -8944.852   -7791.2383    -8944.852            0    13045.127    24.983897    24.886047    22.823437    14190.482    12838.912     13228.64    13067.828    -401.2391    470.63873    736.83692   -5091.5021 
18032000    306.17137   -8973.9786   -7806.7137   -8973.9786            0     12873.25    24.784115       24.903    23.011389    14202.602    13065.315    13829.518    11724.918    377.30378    -1291.374    113.05875   -5140.2724 
18033000    298.24591    -8951.178   -7814.1286    -8951.178            0    14182.731    24.807537    24.901054    22.847805    14113.862    14248.178    13967.288    14332.728    1092.0275   -970.98275     222.3642   -4894.8091 
18034000    289.81011   -9004.9064   -7900.0181   -9004.9064            0    13267.289    24.869781    25.011325    22.733182    14140.634    12260.431    12612.491    14928.946     263.0746     121.7013   -1134.2547   -5163.9496 
18035000    288.01882    -9001.643   -7903.5839    -9001.643            0    14721.092    24.897031     24.81587    22.845791    14115.077    14323.725    15633.232     14206.32    191.58317   -842.32683    1254.0932   -4873.1893 
18036000    288.92356   -8954.3974   -7852.8891   -8954.3974            0    13677.231    25.032613    24.786565    22.785122    14137.541    11086.265    15720.319    14225.109   -142.68939    93.030909    1381.5232   -5032.8966 
18037000    293.37191   -8947.8574   -7829.3899   -8947.8574            0    15891.429    24.757211    24.882464      22.8169    14055.676    16299.359    15694.662    15680.267     -1216.62    396.61322   -952.50237   -4571.8438 
18038000    297.61762   -8916.5833   -7781.9292   -8916.5833            0    15963.919    24.887299    24.869584    22.692464      14045.2    16976.812    14915.968    15998.978    809.40219   -377.35365   -507.08779   -4511.9623 
18039000    289.94751   -8951.1606   -7845.7485   -8951.1606            0    15275.942    24.701128    24.719547    23.049388    14073.972    15504.436    16585.223    13738.166   -825.79168     785.4045    -567.2017   -4710.2936 
18040000    299.25481   -8979.4065   -7838.5107   -8979.4065            0    15291.271    24.969938    24.819097    22.666538    14047.163    13625.659    16925.937    15322.217   -694.62667   -1521.4097   -983.18852    -4705.888 
18041000    291.26412   -8987.4144   -7876.9828   -8987.4144            0    14364.251    24.842817    24.742098    22.930537    14094.562    14279.257    15282.046     13531.45    404.99613   -466.43549   -138.26996    -4924.343 
18042000    294.97198    -8970.294   -7845.7263    -8970.294            0    14270.139    24.957036    24.908634    22.727187    14128.258    14249.523    14256.017    14304.876   -1380.3209   -982.02181   -219.44545   -4905.4191 
18043000    292.37396   -8925.8924   -7811.2296   -8925.8924            0    14185.964    24.813128    24.754872    22.998792    14126.912    15097.611    15284.678    12175.602   -92.319992   -556.10378   -1128.7784   -4888.5448 
18044000     307.7479   -9009.0535   -7835.7782   -9009.0535            0    14769.409    24.907986    24.891103    22.678829    14060.585    15571.035    13312.981    15424.212   -1235.5035   -969.51304    1242.6209   -4807.1748 
18045000    289.52897    -9007.619   -7903.8025    -9007.619            0    14551.121    24.804224    24.910995    22.834954     14109.67    14614.752    13360.846    15677.765   -962.54759    -278.9401    1127.1652   -4909.5448 
18046000    306.64669   -8939.7782   -7770.7011   -8939.7782            0     14466.63    25.035223    24.928377    22.617268    14115.154    13689.978    14127.565    15582.345   -49.288558    530.88791    638.31347   -4792.6726 
18047000    300.70364   -8989.0458   -7842.6264   -8989.0458            0    15066.225    24.847663    24.763423      22.8528    14061.629    15826.989    14567.275    14804.409    636.35603    236.31889   -786.14078   -4752.9289 
18048000    295.60758   -8980.5888   -7853.5978   -8980.5888            0    12834.858    24.929481    24.821495    22.893727     14166.34    12594.628        13950    11959.947    -760.1413    51.355597    1019.5697   -5201.8963 
18049000    296.63284    -8937.744   -7806.8443    -8937.744            0    14073.485    24.865205    24.945082      22.7908    14136.326    15078.128    13093.358    14048.968    311.39263   -512.69372   -821.33163    -4905.401 
18050000    302.86741   -8941.5485   -7786.8798   -8941.5485            0    15643.172    24.822327    24.883153    22.763728    14060.193    15543.867    15623.621    15762.027   -293.17314    773.38957   -1345.3022   -4579.1928 
18051000    299.93934   -8969.4407   -7825.9351   -8969.4407            0    14041.982    24.803079    24.865462    22.886941    14115.292    13489.369    13830.752    14805.825    270.10474    230.21127    411.84908   -4935.2939 
18052000    307.27546   -9010.1271   -7838.6529   -9010.1271            0    15045.674    24.845064    24.820637    22.826266     14076.28    16264.534    13707.538    15164.951    533.19415    281.57656   -1023.8968   -4749.9548 
18053000    289.27331   -8935.9964   -7833.1546   -8935.9964            0    16212.367    24.779037    24.873459    22.824954     14067.94    16934.349    15274.366    16428.386   -564.26527   -1068.9514    1305.4155   -4506.9205 
18054000    290.85773   -8914.3345   -7805.4522   -8914.3345            0    14785.739    24.894386    25.026116    22.685303    14133.166    15084.345    13657.177    15615.695   -655.78774   -446.78021   -3.2538264   -4757.8492 
18055000    303.54751   -8959.5404   -7802.2788   -8959.5404            0    14140.404    24.779429    24.887181    22.908072    14127.182    15115.702    15426.844    11878.665    436.33251   -754.81665    230.27476   -4888.9248 
18056000    301.70623   -8928.0563   -7777.8145   -8928.0563            0    16123.257    24.903895    24.791017    22.739847     14039.42    15433.842    16471.292    16464.637    435.97493   -626.48779     994.8995   -4476.5689 
18057000    296.51547   -8952.3375   -7821.8853   -8952.3375            0    15570.383    24.921139    24.729004     22.81812    14062.236    15230.473    15413.052    16067.624   -37.890525   -597.32804   -132.43264     -4628.66 
18058000    293.22689   -8958.1474   -7840.2327   -8958.1474            0    15375.993    24.825112    24.799149    22.870052    14079.757    14545.954    15542.356    16039.668    709.30841   -522.44791    840.22897   -4682.9447 
18059000    295.34749   -8950.5476   -7824.5483   -8950.5476            0    15163.786    24.891592    24.933802    22.679613    14075.921     15922.52    14809.331    14759.507    113.79207      1889.64   -1388.0803   -4711.6827 
18060000    287.81978   -8980.7001   -7883.3999   -8980.7001            0    13635.743    24.778148     24.82976    22.998063    14149.224    14942.351    13832.134    12132.744    601.41531   -531.26547   -1157.4554   -5069.6381 
18061000    295.66389    -8979.024   -7851.8185    -8979.024            0    13801.609     24.73276    25.010491    22.859193    14140.205    15185.565    13348.173    12871.089    400.10388   -369.58837    -113.9316   -5005.6454 
18062000    297.48429   -8965.6467   -7831.5009   -8965.6467            0     14629.77    24.840379    24.913588    22.786478    14101.708     14830.77    15765.029    13293.512    8.2556115   -52.119133    318.79817   -4822.7578 
18063000     300.6402   -8913.3266    -7767.149   -8913.3266            0    14761.102    24.889808    24.831396     22.84596    14119.915    16796.951    14026.331    13460.025    122.44074    367.08877    167.49937   -4727.4766 
18064000    311.19367   -9000.2384   -7813.8262   -9000.2384            0    14623.608    24.842836    24.856927    22.810335     14085.76    13823.232    15344.318    14703.275    -40.68964   -344.32542    714.27022   -4809.7516 
18065000    290.01887   -8990.6261   -7884.9419   -8990.6261            0    13299.824    24.721379    24.919478     22.98904    14162.256    13893.833    12172.611    13833.027     256.8598    -569.1823   -1376.2251     -5137.97 
18066000    302.84066   -8912.0161   -7757.4494   -8912.0161            0    14264.853    24.956301    24.827763     22.84814    14156.916    14432.693    14653.186    13708.682   -1056.0271    -1783.874   -727.68152   -4812.2693 
18067000    290.48581   -8981.3278   -7873.8634   -8981.3278            0    15029.458    24.854675    24.762259    22.844604    14059.892    14694.586    15177.031    15216.758    381.51832   -299.59649   -724.73568   -4792.0864 
18068000    297.47705   -9004.4422    -7870.324   -9004.4422            0    15878.301    24.798248    24.869826    22.815919    14071.219    14575.049     15940.17    17119.682    1809.2342    303.59625    450.20743   -4611.8698 
18069000    298.17335   -9003.5532   -7866.7804   -9003.5532            0    14444.922    24.775663    24.940118    22.781617    14076.942    15222.737     14250.51    13861.518    565.44532   -326.35606    -951.0906   -4901.2702 
18070000    289.49957   -8952.6197   -7848.9153   -8952.6197            0    15145.934     24.66059    24.911277    22.929319    14086.095      15977.6    15915.704    13544.499    1774.6361    340.41376    1.5220292   -4737.4671 
18071000    302.89457   -8979.8647   -7825.0924   -8979.8647            0    14389.972    24.803868    24.964773    22.777252    14104.197    15055.174    13722.682    14392.058    461.00914    689.84246   -1196.9066   -4865.1438 
18072000    296.22768   -8916.6452   -7787.2902   -8916.6452            0    14675.288    24.812846    24.844684    22.898337    14116.076    13762.471    15210.985    15052.407    1335.9324   -621.56932   -730.39521   -4766.1109 
18073000    288.21696   -9017.3019   -7918.4874   -9017.3019            0    13014.509    24.911837    24.825724    22.825216    14116.355    12236.348    14192.263    12614.915    -808.2716   -101.82004    620.02798   -5239.1572 
18074000    302.43462    -8967.301   -7814.2823    -8967.301            0    13597.633    24.877449    24.976637    22.786591    14158.562     13860.46    13355.076    13577.361    50.879448   -153.38163    409.14142   -5006.5329 
18075000    311.58663   -8968.8762   -7780.9659   -8968.8762            0    14941.283    24.734644    24.868638    22.927814    14103.286     15905.83    14720.568    14197.451   -417.77387   -1335.5491   -774.57092   -4707.8135 
18076000     306.9461   -8990.0386   -7819.8201   -8990.0386            0    15818.673    24.795882    24.955956    22.696709    14044.836    16633.395    14299.656    16522.968   -1018.6965    559.48914   -262.34977   -4579.6888 
18077000    301.83588   -9007.0631   -7856.3271   -9007.0631            0     16808.56    24.579704    24.791003     22.97617    14000.655    18879.428    15810.578    15735.675   -924.16546   -268.03654   -31.264691   -4424.2678 
18078000    299.82313   -8931.6521   -7788.5895   -8931.6521            0    14758.859    24.865877    24.955417    22.773849    14132.046     15042.96     15008.04    14225.578    924.63501   -290.52867   -522.41986   -4746.7679 
18079000    293.31852   -8967.0229    -7848.759   -8967.0229            0    15666.682    24.824321    24.702417    22.934923     14064.17    15861.346    15258.187    15880.513    -320.0188   -1784.0368     887.6282   -4635.3425 
18080000    295.77198   -8943.6068   -7815.9891   -8943.6068            0    14553.241    24.928837    24.909773     22.68021    14083.767    12920.615    15591.987     15147.12    764.42532    308.14596     -351.265   -4826.7928 
18081000    302.43573   -8947.4919    -7794.469   -8947.4919            0    15648.542    24.733532    24.820506    23.011441    14126.695    16304.239    16079.357     14562.03    948.73343      142.254     597.2933   -4570.5038 
18082000    291.06149   -8941.3236   -7831.6645   -8941.3236            0    15503.597    24.848509    24.968943    22.684444    14074.359    16477.755    14830.249    15202.787   -122.61039   -1157.4124    59.923139   -4649.3947 
18083000    292.11476    -8998.393   -7884.7183    -8998.393            0    14802.515    24.795357    24.747946    22.944731    14079.671    14539.884    15927.895    13939.767    -424.1321   -625.70066    412.71912   -4845.2059 
18084000    308.36001   -8948.6063   -7772.9973   -8948.6063            0    14857.427    24.946124    24.861932    22.701573    14079.716    14081.149    14682.008    15809.125    960.61813   -80.504563   -546.89413   -4722.1996 
18085000    289.00931   -8960.6247   -7858.7894   -8960.6247            0    14099.084    24.857586    24.798269    22.920571    14128.815    13863.438    14993.525    13440.289    1042.7168    692.44499   -1398.8487   -4953.6128 
18086000    298.04678   -8953.6482   -7817.3579   -8953.6482            0    14033.717    24.908088    25.047551    22.673553    14145.726    14283.168    13229.719    14588.263    140.12629   -1348.7901    1738.5392   -4922.1895 
18087000    295.46008   -8970.1798   -7843.7512   -8970.1798            0    14886.349    24.847692     24.86606    22.798015    14086.077    14915.255     15624.48    14119.313    348.34851    526.00514   -808.40889   -4785.6338 
18088000    306.16178   -8934.3798   -7767.1515   -8934.3798            0    16986.869    24.852165    24.768281    22.773754     14018.28    15905.084    17162.344    17893.179   -652.98389   -313.52473   -238.84341   -4294.3181 
18089000    292.69689   -9002.4945   -7886.6004   -9002.4945            0    15903.792    24.875636    24.740154    22.744763    13997.743    16247.264    16507.579    14956.533    195.52857   -210.81315   -148.96513   -4639.9571 
18090000     300.1087   -8956.4231   -7812.2719   -8956.4231            0    15004.124    24.953978    24.730319    22.835686    14092.354    13911.128    16478.037    14623.205   -126.24002   -843.04627    217.62143   -4728.5864 
18091000    292.26151   -8985.8877   -7871.6535   -8985.8877            0    14624.706    24.856721    24.819791    22.807185    14070.634    14037.295    15781.675    14055.149    500.91454   -629.57112    901.48411   -4870.5796 
18092000    299.87941    -8976.129    -7832.852    -8976.129            0    13360.438    24.771475    24.983445    22.851448    14142.231    14633.425    12764.451    12683.439   -581.97634   -958.26364    606.88035   -5077.2625 
18093000    300.98509   -8973.1945   -7825.7021   -8973.1945            0    13148.658    24.760745    25.013185    22.865633    14161.717    14669.083    12396.375    12380.515    741.21887   -283.27692   -329.25135   -5110.0557 
18094000    296.38592   -8973.5247   -7843.5664   -8973.5247            0    14507.852    24.817091    24.839597    22.867634    14096.674    16114.731    14527.829    12880.995    404.68684   -682.41822   -255.55834    -4860.962 
18095000    280.38103   -8968.8274   -7899.8871   -8968.8274            0    15351.754    24.943011    24.892584    22.628012    14049.642    13572.128    15879.859    16603.274   -424.36024     15.29883    169.35231   -4754.3186 
18096000    299.42717   -8975.6867   -7834.1338   -8975.6867            0     14133.74    24.955706     24.78534    22.825672    14118.492     13153.72    14498.047    14749.453    1241.9501   -417.37194   -33.629653   -4923.9441 
18097000    302.13179   -8970.2801    -7818.416   -8970.2801            0    15511.509    24.810628    24.832504    22.863303     14086.31    15268.829    16134.687    15131.012    -263.0876   -1295.1051   -1030.7681   -4631.8186 
18098000    294.18722   -9022.7548   -7901.1789   -9022.7548            0    14570.631    24.749622    24.873577    22.864044    14075.372    15118.801    14925.979    13667.113    1032.3622   -1113.7292    1254.9238   -4910.1947 
18099000    299.74716   -8947.0122   -7804.2393   -8947.0122            0    14461.912    24.799733    25.015613    22.749218    14113.171    14698.111    13295.208    15392.416   -253.69424   -840.70648   -1162.5702   -4827.6001 
18100000    289.60087   -8962.0116    -7857.921   -8962.0116            0    15406.315    24.809963     24.84177    22.802225    14053.545    15657.036    13511.799    17050.111    -540.1307   -759.24589   -1200.2892   -4700.2959 
18101000    296.70659   -8973.6427   -7842.4618   -8973.6427            0    14963.227     24.86529    24.810596    22.850069    14096.726    14593.113    16005.062    14291.505    407.00379    192.94751    834.34484   -4766.2276 
18102000    300.93048   -8944.1999   -7796.9156   -8944.1999            0    13471.936    24.867099    24.894569    22.915988    14186.273    12561.752    14279.217    13574.841   -284.78803   -49.645845    848.03467   -5009.6765 
18103000     298.3837   -8964.4244   -7826.8496   -8964.4244            0    13119.643    24.805289    24.934003    22.913797    14172.073    13493.453    13613.312    12252.163   -145.49708   -62.323165   -1446.3493   -5115.2144 
18104000    293.85778   -8985.0228   -7864.7029   -8985.0228            0     11939.76    25.010489    24.942914    22.797305    14221.744    13072.414    11202.115    11544.752   -507.63708    202.11732   -418.26712   -5388.2826 
18105000    301.55853   -8965.2061   -7815.5275   -8965.2061            0    13699.822    24.896404    24.770028    22.938281    14145.685    12931.247    14489.813    13678.407    346.70252   -689.98057    1282.6773   -4989.2499 
18106000    298.31735   -8997.4891   -7860.1674   -8997.4891            0    15800.336    25.015205     24.72953    22.692493      14037.9    14621.255     15747.08    17032.674   -171.36501   -506.00405    651.32012   -4625.3903 
18107000    304.15167    -8986.595   -7827.0301    -8986.595            0    14943.621    24.771198    24.798272    22.909625    14072.991    15129.149    15968.843    13732.872    820.55714   -468.59804     567.9194   -4759.9992 
18108000    303.02319   -8976.4963   -7821.2337   -8976.4963            0     14987.27    24.844219    24.871552    22.750725    14057.998     14114.41    15836.772    15010.628    846.05801    401.22274     522.3304   -4748.5214 
18109000    302.52369    -8988.544   -7835.1857    -8988.544            0    14683.014    24.810518    24.893689    22.821243    14094.977    15156.822    14303.923    14588.299    693.07245    763.03683   -1109.0494   -4816.9337 
18110000    293.31209   -8978.4928   -7860.2534   -8978.4928            0    13887.256     24.71195    24.899016    22.961196    14128.098    14133.985    13615.331    13912.451    258.47765     487.8488    956.96968   -4998.8701 
18111000    297.39297   -8974.1117   -7840.3141   -8974.1117            0    12815.157    24.919448    24.884803    22.817108    14149.244    12408.006     12759.67    13277.795     36.26482   -765.63302   -371.41056   -5195.8782 
18112000    296.08775   -8960.1695    -7831.348   -8960.1695            0    13128.921    24.942351    24.841462    22.896261    14186.625     13040.73    12672.648    13673.385   -78.193365   -110.61387    987.38971   -5115.0086 
18113000    299.19798    -8990.289   -7849.6098    -8990.289            0    13515.447    24.960272    24.802133    22.877397    14162.664    12594.854    14574.851    13376.637   -64.963807    454.77768   -202.37917   -5058.0222 
18114000    302.02675   -8906.0262   -7754.5625   -8906.0262            0    15624.018    24.925457    24.800951    22.788335     14087.18     14980.83     15670.99    16220.234   -822.65001   -711.28932   -407.20611   -4544.6538 
18115000      308.072   -8950.0847   -7775.5737   -8950.0847            0     15696.57     24.80484    24.795989     22.85924    14059.817    15803.332     15127.64    16158.737   -976.22493    75.449446   -1343.9208   -4557.0234 
18116000     295.8549   -8973.6962   -7845.7624   -8973.6962            0    15932.209    24.904788    24.737252    22.784225    14036.815    15922.229     16279.28    15595.119    -13.11042   -155.11475    406.65561   -4584.2394 
18117000    298.97331   -9039.7674   -7899.9448   -9039.7674            0    14637.195    24.824472    24.890181     22.77007    14069.298    15251.668    13685.802    14974.115   -223.36528    688.65134   -837.29995   -4896.5933 
18118000    286.50367   -8983.1152   -7890.8326   -8983.1152            0    14865.316    24.783638    24.914313    22.828566    14095.893    14761.043    14376.498    15458.408   -652.96119     89.38169    287.07601   -4834.9078 
18119000    298.08176   -8961.5998   -7825.1762   -8961.5998            0    14626.526    24.808643      24.8549    22.897096    14118.724    15837.464    13053.903    14988.211    -929.7422    578.60317    728.79022   -4813.4707 
18120000    286.98559    -8937.954    -7843.834    -8937.954            0    14622.939    24.862122    24.903281    22.823711    14131.265    14830.199     14902.85    14135.767    118.75039    -589.3401   -510.61876   -4830.1926 
18121000    294.93003   -8989.8821   -7865.4743   -8989.8821            0    13323.347    24.880079    24.925266    22.822501    14153.205    13946.422    12748.852    13274.766   -989.35986   -419.59364    269.28232   -5115.4027 
18122000    292.61715   -8934.1568   -7818.5668   -8934.1568            0    13820.411     24.72789    25.038542    22.866086    14157.544    14990.976    12569.301    13900.955    -79.43426   -784.11745    835.92368   -4965.0216 
18123000    295.61556   -8992.4771   -7865.4558   -8992.4771            0    14408.994    24.924855    24.845059    22.777816    14105.379    13713.294     14096.51    15417.178    228.54644    851.61036    1455.1879   -4901.3458 
18124000    297.81541   -8938.8499   -7803.4418   -8938.8499            0     13979.24    25.020978    24.689325     22.95332    14179.438    13706.161    15220.653    13010.905    1019.5524    397.14261    802.23471    -4912.639 
18125000     298.3233   -8904.5711   -7767.2266   -8904.5711            0    15540.256    24.838059    24.838926    22.800127    14066.555    16100.293    15668.451    14852.023    606.88993     463.1335   -953.97572   -4579.2011 
18126000    300.45452   -8964.0451   -7818.5754   -8964.0451            0    15804.035    24.710252    24.853097    22.838844    14025.935    15321.907    16355.048    15735.149    88.906964   -254.30582   -226.49834   -4585.7988 
18127000    303.56197   -8950.8628   -7793.5462   -8950.8628            0    15132.043     24.81346    24.875037    22.738786    14035.191    15398.442    15313.206    14684.481     48.34462   -435.46642   -439.98945   -4696.1855 
18128000    292.63592   -8945.5453   -7829.8837   -8945.5453            0     15759.88     24.67472    24.832423    22.957983    14067.116    16893.829    15628.936    14756.874    28.542923   -403.51338   -1844.1143   -4596.6742 
18129000    294.99373   -8933.6537   -7809.0031   -8933.6537            0    14848.038    24.926623    24.880498     22.76549    14118.856    15123.534    14766.839    14653.739    498.92249    633.68524    -444.1245   -4751.6579 
18130000    295.06857   -8991.9195   -7866.9835   -8991.9195            0    15463.799    24.867316    24.773397    22.830028    14064.391     16690.21    14572.085    15129.103   -436.42108    485.94761    685.94308   -4695.1308 
18131000    295.72508   -8995.1224   -7867.6835   -8995.1224            0    15899.747    24.825466    24.855043    22.757257    14042.093    15855.873    15380.261    16463.108   -730.29815   -479.26686   -1888.5518   -4611.5818 
18132000    293.35711   -8952.0648   -7833.6537   -8952.0648            0    14342.075    24.809843    24.890629    22.854555    14113.432    14188.602     14266.72    14570.903    478.17024   -95.629409   -402.19004   -4881.6253 
18133000    297.53872   -8987.3706   -7853.0173   -8987.3706            0    12570.525    24.894826    24.823049    22.941378     14176.98    11240.243      13267.2    13204.131    -775.8668    137.48902    1351.9058   -5253.9768 
18134000    300.11791   -9035.7068   -7891.5205   -9035.7068            0    13143.131    24.913115     24.89685    22.777127    14127.697    13052.997    12721.916     13654.48   -887.02004   -203.12149   -634.67908   -5183.5365 
18135000    288.39154   -8997.7554   -7898.2753   -8997.7554            0    14679.999    24.833696     24.72803    22.926918    14079.154    13998.762    15777.564    14263.671   -205.08034    303.98288     546.8041   -4884.0309 
18136000    298.27228   -8973.5732   -7836.4233   -8973.5732            0    13677.455    24.968062    24.922502    22.713148    14133.633    15559.322    13828.307    11644.737     -270.958   -351.58859    672.17936   -5017.1641 
18137000    288.12344   -8960.2191   -7861.7612   -8960.2191            0    15641.584    24.853902    24.779178    22.866458     14082.52    15165.295    15637.795    16121.662    53.005428   -591.24907    1097.5531   -4649.3066 
18138000    303.02969   -8979.3568   -7824.0694   -8979.3568            0    14593.808    24.946694    24.861843     22.71394    14087.658    12976.306    16633.322    14171.795    215.89732   -541.63984   -233.93497   -4825.7126 
18139000    290.92497   -8981.7098   -7872.5711   -8981.7098            0    15683.123    24.785682     24.79273    22.850549     14041.77    14930.997    15900.305    16218.066   -30.946456    -369.0649    1495.3017   -4660.9058 
18140000    295.55285   -8957.5425   -7830.7602   -8957.5425            0    15271.751    24.816881    24.821707    22.854477    14078.297    16469.174    14814.875    14531.203    737.81651    1652.5031    117.76105   -4695.2022 
18141000    289.22176   -8989.0586   -7886.4134   -8989.0586            0    12635.119    24.895362    24.943169    22.762436    14134.773    12324.611     12499.81    13080.936   -576.34053    1235.2136   -29.498024   -5281.7953 
18142000    295.21293   -9013.0207   -7887.5344   -9013.0207            0    13832.223    24.702192    24.930671    22.898259    14101.714    14922.484    13806.661    12767.523   -82.861708    552.76348    220.27164   -5042.8129 
18143000    302.19336   -8986.1211   -7834.0222   -8986.1211            0    15095.045    24.687628     25.05082    22.764748    14078.752    15604.239    13438.828    16242.067   -329.89938   -275.23722    333.90007   -4734.6448 
18144000    294.38463   -8956.4197   -7834.0912   -8956.4197            0    15227.656    24.855703    24.874459    22.777817     14082.89    16926.776    13569.304    15186.888    232.54879    881.28551    599.83464   -4706.5665 
18145000     311.9208   -8948.0402   -7758.8559   -8948.0402            0    14790.472    24.843968    24.722307    22.948211    14094.796    14131.248    16730.087    13510.081    454.14942    -764.0626    497.70812   -4718.5539 
18146000    301.35273   -9009.5813   -7860.6873   -9009.5813            0    13452.848    25.018891    24.864829    22.702926    14123.273    13841.373    13377.034    13140.137   -579.25988   -1274.1045    82.692558   -5089.7577 
18147000    293.07178   -8952.3797   -7835.0565   -8952.3797            0    15202.555     24.82475    24.769253    22.896091    14078.589    14119.364    17339.189    14149.111   -452.82156    348.75322   -265.80737   -4713.6409 
18148000    287.79597    -8984.031   -7886.8215    -8984.031            0    15162.138    24.874991    24.811982    22.809712    14078.104    14413.023    15285.685    15787.706    436.84445    390.51439    439.84075   -4773.8116 
18149000     298.6962   -8965.3042   -7826.5381   -8965.3042            0    13972.177    24.884634    24.925389    22.806414    14145.888    12503.506     15457.52    13955.504    276.53629    -419.1579   -852.18601   -4944.0325 
18150000    291.26805   -8967.9657   -7857.5191   -8967.9657            0    14244.281    24.862007    24.896713    22.780536    14100.747    14652.356    14824.644    13255.845   -385.44753    1246.4344   -432.37766   -4928.2548 
18151000    295.63681   -8951.6282   -7824.5259   -8951.6282            0    14498.364    24.922201    24.850621    22.793525    14116.763    13418.949    14547.309    15528.833    1187.4943    450.78566    411.48039   -4839.6243 
18152000    290.12716   -8977.0168   -7870.9198   -8977.0168            0    13439.453    24.849038    24.731781    22.975504    14119.848     12834.25    15665.182    11818.926   -132.69532   -756.36464    678.57151   -5103.4206 
18153000    299.30117   -8968.6531   -7827.5805   -8968.6531            0    12689.131    24.976095    24.959249    22.703119    14152.774    12452.944     11715.22    13899.229    466.58793    735.28327    579.20523   -5208.4971 
18154000    281.82693   -8950.8339   -7876.3811   -8950.8339            0    14170.167    24.818677    24.734635    23.005557    14122.672    13478.286    15382.861    13649.355    190.61771    939.55527   -666.34352    -4957.827 
18155000    302.66865   -8997.9407   -7844.0298   -8997.9407            0      14401.2    24.908554    25.058502     22.57376    14089.887    13776.114    12960.398    16467.088   -871.15437   -531.02329    108.33665   -4884.7768 
18156000    292.36358   -9059.3989   -7944.7756   -9059.3989            0    14356.054    24.720788    24.881036    22.876424    14070.804    14015.373    14382.392    14670.395    282.66289    803.43999    589.11716    -4998.795 
18157000     295.7433   -8976.4098   -7848.9015   -8976.4098            0    14011.037    24.817283    24.888028    22.848445    14112.416    14401.509    13606.251    14025.352    558.42723    1107.9139   -140.40835   -4965.2182 
18158000    298.17953   -8966.7835   -7829.9872   -8966.7835            0    13482.241    24.948711    24.847275    22.840158    14158.785    12927.682    13917.908    13601.133   -558.84724    1467.3809    281.27063   -5046.0211 
18159000     296.5136   -8941.5877   -7811.1426   -8941.5877            0    13482.903    25.020561     24.79932     22.80854    14152.537    13032.401    14316.154    13100.155   -70.388696    977.50332   -26.424836   -5028.2682 
18160000    293.74876   -8959.6342   -7839.7299   -8959.6342            0    14830.105    24.839786    24.939112    22.761337    14100.243    14530.764    15446.208    14513.344    276.70486      62.1933    443.28028   -4790.1029 
18161000    294.48128   -8997.8913   -7875.1943   -8997.8913            0    16144.848    24.579398    24.922703    22.845879    13995.044    17777.213    13461.119    17196.212    196.69189    276.69411    968.02734   -4579.9767 
18162000     293.3661   -8960.9243   -7842.4789   -8960.9243            0    14421.486    24.891563    24.863286    22.825399    14126.321    14510.614     13940.76    14813.084    772.29941   -387.10595   -926.61951   -4871.3947 
18163000    302.37815   -8971.0367   -7818.2333   -8971.0367            0    13645.799    24.883467    24.955076    22.750279    14127.213    14226.685    12404.131    14306.582   -196.69617    516.70627    79.162006   -5006.7769 
18164000    297.61778   -8996.8988   -7862.2441   -8996.8988            0    14164.977    24.766401    24.922703    22.834062    14094.226    14116.791     13966.64      14411.5    600.36967   -894.77342    125.54293   -4950.6356 
18165000    287.56204   -8930.6593   -7834.3416   -8930.6593            0    15420.975    24.698889    24.993302    22.770263    14056.238    17191.355    14220.273    14851.297   -1113.8943   -702.77114   -71.892127   -4673.1063 
18166000    309.85115   -8978.5117   -7797.2178   -8978.5117            0     14320.47    24.787066    24.897875    22.860561    14108.287    14203.251    14675.104    14083.056    1408.2841    1311.3351    99.649024    -4850.711 
18167000    289.94455   -9022.9604   -7917.5595   -9022.9604            0    13152.414    24.997481    24.772492    22.849606    14149.617    12099.967     14223.24    13134.035   -170.06958   -321.65047    1025.1185   -5203.4584 
18168000    296.85546   -8920.3585   -7788.6102   -8920.3585            0    14334.553    24.982861    24.782096    22.875869    14163.083    12776.443    16626.371    13600.846   -731.01491    19.274536    283.84577   -4827.7503 
18169000    296.43995   -8957.4339   -7827.2696   -8957.4339            0     14183.32    24.873841    24.945006    22.748436    14114.907    12615.644    15573.519    14360.797    -42.01136    1226.1547   -469.27811   -4907.6128 
18170000    286.62508   -8939.7758   -7847.0303   -8939.7758            0    14851.444    24.657024    24.933299    22.944717    14105.975    17220.247    14114.057    13220.028    818.14892    195.62041   -1563.4863   -4791.7738 
18171000    293.87576    -8967.472   -7847.0835    -8967.472            0    15362.186    24.884711    24.978129     22.61037    14054.007    15991.061    14088.864    16006.634    482.08144   -976.03913   -466.06668   -4698.3995 
18172000      289.694   -8942.6612   -7838.2156   -8942.6612            0    15993.516    24.733942    24.740646    22.974105    14058.629    16460.176    16941.162    14579.209    -794.9073   -254.09105    681.03544   -4559.0541 
18173000    291.26681   -8932.3503   -7821.9084   -8932.3503            0    15542.181    24.836497    24.866691    22.746916     14048.53    16142.812    13643.697    16840.034   -100.89471    -873.3091     367.1129   -4637.5735 
18174000    290.51861   -8971.4879   -7863.8985   -8971.4879            0    15461.969     24.82371    24.846674    22.810426    14069.165     15315.71    16444.548    14625.649    607.45932    455.71192    993.05361   -4691.3445 
18175000    293.94899   -8954.4464   -7833.7788   -8954.4464            0    16281.002    24.787985    24.775677    22.874487    14048.117     17218.68    16204.614     15419.71   -407.39215   -121.22756    142.94137   -4498.1698 
18176000    290.30955   -8962.0868   -7855.2944   -8962.0868            0    16542.469    24.860954    24.840116    22.689026    14011.585    16832.443    17070.915     15724.05   -229.35573   -1290.2896    -834.8695   -4474.9302 
18177000    291.82064   -8948.1119   -7835.5585   -8948.1119            0    14831.553    24.896514    24.694262    22.983293    14130.152    13656.523    16071.793    14766.343   -1112.7343   -625.71542    107.96664   -4779.1644 
18178000    296.32068   -8979.7357   -7850.0262   -8979.7357            0    13954.715    24.922752    24.797967    22.874762    14137.371    12014.325    15529.884    14319.936     366.9537   -955.42314   -656.70458   -4972.8562 
18179000    291.81038   -8985.9001   -7873.3858   -8985.9001            0    11855.483    25.020602    24.909686    22.784297    14200.435    11063.398    12089.288    12413.761   -323.67296   -396.11931   -294.64039   -5418.1299 
18180000    295.40759   -9013.8972   -7887.6688   -9013.8972            0    13217.904    24.929029    24.833524    22.834251    14136.129    13637.034    12966.467    13050.212   -153.56954   -442.01462    547.82038   -5162.6531 
18181000    294.58017   -8965.1376   -7842.0637   -8965.1376            0    15185.622    24.895585    24.828929    22.779496    14080.706    14607.791    14664.538    16284.535    1965.4724   -406.70049    377.99963    -4723.656 
18182000    305.50185   -8955.5382   -7790.8258   -8955.5382            0    15312.534    24.803495    24.874824    22.815968    14077.054    15417.362    15634.508    14885.733   -439.27725   -705.18056    274.98146   -4647.1718 
18183000    292.46501   -8959.7772   -7844.7672   -8959.7772            0    13766.174    24.751922    24.966907    22.865061    14130.126    15036.242    12613.443    13648.837    841.55564   -298.52615    777.19414   -5007.9249 
18184000    305.11557   -8994.5418   -7831.3021   -8994.5418            0    14264.208    24.811271    24.995648    22.739603    14102.506    14364.389    14043.425     14384.81    948.80667    611.55562     1101.204   -4897.5741 
18185000     301.8117   -8908.7764   -7758.1326   -8908.7764            0    16550.605    24.736096    24.774025    22.920769    14046.138    17245.215    17296.714    15109.884    916.18062   -755.02513    1438.5185   -4367.7659 
18186000     307.3426   -8959.7933   -7788.0631   -8959.7933            0    14512.061    24.957975    24.857523    22.704883    14085.961    13748.205     15269.08    14518.899    -74.78799    173.73273    23.597054   -4806.8607 
18187000    294.64355   -9032.4412   -7909.1256   -9032.4412            0    13283.959    24.889877    24.776236    22.933352    14142.481    13890.005    13399.384    12562.489   -42.634743   -284.92291    561.52586   -5169.2614 
18188000    302.65166   -8951.5288   -7797.6826   -8951.5288            0    14840.987    25.027272    24.824993    22.711504      14110.7    12552.461    16760.874    15209.625   -284.27942   -877.07575    1373.1254   -4743.5548 
18189000     285.9641    -8997.493   -7907.2674    -8997.493            0    14502.283    24.794151    24.797618    22.945729    14107.858    14687.787    15025.291    13793.771    433.34061    344.34641    270.72254   -4923.4424 
18190000    306.06819   -8958.4432   -7791.5717   -8958.4432            0    13263.548    24.912715    24.975545     22.73463    14145.683    14202.037    11832.426    13756.181    204.20859   -994.18748    661.65326    -5055.298 
18191000    305.07005   -9008.6125   -7845.5464   -9008.6125            0    13129.778    24.742641    24.815906    23.073932    14167.649    14033.773     13579.58     11775.98    1184.1848   -261.89297   -1530.9165   -5132.6635 
18192000    294.96818    -8930.833   -7806.2798    -8930.833            0    14452.182    25.022994    24.856393     22.70628    14122.883    13328.494    15855.861     14172.19    1184.2155   -293.79564   -725.85163   -4829.5962 
18193000    290.94908   -8956.9954   -7847.7648   -8956.9954            0    14912.571    24.778879    24.799692     22.92772     14089.28    15806.371    15278.067    13653.276   -445.80168     377.7229     785.6404   -4783.5641 
18194000    294.18069   -8976.6445   -7855.0936   -8976.6445            0    14295.535    24.807982    24.990325    22.817387    14145.856    15185.229    13303.838    14397.539    323.99681   -261.67641    79.420106   -4905.8845 
18195000    290.37312   -8946.9792   -7839.9445   -8946.9792            0    14894.973    24.841238    24.929505    22.756311    14092.524    15417.339    15246.105    14021.476   -372.79472   -618.05516    -1200.842   -4778.6551 
18196000    309.33871   -8993.9422    -7814.602   -8993.9422            0    14340.568    24.800983    24.857053    22.876314    14102.776    13698.853    14708.179     14614.67    687.92963   -623.38632    379.04477   -4865.1127 
18197000    295.20698   -8969.9104   -7844.4468   -8969.9104            0    12917.707    24.958962    24.958639    22.790555    14197.188     13029.91    11865.253    13857.957    -76.23896   -40.339277   -1384.0905   -5169.8173 
18198000    300.34494   -8968.3389    -7823.287   -8968.3389            0    13439.166    24.879865     24.85478    22.887212    14153.076    11901.095    14493.437    13922.966   -649.20515    29.007175    935.68749   -5049.3343 
18199000    295.14349   -8930.0808   -7804.8592   -8930.0808            0    13525.371    25.067941     24.84756    22.732843    14159.769    13050.727    13780.713    13744.674    352.01187    49.511549   -148.75408   -5011.7928 
18200000    302.15874   -8997.4056   -7845.4386   -8997.4056            0    13638.843     24.89255    24.765676    22.874757    14101.849     13846.45    14023.515    13046.562    252.35114    103.41525    82.604905   -5040.4605 
18201000    296.74138   -8910.9814   -7779.6679   -8910.9814            0    16127.865    24.960612     24.77176    22.730089     14054.43    13801.113    16704.626    17877.856    -239.8388   -660.20368   -314.54588   -4473.9484 
18202000    300.32138   -8986.5829   -7841.6208   -8986.5829            0    14919.215    24.849827    24.873598    22.749772    14061.739    15036.651    14770.782    14950.212   -460.51181    718.66807    438.84288   -4782.0473 
18203000    295.38795   -8999.4505    -7873.297   -8999.4505            0    15284.117    24.649279    24.914897    22.905785    14067.227    16252.341    14218.266    15381.745   -455.84702   -537.86257    532.95512   -4737.6674 
18204000    290.92321   -8919.1985   -7810.0666   -8919.1985            0    14955.222    24.781557    24.942448    22.831644    14112.529    15724.676    15965.495    13175.493    52.408226   -9.6489971    99.947173   -4732.0313 
18205000    285.31129   -8959.7709   -7872.0341   -8959.7709            0    14569.037    24.871952     24.84803    22.786497    14082.489    14988.896    14167.314    14550.901   -1798.3045   -67.239752   -1111.6296   -4879.8649 
18206000    290.77007   -9047.4806   -7938.9325   -9047.4806            0    14069.127    24.849143    24.741803    22.896493    14077.052    14911.071    15264.185    12032.126    438.04538   -233.38698    1475.1862   -5050.5496 
18207000    296.09258   -8960.3689   -7831.5289   -8960.3689            0     14895.62    25.047908    24.781858    22.698131    14089.495    13543.477    15336.708    15806.675    1028.9021   -229.89594   -1121.1403   -4770.7646 
18208000    295.93381   -8960.2328   -7831.9982   -8960.2328            0     14358.91    24.851615    24.852557    22.859437    14118.587    14595.765    14212.682    14268.283     538.8308    289.51128    52.220731   -4875.4253 
18209000    286.82401   -8890.4258   -7796.9219   -8890.4258            0    13143.721    24.958252    24.964749    22.755288    14178.284    13213.944    12549.217    13668.002    1280.9866    209.47862     468.2866   -5079.1193 
18210000     298.7979    -8963.342   -7824.1881    -8963.342            0    14723.144    24.841175    24.827724    22.872328    14106.505    14011.756    15283.945    14873.732    104.34804    184.98058   -329.18847   -4795.2118 
18211000    293.89262   -8938.4525   -7817.9998   -8938.4525            0    12660.458     24.94392    24.839343    22.957531     14224.27    11491.014    13975.083    12515.278    150.11743   -40.965234   -431.85874   -5191.6335 
18212000    290.70193   -8974.0184   -7865.7301   -8974.0184            0    13613.786    24.838776    24.933305    22.856506    14155.327    14008.695    13831.019    13001.644   -15.064529    354.18758    171.41937   -5055.2876 
18213000    297.34661   -9002.1091   -7868.4882   -9002.1091            0    13982.429    24.751943    24.868698    22.986216    14149.133    13515.549    14840.349    13591.387    271.56941   -413.58215   -118.54379   -4983.2057 
18214000    299.62936   -8945.7227   -7803.3989   -8945.7227            0    15498.071    24.825573    24.910721    22.728057    14055.551    15690.568    14745.284     16058.36    1.0625951     70.79256   -190.37015   -4626.5144 
18215000    290.67731   -8954.9017   -7846.7072   -8954.9017            0    16450.729    24.728677    24.771482    22.912713    14035.548    16635.765    16901.694    15814.728    373.84936   -1615.2659    879.65634   -4479.3405 
18216000    296.98543   -9009.9593   -7877.7154   -9009.9593            0    14369.471    24.930755    24.847233    22.703067    14063.648    14315.205    14528.027    14265.181   -1.1342944   -249.25217   -36.194038   -4930.4812 
18217000    299.22948   -8942.7786   -7801.9793   -8942.7786            0    15540.442    24.922683    24.767625    22.807082    14078.257    14139.623    15790.644    16691.058   -199.14101    60.907507   -5.5779006   -4611.2635 
18218000    296.66806   -8945.8733   -7814.8394   -8945.8733            0    16524.133    24.819821    24.824904    22.769652    14029.513    15117.994    16066.929    18387.477    665.42438   -634.20712    947.83737   -4433.9015 
18219000    295.58529   -8992.1165   -7865.2106   -8992.1165            0    14926.899    24.738204    24.915895     22.82522    14068.883    14666.908    15787.336    14326.454    715.87711    744.34971   -304.66269   -4802.5059 
18220000    291.31572   -8963.8717   -7853.2433   -8963.8717            0    14443.946    24.845528    24.943472    22.805771    14133.505    14594.668    14376.872    14360.297    262.85571    2110.1639   -489.82148   -4876.0185 
18221000    301.07819   -8983.5607   -7835.7133   -8983.5607            0    14861.116    24.744123    24.812293    22.954703    14093.233    16979.084    13824.659    13779.607   -1.5472795   -466.69517    480.07338   -4781.2285 
18222000     287.2373   -8951.3659   -7856.2863   -8951.3659            0    15101.356    24.737686    24.964507     22.74288    14045.188    14755.568    14795.816    15752.684   -373.87291   -2028.2296   -247.42943   -4763.0053 
18223000    294.97898   -8957.6933   -7833.0988   -8957.6933            0    15294.321    24.796443    24.803634    22.860494    14060.161    14905.053    16274.378    14703.532    623.46717   -1308.1626   -203.99832    -4696.952 
18224000    298.41131   -8885.6433   -7747.9633   -8885.6433            0    16910.373    24.983876    24.748441    22.694233    14032.116    16789.759    16580.156    17361.204    368.25364   -1092.6485    452.03571   -4287.3566 
18225000    302.12012   -9019.7747    -7867.955   -9019.7747            0    14275.302     24.91215    24.751981    22.896817    14118.751    13428.053    15625.725    13772.128    371.66247    1006.3051   -322.78048   -4928.5633 
18226000    289.31303   -8950.7802    -7847.787   -8950.7802            0    14352.877    24.965216    24.899354    22.729424    14129.013    14214.189    13652.085    15192.356    491.76495   -650.72906    449.71074    -4890.274 
18227000    298.39525   -8952.9342   -7815.3154   -8952.9342            0    13799.429    24.798371    24.913278    22.942847    14174.291    14223.124    13224.048    13951.114    1148.8588   -676.82911    1696.8247   -4962.7321 
18228000    298.50783   -8949.5778   -7811.5298   -8949.5778            0    14133.629    24.904536    25.006649    22.668316     14117.35    14847.612    12867.421    14685.853   -238.12051    56.390353   -118.76211   -4901.5983 
18229000    291.05147     -8965.19    -7855.569     -8965.19            0    14465.645    24.848492    24.812186    22.862133    14095.543    14091.211    15651.927    13653.798   -303.07783      1098.42   -633.88929   -4881.8804 
18230000    302.85262   -8974.1152   -7819.5029   -8974.1152            0    14276.283    24.936977    24.898618    22.747401    14123.777    13550.213    14411.247     14867.39   -943.20402    713.04639    1821.8263   -4878.8626 
18231000    301.09569   -8949.6222   -7801.7081   -8949.6222            0    14130.367    24.837569    24.917768    22.851734    14142.865    14590.231    13325.344    14475.528    1495.7987   -511.19302   -2017.2913   -4887.1901 
18232000    300.61725    -8969.036   -7822.9459    -8969.036            0    14191.239    24.869713    24.834954    22.817748    14093.112    13156.922     15467.04    13949.754    498.31207   -825.20331   -444.90271   -4906.1697 
18233000    291.93358   -8900.5368   -7787.5528   -8900.5368            0    16293.544    24.948216    24.799358    22.702365    14045.947    15319.108    17224.859    16336.665   -404.39847     623.8396    274.51738     -4449.89 
18234000    305.71137   -8983.4778   -7817.9667   -8983.4778            0      15010.3    24.795544    24.922598    22.780329    14077.545    13364.818    16363.896    15302.186    331.21942    489.72906    207.13968   -4736.2537 
18235000    294.01961   -8996.5769     -7875.64   -8996.5769            0    14304.596     24.78754    25.000308     22.70843    14072.326    16022.307    12157.275    14734.206    138.62929   -1203.1707   -559.70977   -4939.9014 
18236000    310.89059   -8995.6403   -7810.3836   -8995.6403            0    15375.981    24.816395    24.814839    22.825963    14056.567    15201.685    15767.441    15158.818   -409.77427   -401.55008    1275.6975    -4658.298 
18237000    305.21574   -9001.8923   -7838.2707   -9001.8923            0    15641.073    24.823799    24.824772    22.728835    14006.534    15340.493     15575.08    16007.646   -1106.1436     274.6059     379.4745   -4643.2541 
18238000    309.54628   -8937.7154   -7757.5838   -8937.7154            0    14620.941    25.088321    24.763371    22.716861    14113.336    13659.946    15938.568    14264.308   -127.42475   -928.19008    133.51802   -4748.1772 
18239000    302.67579   -8971.8886   -7817.9504   -8971.8886            0    15052.155    24.816359     24.84596     22.87407    14103.837    13945.055    14981.747    16229.664    199.69632   -44.368279   -2053.9789   -4721.8727 
18240000    309.91589   -8986.9858   -7805.4451   -8986.9858            0    13549.391     24.93156    24.979704    22.742832    14163.849    13068.511    13100.705    14478.956   -386.47948   -791.35374    1082.5359   -5006.6123 
18241000    304.32652   -8980.4168   -7820.1854   -8980.4168            0    14722.413    24.813997    24.778182    22.918971    14091.632    14177.583    16440.969    13548.688   -173.41749   -401.99357    138.92969   -4794.5528 
18242000    302.19649   -8937.2411   -7785.1302   -8937.2411            0    15256.482     24.94524    24.833742    22.723338    14076.736    14791.049    15380.553    15597.843   -801.03131    517.87673   -1097.2442   -4653.0544 
18243000    301.83289   -8985.2118   -7834.4872   -8985.2118            0    14022.234    24.942856    24.717474    22.887157    14110.491    13275.065    14870.363    13921.274   -792.69338    835.34039    591.84864   -4948.8932 
18244000    291.00441   -8978.5216     -7869.08   -8978.5216            0     12982.41    24.924346    24.931794    22.779765    14155.544    12662.214    13492.612    12792.404   -395.62927   -913.36298   -34.578377   -5188.9383 
18245000    298.40877    -8966.742   -7829.0717    -8966.742            0    14521.685    24.802688    24.935984    22.866853    14142.679    14420.849    14924.743    14219.462   -961.50967    743.61258   -293.22961   -4833.8804 
18246000    294.10351   -8978.0387   -7856.7819   -8978.0387            0    14155.468     24.74516     25.01847    22.780179    14102.891    13939.124    14978.998    13548.281   -182.00795   -1257.8498    81.185908   -4945.3392 
18247000    295.93369    -8912.409   -7784.1748    -8912.409            0    15231.988    24.842926    24.852546    22.864564     14116.81    15808.724    14434.787    15452.452    1380.6725    99.819227    831.50126   -4648.2255 
18248000    296.06299   -9026.7152    -7897.988   -9026.7152            0    12931.022    25.066133    24.847051    22.753624      14171.4    12961.243    13587.206    12244.615    539.04381   -230.02496    177.70059   -5225.4648 
18249000    287.28804    -9006.584    -7911.311    -9006.584            0    14495.752    24.855827    24.841091    22.804168    14080.339    13237.561     15466.46    14783.235    81.061082    -1028.375   -1200.0135   -4934.6474 
18250000    305.11785   -8972.6071   -7809.3587   -8972.6071            0    13741.075    24.859705    24.986119    22.750604    14131.482    14478.339    11874.553    14870.333    77.338396   -1066.8454    448.79312    -4977.417 
Loop time of 629.148 on 64 procs for 250000 steps with 1920 atoms

Performance: 68.664 ns/day, 0.350 hours/ns, 397.363 timesteps/s
99.2% CPU use with 64 MPI tasks x 1 OpenMP threads

MPI task timing breakdown:
Section |  min time  |  avg time  |  max time  |%varavg| %total
---------------------------------------------------------------
Pair    | 65.298     | 67.753     | 69.665     |  12.7 | 10.77
Bond    | 0.28059    | 0.28828    | 0.30514    |   1.0 |  0.05
Kspace  | 275.59     | 287.41     | 302.71     |  35.7 | 45.68
Neigh   | 8.6914     | 9.9572     | 12.024     |  27.5 |  1.58
Comm    | 105.36     | 122.35     | 138.24     |  67.3 | 19.45
Output  | 1.2082     | 1.2101     | 1.213      |   0.1 |  0.19
Modify  | 125.07     | 132.4      | 136.48     |  23.1 | 21.04
Other   |            | 7.782      |            |       |  1.24

Nlocal:        30.0000 ave          34 max          27 min
Histogram: 2 7 18 0 14 13 0 6 3 1
Nghost:        2852.80 ave        2873 max        2829 min
Histogram: 2 4 9 5 7 9 8 8 8 4
Neighs:        10755.3 ave       12223 max        9520 min
Histogram: 2 6 6 10 14 12 8 2 2 2

Total # of neighbors = 688337
Ave neighs/atom = 358.50885
Ave special neighs/atom = 2.0000000
Neighbor list builds = 15015
Dangerous builds = 6

unfix		3
unfix		2
unfix		1

write_data	data.final.${pid}
write_data	data.final.0
System init for write_data ...
PPPM initialization ...
  extracting TIP4P info from pair style
  using 12-bit tables for long-range coulomb (../kspace.cpp:340)
  G vector (1/distance) = 0.374669
  grid = 30 30 30
  stencil order = 5
  estimated absolute RMS force accuracy = 0.0032513087
  estimated relative force accuracy = 9.7912195e-06
  using double precision FFTW3
  3d grid and FFT values/proc = 3600 512
Last active /omp style is kspace_style pppm/tip4p/omp
WARNING: Not all mixed pair coeffs generated from mixing. Use write_data with 'pair ij' option to store all pair coeffs. (../write_data.cpp:312)

write_restart   restart.lmp.${pid}
write_restart   restart.lmp.0
System init for write_restart ...
PPPM initialization ...
  extracting TIP4P info from pair style
  using 12-bit tables for long-range coulomb (../kspace.cpp:340)
  G vector (1/distance) = 0.374669
  grid = 30 30 30
  stencil order = 5
  estimated absolute RMS force accuracy = 0.0032513087
  estimated relative force accuracy = 9.7912195e-06
  using double precision FFTW3
  3d grid and FFT values/proc = 3600 512
Last active /omp style is kspace_style pppm/tip4p/omp
Total wall time: 0:10:31
