LAMMPS (30 Jul 2021)
  using 1 OpenMP thread(s) per MPI task
package omp 0
using multi-threaded neighbor list subroutines
echo both

include		in.partitions
variable        pid world 0
include		in.temp
variable        temperature equal 226.21
variable	tempDamp equal 100.0
include		in.pressure
variable        pressure equal 2750.0
variable        pressureDamp equal 1000.0 # This is 1 ps
include		in.seed
variable        seed world 745823

units		real
atom_style	full
read_restart    restart.lmp.${pid}
read_restart    restart.lmp.0
Reading restart file ...
  restart file = 30 Jul 2021, LAMMPS = 30 Jul 2021
  restoring atom style full from restart
  triclinic box = (-3.2361543 -0.25288344 -0.11525728) to (14.846153 22.832882 19.345255) with tilt (-0.15670840 -6.8325039 -0.0060267777)
  4 by 4 by 4 MPI processor grid
  restoring pair style lj/cut/tip4p/long/omp from restart
  restoring bond style harmonic/omp from restart
  restoring angle style harmonic/omp from restart
  1008 atoms
  672 bonds
  336 angles
Finding 1-2 1-3 1-4 neighbors ...
  special bond factors lj:    0        0        0       
  special bond factors coul:  0        0        0       
     2 = max # of 1-2 neighbors
     1 = max # of 1-3 neighbors
     1 = max # of 1-4 neighbors
     2 = max # of special neighbors
  special bonds CPU = 0.039 seconds
  read_restart CPU = 0.224 seconds

include 	in.setup
variable	out_freq equal 1000
variable	out_freq2 equal 10000
variable	out_freq3 equal 1000

timestep	2.0

neigh_modify    delay 7 every 1

include		in.tip4p
# This is TIP4P/Ice

# create groups ###
group ox type 2
336 atoms in group ox
group hy type 1
672 atoms in group hy

# set charges - beside manually ###
set group ox charge -1.1794
Setting atom values ...
  336 settings made for charge
set group hy charge 0.5897
Setting atom values ...
  672 settings made for charge

# ### TIP3P Potential Parameters ###
pair_style lj/cut/tip4p/long/omp 2 1 1 1 0.1577 8.5
pair_coeff 1 1*2 0.000 0.000
pair_coeff 2 2 0.21084 3.1668
bond_style  harmonic
bond_coeff  1 450 0.9572
angle_style harmonic
angle_coeff 1 55 104.52
kspace_style pppm/tip4p/omp 1.0e-5
pair_modify tail yes

thermo          ${out_freq}
thermo          1000
thermo_style    custom step temp pe etotal epair emol press lx ly lz vol pxx pyy pzz pxy pxz pyz enthalpy

restart 	${out_freq3} restart.lmp.${pid} restart2.lmp.${pid}
restart 	1000 restart.lmp.${pid} restart2.lmp.${pid}
restart 	1000 restart.lmp.0 restart2.lmp.${pid}
restart 	1000 restart.lmp.0 restart2.lmp.0


include         in.dump
dump            myDump all atom ${out_freq2} dump.water.${pid}
dump            myDump all atom 10000 dump.water.${pid}
dump            myDump all atom 10000 dump.water.0
dump            myDump2 all dcd ${out_freq2} dump.dcd
dump            myDump2 all dcd 10000 dump.dcd
dump_modify     myDump append yes
dump_modify     myDump2 append yes


variable natoms 	equal  "count(all)"                        # NUMBER ATOMS
variable H      	equal  "enthalpy/v_natoms"                 # ENTHALPY-per-atom
variable Vol      	equal  "vol/v_natoms"                 # volume-per-atom
fix AVG all 		ave/time ${out_freq} 1 ${out_freq} v_Vol v_H file vol_enthalpy.dat
fix AVG all 		ave/time 1000 1 ${out_freq} v_Vol v_H file vol_enthalpy.dat
fix AVG all 		ave/time 1000 1 1000 v_Vol v_H file vol_enthalpy.dat



fix 		1 all shake 1e-6 200 0 b 1 a 1
       0 = # of size 2 clusters
       0 = # of size 3 clusters
       0 = # of size 4 clusters
     336 = # of frozen angles
  find clusters CPU = 0.374 seconds
fix             2 all nph tri ${pressure} ${pressure} ${pressureDamp}
fix             2 all nph tri 2750 ${pressure} ${pressureDamp}
fix             2 all nph tri 2750 2750 ${pressureDamp}
fix             2 all nph tri 2750 2750 1000
fix             3 all temp/csvr ${temperature} ${temperature} ${tempDamp} ${seed}
fix             3 all temp/csvr 226.21 ${temperature} ${tempDamp} ${seed}
fix             3 all temp/csvr 226.21 226.21 ${tempDamp} ${seed}
fix             3 all temp/csvr 226.21 226.21 100 ${seed}
fix             3 all temp/csvr 226.21 226.21 100 745823


run             250000
PPPM initialization ...
  extracting TIP4P info from pair style
  using 12-bit tables for long-range coulomb (../kspace.cpp:340)
  G vector (1/distance) = 0.38293891
  grid = 24 30 36
  stencil order = 5
  estimated absolute RMS force accuracy = 0.001976942
  estimated relative force accuracy = 5.9535021e-06
  using double precision FFTW3
  3d grid and FFT values/proc = 4320 480
Last active /omp style is kspace_style pppm/tip4p/omp
Neighbor list info ...
  update every 1 steps, delay 7 steps, check yes
  max neighbors/atom: 2000, page size: 100000
  master list distance cutoff = 10.8154
  ghost atom cutoff = 10.8154
  binsize = 5.4077, bins = 5 5 4
  1 neighbor lists, perpetual/occasional/extra = 1 0 0
  (1) pair lj/cut/tip4p/long/omp, perpetual
      attributes: half, newton on, omp
      pair build: half/bin/newton/tri/omp
      stencil: half/bin/3d/tri
      bin: standard
Per MPI rank memory allocation (min/avg/max) = 9.352 | 9.359 | 9.366 Mbytes
Step Temp PotEng TotEng E_pair E_mol Press Lx Ly Lz Volume Pxx Pyy Pzz Pxy Pxz Pyz Enthalpy 
17000000    233.52855   -4874.5165   -4407.4306   -4874.5165            0    3507.6232    18.082308    23.085766    19.460513    8123.6726    3770.0143    2850.6304    3902.2248    27.238093    458.28341   -276.75351   -3991.8634 
17001000    233.41172   -4904.8143    -4437.962   -4904.8143            0    2316.8755    18.294578    22.956319    19.336657    8120.9351       1171.5    2400.1473    3378.9791   -1099.9591    1132.6297   -395.81133   -4163.5617 
17002000    218.13877   -4876.3184    -4440.014   -4876.3184            0    1955.8577    18.278249    22.866103    19.577736    8182.5608   -275.10175    2860.4161    3282.2587    772.43743    494.66645     787.2742   -4206.6131 
17003000    216.66097   -4877.1462   -4443.7975   -4877.1462            0    4166.9009     18.02716    22.802407    19.651625    8078.0488    3124.0468    5624.0144    3752.6413    -188.1219    214.93113   -58.060905   -3952.8947 
17004000    222.60024   -4922.5132   -4477.2853   -4922.5132            0    1644.3578    18.216939    23.002821    19.447136    8149.1472    2662.6409      395.828    1874.6045    134.11399   -1421.4639   -490.86983   -4281.8583 
17005000    227.12687   -4896.2473   -4441.9655   -4896.2473            0    2917.4526    18.171854    22.933631    19.522721    8136.0274    3390.2337    2601.5358    2760.5884    327.99959   -27.605751   -1176.5486   -4095.7934 
17006000    230.97006   -4888.7173   -4426.7487   -4888.7173            0    3844.7575    18.177592    22.948078    19.375098    8082.1436     2997.817    4317.8803    4218.5752   -578.20865    -559.3127   -210.29395    -3973.568 
17007000    238.97573   -4920.0363   -4442.0553   -4920.0363            0    3324.6491    18.205564    22.747173    19.482951    8068.3789    3703.9202    3046.9307    3223.0965   -41.856806    401.10214    8.9945562   -4050.8471 
17008000    228.27128   -4888.4309   -4431.8602   -4888.4309            0    2922.7427    18.215318    22.701466    19.658966    8129.2661    2604.8331    3063.8929    3099.5021   -168.20727   -556.17036    -1104.135   -4085.3486 
17009000    234.88164   -4885.6659   -4415.8736   -4885.6659            0    2671.8879    18.303877    22.951918    19.337918     8124.035    2226.1785    2473.9014    3315.5838    49.113752   -1106.5563    614.80819   -4099.3064 
17010000    230.75824   -4888.5321   -4426.9871   -4888.5321            0     3086.176    18.079689    23.166871    19.386162    8119.8904    1874.7131    3445.6489    3938.1661    716.96438    985.34229   -1397.9701   -4061.5213 
17011000    228.11858   -4902.0153     -4445.75   -4902.0153            0    3644.8241    18.018805    23.119144    19.389283    8077.1751    2464.1615    3990.3964    4479.9143   -135.79776   -18.968157   -1173.6814   -4016.3995 
17012000    230.77931   -4857.9096   -4396.3225   -4857.9096            0    3033.3668    18.102005    23.030334    19.471567    8117.6033    4421.1861    1686.6592    2992.2552     423.8433   -963.65891   -1265.9251   -4037.2115 
17013000    225.05645     -4848.99   -4398.8493     -4848.99            0    3349.6271     18.18876    22.721248    19.669356    8128.7809     2988.001    2925.1486    4135.7317    1556.7834   -1331.4651    1912.9406   -4001.7512 
17014000    227.26672    -4893.819   -4439.2575    -4893.819            0    2767.6125    18.317536    22.652423    19.516207    8097.9881    2381.4004    3956.8066    1964.6306     -763.631   -485.98328    970.24049   -4112.4001 
17015000    224.83152   -4891.1536   -4441.4628   -4891.1536            0    1103.0762    18.265311    22.832982    19.587439    8168.9714    1491.9637    1191.3839    625.88116     447.2704   -552.63749    1040.8732   -4310.0466 
17016000    228.36966     -4891.68   -4434.9125     -4891.68            0    3133.7512    18.151078    23.181202    19.264072    8105.6244    1722.4753    2942.5054    4736.2729   -1162.1744    391.04484   -3447.0062   -4064.4648 
17017000    228.06267   -4895.0551   -4438.9016   -4895.0551            0    2190.9095    17.941686    23.368949    19.346489    8111.5638    2213.3391    2779.7499    1579.6394    375.89112    429.37824    360.63633   -4179.7196 
17018000    232.58791   -4925.5142   -4460.3096   -4925.5142            0     1196.131    18.171464    23.027149     19.38392    8110.9492    1289.7109    816.08387    1482.5983    136.20361   -1097.3414    329.32769   -4318.8194 
17019000    226.76606   -4898.8646   -4445.3044   -4898.8646            0    4207.6529     18.15422    22.838273    19.495889     8083.211     4192.772     3666.407    4763.7797     131.7304   -365.44501   -2012.3794   -3949.2838 
17020000    231.27871   -4907.7591   -4445.1731   -4907.7591            0    2596.2197    18.138028    22.772811    19.708861    8140.8219    4047.1564    2518.0997    1223.4031    279.60574    494.17508   -794.64091   -4136.9355 
17021000    228.65658   -4920.0761   -4462.7347   -4920.0761            0    3062.9174    18.255098    23.055002    19.278685    8113.8456    2596.7019    3028.1305    3563.9197    1152.8619    921.95415    1247.5721   -4100.2932 
17022000    229.83275   -4901.7476   -4442.0537   -4901.7476            0    2246.6557     18.09816    23.166735    19.395437    8132.0269    1283.6889    2566.6961    2889.5822    1427.6558    1352.4687   -1925.0645   -4175.6064 
17023000    225.36992   -4921.5792   -4470.8115   -4921.5792            0     2339.886    18.126399    23.064086     19.41134    8115.2764    395.80319    2852.5047    3771.3502   -579.30382    1000.7109   -934.95344    -4193.879 
17024000    235.70165   -4872.0351   -4400.6027   -4872.0351            0    3124.5191    18.289964     22.87681    19.428817    8129.3288    2489.9095    2952.6538     3930.994    113.88365    1024.5397    1197.6743   -4030.1662 
17025000     228.7856   -4866.5178   -4408.9183   -4866.5178            0    3385.5813    18.211724    22.669608    19.643578    8109.9031    3078.0585    5480.6438    1598.0417    233.00197   -683.51595    -298.0908     -4008.49 
17026000    229.78926   -4875.7464   -4416.1395   -4875.7464            0    2333.2131    18.247713    22.689214    19.670138    8143.9538    1546.4915    2699.0702    2754.0775     317.9398   -344.49283   -480.59923   -4139.0209 
17027000    240.68082   -4890.1099   -4408.7186   -4890.1099            0    2530.4597    18.195284     23.00745    19.344664    8098.2003    1163.5637    1852.2809    4575.5344   -497.77223   -535.02583   -237.28918   -4109.8613 
17028000    215.92158   -4885.5751   -4453.7052   -4885.5751            0    2070.4603    17.879265    23.334681    19.474718    8124.9876    3692.5884    1039.7296    1479.0628    527.88412   -140.14684     1597.921   -4208.3669 
17029000    229.61453    -4899.817   -4440.5596    -4899.817            0    2861.6384    18.222199    23.009011    19.390005    8129.7403    2567.9668    2238.6246    3778.3237   -23.441437    77.941228    1360.6055   -4101.2725 
17030000    236.48931   -4884.4248   -4411.4169   -4884.4248            0     2744.268    18.246757    22.971431    19.378938    8122.7616    1682.1585    2963.5198    3587.1257     1870.998    366.64579    1496.1825   -4086.3251 
17031000    225.40779   -4866.0955   -4415.2521   -4866.0955            0    2207.1844     18.09353    22.924344     19.67091     8159.145    3304.2737    2005.7433    1311.5363   -1790.0767    1162.6115   -2047.5786   -4152.6131 
17032000    228.63719    -4882.048   -4424.7453    -4882.048            0    3015.2519    18.163645    22.965694    19.485988    8128.3989    1698.1553    3283.0092    4064.5912    2224.1092   -213.00389    1249.6129   -4067.3042 
17033000    226.31124   -4889.1682   -4436.5177   -4889.1682            0    2737.4017    18.248586    23.036571     19.27976    8104.9193    197.00815      3139.94     4875.257   -219.87143   -548.97951   -1331.1198   -4112.9516 
17034000    226.83735   -4912.5913   -4458.8886   -4912.5913            0    1801.1018    18.068653    23.010878    19.573589      8138.22     3502.018    1326.0947     575.1925   -433.28698   -212.92739    504.15959   -4245.1201 
17035000    221.23452   -4909.7862   -4467.2898   -4909.7862            0    2013.4119    18.180794    23.025511    19.413019    8126.7181    2820.1526    2059.5077    1160.5754   -677.93216   -998.87701   -1471.8791   -4228.6605 
17036000    231.57142   -4927.8038   -4464.6324   -4927.8038            0    1975.1474    17.914121    23.227857    19.557236    8137.8956    4340.7492    193.30063    1391.3924    987.30268   -900.83172    136.18121   -4230.2162 
17037000    230.77293   -4894.4826   -4432.9083   -4894.4826            0    3066.9347    18.149028     22.98751    19.355657    8075.1986     4053.157     2739.284     2408.363   -835.97559   -538.09408   -615.46277     -4071.72 
17038000    222.69716   -4885.9072   -4440.4854   -4885.9072            0     2122.115    18.241038     22.96047    19.495677     8165.234    2135.1968    2658.5083    1572.6398   -1779.1375    1207.0128   -266.04258   -4187.7806 
17039000    225.63445    -4898.152   -4446.8552    -4898.152            0    2865.9171    18.168294    22.828238    19.605084    8131.2113    3339.2703    2367.3638    2891.1172    20.082577    741.77291   -1594.4874   -4106.9994 
17040000    235.55591   -4904.1711   -4433.0302   -4904.1711            0    2840.0615    18.322372    22.760436    19.516962    8139.0642    3124.3979    2461.5476    2934.2389    366.77003   -61.956921   -230.33574   -4095.9152 
17041000    236.63174   -4912.2189   -4438.9262   -4912.2189            0    2973.7162    18.145328    22.923229    19.516397    8117.8358    3795.0545    2248.1711    2877.9228    163.94311    515.32573     998.1392    -4086.867 
17042000    235.43844   -4907.3161   -4436.4101   -4907.3161            0    2379.3041     18.10746    23.187927    19.297187    8102.3962     2424.499     1278.079    3435.3342    311.86891   -1210.5559   -574.26203   -4155.2593 
17043000     228.0528   -4877.8836   -4421.7499   -4877.8836            0    3320.3671    17.906548    23.286922    19.437342     8105.146    4592.5299     3306.742    2061.8294    633.05774    513.26282    608.79169   -4029.2651 
17044000    223.34766   -4914.2564   -4467.5335   -4914.2564            0    4457.1322    18.078262    22.995941     19.41245    8070.2726    4533.7228    3968.9832    4868.6906   -682.78872    209.27866   -1470.0128   -3942.9439 
17045000    225.05821    -4919.319   -4469.1748    -4919.319            0    3777.6708    18.184188     22.82111    19.448081    8070.6301    4115.9599    4130.5321    3086.5204    547.62892    141.74167   -468.58407   -4024.5359 
17046000       222.26    -4905.969   -4461.4215    -4905.969            0    2379.4905    18.153375    22.950348    19.547149    8143.8559     986.8695     3516.497    2635.1049    307.50376    875.54734    1027.4472     -4178.81 
17047000    225.62011    -4888.878   -4437.6099    -4888.878            0      3336.85    18.043476    23.104553     19.38783    8082.5235    3909.7762    3166.4116     2934.362   -814.85051    -619.8746   -1750.6526   -4044.2777 
17048000    222.07036   -4900.4866   -4456.3184   -4900.4866            0    2816.5369     18.18323    23.078252    19.365036    8126.2888    2566.6565    3058.2014    2824.7527   -1087.5271    1045.7434    122.89655   -4122.5205 
17049000    230.72844    -4885.434   -4423.9486    -4885.434            0    3943.9534    18.161046    22.845634    19.508048    8093.9007    2616.8927     4967.852    4247.1156   -1063.2065   -137.05359   -1554.2455   -3958.3994 
17050000     223.0295   -4903.8905   -4457.8039   -4903.8905            0    2438.6646     18.17726    22.924819    19.503644    8127.3712    3572.9131    2076.0723    1667.0085    100.28102   -68.250857    1214.8901   -4168.7506 
17051000    236.81865   -4859.5455   -4385.8789   -4859.5455            0    852.93395    18.284249    23.064956    19.491564    8220.0874   -485.58029     725.7423    2318.6399   -894.36578    104.17978    1660.9874   -4283.6279 
17052000    216.39314   -4889.1859   -4456.3729   -4889.1859            0    3806.6728    18.047805    23.070318    19.450545    8098.5963    2791.4253    3777.0905    4851.5027   -540.77294   -1033.8116   -223.24766   -4006.7678 
17053000     224.0997   -4922.2795   -4474.0524   -4922.2795            0    2189.9081    18.100368    23.056942    19.497915     8137.243     1959.221    2733.3026    1877.2006    1604.6957    1095.7173    1049.0928   -4214.1687 
17054000    237.76701   -4886.7928   -4411.2295   -4886.7928            0     3240.637    18.307464    22.972888    19.352183    8139.0503    1282.4877     3612.178    4827.2453   -334.80437   -1021.9525   -1408.3996   -4026.5668 
17055000    228.89809   -4885.7008   -4427.8763   -4885.7008            0    2579.4274    18.228408    22.778068    19.628504    8149.9101    3158.4643    3901.6634    678.15439    1820.3262   -674.07864    1587.2653   -4121.2905 
17056000    242.98642   -4886.0288    -4400.026   -4886.0288            0    2211.4169     18.24076    22.989442    19.488092    8172.2317    3597.4023    2021.2284    1015.6199     80.50476   -342.70121   -44.349665   -4136.4613 
17057000    220.41232    -4910.314   -4469.4621    -4910.314            0    2691.9942    18.159013     23.02619    19.423515    8121.6105    2515.8713    1981.2971    3578.8142    1077.6088     485.6903   -916.57945   -4150.6079 
17058000    229.24179   -4896.5727   -4438.0607   -4896.5727            0    2825.4936    18.111746    23.155734    19.328253    8106.0908    911.84367    3175.2584    4389.3787    381.73422    225.65507    1216.4265   -4104.0337 
17059000    220.30278   -4889.8556   -4449.2228   -4889.8556            0    1902.8615    18.024854    23.189977    19.472321    8139.3513    2540.9565    1191.4057    1976.2223    435.44211    87.098781   -467.58923   -4223.3453 
17060000     224.0906   -4887.0732   -4438.8643   -4887.0732            0    2668.8496    18.240927    22.913785    19.416855    8115.6374    3023.3526    2053.9244    2929.2718    1010.5697   -1047.7039    3016.6977    -4122.984 
17061000    225.53566   -4870.0122   -4418.9131   -4870.0122            0    1409.7392    18.297563    22.912081    19.478444    8166.0505   -416.71257    1434.8762    3211.0538    3.0177947   -460.44038   -381.24698   -4251.0223 
17062000    233.62248   -4857.3722   -4390.0983   -4857.3722            0    3444.8309    18.066398    22.928182    19.597405    8117.8266    3463.4433    3549.5068    3321.5425    30.166073   -700.26307   -418.56732   -3982.2642 
17063000    235.30106   -4882.1193   -4411.4881   -4882.1193            0     1844.072    18.214539    22.960407    19.592631    8193.8975     3134.897    1109.2453    1288.0739    541.73244   -1013.3619   -1518.1875   -4191.1223 
17064000    218.08594   -4881.8429   -4445.6441   -4881.8429            0    1617.4832    18.221683    22.931468    19.551679     8169.668    1658.1864    2018.8818    1175.3813   -25.683197   -1234.9028   -373.93999   -4252.9271 
17065000    220.21155   -4896.1538   -4455.7035   -4896.1538            0    3557.2482    18.068289    23.000753    19.408249    8065.7623    2765.4148    3154.7266    4751.6032   -137.35091   -346.76237   -1234.1431   -4037.2613 
17066000    235.91991   -4880.1904   -4408.3214   -4880.1904            0    2793.4629    18.232798    23.164217    19.255024    8132.3305     1957.169    2507.3166    3915.9033   -1346.8726    464.86634    101.56203    -4077.012 
17067000    225.02637   -4907.1816   -4457.1011   -4907.1816            0    327.35798    18.110671    23.119582     19.62622    8217.7172    1476.7826   -128.91755   -365.79112    672.65929    574.73288    1836.3422   -4417.8682 
17068000    223.57746   -4889.7427   -4442.5602   -4889.7427            0    2666.6955    18.108823    23.141489    19.437556    8145.6022    2468.4905     2816.764    2714.8321   -186.32087    1565.6983    1048.9287   -4125.7694 
17069000    230.82584   -4943.5216   -4481.8414   -4943.5216            0     2329.534    18.224921    22.921196    19.460371    8129.3171    3819.2962    2178.0576    991.24811   -797.37599    589.93453     2409.206    -4205.657 
17070000     223.3884   -4875.7207   -4428.9163   -4875.7207            0    2676.1045     18.19555    22.942381    19.541319    8157.5088    3607.2056    3214.1248     1206.983   -639.92655    -826.0804    2633.3726   -4110.5431 
17071000    231.96356   -4906.3211   -4442.3653   -4906.3211            0    2814.8564    18.228832     22.84041    19.498399    8118.2361    1955.8478    3769.7885    2718.9329   -1038.7927    1284.6261   -449.03347   -4109.0971 
17072000    247.16328   -4878.6112   -4384.2541   -4878.6112            0     3523.712    18.372798    22.628387    19.484028    8100.4221     2936.466    3922.3557    3712.3143   -1253.7508   -1165.5814    -314.7822   -3967.9757 
17073000    224.69143   -4924.2652   -4474.8546   -4924.2652            0    3095.2037    18.253346    22.745417    19.525294    8106.5112      2946.22    2890.9569    3448.4341   -897.62133    434.26639     2.413731   -4108.9237 
17074000    217.50814     -4911.44   -4476.3969     -4911.44            0    1705.8962    18.202324     22.87479    19.515657    8125.8187    2123.4237    2218.4474    775.81757   -70.968928    286.63222    1162.1093   -4274.2367 
17075000    221.48346   -4887.8024   -4444.8082   -4887.8024            0    2413.4755    18.138366     23.11932    19.373049    8124.0239    1554.3509    2169.1112    3516.9644   -72.535596      622.181   -1097.4887   -4158.8582 
17076000    219.55167   -4869.0446   -4429.9141   -4869.0446            0    2718.8643    18.140484    23.187599    19.319458     8126.426    2427.1344    2574.0412    3155.4172    1600.2356   -17.280161     180.3415   -4107.6863 
17077000    202.07574   -4887.7471   -4483.5707   -4887.7471            0    2846.1221    18.094633    23.058046    19.472402    8124.4094    2923.4699    2675.5581    2939.3383    1304.3153   -338.43783   -1017.3465   -4146.3445 
17078000    232.63782   -4863.0995   -4397.7951   -4863.0995            0    2567.9552    18.279426    22.906112    19.462662    8149.2223    2903.0185    2449.9868    2350.8603    129.90221    587.70201   -41.223414   -4092.5987 
17079000    217.60053   -4893.6058   -4458.3778   -4893.6058            0    2165.1318     18.28053    22.840773    19.550562    8163.1699    2292.6392    1906.1132    2296.6428   -634.20408    651.63306   -657.22803   -4200.6157 
17080000    231.37908   -4873.9943   -4411.2075   -4873.9943            0    3553.1543    18.104746    22.945474    19.454308    8081.7468    1833.0375    4759.3652    4067.0603   -7.5748119   -33.741281   -307.90785   -3992.4186 
17081000    238.46678   -4910.2228   -4433.2598   -4910.2228            0    3531.1535    18.100744    23.163119    19.217975    8057.5148     2811.846    3244.8078    4536.8069    765.35711    1324.2654    -744.6419   -4018.3118 
17082000    221.64583   -4904.7664   -4461.4474   -4904.7664            0    2791.2269    18.216705    22.936833    19.423032    8115.5938    1970.5711    2471.8136     3931.296    399.85246   -341.47438    134.66384   -4131.0844 
17083000     232.8828   -4893.1004   -4427.3061   -4893.1004            0    3007.0897    18.316432    22.750711    19.475669    8115.7419    2692.9277    3114.2205    3214.1209   -376.30743   -1386.1831   -565.66375   -4071.3876 
17084000    236.73738   -4882.0614   -4408.5574   -4882.0614            0    1487.7884    18.199521    22.953009    19.580659    8179.5021    876.28586    1476.6733     2110.406    506.78571    13.962481    1284.8883   -4231.0796 
17085000    220.10112   -4891.5814    -4451.352   -4891.5814            0    3041.1617    17.934286    23.097903     19.57183    8107.5207    4919.0556     2588.746    1615.6837   -1441.0535   -219.13802   -863.19931   -4091.7654 
17086000    223.97836   -4902.7555   -4454.7711   -4902.7555            0    2371.4306     18.15452    23.150506    19.311484    8116.3524    3232.7386    1956.9984    1924.5549    362.88516   -495.38532    958.55879    -4174.068 
17087000    220.29845   -4896.7071    -4456.083   -4896.7071            0    2035.8101    18.153127    23.098541    19.374418    8123.9017    1632.8584    2830.3795    1644.1923   -483.77985     893.7627    1461.2484   -4214.8827 
17088000    229.72695   -4897.7536   -4438.2713   -4897.7536            0    2924.7038    18.092996    22.765493    19.717902    8121.7245    2294.6921    4949.6956    1529.7238    171.93313    947.81167   -662.27493   -4091.8489 
17089000    217.58448   -4921.6155   -4486.4196   -4921.6155            0    1981.6826    18.475734    22.643685    19.419803    8124.4438    150.81218    3178.9505    2615.2852   -33.172611    1300.6644   -1749.5249   -4251.6166 
17090000    220.37228   -4886.8898    -4446.118   -4886.8898            0    3458.8804    18.125115    22.880905    19.522204    8096.2299    2566.5485     4265.969    3544.1236    240.70011    1576.1916   -1382.8099     -4037.71 
17091000    214.81286   -4884.7841   -4455.1319   -4884.7841            0     1528.679    18.106308    23.313067    19.291139    8143.0515     1260.866     1382.112     1943.059   -1432.7134    651.12256    1067.0713   -4273.5889 
17092000    224.39267   -4900.2119   -4451.3988   -4900.2119            0    3722.4691    18.032294    23.076779    19.394004    8070.3737    4249.5738    3296.9629    3620.8705     676.2089    -245.3128     -914.422   -4013.2712 
17093000    237.91132   -4891.7332   -4415.8811   -4891.7332            0     3367.683    18.218464    22.858062    19.504842    8122.5725    3765.4113    3282.6843    3054.9535   -628.02247   -807.25166    27.912681   -4016.9474 
17094000    224.01594   -4888.8967   -4440.8371   -4888.8967            0     2650.726    18.302479    22.728677    19.573305    8142.3213    857.77181    4773.3912    2321.0149    1145.4327   -81.904504   -1518.3237   -4126.0703 
17095000    215.26117   -4916.9019    -4486.353   -4916.9019            0    3351.6903    18.225547    22.805928    19.429213    8075.7625    2270.9817    4474.1427    3309.9465   -723.46381    235.51598   -646.73275   -4091.6019 
17096000    227.48577   -4885.4837   -4430.4841   -4885.4837            0    3492.1961    17.997402    23.091001    19.471381    8091.8783    3718.7348    2503.0578    4254.7956    670.60757    752.23082    755.02076   -4018.3639 
17097000    227.10187   -4897.1639   -4442.9321   -4897.1639            0    3589.9798    18.111814     23.23333    19.237179    8094.9617    1516.0344    3437.8886    5816.0165    1340.5934    897.52748    1444.9453   -4019.1108 
17098000    222.88821   -4893.2323   -4447.4284   -4893.2323            0    1248.9906    18.265126    23.053579    19.419396    8177.0515    525.57485    1025.4889     2195.908    156.45485   -471.68754   -139.17584   -4298.4813 
17099000    221.04321   -4888.1981   -4446.0843   -4888.1981            0    3235.6732    18.224948    22.738368    19.484334    8074.4163    3332.5566    3798.0773    2576.3857    823.65918   -161.57409    628.65368   -4065.0609 
17100000    226.06442    -4891.053   -4438.8963    -4891.053            0    3988.3503    18.090577    22.883139    19.534872    8086.8351     3284.691    4472.3573    4208.0026   -1132.1335    9.5062119   -607.78659   -3968.5174 
17101000    210.62938   -4900.5812   -4479.2965   -4900.5812            0     2268.257    18.103388    23.171858    19.391303    8134.4408    2429.5017    1085.1485    3290.1209   -149.69502   -772.32544    1089.4105   -4210.2075 
17102000    224.38035   -4881.2241   -4432.4357   -4881.2241            0    3624.0938     17.95268    23.091891    19.518803    8091.7411     4433.773     2556.127    3882.3815    1873.4189   -1943.5573   -517.00022   -4004.7573 
17103000    228.44668   -4876.8017   -4419.8801   -4876.8017            0    2603.7235    18.164852    23.041605     19.41895    8127.7497    2170.1809    2329.5509    3311.4389    1410.2801    -388.4148    163.01023    -4111.248 
17104000    239.85935   -4913.2708   -4433.5225   -4913.2708            0    2700.7554    18.196833    22.865045    19.488602    8108.6502    3788.8993    2605.7953    1707.5717    100.50559   -339.41357   -588.43326    -4114.141 
17105000    232.40952   -4863.4656   -4398.6179   -4863.4656            0    3649.0869    18.028471    23.126988    19.499146    8130.0565    4840.6945    3457.7244    2648.8419    833.34054    783.47161   -831.05052    -3965.951 
17106000    219.17943   -4906.2483   -4467.8623   -4906.2483            0     2632.618    18.144699    23.034658    19.384291    8101.7991    4032.7284    1222.5004    2642.6252    425.30747   -342.16811   -181.44733   -4156.8016 
17107000    220.77583   -4872.2619    -4430.683   -4872.2619            0    2602.8483    18.280652    22.941924    19.409598    8140.2562    1592.7876    2654.0933     3561.664   -456.26016    206.02116    46.925907   -4121.6799 
17108000    227.39654   -4871.7471   -4416.9259   -4871.7471            0    3732.8323     18.15658    22.996064    19.394959    8097.9748    5503.3715    2892.0185    2803.1069   -3266.7124   -373.22336    369.43313    -3976.076 
17109000    229.95572   -4912.3034   -4452.3635   -4912.3034            0    1882.8864     18.13582    23.108349    19.475974    8162.1638    3212.3916     842.4583    1593.8093    786.88115   -196.53593    1388.2584   -4228.2308 
17110000    233.28478   -4890.9672   -4424.3688   -4890.9672            0    3038.1459    18.258706    22.943682    19.418952    8135.0254    2747.0586    3649.6959    2717.6833    449.46166   -67.042963    831.90118   -4063.9201 
17111000     239.1296   -4886.4193   -4408.1305   -4886.4193            0    1497.6915    18.283267    22.850344    19.654061    8211.0528    996.72715    2286.7437    1209.6037    1360.8654   -233.80868     -92.0152   -4228.7823 
17112000    228.11651   -4887.4433   -4431.1821   -4887.4433            0    2487.1075     18.18794    22.761568     19.58139    8106.4219    1715.6191    3191.7755     2553.928    1680.4274   -536.98435   -1263.8005   -4137.1467 
17113000    227.95704   -4909.7191   -4453.7769   -4909.7191            0    4046.7589    18.102415    23.082865    19.295795    8062.8561    3465.7954    4314.7296    4359.7515   -319.56855   -274.44558    389.08751   -3977.9246 
17114000    233.27593   -4890.9627    -4424.382   -4890.9627            0    3383.4832    18.064598    23.124936    19.437603    8119.9164    2766.8764    3455.3314    3928.2419     12.49696    218.46054   -912.05351   -4023.7077 
17115000    225.59793   -4892.9032   -4441.6795   -4892.9032            0    2069.8713    18.195371    22.855665    19.604474    8152.8596    2555.4934    1948.7252    1705.3954   -250.32333    24.167254   -222.93733   -4195.5695 
17116000     225.3725    -4921.212   -4470.4392    -4921.212            0      837.796    18.320933    22.690458    19.601629    8148.6004    418.19597    964.27755    1130.9145   -345.68845   -1073.9435   -43.349987   -4370.8763 
17117000    217.35729   -4905.9779   -4471.2364   -4905.9779            0    2645.0004    18.278135     22.80767    19.525729    8139.9185    2813.1803    3132.6415    1989.1795     588.8342    532.55962    88.415845   -4157.2422 
17118000    215.80772   -4887.7208   -4456.0787   -4887.7208            0    3840.6377    18.185452    22.836643    19.440943    8073.7202    3218.2955    4315.1789    3988.4388    152.74707    163.94907    1456.8375   -4003.8554 
17119000    223.66907   -4918.7099   -4471.3441   -4918.7099            0    1960.3112    18.136203    23.032011    19.533425    8159.3697    2903.7466    1054.3307    1922.8562   -373.58602    490.75903    297.79091   -4238.0749 
17120000    213.03144   -4874.4945   -4448.4053   -4874.4945            0    3117.7147    18.238931    22.945848    19.384034    8112.3684    4752.4817    2806.2816    1794.3807   -28.819827   -737.47004    322.35687   -4079.5467 
17121000    224.07256   -4908.2078    -4460.035   -4908.2078            0    1940.3645    18.083818    22.933107    19.626882     8139.624     1881.565    2398.1251    1541.4033   -1237.3802   -783.88951    906.45312   -4229.6981 
17122000    232.26312   -4884.0213   -4419.4664   -4884.0213            0     3961.134    18.071473    22.934029    19.602932    8124.4684    4941.3903    4697.6065    2244.4051   -1216.1526    518.39204    1192.2724   -3950.1234 
17123000    226.83814   -4895.9755   -4442.2712   -4895.9755            0     3156.041     18.21358    22.940863    19.392925    8103.0471      1593.81    4619.7047    3254.6083   -227.75598    1109.4506    86.137085   -4069.3072 
17124000    232.48133   -4889.0352   -4424.0439   -4889.0352            0    2251.8624    18.276981     23.09552    19.264226    8131.7454    259.28251    2940.1906    3556.1142    742.52044     141.3573   -898.54967   -4156.9884 
17125000    226.01376   -4870.5183   -4418.4629   -4870.5183            0    1955.0769    18.166963    22.934561    19.602734    8167.5053    1402.3619    2232.6656    2230.2034    2023.8177    79.533908    1546.2885   -4185.5845 
17126000    223.25177   -4901.3934   -4454.8623   -4901.3934            0    3690.9809    18.234201    22.710405     19.50403    8076.7379    1808.3268    4538.1585    4726.4575    200.32629     124.6709   -1147.4359   -4020.0982 
17127000    227.69554   -4908.5628   -4453.1436   -4908.5628            0    3416.2721    18.148383    22.783713    19.560274    8087.9298    4189.5042    3487.8665    2571.4457   -735.82699   -685.86572   -2677.4887   -4050.1801 
17128000    224.19492   -4904.8731   -4456.4555   -4904.8731            0    3094.2058    18.025086    23.154819    19.471183    8126.6413    2610.6891    3989.2926    2682.6357    198.55342    540.60616   -1083.9543   -4089.7342 
17129000    233.02228     -4870.41   -4404.3367     -4870.41            0    1996.3744    18.132085    23.245073    19.314838    8140.8493    413.46966     2310.307    3265.3466    1225.0533    290.97192   -214.56032   -4167.3153 
17130000    209.40948   -4890.1388   -4471.2939   -4890.1388            0    3352.8442    18.137919    22.897909    19.496818    8097.4263    4501.9666    3741.9377    1814.6282    218.88351   -352.66793    223.05492   -4075.3477 
17131000    217.48717   -4913.4513   -4478.4501   -4913.4513            0    3467.0898    18.288568    22.543453    19.662465     8106.588    2905.6727    5065.1102    2430.4864   -765.92544    411.98799    796.22319    -4068.549 
17132000    222.59209   -4856.1754   -4410.9637   -4856.1754            0    1398.8616    18.115044    23.307502    19.444204    8209.6623    1228.2668    1293.3402    1674.9777   -352.65762    413.46506    535.87291   -4243.4787 
17133000     228.3755   -4878.1943   -4421.4151   -4878.1943            0     4169.675    18.043352    23.152865    19.356481    8086.2721    3426.0659    4033.4308    5049.5283    1555.5953     1199.883   -864.69015   -3929.6854 
17134000    218.84023   -4905.3504   -4467.6429   -4905.3504            0    2082.8769    18.230477    23.028851    19.347916    8122.7761    1518.2228    2347.8925    2382.5154   -353.54002    81.678291   -588.14678   -4220.9004 
17135000    218.24705   -4887.8563   -4451.3352   -4887.8563            0    3859.3624    18.023215    22.807355    19.655722    8079.7178    4699.6504    4469.5655    2408.8712   -130.46729    697.33821     258.6368   -3996.5696 
17136000    227.47093   -4876.2327   -4421.2627   -4876.2327            0    1912.0123    18.378506    22.704337    19.539557    8153.3059    315.51966    3277.7092    2142.8081    -378.0617    365.58533   -717.17364   -4193.9099 
17137000    225.25244   -4901.1161   -4450.5834   -4901.1161            0    3029.8767    18.333441    22.833542    19.301479    8079.9352    1548.1051    3471.6783    4069.8468    248.40555    682.19416    1091.5526   -4093.5501 
17138000    226.83804   -4894.3801    -4440.676   -4894.3801            0    2702.8845    18.063518    23.049065    19.459828     8102.045    3575.8028    2371.4377    2161.4131    875.28803   -513.29134   -898.44985   -4121.3031 
17139000     220.2111    -4911.362   -4470.9126    -4911.362            0    2223.9689    18.074662    23.185004    19.408165    8133.2074    1857.1669    2242.1068     2572.633    1122.3635    877.00836    700.39409   -4207.1177 
17140000    233.14469   -4900.8292    -4434.511   -4900.8292            0    834.45525    18.218238    23.126453    19.483706    8208.9381    286.61511    1302.5799    914.17074   -6.1790395     1270.395   -431.63024   -4334.6109 
17141000    227.45841     -4903.37   -4448.4251     -4903.37            0    4461.4807    18.046745    22.950203    19.485976    8070.6321    5358.3705    4670.9677    3355.1039    20.826383    621.49814    295.50883   -3923.3004 
17142000     240.1559    -4920.541   -4440.1995    -4920.541            0    1224.5307    18.149407    23.066876    19.501066     8164.124    2435.5387    537.84921    700.20414   -584.67332   -309.27379   -336.90646   -4294.4003 
17143000    229.76583   -4917.6785   -4458.1185   -4917.6785            0    1942.5721    18.309055    22.947808    19.355032    8132.0688    1254.9184    740.65123    3832.1466      -243.02   -600.96653   -26.717592   -4227.7335 
17144000    229.52852   -4898.2479   -4439.1625   -4898.2479            0    1650.8778      18.2076    22.855804    19.579955    8148.1851     2707.736    1368.7208    876.17667   -185.87655   -521.75523   -326.14188   -4242.9839 
17145000    235.75668   -4916.4863   -4444.9438   -4916.4863            0    2301.3753    18.156072    22.811181    19.621494    8126.4663    1656.3193    3542.1848    1705.6218   -1810.7782    102.61366   -567.05227   -4172.1936 
17146000    223.14419    -4897.259    -4450.943    -4897.259            0    2507.8494    18.276431    23.039794    19.315582    8133.5058    2365.1716    2416.8879    2741.4886    811.78452   -333.80998     1345.773   -4153.4649 
17147000    225.69624   -4932.4582   -4481.0378   -4932.4582            0    3572.2462    18.103411    22.981178    19.432179    8084.5194     3856.546    3407.4952    3452.6972   -905.11755   -887.97266   -786.65428   -4059.8542 
17148000    217.75808   -4892.5093   -4456.9663   -4892.5093            0    2601.6533    18.171196    23.036137    19.443633    8138.9908    1502.6175    1550.0776    4752.2647    703.28946    -117.6642   -540.36688   -4148.1531 
17149000    227.76838   -4873.8442   -4418.2793   -4873.8442            0    2175.4934    18.293079    22.875441    19.575399    8191.5652    2076.2868    1756.8005    2693.3929   -420.91249    501.81403   -866.04133   -4158.3827 
17150000      212.308   -4884.2657   -4459.6235   -4884.2657            0    1659.7434    18.187146     22.97293    19.546882    8166.9224    533.93825    1988.7676    2456.5245   -119.15709    302.91805    749.63484   -4261.9378 
17151000    231.11973   -4860.6289   -4398.3609   -4860.6289            0    2979.0158    18.133803    23.103043    19.427559    8139.0988    1914.8458    3313.2727    3708.9289   -2194.1714    1288.8629    1330.5855   -4044.7505 
17152000     229.2075   -4887.4598   -4429.0164   -4887.4598            0    2488.5618    18.042019    23.180899    19.418792    8121.5258    3287.6967    2954.1662    1223.8223    218.42652    1684.9043     2142.422   -4134.2609 
17153000    231.28786    -4890.563   -4427.9588    -4890.563            0    2112.0234    18.197671    22.936216    19.513244    8144.5493    2096.5385    1756.4386    2483.0931   -787.53844   -458.42688   -439.59066   -4177.0928 
17154000    227.24704   -4900.2279   -4445.7057   -4900.2279            0     3361.864    18.120219    22.793134    19.586127    8089.3952    4112.6427    2699.8501    3273.0993   -113.12844    -564.3991    30.690928    -4049.088 
17155000    217.44842   -4890.8052   -4455.8815   -4890.8052            0    2386.8264    18.182873    22.894402    19.490821    8113.7562    2108.0111    2639.0097    2413.4584    185.91363    254.73749   -708.37176   -4173.4464 
17156000    228.66266   -4932.5513   -4475.1978   -4932.5513            0     1672.994    18.100436    23.046637    19.513274     8140.044    745.94121    2377.6325    1895.4081    152.60216    83.530111    20.683343   -4276.5896 
17157000    220.28329   -4893.9412   -4453.3474   -4893.9412            0    3179.6192    17.986086    23.076707    19.477486    8084.3184    3460.1904    3971.1902    2107.4769    477.20834    287.14414    1126.3867   -4078.4655 
17158000    215.49657   -4902.7815   -4471.7617   -4902.7815            0    1652.2522    18.227479    22.774557    19.640558    8153.2428    2307.3967    2088.1259    561.23397   -608.03245   -99.047135   -1865.2158   -4275.2979 
17159000    226.30665   -4918.9369   -4466.2956   -4918.9369            0    3910.9969     18.30167     22.68525    19.437623    8070.0726    3503.8846    4030.1723    4198.9338   -778.01832    322.27922   -916.22674   -4005.9958 
17160000    226.45707   -4881.9635   -4429.0214   -4881.9635            0     3478.926    18.097074    22.895504    19.610723     8125.539    3188.3329    3134.6454    4113.7998    613.84443   -867.66924    164.66975   -4016.7595 
17161000    212.65184   -4891.5662   -4466.2362   -4891.5662            0    2147.0221    18.278503    23.055053    19.336841    8148.7742    1341.7991     2051.937    3047.3301   -312.82362    134.04648    401.81106   -4211.0809 
17162000    226.02006   -4893.8504   -4441.7823   -4893.8504            0    734.90819    18.254148     23.20393    19.305031    8176.9928    1072.4445   -590.59406    1722.8741   -905.97559   -363.46082      34.0452   -4354.1423 
17163000    216.50098    -4886.426   -4453.3973    -4886.426            0    3080.0233    18.141182    22.924403    19.495755    8107.8122    3614.3828    3791.7013    1833.9858   -375.26118    709.94551    270.25659   -4089.2026 
17164000     216.9715   -4883.1038    -4449.134   -4883.1038            0     2521.115    18.214879    22.897375    19.542163    8150.5068    2276.5143    4065.8276    1221.0031    671.17627    643.04434    -231.7645   -4149.4571 
17165000    216.33416   -4883.0131   -4450.3181   -4883.0131            0    3172.5001    18.175521    22.862856    19.526602    8114.1685    2052.9389    3576.1121    3888.4495    128.94188   -990.18092    724.96572   -4074.8945 
17166000    232.95914   -4874.4649   -4408.5178   -4874.4649            0    2520.6706    18.239352    22.957577    19.488409    8160.4074    3083.7827    2488.5968    1989.6322   -47.825088    231.72178   -425.59261   -4108.5299 
17167000    230.88933    -4919.803   -4457.9959    -4919.803            0    2930.4107    18.034337    22.885872    19.567612    8076.1706    3970.1587    3280.9106    1540.1628   -338.58152     204.9266   -566.05611   -4112.8443 
17168000    223.96515   -4867.5696   -4419.6117   -4867.5696            0     2683.905    17.844047     23.34342    19.541556    8139.8609    2733.4283    2159.6778    3158.6089    992.65935    659.51959   -555.18566   -4101.0012 
17169000    234.97839   -4880.2267   -4410.2409   -4880.2267            0    3748.8763    18.208704    22.923722    19.369002    8084.8397    3778.7603    4430.8479    3037.0207   -771.01289    55.745202    1004.4595   -3968.2143 
17170000    227.57293   -4890.8432   -4435.6693   -4890.8432            0    3667.9391    18.280188     22.70044    19.445302     8069.184    3718.4808    4295.7756    2989.5608    152.81524    579.68602   -69.669903   -4004.0234 
17171000    242.30699   -4912.9688   -4428.3249   -4912.9688            0    784.18023    18.198683    22.793798    19.746832    8191.3233     1389.622    1447.9999    -485.0812     279.7589    221.42365    -116.1746   -4334.6451 
17172000    215.07182   -4891.4071   -4461.2369   -4891.4071            0    2301.0843    18.129787    23.123043    19.331003    8103.8629    2241.4512    2524.9258    2136.8759    274.03599   -177.15931   -737.59099   -4189.2797 
17173000    223.21739   -4911.1101   -4464.6477   -4911.1101            0    3669.6702    17.999949    23.250018      19.3364     8092.267    4742.3383    2647.6798    3618.9927    1301.5212    1203.1159    961.62154   -4031.5627 
17174000    217.05662   -4887.1713   -4453.0312   -4887.1713            0    1902.5519    18.166145      23.0734    19.472297    8161.9049    2797.8031    1770.1296     1139.723     424.4401    733.74382   -1776.0884   -4226.5647 
17175000    226.47184   -4898.1987    -4445.227   -4898.1987            0    3564.5818    18.225182    22.779763     19.49995    8095.7034    2456.7614    4528.6434    3708.3407    556.72636    426.10598    1327.6873   -4024.3657 
17176000    226.78312   -4900.5901   -4446.9958   -4900.5901            0     3544.746    18.188284    22.737198    19.551955    8085.7232     3093.731    3433.0209     4107.486   -547.93364   -1116.9777    40.726378   -4028.9924 
17177000    225.85855   -4877.0908   -4425.3458   -4877.0908            0    3299.3226      18.0822    22.770572    19.691911    8107.9879    4572.2788    3828.3639     1497.325   -149.36813   -1135.2706   -319.09979   -4035.2119 
17178000    230.62125   -4892.3262   -4431.0552   -4892.3262            0    4198.3038    18.029155    23.046938    19.419646    8069.1893    2607.5972    4303.0569    5684.2574    72.627225    351.15313   -903.34774   -3936.9953 
17179000    225.53647   -4878.3221   -4427.2213   -4878.3221            0    2567.4025     18.12877    23.246221    19.323124    8143.2548    3662.9431    2099.4582    1939.8063   -1.7244953    296.71708    246.92718   -4122.3139 
17180000    228.46918   -4892.7505   -4435.7839   -4892.7505            0    1416.4592    17.923131    23.291237    19.549976    8161.1744    1672.2577    2050.3619    526.75793    361.39319    1160.8241   -164.59666   -4267.1936 
17181000    222.33993   -4900.5158   -4455.8085   -4900.5158            0    4149.7761     18.21998    22.776664    19.490201    8088.2454     3437.116    4772.8404    4239.3721   -2094.3702     596.3808   -552.91162   -3966.3061 
17182000    226.49795   -4891.8265   -4438.8026   -4891.8265            0    2896.0263    18.310151    22.791497    19.466045    8123.4876    2406.1565    3275.3859    3006.5366    30.874672     753.2663    220.54195   -4095.7024 
17183000    222.95755   -4913.1538   -4467.2112   -4913.1538            0    2553.9544    18.066313    23.029433    19.527613    8124.5988    3314.5356    1691.4371    2655.8905    1116.8843    160.33179    500.82168   -4164.5958 
17184000     215.0375   -4905.1204   -4475.0189   -4905.1204            0    2563.6716    18.086666    23.192439    19.393856    8135.2164    2685.0196     2862.191    2143.8042    189.13348    1071.1903   -84.640719   -4170.8552 
17185000    233.15796   -4886.3898   -4420.0451   -4886.3898            0    2404.3504    18.123529    23.061451    19.452311    8130.1883    2314.1735    2004.4673    2894.4105   -627.77391   -734.53531    1066.4865   -4134.9602 
17186000    231.70745   -4892.7957   -4429.3522   -4892.7957            0    3115.7177    18.055239     22.82688    19.651831    8099.3995    4624.4049    3835.6201    887.12813    1862.4761   -208.84883   -160.06386   -4061.3191 
17187000    220.50864   -4893.0273   -4451.9827   -4893.0273            0    2111.6546    18.353663    22.678584    19.514235    8122.5096    271.10832    4101.7234    1962.1321   -465.73287    684.69052   -984.19254   -4201.8394 
17188000    221.15442   -4870.0131    -4427.677   -4870.0131            0    2578.8475    18.126044    22.899988    19.594192    8133.2785    2885.1475    3984.8765    866.51859   -728.77407    515.02662   -385.03689   -4121.7856 
17189000    224.20669   -4922.7156   -4474.2745   -4922.7156            0    1878.5622    18.135696    22.944556    19.571102    8143.8387    2233.7329    2346.9392    1055.0146   -147.50761    483.47904   -1412.7804   -4251.1585 
17190000    228.97895   -4859.9063   -4401.9201   -4859.9063            0    3026.5428    18.433006     22.73005    19.459569    8153.2316    2268.3164    1984.4084    4826.9035    654.43237   -954.64076    35.354979   -4042.0444 
17191000    230.49022   -4895.7632   -4434.7543   -4895.7632            0    1068.7148    18.183845    23.204715     19.40889    8189.5995    3539.4973   -409.89398    76.541141    925.09617    -581.2867    730.54316   -4307.1103 
17192000    242.25651   -4912.4648   -4427.9219   -4912.4648            0     3332.807    17.987037    23.214219    19.370791    8088.3711    4085.3027    1593.3679    4319.7505    273.95856   -220.03097    436.19444    -4034.782 
17193000    222.04627   -4890.3031   -4446.1831   -4890.3031            0    3271.6702    18.150715    22.997276    19.409614    8101.9026    3379.8761    2796.6332    3638.5015    1160.4936   -365.77071    911.22095   -4059.6093 
17194000    224.35456    -4886.822   -4438.0852    -4886.822            0    2794.4062    18.339717    22.625506    19.620823    8141.5694    968.45506    3592.2482    3822.5154   -761.53622   -683.16122   -89.352062   -4106.2873 
17195000    240.30922   -4924.0709   -4443.4228   -4924.0709            0    3364.8154    18.199231    22.607585     19.62842    8075.9302    4575.8027    2836.2899    2682.3536    375.97857   -319.51369    1245.7323   -4047.1176 
17196000    226.27117   -4905.0075   -4452.4372   -4905.0075            0     1190.395    18.171051    23.215735    19.406617    8186.7648    856.37953    525.98011    2188.8253    363.77246    872.30598   -432.18791   -4310.3093 
17197000    224.56155   -4893.8064   -4444.6555   -4893.8064            0    3093.6832    18.051602    23.169365    19.350013    8093.0298    2820.0313    2373.7365    4087.2818    1766.6269    655.30515   -754.45758   -4079.5126 
17198000    229.15318   -4897.6996   -4439.3649   -4897.6996            0    2724.7085    18.063242    23.043459    19.508213    8120.0902    3217.5313    2361.1404    2595.4539    -958.7167   -1009.6481    -1204.404   -4116.6962 
17199000     233.6195   -4886.7144   -4419.4465   -4886.7144            0    1846.5837    18.242763    22.885385    19.623525    8192.6777     3676.573    992.79261    870.38542    2136.0153     204.4465    372.59956   -4198.8133 
17200000     231.9755   -4907.4927    -4443.513   -4907.4927            0    5472.9086    18.062402    22.759774    19.491076    8012.7068    3924.8757    5086.9287    7406.9215   -1242.6125   -26.595277   -795.85377   -3803.9647 
17201000    228.64068   -4904.4214   -4447.1118   -4904.4214            0    2936.6634    18.215233    23.022943    19.348628    8114.2002    2892.3989    1893.1912       4024.4    394.87161   -1153.2563   -752.63192    -4099.595 
17202000    223.67789   -4892.3309   -4444.9474   -4892.3309            0    3382.1698    18.183041    22.866699     19.51969    8116.0163    3055.6641    4085.8616    3004.9836   -287.91433    849.02079   -231.76727   -4044.6211 
17203000    217.40222   -4904.7458   -4469.9145   -4904.7458            0    2493.0255    18.239893     22.99517    19.366001    8122.6713     3502.207    1086.5802    2890.2892   -422.80206    620.27898    689.69418   -4174.5886 
17204000    214.01644   -4899.2773    -4471.218   -4899.2773            0    3257.1944    18.042182    23.014492    19.513978    8102.8213    4030.5181    2259.9227    3481.1425    762.73988   -710.98086    1129.3829    -4086.311 
17205000     230.3801   -4931.1565   -4470.3678   -4931.1565            0    3175.0279    18.106191    22.954617    19.431036    8075.9405    894.41893    4001.7624    4628.9025   -60.215169     761.2779   -160.35274   -4096.4152 
17206000    227.05539   -4911.7292   -4457.5904   -4911.7292            0    2553.7652    18.203903    23.015135    19.353565    8108.4717    3120.8453    1792.8534    2747.5968   -606.36279   -707.85771    786.26897   -4155.5981 
17207000    228.36678   -4891.1987   -4434.4369   -4891.1987            0    3114.5877    18.076152     23.03848    19.450282    8100.0128    3670.2004    2668.6431    3004.9195   -932.12005     72.80882   -762.79153   -4066.5095 
17208000    236.57502   -4901.2821   -4428.1028   -4901.2821            0    1374.2127    18.187832    23.075547     19.45745    8166.1782    2311.7529    741.39089    1069.4942    383.30078   -1077.1332    1313.0059   -4264.4405 
17209000    225.17373   -4896.8871   -4446.5119   -4896.8871            0      2855.79    18.129771    23.101029     19.34742    8103.0161    2143.9932    2794.9246    3628.4522    404.14607   -1002.8306    -1657.203   -4109.0312 
17210000    226.00938   -4880.4543   -4428.4077   -4880.4543            0    3196.2908    18.047542    22.855571    19.639792    8101.1564    3203.1262    3560.7295    2825.0166    1733.1077    160.08059    208.34427   -4050.7753 
17211000    230.77932   -4903.9969   -4442.4098   -4903.9969            0    3322.9491    18.304414    22.823756    19.409216    8108.6944    2319.2391      3774.45    3875.1581    1940.3518   -192.53826    1657.0741   -4049.4478 
17212000    234.16027   -4911.0877   -4442.7382   -4911.0877            0    3595.2267    18.157581    22.852948    19.483541     8084.778    3427.7473    3506.3889     3851.544   -51.173863    525.59425   -293.74082   -4018.8315 
17213000    210.76565   -4858.9086   -4437.3513   -4858.9086            0    2902.9126    18.113335    23.129928     19.44611    8147.1447    2806.8907    2356.1604    3545.6866    1017.0705   -824.86552    1197.1145   -4092.4337 
17214000    223.03829   -4890.9398   -4444.8357   -4890.9398            0    2847.3846    18.177013    23.037201    19.425518    8134.3871    1679.9942    3013.2491    3848.9104   -904.90036   -605.29439    897.21199   -4107.0456 
17215000    215.85216   -4918.3383   -4486.6073   -4918.3383            0    3504.1076    18.148309    22.965963    19.439558    8102.2793    4587.6898    2322.9478    3601.6851    550.19955   -715.25764    127.31402   -4072.5499 
17216000    226.21145   -4898.3586   -4445.9078   -4898.3586            0    2005.4475    18.189457    22.872371    19.582321    8146.9506    1748.4033    2399.4497    1868.4896   -1700.4857   -606.10031   -1793.1797   -4207.6307 
17217000    209.88189   -4890.5325   -4470.7428   -4890.5325            0    3089.0392    18.300539    22.697449    19.486183     8094.084    2035.8245    4162.8386    3068.4546    -559.7133    135.39633    838.90694   -4106.1005 
17218000    228.59921   -4878.1788   -4420.9521   -4878.1788            0    1986.9173    18.201072    23.013836    19.515662    8174.6518    1927.4675    2812.0205     1221.264   -1037.6944    247.41386    776.37207    -4184.074 
17219000     218.9114   -4884.2711   -4446.4212   -4884.2711            0    2214.3496    18.121342    23.089977    19.432125    8130.8165    2754.0607    1669.5298    2219.4582   -717.85147   -132.88785    305.20602   -4183.8445 
17220000    221.38282   -4914.0896   -4471.2966   -4914.0896            0    4677.1911    17.999511    23.140221    19.265769    8024.4366     4796.537    4051.2267    5183.8097   -842.91321    1028.2435   -1062.1845   -3923.9335 
17221000    225.36098   -4902.7722   -4452.0224   -4902.7722            0    3054.3464    18.212297    22.915397    19.450274    8117.4163    2623.1124    3537.0283    3002.8986   -969.61047    300.24698   -1188.4444    -4090.436 
17222000    209.72819   -4901.8964   -4482.4142   -4901.8964            0    1839.4204    18.105036    22.898826    19.580522    8117.7726    1050.1467    2565.9428    1902.1718    1294.5158   -594.75058    1172.8841   -4264.6463 
17223000    221.24566   -4918.8098   -4476.2911   -4918.8098            0    3103.3763      18.3105    22.814943    19.387081    8099.0117    1842.6881    3284.9158     4182.525    173.12142    518.72921   -868.37483   -4109.7334 
17224000    225.28465   -4897.6984   -4447.1013   -4897.6984            0    2813.2699    18.077604    22.975792    19.501927     8100.072    2453.6275    2580.4452     3405.737    338.49283   -1126.2346   -331.11312   -4114.7662 
17225000    217.25908   -4898.8854   -4464.3404   -4898.8854            0    4269.1276    18.049599    23.011993    19.374442     8047.315    5254.3904     3698.688    3854.3044     368.8614    895.41467    107.58768   -3963.3078 
17226000    220.33456   -4889.6365   -4448.9402   -4889.6365            0    2936.9925    18.254004    23.158107     19.17042    8103.8769    1802.6365    2622.3067    4386.0344    954.63736    768.21809    69.934294   -4101.8266 
17227000    238.87269   -4862.4574   -4384.6826   -4862.4574            0    2618.0573    18.082613    22.939037    19.609878    8134.1326     3004.202    2014.6981    2835.2718    -166.1168   -493.27166    318.99208   -4074.1077 
17228000    233.52919   -4883.2483   -4416.1611   -4883.2483            0    2779.5211     18.25224    22.826818    19.510287    8128.7769    2008.3696    2461.4604    3868.7335     -1335.14   -509.73393     193.5035   -4086.6492 
17229000    220.70173   -4874.9454   -4433.5147   -4874.9454            0    3044.9416    18.241942    22.800005    19.496045    8108.7244    884.30134    4157.5153    4093.0083   -352.49427    999.95815    482.92753   -4073.4277 
17230000    232.45025   -4867.6454   -4402.7162   -4867.6454            0    3170.4255    17.996927    23.299883    19.362814     8119.337     5215.464    991.58852     3304.224   -661.02532   -933.32615   -55.667856   -4027.2991 
17231000    230.34232   -4877.6101    -4416.897   -4877.6101            0    2931.5785    17.957839    23.290609    19.450529    8135.1645    2263.2102     3810.133    2721.3924   -457.61086    715.40821   -1024.8258   -4069.0856 
17232000    227.06059   -4893.4266   -4439.2774   -4893.4266            0    2166.5815    18.331351    22.894668    19.408376    8145.5049    473.52566    3483.8055    2542.4134     1164.599    1143.3321   -793.65587   -4181.9009 
17233000    228.73835   -4913.6492   -4456.1443   -4913.6492            0    3014.4692    18.143747    22.766173    19.527869    8066.2535    3112.5776    3486.5787    2444.2512   -367.73826    903.06209   -1142.5668   -4101.5281 
17234000    228.21406   -4879.0069   -4422.5506   -4879.0069            0    1175.0015     18.38923    22.991895     19.40852    8205.9851    803.25475    1222.5245    1499.2252   -496.37632     403.9414    1196.9231   -4281.9312 
17235000    205.42307   -4878.3635    -4467.492   -4878.3635            0    3622.4998    18.150301    22.796055    19.545869    8087.2059    4568.0691    2941.2979    3358.1324    614.61679    -1586.838     626.4736   -4040.2413 
17236000    233.01957   -4915.9099    -4449.842   -4915.9099            0    1901.9148    18.202021    22.866614    19.503214    8117.6004    2191.9055    2655.1784    858.66047   -520.46174   -15.031452   -478.68534   -4224.6803 
17237000    217.97691   -4892.8332   -4456.8525   -4892.8332            0    2010.1471    18.070555    23.105453    19.478394     8132.782      2314.09    1186.9375    2529.4139    197.29089   -670.33553   -27.274973   -4218.4324 
17238000    229.02844    -4882.948   -4424.8629    -4882.948            0    3634.9492    18.226417    22.940913    19.397497     8110.688    3553.7133    3814.7282    3536.4061    -787.9568   -1102.6955   -618.78512    -3994.899 
17239000    231.53182   -4909.5734   -4446.4811   -4909.5734            0    3144.6569     18.25938    22.822702    19.464968    8111.6049     4625.745    2824.4321    1983.7937   -630.81212   -82.567742    1117.0757     -4074.47 
17240000    225.56748   -4880.9718   -4429.8089   -4880.9718            0    3705.3296    18.027288     22.75094    19.731851    8092.7769    5754.3817    3735.3349    1626.2722    884.49867    759.21821    1115.7653    -3992.488 
17241000    216.77209   -4897.4137   -4463.8427   -4897.4137            0    2264.4685    18.262738    23.054456    19.286355    8120.2785    2508.7709    2126.5815    2158.0529    1062.2011   -107.07685   -490.52482   -4195.6709 
17242000    226.61973   -4909.8646   -4456.5971   -4909.8646            0    3053.7516    18.138885    22.976465    19.442822    8103.1354    2310.4172    3170.9768    3679.8607    1200.0878   -174.39189   -31.970357   -4095.7172 
17243000    230.21212   -4871.6873   -4411.2346   -4871.6873            0     4609.469    17.990282     22.79715    19.674199    8068.9233    4911.2219    6126.5849    2790.6003    709.70864    1307.9564   -187.77426   -3868.8062 
17244000    235.89793    -4895.716    -4423.891    -4895.716            0    4036.4155    18.207078     22.74833     19.50581    8078.9284       3132.9    4461.2788    4515.0678   -18.791731   -62.161233    -298.8154   -3948.3089 
17245000    237.68673   -4890.4641   -4415.0613   -4890.4641            0    1909.1915    18.204935    23.041737    19.490832    8175.8842    613.21597    1564.9429    3549.4155     983.6498   -475.90959    333.24315   -4187.4152 
17246000    226.90147    -4903.043   -4449.2121    -4903.043            0    1882.5506    18.050999    23.087709    19.477302    8117.2864    3347.6219    1233.5298    1066.5002   -1098.0379    -536.0768   -570.44207   -4226.3514 
17247000    224.11222   -4892.4425   -4444.1904   -4892.4425            0     2848.272    18.175739    23.185912    19.252698     8113.493    1964.4829    2769.8315    3810.5016    212.58522    1315.5892    2174.5405    -4107.163 
17248000    223.45709   -4871.4401   -4424.4983   -4871.4401            0    3442.4848    18.198648    22.902966    19.433846    8100.0856    3217.5087    3375.3042    3734.6416   -686.77075    767.68366    -1275.867   -4017.8326 
17249000     219.3642    -4891.124   -4452.3685    -4891.124            0     2526.894    18.167837    23.052039    19.377833    8115.5468    1800.5214    2809.0938    2971.0668    39.273939    565.47844   -134.31297   -4153.2931 
17250000    233.93828    -4885.632   -4417.7266    -4885.632            0    1046.6389    18.199221    23.207875     19.35038    8172.9282    719.78273     428.5487    1991.5852   -229.51277    93.378367   -426.29341   -4292.9737 
Loop time of 542.668 on 64 procs for 250000 steps with 1008 atoms

Performance: 79.607 ns/day, 0.301 hours/ns, 460.687 timesteps/s
99.2% CPU use with 64 MPI tasks x 1 OpenMP threads

MPI task timing breakdown:
Section |  min time  |  avg time  |  max time  |%varavg| %total
---------------------------------------------------------------
Pair    | 27.237     | 31.314     | 34.89      |  29.7 |  5.77
Bond    | 0.2855     | 0.29572    | 0.31275    |   0.8 |  0.05
Kspace  | 258.86     | 272.78     | 286.4      |  44.2 | 50.27
Neigh   | 3.3473     | 4.098      | 4.9433     |  24.4 |  0.76
Comm    | 91.356     | 106.51     | 120.87     |  73.6 | 19.63
Output  | 1.2664     | 1.2676     | 1.2784     |   0.1 |  0.23
Modify  | 114.44     | 117.91     | 121.9      |  20.4 | 21.73
Other   |            | 8.492      |            |       |  1.56

Nlocal:        15.7500 ave          20 max          12 min
Histogram: 1 6 6 15 0 17 10 5 3 1
Nghost:        2462.53 ave        2488 max        2444 min
Histogram: 5 5 13 8 8 12 5 3 4 1
Neighs:        5124.36 ave        6478 max        3938 min
Histogram: 1 6 6 13 10 9 10 5 3 1

Total # of neighbors = 327959
Ave neighs/atom = 325.35615
Ave special neighs/atom = 2.0000000
Neighbor list builds = 7442
Dangerous builds = 0

unfix		3
unfix		2
unfix		1

write_data	data.final.${pid}
write_data	data.final.0
System init for write_data ...
PPPM initialization ...
  extracting TIP4P info from pair style
  using 12-bit tables for long-range coulomb (../kspace.cpp:340)
  G vector (1/distance) = 0.3829977
  grid = 24 30 32
  stencil order = 5
  estimated absolute RMS force accuracy = 0.0019645692
  estimated relative force accuracy = 5.9162417e-06
  using double precision FFTW3
  3d grid and FFT values/proc = 3825 384
Last active /omp style is kspace_style pppm/tip4p/omp
WARNING: Not all mixed pair coeffs generated from mixing. Use write_data with 'pair ij' option to store all pair coeffs. (../write_data.cpp:312)

write_restart   restart.lmp.${pid}
write_restart   restart.lmp.0
System init for write_restart ...
PPPM initialization ...
  extracting TIP4P info from pair style
  using 12-bit tables for long-range coulomb (../kspace.cpp:340)
  G vector (1/distance) = 0.3829977
  grid = 24 30 32
  stencil order = 5
  estimated absolute RMS force accuracy = 0.0019645692
  estimated relative force accuracy = 5.9162417e-06
  using double precision FFTW3
  3d grid and FFT values/proc = 3825 384
Last active /omp style is kspace_style pppm/tip4p/omp
Total wall time: 0:09:04
