LAMMPS (30 Jul 2021)
Processor partition = 0
  using 2 OpenMP thread(s) per MPI task
using multi-threaded neighbor list subroutines
variable        pid world 0 1
variable        phase world IceIh Liquid

shell cd ${phase}
shell cd IceIh
include Restart.lmp
echo both
log log.lammps
#include		in.partitions
include		in.temp
variable        temperature equal 267.00
variable	tempDamp equal 100.0
include		in.pressure
variable        pressure equal 303.5
variable        pressureDamp equal 1000.0 # This is 1 ps
include		in.seed
variable        seed equal 745823

units		real
atom_style	full
#include		in.box
read_restart	restart.lmp.${pid}
read_restart	restart.lmp.0
Reading restart file ...
  restart file = 30 Jul 2021, LAMMPS = 30 Jul 2021
WARNING: Restart file used different # of processors: 64 vs. 32 (../read_restart.cpp:659)
  restoring atom style full from restart
  orthogonal box = (0.012236524 0.014615868 0.060496019) to (18.195336 23.614562 22.152700)
  2 by 4 by 4 MPI processor grid
  restoring pair style lj/cut/tip4p/long/omp from restart
  restoring bond style harmonic/omp from restart
  restoring angle style harmonic/omp from restart
  864 atoms
  576 bonds
  288 angles
Finding 1-2 1-3 1-4 neighbors ...
  special bond factors lj:    0        0        0       
  special bond factors coul:  0        0        0       
     2 = max # of 1-2 neighbors
     1 = max # of 1-3 neighbors
     1 = max # of 1-4 neighbors
     2 = max # of special neighbors
  special bonds CPU = 0.002 seconds
  read_restart CPU = 0.023 seconds
include 	in.setup
variable	out_freq equal 1000
variable	out_freq2 equal 10000
variable	out_freq3 equal 1000

timestep	2.0

neigh_modify    delay 7 every 1

include		in.tip4p
# This is TIP4P/Ice

# create groups ###
group ox type 2
288 atoms in group ox
group hy type 1
576 atoms in group hy

# set charges - beside manually ###
set group ox charge -1.1794
Setting atom values ...
  288 settings made for charge
set group hy charge 0.5897
Setting atom values ...
  576 settings made for charge

# ### TIP3P Potential Parameters ###
pair_style lj/cut/tip4p/long/omp 2 1 1 1 0.1577 8.5
pair_coeff 1 1*2 0.000 0.000
pair_coeff 2 2 0.21084 3.1668
bond_style  harmonic
bond_coeff  1 450 0.9572
angle_style harmonic
angle_coeff 1 55 104.52
kspace_style pppm/tip4p/omp 1.0e-5
pair_modify tail yes

thermo          ${out_freq}
thermo          1000
thermo_style    custom step temp pe etotal epair emol press lx ly lz vol pxx pyy pzz pxy pxz pyz enthalpy

restart 	${out_freq3} restart.lmp.${pid} restart2.lmp.${pid}
restart 	1000 restart.lmp.${pid} restart2.lmp.${pid}
restart 	1000 restart.lmp.0 restart2.lmp.${pid}
restart 	1000 restart.lmp.0 restart2.lmp.0


include         in.dump
dump            myDump all atom ${out_freq2} dump.water.${pid}
dump            myDump all atom 10000 dump.water.${pid}
dump            myDump all atom 10000 dump.water.0
dump            myDump2 all dcd ${out_freq2} dump.dcd
dump            myDump2 all dcd 10000 dump.dcd
dump_modify     myDump append yes
dump_modify     myDump2 append yes


variable natoms 	equal  "count(all)"                        # NUMBER ATOMS
variable H      	equal  "enthalpy/v_natoms"                 # ENTHALPY-per-atom
variable Vol      	equal  "vol/v_natoms"                 # volume-per-atom
fix AVG all 		ave/time ${out_freq} 1 ${out_freq} v_Vol v_H file vol_enthalpy.dat
fix AVG all 		ave/time 1000 1 ${out_freq} v_Vol v_H file vol_enthalpy.dat
fix AVG all 		ave/time 1000 1 1000 v_Vol v_H file vol_enthalpy.dat


timer           timeout 23:50:00 every 1000
New timer settings: style=normal  mode=nosync  timeout=23:50:00

fix 		1 all shake 1e-6 200 0 b 1 a 1
Finding SHAKE clusters ...
       0 = # of size 2 clusters
       0 = # of size 3 clusters
       0 = # of size 4 clusters
     288 = # of frozen angles
  find clusters CPU = 0.000 seconds
fix             2 all nph aniso ${pressure} ${pressure} ${pressureDamp}
fix             2 all nph aniso 303.5 ${pressure} ${pressureDamp}
fix             2 all nph aniso 303.5 303.5 ${pressureDamp}
fix             2 all nph aniso 303.5 303.5 1000
fix             3 all temp/csvr ${temperature} ${temperature} ${tempDamp} ${seed}
fix             3 all temp/csvr 267 ${temperature} ${tempDamp} ${seed}
fix             3 all temp/csvr 267 267 ${tempDamp} ${seed}
fix             3 all temp/csvr 267 267 100 ${seed}
fix             3 all temp/csvr 267 267 100 745823


run             250000
PPPM initialization ...
  extracting TIP4P info from pair style
  using 12-bit tables for long-range coulomb (../kspace.cpp:340)
  G vector (1/distance) = 0.3711644
  grid = 24 27 25
  stencil order = 5
  estimated absolute RMS force accuracy = 0.0032161122
  estimated relative force accuracy = 9.6852263e-06
  using double precision FFTW3
  3d grid and FFT values/proc = 4410 672
Last active /omp style is kspace_style pppm/tip4p/omp
Neighbor list info ...
  update every 1 steps, delay 7 steps, check yes
  max neighbors/atom: 2000, page size: 100000
  master list distance cutoff = 10.8154
  ghost atom cutoff = 10.8154
  binsize = 5.4077, bins = 4 5 5
  1 neighbor lists, perpetual/occasional/extra = 1 0 0
  (1) pair lj/cut/tip4p/long/omp, perpetual
      attributes: half, newton on, omp
      pair build: half/bin/newton/omp
      stencil: half/bin/3d
      bin: standard
Setting up Verlet run ...
  Unit style    : real
  Current step  : 500000
  Time step     : 2
  Walltime left : 23:49:59.93
Per MPI rank memory allocation (min/avg/max) = 10.20 | 10.22 | 10.23 Mbytes
Step Temp PotEng TotEng E_pair E_mol Press Lx Ly Lz Volume Pxx Pyy Pzz Pxy Pxz Pyz Enthalpy 
  500000    277.89618    -4186.577   -3710.2725    -4186.577            0    212.32114    18.183099    23.599946    22.092204    9480.2101    59.813393     627.8256   -50.675573    435.21068    636.77719   -13.695358   -3680.9172 
  501000    271.10853   -4221.4593   -3756.7886   -4221.4593            0   -28.623212    17.943356    23.686628    22.227708    9447.1672   -1136.4253   -38.524291    1089.0799   -57.632093     189.4321    64.984124   -3760.7322 
  502000    275.96012   -4228.6989   -3755.7127   -4228.6989            0    559.07868    18.109695    23.705433    22.104445    9489.3978    1029.0831   -564.09527    1212.2482   -112.89485   -514.68541    596.12307     -3678.34 
  503000     258.5462   -4206.3599   -3763.2205   -4206.3599            0    782.81554    18.224715    23.439617    22.132148    9454.4185     1076.479    1060.9097    211.05794    469.21526   -479.44438   -937.91744   -3655.2836 
  504000    237.35326   -4203.4508   -3796.6355   -4203.4508            0   -2557.8218    18.232901    23.526991    22.478484    9642.4894   -2188.5997   -2035.6379   -3449.2277   -909.80483   -195.61545    439.02809   -4156.3312 
  505000    266.53608   -4194.0753   -3737.2415   -4194.0753            0   -227.13933    18.213885      23.4738    22.080702    9440.5843   -512.52089    370.59093   -539.48803   -328.29329     530.3176    630.45744   -3768.5144 
  506000    260.70525   -4184.8178   -3737.9779   -4184.8178            0    343.83634    18.119946    23.509779    22.235635    9472.2898    351.62776    29.038176    650.84309    275.14812    984.16896    298.13197   -3690.4791 
  507000    273.03063   -4218.9151   -3750.9499   -4218.9151            0   -56.276286    18.060497    23.603042    22.215715    9470.1746   -1715.6151    24.300332    1522.4859   -202.54054   -974.62767    163.17037   -3758.7224 
  508000    286.42088   -4226.5734   -3735.6578   -4226.5734            0    887.48123    18.123543     23.78304    21.872268    9427.6685   -137.78597   -288.63559    3088.8653   -1907.3391    321.62166   -874.38855   -3613.6354 
  509000    274.76792   -4183.6433   -3712.7004   -4183.6433            0    1448.2188    18.043884    23.481314    22.162643    9390.1811    3218.3235     888.4622    237.87086    256.51005   -886.18156    168.91423   -3514.3724 
  510000    274.69699   -4214.0064   -3743.1852   -4214.0064            0    947.97239    18.306952    23.245042    22.119702    9412.9475   -1083.5246    1111.0819    2816.3599   -612.76301    263.07682    365.03858   -3613.0492 
  511000    268.27158   -4213.9218   -3754.1135   -4213.9218            0    173.77521     18.39877    23.246388    22.073226    9440.8279   -484.06596    -261.3811    1266.7727   -730.53631   -259.56301    1020.0943   -3730.1873 
  512000    260.19658   -4146.2216   -3700.2536   -4146.2216            0    446.80003    18.082064     23.55163    22.353461    9519.4913    383.88855   -202.47481    1158.9864   -496.05157    -99.80719   -130.30614   -3638.2234 
  513000    267.04972   -4175.1894   -3717.4753   -4175.1894            0    1312.0777    17.923215    23.831828    22.105075    9442.0277    1886.0492    239.31439    1810.8695    -325.1583     294.0237   -875.76124   -3536.7992 
  514000    269.64536   -4240.9661   -3778.8032   -4240.9661            0    1.9143238    18.104799    23.693109    22.126366     9491.303    837.29816   -848.58918    17.033985   -244.36797   -343.40027   -85.415025   -3778.5382 
  515000    273.15983    -4220.844   -3752.6574    -4220.844            0    781.30203    18.211377    23.278125    22.309172    9457.4541    1464.0961    2218.5763   -1338.7663    728.95136   -145.92954   -93.420027   -3644.8945 
  516000    273.32155   -4219.9263   -3751.4625   -4219.9263            0     1246.206    18.333262    23.311976    22.177784    9478.4424    872.99396    2742.8135    122.81064    135.37188    256.94675     252.1361   -3579.1953 
  517000    263.80873   -4196.9372   -3744.7781   -4196.9372            0    538.57714      18.2902    23.607676    21.939904    9473.4119    171.86798    384.55721    1059.3062   -1700.8849   -72.124213   -292.90717   -3670.3682 
  518000    253.82947   -4221.9798   -3786.9248   -4221.9798            0   -229.33914    18.028134    23.683332    22.347544    9541.6479   -1555.5586   -1229.7715    2097.3126    335.82424    171.82752     1376.615   -3818.8385 
  519000      263.155    -4201.757   -3750.7183    -4201.757            0   -178.54292    18.022136    23.775597    22.256595    9536.6625    158.72778   -66.443728   -627.91281    94.093742   -133.28865   -212.38123   -3775.5505 
  520000    267.65949   -4229.5184   -3770.7592   -4229.5184            0    640.18601    18.324211     23.48011    22.032102     9479.411    316.81561    491.58159    1112.1608   -799.22511   -1011.2341    -923.9975   -3682.2551 
  521000    261.84966   -4220.9012   -3772.0999   -4220.9012            0    1735.8496    18.319416    23.178679    22.196446    9425.0517    597.64686    4601.5441    8.3578084    24.798876   -4.1068248   -888.21331   -3533.4992 
  522000    285.86663   -4222.6388   -3732.6732   -4222.6388            0    1200.7122    18.335728    23.210736    22.229407    9460.5186    -480.2322    3052.4869     1029.882    836.66919    118.44138   -393.98662   -3567.0086 
  523000    247.86759   -4204.8192   -3779.9826   -4204.8192            0    2.2041116    18.117118    23.674502    22.206962    9524.8711   -21.597156   -890.61021     918.8197    193.27322   -194.35498     922.1776   -3779.6764 
  524000    281.50199   -4175.1614   -3692.6766   -4175.1614            0   -287.32403    17.952304    23.825926    22.271904    9526.3674   -292.48945    107.90559   -677.38824   -862.87605   -791.04191    36.550403   -3732.5952 
  525000    262.14561   -4192.5828   -3743.2742   -4192.5828            0    1380.7988    17.920173    23.721956    22.210421    9441.6846    405.51334    1141.1339    2595.7493   -868.01353   -869.48753    707.82749    -3553.142 
  526000    282.95002   -4208.0451   -3723.0785   -4208.0451            0   -901.89266    18.280384    23.574089    22.142827    9542.3052   -2399.7364   -589.45506    283.51354     267.4953    162.72323    125.74548   -3848.5901 
  527000    273.70053   -4199.4626   -3730.3493   -4199.4626            0    1061.4826    18.257486     23.20051    22.162892    9387.8239    184.79033    979.74133    2019.9162     125.8796   -604.86368    861.16816   -3585.0198 
  528000    266.50525   -4221.6807   -3764.8998   -4221.6807            0    268.94818    18.106456     23.55448    22.176733    9458.1143    390.14538    -887.8207    1304.5199   -479.75709      24.3681    6.4649742   -3727.8019 
  529000    253.25731   -4224.5292   -3790.4549   -4224.5292            0    1415.0203    17.902224     23.92625    22.046348    9443.1805    1778.7596    335.54176    2130.7596   -1088.4282     104.2023   -296.94502   -3595.5795 
  530000    265.87909   -4178.9434   -3723.2357   -4178.9434            0   -602.51326    18.134862    23.745414    22.187718    9554.4709     190.4937   -1181.6921   -816.34138    1385.1486    419.71592   -225.30437   -3807.1912 
  531000     271.2094   -4187.8672   -3723.0236   -4187.8672            0   -388.77715    18.200971    23.485938    22.405043    9577.4138    331.54728   -287.60679   -1210.2719    139.07386   -291.56482    1168.3538   -3777.3267 
  532000     260.5983   -4182.1931   -3735.5365   -4182.1931            0    571.61862    18.405273    23.382602    22.065201    9496.0498    1739.5046   -1434.5618     1409.913   -145.27057    -575.9807    16.687956    -3656.373 
  533000    271.07724    -4209.913   -3745.2959    -4209.913            0   -253.08403    18.361759    23.444029    22.197622    9555.4904   -80.225876   -754.69249    75.666275    -290.9762    630.04474    268.06427    -3780.565 
  534000    256.29473   -4215.3431   -3776.0627   -4215.3431            0   -9.9874917    18.085611    23.622994    22.266061    9512.8692    1002.7282    738.39142   -1771.0821    533.58539    86.289146    1491.0392   -3777.4483 
  535000    258.91419   -4230.4247   -3786.6546   -4230.4247            0    695.08707    17.985008    23.870387    21.976873    9434.8721    2016.6579   -563.64564     632.2489    185.91883    -299.1047   -382.39615   -3691.0121 
  536000    259.12196   -4217.1518   -3773.0256   -4217.1518            0    171.21977    18.104359    23.590891    22.173975    9470.4593    475.54691    478.52363   -440.41124    471.14995   -546.24688    -160.4804   -3749.3772 
  537000    274.73153   -4216.2988   -3745.4184   -4216.2988            0    618.72508    18.115932    23.312845    22.289944    9413.7994    1144.2925    1497.1372   -785.25448    866.44536    54.366288   -104.28672   -3660.4733 
  538000    267.38493    -4215.743   -3757.4544    -4215.743            0    350.56365    18.387776    23.363156    22.078127    9484.6854    189.28469    1050.3109   -187.90464   -106.60397    67.254209   -414.38117   -3708.9629 
  539000    271.13797   -4218.6601   -3753.9389   -4218.6601            0    20.148615    18.192863     23.59685    22.025708    9455.5098   -147.96537   -733.46764    941.87886   -300.96237    874.02379    1205.2305   -3751.1605 
  540000    258.71521   -4202.4942   -3759.0652   -4202.4942            0   -363.50816    18.021748    23.626085    22.340519    9512.2208    1258.6582   -229.13599   -2120.0467    1087.0994   -248.43991    368.85919   -3809.4932 
  541000    262.78416   -4211.0108   -3760.6077   -4211.0108            0    -317.4793     18.05113    23.818381     22.07972    9493.1469   -504.39875   -618.41153    170.37239   -552.60769   -613.43982   -3.4543759    -3804.562 
  542000    270.26437    -4230.167   -3766.9432    -4230.167            0    385.70488    18.117726     23.63132    22.045332    9438.6154   -614.18922    1378.0804    393.22344   -81.284091    584.79862   -391.36228   -3713.8499 
  543000       275.15   -4212.7264   -3741.1288   -4212.7264            0   -905.06025    18.213475     23.15724    22.626273    9543.1692    698.58972   -1432.2511   -1981.5194    668.22578   -564.67886   -83.886657   -3867.0926 
  544000    268.14809   -4208.4903   -3748.8936   -4208.4903            0    1170.1955     18.27304    23.572217    21.985658    9470.0161     1373.791    291.88845     1844.907    487.45469   -880.53014    370.83489   -3587.2774 
  545000    259.07667   -4250.7591   -3806.7106   -4250.7591            0    705.14229    18.097471    23.620599    22.099651    9447.0065    1736.5547    423.20793   -44.335736    708.26791   -1.4667399   -146.95046   -3709.5597 
  546000    282.34033   -4223.2697   -3739.3481   -4223.2697            0    409.82352    18.139279    23.599648    22.264413    9530.9633    80.963567     799.9974    348.50958   -343.63607   -1100.1004    79.748418   -3682.3829 
  547000    269.42653   -4234.7602   -3772.9723   -4234.7602            0     757.9613    18.187888     23.51824    22.162921    9480.1251    1428.7106    613.84282    231.33042   -334.69606   -1341.8752    519.96277   -3668.1782 
  548000    271.57842   -4219.5107   -3754.0346   -4219.5107            0    748.97645    18.176927    23.525977    22.093906    9448.0165    369.00657    1433.6121    444.31066    445.68308    705.99986    210.28587   -3650.8334 
  549000    262.79881   -4180.4328   -3730.0047   -4180.4328            0     750.4735    18.151223    23.520297    22.208135    9481.1451    1859.7291    1041.7104   -650.01895   -75.084309    688.59125    306.12547   -3626.2346 
  550000    266.19052   -4217.9198   -3761.6784   -4217.9198            0   -1399.4617    18.375826    23.890006    21.899393    9613.8026   -2385.2771   -1634.2829   -178.82509   -671.91957    490.20815   -212.41609   -3957.8934 
  551000    283.23829   -4209.2298   -3723.7691   -4209.2298            0   -317.68757    18.084214    23.689691    22.249352    9531.8328    68.030753    86.340265   -1107.4337    312.33274    120.24304   -462.49393   -3767.9315 
  552000    265.56163   -4218.4855   -3763.3219   -4218.4855            0    -138.0713    18.073865    23.546389    22.389231    9528.2802    -459.4759   -72.440792     117.7028   -558.87766    152.54133    210.62202   -3782.5083 
  553000    263.27795   -4226.3793   -3775.1299   -4226.3793            0    1697.4727    18.185962    23.593038    21.977885    9429.8773    918.26971    3056.8696    1117.2787   -789.18285    421.14676    268.14726   -3541.6848 
  554000    278.91993   -4213.3783   -3735.3191   -4213.3783            0   -366.17514    18.227635    23.620275       22.215    9564.4847   -1187.9334    887.52487   -798.11684   -526.00323    -595.3235   -614.45673   -3786.3962 
  555000    266.12398    -4211.586   -3755.4586    -4211.586            0     459.9283    18.072441     23.41491    22.397952      9478.02    939.68201    626.47498   -186.37208   -632.55511   -319.48573   -1533.2421    -3691.884 
  556000    271.82509   -4181.0048   -3715.1058   -4181.0048            0   -790.91151    18.292346    23.855189    21.834472    9527.8511   -906.05471   -1806.9941    340.31428    340.69773    -980.3076   -547.44259   -3825.0061 
  557000    261.60356   -4199.9254   -3751.5458   -4199.9254            0    1575.3335    18.030808    23.588836    22.182671    9434.8618    2508.8789    284.92395    1932.1975    198.79004    -2.916405   -24.097846   -3534.7835 
  558000    272.58653   -4220.7131   -3753.5091   -4220.7131            0   -598.05868    18.162344    23.671328     22.16842    9530.7978   -1196.9109   -1255.5354    658.27029   -771.17409    382.31798   -10.185003   -3836.6374 
  559000     282.8084   -4230.2132   -3745.4893   -4230.2132            0   -523.07104     18.19042    23.683337    22.121098    9529.9869    1290.7867   -979.72222   -1880.2775   -397.63109   -553.39476   -516.07614   -3818.1884 
  560000    259.31334   -4223.9101   -3779.4559   -4223.9101            0    2213.4612    18.045146    23.193767    22.275983    9323.2769    2491.3715    2705.9144    1443.0978   -895.57681   -399.19944     519.8871   -3478.4907 
  561000    257.10609   -4201.5952   -3760.9241   -4201.5952            0   -170.93333    18.191169     23.62341    22.130066    9510.1179   -402.05638    239.37099    -350.1146    159.91795   -287.84016   -713.65143   -3784.6318 
  562000    261.35987   -4175.8152   -3727.8534   -4175.8152            0   -240.25363    18.139054    23.617794    22.337454    9569.4645    570.55448   -963.26204   -328.05335    696.65022   -948.55851   -151.78383   -3761.3834 
  563000    269.83467   -4171.3965   -3708.9091   -4171.3965            0    1377.8258    18.139208    23.378037    22.274764    9445.8158    1424.8797     1997.704    710.89378    609.15614    48.750008    947.09342   -3519.1032 
  564000    272.03021   -4221.3678   -3755.1173   -4221.3678            0    227.18971    18.337241    23.587012    21.887308    9466.7146    503.54396   -487.07358    665.09875   -176.72909   -76.762483   -93.457001    -3723.751 
  565000    257.00634   -4224.7053   -3784.2052   -4224.7053            0    955.71437    17.971236    23.405581    22.322123    9389.2928     616.5481    310.80055    1939.7945    77.305879   -195.13617    355.35594   -3653.3362 
  566000    276.38219   -4187.2088   -3713.4991   -4187.2088            0    2664.5762    18.151218     23.52408    21.914619    9357.3383    2962.6911    2647.4783    2383.5591   -185.67851   -624.07986    227.84618   -3349.8719 
  567000    256.52153   -4229.7422    -3790.073   -4229.7422            0    197.88395    18.169632    23.662336    22.083173    9494.3495    25.583531   -1011.3191    1579.3875   -310.52189   -148.33464   -298.33386    -3762.673 
  568000    275.95508    -4235.721   -3762.7435    -4235.721            0    2014.5701    17.840896    23.439185    22.389428    9362.7227    3127.5305    1606.2935    1309.8862   -1173.2594   -686.30432   -734.79897   -3487.6626 
  569000    256.26505   -4233.0535   -3793.8239   -4233.0535            0   -254.45282    18.199714    23.750481    21.989465    9504.9896    371.37782   -189.03155   -945.70472    108.74743    471.79319    184.22813   -3829.0963 
  570000    271.92666   -4222.0825   -3756.0095   -4222.0825            0      326.655    18.183288    23.567969    22.226104    9524.8448    735.27009   -613.59255    858.28745    -580.1806   -703.58811    292.55446   -3710.6338 
  571000     265.8946   -4215.0389   -3759.3046   -4215.0389            0    1483.2942    18.225636    23.337329    22.224125    9452.7575   -674.30327    3369.1896    1754.9964   -132.52498    -794.5905   -636.50373   -3554.8195 
  572000    295.49663   -4197.2934   -3690.8223   -4197.2934            0    791.24726    18.349068    23.433462    22.004854    9461.6949   -1783.7883    2219.5345    1937.9955    1068.9443   -134.47788   -237.82933   -3581.6388 
  573000    249.74088   -4214.1112   -3786.0638   -4214.1112            0   -606.57323    18.196226    23.722951    22.163483    9567.2701   -1364.3978   -119.97963   -335.34221    293.92335   -398.54796    118.07435   -3870.6983 
  574000     261.5055   -4211.3072   -3763.0957   -4211.3072            0    973.71851    18.013207    23.749129    22.176787     9487.185    266.33743    880.20748    1774.6106    923.53451    562.37257    503.73923   -3628.3712 
  575000    263.32035   -4205.5507   -3754.2286   -4205.5507            0    811.38846    17.984395      23.6552    22.135324    9416.9084     1431.389    251.82152    750.95481    552.62292   -497.57961    367.92228   -3642.7958 
  576000    251.92389   -4191.2021   -3759.4131   -4191.2021            0    588.26498    18.352298    23.311869    22.208872    9501.5409    682.01483   -318.63142    1401.4115    417.20297    -741.1349    343.84564   -3677.8971 
  577000    269.87337   -4234.1415   -3771.5878   -4234.1415            0    1302.3609    18.230145    23.287363    22.154861    9405.4477    337.16032    2462.9635    1106.9589    189.53462    528.51703    68.315764   -3592.9445 
  578000    287.63649   -4202.5397   -3709.5406   -4202.5397            0    2786.0876    18.063424     23.42669      22.1175    9359.3792    3206.5798    3251.1453    1900.5377   -70.324641   -212.80803     731.6973   -3329.2481 
  579000    270.47484    -4231.595   -3768.0104    -4231.595            0   -17.207235    17.986468    23.895936    22.129942     9511.526    1810.1509   -1285.4457   -576.32688   -178.01882   -290.95144   -505.37456   -3770.3973 
  580000    276.36629   -4192.4689   -3718.7865   -4192.4689            0    344.27164     18.05429     23.76141    22.262597    9550.5511     1347.877   -228.72618   -86.335897     220.5839   -253.13578    114.33674   -3670.8347 
  581000    272.86354   -4222.9108    -3755.232   -4222.9108            0     486.1259    18.177113    23.407487    22.250115    9466.9908   -203.77651    1368.3505    293.80375   -658.29197    46.222409    721.34748   -3688.1144 
  582000    253.95226   -4215.3992   -3780.1337   -4215.3992            0     860.2124    18.280737    23.533201    22.122522    9517.2033    668.80089    942.01978    969.81654   -670.74036    767.27085     21.72932   -3660.7374 
  583000     250.9363    -4208.388   -3778.2918    -4208.388            0    1133.8548    18.317399    23.361473    22.105423    9459.3845    605.32494    1999.6568    796.58255   -603.36558   -875.60823    1093.9889   -3621.8704 
  584000    280.36188   -4187.7097    -3707.179   -4187.7097            0    367.89945    18.008914    23.592612     22.31509    9481.1754    492.70638    50.318872    560.67311    49.762502   -549.53142    326.76094   -3656.3083 
  585000    272.96438   -4224.7766    -3756.925   -4224.7766            0    1489.5761    17.857916    23.804892    21.948684    9330.5125    2517.1077    345.70556    1605.9149    77.873141    596.66246    834.96623   -3554.2295 
  586000    268.12092   -4216.0194   -3756.4694   -4216.0194            0    687.77295    18.051687    23.723049    22.125341     9474.979     1319.548    762.18843   -18.417614   -670.51543   -27.570462    1103.8967   -3661.4309 
  587000    253.21807   -4214.5806   -3780.5735   -4214.5806            0     233.2872    18.185556    23.322154    22.375113    9489.8747    61.069158    842.41375   -203.62132   -188.69161   -136.68834    1127.1698   -3748.2865 
  588000    272.72432   -4186.4348   -3718.9946   -4186.4348            0   -488.25638    18.388974    23.310336     22.33121    9572.3439   -1610.8287    1200.1063   -1054.0467    275.85013   -106.55428    97.766071   -3787.1566 
  589000     253.4698   -4225.4496    -3791.011   -4225.4496            0    845.94213    18.216682      23.4772    22.070946    9439.2289    1487.5536    179.36912     870.9037    1.4881465   -60.175006   -204.26107   -3674.5574 
  590000    274.74162   -4222.2076   -3751.3098   -4222.2076            0    477.28064    18.020787    23.737716    22.083444    9446.6863    404.38114    14.178454    1013.2823    34.035533    259.99717   -204.40649   -3685.5548 
  591000    266.06403   -4247.6527    -3791.628   -4247.6527            0     88.18857    17.921836    23.750574    22.187721    9444.2899    697.71947     763.0497   -1196.2035    255.07704    262.45256   -694.62031   -3779.4813 
  592000    285.61027    -4230.186   -3740.6598    -4230.186            0    1032.0072    18.132935    23.510938    22.152645     9444.167     1434.945    1452.1427    208.93411     592.2822   -338.74233    455.40577   -3598.5178 
  593000     260.5808   -4230.9917   -3784.3652   -4230.9917            0    100.55683     18.27055    23.527308    22.109794    9504.0465    215.80082      973.681   -887.81133    884.33298   -260.58688     457.8141   -3770.4273 
  594000    263.96832   -4218.0406   -3765.6079   -4218.0406            0   -1006.4645    18.176576     23.53809    22.251161    9519.9787   -141.81864   -862.71439   -2014.8605   -77.598725    -406.6384    538.97701   -3905.3446 
  595000    266.97205   -4239.9118   -3782.3309   -4239.9118            0   -366.56763    18.018423     23.62806    22.378978    9527.6347     323.3416    4.5672952   -1427.6118    122.64191    174.95243   -240.51603   -3833.2657 
  596000    274.17237   -4204.9372   -3735.0151   -4204.9372            0   -355.73286    18.235134    23.746208    22.098643    9569.0498   -483.50952   -307.86323   -275.82584   -774.81672   -238.50891    769.43511   -3784.6593 
  597000    268.18894   -4214.1677    -3754.501   -4214.1677            0    243.52426    18.140355    23.499496    22.273605    9494.9974    1137.6354   -189.14991   -217.91273    583.48497    237.34463    248.46416    -3720.779 
  598000    258.44556    -4235.618   -3792.6512    -4235.618            0    1024.5966    18.213349    23.448318    21.967492    9381.7095    406.27405    314.00828    2353.5075   -323.37119   -398.54421    90.617121   -3652.4632 
  599000    276.91161   -4225.9014   -3751.2844   -4225.9014            0    1184.3802    18.098708    23.611988    22.014671    9407.8921    2103.6713    1133.8883    315.58118    853.44325    177.55477     275.0985   -3588.7821 
  600000    254.69607   -4213.2055   -3776.6651   -4213.2055            0    1373.7593    18.013912    23.610888    22.130119    9412.4812    1737.5898    2387.1354   -3.4472756    55.458813    555.29427   -286.81443   -3588.0873 
  601000    261.25988   -4246.5682   -3798.7777   -4246.5682            0    142.48048    18.299991    23.477984    22.071465    9482.9368   -1701.8174    -388.6751    2517.9339    1505.2408   -871.72447     59.06459   -3779.0728 
  602000    274.39986   -4206.7419     -3736.43   -4206.7419            0   -343.49069    18.199827     23.51232    22.337793    9558.7915    482.39739   -686.32379   -826.54567    320.13219   -686.56321   -401.69603   -3784.3143 
  603000    270.75195   -4205.2925   -3741.2329   -4205.2925            0    588.26088    18.329083    23.351937    22.212898    9507.5554    783.32921    186.94966    794.50378   -829.04906   -215.62954    238.84822   -3659.6659 
  604000    264.42677   -4209.0849   -3755.8665   -4209.0849            0    33.632956    18.139352    23.673587    22.187691    9527.9165   -435.06945   -945.54131    1481.5096    227.86586    278.02147    843.61413    -3751.193 
  605000    277.53933   -4208.1197   -3732.4268   -4208.1197            0    1261.3581    17.999415    23.850604    22.035731    9459.8716    635.03274    1659.4468    1489.5949    369.42465   -23.688009    599.57093   -3558.4066 
  606000    258.45706   -4226.2809   -3783.2943   -4226.2809            0   -232.61383    18.184935    23.655132    22.176688    9539.6799   -632.74424    558.56808   -623.66534   -493.35349    443.15538    98.967584   -3815.6571 
  607000    264.60133    -4234.922   -3781.4044    -4234.922            0   -397.58548    18.348329    23.097623    22.384979    9486.8166    615.99849    610.21699   -2418.9719    136.71411   -569.25001   -626.82851   -3836.4125 
  608000    265.51781   -4208.7834    -3753.695   -4208.7834            0   -576.35708    18.258556    23.496481    22.281092     9558.852    -1871.024    113.60733    28.345463   -760.30843     -107.864    -786.9224   -3834.0426 
  609000    273.85977   -4239.8065   -3770.4203   -4239.8065            0     575.5808    18.297607    23.369763    22.042096    9425.4372   -1062.9535    1470.3831    1319.3129    -312.1166    875.96848   -190.53751   -3691.3007 
  610000    272.29318   -4235.2116   -3768.5104   -4235.2116            0    130.60283    17.980978    23.749781    22.204539    9482.3217    381.18536   -236.77695     247.4001   -1563.2384    708.10668    442.89549   -3750.4493 
  611000    260.23081   -4191.7562   -3745.7295   -4191.7562            0    1624.6998    17.970048    23.745499    22.092119    9426.8783    3101.8513    1069.4992     702.7489    646.71813    369.87143    418.03297   -3522.3636 
  612000    270.85861   -4219.1924     -3754.95   -4219.1924            0     800.0004    18.099361     23.63667    22.063626    9439.0096    431.74099    746.39625     1221.864   -662.37781   -1016.4944    87.155082   -3644.8233 
  613000    266.42405    -4221.935   -3765.2933    -4221.935            0    845.41324    18.175176     23.37873    22.164171    9417.8341    1245.8525    92.396422    1197.9908    218.54597   -17.576138     1063.766   -3649.1762 
  614000    276.40063   -4179.8483    -3706.107   -4179.8483            0   -1337.2518    18.410488    23.521403    22.178156    9604.0402   -2192.4229   -1247.3115   -572.02101     213.6616    78.999798   -472.05999   -3893.4093 
  615000    278.79207   -4207.7588   -3729.9187   -4207.7588            0    -764.1917    18.161734    23.736512    22.199352    9570.0564    459.46755   -987.78981   -1764.2529   -434.89631   -116.05244   -41.135369   -3836.5765 
  616000    271.24549   -4239.2223   -3774.3168   -4239.2223            0    1185.0646      17.9566    23.534418    22.353119    9446.3864    1701.4512    1204.8683    648.87432    99.709458    70.386381   -46.438721   -3611.0554 
  617000    255.45917   -4238.3635   -3800.5153   -4238.3635            0    624.96088    18.142904      23.7824    21.949895    9470.9804   -1038.7138   -659.15142    3572.7478   -470.78938    421.02895    -645.1882   -3714.1928 
  618000    253.31285   -4215.7236    -3781.554   -4215.7236            0    1713.2468    18.155836    23.409086    22.083737    9385.8425    1251.3653    998.76954    2889.6057   -1444.1874   -561.99337   -13.037765   -3547.0399 
  619000    268.49659   -4204.1408   -3743.9469   -4204.1408            0    1609.7309    18.077309    23.356249    22.273791    9404.3985     1895.724    2025.0767    908.39205    594.72055     251.9081    842.70257   -3523.1666 
  620000    262.74852   -4220.0712   -3769.7293   -4220.0712            0    983.92992    18.416573    23.427251    21.847562    9426.1236    447.42822    -267.0342    2771.3957   -630.78108    623.79536   -44.321912   -3634.4681 
  621000    273.21583    -4240.344   -3772.0615    -4240.344            0   -543.51579    18.313061    23.409071    22.135684    9489.3854   -1169.9484   -805.75544    345.15646    297.42809   -594.72897    781.57554   -3847.2802 
  622000    274.36163   -4191.1977   -3720.9513   -4191.1977            0   -497.16613    18.103077    23.583072    22.347246    9540.6243    -281.0344   -381.26677   -829.19721    206.08651     356.0512    -512.1952   -3790.1271 
  623000    252.70429   -4223.8764   -3790.7499   -4223.8764            0    247.86268    18.071888    23.882611    21.927655    9464.0607    1235.7657   -1464.2709    972.09316   -152.30455    -78.08927   -420.85109    -3756.539 
  624000     278.0289     -4214.59   -3738.0579     -4214.59            0   -290.94357    18.062447    23.646263    22.330034    9537.3669   -1441.3228   -646.94934    1215.4414   -561.28267    378.08673   -265.91676   -3778.5261 
  625000    277.20145   -4186.8662   -3711.7524   -4186.8662            0      585.065    18.303514    23.444459    22.255777      9550.31   -60.981207   -598.79489    2414.9711    415.24482    271.56121     574.0794   -3630.2636 
  626000    267.60911   -4218.3675   -3759.6946   -4218.3675            0    684.25512    18.266761    23.358032    22.214298    9478.2987    240.03977    1371.1881    441.53755   -219.90884   -940.22157   -282.59629   -3665.1091 
  627000    261.42588   -4192.0537   -3743.9787   -4192.0537            0    541.42472    18.051454    23.599961    22.205338    9459.7766    1455.4751    794.23693   -625.43792   -542.97368    302.40865    341.36348   -3669.2831 
  628000    257.39638   -4193.9628   -3752.7942   -4193.9628            0   -298.19602    18.011714    23.974842    22.086626    9537.6237    461.60722    -1932.531     576.3357   -881.39532   -617.49568    229.14434   -3794.2722 
  629000    276.48094   -4192.0189     -3718.14   -4192.0189            0   -527.66584    17.980697    23.636516    22.280891    9469.4019   -692.55223    -336.0181   -554.42718   -1550.4716    6.2117016   -191.08362   -3791.0114 
  630000    257.53968   -4226.8857   -3785.4715   -4226.8857            0    440.96156    18.264539    23.327503    22.159009    9441.2025   -335.09576    828.71622    829.26423   -229.55301    255.96667   -102.15724   -3724.7554 
  631000    268.56811   -4257.0053   -3796.6887   -4257.0053            0    445.13984    18.289674    23.409496    21.962262    9403.1875   -1118.0141    964.48427    1488.9493     435.8215    260.10779   -24.413029   -3735.6441 
  632000    273.25479   -4192.9404   -3724.5911   -4192.9404            0    33.103917    18.070558    23.518601    22.475918     9552.136    803.81231   -706.96268    2.4621175    201.03978     1454.516   -221.15719   -3719.9794 
  633000    255.03649    -4206.381   -3769.2572    -4206.381            0    -1433.498    18.084436    23.859339    22.232244    9592.8287   -740.53032   -1773.2154   -1786.7481   -252.14824   -756.33817    1073.3421   -3969.8058 
  634000       261.44   -4236.0921   -3787.9929   -4236.0921            0    263.28016    18.135215    23.674776    22.046736    9465.7037    981.39685    -107.3505   -84.205868      771.852    75.115397   -114.43236   -3751.6477 
  635000     251.0249   -4230.4486   -3800.2005   -4230.4486            0   -567.11991    18.172864    23.282312    22.490265    9515.7722    -1737.625    256.53887   -220.27363    1144.4222    46.792163   -286.58737   -3878.9042 
  636000    274.83851   -4228.3915   -3757.3277   -4228.3915            0    378.67094    18.322951    23.411432    22.041443    9455.0411   -1498.5424    394.40677    2240.1484    1030.4108   -860.00685    626.24382    -3705.112 
  637000    256.23103   -4228.0571   -3788.8859   -4228.0571            0    264.39829    18.084965    23.604426    22.199465    9476.6232    1716.7094    387.39797   -1310.9126     126.2879   -303.85727    8.9321805   -3752.3442 
  638000    273.38565   -4221.4619   -3752.8883   -4221.4619            0     775.9109    17.936088    23.727792    22.203194    9449.3191    1428.2838   -549.38348    1448.8324    496.67226    492.85508   -226.88731   -3645.9611 
  639000    253.92806   -4243.0444   -3807.8204   -4243.0444            0   -1030.0887    17.975846    23.996373    22.204731    9578.1242    447.07328   -2479.7442   -1057.5951   -625.71502    599.06762    326.39367   -3951.7105 
  640000    259.39324   -4204.0218   -3759.4306   -4204.0218            0   -416.35384    18.215591    23.530497    22.275969    9547.9687   -1164.2639    292.67187   -377.46947    30.273699   -116.85835    -577.1016   -3817.4068 
  641000    257.72224   -4229.2107   -3787.4836   -4229.2107            0    457.76075    18.307715    23.096185    22.362478    9455.7137    683.60089    1638.8019    -949.1205   -557.93723   -1235.4505    830.89843   -3724.3575 
  642000    258.57195   -4220.7641   -3777.5807   -4220.7641            0    1136.4877    18.212941    23.642764      22.0311    9486.6858     -1029.64    1186.6781     3252.425   -51.490855    146.67911    382.51407   -3620.3435 
  643000    267.91103   -4236.5335   -3777.3432   -4236.5335            0    54.682466    18.086467    23.878613     22.04489    9520.7413   -1102.7718   -82.898393    1349.7176     879.5593    166.74403    161.67323   -3769.7505 
  644000    257.87967   -4209.6408   -3767.6439   -4209.6408            0    929.59614    17.983235    23.570753    22.276769    9442.6413    1955.9739    594.55542    238.25915    312.54214    -42.45074    583.58827   -3639.6281 
  645000    270.47769   -4193.9746   -3730.3851   -4193.9746            0   -597.83781    18.224087    23.418826    22.282741    9509.9782   -882.58298    188.24045   -1099.1709    251.11987   -667.59853    81.106175   -3813.3012 
  646000    261.50862   -4225.2875   -3777.0707   -4225.2875            0   -932.50094    18.344928     23.39716    22.177724    9519.1052   -888.74299    -168.0396   -1740.7202    118.91198   -402.26281   -699.39723   -3906.5265 
  647000    247.34019   -4217.1979   -3793.2653   -4217.1979            0    295.52203    18.157884    23.486371      22.1885    9462.5696    59.206768    942.10845   -114.74914   -829.95506   -419.42899    633.87901   -3752.4827 
  648000     256.0028   -4239.1612   -3800.3812   -4239.1612            0     433.0349    18.046641     23.87285    21.929326    9447.6966    469.21775   -1102.0317    1931.9187   -97.690061    30.579823    311.88333   -3740.7155 
  649000    280.62221   -4201.8161   -3720.8392   -4201.8161            0    339.05728    17.960242    23.567206     22.33665    9454.4947    273.54181    362.77617    380.85387    233.37428   -961.96683     -893.373   -3674.0886 
  650000    258.52089   -4214.9102   -3771.8143   -4214.9102            0    129.02503    18.163811    23.573538    22.224374    9516.1502    535.03353   -191.18412    43.225675    685.96424   -457.93817    157.71832   -3753.9078 
  651000    269.81018   -4194.7502   -3732.3048   -4194.7502            0    1398.4124    18.409755    23.351515     21.81248    9377.0906    424.92287    2120.3061    1650.0082    712.59831    77.385173    -180.8477   -3541.0645 
  652000    242.21007   -4208.8641   -3793.7243   -4208.8641            0   -596.99505    18.198991     23.41649    22.377862    9536.4707    356.32991     -325.315        -1822   -190.98753    450.21473    573.84792   -3876.7542 
  653000    260.91529   -4198.2688   -3751.0689   -4198.2688            0   -128.73211    18.109163    23.793657    22.137082    9538.4969   -147.48736   -1280.7399    1042.0309   -141.33544    358.80905   -194.64608   -3768.9768 
  654000    251.47924    -4215.978   -3784.9512    -4215.978            0    919.78051    18.006224    23.733237    22.063786    9428.8706     862.4488    1540.1453     356.7474   -422.46757    832.16807    298.21798   -3658.4718 
  655000    270.33328   -4226.9606   -3763.6186   -4226.9606            0   -1191.3094    18.001386    23.594154    22.462715    9540.5326    429.47262   -889.81362   -3113.5871    27.556829   -257.91222    619.54958    -3929.376 
  656000    254.21269   -4249.5901   -3813.8782   -4249.5901            0       398.67    18.299591    23.448656    22.059166    9465.6061   -61.113374   -113.72792    1370.8513    290.29779    482.74562   -611.76251   -3758.8434 
  657000    267.28218   -4234.2056   -3776.0931   -4234.2056            0   -648.18432    18.360859    23.450222    22.107504    9518.7441   -1876.1587    702.15296   -770.54726    239.07702    689.17505    1115.3975   -3866.0748 
  658000    270.18843   -4242.2332   -3779.1395   -4242.2332            0    1050.3832    18.090285    23.434378    22.318695    9461.6662    1533.6087    1885.4267   -267.88581   -3.1590058   -358.51402    82.827417   -3634.1985 
  659000    256.64564   -4203.3242   -3763.4423   -4203.3242            0    1472.3988     18.13344    23.652972     22.01212    9441.2131    471.97301    1236.0307    2709.1926    406.29841    47.684504    -40.19173   -3560.7071 
  660000    280.12888   -4211.5105   -3731.3792   -4211.5105            0    929.76601    18.099316    23.737766    22.034517     9466.851    2484.8248   -327.30886    631.78212   -536.78686   -450.13515    596.25039   -3603.0117 
  661000    256.48696   -4232.5634   -3792.9535   -4232.5634            0    265.61772    18.063392    23.320862    22.493082    9475.2983    500.09583    2507.4605   -2210.7031   -248.40396    172.01377   -358.68874   -3756.2484 
  662000    247.18653   -4191.4588   -3767.7895   -4191.4588            0    167.04248    18.335995    23.569516    22.005389    9510.0806   -1361.5269    2385.0524   -522.39814    -195.6043    502.18471    200.29309   -3744.6216 
  663000    272.20496   -4231.4886   -3764.9386   -4231.4886            0    412.61051    18.094592    23.486629    22.267517    9463.2711    439.71471    -897.8983    1696.0151    1067.4841    -502.5705   -226.09477   -3707.9934 
  664000    267.61654   -4228.7768   -3770.0912   -4228.7768            0    178.13575    18.069366    23.566068    22.273046    9484.3955   -1004.1196    866.68501    671.84186     116.7337   -262.55732    28.498319   -3745.4515 
  665000    265.84407   -4216.1969   -3760.5493   -4216.1969            0    867.06442    18.029743    23.786071     21.97535    9424.2773    1583.4235    240.64467    777.12512     139.7985    860.55904    537.44624    -3641.377 
  666000    263.91028   -4194.8391   -3742.5059   -4194.8391            0    1394.2672    17.992962    23.595106    22.156482    9406.4425     2058.011    509.71952    1615.0713    870.91185   -808.42663   -585.86473   -3551.2357 
  667000    257.01836   -4228.2938   -3787.7731   -4228.2938            0    469.55468    18.075679    23.558284    22.119934    9419.3754   -369.41585    610.24535    1167.8345    1354.5933   -341.32775    69.930261   -3723.2695 
  668000    280.49388   -4194.2139    -3713.457   -4194.2139            0    342.43016    18.264274     23.69215    21.821964    9442.7988   -812.69372    681.11579    1158.8684    -719.4239   -641.32177    122.10791   -3666.2998 
  669000    270.90997   -4192.3129   -3727.9825   -4192.3129            0    158.33885    17.938905    23.426558    22.479424     9446.906    1135.4715    125.84855   -786.30353     44.12563    210.03242    194.63128   -3706.1676 
  670000    263.54482   -4203.2779   -3751.5711   -4203.2779            0    -226.9898    18.059026    23.739451    22.188444    9512.4384    789.78568   -453.51604   -1017.2391   -141.91242   -865.61148     1153.344   -3783.0612 
  671000    258.52349   -4197.8915    -3754.791   -4197.8915            0    711.31652    18.158624    23.546956    22.108108    9452.9916    345.19822   -139.16908    1927.9204    362.95269    211.06239   -855.02024   -3656.7274 
  672000    270.80773   -4232.3638   -3768.2087   -4232.3638            0     1178.834    18.150757     23.33353    22.246779    9421.9834    925.19288    1724.4647     886.8445   -924.22202   -821.74002    29.621318   -3606.2251 
  673000    263.58461   -4222.2982   -3770.5232   -4222.2982            0    346.62315      18.4128    23.253953    22.105196    9464.7904    175.31506   -788.99686    1653.5513     563.8723    336.42373     -264.578   -3722.6774 
  674000    271.03851   -4243.5258   -3778.9751   -4243.5258            0   -940.21905     18.19141    23.581842    22.184623     9516.914   -1444.1982   -550.80895   -825.64995   -517.75856   -233.60273    86.372824   -3909.4723 
  675000    269.75175   -4200.4053   -3738.0601   -4200.4053            0    1525.8651    17.851638    23.543496    22.334514    9386.9718    1723.8322    135.98326      2717.78   -639.35767   -239.97046   -713.96486   -3529.1701 
  676000    262.78038   -4225.8394   -3775.4429   -4225.8394            0    1814.2685    18.173363    23.530309    21.913746    9370.8621    2688.5427    1711.9231    1042.3398   -278.88588    310.11604   -463.45999   -3527.4969 
  677000    279.63297   -4207.5819   -3728.3006   -4207.5819            0    974.04617     18.28496    23.395437    22.046898     9431.324    1229.8934    1945.4698    -253.2247    238.89965   -353.06262    201.97436   -3594.3243 
  678000    266.32746   -4201.0162   -3744.5401   -4201.0162            0   -224.58592    18.128326    23.438272     22.34553    9494.5405    48.195637    141.82605   -863.77945   -444.08358   -15.842186    247.57809   -3775.6381 
  679000     259.8201   -4203.2388   -3757.9161   -4203.2388            0   -1258.5648    18.289309    23.625789    22.054347    9529.6692   -1030.3587   -1914.6267   -830.70903   -431.82554    35.920571    232.02057    -3932.832 
  680000    267.23436   -4223.1218   -3765.0912   -4223.1218            0   -641.95037      18.1407    23.459716    22.322019    9499.7083   -1932.4417   -225.16875    231.75935    1563.2149   -167.46011    523.73416   -3854.0293 
  681000    272.06048   -4216.7276   -3750.4253   -4216.7276            0    1818.6795     18.13069    23.382838    22.150217    9390.5179    893.00807    1890.4587    2672.5716    888.51502   -716.74303    282.62983   -3501.3551 
  682000    275.42638   -4195.4517   -3723.3803   -4195.4517            0     1001.178    18.190093    23.667169    21.964873    9456.0531    -602.4692    831.11695    2774.8861    572.07748    -520.0091     302.3966    -3585.311 
  683000    264.05477   -4232.3413   -3779.7605   -4232.3413            0   -464.51638    17.986587    23.830578    22.312785    9563.9462     230.6124   -762.51377   -861.64777    220.66618     773.9718   -355.40703   -3844.5514 
  684000       261.28   -4226.1632   -3778.3382   -4226.1632            0   -1104.0583     18.16072    23.766891    22.168977    9568.6592   -1328.6293   -625.79554     -1357.75   -430.08351    -46.67928    197.60605   -3932.4085 
  685000    273.13015   -4205.8554   -3737.7197   -4205.8554            0   -106.76569    18.407345    23.471936    22.121001    9557.5116    173.39059   -1160.8189    667.13126    902.31738    458.24259   -252.55111   -3752.6014 
  686000    279.83445   -4217.8524   -3738.2257   -4217.8524            0   -50.589886    18.160591    23.438501    22.341844    9509.9628   -1553.8483     1280.549    121.52959   -653.12919    894.95551   -614.60131   -3745.2422 
  687000    258.43857   -4216.0918   -3773.1369   -4216.0918            0     901.2698    18.146551    23.577819    22.263953     9525.768     553.6883    1387.6522    762.46885     548.6067    703.97085    320.11584   -3647.9293 
  688000    271.55877   -4190.7095   -3725.2671   -4190.7095            0   -318.19883    18.204098    23.722943    22.052468    9523.4637   -122.73771   -1326.3676     494.5088    23.143257    231.93512   -411.81078   -3769.4617 
  689000    247.71322    -4214.052     -3789.48    -4214.052            0    -1630.412    18.228834    23.436814    22.398592    9569.2564   -890.09934    -1434.345   -2566.7915   -240.69671   -158.45245   -115.07302   -4017.0167 
  690000    276.73163   -4187.2401   -3712.9316   -4187.2401            0    330.73571    18.287533    23.368263    22.258015    9511.9157     522.5912    849.67702   -380.06108    -88.40417   -155.83185   -64.221927   -3667.0514 
  691000    275.24236   -4218.6269   -3746.8709   -4218.6269            0    792.85758     18.33174    23.460818    21.960974     9444.923    696.19951    563.98179    1118.3914    8.2224804   -450.02157    -326.4664   -3637.6592 
  692000    273.73435   -4215.2094   -3746.0381   -4215.2094            0    338.88735    18.158681    23.376289    22.289303    9461.4204   -1253.2225    1210.5307    1059.3539    43.709163     211.7791    419.93173   -3699.2767 
  693000    249.96367   -4174.6518   -3746.2226   -4174.6518            0   -320.38529    18.029132    23.838931     22.18099    9533.2838   -83.591651   -1184.4697    306.90552    -78.48035    -47.94921   -641.91978   -3790.7668 
  694000    276.33472   -4204.5528   -3730.9245   -4204.5528            0    1444.6253    17.973534    23.816943    22.079452    9451.6536    1773.0462    1914.8579    645.97198    746.13159    81.555141    171.34828   -3531.7935 
  695000    264.12591   -4218.8528     -3766.15   -4218.8528            0     397.4343    18.059425     23.55989    22.264064    9472.8706    199.90412    898.79307    93.605699    128.39792    539.36574     253.2595   -3711.2436 
  696000    265.76296   -4205.6901   -3750.1815   -4205.6901            0   -164.69736    18.477025    23.104603    22.108365    9438.1567   -1728.1385   -831.61936    2065.6658   -787.47994    213.73453    80.281663   -3772.8514 
  697000    261.46932   -4205.0633   -3756.9138   -4205.0633            0   -23.987067    18.203421    23.370746    22.274183    9476.0503    710.73079    899.95286   -1682.6449    -338.5841    -599.6951   -751.60176   -3760.2288 
  698000    264.79347   -4193.2064   -3739.3594   -4193.2064            0    315.45895    18.114221    23.821269     21.98511     9486.657    840.50823   -1191.6579    1297.5265   -260.98766    -407.3793   -526.76239   -3695.7147 
  699000    271.98113   -4201.4498   -3735.2834   -4201.4498            0   -559.17895    17.987092    23.722214    22.263666    9499.7648   -141.27994   -567.98589   -968.27101    202.61333    231.83353   -265.32229   -3812.7545 
  700000     266.6334   -4220.1048   -3763.1043   -4220.1048            0   -147.46514     18.17416    23.323658    22.403531    9496.5857   -1289.9195    1737.6757   -890.15157   -522.02228   -29.486481    805.29358    -3783.528 
  701000     258.9684   -4198.5819   -3754.7189   -4198.5819            0    367.67187    18.274784    23.516765    22.078704    9488.6276    475.01674    1411.5023   -783.50343   -1173.2734    188.91578   -17.384528   -3703.8398 
  702000    258.81566   -4183.2525   -3739.6513   -4183.2525            0   -276.42179    18.093066      23.5432    22.275174    9488.5264   -1049.8483   -124.70695    345.28989    423.20777    544.56225     368.8073   -3777.9027 
  703000    261.75773   -4230.8064   -3782.1626   -4230.8064            0    1362.4138     17.97963    23.669125    22.127927    9416.8072    2044.2709    1330.7088    712.26183    174.84956   -783.02747   -132.64641   -3595.0562 
  704000    263.66166   -4227.3727   -3775.4657   -4227.3727            0   -1040.4867    18.154768    23.846071    21.952548    9503.6941    194.83792    -2904.552   -411.74596   -213.40831    -506.6071    1161.8069   -3919.6788 
  705000    258.84762   -4237.4174   -3793.7614   -4237.4174            0    1533.4831     18.04295    23.483768    22.203468    9407.9744    2916.9232    577.43027    1106.0958   -30.238362    40.932432    516.88054   -3583.3589 
  706000     262.1662    -4234.068   -3784.7241    -4234.068            0   -450.82899    18.351871    23.376569    22.203323    9525.3093    -1105.493    1244.7079   -1491.7018   -310.98315     137.3843    -222.5462   -3847.3518 
  707000    269.44371   -4219.5606   -3757.7433   -4219.5606            0    648.95346    18.269525    23.417574    22.033083    9426.3686   -950.54802    405.17682    2492.2316   -606.62579   -144.68741    757.68436   -3668.5291 
  708000    259.44145   -4186.6087    -3741.935   -4186.6087            0    377.79651    18.087136    23.653173    22.200223    9497.6586    -586.3734    949.42436    770.33858   -125.70489    164.32052    23.233548    -3689.605 
  709000    265.19137   -4221.1175   -3766.5885   -4221.1175            0     -723.983    17.990176    23.844793    22.281746    9558.2457   -395.13573    -1478.192   -298.62125    24.456389    133.69893   -297.82497   -3867.5097 
  710000    292.27127   -4231.7868   -3730.8438   -4231.7868            0    1193.5716     18.10273    23.673647    22.020669    9437.1257    1168.8013    609.46433    1802.4493    170.81953    288.72768   -96.738458   -3566.5716 
  711000    273.76751   -4241.6721    -3772.444   -4241.6721            0    310.48565    18.085448    23.416722    22.263982    9428.8387    271.12826    636.20413    24.124544    53.323016    -225.8727    -66.26803   -3729.7491 
  712000    263.37033   -4204.5064   -3753.0987   -4204.5064            0    847.16406    18.254211      23.3016    22.266728    9471.2049   -764.83548    2571.8988    734.42884    341.26058    65.545726    1068.1101   -3636.0818 
  713000    283.82389   -4218.8729   -3732.4084   -4218.8729            0   -125.17113    18.351658    23.492459    22.104786    9529.9385    163.67522   -1498.6804    959.49173    36.232104   -803.41254    559.74097   -3749.8053 
  714000    264.57141   -4221.6607   -3768.1943   -4221.6607            0   -1165.6381      18.1192     23.66444     22.23475    9533.8325   -1905.1018    87.667514     -1679.48   -545.98338   -696.90274    1089.4386    -3930.266 
  715000    253.13957   -4249.2038   -3815.3313   -4249.2038            0    100.76406     17.78104    23.985623    22.184441    9461.4275    909.00832   -1277.2085    670.49232     294.7586   -607.25431    1037.1195   -3801.4273 
  716000    260.39636   -4219.0327   -3772.7222   -4219.0327            0    1162.5632    17.992803    23.536303    22.203666    9402.8986    990.25768     1383.606    1113.8259   -493.32371    665.70437    470.16567    -3613.298 
  717000    264.28386   -4239.2272   -3786.2537   -4239.2272            0    174.52062    18.479468    23.062866    22.240757    9478.7769   -1432.8332    1392.5165     563.8786   -502.62835     1237.631    762.06239   -3762.1283 
  718000    281.93975   -4240.5941   -3757.3591   -4240.5941            0   -37.052368    18.175774    23.587998    22.144442    9493.9897    290.17173   -517.19853     115.8697    268.00572    60.305894   -129.04106   -3762.4893 
  719000    268.22831   -4204.1014   -3744.3673   -4204.1014            0    1116.1084    18.053412    23.646935    22.081809     9426.898    1362.4569    616.88342     1368.985   -624.41271   -298.88021   -588.81224   -3590.9229 
  720000    254.32206   -4226.4712   -3790.5719   -4226.4712            0    1037.3005    17.993728    23.555082    22.044866    9343.5787    820.38941    1406.4404    885.07151    963.96654   -58.880024    520.05362   -3649.2226 
  721000    263.15032     -4209.21   -3758.1794     -4209.21            0    818.71199    18.006628    23.455883    22.267857    9405.0823    300.08325    1571.4094    584.64334     667.4112   -147.53571    506.50072    -3645.882 
  722000    270.30366   -4243.0345   -3779.7433   -4243.0345            0    713.03805    18.231427    23.489362    21.944967    9397.8136    226.79666    284.59739    1627.7201   -629.91606   -266.37355    492.66888   -3682.0161 
  723000    264.62223   -4234.3282   -3780.7748   -4234.3282            0    1371.2705    18.231258    23.370896    22.051976    9395.9245   -648.26306    1907.3882    2854.6862   -1343.6561   -343.92677    635.38415   -3592.8697 
  724000    279.95138   -4239.5787   -3759.7516   -4239.5787            0    2356.7327    18.057344     23.47306    22.015074    9331.3338    2686.4888    2157.3013    2226.4081    935.63155   -313.87525    134.73586   -3439.0288 
  725000    257.70496   -4220.6116   -3778.9141   -4220.6116            0   -348.53916    18.158393    23.694806    22.159049    9534.1436    687.51461   -130.47116   -1602.6609   -577.36227    1132.0975    348.93788    -3827.377 
  726000    266.93042   -4210.8358   -3753.3262   -4210.8358            0    261.24055     18.04913    23.455451    22.379778    9474.4898   -752.54226    1919.1159   -382.85195    141.09627   -146.08185    129.09053   -3717.2291 
  727000    283.20493   -4177.9664   -3692.5629   -4177.9664            0   -204.50247    18.301067    23.628729    21.986208    9507.5166   -45.727579   -948.31474     380.5349   -80.206951    134.22852    101.33477   -3720.9186 
  728000    274.53334   -4204.6028   -3734.0621   -4204.6028            0    178.95873    18.220051    23.547583    22.091911    9478.2732    607.62536    437.02054   -507.76971   -235.41767    191.42688     8.075152   -3709.3245 
  729000     277.2865   -4219.8545   -3744.5949   -4219.8545            0   -447.49954    18.044932    23.486495    22.507561    9538.9792   -451.64432   -443.95671    -446.8976   -55.338143   -355.63172   -32.126563   -3806.8494 
  730000    279.23814    -4194.336   -3715.7314    -4194.336            0   -939.25853    18.291508    23.784669    21.836006    9499.9172   -1238.7109   -18.706296   -1560.3584     560.9269   -420.91121   -289.93253   -3845.8624 
  731000    273.54794   -4203.1318     -3734.28   -4203.1318            0    541.43389    18.139804    23.533815    22.201089    9477.6183    170.90544    1629.1109   -175.71466    140.90483   -18.898117    17.784127   -3659.4423 
  732000     265.5904   -4209.2848   -3754.0719   -4209.2848            0    -35.90146    18.116086    23.508339     22.29655    9495.6347     -828.727    348.73113    372.29149   -753.72813   -169.05315   -717.08981   -3759.0437 
  733000    265.13206    -4226.366   -3771.9388    -4226.366            0    424.96986    18.137756     23.83019    21.939866    9482.9842    626.52379   -880.53734    1528.9231    -977.6473    399.71789   -80.002626   -3713.1656 
  734000    263.71825   -4191.5566   -3739.5525   -4191.5566            0   -149.60908     18.07056    23.423852    22.429286    9493.9157    992.83065      -1657.8     216.1421   -20.397419    309.29256   -483.79873   -3760.2672 
  735000    258.57706   -4223.9813   -3780.7891   -4223.9813            0   -153.45992    18.168647    23.497378    22.338502    9536.6541     164.4413   -210.16094   -414.66012   -188.55706   -428.05604    758.51285   -3802.1326 
  736000    260.12949   -4210.1686   -3764.3156   -4210.1686            0    1777.3343    18.471823    23.314845    21.748824    9366.5156    323.05062    2225.3076    2783.6446   -507.97779    223.13056   -373.44197   -3521.5299 
  737000    268.25217   -4221.5737   -3761.7986   -4221.5737            0   -333.46513    18.192196    23.487306    22.224993    9496.4212    -582.5879   -864.43788    446.63039    163.48411   -531.78257   -62.697441   -3807.9821 
  738000    268.71945   -4201.6839   -3741.1079   -4201.6839            0   -282.27477    18.053237    23.611546    22.288193    9500.6734   -39.137311   -67.164018   -740.52299    167.57957   -216.28649    412.18247   -3780.2192 
  739000     258.5174   -4191.3675   -3748.2775   -4191.3675            0    546.65635    18.097939    23.835605    21.817479    9411.5221    25.700145   -303.73371    1918.0026    -810.3744    697.17388    104.39232   -3673.2449 
  740000    265.66589   -4215.6912   -3760.3489   -4215.6912            0    1159.9403    18.007846    23.478613    22.246264    9405.7036    1714.3708    623.20859    1142.2414    822.87784   -563.31802    292.79567    -3601.237 
  741000    262.57694   -4234.2119    -3784.164   -4234.2119            0   -541.34366    18.231778    23.526581    22.170699     9509.709   -700.25323    -497.7607   -426.01706   -576.58777   -360.83062   -836.28612   -3859.2426 
  742000    257.49021   -4202.0952   -3760.7658   -4202.0952            0   -600.46764    18.308543    23.476999    22.211942    9547.3513    77.841402    663.01136   -2542.2557    907.62164    32.027319    33.849394   -3844.3739 
  743000    270.13015    -4189.198   -3726.2042    -4189.198            0    252.67457    18.305635    23.300778    22.348985    9532.6361   -11.716787    1140.4427   -370.70217     -262.715    212.31571   -254.96239   -3691.0764 
  744000    266.86019   -4200.4136   -3743.0244   -4200.4136            0    103.07191    18.115968    23.515563    22.189009    9452.6774     1196.526   -407.92165   -479.38866    -146.3167    83.551228    256.96024   -3728.8151 
  745000    279.86766   -4207.7577   -3728.0741   -4207.7577            0    3010.7996    18.035976    23.620912    21.934585    9344.7082    2833.4032     2727.089    3471.9065     75.34068    -362.5856   -213.16764   -3317.7533 
  746000    264.99958   -4211.3706   -3757.1704   -4211.3706            0    1425.8741    18.024285    23.581097     22.14444    9412.1051    1514.1762    1923.0507    840.39527   -37.054263    654.34267    -279.9266   -3561.4465 
  747000    261.27401   -4213.4545   -3765.6398   -4213.4545            0   -333.46782    18.190314    23.776604    22.035973    9530.6442   -368.69598   -3015.1322    2383.4247   -647.96979    562.17023   -406.76371   -3811.9901 
  748000    276.30083   -4202.5796   -3729.0095   -4202.5796            0    491.27119    18.248906    23.493768    22.184203    9511.1566   -608.82279    2365.8438   -283.20741    580.49716   -441.92684   -123.47546    -3660.865 
  749000    254.56253   -4222.7636   -3786.4521   -4222.7636            0     548.0154    18.158164    23.436219    22.318321     9497.756    43.772332    1716.1025   -115.82861   -624.27832   -405.61092    186.85905   -3710.5438 
  750000    275.03949   -4182.4348   -3711.0266   -4182.4348            0   -445.49529    18.245768    23.878426    21.918012    9549.2444   -1898.0377   -1097.3602     1658.912    857.56406    25.888497    797.73629   -3773.0689 
Loop time of 400.734 on 64 procs for 250000 steps with 864 atoms

Performance: 107.802 ns/day, 0.223 hours/ns, 623.855 timesteps/s
193.8% CPU use with 32 MPI tasks x 2 OpenMP threads

MPI task timing breakdown:
Section |  min time  |  avg time  |  max time  |%varavg| %total
---------------------------------------------------------------
Pair    | 17.146     | 24.851     | 33.44      |  95.0 |  6.20
Bond    | 0.88658    | 1.1107     | 1.5628     |  15.7 |  0.28
Kspace  | 202.28     | 211.23     | 221.6      |  36.6 | 52.71
Neigh   | 1.9004     | 2.0704     | 2.2278     |   6.9 |  0.52
Comm    | 63.237     | 67.362     | 71.021     |  24.4 | 16.81
Output  | 0.55776    | 0.55819    | 0.5604     |   0.1 |  0.14
Modify  | 71.119     | 74.074     | 78.13      |  18.5 | 18.48
Other   |            | 19.47      |            |       |  4.86

Nlocal:        27.0000 ave          40 max          18 min
Histogram: 6 5 4 2 2 4 1 5 2 1
Nghost:        2074.00 ave        2176 max        1972 min
Histogram: 6 7 3 0 0 0 1 3 4 8
Neighs:        6385.22 ave        9379 max        4214 min
Histogram: 4 6 5 1 4 1 3 5 1 2

Total # of neighbors = 204327
Ave neighs/atom = 236.48958
Ave special neighs/atom = 2.0000000
Neighbor list builds = 6807
Dangerous builds = 0

unfix		3
unfix		2
unfix		1

write_data	data.final.${pid} nocoeff
write_data	data.final.0 nocoeff
System init for write_data ...
PPPM initialization ...
  extracting TIP4P info from pair style
  using 12-bit tables for long-range coulomb (../kspace.cpp:340)
  G vector (1/distance) = 0.37104401
  grid = 24 27 25
  stencil order = 5
  estimated absolute RMS force accuracy = 0.0032252626
  estimated relative force accuracy = 9.7127825e-06
  using double precision FFTW3
  3d grid and FFT values/proc = 4410 672
Last active /omp style is kspace_style pppm/tip4p/omp

write_restart   restart.lmp.${pid}
write_restart   restart.lmp.0
System init for write_restart ...
PPPM initialization ...
  extracting TIP4P info from pair style
  using 12-bit tables for long-range coulomb (../kspace.cpp:340)
  G vector (1/distance) = 0.37104401
  grid = 24 27 25
  stencil order = 5
  estimated absolute RMS force accuracy = 0.0032252626
  estimated relative force accuracy = 9.7127825e-06
  using double precision FFTW3
  3d grid and FFT values/proc = 4410 672
Last active /omp style is kspace_style pppm/tip4p/omp
Total wall time: 0:06:41
